# vtk DataFile Version 3.0
vtk output
ASCII
DATASET UNSTRUCTURED_GRID
POINTS      1225 double 
  0.00000000E+00  2.40000000E+01  0.00000000E+00
  0.00000000E+00  2.30000000E+01  0.00000000E+00
  0.00000000E+00  2.20000000E+01  0.00000000E+00
  0.00000000E+00  2.10000000E+01  0.00000000E+00
  0.00000000E+00  2.00000000E+01  0.00000000E+00
  0.00000000E+00  1.90000000E+01  0.00000000E+00
  0.00000000E+00  1.80000000E+01  0.00000000E+00
  0.00000000E+00  1.70000000E+01  0.00000000E+00
  0.00000000E+00  1.60000000E+01  0.00000000E+00
  0.00000000E+00  1.50000000E+01  0.00000000E+00
  0.00000000E+00  1.40000000E+01  0.00000000E+00
  0.00000000E+00  1.30000000E+01  0.00000000E+00
  0.00000000E+00  1.20000000E+01  0.00000000E+00
  0.00000000E+00  1.10000000E+01  0.00000000E+00
  0.00000000E+00  1.00000000E+01  0.00000000E+00
  0.00000000E+00  9.00000000E+00  0.00000000E+00
  0.00000000E+00  8.00000000E+00  0.00000000E+00
  0.00000000E+00  7.00000000E+00  0.00000000E+00
  0.00000000E+00  6.00000000E+00  0.00000000E+00
  0.00000000E+00  5.00000000E+00  0.00000000E+00
  0.00000000E+00  4.00000000E+00  0.00000000E+00
  0.00000000E+00  3.00000000E+00  0.00000000E+00
  0.00000000E+00  2.00000000E+00  0.00000000E+00
  0.00000000E+00  1.00000000E+00  0.00000000E+00
  0.00000000E+00 -2.66453526E-15  0.00000000E+00
  1.00000000E+00  2.40000000E+01  0.00000000E+00
  1.00000000E+00  2.30000000E+01  0.00000000E+00
  1.00000000E+00  2.20000000E+01  0.00000000E+00
  1.00000000E+00  2.10000000E+01  0.00000000E+00
  1.00000000E+00  2.00000000E+01  0.00000000E+00
  1.00000000E+00  1.90000000E+01  0.00000000E+00
  1.00000000E+00  1.80000000E+01  0.00000000E+00
  1.00000000E+00  1.70000000E+01  0.00000000E+00
  1.00000000E+00  1.60000000E+01  0.00000000E+00
  1.00000000E+00  1.50000000E+01  0.00000000E+00
  1.00000000E+00  1.40000000E+01  0.00000000E+00
  1.00000000E+00  1.30000000E+01  0.00000000E+00
  1.00000000E+00  1.20000000E+01  0.00000000E+00
  1.00000000E+00  1.10000000E+01  0.00000000E+00
  1.00000000E+00  1.00000000E+01  0.00000000E+00
  1.00000000E+00  9.00000000E+00  0.00000000E+00
  1.00000000E+00  8.00000000E+00  0.00000000E+00
  1.00000000E+00  7.00000000E+00  0.00000000E+00
  1.00000000E+00  6.00000000E+00  0.00000000E+00
  1.00000000E+00  5.00000000E+00  0.00000000E+00
  1.00000000E+00  4.00000000E+00  0.00000000E+00
  1.00000000E+00  3.00000000E+00  0.00000000E+00
  1.00000000E+00  2.00000000E+00  0.00000000E+00
  1.00000000E+00  1.00000000E+00  0.00000000E+00
  1.00000000E+00 -2.66453526E-15  0.00000000E+00
  2.00000000E+00  2.40000000E+01  0.00000000E+00
  2.00000000E+00  2.30000000E+01  0.00000000E+00
  2.00000000E+00  2.20000000E+01  0.00000000E+00
  2.00000000E+00  2.10000000E+01  0.00000000E+00
  2.00000000E+00  2.00000000E+01  0.00000000E+00
  2.00000000E+00  1.90000000E+01  0.00000000E+00
  2.00000000E+00  1.80000000E+01  0.00000000E+00
  2.00000000E+00  1.70000000E+01  0.00000000E+00
  2.00000000E+00  1.60000000E+01  0.00000000E+00
  2.00000000E+00  1.50000000E+01  0.00000000E+00
  2.00000000E+00  1.40000000E+01  0.00000000E+00
  2.00000000E+00  1.30000000E+01  0.00000000E+00
  2.00000000E+00  1.20000000E+01  0.00000000E+00
  2.00000000E+00  1.10000000E+01  0.00000000E+00
  2.00000000E+00  1.00000000E+01  0.00000000E+00
  2.00000000E+00  9.00000000E+00  0.00000000E+00
  2.00000000E+00  8.00000000E+00  0.00000000E+00
  2.00000000E+00  7.00000000E+00  0.00000000E+00
  2.00000000E+00  6.00000000E+00  0.00000000E+00
  2.00000000E+00  5.00000000E+00  0.00000000E+00
  2.00000000E+00  4.00000000E+00  0.00000000E+00
  2.00000000E+00  3.00000000E+00  0.00000000E+00
  2.00000000E+00  2.00000000E+00  0.00000000E+00
  2.00000000E+00  1.00000000E+00  0.00000000E+00
  2.00000000E+00 -2.66453526E-15  0.00000000E+00
  3.00000000E+00  2.40000000E+01  0.00000000E+00
  3.00000000E+00  2.30000000E+01  0.00000000E+00
  3.00000000E+00  2.20000000E+01  0.00000000E+00
  3.00000000E+00  2.10000000E+01  0.00000000E+00
  3.00000000E+00  2.00000000E+01  0.00000000E+00
  3.00000000E+00  1.90000000E+01  0.00000000E+00
  3.00000000E+00  1.80000000E+01  0.00000000E+00
  3.00000000E+00  1.70000000E+01  0.00000000E+00
  3.00000000E+00  1.60000000E+01  0.00000000E+00
  3.00000000E+00  1.50000000E+01  0.00000000E+00
  3.00000000E+00  1.40000000E+01  0.00000000E+00
  3.00000000E+00  1.30000000E+01  0.00000000E+00
  3.00000000E+00  1.20000000E+01  0.00000000E+00
  3.00000000E+00  1.10000000E+01  0.00000000E+00
  3.00000000E+00  1.00000000E+01  0.00000000E+00
  3.00000000E+00  9.00000000E+00  0.00000000E+00
  3.00000000E+00  8.00000000E+00  0.00000000E+00
  3.00000000E+00  7.00000000E+00  0.00000000E+00
  3.00000000E+00  6.00000000E+00  0.00000000E+00
  3.00000000E+00  5.00000000E+00  0.00000000E+00
  3.00000000E+00  4.00000000E+00  0.00000000E+00
  3.00000000E+00  3.00000000E+00  0.00000000E+00
  3.00000000E+00  2.00000000E+00  0.00000000E+00
  3.00000000E+00  1.00000000E+00  0.00000000E+00
  3.00000000E+00 -2.66453526E-15  0.00000000E+00
  4.00000000E+00  2.40000000E+01  0.00000000E+00
  4.00000000E+00  2.30000000E+01  0.00000000E+00
  4.00000000E+00  2.20000000E+01  0.00000000E+00
  4.00000000E+00  2.10000000E+01  0.00000000E+00
  4.00000000E+00  2.00000000E+01  0.00000000E+00
  4.00000000E+00  1.90000000E+01  0.00000000E+00
  4.00000000E+00  1.80000000E+01  0.00000000E+00
  4.00000000E+00  1.70000000E+01  0.00000000E+00
  4.00000000E+00  1.60000000E+01  0.00000000E+00
  4.00000000E+00  1.50000000E+01  0.00000000E+00
  4.00000000E+00  1.40000000E+01  0.00000000E+00
  4.00000000E+00  1.30000000E+01  0.00000000E+00
  4.00000000E+00  1.20000000E+01  0.00000000E+00
  4.00000000E+00  1.10000000E+01  0.00000000E+00
  4.00000000E+00  1.00000000E+01  0.00000000E+00
  4.00000000E+00  9.00000000E+00  0.00000000E+00
  4.00000000E+00  8.00000000E+00  0.00000000E+00
  4.00000000E+00  7.00000000E+00  0.00000000E+00
  4.00000000E+00  6.00000000E+00  0.00000000E+00
  4.00000000E+00  5.00000000E+00  0.00000000E+00
  4.00000000E+00  4.00000000E+00  0.00000000E+00
  4.00000000E+00  3.00000000E+00  0.00000000E+00
  4.00000000E+00  2.00000000E+00  0.00000000E+00
  4.00000000E+00  1.00000000E+00  0.00000000E+00
  4.00000000E+00 -2.66453526E-15  0.00000000E+00
  5.00000000E+00  2.40000000E+01  0.00000000E+00
  5.00000000E+00  2.30000000E+01  0.00000000E+00
  5.00000000E+00  2.20000000E+01  0.00000000E+00
  5.00000000E+00  2.10000000E+01  0.00000000E+00
  5.00000000E+00  2.00000000E+01  0.00000000E+00
  5.00000000E+00  1.90000000E+01  0.00000000E+00
  5.00000000E+00  1.80000000E+01  0.00000000E+00
  5.00000000E+00  1.70000000E+01  0.00000000E+00
  5.00000000E+00  1.60000000E+01  0.00000000E+00
  5.00000000E+00  1.50000000E+01  0.00000000E+00
  5.00000000E+00  1.40000000E+01  0.00000000E+00
  5.00000000E+00  1.30000000E+01  0.00000000E+00
  5.00000000E+00  1.20000000E+01  0.00000000E+00
  5.00000000E+00  1.10000000E+01  0.00000000E+00
  5.00000000E+00  1.00000000E+01  0.00000000E+00
  5.00000000E+00  9.00000000E+00  0.00000000E+00
  5.00000000E+00  8.00000000E+00  0.00000000E+00
  5.00000000E+00  7.00000000E+00  0.00000000E+00
  5.00000000E+00  6.00000000E+00  0.00000000E+00
  5.00000000E+00  5.00000000E+00  0.00000000E+00
  5.00000000E+00  4.00000000E+00  0.00000000E+00
  5.00000000E+00  3.00000000E+00  0.00000000E+00
  5.00000000E+00  2.00000000E+00  0.00000000E+00
  5.00000000E+00  1.00000000E+00  0.00000000E+00
  5.00000000E+00 -2.66453526E-15  0.00000000E+00
  6.00000000E+00  2.40000000E+01  0.00000000E+00
  6.00000000E+00  2.30000000E+01  0.00000000E+00
  6.00000000E+00  2.20000000E+01  0.00000000E+00
  6.00000000E+00  2.10000000E+01  0.00000000E+00
  6.00000000E+00  2.00000000E+01  0.00000000E+00
  6.00000000E+00  1.90000000E+01  0.00000000E+00
  6.00000000E+00  1.80000000E+01  0.00000000E+00
  6.00000000E+00  1.70000000E+01  0.00000000E+00
  6.00000000E+00  1.60000000E+01  0.00000000E+00
  6.00000000E+00  1.50000000E+01  0.00000000E+00
  6.00000000E+00  1.40000000E+01  0.00000000E+00
  6.00000000E+00  1.30000000E+01  0.00000000E+00
  6.00000000E+00  1.20000000E+01  0.00000000E+00
  6.00000000E+00  1.10000000E+01  0.00000000E+00
  6.00000000E+00  1.00000000E+01  0.00000000E+00
  6.00000000E+00  9.00000000E+00  0.00000000E+00
  6.00000000E+00  8.00000000E+00  0.00000000E+00
  6.00000000E+00  7.00000000E+00  0.00000000E+00
  6.00000000E+00  6.00000000E+00  0.00000000E+00
  6.00000000E+00  5.00000000E+00  0.00000000E+00
  6.00000000E+00  4.00000000E+00  0.00000000E+00
  6.00000000E+00  3.00000000E+00  0.00000000E+00
  6.00000000E+00  2.00000000E+00  0.00000000E+00
  6.00000000E+00  1.00000000E+00  0.00000000E+00
  6.00000000E+00 -2.66453526E-15  0.00000000E+00
  7.00000000E+00  2.40000000E+01  0.00000000E+00
  7.00000000E+00  2.30000000E+01  0.00000000E+00
  7.00000000E+00  2.20000000E+01  0.00000000E+00
  7.00000000E+00  2.10000000E+01  0.00000000E+00
  7.00000000E+00  2.00000000E+01  0.00000000E+00
  7.00000000E+00  1.90000000E+01  0.00000000E+00
  7.00000000E+00  1.80000000E+01  0.00000000E+00
  7.00000000E+00  1.70000000E+01  0.00000000E+00
  7.00000000E+00  1.60000000E+01  0.00000000E+00
  7.00000000E+00  1.50000000E+01  0.00000000E+00
  7.00000000E+00  1.40000000E+01  0.00000000E+00
  7.00000000E+00  1.30000000E+01  0.00000000E+00
  7.00000000E+00  1.20000000E+01  0.00000000E+00
  7.00000000E+00  1.10000000E+01  0.00000000E+00
  7.00000000E+00  1.00000000E+01  0.00000000E+00
  7.00000000E+00  9.00000000E+00  0.00000000E+00
  7.00000000E+00  8.00000000E+00  0.00000000E+00
  7.00000000E+00  7.00000000E+00  0.00000000E+00
  7.00000000E+00  6.00000000E+00  0.00000000E+00
  7.00000000E+00  5.00000000E+00  0.00000000E+00
  7.00000000E+00  4.00000000E+00  0.00000000E+00
  7.00000000E+00  3.00000000E+00  0.00000000E+00
  7.00000000E+00  2.00000000E+00  0.00000000E+00
  7.00000000E+00  1.00000000E+00  0.00000000E+00
  7.00000000E+00 -2.66453526E-15  0.00000000E+00
  8.00000000E+00  2.40000000E+01  0.00000000E+00
  8.00000000E+00  2.30000000E+01  0.00000000E+00
  8.00000000E+00  2.20000000E+01  0.00000000E+00
  8.00000000E+00  2.10000000E+01  0.00000000E+00
  8.00000000E+00  2.00000000E+01  0.00000000E+00
  8.00000000E+00  1.90000000E+01  0.00000000E+00
  8.00000000E+00  1.80000000E+01  0.00000000E+00
  8.00000000E+00  1.70000000E+01  0.00000000E+00
  8.00000000E+00  1.60000000E+01  0.00000000E+00
  8.00000000E+00  1.50000000E+01  0.00000000E+00
  8.00000000E+00  1.40000000E+01  0.00000000E+00
  8.00000000E+00  1.30000000E+01  0.00000000E+00
  8.00000000E+00  1.20000000E+01  0.00000000E+00
  8.00000000E+00  1.10000000E+01  0.00000000E+00
  8.00000000E+00  1.00000000E+01  0.00000000E+00
  8.00000000E+00  9.00000000E+00  0.00000000E+00
  8.00000000E+00  8.00000000E+00  0.00000000E+00
  8.00000000E+00  7.00000000E+00  0.00000000E+00
  8.00000000E+00  6.00000000E+00  0.00000000E+00
  8.00000000E+00  5.00000000E+00  0.00000000E+00
  8.00000000E+00  4.00000000E+00  0.00000000E+00
  8.00000000E+00  3.00000000E+00  0.00000000E+00
  8.00000000E+00  2.00000000E+00  0.00000000E+00
  8.00000000E+00  1.00000000E+00  0.00000000E+00
  8.00000000E+00 -2.66453526E-15  0.00000000E+00
  9.00000000E+00  2.40000000E+01  0.00000000E+00
  9.00000000E+00  2.30000000E+01  0.00000000E+00
  9.00000000E+00  2.20000000E+01  0.00000000E+00
  9.00000000E+00  2.10000000E+01  0.00000000E+00
  9.00000000E+00  2.00000000E+01  0.00000000E+00
  9.00000000E+00  1.90000000E+01  0.00000000E+00
  9.00000000E+00  1.80000000E+01  0.00000000E+00
  9.00000000E+00  1.70000000E+01  0.00000000E+00
  9.00000000E+00  1.60000000E+01  0.00000000E+00
  9.00000000E+00  1.50000000E+01  0.00000000E+00
  9.00000000E+00  1.40000000E+01  0.00000000E+00
  9.00000000E+00  1.30000000E+01  0.00000000E+00
  9.00000000E+00  1.20000000E+01  0.00000000E+00
  9.00000000E+00  1.10000000E+01  0.00000000E+00
  9.00000000E+00  1.00000000E+01  0.00000000E+00
  9.00000000E+00  9.00000000E+00  0.00000000E+00
  9.00000000E+00  8.00000000E+00  0.00000000E+00
  9.00000000E+00  7.00000000E+00  0.00000000E+00
  9.00000000E+00  6.00000000E+00  0.00000000E+00
  9.00000000E+00  5.00000000E+00  0.00000000E+00
  9.00000000E+00  4.00000000E+00  0.00000000E+00
  9.00000000E+00  3.00000000E+00  0.00000000E+00
  9.00000000E+00  2.00000000E+00  0.00000000E+00
  9.00000000E+00  1.00000000E+00  0.00000000E+00
  9.00000000E+00 -2.66453526E-15  0.00000000E+00
  1.00000000E+01  2.40000000E+01  0.00000000E+00
  1.00000000E+01  2.30000000E+01  0.00000000E+00
  1.00000000E+01  2.20000000E+01  0.00000000E+00
  1.00000000E+01  2.10000000E+01  0.00000000E+00
  1.00000000E+01  2.00000000E+01  0.00000000E+00
  1.00000000E+01  1.90000000E+01  0.00000000E+00
  1.00000000E+01  1.80000000E+01  0.00000000E+00
  1.00000000E+01  1.70000000E+01  0.00000000E+00
  1.00000000E+01  1.60000000E+01  0.00000000E+00
  1.00000000E+01  1.50000000E+01  0.00000000E+00
  1.00000000E+01  1.40000000E+01  0.00000000E+00
  1.00000000E+01  1.30000000E+01  0.00000000E+00
  1.00000000E+01  1.20000000E+01  0.00000000E+00
  1.00000000E+01  1.10000000E+01  0.00000000E+00
  1.00000000E+01  1.00000000E+01  0.00000000E+00
  1.00000000E+01  9.00000000E+00  0.00000000E+00
  1.00000000E+01  8.00000000E+00  0.00000000E+00
  1.00000000E+01  7.00000000E+00  0.00000000E+00
  1.00000000E+01  6.00000000E+00  0.00000000E+00
  1.00000000E+01  5.00000000E+00  0.00000000E+00
  1.00000000E+01  4.00000000E+00  0.00000000E+00
  1.00000000E+01  3.00000000E+00  0.00000000E+00
  1.00000000E+01  2.00000000E+00  0.00000000E+00
  1.00000000E+01  1.00000000E+00  0.00000000E+00
  1.00000000E+01 -2.66453526E-15  0.00000000E+00
  1.10000000E+01  2.40000000E+01  0.00000000E+00
  1.10000000E+01  2.30000000E+01  0.00000000E+00
  1.10000000E+01  2.20000000E+01  0.00000000E+00
  1.10000000E+01  2.10000000E+01  0.00000000E+00
  1.10000000E+01  2.00000000E+01  0.00000000E+00
  1.10000000E+01  1.90000000E+01  0.00000000E+00
  1.10000000E+01  1.80000000E+01  0.00000000E+00
  1.10000000E+01  1.70000000E+01  0.00000000E+00
  1.10000000E+01  1.60000000E+01  0.00000000E+00
  1.10000000E+01  1.50000000E+01  0.00000000E+00
  1.10000000E+01  1.40000000E+01  0.00000000E+00
  1.10000000E+01  1.30000000E+01  0.00000000E+00
  1.10000000E+01  1.20000000E+01  0.00000000E+00
  1.10000000E+01  1.10000000E+01  0.00000000E+00
  1.10000000E+01  1.00000000E+01  0.00000000E+00
  1.10000000E+01  9.00000000E+00  0.00000000E+00
  1.10000000E+01  8.00000000E+00  0.00000000E+00
  1.10000000E+01  7.00000000E+00  0.00000000E+00
  1.10000000E+01  6.00000000E+00  0.00000000E+00
  1.10000000E+01  5.00000000E+00  0.00000000E+00
  1.10000000E+01  4.00000000E+00  0.00000000E+00
  1.10000000E+01  3.00000000E+00  0.00000000E+00
  1.10000000E+01  2.00000000E+00  0.00000000E+00
  1.10000000E+01  1.00000000E+00  0.00000000E+00
  1.10000000E+01 -2.66453526E-15  0.00000000E+00
  1.20000000E+01  2.40000000E+01  0.00000000E+00
  1.20000000E+01  2.30000000E+01  0.00000000E+00
  1.20000000E+01  2.20000000E+01  0.00000000E+00
  1.20000000E+01  2.10000000E+01  0.00000000E+00
  1.20000000E+01  2.00000000E+01  0.00000000E+00
  1.20000000E+01  1.90000000E+01  0.00000000E+00
  1.20000000E+01  1.80000000E+01  0.00000000E+00
  1.20000000E+01  1.70000000E+01  0.00000000E+00
  1.20000000E+01  1.60000000E+01  0.00000000E+00
  1.20000000E+01  1.50000000E+01  0.00000000E+00
  1.20000000E+01  1.40000000E+01  0.00000000E+00
  1.20000000E+01  1.30000000E+01  0.00000000E+00
  1.20000000E+01  1.20000000E+01  0.00000000E+00
  1.20000000E+01  1.10000000E+01  0.00000000E+00
  1.20000000E+01  1.00000000E+01  0.00000000E+00
  1.20000000E+01  9.00000000E+00  0.00000000E+00
  1.20000000E+01  8.00000000E+00  0.00000000E+00
  1.20000000E+01  7.00000000E+00  0.00000000E+00
  1.20000000E+01  6.00000000E+00  0.00000000E+00
  1.20000000E+01  5.00000000E+00  0.00000000E+00
  1.20000000E+01  4.00000000E+00  0.00000000E+00
  1.20000000E+01  3.00000000E+00  0.00000000E+00
  1.20000000E+01  2.00000000E+00  0.00000000E+00
  1.20000000E+01  1.00000000E+00  0.00000000E+00
  1.20000000E+01 -2.66453526E-15  0.00000000E+00
  1.30000000E+01  2.40000000E+01  0.00000000E+00
  1.30000000E+01  2.30000000E+01  0.00000000E+00
  1.30000000E+01  2.20000000E+01  0.00000000E+00
  1.30000000E+01  2.10000000E+01  0.00000000E+00
  1.30000000E+01  2.00000000E+01  0.00000000E+00
  1.30000000E+01  1.90000000E+01  0.00000000E+00
  1.30000000E+01  1.80000000E+01  0.00000000E+00
  1.30000000E+01  1.70000000E+01  0.00000000E+00
  1.30000000E+01  1.60000000E+01  0.00000000E+00
  1.30000000E+01  1.50000000E+01  0.00000000E+00
  1.30000000E+01  1.40000000E+01  0.00000000E+00
  1.30000000E+01  1.30000000E+01  0.00000000E+00
  1.30000000E+01  1.20000000E+01  0.00000000E+00
  1.30000000E+01  1.10000000E+01  0.00000000E+00
  1.30000000E+01  1.00000000E+01  0.00000000E+00
  1.30000000E+01  9.00000000E+00  0.00000000E+00
  1.30000000E+01  8.00000000E+00  0.00000000E+00
  1.30000000E+01  7.00000000E+00  0.00000000E+00
  1.30000000E+01  6.00000000E+00  0.00000000E+00
  1.30000000E+01  5.00000000E+00  0.00000000E+00
  1.30000000E+01  4.00000000E+00  0.00000000E+00
  1.30000000E+01  3.00000000E+00  0.00000000E+00
  1.30000000E+01  2.00000000E+00  0.00000000E+00
  1.30000000E+01  1.00000000E+00  0.00000000E+00
  1.30000000E+01 -2.66453526E-15  0.00000000E+00
  1.40000000E+01  2.40000000E+01  0.00000000E+00
  1.40000000E+01  2.30000000E+01  0.00000000E+00
  1.40000000E+01  2.20000000E+01  0.00000000E+00
  1.40000000E+01  2.10000000E+01  0.00000000E+00
  1.40000000E+01  2.00000000E+01  0.00000000E+00
  1.40000000E+01  1.90000000E+01  0.00000000E+00
  1.40000000E+01  1.80000000E+01  0.00000000E+00
  1.40000000E+01  1.70000000E+01  0.00000000E+00
  1.40000000E+01  1.60000000E+01  0.00000000E+00
  1.40000000E+01  1.50000000E+01  0.00000000E+00
  1.40000000E+01  1.40000000E+01  0.00000000E+00
  1.40000000E+01  1.30000000E+01  0.00000000E+00
  1.40000000E+01  1.20000000E+01  0.00000000E+00
  1.40000000E+01  1.10000000E+01  0.00000000E+00
  1.40000000E+01  1.00000000E+01  0.00000000E+00
  1.40000000E+01  9.00000000E+00  0.00000000E+00
  1.40000000E+01  8.00000000E+00  0.00000000E+00
  1.40000000E+01  7.00000000E+00  0.00000000E+00
  1.40000000E+01  6.00000000E+00  0.00000000E+00
  1.40000000E+01  5.00000000E+00  0.00000000E+00
  1.40000000E+01  4.00000000E+00  0.00000000E+00
  1.40000000E+01  3.00000000E+00  0.00000000E+00
  1.40000000E+01  2.00000000E+00  0.00000000E+00
  1.40000000E+01  1.00000000E+00  0.00000000E+00
  1.40000000E+01 -2.66453526E-15  0.00000000E+00
  1.50000000E+01  2.40000000E+01  0.00000000E+00
  1.50000000E+01  2.30000000E+01  0.00000000E+00
  1.50000000E+01  2.20000000E+01  0.00000000E+00
  1.50000000E+01  2.10000000E+01  0.00000000E+00
  1.50000000E+01  2.00000000E+01  0.00000000E+00
  1.50000000E+01  1.90000000E+01  0.00000000E+00
  1.50000000E+01  1.80000000E+01  0.00000000E+00
  1.50000000E+01  1.70000000E+01  0.00000000E+00
  1.50000000E+01  1.60000000E+01  0.00000000E+00
  1.50000000E+01  1.50000000E+01  0.00000000E+00
  1.50000000E+01  1.40000000E+01  0.00000000E+00
  1.50000000E+01  1.30000000E+01  0.00000000E+00
  1.50000000E+01  1.20000000E+01  0.00000000E+00
  1.50000000E+01  1.10000000E+01  0.00000000E+00
  1.50000000E+01  1.00000000E+01  0.00000000E+00
  1.50000000E+01  9.00000000E+00  0.00000000E+00
  1.50000000E+01  8.00000000E+00  0.00000000E+00
  1.50000000E+01  7.00000000E+00  0.00000000E+00
  1.50000000E+01  6.00000000E+00  0.00000000E+00
  1.50000000E+01  5.00000000E+00  0.00000000E+00
  1.50000000E+01  4.00000000E+00  0.00000000E+00
  1.50000000E+01  3.00000000E+00  0.00000000E+00
  1.50000000E+01  2.00000000E+00  0.00000000E+00
  1.50000000E+01  1.00000000E+00  0.00000000E+00
  1.50000000E+01 -2.66453526E-15  0.00000000E+00
  1.60000000E+01  2.40000000E+01  0.00000000E+00
  1.60000000E+01  2.30000000E+01  0.00000000E+00
  1.60000000E+01  2.20000000E+01  0.00000000E+00
  1.60000000E+01  2.10000000E+01  0.00000000E+00
  1.60000000E+01  2.00000000E+01  0.00000000E+00
  1.60000000E+01  1.90000000E+01  0.00000000E+00
  1.60000000E+01  1.80000000E+01  0.00000000E+00
  1.60000000E+01  1.70000000E+01  0.00000000E+00
  1.60000000E+01  1.60000000E+01  0.00000000E+00
  1.60000000E+01  1.50000000E+01  0.00000000E+00
  1.60000000E+01  1.40000000E+01  0.00000000E+00
  1.60000000E+01  1.30000000E+01  0.00000000E+00
  1.60000000E+01  1.20000000E+01  0.00000000E+00
  1.60000000E+01  1.10000000E+01  0.00000000E+00
  1.60000000E+01  1.00000000E+01  0.00000000E+00
  1.60000000E+01  9.00000000E+00  0.00000000E+00
  1.60000000E+01  8.00000000E+00  0.00000000E+00
  1.60000000E+01  7.00000000E+00  0.00000000E+00
  1.60000000E+01  6.00000000E+00  0.00000000E+00
  1.60000000E+01  5.00000000E+00  0.00000000E+00
  1.60000000E+01  4.00000000E+00  0.00000000E+00
  1.60000000E+01  3.00000000E+00  0.00000000E+00
  1.60000000E+01  2.00000000E+00  0.00000000E+00
  1.60000000E+01  1.00000000E+00  0.00000000E+00
  1.60000000E+01 -2.66453526E-15  0.00000000E+00
  1.70000000E+01  2.40000000E+01  0.00000000E+00
  1.70000000E+01  2.30000000E+01  0.00000000E+00
  1.70000000E+01  2.20000000E+01  0.00000000E+00
  1.70000000E+01  2.10000000E+01  0.00000000E+00
  1.70000000E+01  2.00000000E+01  0.00000000E+00
  1.70000000E+01  1.90000000E+01  0.00000000E+00
  1.70000000E+01  1.80000000E+01  0.00000000E+00
  1.70000000E+01  1.70000000E+01  0.00000000E+00
  1.70000000E+01  1.60000000E+01  0.00000000E+00
  1.70000000E+01  1.50000000E+01  0.00000000E+00
  1.70000000E+01  1.40000000E+01  0.00000000E+00
  1.70000000E+01  1.30000000E+01  0.00000000E+00
  1.70000000E+01  1.20000000E+01  0.00000000E+00
  1.70000000E+01  1.10000000E+01  0.00000000E+00
  1.70000000E+01  1.00000000E+01  0.00000000E+00
  1.70000000E+01  9.00000000E+00  0.00000000E+00
  1.70000000E+01  8.00000000E+00  0.00000000E+00
  1.70000000E+01  7.00000000E+00  0.00000000E+00
  1.70000000E+01  6.00000000E+00  0.00000000E+00
  1.70000000E+01  5.00000000E+00  0.00000000E+00
  1.70000000E+01  4.00000000E+00  0.00000000E+00
  1.70000000E+01  3.00000000E+00  0.00000000E+00
  1.70000000E+01  2.00000000E+00  0.00000000E+00
  1.70000000E+01  1.00000000E+00  0.00000000E+00
  1.70000000E+01 -2.66453526E-15  0.00000000E+00
  1.80000000E+01  2.40000000E+01  0.00000000E+00
  1.80000000E+01  2.30000000E+01  0.00000000E+00
  1.80000000E+01  2.20000000E+01  0.00000000E+00
  1.80000000E+01  2.10000000E+01  0.00000000E+00
  1.80000000E+01  2.00000000E+01  0.00000000E+00
  1.80000000E+01  1.90000000E+01  0.00000000E+00
  1.80000000E+01  1.80000000E+01  0.00000000E+00
  1.80000000E+01  1.70000000E+01  0.00000000E+00
  1.80000000E+01  1.60000000E+01  0.00000000E+00
  1.80000000E+01  1.50000000E+01  0.00000000E+00
  1.80000000E+01  1.40000000E+01  0.00000000E+00
  1.80000000E+01  1.30000000E+01  0.00000000E+00
  1.80000000E+01  1.20000000E+01  0.00000000E+00
  1.80000000E+01  1.10000000E+01  0.00000000E+00
  1.80000000E+01  1.00000000E+01  0.00000000E+00
  1.80000000E+01  9.00000000E+00  0.00000000E+00
  1.80000000E+01  8.00000000E+00  0.00000000E+00
  1.80000000E+01  7.00000000E+00  0.00000000E+00
  1.80000000E+01  6.00000000E+00  0.00000000E+00
  1.80000000E+01  5.00000000E+00  0.00000000E+00
  1.80000000E+01  4.00000000E+00  0.00000000E+00
  1.80000000E+01  3.00000000E+00  0.00000000E+00
  1.80000000E+01  2.00000000E+00  0.00000000E+00
  1.80000000E+01  1.00000000E+00  0.00000000E+00
  1.80000000E+01 -2.66453526E-15  0.00000000E+00
  1.90000000E+01  2.40000000E+01  0.00000000E+00
  1.90000000E+01  2.30000000E+01  0.00000000E+00
  1.90000000E+01  2.20000000E+01  0.00000000E+00
  1.90000000E+01  2.10000000E+01  0.00000000E+00
  1.90000000E+01  2.00000000E+01  0.00000000E+00
  1.90000000E+01  1.90000000E+01  0.00000000E+00
  1.90000000E+01  1.80000000E+01  0.00000000E+00
  1.90000000E+01  1.70000000E+01  0.00000000E+00
  1.90000000E+01  1.60000000E+01  0.00000000E+00
  1.90000000E+01  1.50000000E+01  0.00000000E+00
  1.90000000E+01  1.40000000E+01  0.00000000E+00
  1.90000000E+01  1.30000000E+01  0.00000000E+00
  1.90000000E+01  1.20000000E+01  0.00000000E+00
  1.90000000E+01  1.10000000E+01  0.00000000E+00
  1.90000000E+01  1.00000000E+01  0.00000000E+00
  1.90000000E+01  9.00000000E+00  0.00000000E+00
  1.90000000E+01  8.00000000E+00  0.00000000E+00
  1.90000000E+01  7.00000000E+00  0.00000000E+00
  1.90000000E+01  6.00000000E+00  0.00000000E+00
  1.90000000E+01  5.00000000E+00  0.00000000E+00
  1.90000000E+01  4.00000000E+00  0.00000000E+00
  1.90000000E+01  3.00000000E+00  0.00000000E+00
  1.90000000E+01  2.00000000E+00  0.00000000E+00
  1.90000000E+01  1.00000000E+00  0.00000000E+00
  1.90000000E+01 -2.66453526E-15  0.00000000E+00
  2.00000000E+01  2.40000000E+01  0.00000000E+00
  2.00000000E+01  2.30000000E+01  0.00000000E+00
  2.00000000E+01  2.20000000E+01  0.00000000E+00
  2.00000000E+01  2.10000000E+01  0.00000000E+00
  2.00000000E+01  2.00000000E+01  0.00000000E+00
  2.00000000E+01  1.90000000E+01  0.00000000E+00
  2.00000000E+01  1.80000000E+01  0.00000000E+00
  2.00000000E+01  1.70000000E+01  0.00000000E+00
  2.00000000E+01  1.60000000E+01  0.00000000E+00
  2.00000000E+01  1.50000000E+01  0.00000000E+00
  2.00000000E+01  1.40000000E+01  0.00000000E+00
  2.00000000E+01  1.30000000E+01  0.00000000E+00
  2.00000000E+01  1.20000000E+01  0.00000000E+00
  2.00000000E+01  1.10000000E+01  0.00000000E+00
  2.00000000E+01  1.00000000E+01  0.00000000E+00
  2.00000000E+01  9.00000000E+00  0.00000000E+00
  2.00000000E+01  8.00000000E+00  0.00000000E+00
  2.00000000E+01  7.00000000E+00  0.00000000E+00
  2.00000000E+01  6.00000000E+00  0.00000000E+00
  2.00000000E+01  5.00000000E+00  0.00000000E+00
  2.00000000E+01  4.00000000E+00  0.00000000E+00
  2.00000000E+01  3.00000000E+00  0.00000000E+00
  2.00000000E+01  2.00000000E+00  0.00000000E+00
  2.00000000E+01  1.00000000E+00  0.00000000E+00
  2.00000000E+01 -2.66453526E-15  0.00000000E+00
  2.10000000E+01  2.40000000E+01  0.00000000E+00
  2.10000000E+01  2.30000000E+01  0.00000000E+00
  2.10000000E+01  2.20000000E+01  0.00000000E+00
  2.10000000E+01  2.10000000E+01  0.00000000E+00
  2.10000000E+01  2.00000000E+01  0.00000000E+00
  2.10000000E+01  1.90000000E+01  0.00000000E+00
  2.10000000E+01  1.80000000E+01  0.00000000E+00
  2.10000000E+01  1.70000000E+01  0.00000000E+00
  2.10000000E+01  1.60000000E+01  0.00000000E+00
  2.10000000E+01  1.50000000E+01  0.00000000E+00
  2.10000000E+01  1.40000000E+01  0.00000000E+00
  2.10000000E+01  1.30000000E+01  0.00000000E+00
  2.10000000E+01  1.20000000E+01  0.00000000E+00
  2.10000000E+01  1.10000000E+01  0.00000000E+00
  2.10000000E+01  1.00000000E+01  0.00000000E+00
  2.10000000E+01  9.00000000E+00  0.00000000E+00
  2.10000000E+01  8.00000000E+00  0.00000000E+00
  2.10000000E+01  7.00000000E+00  0.00000000E+00
  2.10000000E+01  6.00000000E+00  0.00000000E+00
  2.10000000E+01  5.00000000E+00  0.00000000E+00
  2.10000000E+01  4.00000000E+00  0.00000000E+00
  2.10000000E+01  3.00000000E+00  0.00000000E+00
  2.10000000E+01  2.00000000E+00  0.00000000E+00
  2.10000000E+01  1.00000000E+00  0.00000000E+00
  2.10000000E+01 -2.66453526E-15  0.00000000E+00
  2.20000000E+01  2.40000000E+01  0.00000000E+00
  2.20000000E+01  2.30000000E+01  0.00000000E+00
  2.20000000E+01  2.20000000E+01  0.00000000E+00
  2.20000000E+01  2.10000000E+01  0.00000000E+00
  2.20000000E+01  2.00000000E+01  0.00000000E+00
  2.20000000E+01  1.90000000E+01  0.00000000E+00
  2.20000000E+01  1.80000000E+01  0.00000000E+00
  2.20000000E+01  1.70000000E+01  0.00000000E+00
  2.20000000E+01  1.60000000E+01  0.00000000E+00
  2.20000000E+01  1.50000000E+01  0.00000000E+00
  2.20000000E+01  1.40000000E+01  0.00000000E+00
  2.20000000E+01  1.30000000E+01  0.00000000E+00
  2.20000000E+01  1.20000000E+01  0.00000000E+00
  2.20000000E+01  1.10000000E+01  0.00000000E+00
  2.20000000E+01  1.00000000E+01  0.00000000E+00
  2.20000000E+01  9.00000000E+00  0.00000000E+00
  2.20000000E+01  8.00000000E+00  0.00000000E+00
  2.20000000E+01  7.00000000E+00  0.00000000E+00
  2.20000000E+01  6.00000000E+00  0.00000000E+00
  2.20000000E+01  5.00000000E+00  0.00000000E+00
  2.20000000E+01  4.00000000E+00  0.00000000E+00
  2.20000000E+01  3.00000000E+00  0.00000000E+00
  2.20000000E+01  2.00000000E+00  0.00000000E+00
  2.20000000E+01  1.00000000E+00  0.00000000E+00
  2.20000000E+01 -2.66453526E-15  0.00000000E+00
  2.30000000E+01  2.40000000E+01  0.00000000E+00
  2.30000000E+01  2.30000000E+01  0.00000000E+00
  2.30000000E+01  2.20000000E+01  0.00000000E+00
  2.30000000E+01  2.10000000E+01  0.00000000E+00
  2.30000000E+01  2.00000000E+01  0.00000000E+00
  2.30000000E+01  1.90000000E+01  0.00000000E+00
  2.30000000E+01  1.80000000E+01  0.00000000E+00
  2.30000000E+01  1.70000000E+01  0.00000000E+00
  2.30000000E+01  1.60000000E+01  0.00000000E+00
  2.30000000E+01  1.50000000E+01  0.00000000E+00
  2.30000000E+01  1.40000000E+01  0.00000000E+00
  2.30000000E+01  1.30000000E+01  0.00000000E+00
  2.30000000E+01  1.20000000E+01  0.00000000E+00
  2.30000000E+01  1.10000000E+01  0.00000000E+00
  2.30000000E+01  1.00000000E+01  0.00000000E+00
  2.30000000E+01  9.00000000E+00  0.00000000E+00
  2.30000000E+01  8.00000000E+00  0.00000000E+00
  2.30000000E+01  7.00000000E+00  0.00000000E+00
  2.30000000E+01  6.00000000E+00  0.00000000E+00
  2.30000000E+01  5.00000000E+00  0.00000000E+00
  2.30000000E+01  4.00000000E+00  0.00000000E+00
  2.30000000E+01  3.00000000E+00  0.00000000E+00
  2.30000000E+01  2.00000000E+00  0.00000000E+00
  2.30000000E+01  1.00000000E+00  0.00000000E+00
  2.30000000E+01 -2.66453526E-15  0.00000000E+00
  2.40000000E+01  2.40000000E+01  0.00000000E+00
  2.40000000E+01  2.30000000E+01  0.00000000E+00
  2.40000000E+01  2.20000000E+01  0.00000000E+00
  2.40000000E+01  2.10000000E+01  0.00000000E+00
  2.40000000E+01  2.00000000E+01  0.00000000E+00
  2.40000000E+01  1.90000000E+01  0.00000000E+00
  2.40000000E+01  1.80000000E+01  0.00000000E+00
  2.40000000E+01  1.70000000E+01  0.00000000E+00
  2.40000000E+01  1.60000000E+01  0.00000000E+00
  2.40000000E+01  1.50000000E+01  0.00000000E+00
  2.40000000E+01  1.40000000E+01  0.00000000E+00
  2.40000000E+01  1.30000000E+01  0.00000000E+00
  2.40000000E+01  1.20000000E+01  0.00000000E+00
  2.40000000E+01  1.10000000E+01  0.00000000E+00
  2.40000000E+01  1.00000000E+01  0.00000000E+00
  2.40000000E+01  9.00000000E+00  0.00000000E+00
  2.40000000E+01  8.00000000E+00  0.00000000E+00
  2.40000000E+01  7.00000000E+00  0.00000000E+00
  2.40000000E+01  6.00000000E+00  0.00000000E+00
  2.40000000E+01  5.00000000E+00  0.00000000E+00
  2.40000000E+01  4.00000000E+00  0.00000000E+00
  2.40000000E+01  3.00000000E+00  0.00000000E+00
  2.40000000E+01  2.00000000E+00  0.00000000E+00
  2.40000000E+01  1.00000000E+00  0.00000000E+00
  2.40000000E+01 -2.66453526E-15  0.00000000E+00
  2.50000000E+01  2.40000000E+01  0.00000000E+00
  2.50000000E+01  2.30000000E+01  0.00000000E+00
  2.50000000E+01  2.20000000E+01  0.00000000E+00
  2.50000000E+01  2.10000000E+01  0.00000000E+00
  2.50000000E+01  2.00000000E+01  0.00000000E+00
  2.50000000E+01  1.90000000E+01  0.00000000E+00
  2.50000000E+01  1.80000000E+01  0.00000000E+00
  2.50000000E+01  1.70000000E+01  0.00000000E+00
  2.50000000E+01  1.60000000E+01  0.00000000E+00
  2.50000000E+01  1.50000000E+01  0.00000000E+00
  2.50000000E+01  1.40000000E+01  0.00000000E+00
  2.50000000E+01  1.30000000E+01  0.00000000E+00
  2.50000000E+01  1.20000000E+01  0.00000000E+00
  2.50000000E+01  1.10000000E+01  0.00000000E+00
  2.50000000E+01  1.00000000E+01  0.00000000E+00
  2.50000000E+01  9.00000000E+00  0.00000000E+00
  2.50000000E+01  8.00000000E+00  0.00000000E+00
  2.50000000E+01  7.00000000E+00  0.00000000E+00
  2.50000000E+01  6.00000000E+00  0.00000000E+00
  2.50000000E+01  5.00000000E+00  0.00000000E+00
  2.50000000E+01  4.00000000E+00  0.00000000E+00
  2.50000000E+01  3.00000000E+00  0.00000000E+00
  2.50000000E+01  2.00000000E+00  0.00000000E+00
  2.50000000E+01  1.00000000E+00  0.00000000E+00
  2.50000000E+01 -2.66453526E-15  0.00000000E+00
  2.60000000E+01  2.40000000E+01  0.00000000E+00
  2.60000000E+01  2.30000000E+01  0.00000000E+00
  2.60000000E+01  2.20000000E+01  0.00000000E+00
  2.60000000E+01  2.10000000E+01  0.00000000E+00
  2.60000000E+01  2.00000000E+01  0.00000000E+00
  2.60000000E+01  1.90000000E+01  0.00000000E+00
  2.60000000E+01  1.80000000E+01  0.00000000E+00
  2.60000000E+01  1.70000000E+01  0.00000000E+00
  2.60000000E+01  1.60000000E+01  0.00000000E+00
  2.60000000E+01  1.50000000E+01  0.00000000E+00
  2.60000000E+01  1.40000000E+01  0.00000000E+00
  2.60000000E+01  1.30000000E+01  0.00000000E+00
  2.60000000E+01  1.20000000E+01  0.00000000E+00
  2.60000000E+01  1.10000000E+01  0.00000000E+00
  2.60000000E+01  1.00000000E+01  0.00000000E+00
  2.60000000E+01  9.00000000E+00  0.00000000E+00
  2.60000000E+01  8.00000000E+00  0.00000000E+00
  2.60000000E+01  7.00000000E+00  0.00000000E+00
  2.60000000E+01  6.00000000E+00  0.00000000E+00
  2.60000000E+01  5.00000000E+00  0.00000000E+00
  2.60000000E+01  4.00000000E+00  0.00000000E+00
  2.60000000E+01  3.00000000E+00  0.00000000E+00
  2.60000000E+01  2.00000000E+00  0.00000000E+00
  2.60000000E+01  1.00000000E+00  0.00000000E+00
  2.60000000E+01 -2.66453526E-15  0.00000000E+00
  2.70000000E+01  2.40000000E+01  0.00000000E+00
  2.70000000E+01  2.30000000E+01  0.00000000E+00
  2.70000000E+01  2.20000000E+01  0.00000000E+00
  2.70000000E+01  2.10000000E+01  0.00000000E+00
  2.70000000E+01  2.00000000E+01  0.00000000E+00
  2.70000000E+01  1.90000000E+01  0.00000000E+00
  2.70000000E+01  1.80000000E+01  0.00000000E+00
  2.70000000E+01  1.70000000E+01  0.00000000E+00
  2.70000000E+01  1.60000000E+01  0.00000000E+00
  2.70000000E+01  1.50000000E+01  0.00000000E+00
  2.70000000E+01  1.40000000E+01  0.00000000E+00
  2.70000000E+01  1.30000000E+01  0.00000000E+00
  2.70000000E+01  1.20000000E+01  0.00000000E+00
  2.70000000E+01  1.10000000E+01  0.00000000E+00
  2.70000000E+01  1.00000000E+01  0.00000000E+00
  2.70000000E+01  9.00000000E+00  0.00000000E+00
  2.70000000E+01  8.00000000E+00  0.00000000E+00
  2.70000000E+01  7.00000000E+00  0.00000000E+00
  2.70000000E+01  6.00000000E+00  0.00000000E+00
  2.70000000E+01  5.00000000E+00  0.00000000E+00
  2.70000000E+01  4.00000000E+00  0.00000000E+00
  2.70000000E+01  3.00000000E+00  0.00000000E+00
  2.70000000E+01  2.00000000E+00  0.00000000E+00
  2.70000000E+01  1.00000000E+00  0.00000000E+00
  2.70000000E+01 -2.66453526E-15  0.00000000E+00
  2.80000000E+01  2.40000000E+01  0.00000000E+00
  2.80000000E+01  2.30000000E+01  0.00000000E+00
  2.80000000E+01  2.20000000E+01  0.00000000E+00
  2.80000000E+01  2.10000000E+01  0.00000000E+00
  2.80000000E+01  2.00000000E+01  0.00000000E+00
  2.80000000E+01  1.90000000E+01  0.00000000E+00
  2.80000000E+01  1.80000000E+01  0.00000000E+00
  2.80000000E+01  1.70000000E+01  0.00000000E+00
  2.80000000E+01  1.60000000E+01  0.00000000E+00
  2.80000000E+01  1.50000000E+01  0.00000000E+00
  2.80000000E+01  1.40000000E+01  0.00000000E+00
  2.80000000E+01  1.30000000E+01  0.00000000E+00
  2.80000000E+01  1.20000000E+01  0.00000000E+00
  2.80000000E+01  1.10000000E+01  0.00000000E+00
  2.80000000E+01  1.00000000E+01  0.00000000E+00
  2.80000000E+01  9.00000000E+00  0.00000000E+00
  2.80000000E+01  8.00000000E+00  0.00000000E+00
  2.80000000E+01  7.00000000E+00  0.00000000E+00
  2.80000000E+01  6.00000000E+00  0.00000000E+00
  2.80000000E+01  5.00000000E+00  0.00000000E+00
  2.80000000E+01  4.00000000E+00  0.00000000E+00
  2.80000000E+01  3.00000000E+00  0.00000000E+00
  2.80000000E+01  2.00000000E+00  0.00000000E+00
  2.80000000E+01  1.00000000E+00  0.00000000E+00
  2.80000000E+01 -2.66453526E-15  0.00000000E+00
  2.90000000E+01  2.40000000E+01  0.00000000E+00
  2.90000000E+01  2.30000000E+01  0.00000000E+00
  2.90000000E+01  2.20000000E+01  0.00000000E+00
  2.90000000E+01  2.10000000E+01  0.00000000E+00
  2.90000000E+01  2.00000000E+01  0.00000000E+00
  2.90000000E+01  1.90000000E+01  0.00000000E+00
  2.90000000E+01  1.80000000E+01  0.00000000E+00
  2.90000000E+01  1.70000000E+01  0.00000000E+00
  2.90000000E+01  1.60000000E+01  0.00000000E+00
  2.90000000E+01  1.50000000E+01  0.00000000E+00
  2.90000000E+01  1.40000000E+01  0.00000000E+00
  2.90000000E+01  1.30000000E+01  0.00000000E+00
  2.90000000E+01  1.20000000E+01  0.00000000E+00
  2.90000000E+01  1.10000000E+01  0.00000000E+00
  2.90000000E+01  1.00000000E+01  0.00000000E+00
  2.90000000E+01  9.00000000E+00  0.00000000E+00
  2.90000000E+01  8.00000000E+00  0.00000000E+00
  2.90000000E+01  7.00000000E+00  0.00000000E+00
  2.90000000E+01  6.00000000E+00  0.00000000E+00
  2.90000000E+01  5.00000000E+00  0.00000000E+00
  2.90000000E+01  4.00000000E+00  0.00000000E+00
  2.90000000E+01  3.00000000E+00  0.00000000E+00
  2.90000000E+01  2.00000000E+00  0.00000000E+00
  2.90000000E+01  1.00000000E+00  0.00000000E+00
  2.90000000E+01 -2.66453526E-15  0.00000000E+00
  3.00000000E+01  2.40000000E+01  0.00000000E+00
  3.00000000E+01  2.30000000E+01  0.00000000E+00
  3.00000000E+01  2.20000000E+01  0.00000000E+00
  3.00000000E+01  2.10000000E+01  0.00000000E+00
  3.00000000E+01  2.00000000E+01  0.00000000E+00
  3.00000000E+01  1.90000000E+01  0.00000000E+00
  3.00000000E+01  1.80000000E+01  0.00000000E+00
  3.00000000E+01  1.70000000E+01  0.00000000E+00
  3.00000000E+01  1.60000000E+01  0.00000000E+00
  3.00000000E+01  1.50000000E+01  0.00000000E+00
  3.00000000E+01  1.40000000E+01  0.00000000E+00
  3.00000000E+01  1.30000000E+01  0.00000000E+00
  3.00000000E+01  1.20000000E+01  0.00000000E+00
  3.00000000E+01  1.10000000E+01  0.00000000E+00
  3.00000000E+01  1.00000000E+01  0.00000000E+00
  3.00000000E+01  9.00000000E+00  0.00000000E+00
  3.00000000E+01  8.00000000E+00  0.00000000E+00
  3.00000000E+01  7.00000000E+00  0.00000000E+00
  3.00000000E+01  6.00000000E+00  0.00000000E+00
  3.00000000E+01  5.00000000E+00  0.00000000E+00
  3.00000000E+01  4.00000000E+00  0.00000000E+00
  3.00000000E+01  3.00000000E+00  0.00000000E+00
  3.00000000E+01  2.00000000E+00  0.00000000E+00
  3.00000000E+01  1.00000000E+00  0.00000000E+00
  3.00000000E+01 -2.66453526E-15  0.00000000E+00
  3.10000000E+01  2.40000000E+01  0.00000000E+00
  3.10000000E+01  2.30000000E+01  0.00000000E+00
  3.10000000E+01  2.20000000E+01  0.00000000E+00
  3.10000000E+01  2.10000000E+01  0.00000000E+00
  3.10000000E+01  2.00000000E+01  0.00000000E+00
  3.10000000E+01  1.90000000E+01  0.00000000E+00
  3.10000000E+01  1.80000000E+01  0.00000000E+00
  3.10000000E+01  1.70000000E+01  0.00000000E+00
  3.10000000E+01  1.60000000E+01  0.00000000E+00
  3.10000000E+01  1.50000000E+01  0.00000000E+00
  3.10000000E+01  1.40000000E+01  0.00000000E+00
  3.10000000E+01  1.30000000E+01  0.00000000E+00
  3.10000000E+01  1.20000000E+01  0.00000000E+00
  3.10000000E+01  1.10000000E+01  0.00000000E+00
  3.10000000E+01  1.00000000E+01  0.00000000E+00
  3.10000000E+01  9.00000000E+00  0.00000000E+00
  3.10000000E+01  8.00000000E+00  0.00000000E+00
  3.10000000E+01  7.00000000E+00  0.00000000E+00
  3.10000000E+01  6.00000000E+00  0.00000000E+00
  3.10000000E+01  5.00000000E+00  0.00000000E+00
  3.10000000E+01  4.00000000E+00  0.00000000E+00
  3.10000000E+01  3.00000000E+00  0.00000000E+00
  3.10000000E+01  2.00000000E+00  0.00000000E+00
  3.10000000E+01  1.00000000E+00  0.00000000E+00
  3.10000000E+01 -2.66453526E-15  0.00000000E+00
  3.20000000E+01  2.40000000E+01  0.00000000E+00
  3.20000000E+01  2.30000000E+01  0.00000000E+00
  3.20000000E+01  2.20000000E+01  0.00000000E+00
  3.20000000E+01  2.10000000E+01  0.00000000E+00
  3.20000000E+01  2.00000000E+01  0.00000000E+00
  3.20000000E+01  1.90000000E+01  0.00000000E+00
  3.20000000E+01  1.80000000E+01  0.00000000E+00
  3.20000000E+01  1.70000000E+01  0.00000000E+00
  3.20000000E+01  1.60000000E+01  0.00000000E+00
  3.20000000E+01  1.50000000E+01  0.00000000E+00
  3.20000000E+01  1.40000000E+01  0.00000000E+00
  3.20000000E+01  1.30000000E+01  0.00000000E+00
  3.20000000E+01  1.20000000E+01  0.00000000E+00
  3.20000000E+01  1.10000000E+01  0.00000000E+00
  3.20000000E+01  1.00000000E+01  0.00000000E+00
  3.20000000E+01  9.00000000E+00  0.00000000E+00
  3.20000000E+01  8.00000000E+00  0.00000000E+00
  3.20000000E+01  7.00000000E+00  0.00000000E+00
  3.20000000E+01  6.00000000E+00  0.00000000E+00
  3.20000000E+01  5.00000000E+00  0.00000000E+00
  3.20000000E+01  4.00000000E+00  0.00000000E+00
  3.20000000E+01  3.00000000E+00  0.00000000E+00
  3.20000000E+01  2.00000000E+00  0.00000000E+00
  3.20000000E+01  1.00000000E+00  0.00000000E+00
  3.20000000E+01 -2.66453526E-15  0.00000000E+00
  3.30000000E+01  2.40000000E+01  0.00000000E+00
  3.30000000E+01  2.30000000E+01  0.00000000E+00
  3.30000000E+01  2.20000000E+01  0.00000000E+00
  3.30000000E+01  2.10000000E+01  0.00000000E+00
  3.30000000E+01  2.00000000E+01  0.00000000E+00
  3.30000000E+01  1.90000000E+01  0.00000000E+00
  3.30000000E+01  1.80000000E+01  0.00000000E+00
  3.30000000E+01  1.70000000E+01  0.00000000E+00
  3.30000000E+01  1.60000000E+01  0.00000000E+00
  3.30000000E+01  1.50000000E+01  0.00000000E+00
  3.30000000E+01  1.40000000E+01  0.00000000E+00
  3.30000000E+01  1.30000000E+01  0.00000000E+00
  3.30000000E+01  1.20000000E+01  0.00000000E+00
  3.30000000E+01  1.10000000E+01  0.00000000E+00
  3.30000000E+01  1.00000000E+01  0.00000000E+00
  3.30000000E+01  9.00000000E+00  0.00000000E+00
  3.30000000E+01  8.00000000E+00  0.00000000E+00
  3.30000000E+01  7.00000000E+00  0.00000000E+00
  3.30000000E+01  6.00000000E+00  0.00000000E+00
  3.30000000E+01  5.00000000E+00  0.00000000E+00
  3.30000000E+01  4.00000000E+00  0.00000000E+00
  3.30000000E+01  3.00000000E+00  0.00000000E+00
  3.30000000E+01  2.00000000E+00  0.00000000E+00
  3.30000000E+01  1.00000000E+00  0.00000000E+00
  3.30000000E+01 -2.66453526E-15  0.00000000E+00
  3.40000000E+01  2.40000000E+01  0.00000000E+00
  3.40000000E+01  2.30000000E+01  0.00000000E+00
  3.40000000E+01  2.20000000E+01  0.00000000E+00
  3.40000000E+01  2.10000000E+01  0.00000000E+00
  3.40000000E+01  2.00000000E+01  0.00000000E+00
  3.40000000E+01  1.90000000E+01  0.00000000E+00
  3.40000000E+01  1.80000000E+01  0.00000000E+00
  3.40000000E+01  1.70000000E+01  0.00000000E+00
  3.40000000E+01  1.60000000E+01  0.00000000E+00
  3.40000000E+01  1.50000000E+01  0.00000000E+00
  3.40000000E+01  1.40000000E+01  0.00000000E+00
  3.40000000E+01  1.30000000E+01  0.00000000E+00
  3.40000000E+01  1.20000000E+01  0.00000000E+00
  3.40000000E+01  1.10000000E+01  0.00000000E+00
  3.40000000E+01  1.00000000E+01  0.00000000E+00
  3.40000000E+01  9.00000000E+00  0.00000000E+00
  3.40000000E+01  8.00000000E+00  0.00000000E+00
  3.40000000E+01  7.00000000E+00  0.00000000E+00
  3.40000000E+01  6.00000000E+00  0.00000000E+00
  3.40000000E+01  5.00000000E+00  0.00000000E+00
  3.40000000E+01  4.00000000E+00  0.00000000E+00
  3.40000000E+01  3.00000000E+00  0.00000000E+00
  3.40000000E+01  2.00000000E+00  0.00000000E+00
  3.40000000E+01  1.00000000E+00  0.00000000E+00
  3.40000000E+01 -2.66453526E-15  0.00000000E+00
  3.50000000E+01  2.40000000E+01  0.00000000E+00
  3.50000000E+01  2.30000000E+01  0.00000000E+00
  3.50000000E+01  2.20000000E+01  0.00000000E+00
  3.50000000E+01  2.10000000E+01  0.00000000E+00
  3.50000000E+01  2.00000000E+01  0.00000000E+00
  3.50000000E+01  1.90000000E+01  0.00000000E+00
  3.50000000E+01  1.80000000E+01  0.00000000E+00
  3.50000000E+01  1.70000000E+01  0.00000000E+00
  3.50000000E+01  1.60000000E+01  0.00000000E+00
  3.50000000E+01  1.50000000E+01  0.00000000E+00
  3.50000000E+01  1.40000000E+01  0.00000000E+00
  3.50000000E+01  1.30000000E+01  0.00000000E+00
  3.50000000E+01  1.20000000E+01  0.00000000E+00
  3.50000000E+01  1.10000000E+01  0.00000000E+00
  3.50000000E+01  1.00000000E+01  0.00000000E+00
  3.50000000E+01  9.00000000E+00  0.00000000E+00
  3.50000000E+01  8.00000000E+00  0.00000000E+00
  3.50000000E+01  7.00000000E+00  0.00000000E+00
  3.50000000E+01  6.00000000E+00  0.00000000E+00
  3.50000000E+01  5.00000000E+00  0.00000000E+00
  3.50000000E+01  4.00000000E+00  0.00000000E+00
  3.50000000E+01  3.00000000E+00  0.00000000E+00
  3.50000000E+01  2.00000000E+00  0.00000000E+00
  3.50000000E+01  1.00000000E+00  0.00000000E+00
  3.50000000E+01 -2.66453526E-15  0.00000000E+00
  3.60000000E+01  2.40000000E+01  0.00000000E+00
  3.60000000E+01  2.30000000E+01  0.00000000E+00
  3.60000000E+01  2.20000000E+01  0.00000000E+00
  3.60000000E+01  2.10000000E+01  0.00000000E+00
  3.60000000E+01  2.00000000E+01  0.00000000E+00
  3.60000000E+01  1.90000000E+01  0.00000000E+00
  3.60000000E+01  1.80000000E+01  0.00000000E+00
  3.60000000E+01  1.70000000E+01  0.00000000E+00
  3.60000000E+01  1.60000000E+01  0.00000000E+00
  3.60000000E+01  1.50000000E+01  0.00000000E+00
  3.60000000E+01  1.40000000E+01  0.00000000E+00
  3.60000000E+01  1.30000000E+01  0.00000000E+00
  3.60000000E+01  1.20000000E+01  0.00000000E+00
  3.60000000E+01  1.10000000E+01  0.00000000E+00
  3.60000000E+01  1.00000000E+01  0.00000000E+00
  3.60000000E+01  9.00000000E+00  0.00000000E+00
  3.60000000E+01  8.00000000E+00  0.00000000E+00
  3.60000000E+01  7.00000000E+00  0.00000000E+00
  3.60000000E+01  6.00000000E+00  0.00000000E+00
  3.60000000E+01  5.00000000E+00  0.00000000E+00
  3.60000000E+01  4.00000000E+00  0.00000000E+00
  3.60000000E+01  3.00000000E+00  0.00000000E+00
  3.60000000E+01  2.00000000E+00  0.00000000E+00
  3.60000000E+01  1.00000000E+00  0.00000000E+00
  3.60000000E+01 -2.66453526E-15  0.00000000E+00
  3.70000000E+01  2.40000000E+01  0.00000000E+00
  3.70000000E+01  2.30000000E+01  0.00000000E+00
  3.70000000E+01  2.20000000E+01  0.00000000E+00
  3.70000000E+01  2.10000000E+01  0.00000000E+00
  3.70000000E+01  2.00000000E+01  0.00000000E+00
  3.70000000E+01  1.90000000E+01  0.00000000E+00
  3.70000000E+01  1.80000000E+01  0.00000000E+00
  3.70000000E+01  1.70000000E+01  0.00000000E+00
  3.70000000E+01  1.60000000E+01  0.00000000E+00
  3.70000000E+01  1.50000000E+01  0.00000000E+00
  3.70000000E+01  1.40000000E+01  0.00000000E+00
  3.70000000E+01  1.30000000E+01  0.00000000E+00
  3.70000000E+01  1.20000000E+01  0.00000000E+00
  3.70000000E+01  1.10000000E+01  0.00000000E+00
  3.70000000E+01  1.00000000E+01  0.00000000E+00
  3.70000000E+01  9.00000000E+00  0.00000000E+00
  3.70000000E+01  8.00000000E+00  0.00000000E+00
  3.70000000E+01  7.00000000E+00  0.00000000E+00
  3.70000000E+01  6.00000000E+00  0.00000000E+00
  3.70000000E+01  5.00000000E+00  0.00000000E+00
  3.70000000E+01  4.00000000E+00  0.00000000E+00
  3.70000000E+01  3.00000000E+00  0.00000000E+00
  3.70000000E+01  2.00000000E+00  0.00000000E+00
  3.70000000E+01  1.00000000E+00  0.00000000E+00
  3.70000000E+01 -2.66453526E-15  0.00000000E+00
  3.80000000E+01  2.40000000E+01  0.00000000E+00
  3.80000000E+01  2.30000000E+01  0.00000000E+00
  3.80000000E+01  2.20000000E+01  0.00000000E+00
  3.80000000E+01  2.10000000E+01  0.00000000E+00
  3.80000000E+01  2.00000000E+01  0.00000000E+00
  3.80000000E+01  1.90000000E+01  0.00000000E+00
  3.80000000E+01  1.80000000E+01  0.00000000E+00
  3.80000000E+01  1.70000000E+01  0.00000000E+00
  3.80000000E+01  1.60000000E+01  0.00000000E+00
  3.80000000E+01  1.50000000E+01  0.00000000E+00
  3.80000000E+01  1.40000000E+01  0.00000000E+00
  3.80000000E+01  1.30000000E+01  0.00000000E+00
  3.80000000E+01  1.20000000E+01  0.00000000E+00
  3.80000000E+01  1.10000000E+01  0.00000000E+00
  3.80000000E+01  1.00000000E+01  0.00000000E+00
  3.80000000E+01  9.00000000E+00  0.00000000E+00
  3.80000000E+01  8.00000000E+00  0.00000000E+00
  3.80000000E+01  7.00000000E+00  0.00000000E+00
  3.80000000E+01  6.00000000E+00  0.00000000E+00
  3.80000000E+01  5.00000000E+00  0.00000000E+00
  3.80000000E+01  4.00000000E+00  0.00000000E+00
  3.80000000E+01  3.00000000E+00  0.00000000E+00
  3.80000000E+01  2.00000000E+00  0.00000000E+00
  3.80000000E+01  1.00000000E+00  0.00000000E+00
  3.80000000E+01 -2.66453526E-15  0.00000000E+00
  3.90000000E+01  2.40000000E+01  0.00000000E+00
  3.90000000E+01  2.30000000E+01  0.00000000E+00
  3.90000000E+01  2.20000000E+01  0.00000000E+00
  3.90000000E+01  2.10000000E+01  0.00000000E+00
  3.90000000E+01  2.00000000E+01  0.00000000E+00
  3.90000000E+01  1.90000000E+01  0.00000000E+00
  3.90000000E+01  1.80000000E+01  0.00000000E+00
  3.90000000E+01  1.70000000E+01  0.00000000E+00
  3.90000000E+01  1.60000000E+01  0.00000000E+00
  3.90000000E+01  1.50000000E+01  0.00000000E+00
  3.90000000E+01  1.40000000E+01  0.00000000E+00
  3.90000000E+01  1.30000000E+01  0.00000000E+00
  3.90000000E+01  1.20000000E+01  0.00000000E+00
  3.90000000E+01  1.10000000E+01  0.00000000E+00
  3.90000000E+01  1.00000000E+01  0.00000000E+00
  3.90000000E+01  9.00000000E+00  0.00000000E+00
  3.90000000E+01  8.00000000E+00  0.00000000E+00
  3.90000000E+01  7.00000000E+00  0.00000000E+00
  3.90000000E+01  6.00000000E+00  0.00000000E+00
  3.90000000E+01  5.00000000E+00  0.00000000E+00
  3.90000000E+01  4.00000000E+00  0.00000000E+00
  3.90000000E+01  3.00000000E+00  0.00000000E+00
  3.90000000E+01  2.00000000E+00  0.00000000E+00
  3.90000000E+01  1.00000000E+00  0.00000000E+00
  3.90000000E+01 -2.66453526E-15  0.00000000E+00
  4.00000000E+01  2.40000000E+01  0.00000000E+00
  4.00000000E+01  2.30000000E+01  0.00000000E+00
  4.00000000E+01  2.20000000E+01  0.00000000E+00
  4.00000000E+01  2.10000000E+01  0.00000000E+00
  4.00000000E+01  2.00000000E+01  0.00000000E+00
  4.00000000E+01  1.90000000E+01  0.00000000E+00
  4.00000000E+01  1.80000000E+01  0.00000000E+00
  4.00000000E+01  1.70000000E+01  0.00000000E+00
  4.00000000E+01  1.60000000E+01  0.00000000E+00
  4.00000000E+01  1.50000000E+01  0.00000000E+00
  4.00000000E+01  1.40000000E+01  0.00000000E+00
  4.00000000E+01  1.30000000E+01  0.00000000E+00
  4.00000000E+01  1.20000000E+01  0.00000000E+00
  4.00000000E+01  1.10000000E+01  0.00000000E+00
  4.00000000E+01  1.00000000E+01  0.00000000E+00
  4.00000000E+01  9.00000000E+00  0.00000000E+00
  4.00000000E+01  8.00000000E+00  0.00000000E+00
  4.00000000E+01  7.00000000E+00  0.00000000E+00
  4.00000000E+01  6.00000000E+00  0.00000000E+00
  4.00000000E+01  5.00000000E+00  0.00000000E+00
  4.00000000E+01  4.00000000E+00  0.00000000E+00
  4.00000000E+01  3.00000000E+00  0.00000000E+00
  4.00000000E+01  2.00000000E+00  0.00000000E+00
  4.00000000E+01  1.00000000E+00  0.00000000E+00
  4.00000000E+01 -2.66453526E-15  0.00000000E+00
  4.10000000E+01  2.40000000E+01  0.00000000E+00
  4.10000000E+01  2.30000000E+01  0.00000000E+00
  4.10000000E+01  2.20000000E+01  0.00000000E+00
  4.10000000E+01  2.10000000E+01  0.00000000E+00
  4.10000000E+01  2.00000000E+01  0.00000000E+00
  4.10000000E+01  1.90000000E+01  0.00000000E+00
  4.10000000E+01  1.80000000E+01  0.00000000E+00
  4.10000000E+01  1.70000000E+01  0.00000000E+00
  4.10000000E+01  1.60000000E+01  0.00000000E+00
  4.10000000E+01  1.50000000E+01  0.00000000E+00
  4.10000000E+01  1.40000000E+01  0.00000000E+00
  4.10000000E+01  1.30000000E+01  0.00000000E+00
  4.10000000E+01  1.20000000E+01  0.00000000E+00
  4.10000000E+01  1.10000000E+01  0.00000000E+00
  4.10000000E+01  1.00000000E+01  0.00000000E+00
  4.10000000E+01  9.00000000E+00  0.00000000E+00
  4.10000000E+01  8.00000000E+00  0.00000000E+00
  4.10000000E+01  7.00000000E+00  0.00000000E+00
  4.10000000E+01  6.00000000E+00  0.00000000E+00
  4.10000000E+01  5.00000000E+00  0.00000000E+00
  4.10000000E+01  4.00000000E+00  0.00000000E+00
  4.10000000E+01  3.00000000E+00  0.00000000E+00
  4.10000000E+01  2.00000000E+00  0.00000000E+00
  4.10000000E+01  1.00000000E+00  0.00000000E+00
  4.10000000E+01 -2.66453526E-15  0.00000000E+00
  4.20000000E+01  2.40000000E+01  0.00000000E+00
  4.20000000E+01  2.30000000E+01  0.00000000E+00
  4.20000000E+01  2.20000000E+01  0.00000000E+00
  4.20000000E+01  2.10000000E+01  0.00000000E+00
  4.20000000E+01  2.00000000E+01  0.00000000E+00
  4.20000000E+01  1.90000000E+01  0.00000000E+00
  4.20000000E+01  1.80000000E+01  0.00000000E+00
  4.20000000E+01  1.70000000E+01  0.00000000E+00
  4.20000000E+01  1.60000000E+01  0.00000000E+00
  4.20000000E+01  1.50000000E+01  0.00000000E+00
  4.20000000E+01  1.40000000E+01  0.00000000E+00
  4.20000000E+01  1.30000000E+01  0.00000000E+00
  4.20000000E+01  1.20000000E+01  0.00000000E+00
  4.20000000E+01  1.10000000E+01  0.00000000E+00
  4.20000000E+01  1.00000000E+01  0.00000000E+00
  4.20000000E+01  9.00000000E+00  0.00000000E+00
  4.20000000E+01  8.00000000E+00  0.00000000E+00
  4.20000000E+01  7.00000000E+00  0.00000000E+00
  4.20000000E+01  6.00000000E+00  0.00000000E+00
  4.20000000E+01  5.00000000E+00  0.00000000E+00
  4.20000000E+01  4.00000000E+00  0.00000000E+00
  4.20000000E+01  3.00000000E+00  0.00000000E+00
  4.20000000E+01  2.00000000E+00  0.00000000E+00
  4.20000000E+01  1.00000000E+00  0.00000000E+00
  4.20000000E+01 -2.66453526E-15  0.00000000E+00
  4.30000000E+01  2.40000000E+01  0.00000000E+00
  4.30000000E+01  2.30000000E+01  0.00000000E+00
  4.30000000E+01  2.20000000E+01  0.00000000E+00
  4.30000000E+01  2.10000000E+01  0.00000000E+00
  4.30000000E+01  2.00000000E+01  0.00000000E+00
  4.30000000E+01  1.90000000E+01  0.00000000E+00
  4.30000000E+01  1.80000000E+01  0.00000000E+00
  4.30000000E+01  1.70000000E+01  0.00000000E+00
  4.30000000E+01  1.60000000E+01  0.00000000E+00
  4.30000000E+01  1.50000000E+01  0.00000000E+00
  4.30000000E+01  1.40000000E+01  0.00000000E+00
  4.30000000E+01  1.30000000E+01  0.00000000E+00
  4.30000000E+01  1.20000000E+01  0.00000000E+00
  4.30000000E+01  1.10000000E+01  0.00000000E+00
  4.30000000E+01  1.00000000E+01  0.00000000E+00
  4.30000000E+01  9.00000000E+00  0.00000000E+00
  4.30000000E+01  8.00000000E+00  0.00000000E+00
  4.30000000E+01  7.00000000E+00  0.00000000E+00
  4.30000000E+01  6.00000000E+00  0.00000000E+00
  4.30000000E+01  5.00000000E+00  0.00000000E+00
  4.30000000E+01  4.00000000E+00  0.00000000E+00
  4.30000000E+01  3.00000000E+00  0.00000000E+00
  4.30000000E+01  2.00000000E+00  0.00000000E+00
  4.30000000E+01  1.00000000E+00  0.00000000E+00
  4.30000000E+01 -2.66453526E-15  0.00000000E+00
  4.40000000E+01  2.40000000E+01  0.00000000E+00
  4.40000000E+01  2.30000000E+01  0.00000000E+00
  4.40000000E+01  2.20000000E+01  0.00000000E+00
  4.40000000E+01  2.10000000E+01  0.00000000E+00
  4.40000000E+01  2.00000000E+01  0.00000000E+00
  4.40000000E+01  1.90000000E+01  0.00000000E+00
  4.40000000E+01  1.80000000E+01  0.00000000E+00
  4.40000000E+01  1.70000000E+01  0.00000000E+00
  4.40000000E+01  1.60000000E+01  0.00000000E+00
  4.40000000E+01  1.50000000E+01  0.00000000E+00
  4.40000000E+01  1.40000000E+01  0.00000000E+00
  4.40000000E+01  1.30000000E+01  0.00000000E+00
  4.40000000E+01  1.20000000E+01  0.00000000E+00
  4.40000000E+01  1.10000000E+01  0.00000000E+00
  4.40000000E+01  1.00000000E+01  0.00000000E+00
  4.40000000E+01  9.00000000E+00  0.00000000E+00
  4.40000000E+01  8.00000000E+00  0.00000000E+00
  4.40000000E+01  7.00000000E+00  0.00000000E+00
  4.40000000E+01  6.00000000E+00  0.00000000E+00
  4.40000000E+01  5.00000000E+00  0.00000000E+00
  4.40000000E+01  4.00000000E+00  0.00000000E+00
  4.40000000E+01  3.00000000E+00  0.00000000E+00
  4.40000000E+01  2.00000000E+00  0.00000000E+00
  4.40000000E+01  1.00000000E+00  0.00000000E+00
  4.40000000E+01 -2.66453526E-15  0.00000000E+00
  4.50000000E+01  2.40000000E+01  0.00000000E+00
  4.50000000E+01  2.30000000E+01  0.00000000E+00
  4.50000000E+01  2.20000000E+01  0.00000000E+00
  4.50000000E+01  2.10000000E+01  0.00000000E+00
  4.50000000E+01  2.00000000E+01  0.00000000E+00
  4.50000000E+01  1.90000000E+01  0.00000000E+00
  4.50000000E+01  1.80000000E+01  0.00000000E+00
  4.50000000E+01  1.70000000E+01  0.00000000E+00
  4.50000000E+01  1.60000000E+01  0.00000000E+00
  4.50000000E+01  1.50000000E+01  0.00000000E+00
  4.50000000E+01  1.40000000E+01  0.00000000E+00
  4.50000000E+01  1.30000000E+01  0.00000000E+00
  4.50000000E+01  1.20000000E+01  0.00000000E+00
  4.50000000E+01  1.10000000E+01  0.00000000E+00
  4.50000000E+01  1.00000000E+01  0.00000000E+00
  4.50000000E+01  9.00000000E+00  0.00000000E+00
  4.50000000E+01  8.00000000E+00  0.00000000E+00
  4.50000000E+01  7.00000000E+00  0.00000000E+00
  4.50000000E+01  6.00000000E+00  0.00000000E+00
  4.50000000E+01  5.00000000E+00  0.00000000E+00
  4.50000000E+01  4.00000000E+00  0.00000000E+00
  4.50000000E+01  3.00000000E+00  0.00000000E+00
  4.50000000E+01  2.00000000E+00  0.00000000E+00
  4.50000000E+01  1.00000000E+00  0.00000000E+00
  4.50000000E+01 -2.66453526E-15  0.00000000E+00
  4.60000000E+01  2.40000000E+01  0.00000000E+00
  4.60000000E+01  2.30000000E+01  0.00000000E+00
  4.60000000E+01  2.20000000E+01  0.00000000E+00
  4.60000000E+01  2.10000000E+01  0.00000000E+00
  4.60000000E+01  2.00000000E+01  0.00000000E+00
  4.60000000E+01  1.90000000E+01  0.00000000E+00
  4.60000000E+01  1.80000000E+01  0.00000000E+00
  4.60000000E+01  1.70000000E+01  0.00000000E+00
  4.60000000E+01  1.60000000E+01  0.00000000E+00
  4.60000000E+01  1.50000000E+01  0.00000000E+00
  4.60000000E+01  1.40000000E+01  0.00000000E+00
  4.60000000E+01  1.30000000E+01  0.00000000E+00
  4.60000000E+01  1.20000000E+01  0.00000000E+00
  4.60000000E+01  1.10000000E+01  0.00000000E+00
  4.60000000E+01  1.00000000E+01  0.00000000E+00
  4.60000000E+01  9.00000000E+00  0.00000000E+00
  4.60000000E+01  8.00000000E+00  0.00000000E+00
  4.60000000E+01  7.00000000E+00  0.00000000E+00
  4.60000000E+01  6.00000000E+00  0.00000000E+00
  4.60000000E+01  5.00000000E+00  0.00000000E+00
  4.60000000E+01  4.00000000E+00  0.00000000E+00
  4.60000000E+01  3.00000000E+00  0.00000000E+00
  4.60000000E+01  2.00000000E+00  0.00000000E+00
  4.60000000E+01  1.00000000E+00  0.00000000E+00
  4.60000000E+01 -2.66453526E-15  0.00000000E+00
  4.70000000E+01  2.40000000E+01  0.00000000E+00
  4.70000000E+01  2.30000000E+01  0.00000000E+00
  4.70000000E+01  2.20000000E+01  0.00000000E+00
  4.70000000E+01  2.10000000E+01  0.00000000E+00
  4.70000000E+01  2.00000000E+01  0.00000000E+00
  4.70000000E+01  1.90000000E+01  0.00000000E+00
  4.70000000E+01  1.80000000E+01  0.00000000E+00
  4.70000000E+01  1.70000000E+01  0.00000000E+00
  4.70000000E+01  1.60000000E+01  0.00000000E+00
  4.70000000E+01  1.50000000E+01  0.00000000E+00
  4.70000000E+01  1.40000000E+01  0.00000000E+00
  4.70000000E+01  1.30000000E+01  0.00000000E+00
  4.70000000E+01  1.20000000E+01  0.00000000E+00
  4.70000000E+01  1.10000000E+01  0.00000000E+00
  4.70000000E+01  1.00000000E+01  0.00000000E+00
  4.70000000E+01  9.00000000E+00  0.00000000E+00
  4.70000000E+01  8.00000000E+00  0.00000000E+00
  4.70000000E+01  7.00000000E+00  0.00000000E+00
  4.70000000E+01  6.00000000E+00  0.00000000E+00
  4.70000000E+01  5.00000000E+00  0.00000000E+00
  4.70000000E+01  4.00000000E+00  0.00000000E+00
  4.70000000E+01  3.00000000E+00  0.00000000E+00
  4.70000000E+01  2.00000000E+00  0.00000000E+00
  4.70000000E+01  1.00000000E+00  0.00000000E+00
  4.70000000E+01 -2.66453526E-15  0.00000000E+00
  4.80000000E+01  2.40000000E+01  0.00000000E+00
  4.80000000E+01  2.30000000E+01  0.00000000E+00
  4.80000000E+01  2.20000000E+01  0.00000000E+00
  4.80000000E+01  2.10000000E+01  0.00000000E+00
  4.80000000E+01  2.00000000E+01  0.00000000E+00
  4.80000000E+01  1.90000000E+01  0.00000000E+00
  4.80000000E+01  1.80000000E+01  0.00000000E+00
  4.80000000E+01  1.70000000E+01  0.00000000E+00
  4.80000000E+01  1.60000000E+01  0.00000000E+00
  4.80000000E+01  1.50000000E+01  0.00000000E+00
  4.80000000E+01  1.40000000E+01  0.00000000E+00
  4.80000000E+01  1.30000000E+01  0.00000000E+00
  4.80000000E+01  1.20000000E+01  0.00000000E+00
  4.80000000E+01  1.10000000E+01  0.00000000E+00
  4.80000000E+01  1.00000000E+01  0.00000000E+00
  4.80000000E+01  9.00000000E+00  0.00000000E+00
  4.80000000E+01  8.00000000E+00  0.00000000E+00
  4.80000000E+01  7.00000000E+00  0.00000000E+00
  4.80000000E+01  6.00000000E+00  0.00000000E+00
  4.80000000E+01  5.00000000E+00  0.00000000E+00
  4.80000000E+01  4.00000000E+00  0.00000000E+00
  4.80000000E+01  3.00000000E+00  0.00000000E+00
  4.80000000E+01  2.00000000E+00  0.00000000E+00
  4.80000000E+01  1.00000000E+00  0.00000000E+00
  4.80000000E+01 -2.66453526E-15  0.00000000E+00
CELLS      1152      5760
         4           0           1          26          25
         4           1           2          27          26
         4           2           3          28          27
         4           3           4          29          28
         4           4           5          30          29
         4           5           6          31          30
         4           6           7          32          31
         4           7           8          33          32
         4           8           9          34          33
         4           9          10          35          34
         4          10          11          36          35
         4          11          12          37          36
         4          12          13          38          37
         4          13          14          39          38
         4          14          15          40          39
         4          15          16          41          40
         4          16          17          42          41
         4          17          18          43          42
         4          18          19          44          43
         4          19          20          45          44
         4          20          21          46          45
         4          21          22          47          46
         4          22          23          48          47
         4          23          24          49          48
         4          25          26          51          50
         4          26          27          52          51
         4          27          28          53          52
         4          28          29          54          53
         4          29          30          55          54
         4          30          31          56          55
         4          31          32          57          56
         4          32          33          58          57
         4          33          34          59          58
         4          34          35          60          59
         4          35          36          61          60
         4          36          37          62          61
         4          37          38          63          62
         4          38          39          64          63
         4          39          40          65          64
         4          40          41          66          65
         4          41          42          67          66
         4          42          43          68          67
         4          43          44          69          68
         4          44          45          70          69
         4          45          46          71          70
         4          46          47          72          71
         4          47          48          73          72
         4          48          49          74          73
         4          50          51          76          75
         4          51          52          77          76
         4          52          53          78          77
         4          53          54          79          78
         4          54          55          80          79
         4          55          56          81          80
         4          56          57          82          81
         4          57          58          83          82
         4          58          59          84          83
         4          59          60          85          84
         4          60          61          86          85
         4          61          62          87          86
         4          62          63          88          87
         4          63          64          89          88
         4          64          65          90          89
         4          65          66          91          90
         4          66          67          92          91
         4          67          68          93          92
         4          68          69          94          93
         4          69          70          95          94
         4          70          71          96          95
         4          71          72          97          96
         4          72          73          98          97
         4          73          74          99          98
         4          75          76         101         100
         4          76          77         102         101
         4          77          78         103         102
         4          78          79         104         103
         4          79          80         105         104
         4          80          81         106         105
         4          81          82         107         106
         4          82          83         108         107
         4          83          84         109         108
         4          84          85         110         109
         4          85          86         111         110
         4          86          87         112         111
         4          87          88         113         112
         4          88          89         114         113
         4          89          90         115         114
         4          90          91         116         115
         4          91          92         117         116
         4          92          93         118         117
         4          93          94         119         118
         4          94          95         120         119
         4          95          96         121         120
         4          96          97         122         121
         4          97          98         123         122
         4          98          99         124         123
         4         100         101         126         125
         4         101         102         127         126
         4         102         103         128         127
         4         103         104         129         128
         4         104         105         130         129
         4         105         106         131         130
         4         106         107         132         131
         4         107         108         133         132
         4         108         109         134         133
         4         109         110         135         134
         4         110         111         136         135
         4         111         112         137         136
         4         112         113         138         137
         4         113         114         139         138
         4         114         115         140         139
         4         115         116         141         140
         4         116         117         142         141
         4         117         118         143         142
         4         118         119         144         143
         4         119         120         145         144
         4         120         121         146         145
         4         121         122         147         146
         4         122         123         148         147
         4         123         124         149         148
         4         125         126         151         150
         4         126         127         152         151
         4         127         128         153         152
         4         128         129         154         153
         4         129         130         155         154
         4         130         131         156         155
         4         131         132         157         156
         4         132         133         158         157
         4         133         134         159         158
         4         134         135         160         159
         4         135         136         161         160
         4         136         137         162         161
         4         137         138         163         162
         4         138         139         164         163
         4         139         140         165         164
         4         140         141         166         165
         4         141         142         167         166
         4         142         143         168         167
         4         143         144         169         168
         4         144         145         170         169
         4         145         146         171         170
         4         146         147         172         171
         4         147         148         173         172
         4         148         149         174         173
         4         150         151         176         175
         4         151         152         177         176
         4         152         153         178         177
         4         153         154         179         178
         4         154         155         180         179
         4         155         156         181         180
         4         156         157         182         181
         4         157         158         183         182
         4         158         159         184         183
         4         159         160         185         184
         4         160         161         186         185
         4         161         162         187         186
         4         162         163         188         187
         4         163         164         189         188
         4         164         165         190         189
         4         165         166         191         190
         4         166         167         192         191
         4         167         168         193         192
         4         168         169         194         193
         4         169         170         195         194
         4         170         171         196         195
         4         171         172         197         196
         4         172         173         198         197
         4         173         174         199         198
         4         175         176         201         200
         4         176         177         202         201
         4         177         178         203         202
         4         178         179         204         203
         4         179         180         205         204
         4         180         181         206         205
         4         181         182         207         206
         4         182         183         208         207
         4         183         184         209         208
         4         184         185         210         209
         4         185         186         211         210
         4         186         187         212         211
         4         187         188         213         212
         4         188         189         214         213
         4         189         190         215         214
         4         190         191         216         215
         4         191         192         217         216
         4         192         193         218         217
         4         193         194         219         218
         4         194         195         220         219
         4         195         196         221         220
         4         196         197         222         221
         4         197         198         223         222
         4         198         199         224         223
         4         200         201         226         225
         4         201         202         227         226
         4         202         203         228         227
         4         203         204         229         228
         4         204         205         230         229
         4         205         206         231         230
         4         206         207         232         231
         4         207         208         233         232
         4         208         209         234         233
         4         209         210         235         234
         4         210         211         236         235
         4         211         212         237         236
         4         212         213         238         237
         4         213         214         239         238
         4         214         215         240         239
         4         215         216         241         240
         4         216         217         242         241
         4         217         218         243         242
         4         218         219         244         243
         4         219         220         245         244
         4         220         221         246         245
         4         221         222         247         246
         4         222         223         248         247
         4         223         224         249         248
         4         225         226         251         250
         4         226         227         252         251
         4         227         228         253         252
         4         228         229         254         253
         4         229         230         255         254
         4         230         231         256         255
         4         231         232         257         256
         4         232         233         258         257
         4         233         234         259         258
         4         234         235         260         259
         4         235         236         261         260
         4         236         237         262         261
         4         237         238         263         262
         4         238         239         264         263
         4         239         240         265         264
         4         240         241         266         265
         4         241         242         267         266
         4         242         243         268         267
         4         243         244         269         268
         4         244         245         270         269
         4         245         246         271         270
         4         246         247         272         271
         4         247         248         273         272
         4         248         249         274         273
         4         250         251         276         275
         4         251         252         277         276
         4         252         253         278         277
         4         253         254         279         278
         4         254         255         280         279
         4         255         256         281         280
         4         256         257         282         281
         4         257         258         283         282
         4         258         259         284         283
         4         259         260         285         284
         4         260         261         286         285
         4         261         262         287         286
         4         262         263         288         287
         4         263         264         289         288
         4         264         265         290         289
         4         265         266         291         290
         4         266         267         292         291
         4         267         268         293         292
         4         268         269         294         293
         4         269         270         295         294
         4         270         271         296         295
         4         271         272         297         296
         4         272         273         298         297
         4         273         274         299         298
         4         275         276         301         300
         4         276         277         302         301
         4         277         278         303         302
         4         278         279         304         303
         4         279         280         305         304
         4         280         281         306         305
         4         281         282         307         306
         4         282         283         308         307
         4         283         284         309         308
         4         284         285         310         309
         4         285         286         311         310
         4         286         287         312         311
         4         287         288         313         312
         4         288         289         314         313
         4         289         290         315         314
         4         290         291         316         315
         4         291         292         317         316
         4         292         293         318         317
         4         293         294         319         318
         4         294         295         320         319
         4         295         296         321         320
         4         296         297         322         321
         4         297         298         323         322
         4         298         299         324         323
         4         300         301         326         325
         4         301         302         327         326
         4         302         303         328         327
         4         303         304         329         328
         4         304         305         330         329
         4         305         306         331         330
         4         306         307         332         331
         4         307         308         333         332
         4         308         309         334         333
         4         309         310         335         334
         4         310         311         336         335
         4         311         312         337         336
         4         312         313         338         337
         4         313         314         339         338
         4         314         315         340         339
         4         315         316         341         340
         4         316         317         342         341
         4         317         318         343         342
         4         318         319         344         343
         4         319         320         345         344
         4         320         321         346         345
         4         321         322         347         346
         4         322         323         348         347
         4         323         324         349         348
         4         325         326         351         350
         4         326         327         352         351
         4         327         328         353         352
         4         328         329         354         353
         4         329         330         355         354
         4         330         331         356         355
         4         331         332         357         356
         4         332         333         358         357
         4         333         334         359         358
         4         334         335         360         359
         4         335         336         361         360
         4         336         337         362         361
         4         337         338         363         362
         4         338         339         364         363
         4         339         340         365         364
         4         340         341         366         365
         4         341         342         367         366
         4         342         343         368         367
         4         343         344         369         368
         4         344         345         370         369
         4         345         346         371         370
         4         346         347         372         371
         4         347         348         373         372
         4         348         349         374         373
         4         350         351         376         375
         4         351         352         377         376
         4         352         353         378         377
         4         353         354         379         378
         4         354         355         380         379
         4         355         356         381         380
         4         356         357         382         381
         4         357         358         383         382
         4         358         359         384         383
         4         359         360         385         384
         4         360         361         386         385
         4         361         362         387         386
         4         362         363         388         387
         4         363         364         389         388
         4         364         365         390         389
         4         365         366         391         390
         4         366         367         392         391
         4         367         368         393         392
         4         368         369         394         393
         4         369         370         395         394
         4         370         371         396         395
         4         371         372         397         396
         4         372         373         398         397
         4         373         374         399         398
         4         375         376         401         400
         4         376         377         402         401
         4         377         378         403         402
         4         378         379         404         403
         4         379         380         405         404
         4         380         381         406         405
         4         381         382         407         406
         4         382         383         408         407
         4         383         384         409         408
         4         384         385         410         409
         4         385         386         411         410
         4         386         387         412         411
         4         387         388         413         412
         4         388         389         414         413
         4         389         390         415         414
         4         390         391         416         415
         4         391         392         417         416
         4         392         393         418         417
         4         393         394         419         418
         4         394         395         420         419
         4         395         396         421         420
         4         396         397         422         421
         4         397         398         423         422
         4         398         399         424         423
         4         400         401         426         425
         4         401         402         427         426
         4         402         403         428         427
         4         403         404         429         428
         4         404         405         430         429
         4         405         406         431         430
         4         406         407         432         431
         4         407         408         433         432
         4         408         409         434         433
         4         409         410         435         434
         4         410         411         436         435
         4         411         412         437         436
         4         412         413         438         437
         4         413         414         439         438
         4         414         415         440         439
         4         415         416         441         440
         4         416         417         442         441
         4         417         418         443         442
         4         418         419         444         443
         4         419         420         445         444
         4         420         421         446         445
         4         421         422         447         446
         4         422         423         448         447
         4         423         424         449         448
         4         425         426         451         450
         4         426         427         452         451
         4         427         428         453         452
         4         428         429         454         453
         4         429         430         455         454
         4         430         431         456         455
         4         431         432         457         456
         4         432         433         458         457
         4         433         434         459         458
         4         434         435         460         459
         4         435         436         461         460
         4         436         437         462         461
         4         437         438         463         462
         4         438         439         464         463
         4         439         440         465         464
         4         440         441         466         465
         4         441         442         467         466
         4         442         443         468         467
         4         443         444         469         468
         4         444         445         470         469
         4         445         446         471         470
         4         446         447         472         471
         4         447         448         473         472
         4         448         449         474         473
         4         450         451         476         475
         4         451         452         477         476
         4         452         453         478         477
         4         453         454         479         478
         4         454         455         480         479
         4         455         456         481         480
         4         456         457         482         481
         4         457         458         483         482
         4         458         459         484         483
         4         459         460         485         484
         4         460         461         486         485
         4         461         462         487         486
         4         462         463         488         487
         4         463         464         489         488
         4         464         465         490         489
         4         465         466         491         490
         4         466         467         492         491
         4         467         468         493         492
         4         468         469         494         493
         4         469         470         495         494
         4         470         471         496         495
         4         471         472         497         496
         4         472         473         498         497
         4         473         474         499         498
         4         475         476         501         500
         4         476         477         502         501
         4         477         478         503         502
         4         478         479         504         503
         4         479         480         505         504
         4         480         481         506         505
         4         481         482         507         506
         4         482         483         508         507
         4         483         484         509         508
         4         484         485         510         509
         4         485         486         511         510
         4         486         487         512         511
         4         487         488         513         512
         4         488         489         514         513
         4         489         490         515         514
         4         490         491         516         515
         4         491         492         517         516
         4         492         493         518         517
         4         493         494         519         518
         4         494         495         520         519
         4         495         496         521         520
         4         496         497         522         521
         4         497         498         523         522
         4         498         499         524         523
         4         500         501         526         525
         4         501         502         527         526
         4         502         503         528         527
         4         503         504         529         528
         4         504         505         530         529
         4         505         506         531         530
         4         506         507         532         531
         4         507         508         533         532
         4         508         509         534         533
         4         509         510         535         534
         4         510         511         536         535
         4         511         512         537         536
         4         512         513         538         537
         4         513         514         539         538
         4         514         515         540         539
         4         515         516         541         540
         4         516         517         542         541
         4         517         518         543         542
         4         518         519         544         543
         4         519         520         545         544
         4         520         521         546         545
         4         521         522         547         546
         4         522         523         548         547
         4         523         524         549         548
         4         525         526         551         550
         4         526         527         552         551
         4         527         528         553         552
         4         528         529         554         553
         4         529         530         555         554
         4         530         531         556         555
         4         531         532         557         556
         4         532         533         558         557
         4         533         534         559         558
         4         534         535         560         559
         4         535         536         561         560
         4         536         537         562         561
         4         537         538         563         562
         4         538         539         564         563
         4         539         540         565         564
         4         540         541         566         565
         4         541         542         567         566
         4         542         543         568         567
         4         543         544         569         568
         4         544         545         570         569
         4         545         546         571         570
         4         546         547         572         571
         4         547         548         573         572
         4         548         549         574         573
         4         550         551         576         575
         4         551         552         577         576
         4         552         553         578         577
         4         553         554         579         578
         4         554         555         580         579
         4         555         556         581         580
         4         556         557         582         581
         4         557         558         583         582
         4         558         559         584         583
         4         559         560         585         584
         4         560         561         586         585
         4         561         562         587         586
         4         562         563         588         587
         4         563         564         589         588
         4         564         565         590         589
         4         565         566         591         590
         4         566         567         592         591
         4         567         568         593         592
         4         568         569         594         593
         4         569         570         595         594
         4         570         571         596         595
         4         571         572         597         596
         4         572         573         598         597
         4         573         574         599         598
         4         575         576         601         600
         4         576         577         602         601
         4         577         578         603         602
         4         578         579         604         603
         4         579         580         605         604
         4         580         581         606         605
         4         581         582         607         606
         4         582         583         608         607
         4         583         584         609         608
         4         584         585         610         609
         4         585         586         611         610
         4         586         587         612         611
         4         587         588         613         612
         4         588         589         614         613
         4         589         590         615         614
         4         590         591         616         615
         4         591         592         617         616
         4         592         593         618         617
         4         593         594         619         618
         4         594         595         620         619
         4         595         596         621         620
         4         596         597         622         621
         4         597         598         623         622
         4         598         599         624         623
         4         600         601         626         625
         4         601         602         627         626
         4         602         603         628         627
         4         603         604         629         628
         4         604         605         630         629
         4         605         606         631         630
         4         606         607         632         631
         4         607         608         633         632
         4         608         609         634         633
         4         609         610         635         634
         4         610         611         636         635
         4         611         612         637         636
         4         612         613         638         637
         4         613         614         639         638
         4         614         615         640         639
         4         615         616         641         640
         4         616         617         642         641
         4         617         618         643         642
         4         618         619         644         643
         4         619         620         645         644
         4         620         621         646         645
         4         621         622         647         646
         4         622         623         648         647
         4         623         624         649         648
         4         625         626         651         650
         4         626         627         652         651
         4         627         628         653         652
         4         628         629         654         653
         4         629         630         655         654
         4         630         631         656         655
         4         631         632         657         656
         4         632         633         658         657
         4         633         634         659         658
         4         634         635         660         659
         4         635         636         661         660
         4         636         637         662         661
         4         637         638         663         662
         4         638         639         664         663
         4         639         640         665         664
         4         640         641         666         665
         4         641         642         667         666
         4         642         643         668         667
         4         643         644         669         668
         4         644         645         670         669
         4         645         646         671         670
         4         646         647         672         671
         4         647         648         673         672
         4         648         649         674         673
         4         650         651         676         675
         4         651         652         677         676
         4         652         653         678         677
         4         653         654         679         678
         4         654         655         680         679
         4         655         656         681         680
         4         656         657         682         681
         4         657         658         683         682
         4         658         659         684         683
         4         659         660         685         684
         4         660         661         686         685
         4         661         662         687         686
         4         662         663         688         687
         4         663         664         689         688
         4         664         665         690         689
         4         665         666         691         690
         4         666         667         692         691
         4         667         668         693         692
         4         668         669         694         693
         4         669         670         695         694
         4         670         671         696         695
         4         671         672         697         696
         4         672         673         698         697
         4         673         674         699         698
         4         675         676         701         700
         4         676         677         702         701
         4         677         678         703         702
         4         678         679         704         703
         4         679         680         705         704
         4         680         681         706         705
         4         681         682         707         706
         4         682         683         708         707
         4         683         684         709         708
         4         684         685         710         709
         4         685         686         711         710
         4         686         687         712         711
         4         687         688         713         712
         4         688         689         714         713
         4         689         690         715         714
         4         690         691         716         715
         4         691         692         717         716
         4         692         693         718         717
         4         693         694         719         718
         4         694         695         720         719
         4         695         696         721         720
         4         696         697         722         721
         4         697         698         723         722
         4         698         699         724         723
         4         700         701         726         725
         4         701         702         727         726
         4         702         703         728         727
         4         703         704         729         728
         4         704         705         730         729
         4         705         706         731         730
         4         706         707         732         731
         4         707         708         733         732
         4         708         709         734         733
         4         709         710         735         734
         4         710         711         736         735
         4         711         712         737         736
         4         712         713         738         737
         4         713         714         739         738
         4         714         715         740         739
         4         715         716         741         740
         4         716         717         742         741
         4         717         718         743         742
         4         718         719         744         743
         4         719         720         745         744
         4         720         721         746         745
         4         721         722         747         746
         4         722         723         748         747
         4         723         724         749         748
         4         725         726         751         750
         4         726         727         752         751
         4         727         728         753         752
         4         728         729         754         753
         4         729         730         755         754
         4         730         731         756         755
         4         731         732         757         756
         4         732         733         758         757
         4         733         734         759         758
         4         734         735         760         759
         4         735         736         761         760
         4         736         737         762         761
         4         737         738         763         762
         4         738         739         764         763
         4         739         740         765         764
         4         740         741         766         765
         4         741         742         767         766
         4         742         743         768         767
         4         743         744         769         768
         4         744         745         770         769
         4         745         746         771         770
         4         746         747         772         771
         4         747         748         773         772
         4         748         749         774         773
         4         750         751         776         775
         4         751         752         777         776
         4         752         753         778         777
         4         753         754         779         778
         4         754         755         780         779
         4         755         756         781         780
         4         756         757         782         781
         4         757         758         783         782
         4         758         759         784         783
         4         759         760         785         784
         4         760         761         786         785
         4         761         762         787         786
         4         762         763         788         787
         4         763         764         789         788
         4         764         765         790         789
         4         765         766         791         790
         4         766         767         792         791
         4         767         768         793         792
         4         768         769         794         793
         4         769         770         795         794
         4         770         771         796         795
         4         771         772         797         796
         4         772         773         798         797
         4         773         774         799         798
         4         775         776         801         800
         4         776         777         802         801
         4         777         778         803         802
         4         778         779         804         803
         4         779         780         805         804
         4         780         781         806         805
         4         781         782         807         806
         4         782         783         808         807
         4         783         784         809         808
         4         784         785         810         809
         4         785         786         811         810
         4         786         787         812         811
         4         787         788         813         812
         4         788         789         814         813
         4         789         790         815         814
         4         790         791         816         815
         4         791         792         817         816
         4         792         793         818         817
         4         793         794         819         818
         4         794         795         820         819
         4         795         796         821         820
         4         796         797         822         821
         4         797         798         823         822
         4         798         799         824         823
         4         800         801         826         825
         4         801         802         827         826
         4         802         803         828         827
         4         803         804         829         828
         4         804         805         830         829
         4         805         806         831         830
         4         806         807         832         831
         4         807         808         833         832
         4         808         809         834         833
         4         809         810         835         834
         4         810         811         836         835
         4         811         812         837         836
         4         812         813         838         837
         4         813         814         839         838
         4         814         815         840         839
         4         815         816         841         840
         4         816         817         842         841
         4         817         818         843         842
         4         818         819         844         843
         4         819         820         845         844
         4         820         821         846         845
         4         821         822         847         846
         4         822         823         848         847
         4         823         824         849         848
         4         825         826         851         850
         4         826         827         852         851
         4         827         828         853         852
         4         828         829         854         853
         4         829         830         855         854
         4         830         831         856         855
         4         831         832         857         856
         4         832         833         858         857
         4         833         834         859         858
         4         834         835         860         859
         4         835         836         861         860
         4         836         837         862         861
         4         837         838         863         862
         4         838         839         864         863
         4         839         840         865         864
         4         840         841         866         865
         4         841         842         867         866
         4         842         843         868         867
         4         843         844         869         868
         4         844         845         870         869
         4         845         846         871         870
         4         846         847         872         871
         4         847         848         873         872
         4         848         849         874         873
         4         850         851         876         875
         4         851         852         877         876
         4         852         853         878         877
         4         853         854         879         878
         4         854         855         880         879
         4         855         856         881         880
         4         856         857         882         881
         4         857         858         883         882
         4         858         859         884         883
         4         859         860         885         884
         4         860         861         886         885
         4         861         862         887         886
         4         862         863         888         887
         4         863         864         889         888
         4         864         865         890         889
         4         865         866         891         890
         4         866         867         892         891
         4         867         868         893         892
         4         868         869         894         893
         4         869         870         895         894
         4         870         871         896         895
         4         871         872         897         896
         4         872         873         898         897
         4         873         874         899         898
         4         875         876         901         900
         4         876         877         902         901
         4         877         878         903         902
         4         878         879         904         903
         4         879         880         905         904
         4         880         881         906         905
         4         881         882         907         906
         4         882         883         908         907
         4         883         884         909         908
         4         884         885         910         909
         4         885         886         911         910
         4         886         887         912         911
         4         887         888         913         912
         4         888         889         914         913
         4         889         890         915         914
         4         890         891         916         915
         4         891         892         917         916
         4         892         893         918         917
         4         893         894         919         918
         4         894         895         920         919
         4         895         896         921         920
         4         896         897         922         921
         4         897         898         923         922
         4         898         899         924         923
         4         900         901         926         925
         4         901         902         927         926
         4         902         903         928         927
         4         903         904         929         928
         4         904         905         930         929
         4         905         906         931         930
         4         906         907         932         931
         4         907         908         933         932
         4         908         909         934         933
         4         909         910         935         934
         4         910         911         936         935
         4         911         912         937         936
         4         912         913         938         937
         4         913         914         939         938
         4         914         915         940         939
         4         915         916         941         940
         4         916         917         942         941
         4         917         918         943         942
         4         918         919         944         943
         4         919         920         945         944
         4         920         921         946         945
         4         921         922         947         946
         4         922         923         948         947
         4         923         924         949         948
         4         925         926         951         950
         4         926         927         952         951
         4         927         928         953         952
         4         928         929         954         953
         4         929         930         955         954
         4         930         931         956         955
         4         931         932         957         956
         4         932         933         958         957
         4         933         934         959         958
         4         934         935         960         959
         4         935         936         961         960
         4         936         937         962         961
         4         937         938         963         962
         4         938         939         964         963
         4         939         940         965         964
         4         940         941         966         965
         4         941         942         967         966
         4         942         943         968         967
         4         943         944         969         968
         4         944         945         970         969
         4         945         946         971         970
         4         946         947         972         971
         4         947         948         973         972
         4         948         949         974         973
         4         950         951         976         975
         4         951         952         977         976
         4         952         953         978         977
         4         953         954         979         978
         4         954         955         980         979
         4         955         956         981         980
         4         956         957         982         981
         4         957         958         983         982
         4         958         959         984         983
         4         959         960         985         984
         4         960         961         986         985
         4         961         962         987         986
         4         962         963         988         987
         4         963         964         989         988
         4         964         965         990         989
         4         965         966         991         990
         4         966         967         992         991
         4         967         968         993         992
         4         968         969         994         993
         4         969         970         995         994
         4         970         971         996         995
         4         971         972         997         996
         4         972         973         998         997
         4         973         974         999         998
         4         975         976        1001        1000
         4         976         977        1002        1001
         4         977         978        1003        1002
         4         978         979        1004        1003
         4         979         980        1005        1004
         4         980         981        1006        1005
         4         981         982        1007        1006
         4         982         983        1008        1007
         4         983         984        1009        1008
         4         984         985        1010        1009
         4         985         986        1011        1010
         4         986         987        1012        1011
         4         987         988        1013        1012
         4         988         989        1014        1013
         4         989         990        1015        1014
         4         990         991        1016        1015
         4         991         992        1017        1016
         4         992         993        1018        1017
         4         993         994        1019        1018
         4         994         995        1020        1019
         4         995         996        1021        1020
         4         996         997        1022        1021
         4         997         998        1023        1022
         4         998         999        1024        1023
         4        1000        1001        1026        1025
         4        1001        1002        1027        1026
         4        1002        1003        1028        1027
         4        1003        1004        1029        1028
         4        1004        1005        1030        1029
         4        1005        1006        1031        1030
         4        1006        1007        1032        1031
         4        1007        1008        1033        1032
         4        1008        1009        1034        1033
         4        1009        1010        1035        1034
         4        1010        1011        1036        1035
         4        1011        1012        1037        1036
         4        1012        1013        1038        1037
         4        1013        1014        1039        1038
         4        1014        1015        1040        1039
         4        1015        1016        1041        1040
         4        1016        1017        1042        1041
         4        1017        1018        1043        1042
         4        1018        1019        1044        1043
         4        1019        1020        1045        1044
         4        1020        1021        1046        1045
         4        1021        1022        1047        1046
         4        1022        1023        1048        1047
         4        1023        1024        1049        1048
         4        1025        1026        1051        1050
         4        1026        1027        1052        1051
         4        1027        1028        1053        1052
         4        1028        1029        1054        1053
         4        1029        1030        1055        1054
         4        1030        1031        1056        1055
         4        1031        1032        1057        1056
         4        1032        1033        1058        1057
         4        1033        1034        1059        1058
         4        1034        1035        1060        1059
         4        1035        1036        1061        1060
         4        1036        1037        1062        1061
         4        1037        1038        1063        1062
         4        1038        1039        1064        1063
         4        1039        1040        1065        1064
         4        1040        1041        1066        1065
         4        1041        1042        1067        1066
         4        1042        1043        1068        1067
         4        1043        1044        1069        1068
         4        1044        1045        1070        1069
         4        1045        1046        1071        1070
         4        1046        1047        1072        1071
         4        1047        1048        1073        1072
         4        1048        1049        1074        1073
         4        1050        1051        1076        1075
         4        1051        1052        1077        1076
         4        1052        1053        1078        1077
         4        1053        1054        1079        1078
         4        1054        1055        1080        1079
         4        1055        1056        1081        1080
         4        1056        1057        1082        1081
         4        1057        1058        1083        1082
         4        1058        1059        1084        1083
         4        1059        1060        1085        1084
         4        1060        1061        1086        1085
         4        1061        1062        1087        1086
         4        1062        1063        1088        1087
         4        1063        1064        1089        1088
         4        1064        1065        1090        1089
         4        1065        1066        1091        1090
         4        1066        1067        1092        1091
         4        1067        1068        1093        1092
         4        1068        1069        1094        1093
         4        1069        1070        1095        1094
         4        1070        1071        1096        1095
         4        1071        1072        1097        1096
         4        1072        1073        1098        1097
         4        1073        1074        1099        1098
         4        1075        1076        1101        1100
         4        1076        1077        1102        1101
         4        1077        1078        1103        1102
         4        1078        1079        1104        1103
         4        1079        1080        1105        1104
         4        1080        1081        1106        1105
         4        1081        1082        1107        1106
         4        1082        1083        1108        1107
         4        1083        1084        1109        1108
         4        1084        1085        1110        1109
         4        1085        1086        1111        1110
         4        1086        1087        1112        1111
         4        1087        1088        1113        1112
         4        1088        1089        1114        1113
         4        1089        1090        1115        1114
         4        1090        1091        1116        1115
         4        1091        1092        1117        1116
         4        1092        1093        1118        1117
         4        1093        1094        1119        1118
         4        1094        1095        1120        1119
         4        1095        1096        1121        1120
         4        1096        1097        1122        1121
         4        1097        1098        1123        1122
         4        1098        1099        1124        1123
         4        1100        1101        1126        1125
         4        1101        1102        1127        1126
         4        1102        1103        1128        1127
         4        1103        1104        1129        1128
         4        1104        1105        1130        1129
         4        1105        1106        1131        1130
         4        1106        1107        1132        1131
         4        1107        1108        1133        1132
         4        1108        1109        1134        1133
         4        1109        1110        1135        1134
         4        1110        1111        1136        1135
         4        1111        1112        1137        1136
         4        1112        1113        1138        1137
         4        1113        1114        1139        1138
         4        1114        1115        1140        1139
         4        1115        1116        1141        1140
         4        1116        1117        1142        1141
         4        1117        1118        1143        1142
         4        1118        1119        1144        1143
         4        1119        1120        1145        1144
         4        1120        1121        1146        1145
         4        1121        1122        1147        1146
         4        1122        1123        1148        1147
         4        1123        1124        1149        1148
         4        1125        1126        1151        1150
         4        1126        1127        1152        1151
         4        1127        1128        1153        1152
         4        1128        1129        1154        1153
         4        1129        1130        1155        1154
         4        1130        1131        1156        1155
         4        1131        1132        1157        1156
         4        1132        1133        1158        1157
         4        1133        1134        1159        1158
         4        1134        1135        1160        1159
         4        1135        1136        1161        1160
         4        1136        1137        1162        1161
         4        1137        1138        1163        1162
         4        1138        1139        1164        1163
         4        1139        1140        1165        1164
         4        1140        1141        1166        1165
         4        1141        1142        1167        1166
         4        1142        1143        1168        1167
         4        1143        1144        1169        1168
         4        1144        1145        1170        1169
         4        1145        1146        1171        1170
         4        1146        1147        1172        1171
         4        1147        1148        1173        1172
         4        1148        1149        1174        1173
         4        1150        1151        1176        1175
         4        1151        1152        1177        1176
         4        1152        1153        1178        1177
         4        1153        1154        1179        1178
         4        1154        1155        1180        1179
         4        1155        1156        1181        1180
         4        1156        1157        1182        1181
         4        1157        1158        1183        1182
         4        1158        1159        1184        1183
         4        1159        1160        1185        1184
         4        1160        1161        1186        1185
         4        1161        1162        1187        1186
         4        1162        1163        1188        1187
         4        1163        1164        1189        1188
         4        1164        1165        1190        1189
         4        1165        1166        1191        1190
         4        1166        1167        1192        1191
         4        1167        1168        1193        1192
         4        1168        1169        1194        1193
         4        1169        1170        1195        1194
         4        1170        1171        1196        1195
         4        1171        1172        1197        1196
         4        1172        1173        1198        1197
         4        1173        1174        1199        1198
         4        1175        1176        1201        1200
         4        1176        1177        1202        1201
         4        1177        1178        1203        1202
         4        1178        1179        1204        1203
         4        1179        1180        1205        1204
         4        1180        1181        1206        1205
         4        1181        1182        1207        1206
         4        1182        1183        1208        1207
         4        1183        1184        1209        1208
         4        1184        1185        1210        1209
         4        1185        1186        1211        1210
         4        1186        1187        1212        1211
         4        1187        1188        1213        1212
         4        1188        1189        1214        1213
         4        1189        1190        1215        1214
         4        1190        1191        1216        1215
         4        1191        1192        1217        1216
         4        1192        1193        1218        1217
         4        1193        1194        1219        1218
         4        1194        1195        1220        1219
         4        1195        1196        1221        1220
         4        1196        1197        1222        1221
         4        1197        1198        1223        1222
         4        1198        1199        1224        1223
CELL_TYPES       1152
9
9
9
9
9
9
9
9
9
9
9
9
9
9
9
9
9
9
9
9
9
9
9
9
9
9
9
9
9
9
9
9
9
9
9
9
9
9
9
9
9
9
9
9
9
9
9
9
9
9
9
9
9
9
9
9
9
9
9
9
9
9
9
9
9
9
9
9
9
9
9
9
9
9
9
9
9
9
9
9
9
9
9
9
9
9
9
9
9
9
9
9
9
9
9
9
9
9
9
9
9
9
9
9
9
9
9
9
9
9
9
9
9
9
9
9
9
9
9
9
9
9
9
9
9
9
9
9
9
9
9
9
9
9
9
9
9
9
9
9
9
9
9
9
9
9
9
9
9
9
9
9
9
9
9
9
9
9
9
9
9
9
9
9
9
9
9
9
9
9
9
9
9
9
9
9
9
9
9
9
9
9
9
9
9
9
9
9
9
9
9
9
9
9
9
9
9
9
9
9
9
9
9
9
9
9
9
9
9
9
9
9
9
9
9
9
9
9
9
9
9
9
9
9
9
9
9
9
9
9
9
9
9
9
9
9
9
9
9
9
9
9
9
9
9
9
9
9
9
9
9
9
9
9
9
9
9
9
9
9
9
9
9
9
9
9
9
9
9
9
9
9
9
9
9
9
9
9
9
9
9
9
9
9
9
9
9
9
9
9
9
9
9
9
9
9
9
9
9
9
9
9
9
9
9
9
9
9
9
9
9
9
9
9
9
9
9
9
9
9
9
9
9
9
9
9
9
9
9
9
9
9
9
9
9
9
9
9
9
9
9
9
9
9
9
9
9
9
9
9
9
9
9
9
9
9
9
9
9
9
9
9
9
9
9
9
9
9
9
9
9
9
9
9
9
9
9
9
9
9
9
9
9
9
9
9
9
9
9
9
9
9
9
9
9
9
9
9
9
9
9
9
9
9
9
9
9
9
9
9
9
9
9
9
9
9
9
9
9
9
9
9
9
9
9
9
9
9
9
9
9
9
9
9
9
9
9
9
9
9
9
9
9
9
9
9
9
9
9
9
9
9
9
9
9
9
9
9
9
9
9
9
9
9
9
9
9
9
9
9
9
9
9
9
9
9
9
9
9
9
9
9
9
9
9
9
9
9
9
9
9
9
9
9
9
9
9
9
9
9
9
9
9
9
9
9
9
9
9
9
9
9
9
9
9
9
9
9
9
9
9
9
9
9
9
9
9
9
9
9
9
9
9
9
9
9
9
9
9
9
9
9
9
9
9
9
9
9
9
9
9
9
9
9
9
9
9
9
9
9
9
9
9
9
9
9
9
9
9
9
9
9
9
9
9
9
9
9
9
9
9
9
9
9
9
9
9
9
9
9
9
9
9
9
9
9
9
9
9
9
9
9
9
9
9
9
9
9
9
9
9
9
9
9
9
9
9
9
9
9
9
9
9
9
9
9
9
9
9
9
9
9
9
9
9
9
9
9
9
9
9
9
9
9
9
9
9
9
9
9
9
9
9
9
9
9
9
9
9
9
9
9
9
9
9
9
9
9
9
9
9
9
9
9
9
9
9
9
9
9
9
9
9
9
9
9
9
9
9
9
9
9
9
9
9
9
9
9
9
9
9
9
9
9
9
9
9
9
9
9
9
9
9
9
9
9
9
9
9
9
9
9
9
9
9
9
9
9
9
9
9
9
9
9
9
9
9
9
9
9
9
9
9
9
9
9
9
9
9
9
9
9
9
9
9
9
9
9
9
9
9
9
9
9
9
9
9
9
9
9
9
9
9
9
9
9
9
9
9
9
9
9
9
9
9
9
9
9
9
9
9
9
9
9
9
9
9
9
9
9
9
9
9
9
9
9
9
9
9
9
9
9
9
9
9
9
9
9
9
9
9
9
9
9
9
9
9
9
9
9
9
9
9
9
9
9
9
9
9
9
9
9
9
9
9
9
9
9
9
9
9
9
9
9
9
9
9
9
9
9
9
9
9
9
9
9
9
9
9
9
9
9
9
9
9
9
9
9
9
9
9
9
9
9
9
9
9
9
9
9
9
9
9
9
9
9
9
9
9
9
9
9
9
9
9
9
9
9
9
9
9
9
9
9
9
9
9
9
9
9
9
9
9
9
9
9
9
9
9
9
9
9
9
9
9
9
9
9
9
9
9
9
9
9
9
9
9
9
9
9
9
9
9
9
9
9
9
9
9
9
9
9
9
9
9
9
9
9
9
9
9
9
9
9
9
9
9
9
9
9
9
9
9
9
9
9
9
9
9
9
9
9
9
9
9
9
9
9
9
9
9
9
9
9
9
9
9
9
9
9
9
9
9
9
9
9
9
9
9
9
9
9
9
9
9
9
9
9
9
9
9
9
9
9
9
9
9
9
9
9
9
9
9
9
9
9
9
9
9
9
9
9
9
9
9
9
9
9
9
9
9
9
9
9
9
9
9
9
9
9
9
9
9
9
9
9
9
9
9
9
9
9
9
9
9
9
9
9
9
9
9
9
9
9
9
9
9
9
9
9
9
9
9
9
9
9
9
9
9
9
9
9
9
9
9
9
9
9
9
9
9
9
9
9
9
9
9
9
9
9
9
9
9
9
9
9
9
9
9
9
9
9
9
9
9
9
9
9
9
9
9
9
POINT_DATA      1225
SCALARS p double 
LOOKUP_TABLE default
 -6.158407679520754E-015
 -5.329150878548475E-015
 -3.098888238275891E-015
 -2.042988785864877E-015
 -2.633772929365206E-015
 -2.400475600105556E-015
 -2.522643800730779E-015
 -3.493851386954668E-015
 -3.701520246361767E-015
 -3.306749122652029E-015
 -3.183180387827069E-015
 -2.948457149467980E-015
 -2.592838566838110E-015
 -2.495156994917495E-015
 -2.562028882131181E-015
 -2.310727272467829E-015
 -2.004592852156832E-015
 -1.968042745510060E-015
 -1.828012342709930E-015
 -1.644644560435974E-015
 -1.430706599235444E-015
 -1.299181026078758E-015
 -1.218964124323312E-015
 -1.170152472087239E-015
 -1.147224420704349E-015
 -5.836783166321047E-015
 -5.099295736436529E-015
 -2.229585927309987E-015
 -1.706253950073926E-015
 -2.978800825340367E-015
 -2.632445274733110E-015
 -2.759885906822316E-015
 -3.162218993261314E-015
 -3.322798803612874E-015
 -3.285231193974215E-015
 -3.167020946150859E-015
 -2.966104459005116E-015
 -2.438330823122966E-015
 -2.365492387620499E-015
 -2.476026595222234E-015
 -2.231070598046743E-015
 -2.049385907528818E-015
 -1.968629494117128E-015
 -1.837391811599840E-015
 -1.629822052636528E-015
 -1.390643976658397E-015
 -1.273798553991883E-015
 -1.192856836822572E-015
 -1.139331122400945E-015
 -1.128199582967847E-015
 -3.084949366667354E-015
 -2.856772061092332E-015
 -2.275014298854598E-015
 -1.524276288735578E-015
 -2.209310051337359E-015
 -2.796111131675930E-015
 -2.584250431515691E-015
 -2.864976933801016E-015
 -3.069490954654294E-015
 -3.092835719409305E-015
 -2.961426099888887E-015
 -2.805149021805708E-015
 -2.315535741055855E-015
 -2.176861628874591E-015
 -2.220316424484231E-015
 -2.027887516848782E-015
 -2.071544786575368E-015
 -1.988636424459842E-015
 -1.744798710916759E-015
 -1.568211945105905E-015
 -1.373604146392535E-015
 -1.234292806616181E-015
 -1.163740430136246E-015
 -1.094579984165386E-015
 -1.081456990267217E-015
  0.000000000000000E+000
 -1.447359137181477E-015
 -1.927649430638347E-015
 -1.790066285273873E-015
 -1.666980763324745E-015
 -2.326058011827588E-015
 -2.483115692389217E-015
 -2.806184492124085E-015
 -2.797761536175554E-015
 -2.766491960904888E-015
 -2.568114712559281E-015
 -2.204503519961883E-015
 -2.205718046712525E-015
 -2.055102491574726E-015
 -2.091610345969169E-015
 -2.096938761853519E-015
 -2.041105471043327E-015
 -1.882716383640539E-015
 -1.635056024059283E-015
 -1.471608221535696E-015
 -1.351931189379597E-015
 -1.195562134873937E-015
 -1.064856585268858E-015
 -1.027007196765650E-015
 -1.041558986595480E-015
  0.000000000000000E+000
 -6.034421433196555E-016
 -1.160690129992021E-015
 -1.428042013162132E-015
 -1.611996991336496E-015
 -1.752093682367504E-015
 -2.016904389363662E-015
 -2.149633087784478E-015
 -1.998785902113519E-015
 -2.116667522095910E-015
 -2.249262652497776E-015
 -2.146007493839052E-015
 -2.052178829289372E-015
 -2.037117582604005E-015
 -2.021735181390893E-015
 -2.081826916553764E-015
 -2.005736338965320E-015
 -1.757097198659240E-015
 -1.539243678475777E-015
 -1.339249044010809E-015
 -1.196593645706225E-015
 -1.064066035221499E-015
 -9.830559226875678E-016
 -9.453029071863563E-016
 -9.395866317635691E-016
  0.000000000000000E+000
 -5.883579177297168E-017
 -5.664313149034901E-016
 -1.139535895815133E-015
 -1.679679294523560E-015
 -1.629478303149655E-015
 -1.264202453854334E-015
 -1.142019286646259E-015
 -1.305817621532048E-015
 -1.480406170273620E-015
 -1.789008307844686E-015
 -1.929441695927722E-015
 -1.910192777280534E-015
 -2.008750987437896E-015
 -1.881759307737581E-015
 -1.846538582664649E-015
 -1.725545727748254E-015
 -1.502655860716512E-015
 -1.373335363059579E-015
 -1.172313643145412E-015
 -1.090007217089655E-015
 -9.530402452231190E-016
 -8.744076664450232E-016
 -8.365105695991300E-016
 -8.243354725034715E-016
  0.000000000000000E+000
 -1.471448164309630E-016
 -3.466170544290262E-016
 -5.453348397399888E-016
 -8.888493347966322E-016
 -7.366963287057960E-016
 -9.469799152044415E-016
 -1.088714183043790E-015
 -1.004427659445433E-015
 -1.109425055324972E-015
 -1.108035439099387E-015
 -1.287175548945415E-015
 -1.428970149504916E-015
 -1.590547707336252E-015
 -1.619295218829106E-015
 -1.630771798010283E-015
 -1.510884850338257E-015
 -1.252288064235580E-015
 -1.107977845707908E-015
 -1.045885567596804E-015
 -9.735128319813721E-016
 -8.591156690537225E-016
 -7.595087565690726E-016
 -7.083013208753082E-016
 -6.907461264805386E-016
  0.000000000000000E+000
 -7.103651859145712E-017
 -1.162269535881662E-016
  3.031950532449957E-016
  4.984355478129193E-016
  3.236661700880171E-016
 -2.998085100135294E-016
 -4.634325473250466E-016
 -5.599382454427057E-016
 -5.686898335635159E-016
 -3.435823907954241E-016
 -6.276764924639665E-016
 -9.317346271201479E-016
 -1.171372825845540E-015
 -1.214126403818359E-015
 -1.183067749878958E-015
 -1.213539894429790E-015
 -1.054962430117620E-015
 -9.729733816900892E-016
 -9.100329983563751E-016
 -8.387795082108130E-016
 -7.517380554638574E-016
 -6.252750756517913E-016
 -5.888655365677215E-016
 -5.620696391076239E-016
  0.000000000000000E+000
 -5.116013623872038E-018
  3.976952467831774E-016
  8.561516280195850E-016
  8.934829587238719E-016
  7.582253736533358E-016
  6.950389410442759E-016
  6.161776184704097E-016
  4.977151298612946E-016
  6.541023478060339E-016
  3.588817781758602E-016
 -2.342321404205202E-016
 -6.525893075033210E-016
 -8.707264094345558E-016
 -9.618426501258067E-016
 -9.214351298943009E-016
 -9.733653003753916E-016
 -1.034241496473945E-015
 -8.603060065241641E-016
 -7.646974247066913E-016
 -6.919956376075259E-016
 -5.973417098547325E-016
 -4.929128891779290E-016
 -4.442511482379807E-016
 -4.371254002949448E-016
  0.000000000000000E+000
  2.731208456315282E-016
  7.111410521550798E-016
  1.072425077165462E-015
  1.014980445690497E-015
  1.219310440729487E-015
  1.530338330814426E-015
  1.465075998619404E-015
  1.515753541436240E-015
  1.332142511713815E-015
  8.076613627554432E-016
  1.000423367661499E-017
 -3.619693671469891E-016
 -6.307880597283070E-016
 -8.045971312770797E-016
 -7.447550984486039E-016
 -6.568197601332080E-016
 -6.747562329856330E-016
 -6.558979437017761E-016
 -6.695681163558473E-016
 -5.205874869158794E-016
 -3.719358131047023E-016
 -3.331589193625318E-016
 -3.102744577406560E-016
 -2.803753474000496E-016
  0.000000000000000E+000
  2.841961249351593E-016
  6.487258536548441E-016
  1.010766453611758E-015
  1.375072104754522E-015
  1.448290154917529E-015
  1.743149773186870E-015
  1.836910209078564E-015
  1.565110699179420E-015
  1.255484554906692E-015
  1.056459793351764E-015
  5.273706247421736E-016
  9.659363454669037E-018
 -2.570798193729420E-016
 -3.607266648464132E-016
 -4.687803751462572E-016
 -3.849563877269411E-016
 -3.024561178580478E-016
 -3.981325207932192E-016
 -4.609169282133606E-016
 -4.232759177666797E-016
 -2.177252468916462E-016
 -1.544352765370327E-016
 -1.383461513589428E-016
 -1.389738604652960E-016
  0.000000000000000E+000
  2.669890069749252E-016
  6.677239965802301E-016
  1.054602647771116E-015
  1.422235992248852E-015
  1.683287045358032E-015
  1.783938770133328E-015
  1.671225377356425E-015
  1.658532787302689E-015
  1.488444630938834E-015
  1.367393004040525E-015
  9.048286711705881E-016
  2.328881284863250E-016
 -1.096405091962275E-016
 -1.953263027325105E-016
 -2.229724959710528E-016
 -2.098390223474493E-016
 -1.644387212058887E-016
 -1.687407809054396E-016
 -2.246338456526760E-016
 -2.422604076731260E-016
 -4.916783006070371E-017
  4.771807758854152E-017
  1.475525107909357E-017
 -2.468750904447088E-018
  0.000000000000000E+000
  4.448953748748490E-016
  8.424720526755411E-016
  1.123852779202960E-015
  1.418563112334693E-015
  1.827288660679989E-015
  1.883511261956552E-015
  1.765826197192695E-015
  1.568635530064986E-015
  1.716819514568000E-015
  1.466118014942184E-015
  1.147329463825449E-015
  5.206974903741933E-016
  1.735204153387762E-016
 -4.629050221179866E-017
  3.096139027507034E-017
  2.794463036801368E-017
  6.151287516475359E-017
  6.460220626797411E-017
  2.205618841848916E-018
  3.790575661398731E-017
  1.355158875729156E-016
  1.816212205896047E-016
  1.340532094400273E-016
  1.146861293176120E-016
  0.000000000000000E+000
  4.510249352974956E-016
  8.495713315761169E-016
  1.105536481826006E-015
  1.552726578980014E-015
  1.933526613848171E-015
  2.047787699006384E-015
  1.947282344945817E-015
  1.964903582809944E-015
  1.949102840062935E-015
  1.757653318142119E-015
  1.412643661647030E-015
  7.988526766011585E-016
  6.129129107691113E-016
  3.047591322684424E-016
  1.349692753005764E-016
  1.753745904307303E-016
  2.241189989922729E-016
  2.268866883124051E-016
  1.835263830404513E-016
  1.726009288645348E-016
  2.215888957114439E-016
  2.252034276495264E-016
  2.064392879815985E-016
  1.935659914871995E-016
  0.000000000000000E+000
  3.932880670878425E-016
  7.840779655478030E-016
  1.219469540884987E-015
  1.694304057204925E-015
  1.907417097041011E-015
  2.133053537448644E-015
  2.142365420436115E-015
  2.153559139280034E-015
  2.155880473746969E-015
  1.818583943732945E-015
  1.396063322180586E-015
  9.781424960020272E-016
  7.379854130569213E-016
  5.097885444243049E-016
  3.016871393153454E-016
  2.297588959501663E-016
  1.923219340956948E-016
  2.272403736242586E-016
  2.547121494076813E-016
  2.805308080208782E-016
  2.348676410972775E-016
  2.473899151312990E-016
  2.456461765278943E-016
  2.472195867421509E-016
  0.000000000000000E+000
  3.883331525573513E-016
  7.890959251301300E-016
  1.237214491748812E-015
  1.552184042925681E-015
  1.811900098666811E-015
  1.900152752879250E-015
  2.112851609835444E-015
  2.154586685829634E-015
  2.095291912940948E-015
  1.631219189245872E-015
  1.197790250626933E-015
  9.052525676655095E-016
  8.207278305526882E-016
  6.818786824770746E-016
  3.941800336705980E-016
  2.704224044708103E-016
  2.031841014541069E-016
  2.807773612637924E-016
  3.871089731805177E-016
  3.779312055125981E-016
  2.551905193356568E-016
  2.687304781908889E-016
  2.966352387363761E-016
  3.093545434048116E-016
  0.000000000000000E+000
  4.937241357788951E-016
  7.844099965318295E-016
  1.117707119132978E-015
  1.363821490362692E-015
  1.560276650280039E-015
  1.734049693940336E-015
  1.841343109095459E-015
  2.146287877865650E-015
  2.125130010061487E-015
  1.782898710135386E-015
  1.479045769566764E-015
  1.135485326143375E-015
  9.201748711186809E-016
  7.652353390237275E-016
  5.719138325910981E-016
  4.618010164713717E-016
  4.249319411924256E-016
  4.226900750978488E-016
  4.247882826752111E-016
  3.940607064112626E-016
  3.681138521633092E-016
  3.471265133729201E-016
  3.756335371926307E-016
  3.809651879237762E-016
  0.000000000000000E+000
  4.831448196570458E-016
  7.911832412609215E-016
  9.039454670598689E-016
  1.171071393844138E-015
  1.395343695811322E-015
  1.598484320533245E-015
  1.767587967358635E-015
  1.949366636118166E-015
  2.070629138648576E-015
  1.846500213941865E-015
  1.704877276519937E-015
  1.473601562208300E-015
  1.123352954099683E-015
  9.148144495765745E-016
  7.439051616699391E-016
  5.837014716117544E-016
  5.412932460855016E-016
  5.259441067380483E-016
  5.076894292416957E-016
  4.638693925612663E-016
  4.412286940667754E-016
  4.551739655818944E-016
  4.521598602714724E-016
  4.491129632095697E-016
  0.000000000000000E+000
  3.234910218005087E-016
  6.109263535563023E-016
  7.364623083118155E-016
  1.020882466958122E-015
  1.267336848202121E-015
  1.489824283648196E-015
  1.790510961104177E-015
  1.894658398355757E-015
  1.860463227331735E-015
  1.707462231050836E-015
  1.510019216487753E-015
  1.288256319990528E-015
  1.105173748622788E-015
  9.313532815713877E-016
  7.515202518115461E-016
  6.874997766087985E-016
  6.015457614208477E-016
  5.545272868733251E-016
  5.888962326046777E-016
  5.450770777238131E-016
  4.739233952021625E-016
  5.123958173769701E-016
  4.932137722209121E-016
  4.786106155486125E-016
  0.000000000000000E+000
  2.532860703458322E-016
  4.744231476866494E-016
  7.135183213042821E-016
  9.303192426494525E-016
  1.150916988553709E-015
  1.359970621612672E-015
  1.567840803471504E-015
  1.769967666057914E-015
  1.753955787724748E-015
  1.682166418489976E-015
  1.381686745808217E-015
  1.110577965287003E-015
  1.057689893154928E-015
  9.078185270164605E-016
  8.501529090117243E-016
  8.105095410018941E-016
  7.655970573828433E-016
  6.859782081413802E-016
  6.576807228482211E-016
  5.868337070872400E-016
  5.421872142992519E-016
  5.150611026939490E-016
  5.039787180118248E-016
  5.076969961532487E-016
  0.000000000000000E+000
  2.706772045662542E-016
  5.234378165036175E-016
  6.533151031447634E-016
  8.576923586625505E-016
  1.078567226512398E-015
  1.260954750180465E-015
  1.362664253321168E-015
  1.457034209965076E-015
  1.523099425134157E-015
  1.513872450812225E-015
  1.380304442851950E-015
  1.217199834267401E-015
  1.057371550820674E-015
  1.027912774257172E-015
  1.045111607587132E-015
  9.850153240253604E-016
  9.080644325980471E-016
  8.372027170243944E-016
  6.876670323679508E-016
  6.514937775546170E-016
  6.133178924362258E-016
  5.620211724179499E-016
  5.504831782345613E-016
  5.371894453201805E-016
  0.000000000000000E+000
  2.484435750449943E-016
  3.934276350916566E-016
  5.628491307293492E-016
  7.890051291335903E-016
  9.981964846437847E-016
  1.209810501924551E-015
  1.422149247345937E-015
  1.530817544197923E-015
  1.480244153282760E-015
  1.384626877642813E-015
  1.380834594380682E-015
  1.299409276984673E-015
  1.339460454348300E-015
  1.284245805929612E-015
  1.235426369194682E-015
  1.092932314946190E-015
  8.847076826973920E-016
  7.910379992693546E-016
  7.455587089139327E-016
  7.125364472398208E-016
  6.573225619586747E-016
  6.100156858511120E-016
  5.848509825672366E-016
  5.784010900720143E-016
  0.000000000000000E+000
  4.372758556386107E-017
  2.466802416077924E-016
  4.949575499324698E-016
  7.195771837311361E-016
  9.144122198157960E-016
  1.058280961717515E-015
  1.399377980660086E-015
  1.634485493336727E-015
  1.541876164341606E-015
  1.464646278250084E-015
  1.335478712835925E-015
  1.322882171352295E-015
  1.422171386102232E-015
  1.448277185694852E-015
  1.293318244443994E-015
  1.058937282978924E-015
  8.989194240710659E-016
  8.313639662344132E-016
  7.892796656290944E-016
  7.237459098769931E-016
  6.914350255247380E-016
  6.492179118198206E-016
  6.234226159947150E-016
  6.247666366110931E-016
  0.000000000000000E+000
 -7.138220982064167E-018
  2.397020070834066E-016
  4.502058673967344E-016
  6.657815319265233E-016
  8.774733171828060E-016
  9.738297927332385E-016
  1.080839007471013E-015
  1.175922279779734E-015
  1.368999882083542E-015
  1.393920812063091E-015
  1.229852947620057E-015
  1.230136940647445E-015
  1.331937103989588E-015
  1.434846974306764E-015
  1.370917372744949E-015
  1.153813223595895E-015
  9.589915432655364E-016
  8.918519431296155E-016
  8.043620746159037E-016
  7.665243511762357E-016
  7.302887505296161E-016
  7.100808027750046E-016
  6.802741801093714E-016
  6.702145561196727E-016
  0.000000000000000E+000
  1.255940972508192E-016
  2.612511228917546E-016
  4.241306137372068E-016
  6.282613028129104E-016
  8.878937008244338E-016
  1.067024033686748E-015
  1.098316472738033E-015
  1.014925542738084E-015
  1.239940442613858E-015
  1.267469566553746E-015
  1.232684266383300E-015
  1.260765072290672E-015
  1.208249114080691E-015
  1.369408946167617E-015
  1.459981383998273E-015
  1.199826044261053E-015
  1.006920725169513E-015
  8.953213090198160E-016
  8.518472948995322E-016
  8.279762139221927E-016
  7.774456996339250E-016
  7.516116904553919E-016
  7.499141500689448E-016
  7.437576774189823E-016
  0.000000000000000E+000
  1.485454283606348E-016
  2.703533608704797E-016
  3.994965925083906E-016
  5.884623900893439E-016
  7.970783177802389E-016
  1.015710144724889E-015
  1.089595160916712E-015
  1.139292949908538E-015
  1.175771094690677E-015
  1.277947535805522E-015
  1.232539581748934E-015
  1.147191888082505E-015
  1.166025296615398E-015
  1.223657482164539E-015
  1.219027016772252E-015
  1.124096922906941E-015
  1.028770443830664E-015
  9.443998238546341E-016
  9.003423771401845E-016
  9.151430232443849E-016
  8.674688792716959E-016
  8.430080417272788E-016
  8.365946074124270E-016
  8.348483565154586E-016
  0.000000000000000E+000
  1.501228683924007E-016
  2.618670946519980E-016
  3.614486550501151E-016
  5.107681096140582E-016
  6.695058800129228E-016
  7.969326466864328E-016
  8.812695294901536E-016
  9.179767812695633E-016
  9.822168140499180E-016
  1.162642265446855E-015
  1.154566254968682E-015
  1.109524840873729E-015
  1.090231433824451E-015
  1.063640727079254E-015
  1.110963939947061E-015
  1.083753832110536E-015
  1.030843537394888E-015
  1.022847639638022E-015
  9.750411322226877E-016
  9.683613851883565E-016
  9.637703908096024E-016
  9.362753273955820E-016
  9.305950867857593E-016
  9.250421472023347E-016
  0.000000000000000E+000
  1.177292072447343E-016
  2.194209844976364E-016
  3.130459007542399E-016
  4.260874495874247E-016
  5.334354842513391E-016
  6.253074134170192E-016
  6.857788417751740E-016
  6.737762130020900E-016
  8.826397386419421E-016
  9.595442411703902E-016
  1.079711643678425E-015
  1.184559026515920E-015
  1.112890550096801E-015
  1.006162772972690E-015
  1.074302603863932E-015
  1.050905103565968E-015
  1.069928836869976E-015
  1.120851605048748E-015
  1.068553261503046E-015
  1.024334782491202E-015
  1.028281789960848E-015
  1.027247659884196E-015
  1.016848892606785E-015
  1.007260030845882E-015
  0.000000000000000E+000
  6.413077265021901E-017
  1.567683507200411E-016
  2.553835037015287E-016
  3.204878067701928E-016
  3.871259766255852E-016
  4.756050476784001E-016
  5.214208232251117E-016
  6.550491198895929E-016
  6.812692355686928E-016
  7.826921238627272E-016
  9.349720994963659E-016
  1.097881883868230E-015
  1.144683568478218E-015
  1.043137503269781E-015
  9.994203995219437E-016
  1.052492324270145E-015
  1.106904304226536E-015
  1.113399810588508E-015
  1.098175137240474E-015
  1.120646827082636E-015
  1.097241255892179E-015
  1.112424409373114E-015
  1.093322037108478E-015
  1.083886127970066E-015
  0.000000000000000E+000
  1.295529025362381E-016
  2.578959841424949E-016
  2.167924022941913E-016
  2.483976767687301E-016
  2.940340217781020E-016
  3.379355425030271E-016
  4.062430154553076E-016
  5.995659886156254E-016
  6.560911729173366E-016
  8.279805196281824E-016
  8.313563252997676E-016
  1.024995747934592E-015
  1.126751828817346E-015
  1.160802091167901E-015
  1.084241506417212E-015
  1.104707461838107E-015
  1.088510551370129E-015
  1.112973017434873E-015
  1.185420229012033E-015
  1.196479328297720E-015
  1.178288237473103E-015
  1.160511037651442E-015
  1.144508575987156E-015
  1.141268064973945E-015
  0.000000000000000E+000
  2.392975501871741E-016
  3.350294880120074E-016
  2.313254124984537E-016
  2.164336787953323E-016
  2.217527729508513E-016
  2.798682177887158E-016
  4.084293441719153E-016
  4.927418215377406E-016
  6.939800887288434E-016
  9.337232515048274E-016
  9.188241176425034E-016
  1.037295307464179E-015
  1.145737513215989E-015
  1.208646598980662E-015
  1.155272172187123E-015
  1.119290001200098E-015
  1.158944560952915E-015
  1.187724189583434E-015
  1.274548196954682E-015
  1.269509241899415E-015
  1.236613396270394E-015
  1.193481525175307E-015
  1.177130001146321E-015
  1.176890383067386E-015
  0.000000000000000E+000
  1.905998463956852E-016
  2.480508919726580E-016
  3.537007576986051E-016
  3.308767724052809E-016
  2.142258161743234E-016
  2.371573225711814E-016
  4.575579027947208E-016
  5.906372060063891E-016
  7.353407499174574E-016
  8.930248212286092E-016
  9.899344309225143E-016
  1.098447067795949E-015
  1.135913000967053E-015
  1.229680031222034E-015
  1.192141545393152E-015
  1.153314385837005E-015
  1.230101977636354E-015
  1.269656312639892E-015
  1.291604362313305E-015
  1.293650763087918E-015
  1.271493772182020E-015
  1.237488318695784E-015
  1.217129377671657E-015
  1.214981714059133E-015
  0.000000000000000E+000
  1.429994097177337E-016
  1.952744196761685E-016
  3.252898783939026E-016
  4.036880329705592E-016
  3.905064056601132E-016
  3.931045289706202E-016
  5.655646338477120E-016
  6.898674124468386E-016
  7.746247170302597E-016
  9.051831733218259E-016
  1.041743391994698E-015
  1.124113704860727E-015
  1.205997351238299E-015
  1.257569830662122E-015
  1.244209486181564E-015
  1.252881462630342E-015
  1.268274839776137E-015
  1.291609502447063E-015
  1.296299898336861E-015
  1.291366741108996E-015
  1.279340316635340E-015
  1.265504754051871E-015
  1.252006365586316E-015
  1.244696712265482E-015
  0.000000000000000E+000
  1.542910627143196E-016
  2.259746830250039E-016
  3.724478302567390E-016
  4.524045796814941E-016
  5.405267418597203E-016
  5.702659946072388E-016
  5.649667310563898E-016
  7.396577696660544E-016
  8.211509345466381E-016
  9.127169308531824E-016
  1.087084223494023E-015
  1.184854202634795E-015
  1.220823563965057E-015
  1.257439211672153E-015
  1.307144911756278E-015
  1.305523733233054E-015
  1.314379030729543E-015
  1.326656978407253E-015
  1.333131967078950E-015
  1.311969069206011E-015
  1.281696940813432E-015
  1.277404413844778E-015
  1.265723091191729E-015
  1.262051616660769E-015
  0.000000000000000E+000
  1.469642310605723E-016
  3.071358490233731E-016
  4.024891051437514E-016
  4.684727348640204E-016
  5.602739344873302E-016
  6.168222595461048E-016
  5.794761902376247E-016
  7.340279745481535E-016
  8.431097763152654E-016
  9.532389592295348E-016
  1.112958402791889E-015
  1.209725325436358E-015
  1.239635505546198E-015
  1.308206424981979E-015
  1.353153015751339E-015
  1.334885421187260E-015
  1.327430035590305E-015
  1.346814874862152E-015
  1.330118617060667E-015
  1.337531666657162E-015
  1.318952788159897E-015
  1.289775770653980E-015
  1.275548582230214E-015
  1.275903485844466E-015
  0.000000000000000E+000
  1.010125088637717E-016
  2.764730148043185E-016
  3.841535494130476E-016
  4.925241210558898E-016
  5.695360346817994E-016
  6.497251431235970E-016
  7.252629973292666E-016
  7.928374348858893E-016
  9.121947756492438E-016
  1.054364469154075E-015
  1.144508515179885E-015
  1.226853511110956E-015
  1.294909894617902E-015
  1.368057076515066E-015
  1.400234330071911E-015
  1.400150805991990E-015
  1.357388440796723E-015
  1.352889036708298E-015
  1.343379882453112E-015
  1.328094825245819E-015
  1.313360203186013E-015
  1.304370723624123E-015
  1.294134395006160E-015
  1.291031789170704E-015
  0.000000000000000E+000
  5.253768051725541E-017
  2.034842653459242E-016
  4.002941170225737E-016
  5.297787262800315E-016
  6.497931138142346E-016
  6.809913816566098E-016
  7.632562126127757E-016
  8.499659738828426E-016
  9.483705667902987E-016
  1.053332407638137E-015
  1.117277773520819E-015
  1.196982699872670E-015
  1.289677182352725E-015
  1.388505499770367E-015
  1.411891524985439E-015
  1.402156512392972E-015
  1.371742573485806E-015
  1.335785312024768E-015
  1.339137522267774E-015
  1.320269722365471E-015
  1.301674985805590E-015
  1.301121674688088E-015
  1.304363857676566E-015
  1.300796009427637E-015
  0.000000000000000E+000
  1.107480862471821E-016
  2.044024421982286E-016
  3.722475298133748E-016
  5.049495427665840E-016
  5.761882667364268E-016
  7.016384970174839E-016
  7.635175748105653E-016
  8.209661165241875E-016
  9.410998950975942E-016
  1.044073499177793E-015
  1.110244704113718E-015
  1.182279388282860E-015
  1.279783210980261E-015
  1.373547847867073E-015
  1.394244669139195E-015
  1.354108774350903E-015
  1.340747177634761E-015
  1.306399133507937E-015
  1.304430549796012E-015
  1.299521486450513E-015
  1.295128603030723E-015
  1.301466146340485E-015
  1.304705547572006E-015
  1.304287026870930E-015
  0.000000000000000E+000
  1.773082140919336E-016
  2.521720772103574E-016
  3.579062773813950E-016
  4.365515901145102E-016
  5.635504087553244E-016
  6.835542701992226E-016
  7.980870214979831E-016
  8.586971233229810E-016
  9.829149279393771E-016
  1.093669287171324E-015
  1.182626063977597E-015
  1.255665035351912E-015
  1.320596216965836E-015
  1.359789441501125E-015
  1.336622873153451E-015
  1.327489221531281E-015
  1.328102781083835E-015
  1.292617551555648E-015
  1.289683849110144E-015
  1.286763929587430E-015
  1.294844406451279E-015
  1.301490767774064E-015
  1.303422631967135E-015
  1.302122424870469E-015
  0.000000000000000E+000
  1.546146874359769E-016
  2.430970872528942E-016
  3.187802695337923E-016
  4.131146710201736E-016
  5.530854342132423E-016
  7.154742182532871E-016
  8.277721374980437E-016
  8.766958516485813E-016
  9.844235440427483E-016
  1.101295680483311E-015
  1.191368487780611E-015
  1.226151159180786E-015
  1.270349729445501E-015
  1.299818228608855E-015
  1.306799997458673E-015
  1.304632317038499E-015
  1.298389997922478E-015
  1.282509759503636E-015
  1.281820996283006E-015
  1.282958318663874E-015
  1.290989539880024E-015
  1.294954174495782E-015
  1.295624077344671E-015
  1.297328621042640E-015
  0.000000000000000E+000
  1.168485259436838E-016
  1.998277549044505E-016
  2.971683524672830E-016
  4.138651000065632E-016
  5.319076821477849E-016
  6.989824441316130E-016
  7.882469024850387E-016
  8.481030064621203E-016
  9.280547561879110E-016
  1.033582949730222E-015
  1.103585699988847E-015
  1.160453856945452E-015
  1.183022782429765E-015
  1.243309580155147E-015
  1.286597767497478E-015
  1.284904995785610E-015
  1.276881323787149E-015
  1.281121583040474E-015
  1.272602728066813E-015
  1.278071472010545E-015
  1.283764276216659E-015
  1.289429313576928E-015
  1.289922946000907E-015
  1.293615629331033E-015
  0.000000000000000E+000
  6.799979463738190E-017
  1.629940991959467E-016
  3.023384225060296E-016
  4.298663377830959E-016
  5.694197250262574E-016
  6.599991742674906E-016
  7.420375690491444E-016
  8.158486815445134E-016
  8.818172400360190E-016
  9.454594067383316E-016
  1.027506732279998E-015
  1.120071522122204E-015
  1.159117383888997E-015
  1.200253171075734E-015
  1.247223470057893E-015
  1.265009792540876E-015
  1.276169256210370E-015
  1.285670002689539E-015
  1.278298052102815E-015
  1.274893777159794E-015
  1.277223198800466E-015
  1.283191542679947E-015
  1.288207877932467E-015
  1.291945679583651E-015
  0.000000000000000E+000
  5.995769180247684E-017
  1.462275205024298E-016
  2.911375805403166E-016
  4.441866793134735E-016
  5.728930513099486E-016
  6.751706210626278E-016
  7.477576278187027E-016
  8.347043781696854E-016
  8.971064799417146E-016
  9.454271778223887E-016
  1.019735531074285E-015
  1.088574656842464E-015
  1.137224017968971E-015
  1.193541128416039E-015
  1.236769168905039E-015
  1.238036473115452E-015
  1.249043058335359E-015
  1.261580657685381E-015
  1.262374344045975E-015
  1.270193734669821E-015
  1.270405051628097E-015
  1.279150137470899E-015
  1.288099499325994E-015
  1.289664797851329E-015
  0.000000000000000E+000
  1.148278525423462E-016
  2.070021547159766E-016
  3.145022461505630E-016
  4.374161116841569E-016
  5.502557888365217E-016
  6.590360646377592E-016
  7.675070261683796E-016
  8.504558113166467E-016
  9.193445512213389E-016
  9.606817107323329E-016
  1.010675899921259E-015
  1.063437910874155E-015
  1.124918994685186E-015
  1.165022736116451E-015
  1.203652950752457E-015
  1.215182225717747E-015
  1.215019836540452E-015
  1.227632497247773E-015
  1.241248004206840E-015
  1.258235423090026E-015
  1.269668253199083E-015
  1.279183856528891E-015
  1.283288316834610E-015
  1.286352288328083E-015
  0.000000000000000E+000
  1.466599622038194E-016
  2.534223693198815E-016
  3.486367209988022E-016
  4.613885502602445E-016
  5.691538139049437E-016
  6.697627472178157E-016
  7.622271476545717E-016
  8.377444694176539E-016
  9.122053057885619E-016
  9.715866096047549E-016
  1.022674815327975E-015
  1.073764739704407E-015
  1.107139350814270E-015
  1.140827542053344E-015
  1.176081541190864E-015
  1.197638338250619E-015
  1.203981349310150E-015
  1.220126774502806E-015
  1.235432253679698E-015
  1.253218691727347E-015
  1.267747800539150E-015
  1.275602238563352E-015
  1.279974289434442E-015
  1.281510995109575E-015
  0.000000000000000E+000
  1.086921244535975E-016
  2.415416754366367E-016
  3.886417603932146E-016
  5.006386617759856E-016
  6.020699618347391E-016
  6.995201128373984E-016
  7.603401556007262E-016
  8.428252356669140E-016
  9.070436784061878E-016
  9.857733029779799E-016
  1.032716735383370E-015
  1.078322327926780E-015
  1.112044912538818E-015
  1.142866586543249E-015
  1.175467973157197E-015
  1.190393184548565E-015
  1.208989943392042E-015
  1.228376860558662E-015
  1.238729628430998E-015
  1.254095823853669E-015
  1.263639748232521E-015
  1.271607327374437E-015
  1.277352174183376E-015
  1.278463208098901E-015
  0.000000000000000E+000
  9.747021441874008E-017
  2.395536790208001E-016
  3.965890169327404E-016
  5.288488921416127E-016
  6.124222550467126E-016
  6.940329996062927E-016
  7.731225916653806E-016
  8.328585039511612E-016
  8.995710147209345E-016
  9.678081645264105E-016
  1.024432737511324E-015
  1.064968940366962E-015
  1.112322192491047E-015
  1.147112078725860E-015
  1.172735773402640E-015
  1.191596109767878E-015
  1.212355009805379E-015
  1.230521250923404E-015
  1.243477073391207E-015
  1.256803351988564E-015
  1.263683158112945E-015
  1.269002316879483E-015
  1.272190726104748E-015
  1.272474016006458E-015
  0.000000000000000E+000
  1.080220162241102E-016
  2.508221874315569E-016
  3.985055907240917E-016
  5.264292291567250E-016
  6.186847193167268E-016
  7.011176509442719E-016
  7.797567333536811E-016
  8.358145837505177E-016
  8.992426512663493E-016
  9.516019543498508E-016
  1.007877514975069E-015
  1.057440968154805E-015
  1.101361799535631E-015
  1.140177483626755E-015
  1.173361669259315E-015
  1.198513470460542E-015
  1.211626601283441E-015
  1.230088017924205E-015
  1.248536566223395E-015
  1.260527885011126E-015
  1.264608091854706E-015
  1.267839676429590E-015
  1.269277510410722E-015
  1.269300215293984E-015
  0.000000000000000E+000
  1.186243881216357E-016
  2.566148747453276E-016
  4.071714491371202E-016
  5.291830295886233E-016
  6.116110088140574E-016
  6.922650329858266E-016
  7.781451184100111E-016
  8.508083132612876E-016
  9.008574818777462E-016
  9.536686776810511E-016
  1.002970168017439E-015
  1.053847943198084E-015
  1.099826857142113E-015
  1.138576830364767E-015
  1.172222100400500E-015
  1.201517818480009E-015
  1.215153685156535E-015
  1.231729923785295E-015
  1.251443835687188E-015
  1.264277247026361E-015
  1.264790213534722E-015
  1.270004050441069E-015
  1.269135713229091E-015
  1.267502131870072E-015
VECTORS u double 
    0.00000E+00        -0.74038E+00         0.00000E+00
    0.00000E+00        -0.69738E+00         0.00000E+00
    0.00000E+00        -0.63656E+00         0.00000E+00
    0.00000E+00        -0.56776E+00         0.00000E+00
    0.00000E+00        -0.49934E+00         0.00000E+00
    0.00000E+00        -0.43603E+00         0.00000E+00
    0.00000E+00        -0.37960E+00         0.00000E+00
    0.00000E+00        -0.33016E+00         0.00000E+00
    0.00000E+00        -0.28690E+00         0.00000E+00
    0.00000E+00        -0.24878E+00         0.00000E+00
    0.00000E+00        -0.21497E+00         0.00000E+00
    0.00000E+00        -0.18479E+00         0.00000E+00
    0.00000E+00        -0.15783E+00         0.00000E+00
    0.00000E+00        -0.13385E+00         0.00000E+00
    0.00000E+00        -0.11263E+00         0.00000E+00
    0.00000E+00        -0.93929E-01         0.00000E+00
    0.00000E+00        -0.77457E-01         0.00000E+00
    0.00000E+00        -0.63022E-01         0.00000E+00
    0.00000E+00        -0.50422E-01         0.00000E+00
    0.00000E+00        -0.39388E-01         0.00000E+00
    0.00000E+00        -0.29678E-01         0.00000E+00
    0.00000E+00        -0.20974E-01         0.00000E+00
    0.00000E+00        -0.13148E-01         0.00000E+00
    0.00000E+00        -0.61552E-02         0.00000E+00
    0.00000E+00         0.00000E+00         0.00000E+00
   -0.11925E-01        -0.71830E+00         0.00000E+00
    0.31925E-01        -0.67387E+00         0.00000E+00
    0.58397E-01        -0.61143E+00         0.00000E+00
    0.67910E-01        -0.54480E+00         0.00000E+00
    0.66625E-01        -0.48054E+00         0.00000E+00
    0.60326E-01        -0.42140E+00         0.00000E+00
    0.52458E-01        -0.36838E+00         0.00000E+00
    0.44965E-01        -0.32142E+00         0.00000E+00
    0.38755E-01        -0.27994E+00         0.00000E+00
    0.33730E-01        -0.24319E+00         0.00000E+00
    0.29590E-01        -0.21045E+00         0.00000E+00
    0.26019E-01        -0.18119E+00         0.00000E+00
    0.22680E-01        -0.15506E+00         0.00000E+00
    0.19545E-01        -0.13175E+00         0.00000E+00
    0.16625E-01        -0.11106E+00         0.00000E+00
    0.13959E-01        -0.92779E-01         0.00000E+00
    0.11635E-01        -0.76672E-01         0.00000E+00
    0.93747E-02        -0.62523E-01         0.00000E+00
    0.75053E-02        -0.50094E-01         0.00000E+00
    0.59269E-02        -0.39176E-01         0.00000E+00
    0.46030E-02        -0.29541E-01         0.00000E+00
    0.34224E-02        -0.20887E-01         0.00000E+00
    0.23010E-02        -0.13098E-01         0.00000E+00
    0.11759E-02        -0.61340E-02         0.00000E+00
    0.00000E+00         0.00000E+00         0.00000E+00
   -0.19420E-01        -0.64387E+00         0.00000E+00
    0.77748E-01        -0.59159E+00         0.00000E+00
    0.11874E+00        -0.53173E+00         0.00000E+00
    0.12992E+00        -0.47681E+00         0.00000E+00
    0.12565E+00        -0.42610E+00         0.00000E+00
    0.11398E+00        -0.37915E+00         0.00000E+00
    0.10005E+00        -0.33579E+00         0.00000E+00
    0.86582E-01        -0.29599E+00         0.00000E+00
    0.74844E-01        -0.25977E+00         0.00000E+00
    0.65246E-01        -0.22702E+00         0.00000E+00
    0.57157E-01        -0.19752E+00         0.00000E+00
    0.50083E-01        -0.17100E+00         0.00000E+00
    0.43691E-01        -0.14717E+00         0.00000E+00
    0.37702E-01        -0.12579E+00         0.00000E+00
    0.32110E-01        -0.10667E+00         0.00000E+00
    0.27036E-01        -0.89604E-01         0.00000E+00
    0.22388E-01        -0.74462E-01         0.00000E+00
    0.18250E-01        -0.61050E-01         0.00000E+00
    0.14683E-01        -0.49122E-01         0.00000E+00
    0.11650E-01        -0.38541E-01         0.00000E+00
    0.90841E-02        -0.29127E-01         0.00000E+00
    0.67691E-02        -0.20620E-01         0.00000E+00
    0.45566E-02        -0.12944E-01         0.00000E+00
    0.23305E-02        -0.60686E-02         0.00000E+00
    0.00000E+00         0.00000E+00         0.00000E+00
    0.38451E-02        -0.45364E+00         0.00000E+00
    0.13256E+00        -0.41413E+00         0.00000E+00
    0.16851E+00        -0.39158E+00         0.00000E+00
    0.17702E+00        -0.36797E+00         0.00000E+00
    0.17021E+00        -0.34200E+00         0.00000E+00
    0.15584E+00        -0.31394E+00         0.00000E+00
    0.13869E+00        -0.28493E+00         0.00000E+00
    0.12157E+00        -0.25608E+00         0.00000E+00
    0.10588E+00        -0.22830E+00         0.00000E+00
    0.92287E-01        -0.20216E+00         0.00000E+00
    0.80776E-01        -0.17797E+00         0.00000E+00
    0.70699E-01        -0.15580E+00         0.00000E+00
    0.61590E-01        -0.13554E+00         0.00000E+00
    0.53222E-01        -0.11704E+00         0.00000E+00
    0.45499E-01        -0.10019E+00         0.00000E+00
    0.38434E-01        -0.84907E-01         0.00000E+00
    0.31888E-01        -0.71146E-01         0.00000E+00
    0.26196E-01        -0.58743E-01         0.00000E+00
    0.21270E-01        -0.47557E-01         0.00000E+00
    0.16988E-01        -0.37488E-01         0.00000E+00
    0.13332E-01        -0.28409E-01         0.00000E+00
    0.99657E-02        -0.20152E-01         0.00000E+00
    0.67186E-02        -0.12675E-01         0.00000E+00
    0.34403E-02        -0.59546E-02         0.00000E+00
    0.00000E+00         0.00000E+00         0.00000E+00
    0.80675E-01        -0.18150E+00         0.00000E+00
    0.15826E+00        -0.18853E+00         0.00000E+00
    0.19402E+00        -0.21211E+00         0.00000E+00
    0.20258E+00        -0.22768E+00         0.00000E+00
    0.19717E+00        -0.23275E+00         0.00000E+00
    0.18316E+00        -0.22932E+00         0.00000E+00
    0.16538E+00        -0.21961E+00         0.00000E+00
    0.14675E+00        -0.20577E+00         0.00000E+00
    0.12892E+00        -0.18958E+00         0.00000E+00
    0.11277E+00        -0.17236E+00         0.00000E+00
    0.98696E-01        -0.15503E+00         0.00000E+00
    0.86483E-01        -0.13813E+00         0.00000E+00
    0.75575E-01        -0.12199E+00         0.00000E+00
    0.65577E-01        -0.10674E+00         0.00000E+00
    0.56311E-01        -0.92468E-01         0.00000E+00
    0.47708E-01        -0.79240E-01         0.00000E+00
    0.39858E-01        -0.67018E-01         0.00000E+00
    0.33027E-01        -0.55738E-01         0.00000E+00
    0.27073E-01        -0.45421E-01         0.00000E+00
    0.21866E-01        -0.35989E-01         0.00000E+00
    0.17250E-01        -0.27359E-01         0.00000E+00
    0.12936E-01        -0.19466E-01         0.00000E+00
    0.87351E-02        -0.12281E-01         0.00000E+00
    0.44784E-02        -0.57884E-02         0.00000E+00
    0.00000E+00         0.00000E+00         0.00000E+00
    0.92168E-01        -0.11804E+00         0.00000E+00
    0.14336E+00        -0.11560E+00         0.00000E+00
    0.17887E+00        -0.12419E+00         0.00000E+00
    0.19539E+00        -0.14062E+00         0.00000E+00
    0.19702E+00        -0.15455E+00         0.00000E+00
    0.18868E+00        -0.16273E+00         0.00000E+00
    0.17473E+00        -0.16463E+00         0.00000E+00
    0.15828E+00        -0.16125E+00         0.00000E+00
    0.14136E+00        -0.15395E+00         0.00000E+00
    0.12515E+00        -0.14405E+00         0.00000E+00
    0.11040E+00        -0.13261E+00         0.00000E+00
    0.97254E-01        -0.12045E+00         0.00000E+00
    0.85469E-01        -0.10811E+00         0.00000E+00
    0.74649E-01        -0.95945E-01         0.00000E+00
    0.64510E-01        -0.84178E-01         0.00000E+00
    0.55047E-01        -0.72917E-01         0.00000E+00
    0.46473E-01        -0.62194E-01         0.00000E+00
    0.38771E-01        -0.52101E-01         0.00000E+00
    0.32050E-01        -0.42700E-01         0.00000E+00
    0.26186E-01        -0.34009E-01         0.00000E+00
    0.20750E-01        -0.25976E-01         0.00000E+00
    0.15604E-01        -0.18564E-01         0.00000E+00
    0.10554E-01        -0.11764E-01         0.00000E+00
    0.54170E-02        -0.55710E-02         0.00000E+00
    0.00000E+00         0.00000E+00         0.00000E+00
    0.10367E+00        -0.77413E-01         0.00000E+00
    0.13560E+00        -0.77012E-01         0.00000E+00
    0.16290E+00        -0.80395E-01         0.00000E+00
    0.17968E+00        -0.89569E-01         0.00000E+00
    0.18584E+00        -0.10170E+00         0.00000E+00
    0.18286E+00        -0.11230E+00         0.00000E+00
    0.17371E+00        -0.11922E+00         0.00000E+00
    0.16086E+00        -0.12191E+00         0.00000E+00
    0.14639E+00        -0.12074E+00         0.00000E+00
    0.13158E+00        -0.11650E+00         0.00000E+00
    0.11741E+00        -0.11002E+00         0.00000E+00
    0.10434E+00        -0.10207E+00         0.00000E+00
    0.92347E-01        -0.93295E-01         0.00000E+00
    0.81176E-01        -0.84118E-01         0.00000E+00
    0.70727E-01        -0.74800E-01         0.00000E+00
    0.60978E-01        -0.65498E-01         0.00000E+00
    0.51972E-01        -0.56395E-01         0.00000E+00
    0.43709E-01        -0.47652E-01         0.00000E+00
    0.36306E-01        -0.39381E-01         0.00000E+00
    0.29829E-01        -0.31614E-01         0.00000E+00
    0.23750E-01        -0.24311E-01         0.00000E+00
    0.17904E-01        -0.17483E-01         0.00000E+00
    0.12130E-01        -0.11145E-01         0.00000E+00
    0.62316E-02        -0.53100E-02         0.00000E+00
    0.00000E+00         0.00000E+00         0.00000E+00
    0.10951E+00        -0.52917E-01         0.00000E+00
    0.13113E+00        -0.52779E-01         0.00000E+00
    0.15095E+00        -0.55413E-01         0.00000E+00
    0.16498E+00        -0.60333E-01         0.00000E+00
    0.17192E+00        -0.68624E-01         0.00000E+00
    0.17198E+00        -0.77865E-01         0.00000E+00
    0.16662E+00        -0.85533E-01         0.00000E+00
    0.15730E+00        -0.90603E-01         0.00000E+00
    0.14573E+00        -0.92726E-01         0.00000E+00
    0.13303E+00        -0.92141E-01         0.00000E+00
    0.12021E+00        -0.89287E-01         0.00000E+00
    0.10791E+00        -0.84685E-01         0.00000E+00
    0.96329E-01        -0.78855E-01         0.00000E+00
    0.85415E-01        -0.72222E-01         0.00000E+00
    0.75093E-01        -0.65091E-01         0.00000E+00
    0.65311E-01        -0.57712E-01         0.00000E+00
    0.56107E-01        -0.50280E-01         0.00000E+00
    0.47532E-01        -0.42970E-01         0.00000E+00
    0.39752E-01        -0.35843E-01         0.00000E+00
    0.32784E-01        -0.29006E-01         0.00000E+00
    0.26189E-01        -0.22485E-01         0.00000E+00
    0.19798E-01        -0.16291E-01         0.00000E+00
    0.13435E-01        -0.10458E-01         0.00000E+00
    0.69065E-02        -0.50191E-02         0.00000E+00
    0.00000E+00         0.00000E+00         0.00000E+00
    0.11247E+00        -0.36648E-01         0.00000E+00
    0.12741E+00        -0.37095E-01         0.00000E+00
    0.14203E+00        -0.39636E-01         0.00000E+00
    0.15296E+00        -0.43102E-01         0.00000E+00
    0.15898E+00        -0.48467E-01         0.00000E+00
    0.16021E+00        -0.55259E-01         0.00000E+00
    0.15707E+00        -0.62050E-01         0.00000E+00
    0.15043E+00        -0.67456E-01         0.00000E+00
    0.14143E+00        -0.70870E-01         0.00000E+00
    0.13092E+00        -0.72198E-01         0.00000E+00
    0.11979E+00        -0.71565E-01         0.00000E+00
    0.10870E+00        -0.69256E-01         0.00000E+00
    0.97973E-01        -0.65626E-01         0.00000E+00
    0.87621E-01        -0.61053E-01         0.00000E+00
    0.77652E-01        -0.55833E-01         0.00000E+00
    0.68081E-01        -0.50184E-01         0.00000E+00
    0.58901E-01        -0.44309E-01         0.00000E+00
    0.50296E-01        -0.38300E-01         0.00000E+00
    0.42348E-01        -0.32309E-01         0.00000E+00
    0.35028E-01        -0.26411E-01         0.00000E+00
    0.28076E-01        -0.20641E-01         0.00000E+00
    0.21280E-01        -0.15068E-01         0.00000E+00
    0.14463E-01        -0.97461E-02         0.00000E+00
    0.74375E-02        -0.47140E-02         0.00000E+00
    0.00000E+00         0.00000E+00         0.00000E+00
    0.11337E+00        -0.25751E-01         0.00000E+00
    0.12381E+00        -0.26576E-01         0.00000E+00
    0.13465E+00        -0.28952E-01         0.00000E+00
    0.14309E+00        -0.32380E-01         0.00000E+00
    0.14797E+00        -0.36150E-01         0.00000E+00
    0.14926E+00        -0.40940E-01         0.00000E+00
    0.14730E+00        -0.46136E-01         0.00000E+00
    0.14240E+00        -0.50946E-01         0.00000E+00
    0.13537E+00        -0.54565E-01         0.00000E+00
    0.12673E+00        -0.56695E-01         0.00000E+00
    0.11724E+00        -0.57293E-01         0.00000E+00
    0.10743E+00        -0.56458E-01         0.00000E+00
    0.97689E-01        -0.54403E-01         0.00000E+00
    0.88074E-01        -0.51396E-01         0.00000E+00
    0.78630E-01        -0.47688E-01         0.00000E+00
    0.69427E-01        -0.43471E-01         0.00000E+00
    0.60501E-01        -0.38875E-01         0.00000E+00
    0.52018E-01        -0.34060E-01         0.00000E+00
    0.44068E-01        -0.29079E-01         0.00000E+00
    0.36624E-01        -0.23964E-01         0.00000E+00
    0.29453E-01        -0.18868E-01         0.00000E+00
    0.22376E-01        -0.13875E-01         0.00000E+00
    0.15227E-01        -0.90416E-02         0.00000E+00
    0.78307E-02        -0.44081E-02         0.00000E+00
    0.00000E+00         0.00000E+00         0.00000E+00
    0.11269E+00        -0.18196E-01         0.00000E+00
    0.12013E+00        -0.19343E-01         0.00000E+00
    0.12811E+00        -0.21668E-01         0.00000E+00
    0.13468E+00        -0.24905E-01         0.00000E+00
    0.13860E+00        -0.28454E-01         0.00000E+00
    0.13966E+00        -0.32020E-01         0.00000E+00
    0.13812E+00        -0.35934E-01         0.00000E+00
    0.13431E+00        -0.39743E-01         0.00000E+00
    0.12866E+00        -0.42951E-01         0.00000E+00
    0.12147E+00        -0.45263E-01         0.00000E+00
    0.11339E+00        -0.46402E-01         0.00000E+00
    0.10479E+00        -0.46401E-01         0.00000E+00
    0.96025E-01        -0.45371E-01         0.00000E+00
    0.87189E-01        -0.43500E-01         0.00000E+00
    0.78334E-01        -0.40941E-01         0.00000E+00
    0.69630E-01        -0.37823E-01         0.00000E+00
    0.61046E-01        -0.34336E-01         0.00000E+00
    0.52867E-01        -0.30420E-01         0.00000E+00
    0.45105E-01        -0.26146E-01         0.00000E+00
    0.37655E-01        -0.21703E-01         0.00000E+00
    0.30378E-01        -0.17209E-01         0.00000E+00
    0.23126E-01        -0.12744E-01         0.00000E+00
    0.15752E-01        -0.83658E-02         0.00000E+00
    0.80995E-02        -0.41109E-02         0.00000E+00
    0.00000E+00         0.00000E+00         0.00000E+00
    0.11084E+00        -0.12782E-01         0.00000E+00
    0.11626E+00        -0.14176E-01         0.00000E+00
    0.12216E+00        -0.16425E-01         0.00000E+00
    0.12718E+00        -0.19444E-01         0.00000E+00
    0.13035E+00        -0.22881E-01         0.00000E+00
    0.13122E+00        -0.26265E-01         0.00000E+00
    0.12988E+00        -0.29440E-01         0.00000E+00
    0.12669E+00        -0.32434E-01         0.00000E+00
    0.12192E+00        -0.35121E-01         0.00000E+00
    0.11583E+00        -0.37241E-01         0.00000E+00
    0.10888E+00        -0.38531E-01         0.00000E+00
    0.10131E+00        -0.38960E-01         0.00000E+00
    0.93411E-01        -0.38548E-01         0.00000E+00
    0.85343E-01        -0.37414E-01         0.00000E+00
    0.77129E-01        -0.35696E-01         0.00000E+00
    0.68923E-01        -0.33416E-01         0.00000E+00
    0.60915E-01        -0.30522E-01         0.00000E+00
    0.53127E-01        -0.27165E-01         0.00000E+00
    0.45583E-01        -0.23499E-01         0.00000E+00
    0.38210E-01        -0.19637E-01         0.00000E+00
    0.30913E-01        -0.15676E-01         0.00000E+00
    0.23575E-01        -0.11690E-01         0.00000E+00
    0.16069E-01        -0.77289E-02         0.00000E+00
    0.82598E-02        -0.38272E-02         0.00000E+00
    0.00000E+00         0.00000E+00         0.00000E+00
    0.10817E+00        -0.87411E-02         0.00000E+00
    0.11223E+00        -0.10299E-01         0.00000E+00
    0.11663E+00        -0.12478E-01         0.00000E+00
    0.12041E+00        -0.15269E-01         0.00000E+00
    0.12287E+00        -0.18457E-01         0.00000E+00
    0.12358E+00        -0.21751E-01         0.00000E+00
    0.12246E+00        -0.24845E-01         0.00000E+00
    0.11970E+00        -0.27545E-01         0.00000E+00
    0.11553E+00        -0.29865E-01         0.00000E+00
    0.11026E+00        -0.31701E-01         0.00000E+00
    0.10416E+00        -0.32962E-01         0.00000E+00
    0.97441E-01        -0.33597E-01         0.00000E+00
    0.90307E-01        -0.33574E-01         0.00000E+00
    0.82947E-01        -0.32856E-01         0.00000E+00
    0.75411E-01        -0.31492E-01         0.00000E+00
    0.67836E-01        -0.29544E-01         0.00000E+00
    0.60329E-01        -0.27107E-01         0.00000E+00
    0.52918E-01        -0.24265E-01         0.00000E+00
    0.45611E-01        -0.21115E-01         0.00000E+00
    0.38368E-01        -0.17758E-01         0.00000E+00
    0.31116E-01        -0.14270E-01         0.00000E+00
    0.23765E-01        -0.10714E-01         0.00000E+00
    0.16207E-01        -0.71341E-02         0.00000E+00
    0.83274E-02        -0.35592E-02         0.00000E+00
    0.00000E+00         0.00000E+00         0.00000E+00
    0.10494E+00        -0.55856E-02         0.00000E+00
    0.10809E+00        -0.72447E-02         0.00000E+00
    0.11140E+00        -0.93504E-02         0.00000E+00
    0.11424E+00        -0.11927E-01         0.00000E+00
    0.11607E+00        -0.14844E-01         0.00000E+00
    0.11656E+00        -0.17884E-01         0.00000E+00
    0.11559E+00        -0.20819E-01         0.00000E+00
    0.11321E+00        -0.23475E-01         0.00000E+00
    0.10958E+00        -0.25715E-01         0.00000E+00
    0.10494E+00        -0.27462E-01         0.00000E+00
    0.99532E-01        -0.28666E-01         0.00000E+00
    0.93525E-01        -0.29296E-01         0.00000E+00
    0.87100E-01        -0.29333E-01         0.00000E+00
    0.80389E-01        -0.28797E-01         0.00000E+00
    0.73475E-01        -0.27712E-01         0.00000E+00
    0.66448E-01        -0.26116E-01         0.00000E+00
    0.59387E-01        -0.24076E-01         0.00000E+00
    0.52329E-01        -0.21668E-01         0.00000E+00
    0.45274E-01        -0.18969E-01         0.00000E+00
    0.38196E-01        -0.16053E-01         0.00000E+00
    0.31041E-01        -0.12984E-01         0.00000E+00
    0.23736E-01        -0.98146E-02         0.00000E+00
    0.16194E-01        -0.65816E-02         0.00000E+00
    0.83172E-02        -0.33076E-02         0.00000E+00
    0.00000E+00         0.00000E+00         0.00000E+00
    0.10138E+00        -0.30183E-02         0.00000E+00
    0.10389E+00        -0.47284E-02         0.00000E+00
    0.10642E+00        -0.67598E-02         0.00000E+00
    0.10855E+00        -0.91434E-02         0.00000E+00
    0.10988E+00        -0.11796E-01         0.00000E+00
    0.11015E+00        -0.14565E-01         0.00000E+00
    0.10923E+00        -0.17272E-01         0.00000E+00
    0.10714E+00        -0.19752E-01         0.00000E+00
    0.10397E+00        -0.21876E-01         0.00000E+00
    0.99895E-01        -0.23557E-01         0.00000E+00
    0.95082E-01        -0.24743E-01         0.00000E+00
    0.89695E-01        -0.25412E-01         0.00000E+00
    0.83875E-01        -0.25559E-01         0.00000E+00
    0.77733E-01        -0.25198E-01         0.00000E+00
    0.71355E-01        -0.24355E-01         0.00000E+00
    0.64813E-01        -0.23064E-01         0.00000E+00
    0.58163E-01        -0.21375E-01         0.00000E+00
    0.51437E-01        -0.19345E-01         0.00000E+00
    0.44641E-01        -0.17037E-01         0.00000E+00
    0.37753E-01        -0.14509E-01         0.00000E+00
    0.30734E-01        -0.11812E-01         0.00000E+00
    0.23525E-01        -0.89890E-02         0.00000E+00
    0.16054E-01        -0.60699E-02         0.00000E+00
    0.82419E-02        -0.30723E-02         0.00000E+00
    0.00000E+00         0.00000E+00         0.00000E+00
    0.97635E-01        -0.85768E-03         0.00000E+00
    0.99688E-01        -0.25826E-02         0.00000E+00
    0.10166E+00        -0.45393E-02         0.00000E+00
    0.10325E+00        -0.67546E-02         0.00000E+00
    0.10418E+00        -0.91738E-02         0.00000E+00
    0.10426E+00        -0.11686E-01         0.00000E+00
    0.10337E+00        -0.14153E-01         0.00000E+00
    0.10150E+00        -0.16439E-01         0.00000E+00
    0.98698E-01        -0.18428E-01         0.00000E+00
    0.95084E-01        -0.20037E-01         0.00000E+00
    0.90786E-01        -0.21213E-01         0.00000E+00
    0.85932E-01        -0.21933E-01         0.00000E+00
    0.80639E-01        -0.22190E-01         0.00000E+00
    0.75001E-01        -0.21997E-01         0.00000E+00
    0.69096E-01        -0.21373E-01         0.00000E+00
    0.62984E-01        -0.20350E-01         0.00000E+00
    0.56712E-01        -0.18966E-01         0.00000E+00
    0.50305E-01        -0.17266E-01         0.00000E+00
    0.43770E-01        -0.15300E-01         0.00000E+00
    0.37091E-01        -0.13112E-01         0.00000E+00
    0.30237E-01        -0.10746E-01         0.00000E+00
    0.23163E-01        -0.82326E-02         0.00000E+00
    0.15810E-01        -0.55974E-02         0.00000E+00
    0.81131E-02        -0.28528E-02         0.00000E+00
    0.00000E+00         0.00000E+00         0.00000E+00
    0.93813E-01         0.10054E-02         0.00000E+00
    0.95532E-01        -0.70911E-03         0.00000E+00
    0.97087E-01        -0.25926E-02         0.00000E+00
    0.98279E-01        -0.46636E-02         0.00000E+00
    0.98913E-01        -0.68835E-02         0.00000E+00
    0.98835E-01        -0.91705E-02         0.00000E+00
    0.97953E-01        -0.11419E-01         0.00000E+00
    0.96241E-01        -0.13519E-01         0.00000E+00
    0.93732E-01        -0.15374E-01         0.00000E+00
    0.90498E-01        -0.16909E-01         0.00000E+00
    0.86633E-01        -0.18072E-01         0.00000E+00
    0.82238E-01        -0.18837E-01         0.00000E+00
    0.77404E-01        -0.19195E-01         0.00000E+00
    0.72212E-01        -0.19152E-01         0.00000E+00
    0.66730E-01        -0.18725E-01         0.00000E+00
    0.61008E-01        -0.17936E-01         0.00000E+00
    0.55085E-01        -0.16818E-01         0.00000E+00
    0.48983E-01        -0.15407E-01         0.00000E+00
    0.42708E-01        -0.13739E-01         0.00000E+00
    0.36250E-01        -0.11852E-01         0.00000E+00
    0.29586E-01        -0.97770E-02         0.00000E+00
    0.22678E-01        -0.75410E-02         0.00000E+00
    0.15480E-01        -0.51618E-02         0.00000E+00
    0.79405E-02        -0.26486E-02         0.00000E+00
    0.00000E+00         0.00000E+00         0.00000E+00
    0.89988E-01         0.26364E-02         0.00000E+00
    0.91450E-01         0.94873E-03         0.00000E+00
    0.92696E-01        -0.86426E-03         0.00000E+00
    0.93589E-01        -0.28122E-02         0.00000E+00
    0.93992E-01        -0.48656E-02         0.00000E+00
    0.93791E-01        -0.69629E-02         0.00000E+00
    0.92911E-01        -0.90230E-02         0.00000E+00
    0.91324E-01        -0.10959E-01         0.00000E+00
    0.89046E-01        -0.12691E-01         0.00000E+00
    0.86123E-01        -0.14154E-01         0.00000E+00
    0.82623E-01        -0.15299E-01         0.00000E+00
    0.78619E-01        -0.16100E-01         0.00000E+00
    0.74186E-01        -0.16545E-01         0.00000E+00
    0.69390E-01        -0.16633E-01         0.00000E+00
    0.64286E-01        -0.16376E-01         0.00000E+00
    0.58919E-01        -0.15793E-01         0.00000E+00
    0.53320E-01        -0.14907E-01         0.00000E+00
    0.47511E-01        -0.13746E-01         0.00000E+00
    0.41495E-01        -0.12340E-01         0.00000E+00
    0.35268E-01        -0.10715E-01         0.00000E+00
    0.28810E-01        -0.88989E-02         0.00000E+00
    0.22094E-01        -0.69098E-02         0.00000E+00
    0.15082E-01        -0.47614E-02         0.00000E+00
    0.77328E-02        -0.24592E-02         0.00000E+00
    0.00000E+00         0.00000E+00         0.00000E+00
    0.86205E-01         0.40752E-02         0.00000E+00
    0.87461E-01         0.24243E-02         0.00000E+00
    0.88470E-01         0.67832E-03         0.00000E+00
    0.89137E-01        -0.11647E-02         0.00000E+00
    0.89366E-01        -0.30802E-02         0.00000E+00
    0.89070E-01        -0.50207E-02         0.00000E+00
    0.88192E-01        -0.69233E-02         0.00000E+00
    0.86705E-01        -0.87193E-02         0.00000E+00
    0.84613E-01        -0.10343E-01         0.00000E+00
    0.81946E-01        -0.11739E-01         0.00000E+00
    0.78751E-01        -0.12865E-01         0.00000E+00
    0.75083E-01        -0.13693E-01         0.00000E+00
    0.71000E-01        -0.14209E-01         0.00000E+00
    0.66553E-01        -0.14409E-01         0.00000E+00
    0.61790E-01        -0.14299E-01         0.00000E+00
    0.56748E-01        -0.13893E-01         0.00000E+00
    0.51454E-01        -0.13208E-01         0.00000E+00
    0.45924E-01        -0.12265E-01         0.00000E+00
    0.40166E-01        -0.11086E-01         0.00000E+00
    0.34175E-01        -0.96928E-02         0.00000E+00
    0.27937E-01        -0.81043E-02         0.00000E+00
    0.21432E-01        -0.63349E-02         0.00000E+00
    0.14629E-01        -0.43939E-02         0.00000E+00
    0.74974E-02        -0.22840E-02         0.00000E+00
    0.00000E+00         0.00000E+00         0.00000E+00
    0.82493E-01         0.53471E-02         0.00000E+00
    0.83577E-01         0.37381E-02         0.00000E+00
    0.84399E-01         0.20551E-02         0.00000E+00
    0.84893E-01         0.30217E-03         0.00000E+00
    0.84989E-01        -0.14992E-02         0.00000E+00
    0.84623E-01        -0.33109E-02         0.00000E+00
    0.83749E-01        -0.50835E-02         0.00000E+00
    0.82343E-01        -0.67624E-02         0.00000E+00
    0.80404E-01        -0.82939E-02         0.00000E+00
    0.77950E-01        -0.96313E-02         0.00000E+00
    0.75013E-01        -0.10737E-01         0.00000E+00
    0.71634E-01        -0.11584E-01         0.00000E+00
    0.67856E-01        -0.12158E-01         0.00000E+00
    0.63721E-01        -0.12452E-01         0.00000E+00
    0.59266E-01        -0.12467E-01         0.00000E+00
    0.54523E-01        -0.12213E-01         0.00000E+00
    0.49513E-01        -0.11701E-01         0.00000E+00
    0.44253E-01        -0.10946E-01         0.00000E+00
    0.38748E-01        -0.99655E-02         0.00000E+00
    0.32997E-01        -0.87744E-02         0.00000E+00
    0.26989E-01        -0.73866E-02         0.00000E+00
    0.20709E-01        -0.58124E-02         0.00000E+00
    0.14134E-01        -0.40576E-02         0.00000E+00
    0.72405E-02        -0.21222E-02         0.00000E+00
    0.00000E+00         0.00000E+00         0.00000E+00
    0.78867E-01         0.64691E-02         0.00000E+00
    0.79801E-01         0.49041E-02         0.00000E+00
    0.80473E-01         0.32799E-02         0.00000E+00
    0.80832E-01         0.16047E-02         0.00000E+00
    0.80827E-01        -0.10145E-03         0.00000E+00
    0.80409E-01        -0.18074E-02         0.00000E+00
    0.79542E-01        -0.34733E-02         0.00000E+00
    0.78205E-01        -0.50550E-02         0.00000E+00
    0.76395E-01        -0.65090E-02         0.00000E+00
    0.74120E-01        -0.77954E-02         0.00000E+00
    0.71403E-01        -0.88816E-02         0.00000E+00
    0.68274E-01        -0.97430E-02         0.00000E+00
    0.64764E-01        -0.10364E-01         0.00000E+00
    0.60907E-01        -0.10735E-01         0.00000E+00
    0.56732E-01        -0.10856E-01         0.00000E+00
    0.52264E-01        -0.10731E-01         0.00000E+00
    0.47523E-01        -0.10367E-01         0.00000E+00
    0.42522E-01        -0.97750E-02         0.00000E+00
    0.37267E-01        -0.89660E-02         0.00000E+00
    0.31757E-01        -0.79511E-02         0.00000E+00
    0.25985E-01        -0.67397E-02         0.00000E+00
    0.19941E-01        -0.53386E-02         0.00000E+00
    0.13608E-01        -0.37504E-02         0.00000E+00
    0.69675E-02        -0.19733E-02         0.00000E+00
    0.00000E+00         0.00000E+00         0.00000E+00
    0.75332E-01         0.74541E-02         0.00000E+00
    0.76135E-01         0.59330E-02         0.00000E+00
    0.76682E-01         0.43633E-02         0.00000E+00
    0.76933E-01         0.27560E-02         0.00000E+00
    0.76850E-01         0.11299E-02         0.00000E+00
    0.76395E-01        -0.48856E-03         0.00000E+00
    0.75538E-01        -0.20666E-02         0.00000E+00
    0.74262E-01        -0.35682E-02         0.00000E+00
    0.72561E-01        -0.49572E-02         0.00000E+00
    0.70440E-01        -0.62002E-02         0.00000E+00
    0.67914E-01        -0.72685E-02         0.00000E+00
    0.65002E-01        -0.81397E-02         0.00000E+00
    0.61730E-01        -0.87980E-02         0.00000E+00
    0.58122E-01        -0.92339E-02         0.00000E+00
    0.54203E-01        -0.94435E-02         0.00000E+00
    0.49991E-01        -0.94275E-02         0.00000E+00
    0.45503E-01        -0.91899E-02         0.00000E+00
    0.40751E-01        -0.87370E-02         0.00000E+00
    0.35741E-01        -0.80762E-02         0.00000E+00
    0.30472E-01        -0.72146E-02         0.00000E+00
    0.24941E-01        -0.61579E-02         0.00000E+00
    0.19140E-01        -0.49098E-02         0.00000E+00
    0.13059E-01        -0.34705E-02         0.00000E+00
    0.66832E-02        -0.18365E-02         0.00000E+00
    0.00000E+00         0.00000E+00         0.00000E+00
    0.71889E-01         0.83130E-02         0.00000E+00
    0.72575E-01         0.68342E-02         0.00000E+00
    0.73016E-01         0.53148E-02         0.00000E+00
    0.73180E-01         0.37672E-02         0.00000E+00
    0.73036E-01         0.22092E-02         0.00000E+00
    0.72554E-01         0.66386E-03         0.00000E+00
    0.71710E-01        -0.84133E-03         0.00000E+00
    0.70490E-01        -0.22764E-02         0.00000E+00
    0.68885E-01        -0.36112E-02         0.00000E+00
    0.66898E-01        -0.48171E-02         0.00000E+00
    0.64538E-01        -0.58692E-02         0.00000E+00
    0.61819E-01        -0.67472E-02         0.00000E+00
    0.58759E-01        -0.74356E-02         0.00000E+00
    0.55377E-01        -0.79243E-02         0.00000E+00
    0.51691E-01        -0.82075E-02         0.00000E+00
    0.47718E-01        -0.82833E-02         0.00000E+00
    0.43471E-01        -0.81529E-02         0.00000E+00
    0.38958E-01        -0.78191E-02         0.00000E+00
    0.34187E-01        -0.72859E-02         0.00000E+00
    0.29158E-01        -0.65571E-02         0.00000E+00
    0.23870E-01        -0.56356E-02         0.00000E+00
    0.18318E-01        -0.45224E-02         0.00000E+00
    0.12495E-01        -0.32159E-02         0.00000E+00
    0.63914E-02        -0.17113E-02         0.00000E+00
    0.00000E+00         0.00000E+00         0.00000E+00
    0.68537E-01         0.90554E-02         0.00000E+00
    0.69117E-01         0.76168E-02         0.00000E+00
    0.69467E-01         0.61435E-02         0.00000E+00
    0.69558E-01         0.46488E-02         0.00000E+00
    0.69366E-01         0.31495E-02         0.00000E+00
    0.68866E-01         0.16660E-02         0.00000E+00
    0.68038E-01         0.22179E-03         0.00000E+00
    0.66868E-01        -0.11577E-02         0.00000E+00
    0.65349E-01        -0.24468E-02         0.00000E+00
    0.63480E-01        -0.36210E-02         0.00000E+00
    0.61268E-01        -0.46585E-02         0.00000E+00
    0.58721E-01        -0.55407E-02         0.00000E+00
    0.55853E-01        -0.62529E-02         0.00000E+00
    0.52677E-01        -0.67846E-02         0.00000E+00
    0.49207E-01        -0.71287E-02         0.00000E+00
    0.45458E-01        -0.72814E-02         0.00000E+00
    0.41438E-01        -0.72414E-02         0.00000E+00
    0.37157E-01        -0.70090E-02         0.00000E+00
    0.32620E-01        -0.65852E-02         0.00000E+00
    0.27829E-01        -0.59713E-02         0.00000E+00
    0.22784E-01        -0.51677E-02         0.00000E+00
    0.17483E-01        -0.41733E-02         0.00000E+00
    0.11921E-01        -0.29849E-02         0.00000E+00
    0.60952E-02        -0.15968E-02         0.00000E+00
    0.00000E+00         0.00000E+00         0.00000E+00
    0.65269E-01         0.96906E-02         0.00000E+00
    0.65755E-01         0.82896E-02         0.00000E+00
    0.66024E-01         0.68585E-02         0.00000E+00
    0.66055E-01         0.54110E-02         0.00000E+00
    0.65825E-01         0.39628E-02         0.00000E+00
    0.65313E-01         0.25323E-02         0.00000E+00
    0.64502E-01         0.11399E-02         0.00000E+00
    0.63380E-01        -0.19244E-03         0.00000E+00
    0.61939E-01        -0.14427E-02         0.00000E+00
    0.60178E-01        -0.25895E-02         0.00000E+00
    0.58098E-01        -0.36135E-02         0.00000E+00
    0.55707E-01        -0.44979E-02         0.00000E+00
    0.53013E-01        -0.52287E-02         0.00000E+00
    0.50026E-01        -0.57951E-02         0.00000E+00
    0.46758E-01        -0.61894E-02         0.00000E+00
    0.43219E-01        -0.64061E-02         0.00000E+00
    0.39416E-01        -0.64421E-02         0.00000E+00
    0.35359E-01        -0.62955E-02         0.00000E+00
    0.31050E-01        -0.59652E-02         0.00000E+00
    0.26494E-01        -0.54503E-02         0.00000E+00
    0.21691E-01        -0.47492E-02         0.00000E+00
    0.16642E-01        -0.38591E-02         0.00000E+00
    0.11344E-01        -0.27757E-02         0.00000E+00
    0.57973E-02        -0.14923E-02         0.00000E+00
    0.00000E+00         0.00000E+00         0.00000E+00
    0.62081E-01         0.10228E-01         0.00000E+00
    0.62481E-01         0.88615E-02         0.00000E+00
    0.62681E-01         0.74691E-02         0.00000E+00
    0.62661E-01         0.60639E-02         0.00000E+00
    0.62400E-01         0.46607E-02         0.00000E+00
    0.61882E-01         0.32762E-02         0.00000E+00
    0.61089E-01         0.19284E-02         0.00000E+00
    0.60013E-01         0.63652E-03         0.00000E+00
    0.58644E-01        -0.58015E-03         0.00000E+00
    0.56980E-01        -0.17029E-02         0.00000E+00
    0.55022E-01        -0.27144E-02         0.00000E+00
    0.52773E-01        -0.35991E-02         0.00000E+00
    0.50240E-01        -0.43440E-02         0.00000E+00
    0.47429E-01        -0.49382E-02         0.00000E+00
    0.44349E-01        -0.53733E-02         0.00000E+00
    0.41009E-01        -0.56429E-02         0.00000E+00
    0.37414E-01        -0.57424E-02         0.00000E+00
    0.33572E-01        -0.56683E-02         0.00000E+00
    0.29487E-01        -0.54177E-02         0.00000E+00
    0.25162E-01        -0.49878E-02         0.00000E+00
    0.20600E-01        -0.43756E-02         0.00000E+00
    0.15802E-01        -0.35770E-02         0.00000E+00
    0.10768E-01        -0.25866E-02         0.00000E+00
    0.55000E-02        -0.13973E-02         0.00000E+00
    0.00000E+00         0.00000E+00         0.00000E+00
    0.58966E-01         0.10676E-01         0.00000E+00
    0.59289E-01         0.93415E-02         0.00000E+00
    0.59428E-01         0.79844E-02         0.00000E+00
    0.59365E-01         0.66173E-02         0.00000E+00
    0.59080E-01         0.52541E-02         0.00000E+00
    0.58559E-01         0.39100E-02         0.00000E+00
    0.57787E-01         0.26012E-02         0.00000E+00
    0.56754E-01         0.13446E-02         0.00000E+00
    0.55453E-01         0.15743E-03         0.00000E+00
    0.53880E-01        -0.94375E-03         0.00000E+00
    0.52034E-01        -0.19432E-02         0.00000E+00
    0.49916E-01        -0.28267E-02         0.00000E+00
    0.47532E-01        -0.35818E-02         0.00000E+00
    0.44886E-01        -0.41978E-02         0.00000E+00
    0.41984E-01        -0.46659E-02         0.00000E+00
    0.38833E-01        -0.49790E-02         0.00000E+00
    0.35438E-01        -0.51313E-02         0.00000E+00
    0.31805E-01        -0.51180E-02         0.00000E+00
    0.27937E-01        -0.49349E-02         0.00000E+00
    0.23840E-01        -0.45779E-02         0.00000E+00
    0.19516E-01        -0.40426E-02         0.00000E+00
    0.14966E-01        -0.33240E-02         0.00000E+00
    0.10195E-01        -0.24159E-02         0.00000E+00
    0.52049E-02        -0.13109E-02         0.00000E+00
    0.00000E+00         0.00000E+00         0.00000E+00
    0.55919E-01         0.11044E-01         0.00000E+00
    0.56172E-01         0.97384E-02         0.00000E+00
    0.56258E-01         0.84135E-02         0.00000E+00
    0.56158E-01         0.70809E-02         0.00000E+00
    0.55855E-01         0.57536E-02         0.00000E+00
    0.55335E-01         0.44455E-02         0.00000E+00
    0.54585E-01         0.31711E-02         0.00000E+00
    0.53595E-01         0.19458E-02         0.00000E+00
    0.52358E-01         0.78489E-03         0.00000E+00
    0.50869E-01        -0.29658E-03         0.00000E+00
    0.49128E-01        -0.12843E-02         0.00000E+00
    0.47134E-01        -0.21651E-02         0.00000E+00
    0.44890E-01        -0.29271E-02         0.00000E+00
    0.42399E-01        -0.35598E-02         0.00000E+00
    0.39666E-01        -0.40542E-02         0.00000E+00
    0.36695E-01        -0.44026E-02         0.00000E+00
    0.33492E-01        -0.45985E-02         0.00000E+00
    0.30062E-01        -0.46361E-02         0.00000E+00
    0.26407E-01        -0.45100E-02         0.00000E+00
    0.22533E-01        -0.42152E-02         0.00000E+00
    0.18443E-01        -0.37464E-02         0.00000E+00
    0.14140E-01        -0.30975E-02         0.00000E+00
    0.96288E-02        -0.22622E-02         0.00000E+00
    0.49134E-02        -0.12326E-02         0.00000E+00
    0.00000E+00         0.00000E+00         0.00000E+00
    0.52932E-01         0.11340E-01         0.00000E+00
    0.53125E-01         0.10061E-01         0.00000E+00
    0.53165E-01         0.87654E-02         0.00000E+00
    0.53034E-01         0.74642E-02         0.00000E+00
    0.52717E-01         0.61692E-02         0.00000E+00
    0.52201E-01         0.48933E-02         0.00000E+00
    0.51474E-01         0.36498E-02         0.00000E+00
    0.50526E-01         0.24526E-02         0.00000E+00
    0.49350E-01         0.13155E-02         0.00000E+00
    0.47942E-01         0.25237E-03         0.00000E+00
    0.46300E-01        -0.72375E-03         0.00000E+00
    0.44422E-01        -0.16005E-02         0.00000E+00
    0.42311E-01        -0.23665E-02         0.00000E+00
    0.39967E-01        -0.30115E-02         0.00000E+00
    0.37395E-01        -0.35265E-02         0.00000E+00
    0.34598E-01        -0.39034E-02         0.00000E+00
    0.31581E-01        -0.41350E-02         0.00000E+00
    0.28347E-01        -0.42148E-02         0.00000E+00
    0.24900E-01        -0.41367E-02         0.00000E+00
    0.21245E-01        -0.38948E-02         0.00000E+00
    0.17385E-01        -0.34831E-02         0.00000E+00
    0.13326E-01        -0.28951E-02         0.00000E+00
    0.90708E-02        -0.21239E-02         0.00000E+00
    0.46265E-02        -0.11617E-02         0.00000E+00
    0.00000E+00         0.00000E+00         0.00000E+00
    0.50001E-01         0.11572E-01         0.00000E+00
    0.50141E-01         0.10318E-01         0.00000E+00
    0.50141E-01         0.90487E-02         0.00000E+00
    0.49985E-01         0.77760E-02         0.00000E+00
    0.49659E-01         0.65103E-02         0.00000E+00
    0.49149E-01         0.52636E-02         0.00000E+00
    0.48446E-01         0.40481E-02         0.00000E+00
    0.47540E-01         0.28764E-02         0.00000E+00
    0.46424E-01         0.17613E-02         0.00000E+00
    0.45093E-01         0.71537E-03         0.00000E+00
    0.43545E-01        -0.24913E-03         0.00000E+00
    0.41778E-01        -0.11206E-02         0.00000E+00
    0.39793E-01        -0.18882E-02         0.00000E+00
    0.37591E-01        -0.25419E-02         0.00000E+00
    0.35173E-01        -0.30726E-02         0.00000E+00
    0.32544E-01        -0.34720E-02         0.00000E+00
    0.29706E-01        -0.37325E-02         0.00000E+00
    0.26663E-01        -0.38471E-02         0.00000E+00
    0.23419E-01        -0.38092E-02         0.00000E+00
    0.19979E-01        -0.36122E-02         0.00000E+00
    0.16346E-01        -0.32495E-02         0.00000E+00
    0.12525E-01        -0.27144E-02         0.00000E+00
    0.85228E-02        -0.19997E-02         0.00000E+00
    0.43450E-02        -0.10977E-02         0.00000E+00
    0.00000E+00         0.00000E+00         0.00000E+00
    0.47121E-01         0.11749E-01         0.00000E+00
    0.47214E-01         0.10516E-01         0.00000E+00
    0.47181E-01         0.92717E-02         0.00000E+00
    0.47005E-01         0.80249E-02         0.00000E+00
    0.46673E-01         0.67860E-02         0.00000E+00
    0.46173E-01         0.55659E-02         0.00000E+00
    0.45495E-01         0.43758E-02         0.00000E+00
    0.44630E-01         0.32276E-02         0.00000E+00
    0.43573E-01         0.21328E-02         0.00000E+00
    0.42317E-01         0.11034E-02         0.00000E+00
    0.40860E-01         0.15058E-03         0.00000E+00
    0.39199E-01        -0.71455E-03         0.00000E+00
    0.37335E-01        -0.14816E-02         0.00000E+00
    0.35268E-01        -0.21408E-02         0.00000E+00
    0.33000E-01        -0.26831E-02         0.00000E+00
    0.30532E-01        -0.31000E-02         0.00000E+00
    0.27869E-01        -0.33838E-02         0.00000E+00
    0.25012E-01        -0.35269E-02         0.00000E+00
    0.21967E-01        -0.35224E-02         0.00000E+00
    0.18737E-01        -0.33633E-02         0.00000E+00
    0.15326E-01        -0.30426E-02         0.00000E+00
    0.11740E-01        -0.25534E-02         0.00000E+00
    0.79857E-02        -0.18884E-02         0.00000E+00
    0.40693E-02        -0.10399E-02         0.00000E+00
    0.00000E+00         0.00000E+00         0.00000E+00
    0.44286E-01         0.11877E-01         0.00000E+00
    0.44340E-01         0.10665E-01         0.00000E+00
    0.44278E-01         0.94423E-02         0.00000E+00
    0.44087E-01         0.82191E-02         0.00000E+00
    0.43753E-01         0.70046E-02         0.00000E+00
    0.43265E-01         0.58088E-02         0.00000E+00
    0.42614E-01         0.46421E-02         0.00000E+00
    0.41791E-01         0.35155E-02         0.00000E+00
    0.40791E-01         0.24399E-02         0.00000E+00
    0.39608E-01         0.14262E-02         0.00000E+00
    0.38239E-01         0.48516E-03         0.00000E+00
    0.36681E-01        -0.37274E-03         0.00000E+00
    0.34934E-01        -0.11375E-02         0.00000E+00
    0.32998E-01        -0.17996E-02         0.00000E+00
    0.30874E-01        -0.23500E-02         0.00000E+00
    0.28564E-01        -0.27802E-02         0.00000E+00
    0.26070E-01        -0.30823E-02         0.00000E+00
    0.23396E-01        -0.32486E-02         0.00000E+00
    0.20544E-01        -0.32717E-02         0.00000E+00
    0.17520E-01        -0.31444E-02         0.00000E+00
    0.14327E-01        -0.28596E-02         0.00000E+00
    0.10972E-01        -0.24102E-02         0.00000E+00
    0.74601E-02        -0.17888E-02         0.00000E+00
    0.37998E-02        -0.98793E-03         0.00000E+00
    0.00000E+00         0.00000E+00         0.00000E+00
    0.41492E-01         0.11964E-01         0.00000E+00
    0.41513E-01         0.10770E-01         0.00000E+00
    0.41429E-01         0.95676E-02         0.00000E+00
    0.41227E-01         0.83660E-02         0.00000E+00
    0.40894E-01         0.71738E-02         0.00000E+00
    0.40421E-01         0.60003E-02         0.00000E+00
    0.39798E-01         0.48553E-02         0.00000E+00
    0.39018E-01         0.37488E-02         0.00000E+00
    0.38074E-01         0.26911E-02         0.00000E+00
    0.36962E-01         0.16926E-02         0.00000E+00
    0.35679E-01         0.76335E-03         0.00000E+00
    0.34221E-01        -0.86596E-04         0.00000E+00
    0.32587E-01        -0.84759E-03         0.00000E+00
    0.30779E-01        -0.15103E-02         0.00000E+00
    0.28795E-01        -0.20660E-02         0.00000E+00
    0.26638E-01        -0.25060E-02         0.00000E+00
    0.24310E-01        -0.28223E-02         0.00000E+00
    0.21813E-01        -0.30071E-02         0.00000E+00
    0.19151E-01        -0.30529E-02         0.00000E+00
    0.16328E-01        -0.29523E-02         0.00000E+00
    0.13350E-01        -0.26980E-02         0.00000E+00
    0.10220E-01        -0.22829E-02         0.00000E+00
    0.69465E-02        -0.16998E-02         0.00000E+00
    0.35368E-02        -0.94121E-03         0.00000E+00
    0.00000E+00         0.00000E+00         0.00000E+00
    0.38736E-01         0.12017E-01         0.00000E+00
    0.38730E-01         0.10838E-01         0.00000E+00
    0.38628E-01         0.96546E-02         0.00000E+00
    0.38419E-01         0.84727E-02         0.00000E+00
    0.38091E-01         0.73010E-02         0.00000E+00
    0.37634E-01         0.61479E-02         0.00000E+00
    0.37041E-01         0.50228E-02         0.00000E+00
    0.36304E-01         0.39351E-02         0.00000E+00
    0.35417E-01         0.28944E-02         0.00000E+00
    0.34375E-01         0.19104E-02         0.00000E+00
    0.33175E-01         0.99293E-03         0.00000E+00
    0.31815E-01         0.15148E-03         0.00000E+00
    0.30293E-01        -0.60461E-03         0.00000E+00
    0.28608E-01        -0.12663E-02         0.00000E+00
    0.26761E-01        -0.18247E-02         0.00000E+00
    0.24754E-01        -0.22715E-02         0.00000E+00
    0.22587E-01        -0.25986E-02         0.00000E+00
    0.20264E-01        -0.27981E-02         0.00000E+00
    0.17788E-01        -0.28623E-02         0.00000E+00
    0.15163E-01        -0.27840E-02         0.00000E+00
    0.12394E-01        -0.25556E-02         0.00000E+00
    0.94853E-02        -0.21701E-02         0.00000E+00
    0.64449E-02        -0.16204E-02         0.00000E+00
    0.32801E-02        -0.89934E-03         0.00000E+00
    0.00000E+00         0.00000E+00         0.00000E+00
    0.36014E-01         0.12040E-01         0.00000E+00
    0.35986E-01         0.10877E-01         0.00000E+00
    0.35871E-01         0.97095E-02         0.00000E+00
    0.35659E-01         0.85456E-02         0.00000E+00
    0.35338E-01         0.73925E-02         0.00000E+00
    0.34901E-01         0.62583E-02         0.00000E+00
    0.34339E-01         0.51516E-02         0.00000E+00
    0.33646E-01         0.40813E-02         0.00000E+00
    0.32815E-01         0.30566E-02         0.00000E+00
    0.31843E-01         0.20867E-02         0.00000E+00
    0.30726E-01         0.11808E-02         0.00000E+00
    0.29461E-01         0.34822E-03         0.00000E+00
    0.28047E-01        -0.40206E-03         0.00000E+00
    0.26484E-01        -0.10612E-02         0.00000E+00
    0.24771E-01        -0.16205E-02         0.00000E+00
    0.22909E-01        -0.20717E-02         0.00000E+00
    0.20901E-01        -0.24067E-02         0.00000E+00
    0.18749E-01        -0.26176E-02         0.00000E+00
    0.16455E-01        -0.26968E-02         0.00000E+00
    0.14023E-01        -0.26368E-02         0.00000E+00
    0.11459E-01        -0.24304E-02         0.00000E+00
    0.87675E-02        -0.20704E-02         0.00000E+00
    0.59551E-02        -0.15498E-02         0.00000E+00
    0.30297E-02        -0.86189E-03         0.00000E+00
    0.00000E+00         0.00000E+00         0.00000E+00
    0.33323E-01         0.12040E-01         0.00000E+00
    0.33278E-01         0.10890E-01         0.00000E+00
    0.33154E-01         0.97381E-02         0.00000E+00
    0.32942E-01         0.85906E-02         0.00000E+00
    0.32632E-01         0.74545E-02         0.00000E+00
    0.32216E-01         0.63376E-02         0.00000E+00
    0.31687E-01         0.52479E-02         0.00000E+00
    0.31038E-01         0.41938E-02         0.00000E+00
    0.30264E-01         0.31841E-02         0.00000E+00
    0.29361E-01         0.22276E-02         0.00000E+00
    0.28325E-01         0.13331E-02         0.00000E+00
    0.27155E-01         0.50959E-03         0.00000E+00
    0.25848E-01        -0.23425E-03         0.00000E+00
    0.24403E-01        -0.88975E-03         0.00000E+00
    0.22822E-01        -0.14484E-02         0.00000E+00
    0.21104E-01        -0.19021E-02         0.00000E+00
    0.19251E-01        -0.22426E-02         0.00000E+00
    0.17265E-01        -0.24622E-02         0.00000E+00
    0.15150E-01        -0.25533E-02         0.00000E+00
    0.12908E-01        -0.25085E-02         0.00000E+00
    0.10545E-01        -0.23205E-02         0.00000E+00
    0.80660E-02        -0.19823E-02         0.00000E+00
    0.54769E-02        -0.14872E-02         0.00000E+00
    0.27854E-02        -0.82850E-03         0.00000E+00
    0.00000E+00         0.00000E+00         0.00000E+00
    0.30659E-01         0.12021E-01         0.00000E+00
    0.30602E-01         0.10884E-01         0.00000E+00
    0.30473E-01         0.97456E-02         0.00000E+00
    0.30265E-01         0.86129E-02         0.00000E+00
    0.29968E-01         0.74924E-02         0.00000E+00
    0.29576E-01         0.63912E-02         0.00000E+00
    0.29081E-01         0.53172E-02         0.00000E+00
    0.28477E-01         0.42782E-02         0.00000E+00
    0.27760E-01         0.32826E-02         0.00000E+00
    0.26926E-01         0.23388E-02         0.00000E+00
    0.25971E-01         0.14554E-02         0.00000E+00
    0.24893E-01         0.64087E-03         0.00000E+00
    0.23691E-01        -0.96125E-04         0.00000E+00
    0.22364E-01        -0.74721E-03         0.00000E+00
    0.20911E-01        -0.13041E-02         0.00000E+00
    0.19334E-01        -0.17586E-02         0.00000E+00
    0.17634E-01        -0.21028E-02         0.00000E+00
    0.15812E-01        -0.23289E-02         0.00000E+00
    0.13872E-01        -0.24294E-02         0.00000E+00
    0.11817E-01        -0.23969E-02         0.00000E+00
    0.96514E-02        -0.22244E-02         0.00000E+00
    0.73804E-02        -0.19049E-02         0.00000E+00
    0.50098E-02        -0.14318E-02         0.00000E+00
    0.25470E-02        -0.79884E-03         0.00000E+00
    0.00000E+00         0.00000E+00         0.00000E+00
    0.28021E-01         0.11989E-01         0.00000E+00
    0.27955E-01         0.10863E-01         0.00000E+00
    0.27825E-01         0.97367E-02         0.00000E+00
    0.27624E-01         0.86174E-02         0.00000E+00
    0.27343E-01         0.75109E-02         0.00000E+00
    0.26975E-01         0.64242E-02         0.00000E+00
    0.26516E-01         0.53645E-02         0.00000E+00
    0.25959E-01         0.43394E-02         0.00000E+00
    0.25299E-01         0.33569E-02         0.00000E+00
    0.24534E-01         0.24251E-02         0.00000E+00
    0.23659E-01         0.15523E-02         0.00000E+00
    0.22673E-01         0.74672E-03         0.00000E+00
    0.21575E-01         0.16753E-04         0.00000E+00
    0.20363E-01        -0.62938E-03         0.00000E+00
    0.19037E-01        -0.11835E-02         0.00000E+00
    0.17599E-01        -0.16377E-02         0.00000E+00
    0.16048E-01        -0.19840E-02         0.00000E+00
    0.14388E-01        -0.22148E-02         0.00000E+00
    0.12620E-01        -0.23226E-02         0.00000E+00
    0.10748E-01        -0.23002E-02         0.00000E+00
    0.87766E-02        -0.21406E-02         0.00000E+00
    0.67097E-02        -0.18370E-02         0.00000E+00
    0.45533E-02        -0.13830E-02         0.00000E+00
    0.23142E-02        -0.77258E-03         0.00000E+00
    0.00000E+00         0.00000E+00         0.00000E+00
    0.25405E-01         0.11947E-01         0.00000E+00
    0.25334E-01         0.10830E-01         0.00000E+00
    0.25206E-01         0.97155E-02         0.00000E+00
    0.25014E-01         0.86083E-02         0.00000E+00
    0.24751E-01         0.75146E-02         0.00000E+00
    0.24411E-01         0.64409E-02         0.00000E+00
    0.23989E-01         0.53942E-02         0.00000E+00
    0.23479E-01         0.43819E-02         0.00000E+00
    0.22877E-01         0.34115E-02         0.00000E+00
    0.22180E-01         0.24909E-02         0.00000E+00
    0.21386E-01         0.16281E-02         0.00000E+00
    0.20491E-01         0.83121E-03         0.00000E+00
    0.19495E-01         0.10828E-03         0.00000E+00
    0.18397E-01        -0.53262E-03         0.00000E+00
    0.17197E-01        -0.10835E-02         0.00000E+00
    0.15895E-01        -0.15364E-02         0.00000E+00
    0.14492E-01        -0.18837E-02         0.00000E+00
    0.12991E-01        -0.21177E-02         0.00000E+00
    0.11393E-01        -0.22312E-02         0.00000E+00
    0.97010E-02        -0.22168E-02         0.00000E+00
    0.79196E-02        -0.20679E-02         0.00000E+00
    0.60530E-02        -0.17778E-02         0.00000E+00
    0.41066E-02        -0.13403E-02         0.00000E+00
    0.20866E-02        -0.74948E-03         0.00000E+00
    0.00000E+00         0.00000E+00         0.00000E+00
    0.22809E-01         0.11899E-01         0.00000E+00
    0.22736E-01         0.10791E-01         0.00000E+00
    0.22613E-01         0.96860E-02         0.00000E+00
    0.22434E-01         0.85895E-02         0.00000E+00
    0.22191E-01         0.75072E-02         0.00000E+00
    0.21880E-01         0.64452E-02         0.00000E+00
    0.21496E-01         0.54103E-02         0.00000E+00
    0.21034E-01         0.44095E-02         0.00000E+00
    0.20490E-01         0.34502E-02         0.00000E+00
    0.19863E-01         0.25400E-02         0.00000E+00
    0.19148E-01         0.16866E-02         0.00000E+00
    0.18344E-01         0.89793E-03         0.00000E+00
    0.17449E-01         0.18185E-03         0.00000E+00
    0.16464E-01        -0.45373E-03         0.00000E+00
    0.15388E-01        -0.10009E-02         0.00000E+00
    0.14221E-01        -0.14520E-02         0.00000E+00
    0.12964E-01        -0.17994E-02         0.00000E+00
    0.11619E-01        -0.20355E-02         0.00000E+00
    0.10187E-01        -0.21531E-02         0.00000E+00
    0.86731E-02        -0.21453E-02         0.00000E+00
    0.70791E-02        -0.20052E-02         0.00000E+00
    0.54094E-02        -0.17265E-02         0.00000E+00
    0.36691E-02        -0.13031E-02         0.00000E+00
    0.18638E-02        -0.72926E-03         0.00000E+00
    0.00000E+00         0.00000E+00         0.00000E+00
    0.20231E-01         0.11848E-01         0.00000E+00
    0.20159E-01         0.10747E-01         0.00000E+00
    0.20044E-01         0.96512E-02         0.00000E+00
    0.19878E-01         0.85643E-02         0.00000E+00
    0.19658E-01         0.74920E-02         0.00000E+00
    0.19378E-01         0.64405E-02         0.00000E+00
    0.19033E-01         0.54162E-02         0.00000E+00
    0.18620E-01         0.44258E-02         0.00000E+00
    0.18135E-01         0.34765E-02         0.00000E+00
    0.17576E-01         0.25757E-02         0.00000E+00
    0.16941E-01         0.17310E-02         0.00000E+00
    0.16227E-01         0.94998E-03         0.00000E+00
    0.15434E-01         0.24042E-03         0.00000E+00
    0.14560E-01        -0.38993E-03         0.00000E+00
    0.13607E-01        -0.93336E-03         0.00000E+00
    0.12573E-01        -0.13822E-02         0.00000E+00
    0.11460E-01        -0.17290E-02         0.00000E+00
    0.10269E-01        -0.19663E-02         0.00000E+00
    0.90028E-02        -0.20871E-02         0.00000E+00
    0.76632E-02        -0.20844E-02         0.00000E+00
    0.62536E-02        -0.19515E-02         0.00000E+00
    0.47777E-02        -0.16823E-02         0.00000E+00
    0.32399E-02        -0.12709E-02         0.00000E+00
    0.16454E-02        -0.71173E-03         0.00000E+00
    0.00000E+00         0.00000E+00         0.00000E+00
    0.17668E-01         0.11796E-01         0.00000E+00
    0.17601E-01         0.10703E-01         0.00000E+00
    0.17495E-01         0.96142E-02         0.00000E+00
    0.17346E-01         0.85356E-02         0.00000E+00
    0.17149E-01         0.74722E-02         0.00000E+00
    0.16901E-01         0.64298E-02         0.00000E+00
    0.16596E-01         0.54148E-02         0.00000E+00
    0.16233E-01         0.44336E-02         0.00000E+00
    0.15808E-01         0.34933E-02         0.00000E+00
    0.15318E-01         0.26010E-02         0.00000E+00
    0.14762E-01         0.17640E-02         0.00000E+00
    0.14138E-01         0.99005E-03         0.00000E+00
    0.13445E-01         0.28654E-03         0.00000E+00
    0.12683E-01        -0.33885E-03         0.00000E+00
    0.11850E-01        -0.87853E-03         0.00000E+00
    0.10949E-01        -0.13250E-02         0.00000E+00
    0.99780E-02        -0.16708E-02         0.00000E+00
    0.89401E-02        -0.19087E-02         0.00000E+00
    0.78365E-02        -0.20317E-02         0.00000E+00
    0.66694E-02        -0.20330E-02         0.00000E+00
    0.54417E-02        -0.19060E-02         0.00000E+00
    0.41567E-02        -0.16447E-02         0.00000E+00
    0.28182E-02        -0.12434E-02         0.00000E+00
    0.14309E-02        -0.69670E-03         0.00000E+00
    0.00000E+00         0.00000E+00         0.00000E+00
    0.15120E-01         0.11747E-01         0.00000E+00
    0.15058E-01         0.10659E-01         0.00000E+00
    0.14963E-01         0.95773E-02         0.00000E+00
    0.14832E-01         0.85058E-02         0.00000E+00
    0.14661E-01         0.74501E-02         0.00000E+00
    0.14446E-01         0.64157E-02         0.00000E+00
    0.14183E-01         0.54086E-02         0.00000E+00
    0.13870E-01         0.44355E-02         0.00000E+00
    0.13505E-01         0.35030E-02         0.00000E+00
    0.13085E-01         0.26181E-02         0.00000E+00
    0.12608E-01         0.17881E-02         0.00000E+00
    0.12074E-01         0.10204E-02         0.00000E+00
    0.11480E-01         0.32238E-03         0.00000E+00
    0.10828E-01        -0.29845E-03         0.00000E+00
    0.10116E-01        -0.83459E-03         0.00000E+00
    0.93453E-02        -0.12786E-02         0.00000E+00
    0.85159E-02        -0.16232E-02         0.00000E+00
    0.76291E-02        -0.18613E-02         0.00000E+00
    0.66865E-02        -0.19858E-02         0.00000E+00
    0.56899E-02        -0.19902E-02         0.00000E+00
    0.46418E-02        -0.18680E-02         0.00000E+00
    0.35451E-02        -0.16132E-02         0.00000E+00
    0.24031E-02        -0.12202E-02         0.00000E+00
    0.12199E-02        -0.68398E-03         0.00000E+00
    0.00000E+00         0.00000E+00         0.00000E+00
    0.12582E-01         0.11702E-01         0.00000E+00
    0.12528E-01         0.10619E-01         0.00000E+00
    0.12447E-01         0.95427E-02         0.00000E+00
    0.12335E-01         0.84773E-02         0.00000E+00
    0.12191E-01         0.74279E-02         0.00000E+00
    0.12010E-01         0.64002E-02         0.00000E+00
    0.11789E-01         0.54000E-02         0.00000E+00
    0.11528E-01         0.44336E-02         0.00000E+00
    0.11222E-01         0.35078E-02         0.00000E+00
    0.10872E-01         0.26293E-02         0.00000E+00
    0.10475E-01         0.18053E-02         0.00000E+00
    0.10030E-01         0.10430E-02         0.00000E+00
    0.95358E-02         0.34975E-03         0.00000E+00
    0.89930E-02        -0.26702E-03         0.00000E+00
    0.84010E-02        -0.79996E-03         0.00000E+00
    0.77600E-02        -0.12417E-02         0.00000E+00
    0.70706E-02        -0.15851E-02         0.00000E+00
    0.63336E-02        -0.18230E-02         0.00000E+00
    0.55504E-02        -0.19486E-02         0.00000E+00
    0.47226E-02        -0.19553E-02         0.00000E+00
    0.38522E-02        -0.18368E-02         0.00000E+00
    0.29416E-02        -0.15872E-02         0.00000E+00
    0.19938E-02        -0.12011E-02         0.00000E+00
    0.10120E-02        -0.67346E-03         0.00000E+00
    0.00000E+00         0.00000E+00         0.00000E+00
    0.10054E-01         0.11663E-01         0.00000E+00
    0.10009E-01         0.10584E-01         0.00000E+00
    0.99427E-02         0.95121E-02         0.00000E+00
    0.98522E-02         0.84515E-02         0.00000E+00
    0.97351E-02         0.74074E-02         0.00000E+00
    0.95891E-02         0.63852E-02         0.00000E+00
    0.94120E-02         0.53905E-02         0.00000E+00
    0.92020E-02         0.44298E-02         0.00000E+00
    0.89574E-02         0.35094E-02         0.00000E+00
    0.86767E-02         0.26362E-02         0.00000E+00
    0.83588E-02         0.18171E-02         0.00000E+00
    0.80029E-02         0.10594E-02         0.00000E+00
    0.76083E-02         0.37017E-03         0.00000E+00
    0.71746E-02        -0.24316E-03         0.00000E+00
    0.67017E-02        -0.77333E-03         0.00000E+00
    0.61898E-02        -0.12131E-02         0.00000E+00
    0.56394E-02        -0.15552E-02         0.00000E+00
    0.50512E-02        -0.17928E-02         0.00000E+00
    0.44261E-02        -0.19191E-02         0.00000E+00
    0.37656E-02        -0.19275E-02         0.00000E+00
    0.30713E-02        -0.18119E-02         0.00000E+00
    0.23451E-02        -0.15664E-02         0.00000E+00
    0.15893E-02        -0.11857E-02         0.00000E+00
    0.80655E-03        -0.66501E-03         0.00000E+00
    0.00000E+00         0.00000E+00         0.00000E+00
    0.75341E-02         0.11631E-01         0.00000E+00
    0.74992E-02         0.10555E-01         0.00000E+00
    0.74484E-02         0.94869E-02         0.00000E+00
    0.73797E-02         0.84301E-02         0.00000E+00
    0.72911E-02         0.73901E-02         0.00000E+00
    0.71810E-02         0.63720E-02         0.00000E+00
    0.70477E-02         0.53818E-02         0.00000E+00
    0.68898E-02         0.44254E-02         0.00000E+00
    0.67060E-02         0.35093E-02         0.00000E+00
    0.64954E-02         0.26402E-02         0.00000E+00
    0.62570E-02         0.18250E-02         0.00000E+00
    0.59901E-02         0.10708E-02         0.00000E+00
    0.56943E-02         0.38483E-03         0.00000E+00
    0.53693E-02        -0.22575E-03         0.00000E+00
    0.50151E-02        -0.75367E-03         0.00000E+00
    0.46318E-02        -0.11917E-02         0.00000E+00
    0.42196E-02        -0.15329E-02         0.00000E+00
    0.37792E-02        -0.17701E-02         0.00000E+00
    0.33113E-02        -0.18968E-02         0.00000E+00
    0.28169E-02        -0.19065E-02         0.00000E+00
    0.22973E-02        -0.17930E-02         0.00000E+00
    0.17540E-02        -0.15506E-02         0.00000E+00
    0.11886E-02        -0.11740E-02         0.00000E+00
    0.60314E-03        -0.65853E-03         0.00000E+00
    0.00000E+00         0.00000E+00         0.00000E+00
    0.50196E-02         0.11608E-01         0.00000E+00
    0.49959E-02         0.10534E-01         0.00000E+00
    0.49615E-02         0.94681E-02         0.00000E+00
    0.49153E-02         0.84140E-02         0.00000E+00
    0.48559E-02         0.73769E-02         0.00000E+00
    0.47822E-02         0.63619E-02         0.00000E+00
    0.46931E-02         0.53747E-02         0.00000E+00
    0.45876E-02         0.44214E-02         0.00000E+00
    0.44650E-02         0.35084E-02         0.00000E+00
    0.43245E-02         0.26423E-02         0.00000E+00
    0.41655E-02         0.18299E-02         0.00000E+00
    0.39876E-02         0.10783E-02         0.00000E+00
    0.37905E-02         0.39466E-03         0.00000E+00
    0.35740E-02        -0.21391E-03         0.00000E+00
    0.33381E-02        -0.74018E-03         0.00000E+00
    0.30828E-02        -0.11770E-02         0.00000E+00
    0.28083E-02        -0.15174E-02         0.00000E+00
    0.25151E-02        -0.17543E-02         0.00000E+00
    0.22036E-02        -0.18812E-02         0.00000E+00
    0.18745E-02        -0.18917E-02         0.00000E+00
    0.15286E-02        -0.17796E-02         0.00000E+00
    0.11670E-02        -0.15394E-02         0.00000E+00
    0.79076E-03        -0.11657E-02         0.00000E+00
    0.40125E-03        -0.65395E-03         0.00000E+00
    0.00000E+00         0.00000E+00         0.00000E+00
    0.25089E-02         0.11594E-01         0.00000E+00
    0.24968E-02         0.10521E-01         0.00000E+00
    0.24796E-02         0.94565E-02         0.00000E+00
    0.24563E-02         0.84041E-02         0.00000E+00
    0.24265E-02         0.73687E-02         0.00000E+00
    0.23896E-02         0.63555E-02         0.00000E+00
    0.23449E-02         0.53702E-02         0.00000E+00
    0.22921E-02         0.44188E-02         0.00000E+00
    0.22308E-02         0.35076E-02         0.00000E+00
    0.21605E-02         0.26433E-02         0.00000E+00
    0.20810E-02         0.18326E-02         0.00000E+00
    0.19921E-02         0.10826E-02         0.00000E+00
    0.18936E-02         0.40030E-03         0.00000E+00
    0.17854E-02        -0.20704E-03         0.00000E+00
    0.16675E-02        -0.73231E-03         0.00000E+00
    0.15399E-02        -0.11684E-02         0.00000E+00
    0.14027E-02        -0.15082E-02         0.00000E+00
    0.12562E-02        -0.17450E-02         0.00000E+00
    0.11006E-02        -0.18720E-02         0.00000E+00
    0.93620E-03        -0.18830E-02         0.00000E+00
    0.76344E-03        -0.17718E-02         0.00000E+00
    0.58281E-03        -0.15328E-02         0.00000E+00
    0.39489E-03        -0.11608E-02         0.00000E+00
    0.20037E-03        -0.65122E-03         0.00000E+00
    0.00000E+00         0.00000E+00         0.00000E+00
    0.00000E+00         0.11589E-01         0.00000E+00
    0.00000E+00         0.10517E-01         0.00000E+00
    0.00000E+00         0.94526E-02         0.00000E+00
    0.00000E+00         0.84007E-02         0.00000E+00
    0.00000E+00         0.73659E-02         0.00000E+00
    0.00000E+00         0.63533E-02         0.00000E+00
    0.00000E+00         0.53686E-02         0.00000E+00
    0.00000E+00         0.44178E-02         0.00000E+00
    0.00000E+00         0.35073E-02         0.00000E+00
    0.00000E+00         0.26435E-02         0.00000E+00
    0.00000E+00         0.18334E-02         0.00000E+00
    0.00000E+00         0.10839E-02         0.00000E+00
    0.00000E+00         0.40214E-03         0.00000E+00
    0.00000E+00        -0.20480E-03         0.00000E+00
    0.00000E+00        -0.72972E-03         0.00000E+00
    0.00000E+00        -0.11655E-02         0.00000E+00
    0.00000E+00        -0.15052E-02         0.00000E+00
    0.00000E+00        -0.17419E-02         0.00000E+00
    0.00000E+00        -0.18690E-02         0.00000E+00
    0.00000E+00        -0.18801E-02         0.00000E+00
    0.00000E+00        -0.17691E-02         0.00000E+00
    0.00000E+00        -0.15306E-02         0.00000E+00
    0.00000E+00        -0.11592E-02         0.00000E+00
    0.00000E+00        -0.65032E-03         0.00000E+00
    0.00000E+00         0.00000E+00         0.00000E+00
CELL_DATA       1152
VECTORS vDarcy double 
   -0.27574E-20         0.78337E-20         0.00000E+00
   -0.54958E-20         0.25500E-19         0.00000E+00
   -0.60302E-20         0.78962E-20         0.00000E+00
    0.41465E-22        -0.93167E-20         0.00000E+00
    0.28850E-20         0.28983E-20         0.00000E+00
    0.23461E-20        -0.12480E-20         0.00000E+00
   -0.47195E-21        -0.68677E-20         0.00000E+00
   -0.35518E-20        -0.18412E-20         0.00000E+00
   -0.20012E-20         0.21617E-20         0.00000E+00
   -0.18839E-21         0.12089E-20         0.00000E+00
    0.74393E-23         0.21782E-20         0.00000E+00
   -0.68430E-21         0.44170E-20         0.00000E+00
   -0.14209E-20         0.85260E-21         0.00000E+00
   -0.10783E-20        -0.88703E-21         0.00000E+00
   -0.82829E-21         0.24813E-20         0.00000E+00
   -0.17432E-21         0.24391E-20         0.00000E+00
    0.22690E-21         0.58653E-21         0.00000E+00
    0.49831E-22         0.13563E-20         0.00000E+00
   -0.27215E-22         0.19547E-20         0.00000E+00
   -0.27443E-21         0.22656E-20         0.00000E+00
   -0.32723E-21         0.12419E-20         0.00000E+00
   -0.25745E-21         0.80579E-21         0.00000E+00
   -0.28464E-21         0.51169E-21         0.00000E+00
   -0.24923E-21         0.17030E-21         0.00000E+00
   -0.24972E-19         0.48283E-20         0.00000E+00
   -0.10985E-19         0.17257E-19         0.00000E+00
   -0.68275E-21         0.63703E-20         0.00000E+00
   -0.47573E-20        -0.97879E-20         0.00000E+00
   -0.30291E-20        -0.12022E-20         0.00000E+00
   -0.59848E-22         0.42210E-21         0.00000E+00
   -0.23644E-20        -0.34153E-20         0.00000E+00
   -0.27527E-20        -0.18255E-20         0.00000E+00
   -0.22285E-20         0.71114E-22         0.00000E+00
   -0.19900E-20         0.12481E-20         0.00000E+00
   -0.18328E-20         0.17860E-20         0.00000E+00
   -0.14188E-20         0.50869E-20         0.00000E+00
   -0.15571E-20         0.10576E-20         0.00000E+00
   -0.22217E-20        -0.76995E-21         0.00000E+00
   -0.22945E-20         0.21869E-20         0.00000E+00
   -0.90512E-21         0.69014E-21         0.00000E+00
    0.21083E-21         0.81832E-21         0.00000E+00
   -0.36293E-21         0.18754E-20         0.00000E+00
   -0.77102E-21         0.19208E-20         0.00000E+00
   -0.39325E-21         0.21689E-20         0.00000E+00
   -0.28273E-21         0.12808E-20         0.00000E+00
   -0.34311E-21         0.75747E-21         0.00000E+00
   -0.36934E-21         0.61343E-21         0.00000E+00
   -0.45747E-21         0.12127E-21         0.00000E+00
   -0.22472E-19        -0.60959E-20         0.00000E+00
   -0.87839E-20         0.50734E-21         0.00000E+00
   -0.40787E-21         0.44416E-20         0.00000E+00
   -0.13827E-20        -0.28097E-20         0.00000E+00
   -0.50619E-20        -0.62294E-20         0.00000E+00
   -0.28559E-20         0.27402E-21         0.00000E+00
   -0.79964E-21        -0.30190E-20         0.00000E+00
   -0.16526E-20        -0.98046E-21         0.00000E+00
   -0.29904E-20         0.39624E-22         0.00000E+00
   -0.35983E-20         0.16489E-20         0.00000E+00
   -0.49698E-20         0.25994E-20         0.00000E+00
   -0.35523E-20         0.24420E-20         0.00000E+00
   -0.11579E-20         0.14464E-20         0.00000E+00
   -0.12523E-20        -0.39981E-21         0.00000E+00
   -0.29827E-21         0.93550E-21         0.00000E+00
    0.19306E-21         0.60880E-22         0.00000E+00
   -0.68180E-21         0.12065E-20         0.00000E+00
   -0.10783E-20         0.24575E-20         0.00000E+00
   -0.10317E-20         0.17002E-20         0.00000E+00
   -0.59138E-21         0.15714E-20         0.00000E+00
   -0.30202E-21         0.14784E-20         0.00000E+00
   -0.68807E-21         0.10063E-20         0.00000E+00
   -0.83228E-21         0.53505E-21         0.00000E+00
   -0.53735E-21        -0.71440E-23         0.00000E+00
   -0.42196E-20        -0.10254E-19         0.00000E+00
   -0.80544E-20        -0.51877E-20         0.00000E+00
   -0.56449E-20        -0.64884E-21         0.00000E+00
   -0.20850E-20        -0.30435E-21         0.00000E+00
   -0.31447E-20        -0.39959E-20         0.00000E+00
   -0.52009E-20        -0.21093E-20         0.00000E+00
   -0.56138E-20        -0.22790E-20         0.00000E+00
   -0.72776E-20         0.79635E-21         0.00000E+00
   -0.72440E-20        -0.43306E-21         0.00000E+00
   -0.48434E-20         0.32891E-21         0.00000E+00
   -0.18867E-20         0.23343E-20         0.00000E+00
   -0.10602E-20         0.46307E-21         0.00000E+00
   -0.85762E-21         0.82838E-21         0.00000E+00
   -0.43930E-21        -0.10563E-21         0.00000E+00
   -0.42494E-21        -0.32710E-21         0.00000E+00
   -0.25240E-21         0.65962E-21         0.00000E+00
   -0.80494E-21         0.20351E-20         0.00000E+00
   -0.11072E-20         0.23276E-20         0.00000E+00
   -0.11409E-20         0.18172E-20         0.00000E+00
   -0.14385E-20         0.13117E-20         0.00000E+00
   -0.14342E-20         0.14445E-20         0.00000E+00
   -0.10665E-20         0.10586E-20         0.00000E+00
   -0.81752E-21         0.37801E-21         0.00000E+00
   -0.91838E-21        -0.44178E-22         0.00000E+00
   -0.27230E-20        -0.33114E-20         0.00000E+00
   -0.56943E-20        -0.53242E-20         0.00000E+00
   -0.44138E-20        -0.42023E-20         0.00000E+00
   -0.11041E-20        -0.36205E-20         0.00000E+00
   -0.27467E-21        -0.44948E-21         0.00000E+00
   -0.43766E-20         0.50233E-21         0.00000E+00
   -0.88016E-20        -0.52728E-22         0.00000E+00
   -0.85029E-20        -0.64756E-22         0.00000E+00
   -0.66461E-20        -0.14624E-20         0.00000E+00
   -0.54826E-20        -0.22060E-20         0.00000E+00
   -0.33841E-20        -0.18589E-21         0.00000E+00
   -0.17928E-20         0.56539E-21         0.00000E+00
   -0.85176E-21        -0.41748E-21         0.00000E+00
   -0.84171E-21         0.71187E-21         0.00000E+00
   -0.18763E-20        -0.12436E-21         0.00000E+00
   -0.25774E-20         0.98542E-21         0.00000E+00
   -0.26732E-20         0.23576E-20         0.00000E+00
   -0.21017E-20         0.17359E-20         0.00000E+00
   -0.16642E-20         0.20051E-20         0.00000E+00
   -0.13676E-20         0.11248E-20         0.00000E+00
   -0.10881E-20         0.13475E-20         0.00000E+00
   -0.10984E-20         0.79821E-21         0.00000E+00
   -0.10872E-20         0.37825E-21         0.00000E+00
   -0.11202E-20         0.89457E-22         0.00000E+00
    0.44155E-21        -0.10299E-20         0.00000E+00
   -0.65753E-21        -0.35353E-20         0.00000E+00
   -0.40701E-20        -0.38591E-20         0.00000E+00
   -0.69252E-20        -0.44183E-20         0.00000E+00
   -0.84181E-20         0.10118E-20         0.00000E+00
   -0.60500E-20         0.77496E-21         0.00000E+00
   -0.18526E-20        -0.97756E-22         0.00000E+00
   -0.17735E-20        -0.39756E-21         0.00000E+00
   -0.33619E-20        -0.13979E-20         0.00000E+00
   -0.52598E-20        -0.15361E-20         0.00000E+00
   -0.66162E-20        -0.15979E-20         0.00000E+00
   -0.56174E-20        -0.61273E-21         0.00000E+00
   -0.44971E-20        -0.13007E-20         0.00000E+00
   -0.34033E-20         0.49122E-21         0.00000E+00
   -0.23912E-20         0.11872E-21         0.00000E+00
   -0.21521E-20         0.12044E-20         0.00000E+00
   -0.23251E-20         0.24074E-20         0.00000E+00
   -0.25786E-20         0.13682E-20         0.00000E+00
   -0.19589E-20         0.13156E-20         0.00000E+00
   -0.12146E-20         0.77340E-21         0.00000E+00
   -0.10521E-20         0.12568E-20         0.00000E+00
   -0.10441E-20         0.89120E-21         0.00000E+00
   -0.12155E-20         0.44552E-21         0.00000E+00
   -0.13090E-20         0.14865E-21         0.00000E+00
   -0.38054E-21        -0.10909E-20         0.00000E+00
   -0.15325E-20        -0.12233E-20         0.00000E+00
   -0.53946E-20         0.11035E-20         0.00000E+00
   -0.11179E-19        -0.74137E-21         0.00000E+00
   -0.12238E-19        -0.11308E-21         0.00000E+00
   -0.85377E-20        -0.41688E-20         0.00000E+00
   -0.63623E-20        -0.15268E-20         0.00000E+00
   -0.53489E-20        -0.61096E-22         0.00000E+00
   -0.49261E-20        -0.56874E-21         0.00000E+00
   -0.65259E-20         0.11325E-20         0.00000E+00
   -0.71198E-20        -0.23162E-20         0.00000E+00
   -0.57837E-20        -0.22293E-20         0.00000E+00
   -0.45821E-20        -0.20061E-20         0.00000E+00
   -0.41217E-20        -0.35751E-21         0.00000E+00
   -0.42644E-20         0.97910E-22         0.00000E+00
   -0.37252E-20         0.44707E-21         0.00000E+00
   -0.24734E-20         0.20859E-20         0.00000E+00
   -0.16617E-20         0.11315E-20         0.00000E+00
   -0.13543E-20         0.62516E-21         0.00000E+00
   -0.13529E-20         0.71813E-21         0.00000E+00
   -0.12106E-20         0.10072E-20         0.00000E+00
   -0.12081E-20         0.11303E-20         0.00000E+00
   -0.12683E-20         0.43808E-21         0.00000E+00
   -0.12406E-20         0.22176E-21         0.00000E+00
   -0.32960E-21        -0.38076E-21         0.00000E+00
   -0.28992E-20         0.17881E-20         0.00000E+00
   -0.53344E-20         0.43894E-20         0.00000E+00
   -0.47400E-20         0.11629E-20         0.00000E+00
   -0.41480E-20        -0.15501E-20         0.00000E+00
   -0.71470E-20        -0.34333E-20         0.00000E+00
   -0.10372E-19        -0.12124E-20         0.00000E+00
   -0.10686E-19        -0.10748E-20         0.00000E+00
   -0.11402E-19         0.73818E-21         0.00000E+00
   -0.96263E-20        -0.35057E-21         0.00000E+00
   -0.54795E-20        -0.43860E-20         0.00000E+00
   -0.33629E-20        -0.36121E-20         0.00000E+00
   -0.28990E-20        -0.22889E-20         0.00000E+00
   -0.27647E-20        -0.66935E-21         0.00000E+00
   -0.25696E-20         0.35733E-21         0.00000E+00
   -0.25090E-20        -0.41201E-21         0.00000E+00
   -0.13045E-20         0.48851E-21         0.00000E+00
   -0.66694E-21         0.12796E-20         0.00000E+00
   -0.12900E-20         0.79274E-21         0.00000E+00
   -0.14606E-20         0.71978E-21         0.00000E+00
   -0.15059E-20         0.90848E-21         0.00000E+00
   -0.14338E-20         0.11545E-20         0.00000E+00
   -0.13849E-20         0.42536E-21         0.00000E+00
   -0.13478E-20         0.16961E-21         0.00000E+00
   -0.13912E-20         0.13400E-20         0.00000E+00
   -0.29584E-20         0.42042E-20         0.00000E+00
   -0.26486E-20         0.40987E-20         0.00000E+00
   -0.16889E-20        -0.10057E-21         0.00000E+00
   -0.29129E-20         0.34536E-21         0.00000E+00
   -0.64819E-20         0.12392E-20         0.00000E+00
   -0.84210E-20        -0.72062E-21         0.00000E+00
   -0.93347E-20        -0.33892E-21         0.00000E+00
   -0.84804E-20        -0.13612E-21         0.00000E+00
   -0.56341E-20        -0.40985E-20         0.00000E+00
   -0.34651E-20        -0.69539E-20         0.00000E+00
   -0.26743E-20        -0.39517E-20         0.00000E+00
   -0.26528E-20        -0.24348E-20         0.00000E+00
   -0.19859E-20        -0.13246E-20         0.00000E+00
   -0.16696E-20         0.50125E-21         0.00000E+00
   -0.24661E-20         0.18003E-21         0.00000E+00
   -0.33802E-20        -0.39406E-21         0.00000E+00
   -0.28195E-20         0.96397E-21         0.00000E+00
   -0.14977E-20         0.40969E-21         0.00000E+00
   -0.13327E-20         0.11084E-20         0.00000E+00
   -0.19841E-20         0.12165E-20         0.00000E+00
   -0.19258E-20         0.71603E-21         0.00000E+00
   -0.14687E-20         0.35773E-21         0.00000E+00
   -0.14536E-20         0.18512E-21         0.00000E+00
   -0.55376E-22         0.27866E-20         0.00000E+00
    0.25670E-21         0.40127E-20         0.00000E+00
    0.62037E-21         0.36166E-20         0.00000E+00
   -0.14922E-20         0.15343E-20         0.00000E+00
   -0.29454E-20         0.13877E-20         0.00000E+00
   -0.22090E-20         0.30294E-20         0.00000E+00
   -0.29232E-20         0.14249E-21         0.00000E+00
   -0.21060E-20        -0.11056E-20         0.00000E+00
    0.13650E-21        -0.24662E-20         0.00000E+00
   -0.86070E-21        -0.36175E-20         0.00000E+00
   -0.38308E-20        -0.66337E-20         0.00000E+00
   -0.44450E-20        -0.44484E-20         0.00000E+00
   -0.37267E-20        -0.26778E-20         0.00000E+00
   -0.40879E-20        -0.13873E-20         0.00000E+00
   -0.35992E-20        -0.24106E-21         0.00000E+00
   -0.27392E-20         0.85880E-21         0.00000E+00
   -0.32208E-20         0.32282E-21         0.00000E+00
   -0.31503E-20        -0.38409E-21         0.00000E+00
   -0.23321E-20        -0.38227E-21         0.00000E+00
   -0.15298E-20         0.93311E-21         0.00000E+00
   -0.12576E-20         0.17710E-20         0.00000E+00
   -0.16647E-20         0.51033E-21         0.00000E+00
   -0.17533E-20         0.19487E-21         0.00000E+00
   -0.15666E-20         0.14636E-21         0.00000E+00
    0.86036E-22         0.27559E-20         0.00000E+00
   -0.89551E-23         0.38263E-20         0.00000E+00
   -0.31417E-21         0.37446E-20         0.00000E+00
   -0.45500E-21         0.36597E-20         0.00000E+00
   -0.14108E-20         0.16713E-20         0.00000E+00
   -0.13789E-20         0.19776E-20         0.00000E+00
    0.62448E-21        -0.94765E-22         0.00000E+00
    0.36131E-21        -0.14225E-20         0.00000E+00
   -0.16319E-20        -0.23986E-20         0.00000E+00
   -0.27195E-20        -0.16004E-20         0.00000E+00
   -0.34420E-20        -0.49583E-20         0.00000E+00
   -0.30034E-20        -0.59483E-20         0.00000E+00
   -0.18533E-20        -0.30463E-20         0.00000E+00
   -0.15642E-20        -0.94666E-21         0.00000E+00
   -0.20560E-20        -0.67850E-21         0.00000E+00
   -0.21046E-20         0.48479E-21         0.00000E+00
   -0.15657E-20         0.63950E-21         0.00000E+00
   -0.18370E-20        -0.49989E-21         0.00000E+00
   -0.23284E-20        -0.59339E-21         0.00000E+00
   -0.20865E-20         0.10007E-21         0.00000E+00
   -0.17479E-20         0.19932E-20         0.00000E+00
   -0.18536E-20         0.80088E-21         0.00000E+00
   -0.17763E-20        -0.84369E-22         0.00000E+00
   -0.14480E-20        -0.89259E-22         0.00000E+00
   -0.88953E-21         0.35594E-20         0.00000E+00
   -0.17633E-20         0.39916E-20         0.00000E+00
   -0.12200E-20         0.33413E-20         0.00000E+00
   -0.32789E-21         0.33117E-20         0.00000E+00
   -0.70164E-21         0.33489E-20         0.00000E+00
   -0.12179E-20         0.78437E-21         0.00000E+00
   -0.97087E-21        -0.11520E-20         0.00000E+00
   -0.23518E-22        -0.10494E-20         0.00000E+00
   -0.69239E-21        -0.10952E-21         0.00000E+00
   -0.16355E-20        -0.18588E-20         0.00000E+00
   -0.17061E-20        -0.39068E-20         0.00000E+00
   -0.26516E-20        -0.64929E-20         0.00000E+00
   -0.28549E-20        -0.34485E-20         0.00000E+00
   -0.21610E-20        -0.15275E-20         0.00000E+00
   -0.20148E-20         0.24803E-21         0.00000E+00
   -0.24586E-20         0.50584E-22         0.00000E+00
   -0.23187E-20         0.39484E-21         0.00000E+00
   -0.22965E-20        -0.60636E-23         0.00000E+00
   -0.23009E-20        -0.59145E-21         0.00000E+00
   -0.25350E-20         0.90368E-22         0.00000E+00
   -0.23242E-20         0.14535E-20         0.00000E+00
   -0.15929E-20         0.71496E-21         0.00000E+00
   -0.12660E-20        -0.40265E-21         0.00000E+00
   -0.11823E-20        -0.18296E-21         0.00000E+00
   -0.30648E-22         0.44796E-20         0.00000E+00
   -0.66144E-22         0.39806E-20         0.00000E+00
    0.56085E-22         0.26867E-20         0.00000E+00
   -0.57924E-21         0.37095E-20         0.00000E+00
   -0.12020E-20         0.39476E-20         0.00000E+00
   -0.13526E-20         0.85242E-21         0.00000E+00
   -0.17287E-20        -0.10910E-20         0.00000E+00
   -0.28886E-20        -0.89785E-21         0.00000E+00
   -0.31428E-20         0.66192E-21         0.00000E+00
   -0.26191E-20        -0.22108E-20         0.00000E+00
   -0.27842E-20        -0.33190E-20         0.00000E+00
   -0.27173E-20        -0.62021E-20         0.00000E+00
   -0.35877E-20        -0.26656E-20         0.00000E+00
   -0.39522E-20        -0.26398E-20         0.00000E+00
   -0.22753E-20        -0.46269E-21         0.00000E+00
   -0.12572E-20         0.18694E-21         0.00000E+00
   -0.15502E-20         0.41156E-21         0.00000E+00
   -0.16245E-20         0.29285E-22         0.00000E+00
   -0.17180E-20        -0.52878E-21         0.00000E+00
   -0.15801E-20         0.12387E-21         0.00000E+00
   -0.11038E-20         0.73299E-21         0.00000E+00
   -0.64828E-21         0.24860E-21         0.00000E+00
   -0.57984E-21        -0.33166E-21         0.00000E+00
   -0.75633E-21        -0.16120E-21         0.00000E+00
    0.28868E-21         0.42216E-20         0.00000E+00
    0.61615E-21         0.39467E-20         0.00000E+00
   -0.24220E-21         0.34568E-20         0.00000E+00
   -0.12776E-20         0.46101E-20         0.00000E+00
   -0.57734E-21         0.29696E-20         0.00000E+00
   -0.29578E-21         0.16995E-20         0.00000E+00
   -0.14017E-20        -0.45597E-21         0.00000E+00
   -0.19187E-20         0.14407E-21         0.00000E+00
   -0.19772E-20        -0.67397E-22         0.00000E+00
   -0.13385E-20        -0.26437E-20         0.00000E+00
   -0.22175E-21        -0.38377E-20         0.00000E+00
   -0.81355E-21        -0.51586E-20         0.00000E+00
   -0.15218E-20        -0.21305E-20         0.00000E+00
   -0.16505E-20        -0.26818E-20         0.00000E+00
   -0.18587E-20        -0.18895E-20         0.00000E+00
   -0.11055E-20        -0.15761E-21         0.00000E+00
   -0.11294E-21         0.56537E-22         0.00000E+00
    0.15722E-21         0.18843E-21         0.00000E+00
   -0.35770E-21        -0.79443E-22         0.00000E+00
   -0.89558E-21         0.74466E-22         0.00000E+00
   -0.60604E-21         0.16624E-22         0.00000E+00
   -0.17733E-21         0.80684E-22         0.00000E+00
   -0.30697E-21        -0.10254E-21         0.00000E+00
   -0.46430E-21        -0.56499E-22         0.00000E+00
    0.24775E-22         0.39081E-20         0.00000E+00
   -0.31523E-24         0.39578E-20         0.00000E+00
   -0.11381E-21         0.44176E-20         0.00000E+00
    0.62188E-21         0.39490E-20         0.00000E+00
    0.11882E-20         0.23641E-20         0.00000E+00
    0.16421E-20         0.15694E-20         0.00000E+00
    0.13121E-20         0.11101E-20         0.00000E+00
    0.14243E-21         0.26464E-21         0.00000E+00
    0.29781E-21        -0.28487E-21         0.00000E+00
    0.12398E-20        -0.40068E-20         0.00000E+00
    0.19282E-20        -0.42797E-20         0.00000E+00
    0.13558E-20        -0.35523E-20         0.00000E+00
   -0.49262E-22        -0.16234E-20         0.00000E+00
   -0.12742E-20        -0.18352E-20         0.00000E+00
   -0.13229E-20        -0.24790E-20         0.00000E+00
   -0.66578E-21        -0.97843E-21         0.00000E+00
   -0.25763E-21        -0.52338E-21         0.00000E+00
   -0.32200E-21         0.56256E-21         0.00000E+00
   -0.92967E-21         0.66902E-21         0.00000E+00
   -0.11490E-20         0.83204E-22         0.00000E+00
   -0.58862E-21        -0.84202E-21         0.00000E+00
   -0.20832E-21         0.13031E-21         0.00000E+00
   -0.36165E-21         0.13081E-21         0.00000E+00
   -0.56562E-21         0.71464E-22         0.00000E+00
   -0.52695E-21         0.44103E-20         0.00000E+00
   -0.50353E-21         0.34572E-20         0.00000E+00
    0.62097E-21         0.39071E-20         0.00000E+00
    0.15393E-20         0.28054E-20         0.00000E+00
    0.21999E-20         0.22809E-20         0.00000E+00
    0.20886E-20         0.13101E-20         0.00000E+00
    0.21881E-20         0.16000E-20         0.00000E+00
    0.13990E-20         0.17334E-20         0.00000E+00
   -0.10770E-21        -0.40226E-21         0.00000E+00
   -0.90759E-21        -0.40315E-20         0.00000E+00
   -0.21647E-20        -0.36864E-20         0.00000E+00
   -0.25574E-20        -0.31805E-20         0.00000E+00
   -0.16484E-20        -0.14992E-20         0.00000E+00
   -0.91402E-21        -0.14689E-20         0.00000E+00
   -0.13055E-20        -0.24051E-20         0.00000E+00
   -0.18456E-20        -0.11694E-20         0.00000E+00
   -0.20656E-20        -0.52054E-21         0.00000E+00
   -0.18183E-20         0.37676E-21         0.00000E+00
   -0.89796E-21         0.54215E-21         0.00000E+00
   -0.26904E-21        -0.19953E-21         0.00000E+00
   -0.64526E-21        -0.74344E-21         0.00000E+00
   -0.95660E-21        -0.37237E-22         0.00000E+00
   -0.78697E-21         0.28206E-21         0.00000E+00
   -0.75304E-21         0.90255E-22         0.00000E+00
    0.52897E-22         0.48843E-20         0.00000E+00
    0.19030E-22         0.29936E-20         0.00000E+00
    0.10349E-20         0.22303E-20         0.00000E+00
    0.20326E-20         0.25662E-20         0.00000E+00
    0.17884E-20         0.21036E-20         0.00000E+00
    0.15025E-20         0.18846E-20         0.00000E+00
    0.10466E-20         0.13820E-20         0.00000E+00
    0.13534E-20         0.24336E-20         0.00000E+00
    0.12571E-20         0.50052E-21         0.00000E+00
   -0.45503E-22        -0.28318E-20         0.00000E+00
   -0.14472E-20        -0.22274E-20         0.00000E+00
   -0.28197E-20        -0.28742E-20         0.00000E+00
   -0.27065E-20        -0.28278E-20         0.00000E+00
   -0.17638E-20        -0.18174E-20         0.00000E+00
   -0.16079E-20        -0.18212E-20         0.00000E+00
   -0.14695E-20        -0.13516E-20         0.00000E+00
   -0.11913E-20        -0.39639E-21         0.00000E+00
   -0.10981E-20        -0.87955E-22         0.00000E+00
   -0.93078E-21        -0.80782E-22         0.00000E+00
   -0.76355E-21        -0.37274E-21         0.00000E+00
   -0.71462E-21        -0.24294E-21         0.00000E+00
   -0.90581E-21        -0.35210E-22         0.00000E+00
   -0.92287E-21         0.12746E-21         0.00000E+00
   -0.72337E-21         0.11424E-22         0.00000E+00
    0.79827E-21         0.40332E-20         0.00000E+00
    0.16996E-20         0.29774E-20         0.00000E+00
    0.17387E-20         0.11915E-20         0.00000E+00
    0.15884E-20         0.27577E-20         0.00000E+00
    0.13910E-20         0.23536E-20         0.00000E+00
    0.11833E-20         0.21281E-20         0.00000E+00
    0.42869E-21         0.23490E-20         0.00000E+00
    0.15893E-21         0.14296E-20         0.00000E+00
    0.13244E-20         0.43534E-21         0.00000E+00
    0.17460E-20        -0.18856E-20         0.00000E+00
    0.16695E-20        -0.16953E-20         0.00000E+00
    0.19010E-20        -0.22652E-20         0.00000E+00
    0.10176E-20        -0.26667E-20         0.00000E+00
    0.82019E-23        -0.19118E-20         0.00000E+00
   -0.12077E-21        -0.17537E-20         0.00000E+00
   -0.55707E-21        -0.11211E-20         0.00000E+00
   -0.82025E-21        -0.64181E-21         0.00000E+00
   -0.44418E-21        -0.31184E-21         0.00000E+00
   -0.54895E-21         0.80571E-22         0.00000E+00
   -0.81207E-21        -0.43820E-21         0.00000E+00
   -0.56951E-21        -0.46897E-21         0.00000E+00
   -0.44958E-21         0.26209E-21         0.00000E+00
   -0.49138E-21        -0.11098E-21         0.00000E+00
   -0.35276E-21        -0.88250E-22         0.00000E+00
    0.35102E-21         0.28839E-20         0.00000E+00
    0.10335E-20         0.25429E-20         0.00000E+00
    0.79724E-21         0.18232E-20         0.00000E+00
    0.56754E-21         0.25061E-20         0.00000E+00
    0.10349E-20         0.23353E-20         0.00000E+00
    0.12314E-20         0.21577E-20         0.00000E+00
    0.17626E-20         0.25428E-20         0.00000E+00
    0.17368E-20         0.15314E-20         0.00000E+00
    0.11560E-20        -0.25104E-21         0.00000E+00
    0.65902E-21        -0.11240E-20         0.00000E+00
    0.76814E-21        -0.24896E-20         0.00000E+00
    0.15301E-20        -0.24644E-20         0.00000E+00
    0.11258E-20        -0.11799E-20         0.00000E+00
    0.35509E-21        -0.16185E-20         0.00000E+00
   -0.37549E-21        -0.11875E-20         0.00000E+00
   -0.11082E-20        -0.51832E-21         0.00000E+00
   -0.14353E-20        -0.65433E-21         0.00000E+00
   -0.14775E-20        -0.63319E-21         0.00000E+00
   -0.10012E-20         0.30357E-22         0.00000E+00
   -0.55271E-21        -0.57333E-21         0.00000E+00
   -0.55010E-21        -0.57900E-21         0.00000E+00
   -0.35465E-21         0.56732E-22         0.00000E+00
   -0.67151E-22        -0.15132E-21         0.00000E+00
   -0.19926E-21        -0.54424E-22         0.00000E+00
   -0.86956E-22         0.26198E-20         0.00000E+00
   -0.33203E-21         0.23695E-20         0.00000E+00
    0.55943E-22         0.18449E-20         0.00000E+00
    0.66415E-21         0.21059E-20         0.00000E+00
    0.72488E-21         0.22074E-20         0.00000E+00
    0.85683E-21         0.19572E-20         0.00000E+00
    0.15210E-20         0.15479E-20         0.00000E+00
    0.25906E-20         0.14825E-20         0.00000E+00
    0.27189E-20         0.25027E-21         0.00000E+00
    0.19958E-20        -0.40508E-21         0.00000E+00
    0.84838E-21        -0.21702E-20         0.00000E+00
   -0.52620E-21        -0.21711E-20         0.00000E+00
   -0.53152E-21        -0.10636E-20         0.00000E+00
   -0.59888E-21        -0.89665E-21         0.00000E+00
   -0.15753E-20        -0.20233E-21         0.00000E+00
   -0.18473E-20        -0.49870E-21         0.00000E+00
   -0.15849E-20        -0.60932E-21         0.00000E+00
   -0.14685E-20        -0.75240E-21         0.00000E+00
   -0.90605E-21        -0.88917E-21         0.00000E+00
   -0.47323E-21        -0.53510E-21         0.00000E+00
   -0.67895E-21        -0.41411E-21         0.00000E+00
   -0.59045E-21        -0.39211E-21         0.00000E+00
   -0.46732E-21        -0.11310E-21         0.00000E+00
   -0.37998E-21        -0.47877E-22         0.00000E+00
    0.11117E-21         0.25956E-20         0.00000E+00
    0.76122E-21         0.19887E-20         0.00000E+00
    0.11024E-20         0.14965E-20         0.00000E+00
    0.79577E-21         0.21527E-20         0.00000E+00
    0.74529E-21         0.21503E-20         0.00000E+00
    0.65757E-21         0.19700E-20         0.00000E+00
   -0.41704E-22         0.15702E-20         0.00000E+00
   -0.66634E-21         0.10152E-20         0.00000E+00
   -0.15464E-21         0.77459E-22         0.00000E+00
    0.86050E-21        -0.52422E-21         0.00000E+00
    0.64358E-21        -0.68680E-21         0.00000E+00
   -0.41370E-21        -0.12226E-20         0.00000E+00
   -0.18215E-20        -0.59889E-21         0.00000E+00
   -0.26921E-20        -0.42337E-21         0.00000E+00
   -0.22332E-20        -0.15810E-21         0.00000E+00
   -0.14912E-20        -0.10130E-20         0.00000E+00
   -0.42280E-21        -0.14259E-20         0.00000E+00
    0.34761E-21        -0.82266E-21         0.00000E+00
   -0.58635E-22        -0.97507E-21         0.00000E+00
   -0.59467E-21        -0.34598E-21         0.00000E+00
   -0.52524E-21        -0.46695E-21         0.00000E+00
   -0.46000E-21        -0.49302E-21         0.00000E+00
   -0.41181E-21        -0.18351E-21         0.00000E+00
   -0.37790E-21        -0.98718E-22         0.00000E+00
    0.10236E-20         0.14609E-20         0.00000E+00
    0.17573E-20         0.17397E-20         0.00000E+00
    0.10732E-20         0.20885E-20         0.00000E+00
    0.68660E-21         0.22539E-20         0.00000E+00
    0.76606E-21         0.20201E-20         0.00000E+00
    0.11766E-20         0.17774E-20         0.00000E+00
    0.87150E-21         0.27672E-20         0.00000E+00
   -0.40448E-21         0.17189E-20         0.00000E+00
   -0.82650E-21        -0.71591E-21         0.00000E+00
   -0.70826E-21        -0.86424E-21         0.00000E+00
   -0.17332E-21        -0.66480E-21         0.00000E+00
    0.10941E-21        -0.47011E-21         0.00000E+00
   -0.53092E-21         0.69670E-21         0.00000E+00
   -0.12337E-20        -0.14554E-21         0.00000E+00
   -0.11096E-20        -0.10189E-20         0.00000E+00
   -0.11948E-21        -0.18844E-20         0.00000E+00
    0.98916E-22        -0.18412E-20         0.00000E+00
   -0.27269E-21        -0.80613E-21         0.00000E+00
   -0.42023E-21        -0.43782E-21         0.00000E+00
   -0.27465E-21        -0.49278E-21         0.00000E+00
   -0.22661E-21        -0.43762E-21         0.00000E+00
   -0.36657E-21        -0.44762E-21         0.00000E+00
   -0.38887E-21        -0.25480E-21         0.00000E+00
   -0.42469E-21        -0.25529E-22         0.00000E+00
    0.25433E-21         0.18295E-21         0.00000E+00
    0.28922E-21         0.22490E-20         0.00000E+00
    0.25865E-21         0.22939E-20         0.00000E+00
    0.49274E-21         0.22010E-20         0.00000E+00
    0.45367E-21         0.20326E-20         0.00000E+00
    0.60695E-21         0.12011E-20         0.00000E+00
    0.20150E-20         0.22405E-20         0.00000E+00
    0.38855E-20         0.16510E-20         0.00000E+00
    0.31572E-20         0.50234E-21         0.00000E+00
    0.12180E-20        -0.26154E-21         0.00000E+00
    0.88176E-21        -0.14662E-20         0.00000E+00
    0.99185E-21        -0.61563E-22         0.00000E+00
    0.91490E-21         0.10054E-20         0.00000E+00
    0.51832E-21         0.64508E-21         0.00000E+00
   -0.32084E-21        -0.10944E-20         0.00000E+00
   -0.86238E-21        -0.22574E-20         0.00000E+00
   -0.77474E-21        -0.17742E-20         0.00000E+00
   -0.60280E-21        -0.67348E-21         0.00000E+00
   -0.37785E-21        -0.64787E-21         0.00000E+00
   -0.28930E-21        -0.51686E-21         0.00000E+00
   -0.40816E-21        -0.34273E-21         0.00000E+00
   -0.49858E-21        -0.31213E-21         0.00000E+00
   -0.58857E-21        -0.27801E-21         0.00000E+00
   -0.51150E-21        -0.43578E-22         0.00000E+00
   -0.66366E-21         0.59228E-21         0.00000E+00
   -0.77141E-21         0.19125E-20         0.00000E+00
    0.22631E-22         0.18669E-20         0.00000E+00
    0.31798E-21         0.20985E-20         0.00000E+00
    0.13550E-21         0.23566E-20         0.00000E+00
   -0.51807E-21         0.13774E-20         0.00000E+00
   -0.55336E-21         0.69151E-21         0.00000E+00
    0.71760E-21         0.58462E-22         0.00000E+00
    0.14503E-20         0.20905E-20         0.00000E+00
    0.12776E-20         0.26225E-21         0.00000E+00
    0.61810E-21        -0.99427E-21         0.00000E+00
   -0.16730E-21         0.14182E-21         0.00000E+00
    0.46530E-21         0.24642E-21         0.00000E+00
    0.94563E-21         0.13203E-20         0.00000E+00
   -0.11813E-21         0.13321E-21         0.00000E+00
   -0.67538E-21        -0.23863E-20         0.00000E+00
   -0.46971E-21        -0.19386E-20         0.00000E+00
   -0.25699E-21        -0.89370E-21         0.00000E+00
   -0.25477E-21        -0.65482E-21         0.00000E+00
   -0.54469E-21        -0.30854E-21         0.00000E+00
   -0.54304E-21        -0.43383E-21         0.00000E+00
   -0.44344E-21        -0.23021E-21         0.00000E+00
   -0.55585E-21        -0.15752E-21         0.00000E+00
   -0.71592E-21        -0.81080E-22         0.00000E+00
   -0.11476E-21         0.13707E-20         0.00000E+00
   -0.16027E-21         0.12873E-20         0.00000E+00
    0.77659E-22         0.14601E-20         0.00000E+00
    0.32216E-21         0.19655E-20         0.00000E+00
    0.65307E-21         0.23412E-20         0.00000E+00
    0.71065E-21         0.19888E-20         0.00000E+00
    0.30018E-21         0.52589E-21         0.00000E+00
   -0.57823E-21        -0.16847E-21         0.00000E+00
   -0.30099E-21         0.13075E-20         0.00000E+00
    0.26846E-21         0.64853E-21         0.00000E+00
   -0.51666E-22        -0.40097E-21         0.00000E+00
    0.56859E-21        -0.28633E-21         0.00000E+00
    0.77899E-21        -0.16841E-21         0.00000E+00
    0.93988E-21         0.10940E-20         0.00000E+00
    0.19335E-20         0.42971E-21         0.00000E+00
    0.15834E-20        -0.17754E-20         0.00000E+00
    0.26940E-21        -0.14412E-20         0.00000E+00
   -0.35464E-21        -0.97985E-21         0.00000E+00
   -0.48787E-21        -0.43766E-21         0.00000E+00
   -0.67831E-21        -0.45352E-22         0.00000E+00
   -0.88595E-21        -0.49102E-21         0.00000E+00
   -0.90710E-21        -0.25147E-21         0.00000E+00
   -0.89038E-21        -0.40555E-22         0.00000E+00
   -0.88886E-21        -0.39514E-22         0.00000E+00
   -0.78872E-23         0.14933E-20         0.00000E+00
    0.34544E-22         0.11678E-20         0.00000E+00
    0.23267E-21         0.11436E-20         0.00000E+00
    0.57871E-21         0.16914E-20         0.00000E+00
    0.10263E-20         0.18368E-20         0.00000E+00
    0.17317E-20         0.17303E-20         0.00000E+00
    0.21355E-20         0.79111E-21         0.00000E+00
    0.21482E-20         0.43203E-21         0.00000E+00
    0.20744E-20         0.50359E-21         0.00000E+00
    0.15443E-20         0.14130E-20         0.00000E+00
    0.96639E-21        -0.26742E-21         0.00000E+00
    0.57820E-21        -0.65195E-21         0.00000E+00
    0.56730E-21        -0.23000E-23         0.00000E+00
    0.11791E-20         0.15521E-21         0.00000E+00
    0.13404E-20         0.21346E-21         0.00000E+00
    0.74203E-21        -0.61070E-21         0.00000E+00
    0.19135E-21        -0.74118E-21         0.00000E+00
   -0.40260E-21        -0.46183E-21         0.00000E+00
   -0.76573E-21        -0.45932E-21         0.00000E+00
   -0.63959E-21         0.40604E-22         0.00000E+00
   -0.74760E-21        -0.26133E-21         0.00000E+00
   -0.94784E-21        -0.25978E-21         0.00000E+00
   -0.93634E-21        -0.60468E-22         0.00000E+00
   -0.92097E-21        -0.36496E-22         0.00000E+00
    0.16197E-21         0.13393E-20         0.00000E+00
    0.37420E-21         0.10672E-20         0.00000E+00
    0.45424E-21         0.96603E-21         0.00000E+00
    0.66542E-21         0.13118E-20         0.00000E+00
    0.11038E-20         0.13304E-20         0.00000E+00
    0.15385E-20         0.10965E-20         0.00000E+00
    0.18356E-20         0.72404E-21         0.00000E+00
    0.21985E-20         0.12352E-21         0.00000E+00
    0.17189E-20         0.13655E-20         0.00000E+00
    0.15134E-20         0.12866E-20         0.00000E+00
    0.13898E-20         0.56046E-21         0.00000E+00
   -0.89787E-24         0.29903E-21         0.00000E+00
   -0.48847E-21        -0.45481E-21         0.00000E+00
    0.17409E-21        -0.66659E-21         0.00000E+00
    0.47070E-21         0.57732E-21         0.00000E+00
    0.34755E-21        -0.25304E-21         0.00000E+00
   -0.31183E-22        -0.16943E-21         0.00000E+00
   -0.68545E-21         0.21463E-21         0.00000E+00
   -0.95758E-21        -0.50052E-21         0.00000E+00
   -0.74743E-21        -0.25449E-21         0.00000E+00
   -0.60242E-21        -0.32199E-23         0.00000E+00
   -0.77742E-21        -0.14265E-21         0.00000E+00
   -0.88613E-21        -0.80395E-22         0.00000E+00
   -0.84236E-21        -0.75709E-22         0.00000E+00
    0.26799E-21         0.90930E-21         0.00000E+00
    0.58126E-21         0.97165E-21         0.00000E+00
    0.60158E-21         0.96120E-21         0.00000E+00
    0.81631E-21         0.89073E-21         0.00000E+00
    0.12595E-20         0.86993E-21         0.00000E+00
    0.14801E-20         0.90176E-21         0.00000E+00
    0.15703E-20         0.53144E-21         0.00000E+00
    0.91543E-21         0.60813E-21         0.00000E+00
    0.11005E-20         0.11754E-20         0.00000E+00
    0.18911E-20         0.89164E-21         0.00000E+00
    0.16080E-20         0.13622E-20         0.00000E+00
    0.11571E-20         0.13388E-20         0.00000E+00
    0.27442E-21        -0.12433E-21         0.00000E+00
   -0.34384E-21        -0.10414E-20         0.00000E+00
    0.18954E-21         0.12211E-21         0.00000E+00
    0.36647E-21         0.14837E-21         0.00000E+00
   -0.19281E-21         0.36718E-21         0.00000E+00
   -0.14762E-21         0.28709E-21         0.00000E+00
   -0.11085E-21        -0.33762E-21         0.00000E+00
   -0.62967E-21        -0.10873E-21         0.00000E+00
   -0.82636E-21        -0.97293E-22         0.00000E+00
   -0.77068E-21         0.70745E-22         0.00000E+00
   -0.80825E-21        -0.14751E-21         0.00000E+00
   -0.76550E-21        -0.95124E-22         0.00000E+00
   -0.32711E-21         0.96842E-21         0.00000E+00
   -0.83275E-21         0.11049E-20         0.00000E+00
   -0.31268E-21         0.28756E-21         0.00000E+00
    0.55341E-21         0.48355E-21         0.00000E+00
    0.82591E-21         0.56137E-21         0.00000E+00
    0.11538E-20         0.66190E-21         0.00000E+00
    0.12642E-20         0.57062E-21         0.00000E+00
    0.85330E-21         0.16348E-20         0.00000E+00
    0.40331E-21         0.41373E-21         0.00000E+00
   -0.10055E-21         0.13666E-20         0.00000E+00
    0.29164E-21         0.77828E-21         0.00000E+00
    0.88251E-21         0.17827E-20         0.00000E+00
    0.45409E-21         0.74279E-21         0.00000E+00
   -0.49866E-21        -0.33748E-21         0.00000E+00
   -0.10124E-20        -0.60139E-21         0.00000E+00
   -0.68518E-21         0.36769E-21         0.00000E+00
   -0.16911E-21         0.19108E-21         0.00000E+00
    0.94103E-22         0.15479E-21         0.00000E+00
   -0.43409E-21         0.28611E-21         0.00000E+00
   -0.81539E-21         0.16765E-21         0.00000E+00
   -0.78440E-21        -0.20798E-21         0.00000E+00
   -0.64567E-21        -0.12970E-22         0.00000E+00
   -0.49637E-21        -0.17552E-21         0.00000E+00
   -0.54284E-21        -0.63382E-22         0.00000E+00
   -0.54872E-21         0.18443E-20         0.00000E+00
   -0.93439E-21         0.11204E-20         0.00000E+00
   -0.45833E-21        -0.72404E-21         0.00000E+00
    0.87155E-22         0.83568E-22         0.00000E+00
    0.52123E-21         0.25478E-21         0.00000E+00
    0.65174E-21         0.51008E-21         0.00000E+00
    0.27940E-21         0.98434E-21         0.00000E+00
    0.52319E-21         0.13882E-20         0.00000E+00
    0.34468E-21         0.12888E-20         0.00000E+00
   -0.71816E-21         0.20582E-20         0.00000E+00
   -0.96605E-21        -0.57617E-22         0.00000E+00
   -0.49884E-21         0.15606E-20         0.00000E+00
   -0.15643E-21         0.10510E-20         0.00000E+00
   -0.33415E-21         0.48480E-21         0.00000E+00
   -0.59438E-21        -0.64968E-21         0.00000E+00
   -0.42807E-21        -0.77581E-22         0.00000E+00
   -0.42508E-21         0.11729E-21         0.00000E+00
   -0.72593E-21         0.26621E-21         0.00000E+00
   -0.81940E-21         0.79636E-21         0.00000E+00
   -0.81079E-21         0.30101E-22         0.00000E+00
   -0.65678E-21        -0.25543E-21         0.00000E+00
   -0.45648E-21        -0.30455E-21         0.00000E+00
   -0.32796E-21        -0.16177E-21         0.00000E+00
   -0.34122E-21        -0.17401E-22         0.00000E+00
    0.24349E-21         0.21495E-20         0.00000E+00
    0.67838E-21         0.76591E-21         0.00000E+00
   -0.17698E-21         0.97290E-23         0.00000E+00
   -0.11841E-20        -0.18858E-21         0.00000E+00
   -0.53458E-21        -0.55666E-21         0.00000E+00
    0.25119E-21         0.40523E-21         0.00000E+00
   -0.32088E-22         0.17448E-20         0.00000E+00
   -0.73512E-21         0.10870E-20         0.00000E+00
   -0.69628E-21         0.17297E-20         0.00000E+00
   -0.33112E-23         0.19871E-20         0.00000E+00
   -0.15206E-21         0.41005E-21         0.00000E+00
   -0.66131E-21         0.11349E-20         0.00000E+00
   -0.25664E-21         0.72954E-21         0.00000E+00
   -0.56045E-22         0.78338E-21         0.00000E+00
   -0.28951E-21        -0.45456E-21         0.00000E+00
   -0.35447E-21        -0.37405E-21         0.00000E+00
   -0.52591E-21         0.58221E-21         0.00000E+00
   -0.76545E-21         0.34167E-21         0.00000E+00
   -0.49494E-21         0.54386E-21         0.00000E+00
   -0.20599E-21        -0.14963E-22         0.00000E+00
   -0.29511E-21        -0.27526E-21         0.00000E+00
   -0.39444E-21        -0.38569E-21         0.00000E+00
   -0.42003E-21        -0.18355E-21         0.00000E+00
   -0.39045E-21        -0.11936E-22         0.00000E+00
    0.23800E-21         0.16680E-20         0.00000E+00
    0.50188E-21         0.54863E-21         0.00000E+00
    0.40594E-21         0.11783E-20         0.00000E+00
   -0.22200E-21         0.27787E-21         0.00000E+00
   -0.12455E-20        -0.64916E-21         0.00000E+00
   -0.16611E-20         0.12765E-21         0.00000E+00
   -0.13198E-20         0.19643E-20         0.00000E+00
   -0.10362E-20         0.12869E-20         0.00000E+00
   -0.69257E-21         0.11473E-20         0.00000E+00
   -0.25721E-21         0.14412E-20         0.00000E+00
   -0.31984E-21         0.11673E-20         0.00000E+00
   -0.38738E-21         0.95441E-21         0.00000E+00
   -0.47875E-21         0.59675E-21         0.00000E+00
   -0.48987E-21         0.72670E-21         0.00000E+00
   -0.39979E-21        -0.25449E-21         0.00000E+00
   -0.75818E-21        -0.15078E-21         0.00000E+00
   -0.68870E-21         0.46090E-21         0.00000E+00
   -0.30063E-21         0.31444E-21         0.00000E+00
   -0.13324E-21         0.13319E-21         0.00000E+00
   -0.12058E-22        -0.14434E-22         0.00000E+00
   -0.27813E-22        -0.17092E-21         0.00000E+00
   -0.17931E-21        -0.23921E-21         0.00000E+00
   -0.31447E-21        -0.16929E-21         0.00000E+00
   -0.32296E-21        -0.47287E-22         0.00000E+00
   -0.56458E-22         0.14865E-20         0.00000E+00
   -0.20996E-21         0.61979E-21         0.00000E+00
   -0.38929E-21         0.13824E-20         0.00000E+00
   -0.47937E-21         0.79177E-21         0.00000E+00
   -0.99368E-21         0.37470E-21         0.00000E+00
   -0.16359E-20         0.16169E-21         0.00000E+00
   -0.88282E-21         0.83580E-21         0.00000E+00
   -0.24596E-21         0.14950E-20         0.00000E+00
   -0.48158E-21         0.83125E-21         0.00000E+00
   -0.27030E-21         0.11106E-20         0.00000E+00
   -0.26437E-21         0.15546E-20         0.00000E+00
   -0.53041E-21         0.90070E-21         0.00000E+00
   -0.37783E-21         0.58927E-21         0.00000E+00
   -0.73478E-22         0.44094E-21         0.00000E+00
   -0.31402E-21         0.18173E-21         0.00000E+00
   -0.57789E-21         0.35254E-22         0.00000E+00
   -0.49373E-21         0.12124E-21         0.00000E+00
   -0.40576E-21         0.17806E-21         0.00000E+00
   -0.35940E-21         0.55827E-22         0.00000E+00
   -0.28717E-21        -0.13048E-21         0.00000E+00
   -0.11479E-21        -0.21149E-21         0.00000E+00
   -0.71281E-22        -0.90640E-22         0.00000E+00
   -0.12808E-21        -0.12590E-21         0.00000E+00
   -0.15536E-21        -0.54906E-22         0.00000E+00
    0.36634E-22         0.15063E-20         0.00000E+00
   -0.36917E-21         0.11593E-20         0.00000E+00
   -0.55601E-21         0.12091E-20         0.00000E+00
   -0.23055E-21         0.72970E-21         0.00000E+00
   -0.17908E-21         0.89962E-21         0.00000E+00
   -0.33152E-21         0.43144E-21         0.00000E+00
   -0.30533E-21        -0.21323E-21         0.00000E+00
   -0.44398E-22         0.16462E-20         0.00000E+00
   -0.81645E-22         0.95287E-21         0.00000E+00
   -0.31240E-21         0.10085E-20         0.00000E+00
   -0.33198E-21         0.16704E-20         0.00000E+00
   -0.25373E-21         0.97268E-21         0.00000E+00
   -0.21842E-21         0.32940E-21         0.00000E+00
   -0.34790E-21         0.52593E-21         0.00000E+00
   -0.48388E-21         0.47326E-21         0.00000E+00
   -0.37685E-21        -0.99444E-22         0.00000E+00
   -0.21206E-21         0.69996E-23         0.00000E+00
   -0.16604E-21         0.15831E-21         0.00000E+00
   -0.85723E-22        -0.51106E-22         0.00000E+00
   -0.11275E-21        -0.68749E-22         0.00000E+00
   -0.31409E-21        -0.24426E-21         0.00000E+00
   -0.24814E-21        -0.16735E-21         0.00000E+00
   -0.11098E-21        -0.12954E-21         0.00000E+00
   -0.11839E-21        -0.16583E-22         0.00000E+00
    0.22976E-21         0.12399E-20         0.00000E+00
    0.38307E-21         0.16782E-20         0.00000E+00
    0.24499E-21         0.10152E-20         0.00000E+00
   -0.28579E-22         0.87177E-21         0.00000E+00
   -0.16657E-21         0.84407E-21         0.00000E+00
   -0.21082E-21         0.68369E-21         0.00000E+00
   -0.89345E-21         0.19096E-21         0.00000E+00
   -0.10230E-20         0.11106E-20         0.00000E+00
   -0.63947E-21         0.11422E-20         0.00000E+00
   -0.85105E-21         0.12615E-20         0.00000E+00
   -0.66338E-21         0.12493E-20         0.00000E+00
   -0.24339E-21         0.89556E-21         0.00000E+00
   -0.36201E-21         0.48983E-21         0.00000E+00
   -0.57563E-21         0.70859E-21         0.00000E+00
   -0.53466E-21         0.38562E-21         0.00000E+00
   -0.56173E-21        -0.91756E-22         0.00000E+00
   -0.47612E-21        -0.25109E-21         0.00000E+00
   -0.18016E-21         0.74427E-22         0.00000E+00
   -0.96677E-22        -0.13103E-21         0.00000E+00
   -0.19122E-22        -0.39360E-22         0.00000E+00
    0.75147E-22        -0.16657E-21         0.00000E+00
   -0.45012E-22        -0.19083E-21         0.00000E+00
   -0.16590E-21        -0.12232E-21         0.00000E+00
   -0.16857E-21        -0.13739E-22         0.00000E+00
    0.24237E-21         0.76775E-21         0.00000E+00
    0.60732E-21         0.16320E-20         0.00000E+00
    0.28424E-21         0.15225E-20         0.00000E+00
   -0.26698E-21         0.11893E-20         0.00000E+00
   -0.58756E-21         0.98513E-21         0.00000E+00
   -0.55762E-21         0.55694E-21         0.00000E+00
   -0.34630E-21         0.78901E-21         0.00000E+00
   -0.47561E-21         0.77142E-21         0.00000E+00
   -0.46652E-21         0.10888E-20         0.00000E+00
   -0.17572E-21         0.12357E-20         0.00000E+00
    0.14131E-21         0.77045E-21         0.00000E+00
    0.28551E-21         0.81025E-21         0.00000E+00
    0.17552E-21         0.80375E-21         0.00000E+00
   -0.76079E-22         0.85988E-21         0.00000E+00
   -0.16053E-21         0.27782E-21         0.00000E+00
   -0.68315E-22        -0.49093E-22         0.00000E+00
   -0.81799E-22        -0.36588E-21         0.00000E+00
    0.13748E-22        -0.20228E-21         0.00000E+00
    0.10673E-21        -0.30785E-22         0.00000E+00
    0.60337E-22        -0.17076E-21         0.00000E+00
    0.97552E-22        -0.16665E-21         0.00000E+00
    0.74671E-22        -0.47714E-22         0.00000E+00
   -0.34902E-22        -0.34971E-22         0.00000E+00
   -0.99968E-22        -0.33352E-22         0.00000E+00
   -0.29105E-21         0.81643E-21         0.00000E+00
   -0.29564E-21         0.12230E-20         0.00000E+00
    0.13564E-21         0.18233E-20         0.00000E+00
    0.26438E-21         0.13109E-20         0.00000E+00
    0.49217E-21         0.95627E-21         0.00000E+00
    0.26479E-21         0.78324E-21         0.00000E+00
   -0.10454E-21         0.72072E-21         0.00000E+00
    0.14369E-21         0.72079E-21         0.00000E+00
    0.18135E-21         0.10927E-20         0.00000E+00
    0.82648E-22         0.10397E-20         0.00000E+00
    0.81460E-22         0.65058E-21         0.00000E+00
    0.10868E-21         0.75870E-21         0.00000E+00
    0.12299E-21         0.95099E-21         0.00000E+00
    0.12426E-21         0.96296E-21         0.00000E+00
    0.16302E-21         0.22041E-21         0.00000E+00
    0.32847E-21        -0.24935E-21         0.00000E+00
    0.39522E-21        -0.21888E-21         0.00000E+00
    0.30191E-21        -0.35153E-21         0.00000E+00
    0.32047E-21         0.69181E-23         0.00000E+00
    0.27728E-21        -0.11888E-21         0.00000E+00
    0.13647E-21        -0.11494E-21         0.00000E+00
    0.31010E-22         0.28921E-22         0.00000E+00
   -0.34308E-23         0.32408E-22         0.00000E+00
   -0.19164E-22        -0.19932E-22         0.00000E+00
   -0.33280E-21         0.14403E-20         0.00000E+00
   -0.57165E-21         0.84259E-21         0.00000E+00
   -0.16714E-21         0.13679E-20         0.00000E+00
    0.41370E-21         0.10567E-20         0.00000E+00
    0.40518E-21         0.99119E-21         0.00000E+00
    0.15361E-21         0.12273E-20         0.00000E+00
   -0.82426E-22         0.88206E-21         0.00000E+00
   -0.36150E-21         0.59029E-21         0.00000E+00
   -0.39773E-21         0.12218E-20         0.00000E+00
   -0.45705E-21         0.10686E-20         0.00000E+00
   -0.60989E-21         0.77564E-21         0.00000E+00
   -0.72884E-21         0.72537E-21         0.00000E+00
   -0.57099E-21         0.81218E-21         0.00000E+00
   -0.13527E-21         0.66479E-21         0.00000E+00
    0.35690E-21        -0.12349E-22         0.00000E+00
    0.42121E-21        -0.24635E-21         0.00000E+00
    0.19632E-21        -0.63740E-22         0.00000E+00
    0.13213E-21        -0.34917E-21         0.00000E+00
    0.14264E-21        -0.24511E-22         0.00000E+00
    0.13752E-21        -0.39145E-22         0.00000E+00
    0.65209E-22         0.18438E-22         0.00000E+00
    0.12979E-23         0.64920E-22         0.00000E+00
    0.62915E-23         0.25856E-22         0.00000E+00
    0.17238E-22        -0.85936E-23         0.00000E+00
    0.11347E-21         0.16596E-20         0.00000E+00
    0.15884E-21         0.81673E-21         0.00000E+00
    0.24100E-21         0.90709E-21         0.00000E+00
    0.31281E-21         0.86490E-21         0.00000E+00
    0.16951E-21         0.13348E-20         0.00000E+00
   -0.10727E-21         0.14120E-20         0.00000E+00
   -0.30803E-21         0.11342E-20         0.00000E+00
   -0.23842E-21         0.54767E-21         0.00000E+00
   -0.97537E-22         0.11597E-20         0.00000E+00
   -0.45675E-22         0.11381E-20         0.00000E+00
   -0.81844E-22         0.89515E-21         0.00000E+00
    0.10386E-21         0.53911E-21         0.00000E+00
    0.39880E-21         0.54565E-21         0.00000E+00
    0.55109E-21         0.34331E-21         0.00000E+00
    0.44897E-21        -0.80924E-22         0.00000E+00
    0.26340E-21        -0.56507E-22         0.00000E+00
    0.26285E-21        -0.28144E-22         0.00000E+00
    0.19910E-21        -0.25683E-21         0.00000E+00
    0.89853E-22        -0.18112E-22         0.00000E+00
    0.58342E-22        -0.89130E-23         0.00000E+00
    0.38302E-22         0.80558E-22         0.00000E+00
    0.51957E-22         0.53055E-22         0.00000E+00
    0.71676E-22         0.13009E-22         0.00000E+00
    0.62962E-22         0.20217E-23         0.00000E+00
    0.18883E-21         0.13573E-20         0.00000E+00
    0.40518E-21         0.85731E-21         0.00000E+00
    0.32441E-21         0.86512E-21         0.00000E+00
    0.10431E-21         0.10552E-20         0.00000E+00
    0.10214E-21         0.12901E-20         0.00000E+00
    0.18835E-21         0.16473E-20         0.00000E+00
    0.28009E-21         0.10078E-20         0.00000E+00
    0.34059E-21         0.54390E-21         0.00000E+00
    0.42481E-21         0.93840E-21         0.00000E+00
    0.62041E-21         0.11120E-20         0.00000E+00
    0.77748E-21         0.80038E-21         0.00000E+00
    0.76740E-21         0.45825E-21         0.00000E+00
    0.76512E-21         0.33384E-21         0.00000E+00
    0.71918E-21         0.44878E-21         0.00000E+00
    0.38355E-21         0.25135E-21         0.00000E+00
    0.19965E-21        -0.19302E-22         0.00000E+00
    0.20618E-21        -0.71330E-22         0.00000E+00
    0.11448E-21        -0.58200E-22         0.00000E+00
    0.53032E-22        -0.46038E-22         0.00000E+00
    0.70526E-22         0.33030E-22         0.00000E+00
    0.60561E-22         0.68620E-22         0.00000E+00
    0.63751E-22         0.48148E-22         0.00000E+00
    0.56130E-22         0.58177E-23         0.00000E+00
    0.47071E-22         0.26986E-22         0.00000E+00
    0.24424E-21         0.92424E-21         0.00000E+00
    0.42841E-21         0.88987E-21         0.00000E+00
    0.15832E-21         0.11834E-20         0.00000E+00
   -0.10586E-21         0.12211E-20         0.00000E+00
   -0.26757E-21         0.12880E-20         0.00000E+00
    0.73561E-23         0.12883E-20         0.00000E+00
    0.42596E-21         0.85651E-21         0.00000E+00
    0.39232E-21         0.66834E-21         0.00000E+00
    0.39246E-21         0.72960E-21         0.00000E+00
    0.67181E-21         0.84585E-21         0.00000E+00
    0.82101E-21         0.76025E-21         0.00000E+00
    0.58231E-21         0.74716E-21         0.00000E+00
    0.32144E-21         0.30807E-21         0.00000E+00
    0.33481E-21         0.50711E-21         0.00000E+00
    0.41215E-21         0.45129E-21         0.00000E+00
    0.29635E-21         0.80468E-22         0.00000E+00
    0.10304E-21         0.15679E-22         0.00000E+00
   -0.19182E-22         0.68705E-22         0.00000E+00
   -0.51219E-22        -0.79454E-22         0.00000E+00
   -0.12588E-22         0.10322E-22         0.00000E+00
    0.48594E-22         0.40111E-22         0.00000E+00
    0.63894E-22         0.58167E-22         0.00000E+00
    0.39764E-22         0.27550E-22         0.00000E+00
    0.16925E-22         0.37152E-22         0.00000E+00
    0.40211E-22         0.63979E-21         0.00000E+00
    0.12404E-21         0.90632E-21         0.00000E+00
    0.13984E-21         0.14213E-20         0.00000E+00
   -0.15597E-22         0.14029E-20         0.00000E+00
   -0.88968E-22         0.13413E-20         0.00000E+00
   -0.93224E-22         0.96429E-21         0.00000E+00
   -0.10446E-21         0.77313E-21         0.00000E+00
   -0.12288E-21         0.80379E-21         0.00000E+00
   -0.17072E-21         0.64185E-21         0.00000E+00
   -0.76285E-22         0.55981E-21         0.00000E+00
    0.39017E-22         0.78178E-21         0.00000E+00
    0.19634E-21         0.80702E-21         0.00000E+00
    0.26695E-21         0.43848E-21         0.00000E+00
    0.14303E-21         0.48726E-21         0.00000E+00
    0.85832E-22         0.45099E-21         0.00000E+00
    0.18714E-21         0.95268E-22         0.00000E+00
    0.27050E-21         0.11083E-21         0.00000E+00
    0.25608E-21         0.11019E-21         0.00000E+00
    0.20007E-21        -0.32891E-22         0.00000E+00
    0.10312E-21         0.22076E-22         0.00000E+00
    0.57591E-22         0.12704E-22         0.00000E+00
    0.54298E-22         0.73567E-22         0.00000E+00
    0.20749E-22         0.69828E-22         0.00000E+00
    0.11946E-22         0.26516E-22         0.00000E+00
   -0.27435E-21         0.87393E-21         0.00000E+00
   -0.57822E-21         0.89222E-21         0.00000E+00
   -0.42070E-21         0.12621E-20         0.00000E+00
   -0.82970E-22         0.13798E-20         0.00000E+00
    0.14704E-21         0.12077E-20         0.00000E+00
    0.19386E-21         0.10553E-20         0.00000E+00
   -0.18074E-22         0.90529E-21         0.00000E+00
   -0.17750E-21         0.84948E-21         0.00000E+00
   -0.18995E-21         0.65645E-21         0.00000E+00
   -0.18746E-21         0.44829E-21         0.00000E+00
   -0.30975E-22         0.62151E-21         0.00000E+00
    0.17098E-21         0.60801E-21         0.00000E+00
    0.18721E-21         0.55065E-21         0.00000E+00
    0.20412E-21         0.48210E-21         0.00000E+00
    0.30817E-21         0.40929E-21         0.00000E+00
    0.27985E-21         0.63983E-22         0.00000E+00
    0.28439E-21         0.54221E-22         0.00000E+00
    0.33986E-21         0.12575E-21         0.00000E+00
    0.27537E-21         0.72046E-22         0.00000E+00
    0.16542E-21         0.12403E-21         0.00000E+00
    0.63476E-22         0.58221E-22         0.00000E+00
    0.35154E-23         0.91303E-22         0.00000E+00
    0.23887E-22         0.65269E-22         0.00000E+00
    0.40618E-22         0.23146E-22         0.00000E+00
   -0.15916E-21         0.13074E-20         0.00000E+00
   -0.39126E-21         0.99468E-21         0.00000E+00
   -0.40277E-21         0.10136E-20         0.00000E+00
   -0.29053E-21         0.11783E-20         0.00000E+00
   -0.21435E-21         0.11030E-20         0.00000E+00
   -0.14812E-21         0.10469E-20         0.00000E+00
   -0.27234E-22         0.10047E-20         0.00000E+00
    0.89956E-22         0.79233E-21         0.00000E+00
    0.99253E-22         0.71675E-21         0.00000E+00
   -0.18828E-22         0.50359E-21         0.00000E+00
   -0.11452E-21         0.50541E-21         0.00000E+00
   -0.11163E-21         0.51926E-21         0.00000E+00
    0.37264E-22         0.47428E-21         0.00000E+00
    0.20987E-21         0.36896E-21         0.00000E+00
    0.25883E-21         0.36942E-21         0.00000E+00
    0.22558E-21         0.16543E-21         0.00000E+00
    0.14291E-21         0.30903E-22         0.00000E+00
    0.92721E-22         0.14379E-21         0.00000E+00
    0.66607E-22         0.14460E-21         0.00000E+00
    0.54162E-22         0.17387E-21         0.00000E+00
    0.34686E-22         0.12981E-21         0.00000E+00
    0.27510E-22         0.86850E-22         0.00000E+00
    0.34478E-22         0.42383E-22         0.00000E+00
    0.40777E-22         0.23003E-22         0.00000E+00
    0.18984E-21         0.12768E-20         0.00000E+00
    0.24924E-21         0.11981E-20         0.00000E+00
   -0.14062E-21         0.12116E-20         0.00000E+00
   -0.39628E-21         0.11237E-20         0.00000E+00
   -0.36083E-21         0.10460E-20         0.00000E+00
   -0.31337E-21         0.99030E-21         0.00000E+00
   -0.13935E-21         0.76642E-21         0.00000E+00
   -0.15969E-22         0.79001E-21         0.00000E+00
    0.40431E-24         0.69340E-21         0.00000E+00
   -0.45125E-22         0.69055E-21         0.00000E+00
   -0.12114E-21         0.49016E-21         0.00000E+00
   -0.72998E-22         0.48348E-21         0.00000E+00
   -0.47316E-22         0.33549E-21         0.00000E+00
   -0.34723E-22         0.32255E-21         0.00000E+00
   -0.71274E-23         0.33928E-21         0.00000E+00
    0.39294E-22         0.18241E-21         0.00000E+00
    0.11183E-22         0.12470E-21         0.00000E+00
   -0.66293E-22         0.17766E-21         0.00000E+00
   -0.57737E-22         0.12829E-21         0.00000E+00
   -0.20873E-22         0.16576E-21         0.00000E+00
    0.16155E-22         0.12037E-21         0.00000E+00
    0.40515E-22         0.79110E-22         0.00000E+00
    0.33085E-22         0.50584E-22         0.00000E+00
    0.28350E-22         0.13239E-22         0.00000E+00
    0.56110E-22         0.10308E-20         0.00000E+00
    0.66050E-22         0.13747E-20         0.00000E+00
   -0.29796E-22         0.15207E-20         0.00000E+00
   -0.18079E-21         0.12213E-20         0.00000E+00
   -0.19281E-21         0.92502E-21         0.00000E+00
   -0.24326E-22         0.89530E-21         0.00000E+00
   -0.36477E-22         0.69955E-21         0.00000E+00
   -0.14079E-22         0.71110E-21         0.00000E+00
    0.87197E-22         0.65465E-21         0.00000E+00
    0.12719E-21         0.73483E-21         0.00000E+00
    0.13125E-21         0.51784E-21         0.00000E+00
    0.10819E-21         0.43071E-21         0.00000E+00
    0.65381E-22         0.40538E-21         0.00000E+00
   -0.22614E-22         0.32806E-21         0.00000E+00
   -0.75665E-23         0.29113E-21         0.00000E+00
    0.76464E-23         0.16893E-21         0.00000E+00
   -0.22840E-22         0.19678E-21         0.00000E+00
   -0.27547E-22         0.18777E-21         0.00000E+00
   -0.34459E-22         0.11654E-21         0.00000E+00
   -0.37275E-22         0.14346E-21         0.00000E+00
   -0.13755E-22         0.82119E-22         0.00000E+00
    0.12808E-22         0.66434E-22         0.00000E+00
    0.38832E-22         0.44666E-22         0.00000E+00
    0.55753E-22         0.69716E-23         0.00000E+00
   -0.52759E-22         0.10275E-20         0.00000E+00
   -0.10910E-21         0.14244E-20         0.00000E+00
   -0.65925E-22         0.15236E-20         0.00000E+00
    0.25154E-23         0.13009E-20         0.00000E+00
   -0.19214E-22         0.87914E-21         0.00000E+00
   -0.66736E-22         0.82022E-21         0.00000E+00
   -0.68594E-22         0.78864E-21         0.00000E+00
   -0.47951E-22         0.57897E-21         0.00000E+00
   -0.13139E-22         0.65070E-21         0.00000E+00
    0.82673E-22         0.60298E-21         0.00000E+00
    0.16381E-21         0.56450E-21         0.00000E+00
    0.12042E-21         0.45050E-21         0.00000E+00
    0.92442E-22         0.45637E-21         0.00000E+00
    0.89475E-22         0.36803E-21         0.00000E+00
    0.31543E-22         0.29404E-21         0.00000E+00
   -0.37716E-22         0.22006E-21         0.00000E+00
   -0.30945E-22         0.16936E-21         0.00000E+00
    0.58082E-23         0.18314E-21         0.00000E+00
   -0.23131E-22         0.15702E-21         0.00000E+00
   -0.43920E-22         0.12659E-21         0.00000E+00
   -0.23247E-22         0.54800E-22         0.00000E+00
    0.11885E-23         0.42754E-22         0.00000E+00
    0.20379E-22         0.23131E-22         0.00000E+00
    0.30435E-22         0.15300E-23         0.00000E+00
   -0.53012E-22         0.11332E-20         0.00000E+00
   -0.81975E-22         0.14040E-20         0.00000E+00
   -0.72293E-22         0.14912E-20         0.00000E+00
   -0.57098E-22         0.12497E-20         0.00000E+00
    0.21600E-22         0.87342E-21         0.00000E+00
    0.79632E-22         0.81543E-21         0.00000E+00
    0.52321E-22         0.82260E-21         0.00000E+00
   -0.66911E-22         0.64361E-21         0.00000E+00
   -0.83043E-22         0.56739E-21         0.00000E+00
   -0.18408E-22         0.52585E-21         0.00000E+00
    0.14203E-22         0.52789E-21         0.00000E+00
    0.42502E-22         0.50221E-21         0.00000E+00
    0.25640E-22         0.44950E-21         0.00000E+00
    0.15678E-22         0.38783E-21         0.00000E+00
    0.13701E-22         0.33415E-21         0.00000E+00
   -0.93239E-23         0.27224E-21         0.00000E+00
   -0.32657E-22         0.13374E-21         0.00000E+00
   -0.25845E-22         0.17519E-21         0.00000E+00
   -0.22746E-22         0.19081E-21         0.00000E+00
   -0.33283E-22         0.12412E-21         0.00000E+00
   -0.19657E-22         0.22966E-22         0.00000E+00
   -0.11732E-22         0.42227E-22         0.00000E+00
   -0.10113E-22         0.28475E-23         0.00000E+00
    0.96994E-23        -0.80544E-23         0.00000E+00
POINT_DATA       1225
VECTORS vDarcyNodal double 
   -0.32162E-20         0.82926E-20         0.00000E+00
   -0.22986E-20         0.15298E-19         0.00000E+00
   -0.86930E-20         0.16431E-19         0.00000E+00
   -0.33673E-20         0.23256E-20         0.00000E+00
    0.34503E-20        -0.17874E-20         0.00000E+00
    0.23197E-20         0.55565E-21         0.00000E+00
    0.23724E-20        -0.54669E-20         0.00000E+00
   -0.33163E-20        -0.58944E-20         0.00000E+00
   -0.37872E-20         0.93551E-21         0.00000E+00
   -0.21518E-21         0.25917E-20         0.00000E+00
   -0.16159E-21         0.17915E-20         0.00000E+00
    0.17647E-21         0.29517E-20         0.00000E+00
   -0.15451E-20         0.22665E-20         0.00000E+00
   -0.12966E-20         0.15405E-21         0.00000E+00
   -0.86002E-21         0.92215E-21         0.00000E+00
   -0.79657E-21         0.27872E-20         0.00000E+00
    0.44793E-21         0.17134E-20         0.00000E+00
    0.58675E-23         0.88290E-21         0.00000E+00
    0.93795E-22         0.16170E-20         0.00000E+00
   -0.14823E-21         0.19865E-20         0.00000E+00
   -0.40063E-21         0.17273E-20         0.00000E+00
   -0.25382E-21         0.10587E-20         0.00000E+00
   -0.26107E-21         0.64514E-21         0.00000E+00
   -0.30821E-21         0.35870E-21         0.00000E+00
   -0.19025E-21         0.22928E-21         0.00000E+00
   -0.15367E-19         0.73749E-20         0.00000E+00
   -0.12362E-19         0.18036E-19         0.00000E+00
   -0.41194E-20         0.16965E-19         0.00000E+00
   -0.25936E-20        -0.37461E-20         0.00000E+00
   -0.21223E-20        -0.46310E-20         0.00000E+00
    0.19782E-20         0.10946E-20         0.00000E+00
    0.30803E-21        -0.26489E-20         0.00000E+00
   -0.31444E-20        -0.28146E-20         0.00000E+00
   -0.31601E-20        -0.61506E-21         0.00000E+00
   -0.10696E-20         0.77889E-21         0.00000E+00
   -0.11088E-20         0.15956E-20         0.00000E+00
   -0.71654E-21         0.36435E-20         0.00000E+00
   -0.13865E-20         0.30031E-20         0.00000E+00
   -0.15915E-20        -0.18848E-21         0.00000E+00
   -0.17086E-20         0.67211E-21         0.00000E+00
   -0.14142E-20         0.21332E-20         0.00000E+00
    0.33476E-21         0.13122E-20         0.00000E+00
    0.10297E-21         0.10600E-20         0.00000E+00
   -0.41607E-21         0.16940E-20         0.00000E+00
   -0.38216E-21         0.22337E-20         0.00000E+00
   -0.28551E-21         0.17801E-20         0.00000E+00
   -0.32444E-21         0.98894E-21         0.00000E+00
   -0.27612E-21         0.67234E-21         0.00000E+00
   -0.37786E-21         0.32329E-21         0.00000E+00
   -0.32884E-21         0.11132E-21         0.00000E+00
   -0.29184E-19         0.22818E-20         0.00000E+00
   -0.18260E-19         0.40497E-20         0.00000E+00
   -0.15097E-20         0.66625E-20         0.00000E+00
    0.41906E-21         0.32852E-21         0.00000E+00
   -0.65591E-20        -0.63592E-20         0.00000E+00
   -0.15319E-20        -0.18747E-20         0.00000E+00
   -0.13839E-20        -0.34433E-21         0.00000E+00
   -0.17802E-20        -0.24262E-20         0.00000E+00
   -0.26252E-20        -0.11393E-20         0.00000E+00
   -0.25937E-20         0.54032E-21         0.00000E+00
   -0.29945E-20         0.14384E-20         0.00000E+00
   -0.38080E-20         0.32295E-20         0.00000E+00
   -0.11631E-20         0.31414E-20         0.00000E+00
   -0.15519E-20         0.47610E-21         0.00000E+00
   -0.19221E-20         0.74487E-21         0.00000E+00
   -0.67066E-21         0.74386E-21         0.00000E+00
   -0.41402E-22         0.19626E-21         0.00000E+00
   -0.42957E-21         0.16337E-20         0.00000E+00
   -0.10117E-20         0.21021E-20         0.00000E+00
   -0.79107E-21         0.18560E-20         0.00000E+00
   -0.19356E-21         0.16696E-20         0.00000E+00
   -0.39118E-21         0.10493E-20         0.00000E+00
   -0.64000E-21         0.69856E-21         0.00000E+00
   -0.56162E-21         0.41142E-21         0.00000E+00
   -0.43320E-21         0.13123E-21         0.00000E+00
   -0.15425E-19        -0.14474E-19         0.00000E+00
   -0.11267E-19        -0.96382E-20         0.00000E+00
   -0.55716E-20        -0.17135E-20         0.00000E+00
   -0.48117E-21         0.13033E-20         0.00000E+00
   -0.29866E-20        -0.26800E-20         0.00000E+00
   -0.52201E-20        -0.40807E-20         0.00000E+00
   -0.28367E-20        -0.24006E-20         0.00000E+00
   -0.35767E-20        -0.15732E-20         0.00000E+00
   -0.53535E-20         0.19846E-21         0.00000E+00
   -0.48808E-20         0.11482E-20         0.00000E+00
   -0.35608E-20         0.28099E-20         0.00000E+00
   -0.32957E-20         0.18120E-20         0.00000E+00
   -0.13168E-20         0.74701E-21         0.00000E+00
   -0.69872E-21         0.57054E-21         0.00000E+00
   -0.99291E-21        -0.20918E-21         0.00000E+00
    0.26970E-21         0.25252E-21         0.00000E+00
   -0.32904E-21         0.10711E-20         0.00000E+00
   -0.11577E-20         0.20302E-20         0.00000E+00
   -0.10278E-20         0.20555E-20         0.00000E+00
   -0.11448E-20         0.14156E-20         0.00000E+00
   -0.88505E-21         0.13802E-20         0.00000E+00
   -0.85113E-21         0.14354E-20         0.00000E+00
   -0.90342E-21         0.84277E-21         0.00000E+00
   -0.74639E-21         0.11649E-21         0.00000E+00
   -0.70935E-21        -0.14552E-21         0.00000E+00
    0.00000E+00        -0.60344E-20         0.00000E+00
   -0.69426E-20        -0.58035E-20         0.00000E+00
   -0.68061E-20        -0.41230E-20         0.00000E+00
   -0.32527E-20        -0.22565E-20         0.00000E+00
    0.63493E-22        -0.16203E-20         0.00000E+00
   -0.34829E-20        -0.20245E-20         0.00000E+00
   -0.60946E-20        -0.19877E-20         0.00000E+00
   -0.83208E-20         0.90592E-22         0.00000E+00
   -0.74597E-20         0.16483E-21         0.00000E+00
   -0.64304E-20        -0.12524E-20         0.00000E+00
   -0.38955E-20        -0.14670E-21         0.00000E+00
   -0.13753E-20         0.98542E-21         0.00000E+00
   -0.14776E-20         0.54445E-21         0.00000E+00
   -0.23176E-21         0.15222E-21         0.00000E+00
   -0.10493E-20        -0.22355E-21         0.00000E+00
   -0.12520E-20         0.79994E-22         0.00000E+00
   -0.15778E-20         0.16236E-20         0.00000E+00
   -0.19003E-20         0.23325E-20         0.00000E+00
   -0.13086E-20         0.20892E-20         0.00000E+00
   -0.14965E-20         0.17133E-20         0.00000E+00
   -0.13096E-20         0.13759E-20         0.00000E+00
   -0.12126E-20         0.10677E-20         0.00000E+00
   -0.95224E-21         0.59382E-21         0.00000E+00
   -0.95248E-21         0.21735E-21         0.00000E+00
   -0.10861E-20         0.57163E-22         0.00000E+00
    0.00000E+00        -0.58836E-21         0.00000E+00
   -0.22815E-20        -0.28322E-20         0.00000E+00
   -0.40704E-20        -0.54035E-20         0.00000E+00
   -0.44135E-20        -0.55662E-20         0.00000E+00
   -0.36157E-20        -0.24497E-20         0.00000E+00
   -0.50770E-20         0.20774E-20         0.00000E+00
   -0.53496E-20         0.24373E-20         0.00000E+00
   -0.53046E-20        -0.20808E-21         0.00000E+00
   -0.49718E-20        -0.16919E-20         0.00000E+00
   -0.50362E-20        -0.24160E-20         0.00000E+00
   -0.57061E-20        -0.22452E-20         0.00000E+00
   -0.42942E-20        -0.60592E-21         0.00000E+00
   -0.31160E-20        -0.39655E-21         0.00000E+00
   -0.22328E-20         0.14217E-21         0.00000E+00
   -0.20122E-20         0.81106E-21         0.00000E+00
   -0.22553E-20         0.78107E-21         0.00000E+00
   -0.24743E-20         0.17194E-20         0.00000E+00
   -0.25240E-20         0.17611E-20         0.00000E+00
   -0.21563E-20         0.16517E-20         0.00000E+00
   -0.14668E-20         0.14166E-20         0.00000E+00
   -0.11154E-20         0.10964E-20         0.00000E+00
   -0.10248E-20         0.10780E-20         0.00000E+00
   -0.11177E-20         0.58265E-21         0.00000E+00
   -0.11850E-20         0.25036E-21         0.00000E+00
   -0.12442E-20         0.12175E-21         0.00000E+00
   -0.26138E-35        -0.14714E-20         0.00000E+00
    0.61004E-22        -0.17331E-20         0.00000E+00
   -0.22510E-20        -0.19910E-20         0.00000E+00
   -0.72137E-20        -0.27112E-20         0.00000E+00
   -0.10891E-19        -0.95681E-21         0.00000E+00
   -0.97657E-20        -0.29065E-21         0.00000E+00
   -0.48220E-20        -0.17601E-20         0.00000E+00
   -0.33929E-20        -0.28724E-21         0.00000E+00
   -0.37294E-20        -0.10355E-21         0.00000E+00
   -0.45586E-20        -0.51804E-21         0.00000E+00
   -0.72271E-20        -0.88875E-21         0.00000E+00
   -0.65088E-20        -0.16047E-20         0.00000E+00
   -0.48923E-20        -0.15169E-20         0.00000E+00
   -0.41869E-20        -0.95163E-21         0.00000E+00
   -0.33382E-20        -0.20112E-21         0.00000E+00
   -0.33174E-20         0.54205E-21         0.00000E+00
   -0.25600E-20         0.18924E-20         0.00000E+00
   -0.22385E-20         0.20145E-20         0.00000E+00
   -0.20018E-20         0.10320E-20         0.00000E+00
   -0.13114E-20         0.67233E-21         0.00000E+00
   -0.12561E-20         0.93385E-21         0.00000E+00
   -0.10065E-20         0.10700E-20         0.00000E+00
   -0.12457E-20         0.75407E-21         0.00000E+00
   -0.12382E-20         0.34381E-21         0.00000E+00
   -0.13113E-20         0.17555E-21         0.00000E+00
    0.00000E+00        -0.71037E-21         0.00000E+00
   -0.71014E-21        -0.58113E-21         0.00000E+00
   -0.37216E-20         0.18712E-20         0.00000E+00
   -0.70074E-20         0.30733E-20         0.00000E+00
   -0.89117E-20         0.10236E-21         0.00000E+00
   -0.74746E-20        -0.39912E-20         0.00000E+00
   -0.82101E-20        -0.39355E-20         0.00000E+00
   -0.85245E-20        -0.13006E-20         0.00000E+00
   -0.75107E-20        -0.52629E-21         0.00000E+00
   -0.88176E-20         0.10818E-20         0.00000E+00
   -0.73346E-20        -0.29493E-21         0.00000E+00
   -0.52647E-20        -0.29408E-20         0.00000E+00
   -0.38819E-20        -0.27185E-20         0.00000E+00
   -0.35991E-20        -0.14120E-20         0.00000E+00
   -0.32873E-20        -0.58475E-22         0.00000E+00
   -0.35467E-20         0.29325E-23         0.00000E+00
   -0.26876E-20         0.64053E-21         0.00000E+00
   -0.10902E-20         0.12028E-20         0.00000E+00
   -0.12384E-20         0.72465E-21         0.00000E+00
   -0.14059E-20         0.67097E-21         0.00000E+00
   -0.14076E-20         0.79147E-21         0.00000E+00
   -0.13089E-20         0.10675E-20         0.00000E+00
   -0.13330E-20         0.81436E-21         0.00000E+00
   -0.13203E-20         0.31603E-21         0.00000E+00
   -0.12681E-20         0.26796E-21         0.00000E+00
    0.18176E-36        -0.51160E-22         0.00000E+00
   -0.17208E-20         0.19885E-20         0.00000E+00
   -0.41368E-20         0.43063E-20         0.00000E+00
   -0.38462E-20         0.24789E-20         0.00000E+00
   -0.25827E-20        -0.48963E-21         0.00000E+00
   -0.44782E-20        -0.99222E-21         0.00000E+00
   -0.91507E-20        -0.71024E-21         0.00000E+00
   -0.96425E-20        -0.98662E-21         0.00000E+00
   -0.10378E-19         0.18962E-21         0.00000E+00
   -0.95042E-20        -0.69417E-21         0.00000E+00
   -0.57562E-20        -0.44417E-20         0.00000E+00
   -0.31884E-20        -0.50574E-20         0.00000E+00
   -0.28488E-20        -0.31825E-20         0.00000E+00
   -0.27029E-20        -0.15463E-20         0.00000E+00
   -0.20476E-20        -0.25354E-21         0.00000E+00
   -0.21916E-20        -0.57613E-22         0.00000E+00
   -0.27836E-20        -0.56403E-21         0.00000E+00
   -0.19010E-20         0.56530E-21         0.00000E+00
   -0.15854E-20         0.13477E-20         0.00000E+00
   -0.12023E-20         0.84155E-21         0.00000E+00
   -0.15910E-20         0.83678E-21         0.00000E+00
   -0.18990E-20         0.99541E-21         0.00000E+00
   -0.14606E-20         0.76545E-21         0.00000E+00
   -0.13930E-20         0.27894E-21         0.00000E+00
   -0.14085E-20         0.71257E-22         0.00000E+00
    0.86865E-50         0.27312E-20         0.00000E+00
   -0.14466E-20         0.35557E-20         0.00000E+00
   -0.12552E-20         0.39965E-20         0.00000E+00
   -0.77307E-21         0.15192E-20         0.00000E+00
   -0.24079E-20         0.73443E-21         0.00000E+00
   -0.34503E-20         0.25768E-20         0.00000E+00
   -0.52406E-20         0.12288E-20         0.00000E+00
   -0.61037E-20        -0.72924E-22         0.00000E+00
   -0.53370E-20        -0.66467E-21         0.00000E+00
   -0.30069E-20        -0.35405E-20         0.00000E+00
   -0.34879E-20        -0.66107E-20         0.00000E+00
   -0.38080E-20        -0.58482E-20         0.00000E+00
   -0.33112E-20        -0.32040E-20         0.00000E+00
   -0.30682E-20        -0.22131E-20         0.00000E+00
   -0.30056E-20        -0.56984E-21         0.00000E+00
   -0.22633E-20         0.73889E-21         0.00000E+00
   -0.29420E-20         0.34999E-21         0.00000E+00
   -0.36589E-20         0.46091E-23         0.00000E+00
   -0.23109E-20         0.25941E-22         0.00000E+00
   -0.15189E-20         0.67655E-21         0.00000E+00
   -0.13436E-20         0.14882E-20         0.00000E+00
   -0.18981E-20         0.93714E-21         0.00000E+00
   -0.16924E-20         0.30831E-21         0.00000E+00
   -0.15295E-20         0.26392E-21         0.00000E+00
   -0.14908E-20         0.29899E-21         0.00000E+00
    0.50483E-35         0.28420E-20         0.00000E+00
    0.30659E-22         0.32436E-20         0.00000E+00
    0.21709E-21         0.36329E-20         0.00000E+00
    0.89112E-22         0.36317E-20         0.00000E+00
   -0.20363E-20         0.21876E-20         0.00000E+00
   -0.23199E-20         0.18404E-20         0.00000E+00
   -0.12680E-20         0.19431E-20         0.00000E+00
   -0.10307E-20        -0.89020E-21         0.00000E+00
   -0.71390E-21        -0.29071E-20         0.00000E+00
   -0.78151E-21        -0.25433E-20         0.00000E+00
   -0.27987E-20        -0.36406E-20         0.00000E+00
   -0.44741E-20        -0.52340E-20         0.00000E+00
   -0.29743E-20        -0.39223E-20         0.00000E+00
   -0.26057E-20        -0.18519E-20         0.00000E+00
   -0.30464E-20        -0.10585E-20         0.00000E+00
   -0.26089E-20        -0.12115E-21         0.00000E+00
   -0.22349E-20         0.83162E-21         0.00000E+00
   -0.25516E-20        -0.65881E-22         0.00000E+00
   -0.24358E-20        -0.79230E-21         0.00000E+00
   -0.22247E-20        -0.12572E-21         0.00000E+00
   -0.13916E-20         0.12160E-20         0.00000E+00
   -0.16138E-20         0.13442E-20         0.00000E+00
   -0.19044E-20         0.39690E-21         0.00000E+00
   -0.16251E-20         0.77307E-22         0.00000E+00
   -0.13895E-20        -0.62771E-23         0.00000E+00
    0.00000E+00         0.26699E-20         0.00000E+00
   -0.80350E-21         0.33386E-20         0.00000E+00
   -0.96873E-21         0.39381E-20         0.00000E+00
   -0.56543E-21         0.37726E-20         0.00000E+00
   -0.21746E-21         0.31434E-20         0.00000E+00
   -0.18950E-20         0.18085E-20         0.00000E+00
   -0.70181E-21        -0.60308E-22         0.00000E+00
    0.35542E-21        -0.62703E-21         0.00000E+00
   -0.17624E-22        -0.91390E-21         0.00000E+00
   -0.23067E-20        -0.14557E-20         0.00000E+00
   -0.20483E-20        -0.29181E-20         0.00000E+00
   -0.30998E-20        -0.56725E-20         0.00000E+00
   -0.25552E-20        -0.50723E-20         0.00000E+00
   -0.21530E-20        -0.21411E-20         0.00000E+00
   -0.15722E-20        -0.56666E-21         0.00000E+00
   -0.24987E-20        -0.72564E-22         0.00000E+00
   -0.20645E-20         0.29267E-21         0.00000E+00
   -0.18198E-20         0.20549E-21         0.00000E+00
   -0.23137E-20        -0.30098E-21         0.00000E+00
   -0.23156E-20        -0.36760E-21         0.00000E+00
   -0.23059E-20         0.87733E-21         0.00000E+00
   -0.17662E-20         0.14499E-20         0.00000E+00
   -0.16803E-20         0.31962E-21         0.00000E+00
   -0.13620E-20        -0.25093E-21         0.00000E+00
   -0.12683E-20        -0.17224E-21         0.00000E+00
    0.00000E+00         0.44490E-20         0.00000E+00
   -0.92018E-21         0.42124E-20         0.00000E+00
   -0.90924E-21         0.33948E-20         0.00000E+00
   -0.25467E-21         0.28805E-20         0.00000E+00
   -0.65245E-21         0.35172E-20         0.00000E+00
   -0.12512E-20         0.23247E-20         0.00000E+00
   -0.13192E-20        -0.30731E-21         0.00000E+00
   -0.13803E-20        -0.15744E-20         0.00000E+00
   -0.15319E-20        -0.24503E-21         0.00000E+00
   -0.23033E-20        -0.51259E-21         0.00000E+00
   -0.19513E-20        -0.28475E-20         0.00000E+00
   -0.25391E-20        -0.47271E-20         0.00000E+00
   -0.28298E-20        -0.48690E-20         0.00000E+00
   -0.36128E-20        -0.28349E-20         0.00000E+00
   -0.25004E-20        -0.71280E-21         0.00000E+00
   -0.17897E-20         0.37118E-21         0.00000E+00
   -0.19261E-20         0.15276E-21         0.00000E+00
   -0.19428E-20         0.18329E-21         0.00000E+00
   -0.19781E-20        -0.29654E-21         0.00000E+00
   -0.20408E-20        -0.13348E-21         0.00000E+00
   -0.20743E-20         0.66655E-21         0.00000E+00
   -0.13538E-20         0.71858E-21         0.00000E+00
   -0.88743E-21        -0.73134E-23         0.00000E+00
   -0.95842E-21        -0.33468E-21         0.00000E+00
   -0.98017E-21        -0.19367E-21         0.00000E+00
    0.00000E+00         0.45102E-20         0.00000E+00
    0.25804E-21         0.42479E-20         0.00000E+00
    0.29197E-21         0.32726E-20         0.00000E+00
   -0.47808E-21         0.35158E-20         0.00000E+00
   -0.13787E-20         0.41400E-20         0.00000E+00
   -0.40064E-21         0.24753E-20         0.00000E+00
   -0.12477E-20         0.68779E-22         0.00000E+00
   -0.18827E-20        -0.41442E-21         0.00000E+00
   -0.29246E-20         0.91025E-23         0.00000E+00
   -0.21953E-20        -0.10363E-20         0.00000E+00
   -0.17623E-20        -0.26823E-20         0.00000E+00
   -0.12437E-20        -0.47940E-20         0.00000E+00
   -0.22872E-20        -0.39987E-20         0.00000E+00
   -0.28223E-20        -0.24705E-20         0.00000E+00
   -0.27804E-20        -0.23897E-20         0.00000E+00
   -0.13536E-20        -0.64692E-21         0.00000E+00
   -0.10091E-20         0.44575E-21         0.00000E+00
   -0.65405E-21         0.25756E-21         0.00000E+00
   -0.81319E-21        -0.20296E-21         0.00000E+00
   -0.12625E-20        -0.27143E-21         0.00000E+00
   -0.12131E-20         0.19031E-21         0.00000E+00
   -0.49676E-21         0.26301E-21         0.00000E+00
   -0.32884E-21        -0.75748E-22         0.00000E+00
   -0.55796E-21        -0.15819E-21         0.00000E+00
   -0.66267E-21        -0.12873E-21         0.00000E+00
    0.00000E+00         0.39329E-20         0.00000E+00
    0.31346E-21         0.39204E-20         0.00000E+00
    0.30238E-21         0.41309E-20         0.00000E+00
   -0.65839E-21         0.45511E-20         0.00000E+00
    0.27127E-23         0.34397E-20         0.00000E+00
    0.60813E-21         0.21937E-20         0.00000E+00
    0.73817E-21         0.11747E-20         0.00000E+00
   -0.82785E-21         0.10253E-21         0.00000E+00
   -0.94842E-21         0.67575E-22         0.00000E+00
   -0.73095E-21        -0.16749E-20         0.00000E+00
    0.63217E-21        -0.37991E-20         0.00000E+00
    0.10743E-20        -0.42022E-20         0.00000E+00
   -0.53200E-21        -0.32904E-20         0.00000E+00
   -0.10391E-20        -0.23418E-20         0.00000E+00
   -0.18856E-20        -0.21815E-20         0.00000E+00
   -0.12961E-20        -0.14001E-20         0.00000E+00
   -0.47524E-21        -0.54683E-21         0.00000E+00
    0.10467E-21        -0.12593E-22         0.00000E+00
   -0.26945E-21         0.31195E-21         0.00000E+00
   -0.10179E-20         0.26645E-21         0.00000E+00
   -0.10267E-20        -0.99223E-22         0.00000E+00
   -0.16801E-21        -0.16570E-21         0.00000E+00
   -0.21764E-21         0.53893E-22         0.00000E+00
   -0.45098E-21        -0.85164E-24         0.00000E+00
   -0.57894E-21         0.15734E-22         0.00000E+00
    0.00000E+00         0.38833E-20         0.00000E+00
   -0.50218E-21         0.39455E-20         0.00000E+00
   -0.16602E-23         0.42444E-20         0.00000E+00
    0.50881E-21         0.38154E-20         0.00000E+00
    0.16524E-20         0.28734E-20         0.00000E+00
    0.17357E-20         0.17398E-20         0.00000E+00
    0.19950E-20         0.15048E-20         0.00000E+00
    0.15051E-20         0.12722E-20         0.00000E+00
    0.36356E-22        -0.87798E-22         0.00000E+00
    0.15375E-21        -0.26168E-20         0.00000E+00
    0.17843E-21        -0.44875E-20         0.00000E+00
   -0.41491E-21        -0.36298E-20         0.00000E+00
   -0.78671E-21        -0.18853E-20         0.00000E+00
   -0.91095E-21        -0.11169E-20         0.00000E+00
   -0.12772E-20        -0.21327E-20         0.00000E+00
   -0.13511E-20        -0.20573E-20         0.00000E+00
   -0.11602E-20        -0.95498E-21         0.00000E+00
   -0.11631E-20         0.51775E-22         0.00000E+00
   -0.97725E-21         0.91962E-21         0.00000E+00
   -0.85038E-21         0.48577E-21         0.00000E+00
   -0.56765E-21        -0.65959E-21         0.00000E+00
   -0.66623E-21        -0.54600E-21         0.00000E+00
   -0.49868E-21         0.20722E-21         0.00000E+00
   -0.64994E-21         0.20312E-21         0.00000E+00
   -0.66873E-21         0.12719E-21         0.00000E+00
    0.00000E+00         0.49372E-20         0.00000E+00
   -0.47406E-21         0.39220E-20         0.00000E+00
   -0.10437E-22         0.31199E-20         0.00000E+00
    0.16663E-20         0.28971E-20         0.00000E+00
    0.19056E-20         0.22128E-20         0.00000E+00
    0.20828E-20         0.18511E-20         0.00000E+00
    0.15083E-20         0.14053E-20         0.00000E+00
    0.17263E-20         0.20612E-20         0.00000E+00
    0.10261E-20         0.14189E-20         0.00000E+00
    0.12331E-21        -0.18169E-20         0.00000E+00
   -0.10764E-20        -0.32304E-20         0.00000E+00
   -0.25354E-20        -0.32371E-20         0.00000E+00
   -0.28417E-20        -0.27944E-20         0.00000E+00
   -0.15131E-20        -0.18512E-20         0.00000E+00
   -0.11647E-20        -0.17413E-20         0.00000E+00
   -0.17486E-20        -0.15172E-20         0.00000E+00
   -0.15664E-20        -0.73491E-21         0.00000E+00
   -0.16905E-20        -0.19555E-21         0.00000E+00
   -0.12258E-20        -0.71829E-24         0.00000E+00
   -0.60290E-21        -0.14315E-21         0.00000E+00
   -0.42969E-21        -0.28337E-21         0.00000E+00
   -0.93019E-21        -0.23467E-21         0.00000E+00
   -0.93222E-21         0.37598E-22         0.00000E+00
   -0.77762E-21         0.16919E-21         0.00000E+00
   -0.69879E-21         0.53317E-22         0.00000E+00
    0.00000E+00         0.48314E-20         0.00000E+00
    0.85117E-21         0.39559E-20         0.00000E+00
    0.86742E-21         0.21040E-20         0.00000E+00
    0.19062E-20         0.18994E-20         0.00000E+00
    0.17147E-20         0.24570E-20         0.00000E+00
    0.14647E-20         0.21371E-20         0.00000E+00
    0.12211E-20         0.18612E-20         0.00000E+00
    0.25416E-21         0.17544E-20         0.00000E+00
    0.12581E-20         0.15152E-20         0.00000E+00
    0.13233E-20        -0.51433E-21         0.00000E+00
    0.37718E-21        -0.18288E-20         0.00000E+00
   -0.15487E-21        -0.18645E-20         0.00000E+00
   -0.76385E-21        -0.29076E-20         0.00000E+00
   -0.92499E-21        -0.27939E-20         0.00000E+00
   -0.83059E-21        -0.18972E-20         0.00000E+00
   -0.89803E-21        -0.16556E-20         0.00000E+00
   -0.11285E-20        -0.10131E-20         0.00000E+00
   -0.88307E-21        -0.28879E-21         0.00000E+00
   -0.65919E-21        -0.16802E-21         0.00000E+00
   -0.82054E-21        -0.31037E-21         0.00000E+00
   -0.75508E-21        -0.33230E-21         0.00000E+00
   -0.52905E-21        -0.43477E-22         0.00000E+00
   -0.82635E-21         0.54656E-22         0.00000E+00
   -0.58790E-21        -0.30305E-22         0.00000E+00
   -0.48823E-21        -0.30469E-22         0.00000E+00
    0.00000E+00         0.32349E-20         0.00000E+00
    0.11493E-20         0.30546E-20         0.00000E+00
    0.15838E-20         0.20649E-20         0.00000E+00
    0.95214E-21         0.20498E-20         0.00000E+00
    0.12038E-20         0.26544E-20         0.00000E+00
    0.12221E-20         0.23447E-20         0.00000E+00
    0.11926E-20         0.26159E-20         0.00000E+00
    0.99874E-21         0.20242E-20         0.00000E+00
    0.89699E-21         0.34976E-21         0.00000E+00
    0.15834E-20        -0.93598E-21         0.00000E+00
    0.82167E-21        -0.17522E-20         0.00000E+00
    0.16160E-20        -0.20960E-20         0.00000E+00
    0.18151E-20        -0.20242E-20         0.00000E+00
    0.32832E-21        -0.17845E-20         0.00000E+00
    0.34980E-22        -0.17683E-20         0.00000E+00
   -0.53124E-21        -0.12193E-20         0.00000E+00
   -0.11340E-20        -0.74987E-21         0.00000E+00
   -0.11215E-20        -0.66486E-21         0.00000E+00
   -0.80017E-21        -0.63248E-22         0.00000E+00
   -0.74996E-21        -0.47251E-22         0.00000E+00
   -0.61482E-21        -0.57486E-21         0.00000E+00
   -0.50479E-21        -0.16341E-21         0.00000E+00
   -0.29944E-21         0.96452E-22         0.00000E+00
   -0.25909E-21        -0.16893E-21         0.00000E+00
   -0.29292E-21        -0.14603E-21         0.00000E+00
    0.00000E+00         0.25329E-20         0.00000E+00
    0.26407E-21         0.23721E-20         0.00000E+00
    0.43744E-21         0.23012E-20         0.00000E+00
    0.41574E-21         0.22795E-20         0.00000E+00
    0.81595E-21         0.21870E-20         0.00000E+00
    0.94385E-21         0.21483E-20         0.00000E+00
    0.11443E-20         0.20846E-20         0.00000E+00
    0.21392E-20         0.20500E-20         0.00000E+00
    0.21881E-20         0.93057E-21         0.00000E+00
    0.16868E-20        -0.43901E-21         0.00000E+00
    0.96795E-21        -0.18613E-20         0.00000E+00
    0.64857E-21        -0.28579E-20         0.00000E+00
    0.35528E-21        -0.16200E-20         0.00000E+00
    0.23901E-21        -0.10138E-20         0.00000E+00
   -0.48280E-21        -0.10377E-20         0.00000E+00
   -0.14680E-20        -0.48654E-21         0.00000E+00
   -0.14876E-20        -0.42278E-21         0.00000E+00
   -0.15326E-20        -0.62266E-21         0.00000E+00
   -0.14134E-20        -0.53958E-21         0.00000E+00
   -0.49385E-21        -0.49572E-21         0.00000E+00
   -0.53208E-21        -0.57747E-21         0.00000E+00
   -0.69697E-21        -0.35886E-21         0.00000E+00
   -0.24813E-21        -0.19104E-21         0.00000E+00
   -0.28635E-21        -0.36821E-22         0.00000E+00
   -0.29289E-21         0.37183E-22         0.00000E+00
    0.00000E+00         0.27068E-20         0.00000E+00
    0.24212E-22         0.26172E-20         0.00000E+00
    0.40498E-21         0.19132E-20         0.00000E+00
    0.75335E-21         0.16713E-20         0.00000E+00
    0.70657E-21         0.21263E-20         0.00000E+00
    0.76360E-21         0.20163E-20         0.00000E+00
    0.75080E-21         0.14205E-20         0.00000E+00
    0.72846E-21         0.98040E-21         0.00000E+00
    0.11958E-20         0.80218E-21         0.00000E+00
    0.13686E-20         0.28419E-21         0.00000E+00
    0.14877E-20        -0.71397E-21         0.00000E+00
    0.42608E-23        -0.14834E-20         0.00000E+00
   -0.94416E-21        -0.16147E-20         0.00000E+00
   -0.14089E-20        -0.94644E-21         0.00000E+00
   -0.18821E-20        -0.61300E-22         0.00000E+00
   -0.19264E-20        -0.21449E-21         0.00000E+00
   -0.14121E-20        -0.68524E-21         0.00000E+00
   -0.59555E-21        -0.73906E-21         0.00000E+00
   -0.52530E-21        -0.11020E-20         0.00000E+00
   -0.43939E-21        -0.92854E-21         0.00000E+00
   -0.62851E-21        -0.37175E-21         0.00000E+00
   -0.57568E-21        -0.44736E-21         0.00000E+00
   -0.47477E-21        -0.31417E-21         0.00000E+00
   -0.40436E-21        -0.12416E-21         0.00000E+00
   -0.35352E-21        -0.13294E-21         0.00000E+00
    0.00000E+00         0.24844E-20         0.00000E+00
    0.11347E-20         0.19671E-20         0.00000E+00
    0.13838E-20         0.15720E-20         0.00000E+00
    0.79179E-21         0.19779E-20         0.00000E+00
    0.69058E-21         0.21767E-20         0.00000E+00
    0.82078E-21         0.21040E-20         0.00000E+00
    0.10134E-20         0.21198E-20         0.00000E+00
   -0.18357E-21         0.16050E-20         0.00000E+00
   -0.88726E-21         0.29047E-21         0.00000E+00
   -0.93884E-22        -0.73095E-21         0.00000E+00
    0.24613E-21        -0.49705E-21         0.00000E+00
    0.22413E-21        -0.42609E-21         0.00000E+00
   -0.52841E-21        -0.20687E-21         0.00000E+00
   -0.18240E-20        -0.75817E-22         0.00000E+00
   -0.21018E-20        -0.52017E-21         0.00000E+00
   -0.12410E-20        -0.95657E-21         0.00000E+00
   -0.36961E-21        -0.17536E-20         0.00000E+00
    0.45725E-22        -0.15095E-20         0.00000E+00
    0.29194E-22        -0.69574E-21         0.00000E+00
   -0.50806E-21        -0.39251E-21         0.00000E+00
   -0.36126E-21        -0.44118E-21         0.00000E+00
   -0.39059E-21        -0.51260E-21         0.00000E+00
   -0.43598E-21        -0.36236E-21         0.00000E+00
   -0.36470E-21        -0.15807E-21         0.00000E+00
   -0.43789E-21        -0.64499E-22         0.00000E+00
    0.00000E+00         0.43728E-21         0.00000E+00
    0.12779E-20         0.12334E-20         0.00000E+00
    0.76863E-21         0.22561E-20         0.00000E+00
    0.56322E-21         0.23645E-20         0.00000E+00
    0.61612E-21         0.20973E-20         0.00000E+00
    0.60362E-21         0.16935E-20         0.00000E+00
    0.11799E-20         0.24248E-20         0.00000E+00
    0.17066E-20         0.28810E-20         0.00000E+00
    0.17745E-20         0.71249E-21         0.00000E+00
    0.55622E-21        -0.84920E-21         0.00000E+00
   -0.46470E-22        -0.10320E-20         0.00000E+00
    0.75491E-21        -0.70882E-21         0.00000E+00
    0.34636E-21         0.43346E-21         0.00000E+00
    0.37617E-22         0.62698E-21         0.00000E+00
   -0.75301E-21        -0.64427E-21         0.00000E+00
   -0.67746E-21        -0.19467E-20         0.00000E+00
   -0.30440E-21        -0.19720E-20         0.00000E+00
   -0.37142E-21        -0.11379E-20         0.00000E+00
   -0.50407E-21        -0.54820E-21         0.00000E+00
   -0.29402E-21        -0.53809E-21         0.00000E+00
   -0.26994E-21        -0.48922E-21         0.00000E+00
   -0.36483E-21        -0.37264E-21         0.00000E+00
   -0.50033E-21        -0.34006E-21         0.00000E+00
   -0.47712E-21        -0.12226E-21         0.00000E+00
   -0.45907E-21         0.13440E-22         0.00000E+00
    0.00000E+00        -0.71382E-22         0.00000E+00
   -0.40933E-21         0.11985E-20         0.00000E+00
   -0.72854E-22         0.22867E-20         0.00000E+00
    0.35413E-21         0.21304E-20         0.00000E+00
    0.45658E-21         0.21363E-20         0.00000E+00
    0.13259E-21         0.15402E-20         0.00000E+00
   -0.43715E-22         0.10168E-20         0.00000E+00
    0.15053E-20         0.10105E-20         0.00000E+00
    0.30978E-20         0.14408E-20         0.00000E+00
    0.15097E-20         0.10900E-20         0.00000E+00
    0.98588E-21        -0.69573E-21         0.00000E+00
    0.51397E-21        -0.81892E-21         0.00000E+00
    0.31059E-21         0.51042E-21         0.00000E+00
    0.10696E-20         0.10236E-20         0.00000E+00
    0.39434E-21         0.19490E-21         0.00000E+00
   -0.83332E-21        -0.14052E-20         0.00000E+00
   -0.70444E-21        -0.20596E-20         0.00000E+00
   -0.54001E-21        -0.13098E-20         0.00000E+00
   -0.31979E-21        -0.77315E-21         0.00000E+00
   -0.31284E-21        -0.62664E-21         0.00000E+00
   -0.52115E-21        -0.37037E-21         0.00000E+00
   -0.43005E-21        -0.28222E-21         0.00000E+00
   -0.51197E-21        -0.25007E-21         0.00000E+00
   -0.63246E-21        -0.19933E-21         0.00000E+00
   -0.59496E-21        -0.10060E-21         0.00000E+00
    0.00000E+00         0.12559E-20         0.00000E+00
   -0.77842E-21         0.13063E-20         0.00000E+00
   -0.15326E-21         0.14927E-20         0.00000E+00
    0.25355E-21         0.18351E-20         0.00000E+00
    0.38660E-21         0.23188E-20         0.00000E+00
    0.40197E-21         0.21938E-20         0.00000E+00
   -0.20940E-21         0.10521E-20         0.00000E+00
   -0.43781E-22        -0.26049E-21         0.00000E+00
    0.18315E-21         0.70812E-21         0.00000E+00
    0.96614E-21         0.12627E-20         0.00000E+00
    0.57987E-21        -0.36281E-22         0.00000E+00
   -0.13433E-22        -0.33522E-22         0.00000E+00
    0.41473E-21        -0.12218E-21         0.00000E+00
    0.82956E-21         0.54322E-21         0.00000E+00
    0.10559E-20         0.12587E-20         0.00000E+00
    0.75945E-21        -0.84791E-21         0.00000E+00
    0.14858E-21        -0.22653E-20         0.00000E+00
   -0.34889E-21        -0.15225E-20         0.00000E+00
   -0.26274E-21        -0.77537E-21         0.00000E+00
   -0.47990E-21        -0.33673E-21         0.00000E+00
   -0.74309E-21        -0.37201E-21         0.00000E+00
   -0.68590E-21        -0.38182E-21         0.00000E+00
   -0.66464E-21        -0.13766E-21         0.00000E+00
   -0.78160E-21        -0.39270E-22         0.00000E+00
   -0.82317E-21        -0.61565E-22         0.00000E+00
    0.00000E+00         0.14855E-20         0.00000E+00
   -0.12264E-21         0.13518E-20         0.00000E+00
   -0.30799E-23         0.12548E-20         0.00000E+00
    0.31341E-21         0.15905E-20         0.00000E+00
    0.58747E-21         0.19879E-20         0.00000E+00
    0.10919E-20         0.21362E-20         0.00000E+00
    0.13505E-20         0.14626E-20         0.00000E+00
    0.10852E-20         0.61791E-21         0.00000E+00
    0.48474E-21         0.43088E-21         0.00000E+00
    0.12886E-20         0.69327E-21         0.00000E+00
    0.52414E-21         0.28384E-21         0.00000E+00
    0.39059E-21        -0.65378E-21         0.00000E+00
    0.75620E-21        -0.33257E-21         0.00000E+00
    0.59009E-21         0.38233E-21         0.00000E+00
    0.15288E-20         0.26501E-21         0.00000E+00
    0.17451E-20        -0.49780E-21         0.00000E+00
    0.58036E-21        -0.95128E-21         0.00000E+00
   -0.11961E-21        -0.89849E-21         0.00000E+00
   -0.63763E-21        -0.64214E-21         0.00000E+00
   -0.61597E-21        -0.14628E-21         0.00000E+00
   -0.70193E-21        -0.16437E-21         0.00000E+00
   -0.93162E-21        -0.36067E-21         0.00000E+00
   -0.92332E-21        -0.15437E-21         0.00000E+00
   -0.90340E-21        -0.40798E-22         0.00000E+00
   -0.90642E-21        -0.17463E-22         0.00000E+00
    0.00000E+00         0.15012E-20         0.00000E+00
    0.15408E-21         0.13093E-20         0.00000E+00
    0.25466E-21         0.10566E-20         0.00000E+00
    0.43225E-21         0.12445E-20         0.00000E+00
    0.81187E-21         0.15403E-20         0.00000E+00
    0.13182E-20         0.14308E-20         0.00000E+00
    0.19520E-20         0.10588E-20         0.00000E+00
    0.20191E-20         0.60522E-21         0.00000E+00
    0.23276E-20         0.50474E-21         0.00000E+00
    0.14657E-20         0.12233E-20         0.00000E+00
    0.15920E-20         0.86175E-21         0.00000E+00
    0.76414E-21        -0.26559E-21         0.00000E+00
   -0.18684E-21        -0.32167E-21         0.00000E+00
    0.26567E-21        -0.22942E-21         0.00000E+00
    0.10875E-20         0.10366E-21         0.00000E+00
    0.72362E-21         0.10057E-21         0.00000E+00
    0.36596E-21        -0.40060E-21         0.00000E+00
   -0.20579E-21        -0.30453E-21         0.00000E+00
   -0.88226E-21        -0.27901E-21         0.00000E+00
   -0.84105E-21        -0.27243E-21         0.00000E+00
   -0.54596E-21        -0.56354E-22         0.00000E+00
   -0.80406E-21        -0.16043E-21         0.00000E+00
   -0.92120E-21        -0.16588E-21         0.00000E+00
   -0.90127E-21        -0.56166E-22         0.00000E+00
   -0.86206E-21        -0.55529E-22         0.00000E+00
    0.00000E+00         0.11773E-20         0.00000E+00
    0.42996E-21         0.10971E-20         0.00000E+00
    0.52549E-21         0.97658E-21         0.00000E+00
    0.53033E-21         0.10333E-20         0.00000E+00
    0.95140E-21         0.11019E-20         0.00000E+00
    0.14119E-20         0.99610E-21         0.00000E+00
    0.16066E-20         0.76172E-21         0.00000E+00
    0.17992E-20         0.24234E-21         0.00000E+00
    0.13146E-20         0.98430E-21         0.00000E+00
    0.15047E-20         0.14288E-20         0.00000E+00
    0.18998E-20         0.98536E-21         0.00000E+00
    0.10980E-20         0.11251E-20         0.00000E+00
    0.58215E-22         0.16589E-21         0.00000E+00
   -0.27226E-21        -0.89198E-21         0.00000E+00
    0.10252E-21        -0.19294E-21         0.00000E+00
    0.55772E-21         0.22371E-21         0.00000E+00
    0.15631E-21        -0.21869E-22         0.00000E+00
   -0.38030E-21         0.34973E-21         0.00000E+00
   -0.45276E-21        -0.68779E-23         0.00000E+00
   -0.61567E-21        -0.48258E-21         0.00000E+00
   -0.76143E-21        -0.20136E-21         0.00000E+00
   -0.66735E-21         0.14564E-22         0.00000E+00
   -0.88075E-21        -0.57164E-22         0.00000E+00
   -0.81363E-21        -0.99938E-22         0.00000E+00
   -0.79422E-21        -0.95889E-22         0.00000E+00
    0.00000E+00         0.64131E-21         0.00000E+00
   -0.59118E-22         0.78384E-21         0.00000E+00
   -0.19237E-21         0.95626E-21         0.00000E+00
    0.48127E-21         0.81860E-21         0.00000E+00
    0.88845E-21         0.65871E-21         0.00000E+00
    0.11970E-20         0.77559E-21         0.00000E+00
    0.14369E-20         0.67147E-21         0.00000E+00
    0.13977E-20         0.89722E-21         0.00000E+00
    0.37105E-21         0.79924E-21         0.00000E+00
    0.11327E-20         0.63822E-21         0.00000E+00
    0.65782E-21         0.12685E-20         0.00000E+00
    0.12418E-20         0.15759E-20         0.00000E+00
    0.79782E-21         0.10486E-20         0.00000E+00
   -0.69306E-22        -0.27372E-21         0.00000E+00
   -0.77320E-21        -0.72632E-21         0.00000E+00
   -0.49695E-22         0.46774E-22         0.00000E+00
   -0.26901E-21         0.53742E-21         0.00000E+00
   -0.92909E-22         0.30454E-21         0.00000E+00
    0.39393E-22        -0.43646E-22         0.00000E+00
   -0.58433E-21         0.36235E-22         0.00000E+00
   -0.86072E-21        -0.46694E-23         0.00000E+00
   -0.75003E-21        -0.41112E-22         0.00000E+00
   -0.66632E-21        -0.19596E-22         0.00000E+00
   -0.63830E-21        -0.14269E-21         0.00000E+00
   -0.67004E-21        -0.94359E-22         0.00000E+00
    0.00000E+00         0.12955E-20         0.00000E+00
   -0.87583E-21         0.12895E-20         0.00000E+00
   -0.89131E-21         0.43620E-21         0.00000E+00
    0.12029E-21        -0.47492E-22         0.00000E+00
    0.52027E-21         0.38621E-21         0.00000E+00
    0.82687E-21         0.44769E-21         0.00000E+00
    0.97868E-21         0.56104E-21         0.00000E+00
    0.56496E-21         0.13082E-20         0.00000E+00
    0.81154E-21         0.12492E-20         0.00000E+00
   -0.63554E-22         0.11421E-20         0.00000E+00
   -0.75516E-21         0.87633E-21         0.00000E+00
    0.80740E-22         0.98508E-21         0.00000E+00
    0.30293E-21         0.14770E-20         0.00000E+00
   -0.52697E-23         0.67903E-21         0.00000E+00
   -0.82755E-21        -0.21255E-21         0.00000E+00
   -0.77926E-21        -0.28047E-21         0.00000E+00
   -0.33399E-21         0.21345E-22         0.00000E+00
   -0.26020E-21         0.41328E-22         0.00000E+00
   -0.37162E-21         0.48455E-21         0.00000E+00
   -0.88187E-21         0.41753E-21         0.00000E+00
   -0.74431E-21        -0.35660E-22         0.00000E+00
   -0.69686E-21        -0.17984E-21         0.00000E+00
   -0.40529E-21        -0.16890E-21         0.00000E+00
   -0.41904E-21        -0.96215E-22         0.00000E+00
   -0.46502E-21        -0.32405E-22         0.00000E+00
    0.00000E+00         0.23930E-20         0.00000E+00
   -0.30523E-21         0.16751E-20         0.00000E+00
    0.49225E-22        -0.39861E-22         0.00000E+00
   -0.68454E-21        -0.59298E-21         0.00000E+00
   -0.41240E-21        -0.47863E-22         0.00000E+00
    0.39904E-21         0.31717E-21         0.00000E+00
    0.50389E-21         0.93338E-21         0.00000E+00
   -0.25657E-21         0.10644E-20         0.00000E+00
    0.44644E-22         0.14278E-20         0.00000E+00
   -0.39625E-21         0.22049E-20         0.00000E+00
   -0.32522E-21         0.11242E-20         0.00000E+00
   -0.79289E-21         0.51786E-21         0.00000E+00
   -0.36726E-21         0.11346E-20         0.00000E+00
   -0.45806E-22         0.85676E-21         0.00000E+00
   -0.34439E-21         0.47673E-22         0.00000E+00
   -0.53950E-21        -0.44678E-21         0.00000E+00
   -0.24303E-21         0.18362E-22         0.00000E+00
   -0.70796E-21         0.34217E-21         0.00000E+00
   -0.78342E-21         0.57802E-21         0.00000E+00
   -0.53092E-21         0.40893E-21         0.00000E+00
   -0.48586E-21        -0.18967E-21         0.00000E+00
   -0.46603E-21        -0.38014E-21         0.00000E+00
   -0.38489E-21        -0.29742E-21         0.00000E+00
   -0.36310E-21        -0.82956E-22         0.00000E+00
   -0.36857E-21        -0.23962E-23         0.00000E+00
    0.00000E+00         0.19060E-20         0.00000E+00
    0.48149E-21         0.12403E-20         0.00000E+00
    0.69878E-21         0.81550E-21         0.00000E+00
   -0.46982E-21         0.41413E-21         0.00000E+00
   -0.93627E-21        -0.69737E-21         0.00000E+00
   -0.84377E-21        -0.46860E-21         0.00000E+00
   -0.56618E-21         0.12167E-20         0.00000E+00
   -0.78568E-21         0.17674E-20         0.00000E+00
   -0.98563E-21         0.13889E-20         0.00000E+00
   -0.40322E-21         0.15119E-20         0.00000E+00
    0.14270E-21         0.12730E-20         0.00000E+00
   -0.61460E-21         0.10271E-20         0.00000E+00
   -0.43409E-21         0.72989E-21         0.00000E+00
   -0.30130E-21         0.65616E-21         0.00000E+00
   -0.24462E-21         0.28114E-21         0.00000E+00
   -0.44469E-21        -0.38183E-21         0.00000E+00
   -0.66796E-21         0.18980E-21         0.00000E+00
   -0.54665E-21         0.58171E-21         0.00000E+00
   -0.51943E-21         0.30751E-21         0.00000E+00
   -0.10876E-21         0.11997E-21         0.00000E+00
   -0.10929E-21        -0.10055E-21         0.00000E+00
   -0.21363E-21        -0.28081E-21         0.00000E+00
   -0.36012E-21        -0.27182E-21         0.00000E+00
   -0.37438E-21        -0.11253E-21         0.00000E+00
   -0.33903E-21        -0.21477E-22         0.00000E+00
    0.00000E+00         0.14300E-20         0.00000E+00
    0.18154E-21         0.97637E-21         0.00000E+00
    0.11038E-21         0.91145E-21         0.00000E+00
   -0.93735E-22         0.10421E-20         0.00000E+00
   -0.60764E-21         0.32608E-21         0.00000E+00
   -0.16315E-20        -0.52918E-22         0.00000E+00
   -0.16655E-20         0.87529E-21         0.00000E+00
   -0.53704E-21         0.14838E-20         0.00000E+00
   -0.74510E-21         0.10453E-20         0.00000E+00
   -0.42905E-21         0.10766E-20         0.00000E+00
   -0.98461E-22         0.13356E-20         0.00000E+00
   -0.48575E-21         0.10947E-20         0.00000E+00
   -0.43204E-21         0.82127E-21         0.00000E+00
   -0.42455E-21         0.66728E-21         0.00000E+00
   -0.13880E-21         0.19106E-21         0.00000E+00
   -0.57502E-21        -0.23442E-22         0.00000E+00
   -0.76105E-21         0.12033E-21         0.00000E+00
   -0.42139E-21         0.19364E-21         0.00000E+00
   -0.28500E-21         0.14013E-21         0.00000E+00
   -0.20764E-21        -0.12138E-23         0.00000E+00
   -0.91592E-22        -0.84798E-22         0.00000E+00
   -0.51016E-22        -0.12931E-21         0.00000E+00
   -0.19958E-21        -0.13667E-21         0.00000E+00
   -0.24297E-21        -0.10404E-21         0.00000E+00
   -0.23535E-21        -0.73097E-22         0.00000E+00
    0.00000E+00         0.15429E-20         0.00000E+00
   -0.19824E-22         0.11299E-20         0.00000E+00
   -0.55931E-21         0.10908E-20         0.00000E+00
   -0.38600E-21         0.11321E-20         0.00000E+00
   -0.32392E-21         0.84039E-21         0.00000E+00
   -0.84884E-21         0.58931E-21         0.00000E+00
   -0.11186E-20         0.12220E-21         0.00000E+00
   -0.69558E-22         0.84696E-21         0.00000E+00
   -0.22080E-21         0.12809E-20         0.00000E+00
   -0.34243E-21         0.86530E-21         0.00000E+00
   -0.24028E-21         0.13297E-20         0.00000E+00
   -0.35608E-21         0.13607E-20         0.00000E+00
   -0.42806E-21         0.66870E-21         0.00000E+00
   -0.16819E-21         0.36293E-21         0.00000E+00
   -0.25318E-21         0.43161E-21         0.00000E+00
   -0.54472E-21         0.24042E-21         0.00000E+00
   -0.41002E-21         0.36171E-22         0.00000E+00
   -0.29578E-21         0.10567E-21         0.00000E+00
   -0.27603E-21         0.93765E-22         0.00000E+00
   -0.16909E-21        -0.73440E-22         0.00000E+00
   -0.23082E-21        -0.25718E-21         0.00000E+00
   -0.19806E-21        -0.17282E-21         0.00000E+00
   -0.12136E-21        -0.79869E-22         0.00000E+00
   -0.11771E-21        -0.76764E-22         0.00000E+00
   -0.15603E-21        -0.36715E-22         0.00000E+00
    0.00000E+00         0.14696E-20         0.00000E+00
    0.26639E-21         0.15357E-20         0.00000E+00
   -0.25249E-21         0.12776E-20         0.00000E+00
   -0.58529E-22         0.80668E-21         0.00000E+00
   -0.20060E-21         0.78892E-21         0.00000E+00
   -0.14505E-21         0.74175E-21         0.00000E+00
   -0.39730E-21         0.96011E-22         0.00000E+00
   -0.80148E-21         0.58603E-21         0.00000E+00
   -0.26590E-21         0.13182E-20         0.00000E+00
   -0.45522E-21         0.10961E-20         0.00000E+00
   -0.70824E-21         0.13492E-20         0.00000E+00
   -0.28712E-21         0.12824E-20         0.00000E+00
   -0.21000E-21         0.63339E-21         0.00000E+00
   -0.37043E-21         0.49241E-21         0.00000E+00
   -0.55309E-21         0.56759E-21         0.00000E+00
   -0.46545E-21         0.13339E-21         0.00000E+00
   -0.47314E-21        -0.12861E-21         0.00000E+00
   -0.21505E-21         0.59647E-22         0.00000E+00
   -0.13116E-21         0.13443E-22         0.00000E+00
   -0.51240E-22        -0.46416E-22         0.00000E+00
   -0.80629E-22        -0.55829E-22         0.00000E+00
   -0.15832E-21        -0.23878E-21         0.00000E+00
   -0.13483E-21        -0.21702E-21         0.00000E+00
   -0.14206E-21        -0.69361E-22         0.00000E+00
   -0.14490E-21         0.35490E-23         0.00000E+00
    0.17943E-35         0.10101E-20         0.00000E+00
    0.47213E-21         0.13824E-20         0.00000E+00
    0.51826E-21         0.14157E-20         0.00000E+00
    0.10975E-22         0.10803E-20         0.00000E+00
   -0.30653E-21         0.92691E-21         0.00000E+00
   -0.44760E-21         0.78601E-21         0.00000E+00
   -0.32085E-21         0.77863E-21         0.00000E+00
   -0.91890E-21         0.71556E-21         0.00000E+00
   -0.57969E-21         0.93466E-21         0.00000E+00
   -0.52630E-21         0.13076E-20         0.00000E+00
   -0.50047E-21         0.11616E-20         0.00000E+00
   -0.21597E-22         0.86245E-21         0.00000E+00
    0.63713E-22         0.75201E-21         0.00000E+00
   -0.25021E-21         0.70602E-21         0.00000E+00
   -0.40150E-21         0.52662E-21         0.00000E+00
   -0.29369E-21         0.16047E-21         0.00000E+00
   -0.33636E-21        -0.21423E-21         0.00000E+00
   -0.22156E-21        -0.23631E-21         0.00000E+00
    0.55148E-22        -0.70043E-22         0.00000E+00
   -0.45095E-22        -0.12397E-21         0.00000E+00
    0.86310E-22        -0.15010E-21         0.00000E+00
    0.86389E-22        -0.11862E-21         0.00000E+00
   -0.56730E-22        -0.96129E-22         0.00000E+00
   -0.14408E-21        -0.66695E-22         0.00000E+00
   -0.12446E-21        -0.31026E-22         0.00000E+00
    0.13364E-49         0.52538E-21         0.00000E+00
   -0.48678E-22         0.10174E-20         0.00000E+00
    0.36035E-21         0.17388E-20         0.00000E+00
    0.59530E-22         0.16315E-20         0.00000E+00
   -0.62127E-22         0.12475E-20         0.00000E+00
   -0.33261E-22         0.75606E-21         0.00000E+00
   -0.25957E-21         0.56732E-21         0.00000E+00
   -0.19127E-21         0.84487E-21         0.00000E+00
   -0.14064E-21         0.92557E-21         0.00000E+00
   -0.14453E-21         0.10168E-20         0.00000E+00
    0.51455E-22         0.84454E-21         0.00000E+00
    0.17132E-21         0.71825E-21         0.00000E+00
    0.22287E-21         0.86200E-21         0.00000E+00
    0.75633E-22         0.95761E-21         0.00000E+00
   -0.27454E-22         0.61107E-21         0.00000E+00
    0.29948E-22         0.68255E-22         0.00000E+00
    0.23021E-21        -0.20074E-21         0.00000E+00
    0.83206E-22        -0.33186E-21         0.00000E+00
    0.23245E-21        -0.16303E-21         0.00000E+00
    0.19475E-21        -0.77578E-22         0.00000E+00
    0.14287E-21        -0.18731E-21         0.00000E+00
    0.91158E-22        -0.95740E-22         0.00000E+00
    0.14523E-22         0.13444E-22         0.00000E+00
   -0.52856E-22        -0.16283E-23         0.00000E+00
   -0.66276E-22        -0.35678E-22         0.00000E+00
   -0.19673E-35         0.11075E-20         0.00000E+00
   -0.62385E-21         0.10220E-20         0.00000E+00
   -0.24344E-21         0.13075E-20         0.00000E+00
    0.21194E-21         0.15027E-20         0.00000E+00
    0.46614E-21         0.10197E-20         0.00000E+00
    0.43121E-21         0.98344E-21         0.00000E+00
   -0.12814E-22         0.93665E-21         0.00000E+00
   -0.17415E-21         0.59664E-21         0.00000E+00
   -0.43656E-22         0.88791E-21         0.00000E+00
   -0.17272E-21         0.11155E-20         0.00000E+00
   -0.20168E-21         0.84572E-21         0.00000E+00
   -0.32674E-21         0.69103E-21         0.00000E+00
   -0.29341E-21         0.84769E-21         0.00000E+00
   -0.15460E-21         0.95634E-21         0.00000E+00
    0.14358E-21         0.57231E-21         0.00000E+00
    0.37634E-21        -0.97195E-22         0.00000E+00
    0.37334E-21        -0.26749E-21         0.00000E+00
    0.21820E-21        -0.23855E-21         0.00000E+00
    0.21584E-21        -0.18158E-21         0.00000E+00
    0.24727E-21        -0.34388E-22         0.00000E+00
    0.16753E-21        -0.46510E-22         0.00000E+00
    0.34153E-22         0.97233E-23         0.00000E+00
   -0.18455E-23         0.47885E-22         0.00000E+00
    0.47061E-23         0.14104E-22         0.00000E+00
   -0.66321E-23        -0.41852E-23         0.00000E+00
    0.00000E+00         0.17731E-20         0.00000E+00
   -0.21933E-21         0.12609E-20         0.00000E+00
   -0.19347E-21         0.90299E-21         0.00000E+00
    0.26734E-21         0.92190E-21         0.00000E+00
    0.45917E-21         0.10282E-20         0.00000E+00
    0.11551E-21         0.12350E-20         0.00000E+00
   -0.69179E-22         0.11727E-20         0.00000E+00
   -0.32127E-21         0.87571E-21         0.00000E+00
   -0.27865E-21         0.92414E-21         0.00000E+00
   -0.21662E-21         0.11749E-20         0.00000E+00
   -0.28611E-21         0.99856E-21         0.00000E+00
   -0.40562E-21         0.80998E-21         0.00000E+00
   -0.21936E-21         0.68985E-21         0.00000E+00
    0.47167E-22         0.52062E-21         0.00000E+00
    0.36865E-21         0.80133E-22         0.00000E+00
    0.43722E-21        -0.16150E-21         0.00000E+00
    0.24738E-21        -0.42600E-22         0.00000E+00
    0.21179E-21        -0.17436E-21         0.00000E+00
    0.11945E-21        -0.19209E-21         0.00000E+00
    0.11305E-21        -0.29268E-22         0.00000E+00
    0.82816E-22         0.25803E-22         0.00000E+00
    0.20695E-22         0.73634E-22         0.00000E+00
    0.32560E-22         0.42891E-22         0.00000E+00
    0.45407E-22         0.31583E-23         0.00000E+00
    0.34792E-22        -0.13002E-22         0.00000E+00
    0.00000E+00         0.15461E-20         0.00000E+00
    0.30230E-21         0.12155E-20         0.00000E+00
    0.26172E-21         0.82083E-21         0.00000E+00
    0.30369E-21         0.85009E-21         0.00000E+00
    0.11343E-21         0.11715E-20         0.00000E+00
    0.15821E-21         0.15118E-20         0.00000E+00
   -0.77141E-22         0.13734E-20         0.00000E+00
    0.49201E-22         0.80611E-21         0.00000E+00
    0.52971E-22         0.78326E-21         0.00000E+00
    0.27430E-21         0.11230E-20         0.00000E+00
    0.30043E-21         0.10347E-20         0.00000E+00
    0.39520E-21         0.62428E-21         0.00000E+00
    0.47606E-21         0.39491E-21         0.00000E+00
    0.68787E-21         0.36834E-21         0.00000E+00
    0.58240E-21         0.18225E-21         0.00000E+00
    0.25013E-21         0.24070E-22         0.00000E+00
    0.21292E-21        -0.42050E-22         0.00000E+00
    0.25611E-21        -0.11061E-21         0.00000E+00
    0.57480E-22        -0.82845E-22         0.00000E+00
    0.85406E-22         0.22428E-23         0.00000E+00
    0.43462E-22         0.45843E-22         0.00000E+00
    0.55401E-22         0.59979E-22         0.00000E+00
    0.60307E-22         0.23173E-22         0.00000E+00
    0.67498E-22         0.11872E-22         0.00000E+00
    0.42534E-22         0.17045E-22         0.00000E+00
    0.00000E+00         0.11685E-20         0.00000E+00
    0.43307E-21         0.99914E-21         0.00000E+00
    0.40051E-21         0.90160E-21         0.00000E+00
    0.82209E-22         0.10702E-20         0.00000E+00
   -0.83758E-22         0.11737E-20         0.00000E+00
   -0.81671E-22         0.14256E-20         0.00000E+00
    0.27738E-21         0.12817E-20         0.00000E+00
    0.42867E-21         0.74560E-21         0.00000E+00
    0.30424E-21         0.69904E-21         0.00000E+00
    0.51303E-21         0.92740E-21         0.00000E+00
    0.77918E-21         0.87765E-21         0.00000E+00
    0.81931E-21         0.63435E-21         0.00000E+00
    0.53040E-21         0.39719E-21         0.00000E+00
    0.55616E-21         0.41428E-21         0.00000E+00
    0.49783E-21         0.51787E-21         0.00000E+00
    0.29788E-21         0.20798E-21         0.00000E+00
    0.19811E-21        -0.48582E-22         0.00000E+00
    0.11110E-21        -0.18917E-22         0.00000E+00
   -0.15801E-22        -0.21393E-22         0.00000E+00
    0.17615E-22        -0.15251E-22         0.00000E+00
    0.40323E-22         0.55808E-22         0.00000E+00
    0.68832E-22         0.56789E-22         0.00000E+00
    0.58813E-22         0.30793E-22         0.00000E+00
    0.37081E-22         0.20932E-22         0.00000E+00
    0.26915E-22         0.36927E-22         0.00000E+00
    0.00000E+00         0.68000E-21         0.00000E+00
    0.28445E-21         0.81497E-21         0.00000E+00
    0.26800E-21         0.11717E-20         0.00000E+00
    0.30154E-22         0.13344E-20         0.00000E+00
   -0.15161E-21         0.13354E-20         0.00000E+00
   -0.20493E-21         0.11507E-20         0.00000E+00
    0.11906E-21         0.86309E-21         0.00000E+00
    0.20245E-21         0.77925E-21         0.00000E+00
    0.66993E-22         0.69890E-21         0.00000E+00
    0.15474E-21         0.64805E-21         0.00000E+00
    0.44078E-21         0.72845E-21         0.00000E+00
    0.41925E-21         0.87306E-21         0.00000E+00
    0.35940E-21         0.65805E-21         0.00000E+00
    0.22899E-21         0.40091E-21         0.00000E+00
    0.24884E-21         0.44053E-21         0.00000E+00
    0.24914E-21         0.32378E-21         0.00000E+00
    0.23434E-21         0.14473E-21         0.00000E+00
    0.13919E-21         0.10330E-21         0.00000E+00
    0.97705E-22         0.10644E-22         0.00000E+00
    0.51142E-22        -0.53881E-22         0.00000E+00
    0.39389E-22        -0.53743E-23         0.00000E+00
    0.66796E-22         0.41489E-22         0.00000E+00
    0.51396E-22         0.54923E-22         0.00000E+00
    0.91172E-23         0.43771E-22         0.00000E+00
    0.19754E-22         0.37378E-22         0.00000E+00
    0.00000E+00         0.59958E-21         0.00000E+00
   -0.23414E-21         0.73114E-21         0.00000E+00
   -0.22004E-21         0.11559E-20         0.00000E+00
   -0.60819E-22         0.14898E-20         0.00000E+00
   -0.37749E-22         0.14088E-20         0.00000E+00
    0.95820E-22         0.11549E-20         0.00000E+00
    0.48155E-23         0.87432E-21         0.00000E+00
   -0.12735E-21         0.79767E-21         0.00000E+00
   -0.17304E-21         0.74674E-21         0.00000E+00
   -0.18764E-21         0.55361E-21         0.00000E+00
   -0.76112E-22         0.61315E-21         0.00000E+00
    0.84154E-22         0.71574E-21         0.00000E+00
    0.28317E-21         0.58744E-21         0.00000E+00
    0.17099E-21         0.52483E-21         0.00000E+00
    0.17615E-21         0.49773E-21         0.00000E+00
    0.21785E-21         0.22248E-21         0.00000E+00
    0.24914E-21         0.61369E-22         0.00000E+00
    0.30575E-21         0.11772E-21         0.00000E+00
    0.29019E-21         0.66656E-22         0.00000E+00
    0.18525E-21         0.43065E-22         0.00000E+00
    0.83292E-22         0.40154E-22         0.00000E+00
    0.37775E-22         0.44782E-22         0.00000E+00
    0.20038E-22         0.88472E-22         0.00000E+00
    0.24598E-22         0.52573E-22         0.00000E+00
    0.27967E-22         0.15653E-22         0.00000E+00
    0.00000E+00         0.11483E-20         0.00000E+00
   -0.43351E-21         0.10350E-20         0.00000E+00
   -0.53597E-21         0.99837E-21         0.00000E+00
   -0.28750E-21         0.11521E-20         0.00000E+00
   -0.86009E-22         0.11788E-20         0.00000E+00
    0.18696E-22         0.11081E-20         0.00000E+00
    0.27039E-22         0.10863E-20         0.00000E+00
   -0.72348E-22         0.95710E-21         0.00000E+00
   -0.15200E-22         0.75919E-21         0.00000E+00
   -0.75494E-22         0.55113E-21         0.00000E+00
   -0.13080E-21         0.45666E-21         0.00000E+00
   -0.14696E-22         0.51378E-21         0.00000E+00
    0.74050E-22         0.57122E-21         0.00000E+00
    0.15042E-21         0.50792E-21         0.00000E+00
    0.26357E-21         0.39367E-21         0.00000E+00
    0.30344E-21         0.25080E-21         0.00000E+00
    0.20199E-21         0.56834E-22         0.00000E+00
    0.22531E-21         0.62251E-22         0.00000E+00
    0.20727E-21         0.13114E-21         0.00000E+00
    0.13471E-21         0.15301E-21         0.00000E+00
    0.84875E-22         0.14210E-21         0.00000E+00
    0.13286E-22         0.10474E-21         0.00000E+00
    0.17739E-22         0.68100E-22         0.00000E+00
    0.40626E-22         0.35842E-22         0.00000E+00
    0.40769E-22         0.30640E-22         0.00000E+00
    0.00000E+00         0.14666E-20         0.00000E+00
    0.30679E-22         0.12671E-20         0.00000E+00
   -0.17270E-21         0.10099E-20         0.00000E+00
   -0.37070E-21         0.10398E-20         0.00000E+00
   -0.31611E-21         0.11026E-20         0.00000E+00
   -0.25907E-21         0.10419E-20         0.00000E+00
   -0.20242E-21         0.96537E-21         0.00000E+00
    0.35834E-22         0.83991E-21         0.00000E+00
    0.38153E-22         0.74989E-21         0.00000E+00
    0.61504E-22         0.66921E-21         0.00000E+00
   -0.12546E-21         0.55235E-21         0.00000E+00
   -0.11020E-21         0.51089E-21         0.00000E+00
   -0.74422E-22         0.42232E-21         0.00000E+00
    0.64370E-22         0.33531E-21         0.00000E+00
    0.11078E-21         0.34471E-21         0.00000E+00
    0.14092E-21         0.28405E-21         0.00000E+00
    0.12395E-21         0.13950E-21         0.00000E+00
    0.30149E-22         0.11244E-21         0.00000E+00
   -0.37218E-23         0.15725E-21         0.00000E+00
    0.12592E-22         0.16546E-21         0.00000E+00
    0.20698E-22         0.16158E-21         0.00000E+00
    0.30143E-22         0.11192E-21         0.00000E+00
    0.37883E-22         0.61132E-22         0.00000E+00
    0.29681E-22         0.29544E-22         0.00000E+00
    0.39445E-22         0.15367E-22         0.00000E+00
    0.00000E+00         0.10869E-20         0.00000E+00
    0.24595E-21         0.12077E-20         0.00000E+00
    0.69343E-22         0.13997E-20         0.00000E+00
   -0.23976E-21         0.12955E-20         0.00000E+00
   -0.33730E-21         0.10671E-20         0.00000E+00
   -0.21634E-21         0.99441E-21         0.00000E+00
   -0.12135E-21         0.79135E-21         0.00000E+00
   -0.54477E-22         0.71653E-21         0.00000E+00
    0.24430E-22         0.73352E-21         0.00000E+00
    0.63171E-22         0.71474E-21         0.00000E+00
    0.18892E-22         0.62837E-21         0.00000E+00
   -0.87896E-23         0.46275E-21         0.00000E+00
    0.43979E-22         0.39664E-21         0.00000E+00
   -0.25914E-22         0.32272E-21         0.00000E+00
   -0.31423E-22         0.31712E-21         0.00000E+00
    0.16729E-22         0.23763E-21         0.00000E+00
    0.30211E-22         0.16761E-21         0.00000E+00
   -0.41868E-22         0.18992E-21         0.00000E+00
   -0.51972E-22         0.14870E-21         0.00000E+00
   -0.40224E-22         0.12859E-21         0.00000E+00
   -0.17923E-22         0.12455E-21         0.00000E+00
    0.20323E-22         0.87558E-22         0.00000E+00
    0.33000E-22         0.68562E-22         0.00000E+00
    0.38918E-22         0.34279E-22         0.00000E+00
    0.45185E-22         0.11110E-22         0.00000E+00
    0.00000E+00         0.97470E-21         0.00000E+00
    0.33505E-23         0.11978E-20         0.00000E+00
   -0.46403E-22         0.14956E-20         0.00000E+00
   -0.49319E-22         0.14465E-20         0.00000E+00
   -0.12895E-21         0.10792E-20         0.00000E+00
   -0.83074E-22         0.82592E-21         0.00000E+00
   -0.79877E-23         0.80350E-21         0.00000E+00
   -0.97083E-22         0.69413E-21         0.00000E+00
    0.35053E-22         0.63224E-21         0.00000E+00
    0.39005E-22         0.67475E-21         0.00000E+00
    0.17086E-21         0.62431E-21         0.00000E+00
    0.12420E-21         0.48580E-21         0.00000E+00
    0.10441E-21         0.43945E-21         0.00000E+00
    0.53416E-22         0.41072E-21         0.00000E+00
    0.13446E-22         0.30207E-21         0.00000E+00
    0.10532E-22         0.22242E-21         0.00000E+00
   -0.40601E-22         0.19810E-21         0.00000E+00
   -0.13183E-22         0.19463E-21         0.00000E+00
   -0.85558E-23         0.15561E-21         0.00000E+00
   -0.49035E-22         0.13141E-21         0.00000E+00
   -0.32160E-22         0.10103E-21         0.00000E+00
   -0.48417E-23         0.60995E-22         0.00000E+00
    0.18838E-22         0.42538E-22         0.00000E+00
    0.40373E-22         0.17358E-22         0.00000E+00
    0.45815E-22         0.28329E-23         0.00000E+00
    0.00000E+00         0.10802E-20         0.00000E+00
   -0.10577E-21         0.12541E-20         0.00000E+00
   -0.85306E-22         0.14524E-20         0.00000E+00
   -0.52912E-22         0.13780E-20         0.00000E+00
   -0.16707E-23         0.11009E-20         0.00000E+00
    0.40562E-23         0.87344E-21         0.00000E+00
    0.88398E-23         0.80536E-21         0.00000E+00
   -0.25113E-22         0.67348E-21         0.00000E+00
   -0.89749E-22         0.59743E-21         0.00000E+00
   -0.64323E-23         0.57894E-21         0.00000E+00
    0.70697E-22         0.54317E-21         0.00000E+00
    0.10731E-21         0.52920E-21         0.00000E+00
    0.55605E-22         0.46742E-21         0.00000E+00
    0.62477E-22         0.41368E-21         0.00000E+00
    0.42676E-22         0.36000E-21         0.00000E+00
    0.25684E-23         0.29168E-21         0.00000E+00
   -0.49609E-22         0.19132E-21         0.00000E+00
   -0.13993E-22         0.15787E-21         0.00000E+00
   -0.60434E-23         0.18455E-21         0.00000E+00
   -0.39834E-22         0.15220E-21         0.00000E+00
   -0.37369E-22         0.80358E-22         0.00000E+00
   -0.55353E-23         0.36559E-22         0.00000E+00
   -0.50087E-23         0.23347E-22         0.00000E+00
    0.15275E-22         0.73027E-23         0.00000E+00
    0.24859E-22         0.22705E-24         0.00000E+00
    0.00000E+00         0.11862E-20         0.00000E+00
   -0.10602E-21         0.12831E-20         0.00000E+00
   -0.57927E-22         0.14427E-20         0.00000E+00
   -0.86659E-22         0.13628E-20         0.00000E+00
   -0.27538E-22         0.10222E-20         0.00000E+00
    0.70737E-22         0.81541E-21         0.00000E+00
    0.88526E-22         0.83267E-21         0.00000E+00
    0.16116E-22         0.79272E-21         0.00000E+00
   -0.14994E-21         0.61356E-21         0.00000E+00
   -0.16148E-22         0.51430E-21         0.00000E+00
   -0.20667E-22         0.51056E-21         0.00000E+00
    0.49073E-22         0.50090E-21         0.00000E+00
    0.35930E-22         0.48428E-21         0.00000E+00
    0.15349E-22         0.42364E-21         0.00000E+00
    0.16007E-22         0.36198E-21         0.00000E+00
    0.11396E-22         0.31470E-21         0.00000E+00
   -0.30043E-22         0.21466E-21         0.00000E+00
   -0.35271E-22         0.15106E-21         0.00000E+00
   -0.16419E-22         0.18145E-21         0.00000E+00
   -0.29073E-22         0.16274E-21         0.00000E+00
   -0.37494E-22         0.66732E-22         0.00000E+00
   -0.18212E-23         0.28634E-22         0.00000E+00
   -0.21644E-22         0.21727E-22         0.00000E+00
    0.14180E-23        -0.12510E-22         0.00000E+00
    0.17981E-22        -0.16336E-22         0.00000E+00
CELL_DATA       1152
TENSORS stressef double 
   -0.50391E+05         0.36730E+03         0.00000E+00
    0.36730E+03        -0.10022E+06         0.00000E+00
    0.00000E+00         0.00000E+00        -0.56226E+05
 
   -0.40546E+05         0.26486E+04         0.00000E+00
    0.26486E+04        -0.96900E+05         0.00000E+00
    0.00000E+00         0.00000E+00        -0.65782E+05
 
   -0.34885E+05         0.38063E+04         0.00000E+00
    0.38063E+04        -0.88952E+05         0.00000E+00
    0.00000E+00         0.00000E+00        -0.63209E+05
 
   -0.29645E+05         0.40509E+04         0.00000E+00
    0.40509E+04        -0.80509E+05         0.00000E+00
    0.00000E+00         0.00000E+00        -0.57496E+05
 
   -0.24761E+05         0.38935E+04         0.00000E+00
    0.38935E+04        -0.72692E+05         0.00000E+00
    0.00000E+00         0.00000E+00        -0.51282E+05
 
   -0.20330E+05         0.35934E+04         0.00000E+00
    0.35934E+04        -0.65568E+05         0.00000E+00
    0.00000E+00         0.00000E+00        -0.45219E+05
 
   -0.16348E+05         0.32081E+04         0.00000E+00
    0.32081E+04        -0.59151E+05         0.00000E+00
    0.00000E+00         0.00000E+00        -0.39561E+05
 
   -0.13259E+05         0.27880E+04         0.00000E+00
    0.27880E+04        -0.53412E+05         0.00000E+00
    0.00000E+00         0.00000E+00        -0.34605E+05
 
   -0.10653E+05         0.24213E+04         0.00000E+00
    0.24213E+04        -0.48357E+05         0.00000E+00
    0.00000E+00         0.00000E+00        -0.30293E+05
 
   -0.83767E+04         0.20929E+04         0.00000E+00
    0.20929E+04        -0.43954E+05         0.00000E+00
    0.00000E+00         0.00000E+00        -0.26573E+05
 
   -0.64942E+04         0.18174E+04         0.00000E+00
    0.18174E+04        -0.40076E+05         0.00000E+00
    0.00000E+00         0.00000E+00        -0.23398E+05
 
   -0.48386E+04         0.16290E+04         0.00000E+00
    0.16290E+04        -0.36660E+05         0.00000E+00
    0.00000E+00         0.00000E+00        -0.20596E+05
 
   -0.33193E+04         0.14654E+04         0.00000E+00
    0.14654E+04        -0.33629E+05         0.00000E+00
    0.00000E+00         0.00000E+00        -0.18044E+05
 
   -0.19102E+04         0.13215E+04         0.00000E+00
    0.13215E+04        -0.30891E+05         0.00000E+00
    0.00000E+00         0.00000E+00        -0.15675E+05
 
   -0.62664E+03         0.11691E+04         0.00000E+00
    0.11691E+04        -0.28436E+05         0.00000E+00
    0.00000E+00         0.00000E+00        -0.13468E+05
 
    0.38828E+03         0.10430E+04         0.00000E+00
    0.10430E+04        -0.26254E+05         0.00000E+00
    0.00000E+00         0.00000E+00        -0.11469E+05
 
    0.12312E+04         0.89577E+03         0.00000E+00
    0.89577E+03        -0.24359E+05         0.00000E+00
    0.00000E+00         0.00000E+00        -0.96121E+04
 
    0.19401E+04         0.79589E+03         0.00000E+00
    0.79589E+03        -0.22703E+05         0.00000E+00
    0.00000E+00         0.00000E+00        -0.79618E+04
 
    0.25345E+04         0.70734E+03         0.00000E+00
    0.70734E+03        -0.21226E+05         0.00000E+00
    0.00000E+00         0.00000E+00        -0.64142E+04
 
    0.27045E+04         0.63230E+03         0.00000E+00
    0.63230E+03        -0.19901E+05         0.00000E+00
    0.00000E+00         0.00000E+00        -0.52517E+04
 
    0.78899E+03         0.54023E+03         0.00000E+00
    0.54023E+03        -0.18737E+05         0.00000E+00
    0.00000E+00         0.00000E+00        -0.53843E+04
 
   -0.13049E+04         0.48390E+03         0.00000E+00
    0.48390E+03        -0.17720E+05         0.00000E+00
    0.00000E+00         0.00000E+00        -0.57075E+04
 
   -0.33711E+04         0.46006E+03         0.00000E+00
    0.46006E+03        -0.16781E+05         0.00000E+00
    0.00000E+00         0.00000E+00        -0.60456E+04
 
   -0.55070E+04         0.46042E+03         0.00000E+00
    0.46042E+03        -0.15865E+05         0.00000E+00
    0.00000E+00         0.00000E+00        -0.64115E+04
 
   -0.46905E+05         0.27391E+04         0.00000E+00
    0.27391E+04        -0.99614E+05         0.00000E+00
    0.00000E+00         0.00000E+00        -0.59029E+05
 
   -0.37182E+05         0.97166E+04         0.00000E+00
    0.97166E+04        -0.88863E+05         0.00000E+00
    0.00000E+00         0.00000E+00        -0.63738E+05
 
   -0.33484E+05         0.11696E+05         0.00000E+00
    0.11696E+05        -0.80360E+05         0.00000E+00
    0.00000E+00         0.00000E+00        -0.59430E+05
 
   -0.29650E+05         0.11870E+05         0.00000E+00
    0.11870E+05        -0.73326E+05         0.00000E+00
    0.00000E+00         0.00000E+00        -0.54320E+05
 
   -0.25346E+05         0.11185E+05         0.00000E+00
    0.11185E+05        -0.66651E+05         0.00000E+00
    0.00000E+00         0.00000E+00        -0.48714E+05
 
   -0.21103E+05         0.10180E+05         0.00000E+00
    0.10180E+05        -0.60606E+05         0.00000E+00
    0.00000E+00         0.00000E+00        -0.43217E+05
 
   -0.17293E+05         0.90435E+04         0.00000E+00
    0.90435E+04        -0.55212E+05         0.00000E+00
    0.00000E+00         0.00000E+00        -0.38134E+05
 
   -0.14047E+05         0.79392E+04         0.00000E+00
    0.79392E+04        -0.50454E+05         0.00000E+00
    0.00000E+00         0.00000E+00        -0.33598E+05
 
   -0.11359E+05         0.69290E+04         0.00000E+00
    0.69290E+04        -0.46145E+05         0.00000E+00
    0.00000E+00         0.00000E+00        -0.29593E+05
 
   -0.89791E+04         0.60580E+04         0.00000E+00
    0.60580E+04        -0.42208E+05         0.00000E+00
    0.00000E+00         0.00000E+00        -0.26015E+05
 
   -0.69214E+04         0.53488E+04         0.00000E+00
    0.53488E+04        -0.38725E+05         0.00000E+00
    0.00000E+00         0.00000E+00        -0.22876E+05
 
   -0.51691E+04         0.47850E+04         0.00000E+00
    0.47850E+04        -0.35551E+05         0.00000E+00
    0.00000E+00         0.00000E+00        -0.20117E+05
 
   -0.36323E+04         0.42983E+04         0.00000E+00
    0.42983E+04        -0.32658E+05         0.00000E+00
    0.00000E+00         0.00000E+00        -0.17626E+05
 
   -0.21938E+04         0.38774E+04         0.00000E+00
    0.38774E+04        -0.30101E+05         0.00000E+00
    0.00000E+00         0.00000E+00        -0.15307E+05
 
   -0.92462E+03         0.34478E+04         0.00000E+00
    0.34478E+04        -0.27827E+05         0.00000E+00
    0.00000E+00         0.00000E+00        -0.13185E+05
 
    0.11973E+03         0.30234E+04         0.00000E+00
    0.30234E+04        -0.25818E+05         0.00000E+00
    0.00000E+00         0.00000E+00        -0.11265E+05
 
    0.99390E+03         0.26574E+04         0.00000E+00
    0.26574E+04        -0.24029E+05         0.00000E+00
    0.00000E+00         0.00000E+00        -0.94461E+04
 
    0.17507E+04         0.23527E+04         0.00000E+00
    0.23527E+04        -0.22425E+05         0.00000E+00
    0.00000E+00         0.00000E+00        -0.78184E+04
 
    0.23768E+04         0.21001E+04         0.00000E+00
    0.21001E+04        -0.21004E+05         0.00000E+00
    0.00000E+00         0.00000E+00        -0.63129E+04
 
    0.25249E+04         0.18769E+04         0.00000E+00
    0.18769E+04        -0.19710E+05         0.00000E+00
    0.00000E+00         0.00000E+00        -0.52244E+04
 
    0.63689E+03         0.16069E+04         0.00000E+00
    0.16069E+04        -0.18585E+05         0.00000E+00
    0.00000E+00         0.00000E+00        -0.53845E+04
 
   -0.13809E+04         0.14443E+04         0.00000E+00
    0.14443E+04        -0.17587E+05         0.00000E+00
    0.00000E+00         0.00000E+00        -0.56904E+04
 
   -0.33933E+04         0.13733E+04         0.00000E+00
    0.13733E+04        -0.16662E+05         0.00000E+00
    0.00000E+00         0.00000E+00        -0.60165E+04
 
   -0.54856E+04         0.13738E+04         0.00000E+00
    0.13738E+04        -0.15760E+05         0.00000E+00
    0.00000E+00         0.00000E+00        -0.63738E+04
 
   -0.34308E+05         0.16166E+05         0.00000E+00
    0.16166E+05        -0.75384E+05         0.00000E+00
    0.00000E+00         0.00000E+00        -0.55713E+05
 
   -0.33389E+05         0.18376E+05         0.00000E+00
    0.18376E+05        -0.64371E+05         0.00000E+00
    0.00000E+00         0.00000E+00        -0.52842E+05
 
   -0.33536E+05         0.18913E+05         0.00000E+00
    0.18913E+05        -0.61966E+05         0.00000E+00
    0.00000E+00         0.00000E+00        -0.51523E+05
 
   -0.30579E+05         0.17942E+05         0.00000E+00
    0.17942E+05        -0.58431E+05         0.00000E+00
    0.00000E+00         0.00000E+00        -0.47919E+05
 
   -0.26760E+05         0.16566E+05         0.00000E+00
    0.16566E+05        -0.55017E+05         0.00000E+00
    0.00000E+00         0.00000E+00        -0.43895E+05
 
   -0.22640E+05         0.14973E+05         0.00000E+00
    0.14973E+05        -0.51500E+05         0.00000E+00
    0.00000E+00         0.00000E+00        -0.39628E+05
 
   -0.18792E+05         0.13368E+05         0.00000E+00
    0.13368E+05        -0.48055E+05         0.00000E+00
    0.00000E+00         0.00000E+00        -0.35481E+05
 
   -0.15435E+05         0.11880E+05         0.00000E+00
    0.11880E+05        -0.44737E+05         0.00000E+00
    0.00000E+00         0.00000E+00        -0.31594E+05
 
   -0.12522E+05         0.10622E+05         0.00000E+00
    0.10622E+05        -0.41612E+05         0.00000E+00
    0.00000E+00         0.00000E+00        -0.28020E+05
 
   -0.99566E+04         0.94652E+04         0.00000E+00
    0.94652E+04        -0.38612E+05         0.00000E+00
    0.00000E+00         0.00000E+00        -0.24768E+05
 
   -0.77452E+04         0.84419E+04         0.00000E+00
    0.84419E+04        -0.35718E+05         0.00000E+00
    0.00000E+00         0.00000E+00        -0.21794E+05
 
   -0.58439E+04         0.75695E+04         0.00000E+00
    0.75695E+04        -0.33140E+05         0.00000E+00
    0.00000E+00         0.00000E+00        -0.19138E+05
 
   -0.42040E+04         0.68304E+04         0.00000E+00
    0.68304E+04        -0.30829E+05         0.00000E+00
    0.00000E+00         0.00000E+00        -0.16768E+05
 
   -0.27501E+04         0.61366E+04         0.00000E+00
    0.61366E+04        -0.28684E+05         0.00000E+00
    0.00000E+00         0.00000E+00        -0.14613E+05
 
   -0.14931E+04         0.54808E+04         0.00000E+00
    0.54808E+04        -0.26720E+05         0.00000E+00
    0.00000E+00         0.00000E+00        -0.12623E+05
 
   -0.38869E+03         0.48451E+04         0.00000E+00
    0.48451E+04        -0.24951E+05         0.00000E+00
    0.00000E+00         0.00000E+00        -0.10746E+05
 
    0.57353E+03         0.42774E+04         0.00000E+00
    0.42774E+04        -0.23346E+05         0.00000E+00
    0.00000E+00         0.00000E+00        -0.90464E+04
 
    0.13887E+04         0.38061E+04         0.00000E+00
    0.38061E+04        -0.21894E+05         0.00000E+00
    0.00000E+00         0.00000E+00        -0.75201E+04
 
    0.20778E+04         0.34279E+04         0.00000E+00
    0.34279E+04        -0.20566E+05         0.00000E+00
    0.00000E+00         0.00000E+00        -0.61163E+04
 
    0.21726E+04         0.30632E+04         0.00000E+00
    0.30632E+04        -0.19352E+05         0.00000E+00
    0.00000E+00         0.00000E+00        -0.51739E+04
 
    0.34950E+03         0.26406E+04         0.00000E+00
    0.26406E+04        -0.18272E+05         0.00000E+00
    0.00000E+00         0.00000E+00        -0.53767E+04
 
   -0.15292E+04         0.23831E+04         0.00000E+00
    0.23831E+04        -0.17308E+05         0.00000E+00
    0.00000E+00         0.00000E+00        -0.56512E+04
 
   -0.34392E+04         0.22644E+04         0.00000E+00
    0.22644E+04        -0.16414E+05         0.00000E+00
    0.00000E+00         0.00000E+00        -0.59559E+04
 
   -0.54425E+04         0.22634E+04         0.00000E+00
    0.22634E+04        -0.15545E+05         0.00000E+00
    0.00000E+00         0.00000E+00        -0.62962E+04
 
   -0.13667E+05         0.14261E+05         0.00000E+00
    0.14261E+05        -0.27519E+05         0.00000E+00
    0.00000E+00         0.00000E+00        -0.24696E+05
 
   -0.33315E+05         0.19993E+05         0.00000E+00
    0.19993E+05        -0.37879E+05         0.00000E+00
    0.00000E+00         0.00000E+00        -0.41094E+05
 
   -0.33834E+05         0.19630E+05         0.00000E+00
    0.19630E+05        -0.37797E+05         0.00000E+00
    0.00000E+00         0.00000E+00        -0.40565E+05
 
   -0.31843E+05         0.19156E+05         0.00000E+00
    0.19156E+05        -0.38809E+05         0.00000E+00
    0.00000E+00         0.00000E+00        -0.39546E+05
 
   -0.28267E+05         0.18222E+05         0.00000E+00
    0.18222E+05        -0.38968E+05         0.00000E+00
    0.00000E+00         0.00000E+00        -0.37283E+05
 
   -0.24305E+05         0.17046E+05         0.00000E+00
    0.17046E+05        -0.38593E+05         0.00000E+00
    0.00000E+00         0.00000E+00        -0.34534E+05
 
   -0.20436E+05         0.15706E+05         0.00000E+00
    0.15706E+05        -0.37658E+05         0.00000E+00
    0.00000E+00         0.00000E+00        -0.31522E+05
 
   -0.16926E+05         0.14338E+05         0.00000E+00
    0.14338E+05        -0.36332E+05         0.00000E+00
    0.00000E+00         0.00000E+00        -0.28473E+05
 
   -0.13889E+05         0.13037E+05         0.00000E+00
    0.13037E+05        -0.34814E+05         0.00000E+00
    0.00000E+00         0.00000E+00        -0.25514E+05
 
   -0.11146E+05         0.11875E+05         0.00000E+00
    0.11875E+05        -0.33248E+05         0.00000E+00
    0.00000E+00         0.00000E+00        -0.22674E+05
 
   -0.87931E+04         0.10766E+05         0.00000E+00
    0.10766E+05        -0.31607E+05         0.00000E+00
    0.00000E+00         0.00000E+00        -0.20065E+05
 
   -0.67725E+04         0.96977E+04         0.00000E+00
    0.96977E+04        -0.29870E+05         0.00000E+00
    0.00000E+00         0.00000E+00        -0.17688E+05
 
   -0.50155E+04         0.87620E+04         0.00000E+00
    0.87620E+04        -0.28192E+05         0.00000E+00
    0.00000E+00         0.00000E+00        -0.15537E+05
 
   -0.35112E+04         0.79189E+04         0.00000E+00
    0.79189E+04        -0.26640E+05         0.00000E+00
    0.00000E+00         0.00000E+00        -0.13603E+05
 
   -0.22066E+04         0.71244E+04         0.00000E+00
    0.71244E+04        -0.25200E+05         0.00000E+00
    0.00000E+00         0.00000E+00        -0.11804E+05
 
   -0.10641E+04         0.63871E+04         0.00000E+00
    0.63871E+04        -0.23832E+05         0.00000E+00
    0.00000E+00         0.00000E+00        -0.10128E+05
 
   -0.26000E+02         0.57347E+04         0.00000E+00
    0.57347E+04        -0.22452E+05         0.00000E+00
    0.00000E+00         0.00000E+00        -0.85749E+04
 
    0.91722E+03         0.51302E+04         0.00000E+00
    0.51302E+04        -0.21118E+05         0.00000E+00
    0.00000E+00         0.00000E+00        -0.71372E+04
 
    0.17001E+04         0.46607E+04         0.00000E+00
    0.46607E+04        -0.19885E+05         0.00000E+00
    0.00000E+00         0.00000E+00        -0.58498E+04
 
    0.16256E+04         0.41619E+04         0.00000E+00
    0.41619E+04        -0.18763E+05         0.00000E+00
    0.00000E+00         0.00000E+00        -0.51412E+04
 
   -0.43840E+02         0.36219E+04         0.00000E+00
    0.36219E+04        -0.17765E+05         0.00000E+00
    0.00000E+00         0.00000E+00        -0.53427E+04
 
   -0.17473E+04         0.32798E+04         0.00000E+00
    0.32798E+04        -0.16863E+05         0.00000E+00
    0.00000E+00         0.00000E+00        -0.55830E+04
 
   -0.35104E+04         0.31135E+04         0.00000E+00
    0.31135E+04        -0.16023E+05         0.00000E+00
    0.00000E+00         0.00000E+00        -0.58602E+04
 
   -0.53774E+04         0.31096E+04         0.00000E+00
    0.31096E+04        -0.15209E+05         0.00000E+00
    0.00000E+00         0.00000E+00        -0.61759E+04
 
   -0.53469E+04         0.32349E+04         0.00000E+00
    0.32349E+04         0.36723E+04         0.00000E+00
    0.00000E+00         0.00000E+00         0.23212E+03
 
   -0.27103E+05         0.11085E+05         0.00000E+00
    0.11085E+05        -0.97059E+04         0.00000E+00
    0.00000E+00         0.00000E+00        -0.19807E+05
 
   -0.32124E+05         0.14176E+05         0.00000E+00
    0.14176E+05        -0.17695E+05         0.00000E+00
    0.00000E+00         0.00000E+00        -0.27674E+05
 
   -0.30963E+05         0.15562E+05         0.00000E+00
    0.15562E+05        -0.21987E+05         0.00000E+00
    0.00000E+00         0.00000E+00        -0.29206E+05
 
   -0.28342E+05         0.16162E+05         0.00000E+00
    0.16162E+05        -0.24972E+05         0.00000E+00
    0.00000E+00         0.00000E+00        -0.29112E+05
 
   -0.24962E+05         0.16103E+05         0.00000E+00
    0.16103E+05        -0.26821E+05         0.00000E+00
    0.00000E+00         0.00000E+00        -0.27933E+05
 
   -0.21430E+05         0.15590E+05         0.00000E+00
    0.15590E+05        -0.27861E+05         0.00000E+00
    0.00000E+00         0.00000E+00        -0.26198E+05
 
   -0.18058E+05         0.14789E+05         0.00000E+00
    0.14789E+05        -0.28262E+05         0.00000E+00
    0.00000E+00         0.00000E+00        -0.24178E+05
 
   -0.15009E+05         0.13853E+05         0.00000E+00
    0.13853E+05        -0.28171E+05         0.00000E+00
    0.00000E+00         0.00000E+00        -0.22050E+05
 
   -0.12272E+05         0.12870E+05         0.00000E+00
    0.12870E+05        -0.27744E+05         0.00000E+00
    0.00000E+00         0.00000E+00        -0.19909E+05
 
   -0.98618E+04         0.11908E+05         0.00000E+00
    0.11908E+05        -0.27142E+05         0.00000E+00
    0.00000E+00         0.00000E+00        -0.17841E+05
 
   -0.77535E+04         0.10979E+05         0.00000E+00
    0.10979E+05        -0.26368E+05         0.00000E+00
    0.00000E+00         0.00000E+00        -0.15892E+05
 
   -0.59144E+04         0.10067E+05         0.00000E+00
    0.10067E+05        -0.25391E+05         0.00000E+00
    0.00000E+00         0.00000E+00        -0.14077E+05
 
   -0.43694E+04         0.91818E+04         0.00000E+00
    0.91818E+04        -0.24354E+05         0.00000E+00
    0.00000E+00         0.00000E+00        -0.12417E+05
 
   -0.29850E+04         0.83396E+04         0.00000E+00
    0.83396E+04        -0.23314E+05         0.00000E+00
    0.00000E+00         0.00000E+00        -0.10870E+05
 
   -0.17770E+04         0.76113E+04         0.00000E+00
    0.76113E+04        -0.22205E+05         0.00000E+00
    0.00000E+00         0.00000E+00        -0.94383E+04
 
   -0.69009E+03         0.69418E+04         0.00000E+00
    0.69418E+04        -0.21129E+05         0.00000E+00
    0.00000E+00         0.00000E+00        -0.80770E+04
 
    0.34342E+03         0.63231E+04         0.00000E+00
    0.63231E+04        -0.20069E+05         0.00000E+00
    0.00000E+00         0.00000E+00        -0.67235E+04
 
    0.12771E+04         0.57860E+04         0.00000E+00
    0.57860E+04        -0.18954E+05         0.00000E+00
    0.00000E+00         0.00000E+00        -0.55141E+04
 
    0.91327E+03         0.51595E+04         0.00000E+00
    0.51595E+04        -0.17920E+05         0.00000E+00
    0.00000E+00         0.00000E+00        -0.51021E+04
 
   -0.52612E+03         0.45179E+04         0.00000E+00
    0.45179E+04        -0.17043E+05         0.00000E+00
    0.00000E+00         0.00000E+00        -0.52707E+04
 
   -0.20290E+04         0.41035E+04         0.00000E+00
    0.41035E+04        -0.16239E+05         0.00000E+00
    0.00000E+00         0.00000E+00        -0.54804E+04
 
   -0.36066E+04         0.38952E+04         0.00000E+00
    0.38952E+04        -0.15486E+05         0.00000E+00
    0.00000E+00         0.00000E+00        -0.57277E+04
 
   -0.52900E+04         0.38895E+04         0.00000E+00
    0.38895E+04        -0.14750E+05         0.00000E+00
    0.00000E+00         0.00000E+00        -0.60120E+04
 
    0.33639E+03        -0.11882E+04         0.00000E+00
   -0.11882E+04        -0.16838E+04         0.00000E+00
    0.00000E+00         0.00000E+00        -0.16420E+03
 
   -0.24262E+05         0.58099E+04         0.00000E+00
    0.58099E+04        -0.31118E+04         0.00000E+00
    0.00000E+00         0.00000E+00        -0.10025E+05
 
   -0.28863E+05         0.95685E+04         0.00000E+00
    0.95685E+04        -0.92097E+04         0.00000E+00
    0.00000E+00         0.00000E+00        -0.18316E+05
 
   -0.29153E+05         0.11881E+05         0.00000E+00
    0.11881E+05        -0.13479E+05         0.00000E+00
    0.00000E+00         0.00000E+00        -0.21768E+05
 
   -0.27273E+05         0.13319E+05         0.00000E+00
    0.13319E+05        -0.16587E+05         0.00000E+00
    0.00000E+00         0.00000E+00        -0.22791E+05
 
   -0.24636E+05         0.14068E+05         0.00000E+00
    0.14068E+05        -0.18911E+05         0.00000E+00
    0.00000E+00         0.00000E+00        -0.22591E+05
 
   -0.21632E+05         0.14282E+05         0.00000E+00
    0.14282E+05        -0.20587E+05         0.00000E+00
    0.00000E+00         0.00000E+00        -0.21711E+05
 
   -0.18606E+05         0.14091E+05         0.00000E+00
    0.14091E+05        -0.21700E+05         0.00000E+00
    0.00000E+00         0.00000E+00        -0.20427E+05
 
   -0.15747E+05         0.13634E+05         0.00000E+00
    0.13634E+05        -0.22353E+05         0.00000E+00
    0.00000E+00         0.00000E+00        -0.18938E+05
 
   -0.13116E+05         0.13006E+05         0.00000E+00
    0.13006E+05        -0.22633E+05         0.00000E+00
    0.00000E+00         0.00000E+00        -0.17346E+05
 
   -0.10738E+05         0.12268E+05         0.00000E+00
    0.12268E+05        -0.22615E+05         0.00000E+00
    0.00000E+00         0.00000E+00        -0.15732E+05
 
   -0.86043E+04         0.11540E+05         0.00000E+00
    0.11540E+05        -0.22382E+05         0.00000E+00
    0.00000E+00         0.00000E+00        -0.14132E+05
 
   -0.67729E+04         0.10766E+05         0.00000E+00
    0.10766E+05        -0.22038E+05         0.00000E+00
    0.00000E+00         0.00000E+00        -0.12647E+05
 
   -0.51816E+04         0.99913E+04         0.00000E+00
    0.99913E+04        -0.21522E+05         0.00000E+00
    0.00000E+00         0.00000E+00        -0.11256E+05
 
   -0.37702E+04         0.92553E+04         0.00000E+00
    0.92553E+04        -0.20804E+05         0.00000E+00
    0.00000E+00         0.00000E+00        -0.99528E+04
 
   -0.24763E+04         0.85359E+04         0.00000E+00
    0.85359E+04        -0.20024E+05         0.00000E+00
    0.00000E+00         0.00000E+00        -0.86863E+04
 
   -0.13432E+04         0.78591E+04         0.00000E+00
    0.78591E+04        -0.19230E+05         0.00000E+00
    0.00000E+00         0.00000E+00        -0.74664E+04
 
   -0.22848E+03         0.72841E+04         0.00000E+00
    0.72841E+04        -0.18419E+05         0.00000E+00
    0.00000E+00         0.00000E+00        -0.62236E+04
 
    0.76161E+03         0.67704E+04         0.00000E+00
    0.67704E+04        -0.17586E+05         0.00000E+00
    0.00000E+00         0.00000E+00        -0.51440E+04
 
    0.94004E+02         0.59908E+04         0.00000E+00
    0.59908E+04        -0.16813E+05         0.00000E+00
    0.00000E+00         0.00000E+00        -0.50157E+04
 
   -0.10801E+04         0.52840E+04         0.00000E+00
    0.52840E+04        -0.16111E+05         0.00000E+00
    0.00000E+00         0.00000E+00        -0.51572E+04
 
   -0.23610E+04         0.48173E+04         0.00000E+00
    0.48173E+04        -0.15450E+05         0.00000E+00
    0.00000E+00         0.00000E+00        -0.53432E+04
 
   -0.37207E+04         0.45829E+04         0.00000E+00
    0.45829E+04        -0.14812E+05         0.00000E+00
    0.00000E+00         0.00000E+00        -0.55597E+04
 
   -0.51809E+04         0.45806E+04         0.00000E+00
    0.45806E+04        -0.14178E+05         0.00000E+00
    0.00000E+00         0.00000E+00        -0.58075E+04
 
    0.94886E+03        -0.17039E+04         0.00000E+00
   -0.17039E+04         0.49000E+02         0.00000E+00
    0.00000E+00         0.00000E+00         0.35061E+03
 
   -0.18633E+05         0.80513E+03         0.00000E+00
    0.80513E+03        -0.13738E+04         0.00000E+00
    0.00000E+00         0.00000E+00        -0.60021E+04
 
   -0.26652E+05         0.61350E+04         0.00000E+00
    0.61350E+04        -0.49879E+04         0.00000E+00
    0.00000E+00         0.00000E+00        -0.12163E+05
 
   -0.26866E+05         0.88909E+04         0.00000E+00
    0.88909E+04        -0.83077E+04         0.00000E+00
    0.00000E+00         0.00000E+00        -0.15722E+05
 
   -0.25819E+05         0.10756E+05         0.00000E+00
    0.10756E+05        -0.11200E+05         0.00000E+00
    0.00000E+00         0.00000E+00        -0.17432E+05
 
   -0.23743E+05         0.12012E+05         0.00000E+00
    0.12012E+05        -0.13532E+05         0.00000E+00
    0.00000E+00         0.00000E+00        -0.17925E+05
 
   -0.21274E+05         0.12691E+05         0.00000E+00
    0.12691E+05        -0.15312E+05         0.00000E+00
    0.00000E+00         0.00000E+00        -0.17677E+05
 
   -0.18639E+05         0.12948E+05         0.00000E+00
    0.12948E+05        -0.16671E+05         0.00000E+00
    0.00000E+00         0.00000E+00        -0.16960E+05
 
   -0.16062E+05         0.12881E+05         0.00000E+00
    0.12881E+05        -0.17656E+05         0.00000E+00
    0.00000E+00         0.00000E+00        -0.15976E+05
 
   -0.13629E+05         0.12588E+05         0.00000E+00
    0.12588E+05        -0.18329E+05         0.00000E+00
    0.00000E+00         0.00000E+00        -0.14829E+05
 
   -0.11342E+05         0.12166E+05         0.00000E+00
    0.12166E+05        -0.18723E+05         0.00000E+00
    0.00000E+00         0.00000E+00        -0.13573E+05
 
   -0.92757E+04         0.11624E+05         0.00000E+00
    0.11624E+05        -0.18892E+05         0.00000E+00
    0.00000E+00         0.00000E+00        -0.12303E+05
 
   -0.74748E+04         0.11037E+05         0.00000E+00
    0.11037E+05        -0.18828E+05         0.00000E+00
    0.00000E+00         0.00000E+00        -0.11097E+05
 
   -0.58745E+04         0.10419E+05         0.00000E+00
    0.10419E+05        -0.18585E+05         0.00000E+00
    0.00000E+00         0.00000E+00        -0.99498E+04
 
   -0.44468E+04         0.97933E+04         0.00000E+00
    0.97933E+04        -0.18255E+05         0.00000E+00
    0.00000E+00         0.00000E+00        -0.88637E+04
 
   -0.31403E+04         0.91719E+04         0.00000E+00
    0.91719E+04        -0.17824E+05         0.00000E+00
    0.00000E+00         0.00000E+00        -0.77694E+04
 
   -0.19320E+04         0.85745E+04         0.00000E+00
    0.85745E+04        -0.17271E+05         0.00000E+00
    0.00000E+00         0.00000E+00        -0.66786E+04
 
   -0.77438E+03         0.80332E+04         0.00000E+00
    0.80332E+04        -0.16616E+05         0.00000E+00
    0.00000E+00         0.00000E+00        -0.56677E+04
 
    0.49807E+02         0.74566E+04         0.00000E+00
    0.74566E+04        -0.15971E+05         0.00000E+00
    0.00000E+00         0.00000E+00        -0.48140E+04
 
   -0.71328E+03         0.65799E+04         0.00000E+00
    0.65799E+04        -0.15497E+05         0.00000E+00
    0.00000E+00         0.00000E+00        -0.48631E+04
 
   -0.16787E+04         0.58665E+04         0.00000E+00
    0.58665E+04        -0.15029E+05         0.00000E+00
    0.00000E+00         0.00000E+00        -0.50124E+04
 
   -0.27151E+04         0.53907E+04         0.00000E+00
    0.53907E+04        -0.14538E+05         0.00000E+00
    0.00000E+00         0.00000E+00        -0.51760E+04
 
   -0.38388E+04         0.51553E+04         0.00000E+00
    0.51553E+04        -0.14034E+05         0.00000E+00
    0.00000E+00         0.00000E+00        -0.53619E+04
 
   -0.50506E+04         0.51650E+04         0.00000E+00
    0.51650E+04        -0.13515E+05         0.00000E+00
    0.00000E+00         0.00000E+00        -0.55698E+04
 
   -0.85879E+03        -0.17690E+04         0.00000E+00
   -0.17690E+04        -0.28083E+02         0.00000E+00
    0.00000E+00         0.00000E+00        -0.26606E+03
 
   -0.14035E+05        -0.11455E+04         0.00000E+00
   -0.11455E+04        -0.32864E+03         0.00000E+00
    0.00000E+00         0.00000E+00        -0.43091E+04
 
   -0.23208E+05         0.29835E+04         0.00000E+00
    0.29835E+04        -0.14805E+04         0.00000E+00
    0.00000E+00         0.00000E+00        -0.76369E+04
 
   -0.24778E+05         0.62787E+04         0.00000E+00
    0.62787E+04        -0.46971E+04         0.00000E+00
    0.00000E+00         0.00000E+00        -0.11370E+05
 
   -0.24089E+05         0.84507E+04         0.00000E+00
    0.84507E+04        -0.71061E+04         0.00000E+00
    0.00000E+00         0.00000E+00        -0.13210E+05
 
   -0.22523E+05         0.10024E+05         0.00000E+00
    0.10024E+05        -0.92865E+04         0.00000E+00
    0.00000E+00         0.00000E+00        -0.13934E+05
 
   -0.20561E+05         0.11079E+05         0.00000E+00
    0.11079E+05        -0.11179E+05         0.00000E+00
    0.00000E+00         0.00000E+00        -0.14109E+05
 
   -0.18317E+05         0.11676E+05         0.00000E+00
    0.11676E+05        -0.12665E+05         0.00000E+00
    0.00000E+00         0.00000E+00        -0.13789E+05
 
   -0.16049E+05         0.11923E+05         0.00000E+00
    0.11923E+05        -0.13809E+05         0.00000E+00
    0.00000E+00         0.00000E+00        -0.13195E+05
 
   -0.13819E+05         0.11917E+05         0.00000E+00
    0.11917E+05        -0.14651E+05         0.00000E+00
    0.00000E+00         0.00000E+00        -0.12395E+05
 
   -0.11692E+05         0.11738E+05         0.00000E+00
    0.11738E+05        -0.15235E+05         0.00000E+00
    0.00000E+00         0.00000E+00        -0.11466E+05
 
   -0.97379E+04         0.11432E+05         0.00000E+00
    0.11432E+05        -0.15589E+05         0.00000E+00
    0.00000E+00         0.00000E+00        -0.10482E+05
 
   -0.79966E+04         0.11021E+05         0.00000E+00
    0.11021E+05        -0.15783E+05         0.00000E+00
    0.00000E+00         0.00000E+00        -0.95297E+04
 
   -0.64293E+04         0.10558E+05         0.00000E+00
    0.10558E+05        -0.15833E+05         0.00000E+00
    0.00000E+00         0.00000E+00        -0.86046E+04
 
   -0.50032E+04         0.10065E+05         0.00000E+00
    0.10065E+05        -0.15714E+05         0.00000E+00
    0.00000E+00         0.00000E+00        -0.76959E+04
 
   -0.37032E+04         0.95621E+04         0.00000E+00
    0.95621E+04        -0.15459E+05         0.00000E+00
    0.00000E+00         0.00000E+00        -0.68247E+04
 
   -0.24583E+04         0.90654E+04         0.00000E+00
    0.90654E+04        -0.15114E+05         0.00000E+00
    0.00000E+00         0.00000E+00        -0.59392E+04
 
   -0.12849E+04         0.85754E+04         0.00000E+00
    0.85754E+04        -0.14687E+05         0.00000E+00
    0.00000E+00         0.00000E+00        -0.50593E+04
 
   -0.83313E+03         0.78527E+04         0.00000E+00
    0.78527E+04        -0.14352E+05         0.00000E+00
    0.00000E+00         0.00000E+00        -0.45556E+04
 
   -0.15300E+04         0.69179E+04         0.00000E+00
    0.69179E+04        -0.14162E+05         0.00000E+00
    0.00000E+00         0.00000E+00        -0.47076E+04
 
   -0.22529E+04         0.62514E+04         0.00000E+00
    0.62514E+04        -0.13896E+05         0.00000E+00
    0.00000E+00         0.00000E+00        -0.48446E+04
 
   -0.30572E+04         0.58140E+04         0.00000E+00
    0.58140E+04        -0.13569E+05         0.00000E+00
    0.00000E+00         0.00000E+00        -0.49877E+04
 
   -0.39429E+04         0.56042E+04         0.00000E+00
    0.56042E+04        -0.13197E+05         0.00000E+00
    0.00000E+00         0.00000E+00        -0.51419E+04
 
   -0.49005E+04         0.56343E+04         0.00000E+00
    0.56343E+04        -0.12796E+05         0.00000E+00
    0.00000E+00         0.00000E+00        -0.53089E+04
 
   -0.28933E+04        -0.15202E+04         0.00000E+00
   -0.15202E+04         0.15846E+03         0.00000E+00
    0.00000E+00         0.00000E+00        -0.82044E+03
 
   -0.11935E+05        -0.16427E+04         0.00000E+00
   -0.16427E+04         0.28788E+03         0.00000E+00
    0.00000E+00         0.00000E+00        -0.34942E+04
 
   -0.19235E+05         0.78366E+03         0.00000E+00
    0.78366E+03        -0.66784E+03         0.00000E+00
    0.00000E+00         0.00000E+00        -0.59710E+04
 
   -0.22452E+05         0.41344E+04         0.00000E+00
    0.41344E+04        -0.20292E+04         0.00000E+00
    0.00000E+00         0.00000E+00        -0.80266E+04
 
   -0.22272E+05         0.65008E+04         0.00000E+00
    0.65008E+04        -0.41139E+04         0.00000E+00
    0.00000E+00         0.00000E+00        -0.99064E+04
 
   -0.21132E+05         0.82004E+04         0.00000E+00
    0.82004E+04        -0.59006E+04         0.00000E+00
    0.00000E+00         0.00000E+00        -0.10847E+05
 
   -0.19582E+05         0.94568E+04         0.00000E+00
    0.94568E+04        -0.75618E+04         0.00000E+00
    0.00000E+00         0.00000E+00        -0.11158E+05
 
   -0.17718E+05         0.10347E+05         0.00000E+00
    0.10347E+05        -0.90534E+04         0.00000E+00
    0.00000E+00         0.00000E+00        -0.11095E+05
 
   -0.15778E+05         0.10864E+05         0.00000E+00
    0.10864E+05        -0.10293E+05         0.00000E+00
    0.00000E+00         0.00000E+00        -0.10763E+05
 
   -0.13763E+05         0.11108E+05         0.00000E+00
    0.11108E+05        -0.11265E+05         0.00000E+00
    0.00000E+00         0.00000E+00        -0.10221E+05
 
   -0.11810E+05         0.11158E+05         0.00000E+00
    0.11158E+05        -0.12011E+05         0.00000E+00
    0.00000E+00         0.00000E+00        -0.95412E+04
 
   -0.99983E+04         0.11044E+05         0.00000E+00
    0.11044E+05        -0.12561E+05         0.00000E+00
    0.00000E+00         0.00000E+00        -0.88017E+04
 
   -0.83532E+04         0.10809E+05         0.00000E+00
    0.10809E+05        -0.12920E+05         0.00000E+00
    0.00000E+00         0.00000E+00        -0.80669E+04
 
   -0.68353E+04         0.10502E+05         0.00000E+00
    0.10502E+05        -0.13103E+05         0.00000E+00
    0.00000E+00         0.00000E+00        -0.73334E+04
 
   -0.54348E+04         0.10142E+05         0.00000E+00
    0.10142E+05        -0.13176E+05         0.00000E+00
    0.00000E+00         0.00000E+00        -0.65981E+04
 
   -0.41538E+04         0.97446E+04         0.00000E+00
    0.97446E+04        -0.13151E+05         0.00000E+00
    0.00000E+00         0.00000E+00        -0.58851E+04
 
   -0.29116E+04         0.93335E+04         0.00000E+00
    0.93335E+04        -0.12983E+05         0.00000E+00
    0.00000E+00         0.00000E+00        -0.51328E+04
 
   -0.18341E+04         0.88775E+04         0.00000E+00
    0.88775E+04        -0.12817E+05         0.00000E+00
    0.00000E+00         0.00000E+00        -0.44384E+04
 
   -0.18899E+04         0.78617E+04         0.00000E+00
    0.78617E+04        -0.12913E+05         0.00000E+00
    0.00000E+00         0.00000E+00        -0.44409E+04
 
   -0.22673E+04         0.70549E+04         0.00000E+00
    0.70549E+04        -0.12911E+05         0.00000E+00
    0.00000E+00         0.00000E+00        -0.45536E+04
 
   -0.27675E+04         0.64762E+04         0.00000E+00
    0.64762E+04        -0.12796E+05         0.00000E+00
    0.00000E+00         0.00000E+00        -0.46691E+04
 
   -0.33558E+04         0.61020E+04         0.00000E+00
    0.61020E+04        -0.12599E+05         0.00000E+00
    0.00000E+00         0.00000E+00        -0.47864E+04
 
   -0.40186E+04         0.59351E+04         0.00000E+00
    0.59351E+04        -0.12344E+05         0.00000E+00
    0.00000E+00         0.00000E+00        -0.49087E+04
 
   -0.47333E+04         0.59900E+04         0.00000E+00
    0.59900E+04        -0.12053E+05         0.00000E+00
    0.00000E+00         0.00000E+00        -0.50359E+04
 
   -0.47269E+04        -0.11862E+04         0.00000E+00
   -0.11862E+04         0.14245E+03         0.00000E+00
    0.00000E+00         0.00000E+00        -0.13753E+04
 
   -0.11047E+05        -0.16568E+04         0.00000E+00
   -0.16568E+04         0.43173E+03         0.00000E+00
    0.00000E+00         0.00000E+00        -0.31847E+04
 
   -0.16292E+05        -0.95858E+02         0.00000E+00
   -0.95858E+02         0.34137E+03         0.00000E+00
    0.00000E+00         0.00000E+00        -0.47852E+04
 
   -0.19717E+05         0.24489E+04         0.00000E+00
    0.24489E+04        -0.40740E+03         0.00000E+00
    0.00000E+00         0.00000E+00        -0.60373E+04
 
   -0.20417E+05         0.48762E+04         0.00000E+00
    0.48762E+04        -0.18355E+04         0.00000E+00
    0.00000E+00         0.00000E+00        -0.72832E+04
 
   -0.19683E+05         0.66865E+04         0.00000E+00
    0.66865E+04        -0.34016E+04         0.00000E+00
    0.00000E+00         0.00000E+00        -0.82663E+04
 
   -0.18455E+05         0.80361E+04         0.00000E+00
    0.80361E+04        -0.47981E+04         0.00000E+00
    0.00000E+00         0.00000E+00        -0.87344E+04
 
   -0.16919E+05         0.90457E+04         0.00000E+00
    0.90457E+04        -0.60913E+04         0.00000E+00
    0.00000E+00         0.00000E+00        -0.88335E+04
 
   -0.15274E+05         0.97703E+04         0.00000E+00
    0.97703E+04        -0.72626E+04         0.00000E+00
    0.00000E+00         0.00000E+00        -0.86739E+04
 
   -0.13502E+05         0.10223E+05         0.00000E+00
    0.10223E+05        -0.82791E+04         0.00000E+00
    0.00000E+00         0.00000E+00        -0.83371E+04
 
   -0.11742E+05         0.10460E+05         0.00000E+00
    0.10460E+05        -0.90917E+04         0.00000E+00
    0.00000E+00         0.00000E+00        -0.78551E+04
 
   -0.10087E+05         0.10516E+05         0.00000E+00
    0.10516E+05        -0.97327E+04         0.00000E+00
    0.00000E+00         0.00000E+00        -0.73021E+04
 
   -0.85416E+04         0.10444E+05         0.00000E+00
    0.10444E+05        -0.10234E+05         0.00000E+00
    0.00000E+00         0.00000E+00        -0.67062E+04
 
   -0.70980E+04         0.10280E+05         0.00000E+00
    0.10280E+05        -0.10625E+05         0.00000E+00
    0.00000E+00         0.00000E+00        -0.61321E+04
 
   -0.57467E+04         0.10048E+05         0.00000E+00
    0.10048E+05        -0.10834E+05         0.00000E+00
    0.00000E+00         0.00000E+00        -0.55334E+04
 
   -0.45157E+04         0.97447E+04         0.00000E+00
    0.97447E+04        -0.10909E+05         0.00000E+00
    0.00000E+00         0.00000E+00        -0.49475E+04
 
   -0.32800E+04         0.94363E+04         0.00000E+00
    0.94363E+04        -0.11002E+05         0.00000E+00
    0.00000E+00         0.00000E+00        -0.43277E+04
 
   -0.28000E+04         0.85713E+04         0.00000E+00
    0.85713E+04        -0.11370E+05         0.00000E+00
    0.00000E+00         0.00000E+00        -0.42511E+04
 
   -0.27299E+04         0.77261E+04         0.00000E+00
    0.77261E+04        -0.11674E+05         0.00000E+00
    0.00000E+00         0.00000E+00        -0.43211E+04
 
   -0.28983E+04         0.70649E+04         0.00000E+00
    0.70649E+04        -0.11780E+05         0.00000E+00
    0.00000E+00         0.00000E+00        -0.44034E+04
 
   -0.32011E+04         0.65839E+04         0.00000E+00
    0.65839E+04        -0.11765E+05         0.00000E+00
    0.00000E+00         0.00000E+00        -0.44897E+04
 
   -0.35979E+04         0.62810E+04         0.00000E+00
    0.62810E+04        -0.11665E+05         0.00000E+00
    0.00000E+00         0.00000E+00        -0.45790E+04
 
   -0.40587E+04         0.61621E+04         0.00000E+00
    0.61621E+04        -0.11507E+05         0.00000E+00
    0.00000E+00         0.00000E+00        -0.46697E+04
 
   -0.45530E+04         0.62414E+04         0.00000E+00
    0.62414E+04        -0.11313E+05         0.00000E+00
    0.00000E+00         0.00000E+00        -0.47597E+04
 
   -0.62296E+04        -0.87760E+03         0.00000E+00
   -0.87760E+03         0.12298E+03         0.00000E+00
    0.00000E+00         0.00000E+00        -0.18320E+04
 
   -0.10573E+05        -0.13323E+04         0.00000E+00
   -0.13323E+04         0.49511E+03         0.00000E+00
    0.00000E+00         0.00000E+00        -0.30234E+04
 
   -0.14492E+05        -0.34043E+03         0.00000E+00
   -0.34043E+03         0.66362E+03         0.00000E+00
    0.00000E+00         0.00000E+00        -0.41485E+04
 
   -0.17174E+05         0.15172E+04         0.00000E+00
    0.15172E+04         0.31660E+03         0.00000E+00
    0.00000E+00         0.00000E+00        -0.50574E+04
 
   -0.18455E+05         0.36122E+04         0.00000E+00
    0.36122E+04        -0.27224E+03         0.00000E+00
    0.00000E+00         0.00000E+00        -0.56182E+04
 
   -0.18199E+05         0.53906E+04         0.00000E+00
    0.53906E+04        -0.13932E+04         0.00000E+00
    0.00000E+00         0.00000E+00        -0.62368E+04
 
   -0.17279E+05         0.68192E+04         0.00000E+00
    0.68192E+04        -0.26544E+04         0.00000E+00
    0.00000E+00         0.00000E+00        -0.67050E+04
 
   -0.16024E+05         0.79157E+04         0.00000E+00
    0.79157E+04        -0.37929E+04         0.00000E+00
    0.00000E+00         0.00000E+00        -0.68947E+04
 
   -0.14609E+05         0.87133E+04         0.00000E+00
    0.87133E+04        -0.48589E+04         0.00000E+00
    0.00000E+00         0.00000E+00        -0.68866E+04
 
   -0.13078E+05         0.93270E+04         0.00000E+00
    0.93270E+04        -0.57892E+04         0.00000E+00
    0.00000E+00         0.00000E+00        -0.66458E+04
 
   -0.11514E+05         0.97069E+04         0.00000E+00
    0.97069E+04        -0.66270E+04         0.00000E+00
    0.00000E+00         0.00000E+00        -0.63117E+04
 
   -0.10016E+05         0.99219E+04         0.00000E+00
    0.99219E+04        -0.73432E+04         0.00000E+00
    0.00000E+00         0.00000E+00        -0.59045E+04
 
   -0.85960E+04         0.99736E+04         0.00000E+00
    0.99736E+04        -0.78915E+04         0.00000E+00
    0.00000E+00         0.00000E+00        -0.54619E+04
 
   -0.72245E+04         0.99317E+04         0.00000E+00
    0.99317E+04        -0.82713E+04         0.00000E+00
    0.00000E+00         0.00000E+00        -0.49872E+04
 
   -0.59829E+04         0.98139E+04         0.00000E+00
    0.98139E+04        -0.86439E+04         0.00000E+00
    0.00000E+00         0.00000E+00        -0.45277E+04
 
   -0.48085E+04         0.95438E+04         0.00000E+00
    0.95438E+04        -0.90728E+04         0.00000E+00
    0.00000E+00         0.00000E+00        -0.41644E+04
 
   -0.40217E+04         0.88593E+04         0.00000E+00
    0.88593E+04        -0.97152E+04         0.00000E+00
    0.00000E+00         0.00000E+00        -0.41211E+04
 
   -0.35873E+04         0.81566E+04         0.00000E+00
    0.81566E+04        -0.10263E+05         0.00000E+00
    0.00000E+00         0.00000E+00        -0.41552E+04
 
   -0.34007E+04         0.75135E+04         0.00000E+00
    0.75135E+04        -0.10584E+05         0.00000E+00
    0.00000E+00         0.00000E+00        -0.41955E+04
 
   -0.34103E+04         0.69899E+04         0.00000E+00
    0.69899E+04        -0.10752E+05         0.00000E+00
    0.00000E+00         0.00000E+00        -0.42488E+04
 
   -0.35516E+04         0.66068E+04         0.00000E+00
    0.66068E+04        -0.10809E+05         0.00000E+00
    0.00000E+00         0.00000E+00        -0.43081E+04
 
   -0.37808E+04         0.63737E+04         0.00000E+00
    0.63737E+04        -0.10785E+05         0.00000E+00
    0.00000E+00         0.00000E+00        -0.43696E+04
 
   -0.40633E+04         0.63009E+04         0.00000E+00
    0.63009E+04        -0.10705E+05         0.00000E+00
    0.00000E+00         0.00000E+00        -0.44304E+04
 
   -0.43639E+04         0.64011E+04         0.00000E+00
    0.64011E+04        -0.10593E+05         0.00000E+00
    0.00000E+00         0.00000E+00        -0.44872E+04
 
   -0.73281E+04        -0.60329E+03         0.00000E+00
   -0.60329E+03         0.10361E+03         0.00000E+00
    0.00000E+00         0.00000E+00        -0.21674E+04
 
   -0.10325E+05        -0.94944E+03         0.00000E+00
   -0.94944E+03         0.43993E+03         0.00000E+00
    0.00000E+00         0.00000E+00        -0.29656E+04
 
   -0.13209E+05        -0.26268E+03         0.00000E+00
   -0.26268E+03         0.72374E+03         0.00000E+00
    0.00000E+00         0.00000E+00        -0.37454E+04
 
   -0.15356E+05         0.11436E+04         0.00000E+00
    0.11436E+04         0.69969E+03         0.00000E+00
    0.00000E+00         0.00000E+00        -0.43968E+04
 
   -0.16508E+05         0.28279E+04         0.00000E+00
    0.28279E+04         0.26371E+03         0.00000E+00
    0.00000E+00         0.00000E+00        -0.48734E+04
 
   -0.16675E+05         0.44510E+04         0.00000E+00
    0.44510E+04        -0.25740E+03         0.00000E+00
    0.00000E+00         0.00000E+00        -0.50797E+04
 
   -0.16101E+05         0.58299E+04         0.00000E+00
    0.58299E+04        -0.93854E+03         0.00000E+00
    0.00000E+00         0.00000E+00        -0.51867E+04
 
   -0.15094E+05         0.69051E+04         0.00000E+00
    0.69051E+04        -0.19088E+04         0.00000E+00
    0.00000E+00         0.00000E+00        -0.53480E+04
 
   -0.13870E+05         0.78024E+04         0.00000E+00
    0.78024E+04        -0.28345E+04         0.00000E+00
    0.00000E+00         0.00000E+00        -0.53552E+04
 
   -0.12534E+05         0.84782E+04         0.00000E+00
    0.84782E+04        -0.37027E+04         0.00000E+00
    0.00000E+00         0.00000E+00        -0.52132E+04
 
   -0.11162E+05         0.89547E+04         0.00000E+00
    0.89547E+04        -0.44695E+04         0.00000E+00
    0.00000E+00         0.00000E+00        -0.49794E+04
 
   -0.98216E+04         0.92662E+04         0.00000E+00
    0.92662E+04        -0.51508E+04         0.00000E+00
    0.00000E+00         0.00000E+00        -0.46734E+04
 
   -0.85344E+04         0.94674E+04         0.00000E+00
    0.94674E+04        -0.57953E+04         0.00000E+00
    0.00000E+00         0.00000E+00        -0.43468E+04
 
   -0.73175E+04         0.94252E+04         0.00000E+00
    0.94252E+04        -0.65246E+04         0.00000E+00
    0.00000E+00         0.00000E+00        -0.41537E+04
 
   -0.62163E+04         0.91762E+04         0.00000E+00
    0.91762E+04        -0.73106E+04         0.00000E+00
    0.00000E+00         0.00000E+00        -0.40581E+04
 
   -0.53287E+04         0.87700E+04         0.00000E+00
    0.87700E+04        -0.81417E+04         0.00000E+00
    0.00000E+00         0.00000E+00        -0.40411E+04
 
   -0.46466E+04         0.82748E+04         0.00000E+00
    0.82748E+04        -0.88033E+04         0.00000E+00
    0.00000E+00         0.00000E+00        -0.40350E+04
 
   -0.41769E+04         0.77446E+04         0.00000E+00
    0.77446E+04        -0.92796E+04         0.00000E+00
    0.00000E+00         0.00000E+00        -0.40369E+04
 
   -0.39173E+04         0.72612E+04         0.00000E+00
    0.72612E+04        -0.96135E+04         0.00000E+00
    0.00000E+00         0.00000E+00        -0.40592E+04
 
   -0.38119E+04         0.68594E+04         0.00000E+00
    0.68594E+04        -0.98191E+04         0.00000E+00
    0.00000E+00         0.00000E+00        -0.40893E+04
 
   -0.38220E+04         0.65663E+04         0.00000E+00
    0.65663E+04        -0.99264E+04         0.00000E+00
    0.00000E+00         0.00000E+00        -0.41245E+04
 
   -0.39085E+04         0.63977E+04         0.00000E+00
    0.63977E+04        -0.99609E+04         0.00000E+00
    0.00000E+00         0.00000E+00        -0.41608E+04
 
   -0.40364E+04         0.63660E+04         0.00000E+00
    0.63660E+04        -0.99458E+04         0.00000E+00
    0.00000E+00         0.00000E+00        -0.41947E+04
 
   -0.41703E+04         0.64827E+04         0.00000E+00
    0.64827E+04        -0.99042E+04         0.00000E+00
    0.00000E+00         0.00000E+00        -0.42224E+04
 
   -0.80647E+04        -0.38413E+03         0.00000E+00
   -0.38413E+03         0.79132E+02         0.00000E+00
    0.00000E+00         0.00000E+00        -0.23957E+04
 
   -0.10146E+05        -0.58713E+03         0.00000E+00
   -0.58713E+03         0.35939E+03         0.00000E+00
    0.00000E+00         0.00000E+00        -0.29361E+04
 
   -0.12251E+05        -0.60532E+02         0.00000E+00
   -0.60532E+02         0.64815E+03         0.00000E+00
    0.00000E+00         0.00000E+00        -0.34808E+04
 
   -0.13935E+05         0.10248E+04         0.00000E+00
    0.10248E+04         0.73677E+03         0.00000E+00
    0.00000E+00         0.00000E+00        -0.39595E+04
 
   -0.14937E+05         0.24159E+04         0.00000E+00
    0.24159E+04         0.55900E+03         0.00000E+00
    0.00000E+00         0.00000E+00        -0.43133E+04
 
   -0.15207E+05         0.38420E+04         0.00000E+00
    0.38420E+04         0.10876E+03         0.00000E+00
    0.00000E+00         0.00000E+00        -0.45293E+04
 
   -0.14893E+05         0.50911E+04         0.00000E+00
    0.50911E+04        -0.49709E+03         0.00000E+00
    0.00000E+00         0.00000E+00        -0.46170E+04
 
   -0.14127E+05         0.61596E+04         0.00000E+00
    0.61596E+04        -0.10431E+04         0.00000E+00
    0.00000E+00         0.00000E+00        -0.45511E+04
 
   -0.13103E+05         0.70370E+04         0.00000E+00
    0.70370E+04        -0.16792E+04         0.00000E+00
    0.00000E+00         0.00000E+00        -0.44346E+04
 
   -0.11960E+05         0.77096E+04         0.00000E+00
    0.77096E+04        -0.24165E+04         0.00000E+00
    0.00000E+00         0.00000E+00        -0.43131E+04
 
   -0.10772E+05         0.82009E+04         0.00000E+00
    0.82009E+04        -0.32268E+04         0.00000E+00
    0.00000E+00         0.00000E+00        -0.41996E+04
 
   -0.95799E+04         0.85001E+04         0.00000E+00
    0.85001E+04        -0.40904E+04         0.00000E+00
    0.00000E+00         0.00000E+00        -0.41011E+04
 
   -0.84849E+04         0.86037E+04         0.00000E+00
    0.86037E+04        -0.50147E+04         0.00000E+00
    0.00000E+00         0.00000E+00        -0.40499E+04
 
   -0.74644E+04         0.85728E+04         0.00000E+00
    0.85728E+04        -0.58906E+04         0.00000E+00
    0.00000E+00         0.00000E+00        -0.40065E+04
 
   -0.65193E+04         0.83886E+04         0.00000E+00
    0.83886E+04        -0.66870E+04         0.00000E+00
    0.00000E+00         0.00000E+00        -0.39619E+04
 
   -0.57193E+04         0.80869E+04         0.00000E+00
    0.80869E+04        -0.73717E+04         0.00000E+00
    0.00000E+00         0.00000E+00        -0.39273E+04
 
   -0.50903E+04         0.77297E+04         0.00000E+00
    0.77297E+04        -0.79507E+04         0.00000E+00
    0.00000E+00         0.00000E+00        -0.39123E+04
 
   -0.46212E+04         0.73483E+04         0.00000E+00
    0.73483E+04        -0.84074E+04         0.00000E+00
    0.00000E+00         0.00000E+00        -0.39086E+04
 
   -0.43047E+04         0.69894E+04         0.00000E+00
    0.69894E+04        -0.87397E+04         0.00000E+00
    0.00000E+00         0.00000E+00        -0.39133E+04
 
   -0.41155E+04         0.66910E+04         0.00000E+00
    0.66910E+04        -0.89688E+04         0.00000E+00
    0.00000E+00         0.00000E+00        -0.39253E+04
 
   -0.40200E+04         0.64773E+04         0.00000E+00
    0.64773E+04        -0.91134E+04         0.00000E+00
    0.00000E+00         0.00000E+00        -0.39400E+04
 
   -0.39865E+04         0.63658E+04         0.00000E+00
    0.63658E+04        -0.91946E+04         0.00000E+00
    0.00000E+00         0.00000E+00        -0.39543E+04
 
   -0.39828E+04         0.63695E+04         0.00000E+00
    0.63695E+04        -0.92330E+04         0.00000E+00
    0.00000E+00         0.00000E+00        -0.39647E+04
 
   -0.39755E+04         0.64985E+04         0.00000E+00
    0.64985E+04        -0.92498E+04         0.00000E+00
    0.00000E+00         0.00000E+00        -0.39676E+04
 
   -0.85028E+04        -0.21785E+03         0.00000E+00
   -0.21785E+03         0.58385E+02         0.00000E+00
    0.00000E+00         0.00000E+00        -0.25333E+04
 
   -0.99670E+04        -0.28460E+03         0.00000E+00
   -0.28460E+03         0.27468E+03         0.00000E+00
    0.00000E+00         0.00000E+00        -0.29077E+04
 
   -0.11504E+05         0.15677E+03         0.00000E+00
    0.15677E+03         0.51984E+03         0.00000E+00
    0.00000E+00         0.00000E+00        -0.32954E+04
 
   -0.12792E+05         0.10248E+04         0.00000E+00
    0.10248E+04         0.63897E+03         0.00000E+00
    0.00000E+00         0.00000E+00        -0.36459E+04
 
   -0.13625E+05         0.21560E+04         0.00000E+00
    0.21560E+04         0.54336E+03         0.00000E+00
    0.00000E+00         0.00000E+00        -0.39245E+04
 
   -0.13935E+05         0.33665E+04         0.00000E+00
    0.33665E+04         0.22791E+03         0.00000E+00
    0.00000E+00         0.00000E+00        -0.41122E+04
 
   -0.13756E+05         0.45189E+04         0.00000E+00
    0.45189E+04        -0.25085E+03         0.00000E+00
    0.00000E+00         0.00000E+00        -0.42022E+04
 
   -0.13190E+05         0.55226E+04         0.00000E+00
    0.55226E+04        -0.85678E+03         0.00000E+00
    0.00000E+00         0.00000E+00        -0.42139E+04
 
   -0.12364E+05         0.63284E+04         0.00000E+00
    0.63284E+04        -0.15334E+04         0.00000E+00
    0.00000E+00         0.00000E+00        -0.41693E+04
 
   -0.11408E+05         0.69439E+04         0.00000E+00
    0.69439E+04        -0.22614E+04         0.00000E+00
    0.00000E+00         0.00000E+00        -0.41009E+04
 
   -0.10397E+05         0.73850E+04         0.00000E+00
    0.73850E+04        -0.30292E+04         0.00000E+00
    0.00000E+00         0.00000E+00        -0.40278E+04
 
   -0.93906E+04         0.76556E+04         0.00000E+00
    0.76556E+04        -0.38223E+04         0.00000E+00
    0.00000E+00         0.00000E+00        -0.39639E+04
 
   -0.84338E+04         0.77791E+04         0.00000E+00
    0.77791E+04        -0.46000E+04         0.00000E+00
    0.00000E+00         0.00000E+00        -0.39101E+04
 
   -0.75409E+04         0.77877E+04         0.00000E+00
    0.77877E+04        -0.53509E+04         0.00000E+00
    0.00000E+00         0.00000E+00        -0.38675E+04
 
   -0.67194E+04         0.76837E+04         0.00000E+00
    0.76837E+04        -0.60510E+04         0.00000E+00
    0.00000E+00         0.00000E+00        -0.38311E+04
 
   -0.60015E+04         0.74860E+04         0.00000E+00
    0.74860E+04        -0.66710E+04         0.00000E+00
    0.00000E+00         0.00000E+00        -0.38017E+04
 
   -0.54081E+04         0.72339E+04         0.00000E+00
    0.72339E+04        -0.71943E+04         0.00000E+00
    0.00000E+00         0.00000E+00        -0.37807E+04
 
   -0.49405E+04         0.69639E+04         0.00000E+00
    0.69639E+04        -0.76199E+04         0.00000E+00
    0.00000E+00         0.00000E+00        -0.37681E+04
 
   -0.45885E+04         0.67082E+04         0.00000E+00
    0.67082E+04        -0.79496E+04         0.00000E+00
    0.00000E+00         0.00000E+00        -0.37614E+04
 
   -0.43344E+04         0.64962E+04         0.00000E+00
    0.64962E+04        -0.81930E+04         0.00000E+00
    0.00000E+00         0.00000E+00        -0.37582E+04
 
   -0.41545E+04         0.63507E+04         0.00000E+00
    0.63507E+04        -0.83656E+04         0.00000E+00
    0.00000E+00         0.00000E+00        -0.37560E+04
 
   -0.40216E+04         0.62883E+04         0.00000E+00
    0.62883E+04        -0.84841E+04         0.00000E+00
    0.00000E+00         0.00000E+00        -0.37517E+04
 
   -0.39075E+04         0.63216E+04         0.00000E+00
    0.63216E+04        -0.85665E+04         0.00000E+00
    0.00000E+00         0.00000E+00        -0.37422E+04
 
   -0.37820E+04         0.64594E+04         0.00000E+00
    0.64594E+04        -0.86318E+04         0.00000E+00
    0.00000E+00         0.00000E+00        -0.37241E+04
 
   -0.87116E+04        -0.97278E+02         0.00000E+00
   -0.97278E+02         0.41219E+02         0.00000E+00
    0.00000E+00         0.00000E+00        -0.26011E+04
 
   -0.97628E+04        -0.52517E+02         0.00000E+00
   -0.52517E+02         0.19847E+03         0.00000E+00
    0.00000E+00         0.00000E+00        -0.28693E+04
 
   -0.10891E+05         0.34354E+03         0.00000E+00
    0.34354E+03         0.38622E+03         0.00000E+00
    0.00000E+00         0.00000E+00        -0.31513E+04
 
   -0.11869E+05         0.10547E+04         0.00000E+00
    0.10547E+04         0.48744E+03         0.00000E+00
    0.00000E+00         0.00000E+00        -0.34143E+04
 
   -0.12538E+05         0.19811E+04         0.00000E+00
    0.19811E+04         0.42912E+03         0.00000E+00
    0.00000E+00         0.00000E+00        -0.36328E+04
 
   -0.12826E+05         0.30007E+04         0.00000E+00
    0.30007E+04         0.18863E+03         0.00000E+00
    0.00000E+00         0.00000E+00        -0.37913E+04
 
   -0.12735E+05         0.40005E+04         0.00000E+00
    0.40005E+04        -0.22070E+03         0.00000E+00
    0.00000E+00         0.00000E+00        -0.38868E+04
 
   -0.12323E+05         0.48961E+04         0.00000E+00
    0.48961E+04        -0.76090E+03         0.00000E+00
    0.00000E+00         0.00000E+00        -0.39252E+04
 
   -0.11680E+05         0.56390E+04         0.00000E+00
    0.56390E+04        -0.13915E+04         0.00000E+00
    0.00000E+00         0.00000E+00        -0.39214E+04
 
   -0.10897E+05         0.62160E+04         0.00000E+00
    0.62160E+04        -0.20733E+04         0.00000E+00
    0.00000E+00         0.00000E+00        -0.38911E+04
 
   -0.10049E+05         0.66344E+04         0.00000E+00
    0.66344E+04        -0.27815E+04         0.00000E+00
    0.00000E+00         0.00000E+00        -0.38492E+04
 
   -0.91892E+04         0.69083E+04         0.00000E+00
    0.69083E+04        -0.34934E+04         0.00000E+00
    0.00000E+00         0.00000E+00        -0.38048E+04
 
   -0.83547E+04         0.70575E+04         0.00000E+00
    0.70575E+04        -0.41896E+04         0.00000E+00
    0.00000E+00         0.00000E+00        -0.37633E+04
 
   -0.75656E+04         0.71025E+04         0.00000E+00
    0.71025E+04        -0.48540E+04         0.00000E+00
    0.00000E+00         0.00000E+00        -0.37259E+04
 
   -0.68373E+04         0.70578E+04         0.00000E+00
    0.70578E+04        -0.54732E+04         0.00000E+00
    0.00000E+00         0.00000E+00        -0.36932E+04
 
   -0.61869E+04         0.69407E+04         0.00000E+00
    0.69407E+04        -0.60293E+04         0.00000E+00
    0.00000E+00         0.00000E+00        -0.36649E+04
 
   -0.56277E+04         0.67771E+04         0.00000E+00
    0.67771E+04        -0.65098E+04         0.00000E+00
    0.00000E+00         0.00000E+00        -0.36412E+04
 
   -0.51627E+04         0.65955E+04         0.00000E+00
    0.65955E+04        -0.69101E+04         0.00000E+00
    0.00000E+00         0.00000E+00        -0.36219E+04
 
   -0.47855E+04         0.64230E+04         0.00000E+00
    0.64230E+04        -0.72329E+04         0.00000E+00
    0.00000E+00         0.00000E+00        -0.36055E+04
 
   -0.44824E+04         0.62829E+04         0.00000E+00
    0.62829E+04        -0.74853E+04         0.00000E+00
    0.00000E+00         0.00000E+00        -0.35903E+04
 
   -0.42348E+04         0.61948E+04         0.00000E+00
    0.61948E+04        -0.76786E+04         0.00000E+00
    0.00000E+00         0.00000E+00        -0.35740E+04
 
   -0.40205E+04         0.61739E+04         0.00000E+00
    0.61739E+04        -0.78268E+04         0.00000E+00
    0.00000E+00         0.00000E+00        -0.35542E+04
 
   -0.38150E+04         0.62314E+04         0.00000E+00
    0.62314E+04        -0.79451E+04         0.00000E+00
    0.00000E+00         0.00000E+00        -0.35280E+04
 
   -0.35917E+04         0.63748E+04         0.00000E+00
    0.63748E+04        -0.80504E+04         0.00000E+00
    0.00000E+00         0.00000E+00        -0.34926E+04
 
   -0.87539E+04        -0.13730E+02         0.00000E+00
   -0.13730E+02         0.27824E+02         0.00000E+00
    0.00000E+00         0.00000E+00        -0.26178E+04
 
   -0.95299E+04         0.11397E+03         0.00000E+00
    0.11397E+03         0.13588E+03         0.00000E+00
    0.00000E+00         0.00000E+00        -0.28182E+04
 
   -0.10367E+05         0.48279E+03         0.00000E+00
    0.48279E+03         0.26701E+03         0.00000E+00
    0.00000E+00         0.00000E+00        -0.30300E+04
 
   -0.11109E+05         0.10808E+04         0.00000E+00
    0.10808E+04         0.33707E+03         0.00000E+00
    0.00000E+00         0.00000E+00        -0.32315E+04
 
   -0.11637E+05         0.18479E+04         0.00000E+00
    0.18479E+04         0.28655E+03         0.00000E+00
    0.00000E+00         0.00000E+00        -0.34050E+04
 
   -0.11886E+05         0.27005E+04         0.00000E+00
    0.27005E+04         0.87910E+02         0.00000E+00
    0.00000E+00         0.00000E+00        -0.35393E+04
 
   -0.11845E+05         0.35541E+04         0.00000E+00
    0.35541E+04        -0.25642E+03         0.00000E+00
    0.00000E+00         0.00000E+00        -0.36303E+04
 
   -0.11546E+05         0.43394E+04         0.00000E+00
    0.43394E+04        -0.72376E+03         0.00000E+00
    0.00000E+00         0.00000E+00        -0.36808E+04
 
   -0.11046E+05         0.50114E+04         0.00000E+00
    0.50114E+04        -0.12801E+04         0.00000E+00
    0.00000E+00         0.00000E+00        -0.36979E+04
 
   -0.10413E+05         0.55505E+04         0.00000E+00
    0.55505E+04        -0.18914E+04         0.00000E+00
    0.00000E+00         0.00000E+00        -0.36914E+04
 
   -0.97061E+04         0.59559E+04         0.00000E+00
    0.59559E+04        -0.25284E+04         0.00000E+00
    0.00000E+00         0.00000E+00        -0.36703E+04
 
   -0.89719E+04         0.62375E+04         0.00000E+00
    0.62375E+04        -0.31683E+04         0.00000E+00
    0.00000E+00         0.00000E+00        -0.36421E+04
 
   -0.82441E+04         0.64109E+04         0.00000E+00
    0.64109E+04        -0.37931E+04         0.00000E+00
    0.00000E+00         0.00000E+00        -0.36112E+04
 
   -0.75454E+04         0.64926E+04         0.00000E+00
    0.64926E+04        -0.43892E+04         0.00000E+00
    0.00000E+00         0.00000E+00        -0.35804E+04
 
   -0.68915E+04         0.64983E+04         0.00000E+00
    0.64983E+04        -0.49444E+04         0.00000E+00
    0.00000E+00         0.00000E+00        -0.35508E+04
 
   -0.62957E+04         0.64447E+04         0.00000E+00
    0.64447E+04        -0.54476E+04         0.00000E+00
    0.00000E+00         0.00000E+00        -0.35230E+04
 
   -0.57666E+04         0.63521E+04         0.00000E+00
    0.63521E+04        -0.58900E+04         0.00000E+00
    0.00000E+00         0.00000E+00        -0.34970E+04
 
   -0.53068E+04         0.62425E+04         0.00000E+00
    0.62425E+04        -0.62680E+04         0.00000E+00
    0.00000E+00         0.00000E+00        -0.34724E+04
 
   -0.49117E+04         0.61375E+04         0.00000E+00
    0.61375E+04        -0.65827E+04         0.00000E+00
    0.00000E+00         0.00000E+00        -0.34483E+04
 
   -0.45711E+04         0.60567E+04         0.00000E+00
    0.60567E+04        -0.68400E+04         0.00000E+00
    0.00000E+00         0.00000E+00        -0.34233E+04
 
   -0.42698E+04         0.60163E+04         0.00000E+00
    0.60163E+04        -0.70487E+04         0.00000E+00
    0.00000E+00         0.00000E+00        -0.33956E+04
 
   -0.39896E+04         0.60296E+04         0.00000E+00
    0.60296E+04        -0.72201E+04         0.00000E+00
    0.00000E+00         0.00000E+00        -0.33629E+04
 
   -0.37094E+04         0.61064E+04         0.00000E+00
    0.61064E+04        -0.73675E+04         0.00000E+00
    0.00000E+00         0.00000E+00        -0.33231E+04
 
   -0.34062E+04         0.62530E+04         0.00000E+00
    0.62530E+04        -0.75053E+04         0.00000E+00
    0.00000E+00         0.00000E+00        -0.32734E+04
 
   -0.86818E+04         0.41390E+02         0.00000E+00
    0.41390E+02         0.17830E+02         0.00000E+00
    0.00000E+00         0.00000E+00        -0.25992E+04
 
   -0.92744E+04         0.22544E+03         0.00000E+00
    0.22544E+03         0.87376E+02         0.00000E+00
    0.00000E+00         0.00000E+00        -0.27561E+04
 
   -0.99069E+04         0.57488E+03         0.00000E+00
    0.57488E+03         0.17054E+03         0.00000E+00
    0.00000E+00         0.00000E+00        -0.29209E+04
 
   -0.10473E+05         0.10893E+04         0.00000E+00
    0.10893E+04         0.20775E+03         0.00000E+00
    0.00000E+00         0.00000E+00        -0.30794E+04
 
   -0.10885E+05         0.17326E+04         0.00000E+00
    0.17326E+04         0.15290E+03         0.00000E+00
    0.00000E+00         0.00000E+00        -0.32196E+04
 
   -0.11092E+05         0.24482E+04         0.00000E+00
    0.24482E+04        -0.19062E+02         0.00000E+00
    0.00000E+00         0.00000E+00        -0.33333E+04
 
   -0.11077E+05         0.31747E+04         0.00000E+00
    0.31747E+04        -0.31170E+03         0.00000E+00
    0.00000E+00         0.00000E+00        -0.34167E+04
 
   -0.10857E+05         0.38580E+04         0.00000E+00
    0.38580E+04        -0.71105E+03         0.00000E+00
    0.00000E+00         0.00000E+00        -0.34703E+04
 
   -0.10467E+05         0.44597E+04         0.00000E+00
    0.44597E+04        -0.11927E+04         0.00000E+00
    0.00000E+00         0.00000E+00        -0.34979E+04
 
   -0.99550E+04         0.49588E+04         0.00000E+00
    0.49588E+04        -0.17287E+04         0.00000E+00
    0.00000E+00         0.00000E+00        -0.35051E+04
 
   -0.93661E+04         0.53494E+04         0.00000E+00
    0.53494E+04        -0.22930E+04         0.00000E+00
    0.00000E+00         0.00000E+00        -0.34977E+04
 
   -0.87394E+04         0.56363E+04         0.00000E+00
    0.56363E+04        -0.28637E+04         0.00000E+00
    0.00000E+00         0.00000E+00        -0.34809E+04
 
   -0.81049E+04         0.58301E+04         0.00000E+00
    0.58301E+04        -0.34238E+04         0.00000E+00
    0.00000E+00         0.00000E+00        -0.34586E+04
 
   -0.74843E+04         0.59442E+04         0.00000E+00
    0.59442E+04        -0.39600E+04         0.00000E+00
    0.00000E+00         0.00000E+00        -0.34333E+04
 
   -0.68934E+04         0.59928E+04         0.00000E+00
    0.59928E+04        -0.44617E+04         0.00000E+00
    0.00000E+00         0.00000E+00        -0.34065E+04
 
   -0.63431E+04         0.59909E+04         0.00000E+00
    0.59909E+04        -0.49204E+04         0.00000E+00
    0.00000E+00         0.00000E+00        -0.33791E+04
 
   -0.58405E+04         0.59555E+04         0.00000E+00
    0.59555E+04        -0.53298E+04         0.00000E+00
    0.00000E+00         0.00000E+00        -0.33511E+04
 
   -0.53873E+04         0.59042E+04         0.00000E+00
    0.59042E+04        -0.56870E+04         0.00000E+00
    0.00000E+00         0.00000E+00        -0.33223E+04
 
   -0.49801E+04         0.58543E+04         0.00000E+00
    0.58543E+04        -0.59931E+04         0.00000E+00
    0.00000E+00         0.00000E+00        -0.32920E+04
 
   -0.46109E+04         0.58218E+04         0.00000E+00
    0.58218E+04        -0.62524E+04         0.00000E+00
    0.00000E+00         0.00000E+00        -0.32590E+04
 
   -0.42675E+04         0.58206E+04         0.00000E+00
    0.58206E+04        -0.64720E+04         0.00000E+00
    0.00000E+00         0.00000E+00        -0.32218E+04
 
   -0.39345E+04         0.58618E+04         0.00000E+00
    0.58618E+04        -0.66615E+04         0.00000E+00
    0.00000E+00         0.00000E+00        -0.31788E+04
 
   -0.35940E+04         0.59535E+04         0.00000E+00
    0.59535E+04        -0.68319E+04         0.00000E+00
    0.00000E+00         0.00000E+00        -0.31278E+04
 
   -0.32264E+04         0.61011E+04         0.00000E+00
    0.61011E+04        -0.69958E+04         0.00000E+00
    0.00000E+00         0.00000E+00        -0.30667E+04
 
   -0.85357E+04         0.75553E+02         0.00000E+00
    0.75553E+02         0.10632E+02         0.00000E+00
    0.00000E+00         0.00000E+00        -0.25575E+04
 
   -0.90052E+04         0.29401E+03         0.00000E+00
    0.29401E+03         0.51549E+02         0.00000E+00
    0.00000E+00         0.00000E+00        -0.26861E+04
 
   -0.94939E+04         0.62659E+03         0.00000E+00
    0.62659E+03         0.97058E+02         0.00000E+00
    0.00000E+00         0.00000E+00        -0.28191E+04
 
   -0.99301E+04         0.10774E+04         0.00000E+00
    0.10774E+04         0.10576E+03         0.00000E+00
    0.00000E+00         0.00000E+00        -0.29473E+04
 
   -0.10252E+05         0.16248E+04         0.00000E+00
    0.16248E+04         0.43315E+02         0.00000E+00
    0.00000E+00         0.00000E+00        -0.30627E+04
 
   -0.10420E+05         0.22308E+04         0.00000E+00
    0.22308E+04        -0.11117E+03         0.00000E+00
    0.00000E+00         0.00000E+00        -0.31594E+04
 
   -0.10417E+05         0.28513E+04         0.00000E+00
    0.28513E+04        -0.36325E+03         0.00000E+00
    0.00000E+00         0.00000E+00        -0.32341E+04
 
   -0.10250E+05         0.34454E+04         0.00000E+00
    0.34454E+04        -0.70512E+03         0.00000E+00
    0.00000E+00         0.00000E+00        -0.32866E+04
 
   -0.99418E+04         0.39815E+04         0.00000E+00
    0.39815E+04        -0.11197E+04         0.00000E+00
    0.00000E+00         0.00000E+00        -0.33184E+04
 
   -0.95245E+04         0.44400E+04         0.00000E+00
    0.44400E+04        -0.15854E+04         0.00000E+00
    0.00000E+00         0.00000E+00        -0.33330E+04
 
   -0.90322E+04         0.48125E+04         0.00000E+00
    0.48125E+04        -0.20808E+04         0.00000E+00
    0.00000E+00         0.00000E+00        -0.33339E+04
 
   -0.84961E+04         0.50999E+04         0.00000E+00
    0.50999E+04        -0.25865E+04         0.00000E+00
    0.00000E+00         0.00000E+00        -0.33248E+04
 
   -0.79417E+04         0.53089E+04         0.00000E+00
    0.53089E+04        -0.30868E+04         0.00000E+00
    0.00000E+00         0.00000E+00        -0.33086E+04
 
   -0.73888E+04         0.54494E+04         0.00000E+00
    0.54494E+04        -0.35692E+04         0.00000E+00
    0.00000E+00         0.00000E+00        -0.32874E+04
 
   -0.68519E+04         0.55333E+04         0.00000E+00
    0.55333E+04        -0.40241E+04         0.00000E+00
    0.00000E+00         0.00000E+00        -0.32628E+04
 
   -0.63410E+04         0.55737E+04         0.00000E+00
    0.55737E+04        -0.44440E+04         0.00000E+00
    0.00000E+00         0.00000E+00        -0.32355E+04
 
   -0.58619E+04         0.55845E+04         0.00000E+00
    0.55845E+04        -0.48241E+04         0.00000E+00
    0.00000E+00         0.00000E+00        -0.32058E+04
 
   -0.54162E+04         0.55801E+04         0.00000E+00
    0.55801E+04        -0.51622E+04         0.00000E+00
    0.00000E+00         0.00000E+00        -0.31735E+04
 
   -0.50014E+04         0.55749E+04         0.00000E+00
    0.55749E+04        -0.54590E+04         0.00000E+00
    0.00000E+00         0.00000E+00        -0.31381E+04
 
   -0.46109E+04         0.55817E+04         0.00000E+00
    0.55817E+04        -0.57180E+04         0.00000E+00
    0.00000E+00         0.00000E+00        -0.30987E+04
 
   -0.42348E+04         0.56122E+04         0.00000E+00
    0.56122E+04        -0.59451E+04         0.00000E+00
    0.00000E+00         0.00000E+00        -0.30540E+04
 
   -0.38602E+04         0.56755E+04         0.00000E+00
    0.56755E+04        -0.61481E+04         0.00000E+00
    0.00000E+00         0.00000E+00        -0.30025E+04
 
   -0.34720E+04         0.57784E+04         0.00000E+00
    0.57784E+04        -0.63365E+04         0.00000E+00
    0.00000E+00         0.00000E+00        -0.29426E+04
 
   -0.30534E+04         0.59252E+04         0.00000E+00
    0.59252E+04        -0.65209E+04         0.00000E+00
    0.00000E+00         0.00000E+00        -0.28723E+04
 
   -0.83457E+04         0.94825E+02         0.00000E+00
    0.94825E+02         0.56205E+01         0.00000E+00
    0.00000E+00         0.00000E+00        -0.25020E+04
 
   -0.87311E+04         0.33080E+03         0.00000E+00
    0.33080E+03         0.26092E+02         0.00000E+00
    0.00000E+00         0.00000E+00        -0.26115E+04
 
   -0.91184E+04         0.64666E+03         0.00000E+00
    0.64666E+03         0.43735E+02         0.00000E+00
    0.00000E+00         0.00000E+00        -0.27224E+04
 
   -0.94600E+04         0.10475E+04         0.00000E+00
    0.10475E+04         0.30232E+02         0.00000E+00
    0.00000E+00         0.00000E+00        -0.28289E+04
 
   -0.97129E+04         0.15202E+04         0.00000E+00
    0.15202E+04        -0.39344E+02         0.00000E+00
    0.00000E+00         0.00000E+00        -0.29257E+04
 
   -0.98469E+04         0.20391E+04         0.00000E+00
    0.20391E+04        -0.18143E+03         0.00000E+00
    0.00000E+00         0.00000E+00        -0.30085E+04
 
   -0.98475E+04         0.25730E+04         0.00000E+00
    0.25730E+04        -0.40189E+03         0.00000E+00
    0.00000E+00         0.00000E+00        -0.30748E+04
 
   -0.97164E+04         0.30913E+04         0.00000E+00
    0.30913E+04        -0.69659E+03         0.00000E+00
    0.00000E+00         0.00000E+00        -0.31239E+04
 
   -0.94677E+04         0.35686E+04         0.00000E+00
    0.35686E+04        -0.10539E+04         0.00000E+00
    0.00000E+00         0.00000E+00        -0.31565E+04
 
   -0.91234E+04         0.39878E+04         0.00000E+00
    0.39878E+04        -0.14578E+04         0.00000E+00
    0.00000E+00         0.00000E+00        -0.31743E+04
 
   -0.87084E+04         0.43400E+04         0.00000E+00
    0.43400E+04        -0.18911E+04         0.00000E+00
    0.00000E+00         0.00000E+00        -0.31798E+04
 
   -0.82471E+04         0.46235E+04         0.00000E+00
    0.46235E+04        -0.23376E+04         0.00000E+00
    0.00000E+00         0.00000E+00        -0.31754E+04
 
   -0.77604E+04         0.48420E+04         0.00000E+00
    0.48420E+04        -0.27833E+04         0.00000E+00
    0.00000E+00         0.00000E+00        -0.31631E+04
 
   -0.72655E+04         0.50025E+04         0.00000E+00
    0.50025E+04        -0.32170E+04         0.00000E+00
    0.00000E+00         0.00000E+00        -0.31448E+04
 
   -0.67754E+04         0.51145E+04         0.00000E+00
    0.51145E+04        -0.36298E+04         0.00000E+00
    0.00000E+00         0.00000E+00        -0.31215E+04
 
   -0.62988E+04         0.51887E+04         0.00000E+00
    0.51887E+04        -0.40151E+04         0.00000E+00
    0.00000E+00         0.00000E+00        -0.30942E+04
 
   -0.58410E+04         0.52365E+04         0.00000E+00
    0.52365E+04        -0.43688E+04         0.00000E+00
    0.00000E+00         0.00000E+00        -0.30629E+04
 
   -0.54036E+04         0.52700E+04         0.00000E+00
    0.52700E+04        -0.46889E+04         0.00000E+00
    0.00000E+00         0.00000E+00        -0.30278E+04
 
   -0.49847E+04         0.53006E+04         0.00000E+00
    0.53006E+04        -0.49761E+04         0.00000E+00
    0.00000E+00         0.00000E+00        -0.29882E+04
 
   -0.45788E+04         0.53390E+04         0.00000E+00
    0.53390E+04        -0.52331E+04         0.00000E+00
    0.00000E+00         0.00000E+00        -0.29436E+04
 
   -0.41779E+04         0.53947E+04         0.00000E+00
    0.53947E+04        -0.54647E+04         0.00000E+00
    0.00000E+00         0.00000E+00        -0.28928E+04
 
   -0.37711E+04         0.54753E+04         0.00000E+00
    0.54753E+04        -0.56775E+04         0.00000E+00
    0.00000E+00         0.00000E+00        -0.28346E+04
 
   -0.33459E+04         0.55861E+04         0.00000E+00
    0.55861E+04        -0.58795E+04         0.00000E+00
    0.00000E+00         0.00000E+00        -0.27676E+04
 
   -0.28878E+04         0.57306E+04         0.00000E+00
    0.57306E+04        -0.60796E+04         0.00000E+00
    0.00000E+00         0.00000E+00        -0.26902E+04
 
   -0.81333E+04         0.10386E+03         0.00000E+00
    0.10386E+03         0.22419E+01         0.00000E+00
    0.00000E+00         0.00000E+00        -0.24393E+04
 
   -0.84595E+04         0.34503E+03         0.00000E+00
    0.34503E+03         0.86606E+01         0.00000E+00
    0.00000E+00         0.00000E+00        -0.25353E+04
 
   -0.87744E+04         0.64353E+03         0.00000E+00
    0.64353E+03         0.67064E+01         0.00000E+00
    0.00000E+00         0.00000E+00        -0.26303E+04
 
   -0.90468E+04         0.10037E+04         0.00000E+00
    0.10037E+04        -0.22747E+02         0.00000E+00
    0.00000E+00         0.00000E+00        -0.27209E+04
 
   -0.92470E+04         0.14174E+04         0.00000E+00
    0.14174E+04        -0.97437E+02         0.00000E+00
    0.00000E+00         0.00000E+00        -0.28033E+04
 
   -0.93529E+04         0.18672E+04         0.00000E+00
    0.18672E+04        -0.22984E+03         0.00000E+00
    0.00000E+00         0.00000E+00        -0.28748E+04
 
   -0.93527E+04         0.23309E+04         0.00000E+00
    0.23309E+04        -0.42522E+03         0.00000E+00
    0.00000E+00         0.00000E+00        -0.29334E+04
 
   -0.92456E+04         0.27855E+04         0.00000E+00
    0.27855E+04        -0.68162E+03         0.00000E+00
    0.00000E+00         0.00000E+00        -0.29782E+04
 
   -0.90402E+04         0.32114E+04         0.00000E+00
    0.32114E+04        -0.99115E+03         0.00000E+00
    0.00000E+00         0.00000E+00        -0.30094E+04
 
   -0.87515E+04         0.35941E+04         0.00000E+00
    0.35941E+04        -0.13421E+04         0.00000E+00
    0.00000E+00         0.00000E+00        -0.30281E+04
 
   -0.83976E+04         0.39251E+04         0.00000E+00
    0.39251E+04        -0.17211E+04         0.00000E+00
    0.00000E+00         0.00000E+00        -0.30356E+04
 
   -0.79971E+04         0.42013E+04         0.00000E+00
    0.42013E+04        -0.21150E+04         0.00000E+00
    0.00000E+00         0.00000E+00        -0.30336E+04
 
   -0.75668E+04         0.44243E+04         0.00000E+00
    0.44243E+04        -0.25118E+04         0.00000E+00
    0.00000E+00         0.00000E+00        -0.30236E+04
 
   -0.71212E+04         0.45989E+04         0.00000E+00
    0.45989E+04        -0.29016E+04         0.00000E+00
    0.00000E+00         0.00000E+00        -0.30068E+04
 
   -0.66712E+04         0.47323E+04         0.00000E+00
    0.47323E+04        -0.32764E+04         0.00000E+00
    0.00000E+00         0.00000E+00        -0.29843E+04
 
   -0.62247E+04         0.48328E+04         0.00000E+00
    0.48328E+04        -0.36304E+04         0.00000E+00
    0.00000E+00         0.00000E+00        -0.29565E+04
 
   -0.57864E+04         0.49100E+04         0.00000E+00
    0.49100E+04        -0.39598E+04         0.00000E+00
    0.00000E+00         0.00000E+00        -0.29239E+04
 
   -0.53578E+04         0.49734E+04         0.00000E+00
    0.49734E+04        -0.42630E+04         0.00000E+00
    0.00000E+00         0.00000E+00        -0.28863E+04
 
   -0.49375E+04         0.50324E+04         0.00000E+00
    0.50324E+04        -0.45403E+04         0.00000E+00
    0.00000E+00         0.00000E+00        -0.28433E+04
 
   -0.45211E+04         0.50958E+04         0.00000E+00
    0.50958E+04        -0.47938E+04         0.00000E+00
    0.00000E+00         0.00000E+00        -0.27945E+04
 
   -0.41020E+04         0.51713E+04         0.00000E+00
    0.51713E+04        -0.50276E+04         0.00000E+00
    0.00000E+00         0.00000E+00        -0.27389E+04
 
   -0.36712E+04         0.52649E+04         0.00000E+00
    0.52649E+04        -0.52470E+04         0.00000E+00
    0.00000E+00         0.00000E+00        -0.26754E+04
 
   -0.32179E+04         0.53809E+04         0.00000E+00
    0.53809E+04        -0.54588E+04         0.00000E+00
    0.00000E+00         0.00000E+00        -0.26030E+04
 
   -0.27302E+04         0.55219E+04         0.00000E+00
    0.55219E+04        -0.56706E+04         0.00000E+00
    0.00000E+00         0.00000E+00        -0.25202E+04
 
   -0.79132E+04         0.10609E+03         0.00000E+00
    0.10609E+03         0.44625E-01         0.00000E+00
    0.00000E+00         0.00000E+00        -0.23740E+04
 
   -0.81959E+04         0.34395E+03         0.00000E+00
    0.34395E+03        -0.28050E+01         0.00000E+00
    0.00000E+00         0.00000E+00        -0.24596E+04
 
   -0.84581E+04         0.62437E+03         0.00000E+00
    0.62437E+03        -0.17832E+02         0.00000E+00
    0.00000E+00         0.00000E+00        -0.25428E+04
 
   -0.86794E+04         0.95043E+03         0.00000E+00
    0.95043E+03        -0.57834E+02         0.00000E+00
    0.00000E+00         0.00000E+00        -0.26212E+04
 
   -0.88396E+04         0.13167E+04         0.00000E+00
    0.13167E+04        -0.13524E+03         0.00000E+00
    0.00000E+00         0.00000E+00        -0.26924E+04
 
   -0.89226E+04         0.17112E+04         0.00000E+00
    0.17112E+04        -0.25926E+03         0.00000E+00
    0.00000E+00         0.00000E+00        -0.27546E+04
 
   -0.89194E+04         0.21177E+04         0.00000E+00
    0.21177E+04        -0.43426E+03         0.00000E+00
    0.00000E+00         0.00000E+00        -0.28061E+04
 
   -0.88283E+04         0.25194E+04         0.00000E+00
    0.25194E+04        -0.65943E+03         0.00000E+00
    0.00000E+00         0.00000E+00        -0.28463E+04
 
   -0.86543E+04         0.29011E+04         0.00000E+00
    0.29011E+04        -0.92943E+03         0.00000E+00
    0.00000E+00         0.00000E+00        -0.28751E+04
 
   -0.84077E+04         0.32506E+04         0.00000E+00
    0.32506E+04        -0.12357E+04         0.00000E+00
    0.00000E+00         0.00000E+00        -0.28930E+04
 
   -0.81015E+04         0.35605E+04         0.00000E+00
    0.35605E+04        -0.15681E+04         0.00000E+00
    0.00000E+00         0.00000E+00        -0.29009E+04
 
   -0.77499E+04         0.38271E+04         0.00000E+00
    0.38271E+04        -0.19160E+04         0.00000E+00
    0.00000E+00         0.00000E+00        -0.28998E+04
 
   -0.73660E+04         0.40507E+04         0.00000E+00
    0.40507E+04        -0.22695E+04         0.00000E+00
    0.00000E+00         0.00000E+00        -0.28907E+04
 
   -0.69616E+04         0.42343E+04         0.00000E+00
    0.42343E+04        -0.26200E+04         0.00000E+00
    0.00000E+00         0.00000E+00        -0.28745E+04
 
   -0.65460E+04         0.43830E+04         0.00000E+00
    0.43830E+04        -0.29607E+04         0.00000E+00
    0.00000E+00         0.00000E+00        -0.28520E+04
 
   -0.61259E+04         0.45036E+04         0.00000E+00
    0.45036E+04        -0.32864E+04         0.00000E+00
    0.00000E+00         0.00000E+00        -0.28237E+04
 
   -0.57054E+04         0.46033E+04         0.00000E+00
    0.46033E+04        -0.35935E+04         0.00000E+00
    0.00000E+00         0.00000E+00        -0.27897E+04
 
   -0.52859E+04         0.46900E+04         0.00000E+00
    0.46900E+04        -0.38806E+04         0.00000E+00
    0.00000E+00         0.00000E+00        -0.27500E+04
 
   -0.48665E+04         0.47712E+04         0.00000E+00
    0.47712E+04        -0.41478E+04         0.00000E+00
    0.00000E+00         0.00000E+00        -0.27043E+04
 
   -0.44436E+04         0.48540E+04         0.00000E+00
    0.48540E+04        -0.43967E+04         0.00000E+00
    0.00000E+00         0.00000E+00        -0.26521E+04
 
   -0.40117E+04         0.49444E+04         0.00000E+00
    0.49444E+04        -0.46306E+04         0.00000E+00
    0.00000E+00         0.00000E+00        -0.25927E+04
 
   -0.35634E+04         0.50475E+04         0.00000E+00
    0.50475E+04        -0.48541E+04         0.00000E+00
    0.00000E+00         0.00000E+00        -0.25253E+04
 
   -0.30898E+04         0.51664E+04         0.00000E+00
    0.51664E+04        -0.50726E+04         0.00000E+00
    0.00000E+00         0.00000E+00        -0.24487E+04
 
   -0.25807E+04         0.53029E+04         0.00000E+00
    0.53029E+04        -0.52927E+04         0.00000E+00
    0.00000E+00         0.00000E+00        -0.23620E+04
 
   -0.76952E+04         0.10398E+03         0.00000E+00
    0.10398E+03        -0.13200E+01         0.00000E+00
    0.00000E+00         0.00000E+00        -0.23089E+04
 
   -0.79442E+04         0.33294E+03         0.00000E+00
    0.33294E+03        -0.99733E+01         0.00000E+00
    0.00000E+00         0.00000E+00        -0.23862E+04
 
   -0.81668E+04         0.59489E+03         0.00000E+00
    0.59489E+03        -0.33159E+02         0.00000E+00
    0.00000E+00         0.00000E+00        -0.24600E+04
 
   -0.83497E+04         0.89152E+03         0.00000E+00
    0.89152E+03        -0.79395E+02         0.00000E+00
    0.00000E+00         0.00000E+00        -0.25287E+04
 
   -0.84792E+04         0.12189E+04         0.00000E+00
    0.12189E+04        -0.15729E+03         0.00000E+00
    0.00000E+00         0.00000E+00        -0.25909E+04
 
   -0.85438E+04         0.15684E+04         0.00000E+00
    0.15684E+04        -0.27350E+03         0.00000E+00
    0.00000E+00         0.00000E+00        -0.26452E+04
 
   -0.85367E+04         0.19283E+04         0.00000E+00
    0.19283E+04        -0.43144E+03         0.00000E+00
    0.00000E+00         0.00000E+00        -0.26905E+04
 
   -0.84560E+04         0.22860E+04         0.00000E+00
    0.22860E+04        -0.63086E+03         0.00000E+00
    0.00000E+00         0.00000E+00        -0.27261E+04
 
   -0.83048E+04         0.26297E+04         0.00000E+00
    0.26297E+04        -0.86810E+03         0.00000E+00
    0.00000E+00         0.00000E+00        -0.27519E+04
 
   -0.80899E+04         0.29496E+04         0.00000E+00
    0.29496E+04        -0.11370E+04         0.00000E+00
    0.00000E+00         0.00000E+00        -0.27681E+04
 
   -0.78209E+04         0.32392E+04         0.00000E+00
    0.32392E+04        -0.14296E+04         0.00000E+00
    0.00000E+00         0.00000E+00        -0.27752E+04
 
   -0.75082E+04         0.34949E+04         0.00000E+00
    0.34949E+04        -0.17378E+04         0.00000E+00
    0.00000E+00         0.00000E+00        -0.27738E+04
 
   -0.71621E+04         0.37160E+04         0.00000E+00
    0.37160E+04        -0.20535E+04         0.00000E+00
    0.00000E+00         0.00000E+00        -0.27647E+04
 
   -0.67921E+04         0.39043E+04         0.00000E+00
    0.39043E+04        -0.23694E+04         0.00000E+00
    0.00000E+00         0.00000E+00        -0.27484E+04
 
   -0.64056E+04         0.40635E+04         0.00000E+00
    0.40635E+04        -0.26796E+04         0.00000E+00
    0.00000E+00         0.00000E+00        -0.27255E+04
 
   -0.60084E+04         0.41985E+04         0.00000E+00
    0.41985E+04        -0.29795E+04         0.00000E+00
    0.00000E+00         0.00000E+00        -0.26964E+04
 
   -0.56041E+04         0.43151E+04         0.00000E+00
    0.43151E+04        -0.32662E+04         0.00000E+00
    0.00000E+00         0.00000E+00        -0.26611E+04
 
   -0.51939E+04         0.44194E+04         0.00000E+00
    0.44194E+04        -0.35380E+04         0.00000E+00
    0.00000E+00         0.00000E+00        -0.26196E+04
 
   -0.47770E+04         0.45174E+04         0.00000E+00
    0.45174E+04        -0.37950E+04         0.00000E+00
    0.00000E+00         0.00000E+00        -0.25716E+04
 
   -0.43509E+04         0.46148E+04         0.00000E+00
    0.46148E+04        -0.40385E+04         0.00000E+00
    0.00000E+00         0.00000E+00        -0.25168E+04
 
   -0.39108E+04         0.47163E+04         0.00000E+00
    0.47163E+04        -0.42710E+04         0.00000E+00
    0.00000E+00         0.00000E+00        -0.24545E+04
 
   -0.34508E+04         0.48258E+04         0.00000E+00
    0.48258E+04        -0.44963E+04         0.00000E+00
    0.00000E+00         0.00000E+00        -0.23841E+04
 
   -0.29632E+04         0.49456E+04         0.00000E+00
    0.49456E+04        -0.47189E+04         0.00000E+00
    0.00000E+00         0.00000E+00        -0.23046E+04
 
   -0.24397E+04         0.50769E+04         0.00000E+00
    0.50769E+04        -0.49443E+04         0.00000E+00
    0.00000E+00         0.00000E+00        -0.22152E+04
 
   -0.74852E+04         0.99252E+02         0.00000E+00
    0.99252E+02        -0.21112E+01         0.00000E+00
    0.00000E+00         0.00000E+00        -0.22462E+04
 
   -0.77067E+04         0.31593E+03         0.00000E+00
    0.31593E+03        -0.14128E+02         0.00000E+00
    0.00000E+00         0.00000E+00        -0.23163E+04
 
   -0.78985E+04         0.55937E+03         0.00000E+00
    0.55937E+03        -0.41906E+02         0.00000E+00
    0.00000E+00         0.00000E+00        -0.23821E+04
 
   -0.80519E+04         0.83007E+03         0.00000E+00
    0.83007E+03        -0.91113E+02         0.00000E+00
    0.00000E+00         0.00000E+00        -0.24429E+04
 
   -0.81574E+04         0.11249E+04         0.00000E+00
    0.11249E+04        -0.16767E+03         0.00000E+00
    0.00000E+00         0.00000E+00        -0.24975E+04
 
   -0.82071E+04         0.14373E+04         0.00000E+00
    0.14373E+04        -0.27630E+03         0.00000E+00
    0.00000E+00         0.00000E+00        -0.25450E+04
 
   -0.81958E+04         0.17587E+04         0.00000E+00
    0.17587E+04        -0.41957E+03         0.00000E+00
    0.00000E+00         0.00000E+00        -0.25846E+04
 
   -0.81219E+04         0.20796E+04         0.00000E+00
    0.20796E+04        -0.59746E+03         0.00000E+00
    0.00000E+00         0.00000E+00        -0.26158E+04
 
   -0.79870E+04         0.23907E+04         0.00000E+00
    0.23907E+04        -0.80742E+03         0.00000E+00
    0.00000E+00         0.00000E+00        -0.26383E+04
 
   -0.77960E+04         0.26844E+04         0.00000E+00
    0.26844E+04        -0.10449E+04         0.00000E+00
    0.00000E+00         0.00000E+00        -0.26523E+04
 
   -0.75557E+04         0.29550E+04         0.00000E+00
    0.29550E+04        -0.13040E+04         0.00000E+00
    0.00000E+00         0.00000E+00        -0.26579E+04
 
   -0.72738E+04         0.31990E+04         0.00000E+00
    0.31990E+04        -0.15781E+04         0.00000E+00
    0.00000E+00         0.00000E+00        -0.26556E+04
 
   -0.69584E+04         0.34155E+04         0.00000E+00
    0.34155E+04        -0.18609E+04         0.00000E+00
    0.00000E+00         0.00000E+00        -0.26458E+04
 
   -0.66166E+04         0.36052E+04         0.00000E+00
    0.36052E+04        -0.21463E+04         0.00000E+00
    0.00000E+00         0.00000E+00        -0.26289E+04
 
   -0.62548E+04         0.37707E+04         0.00000E+00
    0.37707E+04        -0.24295E+04         0.00000E+00
    0.00000E+00         0.00000E+00        -0.26053E+04
 
   -0.58775E+04         0.39155E+04         0.00000E+00
    0.39155E+04        -0.27063E+04         0.00000E+00
    0.00000E+00         0.00000E+00        -0.25751E+04
 
   -0.54878E+04         0.40442E+04         0.00000E+00
    0.40442E+04        -0.29742E+04         0.00000E+00
    0.00000E+00         0.00000E+00        -0.25386E+04
 
   -0.50868E+04         0.41613E+04         0.00000E+00
    0.41613E+04        -0.32317E+04         0.00000E+00
    0.00000E+00         0.00000E+00        -0.24955E+04
 
   -0.46740E+04         0.42716E+04         0.00000E+00
    0.42716E+04        -0.34786E+04         0.00000E+00
    0.00000E+00         0.00000E+00        -0.24458E+04
 
   -0.42472E+04         0.43795E+04         0.00000E+00
    0.43795E+04        -0.37159E+04         0.00000E+00
    0.00000E+00         0.00000E+00        -0.23889E+04
 
   -0.38026E+04         0.44886E+04         0.00000E+00
    0.44886E+04        -0.39457E+04         0.00000E+00
    0.00000E+00         0.00000E+00        -0.23245E+04
 
   -0.33354E+04         0.46020E+04         0.00000E+00
    0.46020E+04        -0.41711E+04         0.00000E+00
    0.00000E+00         0.00000E+00        -0.22519E+04
 
   -0.28392E+04         0.47211E+04         0.00000E+00
    0.47211E+04        -0.43957E+04         0.00000E+00
    0.00000E+00         0.00000E+00        -0.21705E+04
 
   -0.23072E+04         0.48466E+04         0.00000E+00
    0.48466E+04        -0.46240E+04         0.00000E+00
    0.00000E+00         0.00000E+00        -0.20794E+04
 
   -0.72869E+04         0.93090E+02         0.00000E+00
    0.93090E+02        -0.25167E+01         0.00000E+00
    0.00000E+00         0.00000E+00        -0.21868E+04
 
   -0.74849E+04         0.29567E+03         0.00000E+00
    0.29567E+03        -0.16224E+02         0.00000E+00
    0.00000E+00         0.00000E+00        -0.22503E+04
 
   -0.76517E+04         0.52092E+03         0.00000E+00
    0.52092E+03        -0.46091E+02         0.00000E+00
    0.00000E+00         0.00000E+00        -0.23093E+04
 
   -0.77816E+04         0.76842E+03         0.00000E+00
    0.76842E+03        -0.95917E+02         0.00000E+00
    0.00000E+00         0.00000E+00        -0.23632E+04
 
   -0.78680E+04         0.10354E+04         0.00000E+00
    0.10354E+04        -0.16976E+03         0.00000E+00
    0.00000E+00         0.00000E+00        -0.24113E+04
 
   -0.79054E+04         0.13168E+04         0.00000E+00
    0.13168E+04        -0.27095E+03         0.00000E+00
    0.00000E+00         0.00000E+00        -0.24529E+04
 
   -0.78898E+04         0.16060E+04         0.00000E+00
    0.16060E+04        -0.40134E+03         0.00000E+00
    0.00000E+00         0.00000E+00        -0.24873E+04
 
   -0.78200E+04         0.18958E+04         0.00000E+00
    0.18958E+04        -0.56096E+03         0.00000E+00
    0.00000E+00         0.00000E+00        -0.25143E+04
 
   -0.76969E+04         0.21790E+04         0.00000E+00
    0.21790E+04        -0.74800E+03         0.00000E+00
    0.00000E+00         0.00000E+00        -0.25335E+04
 
   -0.75238E+04         0.24494E+04         0.00000E+00
    0.24494E+04        -0.95907E+03         0.00000E+00
    0.00000E+00         0.00000E+00        -0.25449E+04
 
   -0.73056E+04         0.27022E+04         0.00000E+00
    0.27022E+04        -0.11897E+04         0.00000E+00
    0.00000E+00         0.00000E+00        -0.25486E+04
 
   -0.70480E+04         0.29344E+04         0.00000E+00
    0.29344E+04        -0.14348E+04         0.00000E+00
    0.00000E+00         0.00000E+00        -0.25448E+04
 
   -0.67572E+04         0.31446E+04         0.00000E+00
    0.31446E+04        -0.16892E+04         0.00000E+00
    0.00000E+00         0.00000E+00        -0.25339E+04
 
   -0.64388E+04         0.33332E+04         0.00000E+00
    0.33332E+04        -0.19481E+04         0.00000E+00
    0.00000E+00         0.00000E+00        -0.25161E+04
 
   -0.60976E+04         0.35016E+04         0.00000E+00
    0.35016E+04        -0.22073E+04         0.00000E+00
    0.00000E+00         0.00000E+00        -0.24915E+04
 
   -0.57376E+04         0.36525E+04         0.00000E+00
    0.36525E+04        -0.24634E+04         0.00000E+00
    0.00000E+00         0.00000E+00        -0.24603E+04
 
   -0.53610E+04         0.37891E+04         0.00000E+00
    0.37891E+04        -0.27141E+04         0.00000E+00
    0.00000E+00         0.00000E+00        -0.24225E+04
 
   -0.49690E+04         0.39150E+04         0.00000E+00
    0.39150E+04        -0.29582E+04         0.00000E+00
    0.00000E+00         0.00000E+00        -0.23782E+04
 
   -0.45612E+04         0.40338E+04         0.00000E+00
    0.40338E+04        -0.31952E+04         0.00000E+00
    0.00000E+00         0.00000E+00        -0.23269E+04
 
   -0.41358E+04         0.41488E+04         0.00000E+00
    0.41488E+04        -0.34260E+04         0.00000E+00
    0.00000E+00         0.00000E+00        -0.22686E+04
 
   -0.36899E+04         0.42628E+04         0.00000E+00
    0.42628E+04        -0.36522E+04         0.00000E+00
    0.00000E+00         0.00000E+00        -0.22026E+04
 
   -0.32192E+04         0.43778E+04         0.00000E+00
    0.43778E+04        -0.38762E+04         0.00000E+00
    0.00000E+00         0.00000E+00        -0.21286E+04
 
   -0.27189E+04         0.44950E+04         0.00000E+00
    0.44950E+04        -0.41010E+04         0.00000E+00
    0.00000E+00         0.00000E+00        -0.20460E+04
 
   -0.21831E+04         0.46142E+04         0.00000E+00
    0.46142E+04        -0.43302E+04         0.00000E+00
    0.00000E+00         0.00000E+00        -0.19540E+04
 
   -0.71021E+04         0.86273E+02         0.00000E+00
    0.86273E+02        -0.26694E+01         0.00000E+00
    0.00000E+00         0.00000E+00        -0.21314E+04
 
   -0.72791E+04         0.27404E+03         0.00000E+00
    0.27404E+03        -0.16953E+02         0.00000E+00
    0.00000E+00         0.00000E+00        -0.21888E+04
 
   -0.74249E+04         0.48172E+03         0.00000E+00
    0.48172E+03        -0.47211E+02         0.00000E+00
    0.00000E+00         0.00000E+00        -0.22416E+04
 
   -0.75354E+04         0.70824E+03         0.00000E+00
    0.70824E+03        -0.96044E+02         0.00000E+00
    0.00000E+00         0.00000E+00        -0.22894E+04
 
   -0.76061E+04         0.95099E+03         0.00000E+00
    0.95099E+03        -0.16625E+03         0.00000E+00
    0.00000E+00         0.00000E+00        -0.23317E+04
 
   -0.76330E+04         0.12059E+04         0.00000E+00
    0.12059E+04        -0.26014E+03         0.00000E+00
    0.00000E+00         0.00000E+00        -0.23679E+04
 
   -0.76132E+04         0.14679E+04         0.00000E+00
    0.14679E+04        -0.37905E+03         0.00000E+00
    0.00000E+00         0.00000E+00        -0.23977E+04
 
   -0.75456E+04         0.17312E+04         0.00000E+00
    0.17312E+04        -0.52297E+03         0.00000E+00
    0.00000E+00         0.00000E+00        -0.24206E+04
 
   -0.74309E+04         0.19901E+04         0.00000E+00
    0.19901E+04        -0.69059E+03         0.00000E+00
    0.00000E+00         0.00000E+00        -0.24364E+04
 
   -0.72711E+04         0.22398E+04         0.00000E+00
    0.22398E+04        -0.87936E+03         0.00000E+00
    0.00000E+00         0.00000E+00        -0.24451E+04
 
   -0.70699E+04         0.24762E+04         0.00000E+00
    0.24762E+04        -0.10859E+04         0.00000E+00
    0.00000E+00         0.00000E+00        -0.24467E+04
 
   -0.68315E+04         0.26966E+04         0.00000E+00
    0.26966E+04        -0.13062E+04         0.00000E+00
    0.00000E+00         0.00000E+00        -0.24413E+04
 
   -0.65604E+04         0.28995E+04         0.00000E+00
    0.28995E+04        -0.15362E+04         0.00000E+00
    0.00000E+00         0.00000E+00        -0.24290E+04
 
   -0.62611E+04         0.30849E+04         0.00000E+00
    0.30849E+04        -0.17720E+04         0.00000E+00
    0.00000E+00         0.00000E+00        -0.24099E+04
 
   -0.59373E+04         0.32537E+04         0.00000E+00
    0.32537E+04        -0.20101E+04         0.00000E+00
    0.00000E+00         0.00000E+00        -0.23842E+04
 
   -0.55921E+04         0.34075E+04         0.00000E+00
    0.34075E+04        -0.22477E+04         0.00000E+00
    0.00000E+00         0.00000E+00        -0.23519E+04
 
   -0.52274E+04         0.35488E+04         0.00000E+00
    0.35488E+04        -0.24829E+04         0.00000E+00
    0.00000E+00         0.00000E+00        -0.23131E+04
 
   -0.48442E+04         0.36801E+04         0.00000E+00
    0.36801E+04        -0.27144E+04         0.00000E+00
    0.00000E+00         0.00000E+00        -0.22676E+04
 
   -0.44421E+04         0.38042E+04         0.00000E+00
    0.38042E+04        -0.29419E+04         0.00000E+00
    0.00000E+00         0.00000E+00        -0.22152E+04
 
   -0.40198E+04         0.39234E+04         0.00000E+00
    0.39234E+04        -0.31660E+04         0.00000E+00
    0.00000E+00         0.00000E+00        -0.21557E+04
 
   -0.35748E+04         0.40398E+04         0.00000E+00
    0.40398E+04        -0.33877E+04         0.00000E+00
    0.00000E+00         0.00000E+00        -0.20888E+04
 
   -0.31039E+04         0.41548E+04         0.00000E+00
    0.41548E+04        -0.36092E+04         0.00000E+00
    0.00000E+00         0.00000E+00        -0.20139E+04
 
   -0.26029E+04         0.42689E+04         0.00000E+00
    0.42689E+04        -0.38328E+04         0.00000E+00
    0.00000E+00         0.00000E+00        -0.19307E+04
 
   -0.20673E+04         0.43817E+04         0.00000E+00
    0.43817E+04        -0.40614E+04         0.00000E+00
    0.00000E+00         0.00000E+00        -0.18386E+04
 
   -0.69315E+04         0.79309E+02         0.00000E+00
    0.79309E+02        -0.26622E+01         0.00000E+00
    0.00000E+00         0.00000E+00        -0.20802E+04
 
   -0.70892E+04         0.25226E+03         0.00000E+00
    0.25226E+03        -0.16807E+02         0.00000E+00
    0.00000E+00         0.00000E+00        -0.21318E+04
 
   -0.72166E+04         0.44322E+03         0.00000E+00
    0.44322E+03        -0.46357E+02         0.00000E+00
    0.00000E+00         0.00000E+00        -0.21789E+04
 
   -0.73106E+04         0.65064E+03         0.00000E+00
    0.65064E+03        -0.93154E+02         0.00000E+00
    0.00000E+00         0.00000E+00        -0.22211E+04
 
   -0.73679E+04         0.87206E+03         0.00000E+00
    0.87206E+03        -0.15916E+03         0.00000E+00
    0.00000E+00         0.00000E+00        -0.22581E+04
 
   -0.73857E+04         0.11041E+04         0.00000E+00
    0.11041E+04        -0.24598E+03         0.00000E+00
    0.00000E+00         0.00000E+00        -0.22895E+04
 
   -0.73618E+04         0.13425E+04         0.00000E+00
    0.13425E+04        -0.35456E+03         0.00000E+00
    0.00000E+00         0.00000E+00        -0.23149E+04
 
   -0.72951E+04         0.15829E+04         0.00000E+00
    0.15829E+04        -0.48486E+03         0.00000E+00
    0.00000E+00         0.00000E+00        -0.23340E+04
 
   -0.71861E+04         0.18207E+04         0.00000E+00
    0.18207E+04        -0.63588E+03         0.00000E+00
    0.00000E+00         0.00000E+00        -0.23466E+04
 
   -0.70363E+04         0.20518E+04         0.00000E+00
    0.20518E+04        -0.80572E+03         0.00000E+00
    0.00000E+00         0.00000E+00        -0.23526E+04
 
   -0.68480E+04         0.22729E+04         0.00000E+00
    0.22729E+04        -0.99173E+03         0.00000E+00
    0.00000E+00         0.00000E+00        -0.23519E+04
 
   -0.66246E+04         0.24817E+04         0.00000E+00
    0.24817E+04        -0.11909E+04         0.00000E+00
    0.00000E+00         0.00000E+00        -0.23446E+04
 
   -0.63694E+04         0.26766E+04         0.00000E+00
    0.26766E+04        -0.13998E+04         0.00000E+00
    0.00000E+00         0.00000E+00        -0.23308E+04
 
   -0.60856E+04         0.28574E+04         0.00000E+00
    0.28574E+04        -0.16156E+04         0.00000E+00
    0.00000E+00         0.00000E+00        -0.23104E+04
 
   -0.57764E+04         0.30244E+04         0.00000E+00
    0.30244E+04        -0.18352E+04         0.00000E+00
    0.00000E+00         0.00000E+00        -0.22835E+04
 
   -0.54440E+04         0.31786E+04         0.00000E+00
    0.31786E+04        -0.20565E+04         0.00000E+00
    0.00000E+00         0.00000E+00        -0.22502E+04
 
   -0.50901E+04         0.33219E+04         0.00000E+00
    0.33219E+04        -0.22776E+04         0.00000E+00
    0.00000E+00         0.00000E+00        -0.22103E+04
 
   -0.47153E+04         0.34559E+04         0.00000E+00
    0.34559E+04        -0.24975E+04         0.00000E+00
    0.00000E+00         0.00000E+00        -0.21638E+04
 
   -0.43195E+04         0.35826E+04         0.00000E+00
    0.35826E+04        -0.27158E+04         0.00000E+00
    0.00000E+00         0.00000E+00        -0.21106E+04
 
   -0.39014E+04         0.37037E+04         0.00000E+00
    0.37037E+04        -0.29330E+04         0.00000E+00
    0.00000E+00         0.00000E+00        -0.20503E+04
 
   -0.34594E+04         0.38206E+04         0.00000E+00
    0.38206E+04        -0.31499E+04         0.00000E+00
    0.00000E+00         0.00000E+00        -0.19828E+04
 
   -0.29906E+04         0.39341E+04         0.00000E+00
    0.39341E+04        -0.33680E+04         0.00000E+00
    0.00000E+00         0.00000E+00        -0.19076E+04
 
   -0.24919E+04         0.40443E+04         0.00000E+00
    0.40443E+04        -0.35892E+04         0.00000E+00
    0.00000E+00         0.00000E+00        -0.18243E+04
 
   -0.19597E+04         0.41505E+04         0.00000E+00
    0.41505E+04        -0.38159E+04         0.00000E+00
    0.00000E+00         0.00000E+00        -0.17327E+04
 
   -0.67748E+04         0.72512E+02         0.00000E+00
    0.72512E+02        -0.25588E+01         0.00000E+00
    0.00000E+00         0.00000E+00        -0.20332E+04
 
   -0.69146E+04         0.23113E+03         0.00000E+00
    0.23113E+03        -0.16130E+02         0.00000E+00
    0.00000E+00         0.00000E+00        -0.20792E+04
 
   -0.70255E+04         0.40632E+03         0.00000E+00
    0.40632E+03        -0.44303E+02         0.00000E+00
    0.00000E+00         0.00000E+00        -0.21209E+04
 
   -0.71050E+04         0.59629E+03         0.00000E+00
    0.59629E+03        -0.88452E+02         0.00000E+00
    0.00000E+00         0.00000E+00        -0.21580E+04
 
   -0.71507E+04         0.79868E+03         0.00000E+00
    0.79868E+03        -0.14999E+03         0.00000E+00
    0.00000E+00         0.00000E+00        -0.21902E+04
 
   -0.71603E+04         0.10106E+04         0.00000E+00
    0.10106E+04        -0.23006E+03         0.00000E+00
    0.00000E+00         0.00000E+00        -0.22171E+04
 
   -0.71322E+04         0.12285E+04         0.00000E+00
    0.12285E+04        -0.32931E+03         0.00000E+00
    0.00000E+00         0.00000E+00        -0.22384E+04
 
   -0.70654E+04         0.14488E+04         0.00000E+00
    0.14488E+04        -0.44770E+03         0.00000E+00
    0.00000E+00         0.00000E+00        -0.22539E+04
 
   -0.69602E+04         0.16678E+04         0.00000E+00
    0.16678E+04        -0.58445E+03         0.00000E+00
    0.00000E+00         0.00000E+00        -0.22634E+04
 
   -0.68176E+04         0.18821E+04         0.00000E+00
    0.18821E+04        -0.73809E+03         0.00000E+00
    0.00000E+00         0.00000E+00        -0.22667E+04
 
   -0.66393E+04         0.20891E+04         0.00000E+00
    0.20891E+04        -0.90661E+03         0.00000E+00
    0.00000E+00         0.00000E+00        -0.22638E+04
 
   -0.64276E+04         0.22865E+04         0.00000E+00
    0.22865E+04        -0.10876E+04         0.00000E+00
    0.00000E+00         0.00000E+00        -0.22546E+04
 
   -0.61850E+04         0.24730E+04         0.00000E+00
    0.24730E+04        -0.12785E+04         0.00000E+00
    0.00000E+00         0.00000E+00        -0.22391E+04
 
   -0.59141E+04         0.26479E+04         0.00000E+00
    0.26479E+04        -0.14769E+04         0.00000E+00
    0.00000E+00         0.00000E+00        -0.22173E+04
 
   -0.56171E+04         0.28115E+04         0.00000E+00
    0.28115E+04        -0.16803E+04         0.00000E+00
    0.00000E+00         0.00000E+00        -0.21892E+04
 
   -0.52958E+04         0.29643E+04         0.00000E+00
    0.29643E+04        -0.18870E+04         0.00000E+00
    0.00000E+00         0.00000E+00        -0.21548E+04
 
   -0.49515E+04         0.31072E+04         0.00000E+00
    0.31072E+04        -0.20954E+04         0.00000E+00
    0.00000E+00         0.00000E+00        -0.21141E+04
 
   -0.45848E+04         0.32417E+04         0.00000E+00
    0.32417E+04        -0.23046E+04         0.00000E+00
    0.00000E+00         0.00000E+00        -0.20668E+04
 
   -0.41955E+04         0.33688E+04         0.00000E+00
    0.33688E+04        -0.25143E+04         0.00000E+00
    0.00000E+00         0.00000E+00        -0.20129E+04
 
   -0.37828E+04         0.34899E+04         0.00000E+00
    0.34899E+04        -0.27246E+04         0.00000E+00
    0.00000E+00         0.00000E+00        -0.19522E+04
 
   -0.33451E+04         0.36056E+04         0.00000E+00
    0.36056E+04        -0.29363E+04         0.00000E+00
    0.00000E+00         0.00000E+00        -0.18844E+04
 
   -0.28805E+04         0.37165E+04         0.00000E+00
    0.37165E+04        -0.31504E+04         0.00000E+00
    0.00000E+00         0.00000E+00        -0.18093E+04
 
   -0.23863E+04         0.38222E+04         0.00000E+00
    0.38222E+04        -0.33684E+04         0.00000E+00
    0.00000E+00         0.00000E+00        -0.17264E+04
 
   -0.18598E+04         0.39218E+04         0.00000E+00
    0.39218E+04        -0.35921E+04         0.00000E+00
    0.00000E+00         0.00000E+00        -0.16356E+04
 
   -0.66317E+04         0.66064E+02         0.00000E+00
    0.66064E+02        -0.24026E+01         0.00000E+00
    0.00000E+00         0.00000E+00        -0.19902E+04
 
   -0.67547E+04         0.21109E+03         0.00000E+00
    0.21109E+03        -0.15160E+02         0.00000E+00
    0.00000E+00         0.00000E+00        -0.20309E+04
 
   -0.68504E+04         0.37155E+03         0.00000E+00
    0.37155E+03        -0.41591E+02         0.00000E+00
    0.00000E+00         0.00000E+00        -0.20676E+04
 
   -0.69169E+04         0.54553E+03         0.00000E+00
    0.54553E+03        -0.82789E+02         0.00000E+00
    0.00000E+00         0.00000E+00        -0.20999E+04
 
   -0.69521E+04         0.73078E+03         0.00000E+00
    0.73078E+03        -0.13982E+03         0.00000E+00
    0.00000E+00         0.00000E+00        -0.21276E+04
 
   -0.69542E+04         0.92472E+03         0.00000E+00
    0.92472E+03        -0.21352E+03         0.00000E+00
    0.00000E+00         0.00000E+00        -0.21503E+04
 
   -0.69218E+04         0.11244E+04         0.00000E+00
    0.11244E+04        -0.30436E+03         0.00000E+00
    0.00000E+00         0.00000E+00        -0.21678E+04
 
   -0.68542E+04         0.13269E+04         0.00000E+00
    0.13269E+04        -0.41228E+03         0.00000E+00
    0.00000E+00         0.00000E+00        -0.21799E+04
 
   -0.67513E+04         0.15291E+04         0.00000E+00
    0.15291E+04        -0.53668E+03         0.00000E+00
    0.00000E+00         0.00000E+00        -0.21864E+04
 
   -0.66139E+04         0.17282E+04         0.00000E+00
    0.17282E+04        -0.67643E+03         0.00000E+00
    0.00000E+00         0.00000E+00        -0.21871E+04
 
   -0.64431E+04         0.19218E+04         0.00000E+00
    0.19218E+04        -0.82996E+03         0.00000E+00
    0.00000E+00         0.00000E+00        -0.21819E+04
 
   -0.62405E+04         0.21082E+04         0.00000E+00
    0.21082E+04        -0.99541E+03         0.00000E+00
    0.00000E+00         0.00000E+00        -0.21708E+04
 
   -0.60081E+04         0.22859E+04         0.00000E+00
    0.22859E+04        -0.11708E+04         0.00000E+00
    0.00000E+00         0.00000E+00        -0.21536E+04
 
   -0.57476E+04         0.24542E+04         0.00000E+00
    0.24542E+04        -0.13540E+04         0.00000E+00
    0.00000E+00         0.00000E+00        -0.21305E+04
 
   -0.54609E+04         0.26131E+04         0.00000E+00
    0.26131E+04        -0.15433E+04         0.00000E+00
    0.00000E+00         0.00000E+00        -0.21013E+04
 
   -0.51492E+04         0.27628E+04         0.00000E+00
    0.27628E+04        -0.17371E+04         0.00000E+00
    0.00000E+00         0.00000E+00        -0.20659E+04
 
   -0.48137E+04         0.29037E+04         0.00000E+00
    0.29037E+04        -0.19341E+04         0.00000E+00
    0.00000E+00         0.00000E+00        -0.20243E+04
 
   -0.44547E+04         0.30368E+04         0.00000E+00
    0.30368E+04        -0.21335E+04         0.00000E+00
    0.00000E+00         0.00000E+00        -0.19764E+04
 
   -0.40721E+04         0.31627E+04         0.00000E+00
    0.31627E+04        -0.23350E+04         0.00000E+00
    0.00000E+00         0.00000E+00        -0.19221E+04
 
   -0.36654E+04         0.32821E+04         0.00000E+00
    0.32821E+04        -0.25386E+04         0.00000E+00
    0.00000E+00         0.00000E+00        -0.18612E+04
 
   -0.32333E+04         0.33954E+04         0.00000E+00
    0.33954E+04        -0.27448E+04         0.00000E+00
    0.00000E+00         0.00000E+00        -0.17934E+04
 
   -0.27742E+04         0.35027E+04         0.00000E+00
    0.35027E+04        -0.29544E+04         0.00000E+00
    0.00000E+00         0.00000E+00        -0.17186E+04
 
   -0.22864E+04         0.36034E+04         0.00000E+00
    0.36034E+04        -0.31686E+04         0.00000E+00
    0.00000E+00         0.00000E+00        -0.16365E+04
 
   -0.17676E+04         0.36965E+04         0.00000E+00
    0.36965E+04        -0.33886E+04         0.00000E+00
    0.00000E+00         0.00000E+00        -0.15469E+04
 
   -0.65012E+04         0.60059E+02         0.00000E+00
    0.60059E+02        -0.22221E+01         0.00000E+00
    0.00000E+00         0.00000E+00        -0.19510E+04
 
   -0.66083E+04         0.19239E+03         0.00000E+00
    0.19239E+03        -0.14055E+02         0.00000E+00
    0.00000E+00         0.00000E+00        -0.19867E+04
 
   -0.66901E+04         0.33916E+03         0.00000E+00
    0.33916E+03        -0.38588E+02         0.00000E+00
    0.00000E+00         0.00000E+00        -0.20186E+04
 
   -0.67447E+04         0.49845E+03         0.00000E+00
    0.49845E+03        -0.76754E+02         0.00000E+00
    0.00000E+00         0.00000E+00        -0.20464E+04
 
   -0.67702E+04         0.66815E+03         0.00000E+00
    0.66815E+03        -0.12940E+03         0.00000E+00
    0.00000E+00         0.00000E+00        -0.20699E+04
 
   -0.67652E+04         0.84595E+03         0.00000E+00
    0.84595E+03        -0.19719E+03         0.00000E+00
    0.00000E+00         0.00000E+00        -0.20887E+04
 
   -0.67285E+04         0.10293E+04         0.00000E+00
    0.10293E+04        -0.28045E+03         0.00000E+00
    0.00000E+00         0.00000E+00        -0.21027E+04
 
   -0.66594E+04         0.12158E+04         0.00000E+00
    0.12158E+04        -0.37915E+03         0.00000E+00
    0.00000E+00         0.00000E+00        -0.21116E+04
 
   -0.65578E+04         0.14027E+04         0.00000E+00
    0.14027E+04        -0.49282E+03         0.00000E+00
    0.00000E+00         0.00000E+00        -0.21152E+04
 
   -0.64240E+04         0.15877E+04         0.00000E+00
    0.15877E+04        -0.62059E+03         0.00000E+00
    0.00000E+00         0.00000E+00        -0.21134E+04
 
   -0.62588E+04         0.17688E+04         0.00000E+00
    0.17688E+04        -0.76124E+03         0.00000E+00
    0.00000E+00         0.00000E+00        -0.21060E+04
 
   -0.60633E+04         0.19444E+04         0.00000E+00
    0.19444E+04        -0.91331E+03         0.00000E+00
    0.00000E+00         0.00000E+00        -0.20930E+04
 
   -0.58390E+04         0.21131E+04         0.00000E+00
    0.21131E+04        -0.10752E+04         0.00000E+00
    0.00000E+00         0.00000E+00        -0.20743E+04
 
   -0.55871E+04         0.22743E+04         0.00000E+00
    0.22743E+04        -0.12454E+04         0.00000E+00
    0.00000E+00         0.00000E+00        -0.20498E+04
 
   -0.53091E+04         0.24275E+04         0.00000E+00
    0.24275E+04        -0.14223E+04         0.00000E+00
    0.00000E+00         0.00000E+00        -0.20194E+04
 
   -0.50059E+04         0.25728E+04         0.00000E+00
    0.25728E+04        -0.16046E+04         0.00000E+00
    0.00000E+00         0.00000E+00        -0.19831E+04
 
   -0.46782E+04         0.27104E+04         0.00000E+00
    0.27104E+04        -0.17913E+04         0.00000E+00
    0.00000E+00         0.00000E+00        -0.19409E+04
 
   -0.43266E+04         0.28406E+04         0.00000E+00
    0.28406E+04        -0.19817E+04         0.00000E+00
    0.00000E+00         0.00000E+00        -0.18925E+04
 
   -0.39508E+04         0.29638E+04         0.00000E+00
    0.29638E+04        -0.21755E+04         0.00000E+00
    0.00000E+00         0.00000E+00        -0.18379E+04
 
   -0.35505E+04         0.30803E+04         0.00000E+00
    0.30803E+04        -0.23726E+04         0.00000E+00
    0.00000E+00         0.00000E+00        -0.17769E+04
 
   -0.31248E+04         0.31902E+04         0.00000E+00
    0.31902E+04        -0.25733E+04         0.00000E+00
    0.00000E+00         0.00000E+00        -0.17094E+04
 
   -0.26725E+04         0.32932E+04         0.00000E+00
    0.32932E+04        -0.27782E+04         0.00000E+00
    0.00000E+00         0.00000E+00        -0.16352E+04
 
   -0.21923E+04         0.33886E+04         0.00000E+00
    0.33886E+04        -0.29881E+04         0.00000E+00
    0.00000E+00         0.00000E+00        -0.15541E+04
 
   -0.16825E+04         0.34752E+04         0.00000E+00
    0.34752E+04        -0.32039E+04         0.00000E+00
    0.00000E+00         0.00000E+00        -0.14659E+04
 
   -0.63825E+04         0.54530E+02         0.00000E+00
    0.54530E+02        -0.20362E+01         0.00000E+00
    0.00000E+00         0.00000E+00        -0.19154E+04
 
   -0.64747E+04         0.17510E+03         0.00000E+00
    0.17510E+03        -0.12921E+02         0.00000E+00
    0.00000E+00         0.00000E+00        -0.19463E+04
 
   -0.65435E+04         0.30921E+03         0.00000E+00
    0.30921E+03        -0.35542E+02         0.00000E+00
    0.00000E+00         0.00000E+00        -0.19737E+04
 
   -0.65869E+04         0.45498E+03         0.00000E+00
    0.45498E+03        -0.70742E+02         0.00000E+00
    0.00000E+00         0.00000E+00        -0.19973E+04
 
   -0.66035E+04         0.61047E+03         0.00000E+00
    0.61047E+03        -0.11925E+03         0.00000E+00
    0.00000E+00         0.00000E+00        -0.20168E+04
 
   -0.65918E+04         0.77359E+03         0.00000E+00
    0.77359E+03        -0.18159E+03         0.00000E+00
    0.00000E+00         0.00000E+00        -0.20320E+04
 
   -0.65508E+04         0.94216E+03         0.00000E+00
    0.94216E+03        -0.25807E+03         0.00000E+00
    0.00000E+00         0.00000E+00        -0.20427E+04
 
   -0.64797E+04         0.11140E+04         0.00000E+00
    0.11140E+04        -0.34864E+03         0.00000E+00
    0.00000E+00         0.00000E+00        -0.20485E+04
 
   -0.63784E+04         0.12869E+04         0.00000E+00
    0.12869E+04        -0.45296E+03         0.00000E+00
    0.00000E+00         0.00000E+00        -0.20494E+04
 
   -0.62470E+04         0.14588E+04         0.00000E+00
    0.14588E+04        -0.57036E+03         0.00000E+00
    0.00000E+00         0.00000E+00        -0.20452E+04
 
   -0.60859E+04         0.16281E+04         0.00000E+00
    0.16281E+04        -0.69990E+03         0.00000E+00
    0.00000E+00         0.00000E+00        -0.20357E+04
 
   -0.58960E+04         0.17931E+04         0.00000E+00
    0.17931E+04        -0.84044E+03         0.00000E+00
    0.00000E+00         0.00000E+00        -0.20209E+04
 
   -0.56781E+04         0.19528E+04         0.00000E+00
    0.19528E+04        -0.99073E+03         0.00000E+00
    0.00000E+00         0.00000E+00        -0.20007E+04
 
   -0.54334E+04         0.21063E+04         0.00000E+00
    0.21063E+04        -0.11495E+04         0.00000E+00
    0.00000E+00         0.00000E+00        -0.19749E+04
 
   -0.51627E+04         0.22531E+04         0.00000E+00
    0.22531E+04        -0.13155E+04         0.00000E+00
    0.00000E+00         0.00000E+00        -0.19435E+04
 
   -0.48669E+04         0.23931E+04         0.00000E+00
    0.23931E+04        -0.14877E+04         0.00000E+00
    0.00000E+00         0.00000E+00        -0.19064E+04
 
   -0.45465E+04         0.25261E+04         0.00000E+00
    0.25261E+04        -0.16652E+04         0.00000E+00
    0.00000E+00         0.00000E+00        -0.18635E+04
 
   -0.42018E+04         0.26523E+04         0.00000E+00
    0.26523E+04        -0.18474E+04         0.00000E+00
    0.00000E+00         0.00000E+00        -0.18148E+04
 
   -0.38328E+04         0.27718E+04         0.00000E+00
    0.27718E+04        -0.20340E+04         0.00000E+00
    0.00000E+00         0.00000E+00        -0.17600E+04
 
   -0.34393E+04         0.28844E+04         0.00000E+00
    0.28844E+04        -0.22248E+04         0.00000E+00
    0.00000E+00         0.00000E+00        -0.16992E+04
 
   -0.30205E+04         0.29901E+04         0.00000E+00
    0.29901E+04        -0.24201E+04         0.00000E+00
    0.00000E+00         0.00000E+00        -0.16322E+04
 
   -0.25758E+04         0.30883E+04         0.00000E+00
    0.30883E+04        -0.26201E+04         0.00000E+00
    0.00000E+00         0.00000E+00        -0.15588E+04
 
   -0.21041E+04         0.31782E+04         0.00000E+00
    0.31782E+04        -0.28254E+04         0.00000E+00
    0.00000E+00         0.00000E+00        -0.14788E+04
 
   -0.16043E+04         0.32585E+04         0.00000E+00
    0.32585E+04        -0.30366E+04         0.00000E+00
    0.00000E+00         0.00000E+00        -0.13923E+04
 
   -0.62746E+04         0.49474E+02         0.00000E+00
    0.49474E+02        -0.18563E+01         0.00000E+00
    0.00000E+00         0.00000E+00        -0.18829E+04
 
   -0.63529E+04         0.15921E+03         0.00000E+00
    0.15921E+03        -0.11823E+02         0.00000E+00
    0.00000E+00         0.00000E+00        -0.19094E+04
 
   -0.64094E+04         0.28162E+03         0.00000E+00
    0.28162E+03        -0.32607E+02         0.00000E+00
    0.00000E+00         0.00000E+00        -0.19326E+04
 
   -0.64425E+04         0.41494E+03         0.00000E+00
    0.41494E+03        -0.65005E+02         0.00000E+00
    0.00000E+00         0.00000E+00        -0.19523E+04
 
   -0.64507E+04         0.55737E+03         0.00000E+00
    0.55737E+03        -0.10967E+03         0.00000E+00
    0.00000E+00         0.00000E+00        -0.19681E+04
 
   -0.64325E+04         0.70703E+03         0.00000E+00
    0.70703E+03        -0.16708E+03         0.00000E+00
    0.00000E+00         0.00000E+00        -0.19799E+04
 
   -0.63872E+04         0.86202E+03         0.00000E+00
    0.86202E+03        -0.23749E+03         0.00000E+00
    0.00000E+00         0.00000E+00        -0.19874E+04
 
   -0.63138E+04         0.10204E+04         0.00000E+00
    0.10204E+04        -0.32091E+03         0.00000E+00
    0.00000E+00         0.00000E+00        -0.19904E+04
 
   -0.62121E+04         0.11803E+04         0.00000E+00
    0.11803E+04        -0.41708E+03         0.00000E+00
    0.00000E+00         0.00000E+00        -0.19888E+04
 
   -0.60821E+04         0.13400E+04         0.00000E+00
    0.13400E+04        -0.52550E+03         0.00000E+00
    0.00000E+00         0.00000E+00        -0.19823E+04
 
   -0.59240E+04         0.14979E+04         0.00000E+00
    0.14979E+04        -0.64544E+03         0.00000E+00
    0.00000E+00         0.00000E+00        -0.19708E+04
 
   -0.57384E+04         0.16527E+04         0.00000E+00
    0.16527E+04        -0.77600E+03         0.00000E+00
    0.00000E+00         0.00000E+00        -0.19543E+04
 
   -0.55257E+04         0.18032E+04         0.00000E+00
    0.18032E+04        -0.91621E+03         0.00000E+00
    0.00000E+00         0.00000E+00        -0.19326E+04
 
   -0.52869E+04         0.19487E+04         0.00000E+00
    0.19487E+04        -0.10650E+04         0.00000E+00
    0.00000E+00         0.00000E+00        -0.19056E+04
 
   -0.50225E+04         0.20886E+04         0.00000E+00
    0.20886E+04        -0.12215E+04         0.00000E+00
    0.00000E+00         0.00000E+00        -0.18732E+04
 
   -0.47332E+04         0.22225E+04         0.00000E+00
    0.22225E+04        -0.13847E+04         0.00000E+00
    0.00000E+00         0.00000E+00        -0.18354E+04
 
   -0.44193E+04         0.23502E+04         0.00000E+00
    0.23502E+04        -0.15540E+04         0.00000E+00
    0.00000E+00         0.00000E+00        -0.17920E+04
 
   -0.40813E+04         0.24715E+04         0.00000E+00
    0.24715E+04        -0.17287E+04         0.00000E+00
    0.00000E+00         0.00000E+00        -0.17430E+04
 
   -0.37190E+04         0.25863E+04         0.00000E+00
    0.25863E+04        -0.19086E+04         0.00000E+00
    0.00000E+00         0.00000E+00        -0.16883E+04
 
   -0.33324E+04         0.26943E+04         0.00000E+00
    0.26943E+04        -0.20935E+04         0.00000E+00
    0.00000E+00         0.00000E+00        -0.16277E+04
 
   -0.29210E+04         0.27951E+04         0.00000E+00
    0.27951E+04        -0.22833E+04         0.00000E+00
    0.00000E+00         0.00000E+00        -0.15613E+04
 
   -0.24843E+04         0.28882E+04         0.00000E+00
    0.28882E+04        -0.24784E+04         0.00000E+00
    0.00000E+00         0.00000E+00        -0.14888E+04
 
   -0.20217E+04         0.29724E+04         0.00000E+00
    0.29724E+04        -0.26789E+04         0.00000E+00
    0.00000E+00         0.00000E+00        -0.14102E+04
 
   -0.15326E+04         0.30466E+04         0.00000E+00
    0.30466E+04        -0.28853E+04         0.00000E+00
    0.00000E+00         0.00000E+00        -0.13254E+04
 
   -0.61767E+04         0.44868E+02         0.00000E+00
    0.44868E+02        -0.16894E+01         0.00000E+00
    0.00000E+00         0.00000E+00        -0.18535E+04
 
   -0.62418E+04         0.14466E+03         0.00000E+00
    0.14466E+03        -0.10802E+02         0.00000E+00
    0.00000E+00         0.00000E+00        -0.18758E+04
 
   -0.62870E+04         0.25627E+03         0.00000E+00
    0.25627E+03        -0.29879E+02         0.00000E+00
    0.00000E+00         0.00000E+00        -0.18951E+04
 
   -0.63104E+04         0.37808E+03         0.00000E+00
    0.37808E+03        -0.59694E+02         0.00000E+00
    0.00000E+00         0.00000E+00        -0.19110E+04
 
   -0.63106E+04         0.50844E+03         0.00000E+00
    0.50844E+03        -0.10087E+03         0.00000E+00
    0.00000E+00         0.00000E+00        -0.19234E+04
 
   -0.62863E+04         0.64568E+03         0.00000E+00
    0.64568E+03        -0.15384E+03         0.00000E+00
    0.00000E+00         0.00000E+00        -0.19320E+04
 
   -0.62366E+04         0.78810E+03         0.00000E+00
    0.78810E+03        -0.21887E+03         0.00000E+00
    0.00000E+00         0.00000E+00        -0.19366E+04
 
   -0.61607E+04         0.93401E+03         0.00000E+00
    0.93401E+03        -0.29601E+03         0.00000E+00
    0.00000E+00         0.00000E+00        -0.19370E+04
 
   -0.60581E+04         0.10818E+04         0.00000E+00
    0.10818E+04        -0.38507E+03         0.00000E+00
    0.00000E+00         0.00000E+00        -0.19330E+04
 
   -0.59288E+04         0.12299E+04         0.00000E+00
    0.12299E+04        -0.48569E+03         0.00000E+00
    0.00000E+00         0.00000E+00        -0.19244E+04
 
   -0.57728E+04         0.13769E+04         0.00000E+00
    0.13769E+04        -0.59731E+03         0.00000E+00
    0.00000E+00         0.00000E+00        -0.19110E+04
 
   -0.55904E+04         0.15216E+04         0.00000E+00
    0.15216E+04        -0.71923E+03         0.00000E+00
    0.00000E+00         0.00000E+00        -0.18929E+04
 
   -0.53819E+04         0.16630E+04         0.00000E+00
    0.16630E+04        -0.85069E+03         0.00000E+00
    0.00000E+00         0.00000E+00        -0.18698E+04
 
   -0.51480E+04         0.18003E+04         0.00000E+00
    0.18003E+04        -0.99086E+03         0.00000E+00
    0.00000E+00         0.00000E+00        -0.18417E+04
 
   -0.48890E+04         0.19328E+04         0.00000E+00
    0.19328E+04        -0.11390E+04         0.00000E+00
    0.00000E+00         0.00000E+00        -0.18084E+04
 
   -0.46055E+04         0.20601E+04         0.00000E+00
    0.20601E+04        -0.12942E+04         0.00000E+00
    0.00000E+00         0.00000E+00        -0.17699E+04
 
   -0.42977E+04         0.21818E+04         0.00000E+00
    0.21818E+04        -0.14561E+04         0.00000E+00
    0.00000E+00         0.00000E+00        -0.17261E+04
 
   -0.39659E+04         0.22975E+04         0.00000E+00
    0.22975E+04        -0.16240E+04         0.00000E+00
    0.00000E+00         0.00000E+00        -0.16770E+04
 
   -0.36102E+04         0.24070E+04         0.00000E+00
    0.24070E+04        -0.17976E+04         0.00000E+00
    0.00000E+00         0.00000E+00        -0.16224E+04
 
   -0.32305E+04         0.25097E+04         0.00000E+00
    0.25097E+04        -0.19768E+04         0.00000E+00
    0.00000E+00         0.00000E+00        -0.15622E+04
 
   -0.28266E+04         0.26053E+04         0.00000E+00
    0.26053E+04        -0.21614E+04         0.00000E+00
    0.00000E+00         0.00000E+00        -0.14964E+04
 
   -0.23983E+04         0.26928E+04         0.00000E+00
    0.26928E+04        -0.23516E+04         0.00000E+00
    0.00000E+00         0.00000E+00        -0.14250E+04
 
   -0.19452E+04         0.27714E+04         0.00000E+00
    0.27714E+04        -0.25473E+04         0.00000E+00
    0.00000E+00         0.00000E+00        -0.13477E+04
 
   -0.14671E+04         0.28397E+04         0.00000E+00
    0.28397E+04        -0.27487E+04         0.00000E+00
    0.00000E+00         0.00000E+00        -0.12647E+04
 
   -0.60878E+04         0.40671E+02         0.00000E+00
    0.40671E+02        -0.15390E+01         0.00000E+00
    0.00000E+00         0.00000E+00        -0.18268E+04
 
   -0.61408E+04         0.13132E+03         0.00000E+00
    0.13132E+03        -0.98779E+01         0.00000E+00
    0.00000E+00         0.00000E+00        -0.18452E+04
 
   -0.61753E+04         0.23295E+03         0.00000E+00
    0.23295E+03        -0.27408E+02         0.00000E+00
    0.00000E+00         0.00000E+00        -0.18608E+04
 
   -0.61896E+04         0.34410E+03         0.00000E+00
    0.34410E+03        -0.54889E+02         0.00000E+00
    0.00000E+00         0.00000E+00        -0.18733E+04
 
   -0.61823E+04         0.46326E+03         0.00000E+00
    0.46326E+03        -0.92925E+02         0.00000E+00
    0.00000E+00         0.00000E+00        -0.18826E+04
 
   -0.61521E+04         0.58895E+03         0.00000E+00
    0.58895E+03        -0.14195E+03         0.00000E+00
    0.00000E+00         0.00000E+00        -0.18882E+04
 
   -0.60981E+04         0.71966E+03         0.00000E+00
    0.71966E+03        -0.20224E+03         0.00000E+00
    0.00000E+00         0.00000E+00        -0.18901E+04
 
   -0.60195E+04         0.85390E+03         0.00000E+00
    0.85390E+03        -0.27386E+03         0.00000E+00
    0.00000E+00         0.00000E+00        -0.18880E+04
 
   -0.59157E+04         0.99022E+03         0.00000E+00
    0.99022E+03        -0.35673E+03         0.00000E+00
    0.00000E+00         0.00000E+00        -0.18817E+04
 
   -0.57865E+04         0.11273E+04         0.00000E+00
    0.11273E+04        -0.45058E+03         0.00000E+00
    0.00000E+00         0.00000E+00        -0.18711E+04
 
   -0.56319E+04         0.12638E+04         0.00000E+00
    0.12638E+04        -0.55499E+03         0.00000E+00
    0.00000E+00         0.00000E+00        -0.18561E+04
 
   -0.54519E+04         0.13987E+04         0.00000E+00
    0.13987E+04        -0.66943E+03         0.00000E+00
    0.00000E+00         0.00000E+00        -0.18364E+04
 
   -0.52469E+04         0.15310E+04         0.00000E+00
    0.15310E+04        -0.79328E+03         0.00000E+00
    0.00000E+00         0.00000E+00        -0.18120E+04
 
   -0.50170E+04         0.16599E+04         0.00000E+00
    0.16599E+04        -0.92589E+03         0.00000E+00
    0.00000E+00         0.00000E+00        -0.17829E+04
 
   -0.47627E+04         0.17848E+04         0.00000E+00
    0.17848E+04        -0.10666E+04         0.00000E+00
    0.00000E+00         0.00000E+00        -0.17488E+04
 
   -0.44843E+04         0.19050E+04         0.00000E+00
    0.19050E+04        -0.12148E+04         0.00000E+00
    0.00000E+00         0.00000E+00        -0.17098E+04
 
   -0.41821E+04         0.20201E+04         0.00000E+00
    0.20201E+04        -0.13700E+04         0.00000E+00
    0.00000E+00         0.00000E+00        -0.16656E+04
 
   -0.38562E+04         0.21297E+04         0.00000E+00
    0.21297E+04        -0.15318E+04         0.00000E+00
    0.00000E+00         0.00000E+00        -0.16164E+04
 
   -0.35069E+04         0.22333E+04         0.00000E+00
    0.22333E+04        -0.16996E+04         0.00000E+00
    0.00000E+00         0.00000E+00        -0.15620E+04
 
   -0.31340E+04         0.23304E+04         0.00000E+00
    0.23304E+04        -0.18735E+04         0.00000E+00
    0.00000E+00         0.00000E+00        -0.15023E+04
 
   -0.27377E+04         0.24204E+04         0.00000E+00
    0.24204E+04        -0.20531E+04         0.00000E+00
    0.00000E+00         0.00000E+00        -0.14372E+04
 
   -0.23179E+04         0.25024E+04         0.00000E+00
    0.25024E+04        -0.22383E+04         0.00000E+00
    0.00000E+00         0.00000E+00        -0.13669E+04
 
   -0.18744E+04         0.25753E+04         0.00000E+00
    0.25753E+04        -0.24293E+04         0.00000E+00
    0.00000E+00         0.00000E+00        -0.12911E+04
 
   -0.14074E+04         0.26380E+04         0.00000E+00
    0.26380E+04        -0.26258E+04         0.00000E+00
    0.00000E+00         0.00000E+00        -0.12100E+04
 
   -0.60072E+04         0.36839E+02         0.00000E+00
    0.36839E+02        -0.14067E+01         0.00000E+00
    0.00000E+00         0.00000E+00        -0.18026E+04
 
   -0.60489E+04         0.11908E+03         0.00000E+00
    0.11908E+03        -0.90605E+01         0.00000E+00
    0.00000E+00         0.00000E+00        -0.18174E+04
 
   -0.60736E+04         0.21147E+03         0.00000E+00
    0.21147E+03        -0.25215E+02         0.00000E+00
    0.00000E+00         0.00000E+00        -0.18296E+04
 
   -0.60794E+04         0.31269E+03         0.00000E+00
    0.31269E+03        -0.50622E+02         0.00000E+00
    0.00000E+00         0.00000E+00        -0.18390E+04
 
   -0.60651E+04         0.42142E+03         0.00000E+00
    0.42142E+03        -0.85877E+02         0.00000E+00
    0.00000E+00         0.00000E+00        -0.18453E+04
 
   -0.60293E+04         0.53631E+03         0.00000E+00
    0.53631E+03        -0.13142E+03         0.00000E+00
    0.00000E+00         0.00000E+00        -0.18482E+04
 
   -0.59710E+04         0.65603E+03         0.00000E+00
    0.65603E+03        -0.18754E+03         0.00000E+00
    0.00000E+00         0.00000E+00        -0.18476E+04
 
   -0.58895E+04         0.77926E+03         0.00000E+00
    0.77926E+03        -0.25436E+03         0.00000E+00
    0.00000E+00         0.00000E+00        -0.18432E+04
 
   -0.57842E+04         0.90473E+03         0.00000E+00
    0.90473E+03        -0.33184E+03         0.00000E+00
    0.00000E+00         0.00000E+00        -0.18348E+04
 
   -0.56548E+04         0.10312E+04         0.00000E+00
    0.10312E+04        -0.41981E+03         0.00000E+00
    0.00000E+00         0.00000E+00        -0.18224E+04
 
   -0.55010E+04         0.11576E+04         0.00000E+00
    0.11576E+04        -0.51797E+03         0.00000E+00
    0.00000E+00         0.00000E+00        -0.18057E+04
 
   -0.53229E+04         0.12828E+04         0.00000E+00
    0.12828E+04        -0.62591E+03         0.00000E+00
    0.00000E+00         0.00000E+00        -0.17846E+04
 
   -0.51206E+04         0.14061E+04         0.00000E+00
    0.14061E+04        -0.74314E+03         0.00000E+00
    0.00000E+00         0.00000E+00        -0.17591E+04
 
   -0.48942E+04         0.15265E+04         0.00000E+00
    0.15265E+04        -0.86915E+03         0.00000E+00
    0.00000E+00         0.00000E+00        -0.17290E+04
 
   -0.46439E+04         0.16435E+04         0.00000E+00
    0.16435E+04        -0.10034E+04         0.00000E+00
    0.00000E+00         0.00000E+00        -0.16942E+04
 
   -0.43701E+04         0.17563E+04         0.00000E+00
    0.17563E+04        -0.11454E+04         0.00000E+00
    0.00000E+00         0.00000E+00        -0.16547E+04
 
   -0.40730E+04         0.18646E+04         0.00000E+00
    0.18646E+04        -0.12946E+04         0.00000E+00
    0.00000E+00         0.00000E+00        -0.16103E+04
 
   -0.37527E+04         0.19677E+04         0.00000E+00
    0.19677E+04        -0.14507E+04         0.00000E+00
    0.00000E+00         0.00000E+00        -0.15610E+04
 
   -0.34095E+04         0.20651E+04         0.00000E+00
    0.20651E+04        -0.16133E+04         0.00000E+00
    0.00000E+00         0.00000E+00        -0.15068E+04
 
   -0.30434E+04         0.21562E+04         0.00000E+00
    0.21562E+04        -0.17821E+04         0.00000E+00
    0.00000E+00         0.00000E+00        -0.14476E+04
 
   -0.26545E+04         0.22403E+04         0.00000E+00
    0.22403E+04        -0.19569E+04         0.00000E+00
    0.00000E+00         0.00000E+00        -0.13834E+04
 
   -0.22431E+04         0.23166E+04         0.00000E+00
    0.23166E+04        -0.21375E+04         0.00000E+00
    0.00000E+00         0.00000E+00        -0.13142E+04
 
   -0.18092E+04         0.23840E+04         0.00000E+00
    0.23840E+04        -0.23237E+04         0.00000E+00
    0.00000E+00         0.00000E+00        -0.12399E+04
 
   -0.13532E+04         0.24412E+04         0.00000E+00
    0.24412E+04        -0.25153E+04         0.00000E+00
    0.00000E+00         0.00000E+00        -0.11606E+04
 
   -0.59342E+04         0.33325E+02         0.00000E+00
    0.33325E+02        -0.12923E+01         0.00000E+00
    0.00000E+00         0.00000E+00        -0.17806E+04
 
   -0.59656E+04         0.10781E+03         0.00000E+00
    0.10781E+03        -0.83502E+01         0.00000E+00
    0.00000E+00         0.00000E+00        -0.17922E+04
 
   -0.59811E+04         0.19160E+03         0.00000E+00
    0.19160E+03        -0.23301E+02         0.00000E+00
    0.00000E+00         0.00000E+00        -0.18013E+04
 
   -0.59791E+04         0.28356E+03         0.00000E+00
    0.28356E+03        -0.46889E+02         0.00000E+00
    0.00000E+00         0.00000E+00        -0.18078E+04
 
   -0.59581E+04         0.38251E+03         0.00000E+00
    0.38251E+03        -0.79708E+02         0.00000E+00
    0.00000E+00         0.00000E+00        -0.18113E+04
 
   -0.59170E+04         0.48725E+03         0.00000E+00
    0.48725E+03        -0.12221E+03         0.00000E+00
    0.00000E+00         0.00000E+00        -0.18118E+04
 
   -0.58546E+04         0.59661E+03         0.00000E+00
    0.59661E+03        -0.17469E+03         0.00000E+00
    0.00000E+00         0.00000E+00        -0.18088E+04
 
   -0.57703E+04         0.70940E+03         0.00000E+00
    0.70940E+03        -0.23733E+03         0.00000E+00
    0.00000E+00         0.00000E+00        -0.18023E+04
 
   -0.56633E+04         0.82449E+03         0.00000E+00
    0.82449E+03        -0.31014E+03         0.00000E+00
    0.00000E+00         0.00000E+00        -0.17920E+04
 
   -0.55333E+04         0.94081E+03         0.00000E+00
    0.94081E+03        -0.39302E+03         0.00000E+00
    0.00000E+00         0.00000E+00        -0.17779E+04
 
   -0.53799E+04         0.10573E+04         0.00000E+00
    0.10573E+04        -0.48576E+03         0.00000E+00
    0.00000E+00         0.00000E+00        -0.17597E+04
 
   -0.52032E+04         0.11731E+04         0.00000E+00
    0.11731E+04        -0.58805E+03         0.00000E+00
    0.00000E+00         0.00000E+00        -0.17374E+04
 
   -0.50030E+04         0.12874E+04         0.00000E+00
    0.12874E+04        -0.69952E+03         0.00000E+00
    0.00000E+00         0.00000E+00        -0.17108E+04
 
   -0.47795E+04         0.13993E+04         0.00000E+00
    0.13993E+04        -0.81976E+03         0.00000E+00
    0.00000E+00         0.00000E+00        -0.16798E+04
 
   -0.45329E+04         0.15082E+04         0.00000E+00
    0.15082E+04        -0.94831E+03         0.00000E+00
    0.00000E+00         0.00000E+00        -0.16444E+04
 
   -0.42632E+04         0.16134E+04         0.00000E+00
    0.16134E+04        -0.10847E+04         0.00000E+00
    0.00000E+00         0.00000E+00        -0.16044E+04
 
   -0.39707E+04         0.17145E+04         0.00000E+00
    0.17145E+04        -0.12286E+04         0.00000E+00
    0.00000E+00         0.00000E+00        -0.15598E+04
 
   -0.36557E+04         0.18108E+04         0.00000E+00
    0.18108E+04        -0.13796E+04         0.00000E+00
    0.00000E+00         0.00000E+00        -0.15106E+04
 
   -0.33183E+04         0.19018E+04         0.00000E+00
    0.19018E+04        -0.15373E+04         0.00000E+00
    0.00000E+00         0.00000E+00        -0.14567E+04
 
   -0.29587E+04         0.19867E+04         0.00000E+00
    0.19867E+04        -0.17015E+04         0.00000E+00
    0.00000E+00         0.00000E+00        -0.13980E+04
 
   -0.25772E+04         0.20649E+04         0.00000E+00
    0.20649E+04        -0.18717E+04         0.00000E+00
    0.00000E+00         0.00000E+00        -0.13347E+04
 
   -0.21739E+04         0.21354E+04         0.00000E+00
    0.21354E+04        -0.20478E+04         0.00000E+00
    0.00000E+00         0.00000E+00        -0.12665E+04
 
   -0.17494E+04         0.21973E+04         0.00000E+00
    0.21973E+04        -0.22295E+04         0.00000E+00
    0.00000E+00         0.00000E+00        -0.11937E+04
 
   -0.13041E+04         0.22494E+04         0.00000E+00
    0.22494E+04        -0.24165E+04         0.00000E+00
    0.00000E+00         0.00000E+00        -0.11162E+04
 
   -0.58682E+04         0.30084E+02         0.00000E+00
    0.30084E+02        -0.11952E+01         0.00000E+00
    0.00000E+00         0.00000E+00        -0.17608E+04
 
   -0.58901E+04         0.97362E+02         0.00000E+00
    0.97362E+02        -0.77424E+01         0.00000E+00
    0.00000E+00         0.00000E+00        -0.17694E+04
 
   -0.58973E+04         0.17314E+03         0.00000E+00
    0.17314E+03        -0.21655E+02         0.00000E+00
    0.00000E+00         0.00000E+00        -0.17757E+04
 
   -0.58880E+04         0.25642E+03         0.00000E+00
    0.25642E+03        -0.43667E+02         0.00000E+00
    0.00000E+00         0.00000E+00        -0.17795E+04
 
   -0.58609E+04         0.34616E+03         0.00000E+00
    0.34616E+03        -0.74372E+02         0.00000E+00
    0.00000E+00         0.00000E+00        -0.17806E+04
 
   -0.58147E+04         0.44131E+03         0.00000E+00
    0.44131E+03        -0.11423E+03         0.00000E+00
    0.00000E+00         0.00000E+00        -0.17787E+04
 
   -0.57484E+04         0.54083E+03         0.00000E+00
    0.54083E+03        -0.16357E+03         0.00000E+00
    0.00000E+00         0.00000E+00        -0.17736E+04
 
   -0.56612E+04         0.64366E+03         0.00000E+00
    0.64366E+03        -0.22258E+03         0.00000E+00
    0.00000E+00         0.00000E+00        -0.17651E+04
 
   -0.55524E+04         0.74882E+03         0.00000E+00
    0.74882E+03        -0.29134E+03         0.00000E+00
    0.00000E+00         0.00000E+00        -0.17531E+04
 
   -0.54216E+04         0.85531E+03         0.00000E+00
    0.85531E+03        -0.36982E+03         0.00000E+00
    0.00000E+00         0.00000E+00        -0.17374E+04
 
   -0.52684E+04         0.96224E+03         0.00000E+00
    0.96224E+03        -0.45787E+03         0.00000E+00
    0.00000E+00         0.00000E+00        -0.17179E+04
 
   -0.50927E+04         0.10687E+04         0.00000E+00
    0.10687E+04        -0.55527E+03         0.00000E+00
    0.00000E+00         0.00000E+00        -0.16944E+04
 
   -0.48943E+04         0.11740E+04         0.00000E+00
    0.11740E+04        -0.66174E+03         0.00000E+00
    0.00000E+00         0.00000E+00        -0.16668E+04
 
   -0.46732E+04         0.12774E+04         0.00000E+00
    0.12774E+04        -0.77693E+03         0.00000E+00
    0.00000E+00         0.00000E+00        -0.16350E+04
 
   -0.44297E+04         0.13781E+04         0.00000E+00
    0.13781E+04        -0.90047E+03         0.00000E+00
    0.00000E+00         0.00000E+00        -0.15990E+04
 
   -0.41637E+04         0.14757E+04         0.00000E+00
    0.14757E+04        -0.10320E+04         0.00000E+00
    0.00000E+00         0.00000E+00        -0.15587E+04
 
   -0.38755E+04         0.15694E+04         0.00000E+00
    0.15694E+04        -0.11711E+04         0.00000E+00
    0.00000E+00         0.00000E+00        -0.15140E+04
 
   -0.35654E+04         0.16587E+04         0.00000E+00
    0.16587E+04        -0.13175E+04         0.00000E+00
    0.00000E+00         0.00000E+00        -0.14649E+04
 
   -0.32335E+04         0.17430E+04         0.00000E+00
    0.17430E+04        -0.14707E+04         0.00000E+00
    0.00000E+00         0.00000E+00        -0.14113E+04
 
   -0.28801E+04         0.18216E+04         0.00000E+00
    0.18216E+04        -0.16305E+04         0.00000E+00
    0.00000E+00         0.00000E+00        -0.13532E+04
 
   -0.25056E+04         0.18938E+04         0.00000E+00
    0.18938E+04        -0.17965E+04         0.00000E+00
    0.00000E+00         0.00000E+00        -0.12906E+04
 
   -0.21104E+04         0.19586E+04         0.00000E+00
    0.19586E+04        -0.19684E+04         0.00000E+00
    0.00000E+00         0.00000E+00        -0.12236E+04
 
   -0.16949E+04         0.20152E+04         0.00000E+00
    0.20152E+04        -0.21458E+04         0.00000E+00
    0.00000E+00         0.00000E+00        -0.11522E+04
 
   -0.12598E+04         0.20623E+04         0.00000E+00
    0.20623E+04        -0.23282E+04         0.00000E+00
    0.00000E+00         0.00000E+00        -0.10764E+04
 
   -0.58087E+04         0.27075E+02         0.00000E+00
    0.27075E+02        -0.11139E+01         0.00000E+00
    0.00000E+00         0.00000E+00        -0.17429E+04
 
   -0.58221E+04         0.87631E+02         0.00000E+00
    0.87631E+02        -0.72296E+01         0.00000E+00
    0.00000E+00         0.00000E+00        -0.17488E+04
 
   -0.58216E+04         0.15589E+03         0.00000E+00
    0.15589E+03        -0.20257E+02         0.00000E+00
    0.00000E+00         0.00000E+00        -0.17526E+04
 
   -0.58056E+04         0.23099E+03         0.00000E+00
    0.23099E+03        -0.40919E+02         0.00000E+00
    0.00000E+00         0.00000E+00        -0.17540E+04
 
   -0.57728E+04         0.31202E+03         0.00000E+00
    0.31202E+03        -0.69808E+02         0.00000E+00
    0.00000E+00         0.00000E+00        -0.17528E+04
 
   -0.57219E+04         0.39806E+03         0.00000E+00
    0.39806E+03        -0.10739E+03         0.00000E+00
    0.00000E+00         0.00000E+00        -0.17488E+04
 
   -0.56518E+04         0.48820E+03         0.00000E+00
    0.48820E+03        -0.15401E+03         0.00000E+00
    0.00000E+00         0.00000E+00        -0.17418E+04
 
   -0.55619E+04         0.58150E+03         0.00000E+00
    0.58150E+03        -0.20990E+03         0.00000E+00
    0.00000E+00         0.00000E+00        -0.17315E+04
 
   -0.54513E+04         0.67708E+03         0.00000E+00
    0.67708E+03        -0.27518E+03         0.00000E+00
    0.00000E+00         0.00000E+00        -0.17179E+04
 
   -0.53195E+04         0.77406E+03         0.00000E+00
    0.77406E+03        -0.34986E+03         0.00000E+00
    0.00000E+00         0.00000E+00        -0.17008E+04
 
   -0.51663E+04         0.87162E+03         0.00000E+00
    0.87162E+03        -0.43386E+03         0.00000E+00
    0.00000E+00         0.00000E+00        -0.16800E+04
 
   -0.49912E+04         0.96898E+03         0.00000E+00
    0.96898E+03        -0.52703E+03         0.00000E+00
    0.00000E+00         0.00000E+00        -0.16555E+04
 
   -0.47942E+04         0.10654E+04         0.00000E+00
    0.10654E+04        -0.62915E+03         0.00000E+00
    0.00000E+00         0.00000E+00        -0.16270E+04
 
   -0.45753E+04         0.11602E+04         0.00000E+00
    0.11602E+04        -0.73993E+03         0.00000E+00
    0.00000E+00         0.00000E+00        -0.15946E+04
 
   -0.43344E+04         0.12528E+04         0.00000E+00
    0.12528E+04        -0.85908E+03         0.00000E+00
    0.00000E+00         0.00000E+00        -0.15581E+04
 
   -0.40718E+04         0.13425E+04         0.00000E+00
    0.13425E+04        -0.98627E+03         0.00000E+00
    0.00000E+00         0.00000E+00        -0.15174E+04
 
   -0.37876E+04         0.14288E+04         0.00000E+00
    0.14288E+04        -0.11211E+04         0.00000E+00
    0.00000E+00         0.00000E+00        -0.14726E+04
 
   -0.34820E+04         0.15110E+04         0.00000E+00
    0.15110E+04        -0.12634E+04         0.00000E+00
    0.00000E+00         0.00000E+00        -0.14236E+04
 
   -0.31553E+04         0.15885E+04         0.00000E+00
    0.15885E+04        -0.14125E+04         0.00000E+00
    0.00000E+00         0.00000E+00        -0.13703E+04
 
   -0.28078E+04         0.16607E+04         0.00000E+00
    0.16607E+04        -0.15684E+04         0.00000E+00
    0.00000E+00         0.00000E+00        -0.13128E+04
 
   -0.24399E+04         0.17268E+04         0.00000E+00
    0.17268E+04        -0.17304E+04         0.00000E+00
    0.00000E+00         0.00000E+00        -0.12511E+04
 
   -0.20523E+04         0.17860E+04         0.00000E+00
    0.17860E+04        -0.18983E+04         0.00000E+00
    0.00000E+00         0.00000E+00        -0.11852E+04
 
   -0.16454E+04         0.18373E+04         0.00000E+00
    0.18373E+04        -0.20716E+04         0.00000E+00
    0.00000E+00         0.00000E+00        -0.11151E+04
 
   -0.12200E+04         0.18798E+04         0.00000E+00
    0.18798E+04        -0.22497E+04         0.00000E+00
    0.00000E+00         0.00000E+00        -0.10409E+04
 
   -0.57553E+04         0.24257E+02         0.00000E+00
    0.24257E+02        -0.10467E+01         0.00000E+00
    0.00000E+00         0.00000E+00        -0.17269E+04
 
   -0.57610E+04         0.78499E+02         0.00000E+00
    0.78499E+02        -0.68025E+01         0.00000E+00
    0.00000E+00         0.00000E+00        -0.17303E+04
 
   -0.57536E+04         0.13967E+03         0.00000E+00
    0.13967E+03        -0.19085E+02         0.00000E+00
    0.00000E+00         0.00000E+00        -0.17318E+04
 
   -0.57315E+04         0.20702E+03         0.00000E+00
    0.20702E+03        -0.38602E+02         0.00000E+00
    0.00000E+00         0.00000E+00        -0.17310E+04
 
   -0.56934E+04         0.27977E+03         0.00000E+00
    0.27977E+03        -0.65943E+02         0.00000E+00
    0.00000E+00         0.00000E+00        -0.17278E+04
 
   -0.56381E+04         0.35713E+03         0.00000E+00
    0.35713E+03        -0.10158E+03         0.00000E+00
    0.00000E+00         0.00000E+00        -0.17219E+04
 
   -0.55646E+04         0.43828E+03         0.00000E+00
    0.43828E+03        -0.14588E+03         0.00000E+00
    0.00000E+00         0.00000E+00        -0.17131E+04
 
   -0.54720E+04         0.52241E+03         0.00000E+00
    0.52241E+03        -0.19910E+03         0.00000E+00
    0.00000E+00         0.00000E+00        -0.17013E+04
 
   -0.53596E+04         0.60873E+03         0.00000E+00
    0.60873E+03        -0.26138E+03         0.00000E+00
    0.00000E+00         0.00000E+00        -0.16863E+04
 
   -0.52268E+04         0.69646E+03         0.00000E+00
    0.69646E+03        -0.33280E+03         0.00000E+00
    0.00000E+00         0.00000E+00        -0.16679E+04
 
   -0.50733E+04         0.78486E+03         0.00000E+00
    0.78486E+03        -0.41331E+03         0.00000E+00
    0.00000E+00         0.00000E+00        -0.16460E+04
 
   -0.48987E+04         0.87322E+03         0.00000E+00
    0.87322E+03        -0.50283E+03         0.00000E+00
    0.00000E+00         0.00000E+00        -0.16204E+04
 
   -0.47028E+04         0.96088E+03         0.00000E+00
    0.96088E+03        -0.60118E+03         0.00000E+00
    0.00000E+00         0.00000E+00        -0.15912E+04
 
   -0.44857E+04         0.10472E+04         0.00000E+00
    0.10472E+04        -0.70813E+03         0.00000E+00
    0.00000E+00         0.00000E+00        -0.15581E+04
 
   -0.42473E+04         0.11316E+04         0.00000E+00
    0.11316E+04        -0.82344E+03         0.00000E+00
    0.00000E+00         0.00000E+00        -0.15212E+04
 
   -0.39876E+04         0.12134E+04         0.00000E+00
    0.12134E+04        -0.94680E+03         0.00000E+00
    0.00000E+00         0.00000E+00        -0.14803E+04
 
   -0.37070E+04         0.12921E+04         0.00000E+00
    0.12921E+04        -0.10779E+04         0.00000E+00
    0.00000E+00         0.00000E+00        -0.14355E+04
 
   -0.34055E+04         0.13671E+04         0.00000E+00
    0.13671E+04        -0.12164E+04         0.00000E+00
    0.00000E+00         0.00000E+00        -0.13866E+04
 
   -0.30836E+04         0.14378E+04         0.00000E+00
    0.14378E+04        -0.13619E+04         0.00000E+00
    0.00000E+00         0.00000E+00        -0.13337E+04
 
   -0.27417E+04         0.15035E+04         0.00000E+00
    0.15035E+04        -0.15141E+04         0.00000E+00
    0.00000E+00         0.00000E+00        -0.12767E+04
 
   -0.23801E+04         0.15636E+04         0.00000E+00
    0.15636E+04        -0.16725E+04         0.00000E+00
    0.00000E+00         0.00000E+00        -0.12158E+04
 
   -0.19996E+04         0.16172E+04         0.00000E+00
    0.16172E+04        -0.18366E+04         0.00000E+00
    0.00000E+00         0.00000E+00        -0.11509E+04
 
   -0.16007E+04         0.16635E+04         0.00000E+00
    0.16635E+04        -0.20061E+04         0.00000E+00
    0.00000E+00         0.00000E+00        -0.10820E+04
 
   -0.11845E+04         0.17015E+04         0.00000E+00
    0.17015E+04        -0.21802E+04         0.00000E+00
    0.00000E+00         0.00000E+00        -0.10094E+04
 
   -0.57075E+04         0.21598E+02         0.00000E+00
    0.21598E+02        -0.99205E+00         0.00000E+00
    0.00000E+00         0.00000E+00        -0.17126E+04
 
   -0.57064E+04         0.69868E+02         0.00000E+00
    0.69868E+02        -0.64512E+01         0.00000E+00
    0.00000E+00         0.00000E+00        -0.17138E+04
 
   -0.56928E+04         0.12431E+03         0.00000E+00
    0.12431E+03        -0.18113E+02         0.00000E+00
    0.00000E+00         0.00000E+00        -0.17133E+04
 
   -0.56652E+04         0.18428E+03         0.00000E+00
    0.18428E+03        -0.36670E+02         0.00000E+00
    0.00000E+00         0.00000E+00        -0.17106E+04
 
   -0.56223E+04         0.24914E+03         0.00000E+00
    0.24914E+03        -0.62704E+02         0.00000E+00
    0.00000E+00         0.00000E+00        -0.17055E+04
 
   -0.55630E+04         0.31817E+03         0.00000E+00
    0.31817E+03        -0.96696E+02         0.00000E+00
    0.00000E+00         0.00000E+00        -0.16979E+04
 
   -0.54863E+04         0.39067E+03         0.00000E+00
    0.39067E+03        -0.13902E+03         0.00000E+00
    0.00000E+00         0.00000E+00        -0.16876E+04
 
   -0.53911E+04         0.46594E+03         0.00000E+00
    0.46594E+03        -0.18996E+03         0.00000E+00
    0.00000E+00         0.00000E+00        -0.16743E+04
 
   -0.52770E+04         0.54328E+03         0.00000E+00
    0.54328E+03        -0.24969E+03         0.00000E+00
    0.00000E+00         0.00000E+00        -0.16580E+04
 
   -0.51432E+04         0.62199E+03         0.00000E+00
    0.62199E+03        -0.31831E+03         0.00000E+00
    0.00000E+00         0.00000E+00        -0.16384E+04
 
   -0.49893E+04         0.70141E+03         0.00000E+00
    0.70141E+03        -0.39584E+03         0.00000E+00
    0.00000E+00         0.00000E+00        -0.16155E+04
 
   -0.48150E+04         0.78092E+03         0.00000E+00
    0.78092E+03        -0.48222E+03         0.00000E+00
    0.00000E+00         0.00000E+00        -0.15892E+04
 
   -0.46201E+04         0.85989E+03         0.00000E+00
    0.85989E+03        -0.57731E+03         0.00000E+00
    0.00000E+00         0.00000E+00        -0.15592E+04
 
   -0.44045E+04         0.93774E+03         0.00000E+00
    0.93774E+03        -0.68095E+03         0.00000E+00
    0.00000E+00         0.00000E+00        -0.15256E+04
 
   -0.41681E+04         0.10139E+04         0.00000E+00
    0.10139E+04        -0.79290E+03         0.00000E+00
    0.00000E+00         0.00000E+00        -0.14883E+04
 
   -0.39112E+04         0.10878E+04         0.00000E+00
    0.10878E+04        -0.91291E+03         0.00000E+00
    0.00000E+00         0.00000E+00        -0.14472E+04
 
   -0.36337E+04         0.11590E+04         0.00000E+00
    0.11590E+04        -0.10407E+04         0.00000E+00
    0.00000E+00         0.00000E+00        -0.14023E+04
 
   -0.33361E+04         0.12267E+04         0.00000E+00
    0.12267E+04        -0.11758E+04         0.00000E+00
    0.00000E+00         0.00000E+00        -0.13536E+04
 
   -0.30187E+04         0.12906E+04         0.00000E+00
    0.12906E+04        -0.13180E+04         0.00000E+00
    0.00000E+00         0.00000E+00        -0.13010E+04
 
   -0.26818E+04         0.13499E+04         0.00000E+00
    0.13499E+04        -0.14669E+04         0.00000E+00
    0.00000E+00         0.00000E+00        -0.12446E+04
 
   -0.23261E+04         0.14039E+04         0.00000E+00
    0.14039E+04        -0.16220E+04         0.00000E+00
    0.00000E+00         0.00000E+00        -0.11844E+04
 
   -0.19521E+04         0.14520E+04         0.00000E+00
    0.14520E+04        -0.17828E+04         0.00000E+00
    0.00000E+00         0.00000E+00        -0.11205E+04
 
   -0.15608E+04         0.14934E+04         0.00000E+00
    0.14934E+04        -0.19487E+04         0.00000E+00
    0.00000E+00         0.00000E+00        -0.10528E+04
 
   -0.11530E+04         0.15271E+04         0.00000E+00
    0.15271E+04        -0.21191E+04         0.00000E+00
    0.00000E+00         0.00000E+00        -0.98165E+03
 
   -0.56652E+04         0.19066E+02         0.00000E+00
    0.19066E+02        -0.94813E+00         0.00000E+00
    0.00000E+00         0.00000E+00        -0.16999E+04
 
   -0.56580E+04         0.61647E+02         0.00000E+00
    0.61647E+02        -0.61660E+01         0.00000E+00
    0.00000E+00         0.00000E+00        -0.16993E+04
 
   -0.56389E+04         0.10966E+03         0.00000E+00
    0.10966E+03        -0.17317E+02         0.00000E+00
    0.00000E+00         0.00000E+00        -0.16969E+04
 
   -0.56064E+04         0.16259E+03         0.00000E+00
    0.16259E+03        -0.35076E+02         0.00000E+00
    0.00000E+00         0.00000E+00        -0.16924E+04
 
   -0.55592E+04         0.21985E+03         0.00000E+00
    0.21985E+03        -0.60018E+02         0.00000E+00
    0.00000E+00         0.00000E+00        -0.16858E+04
 
   -0.54963E+04         0.28087E+03         0.00000E+00
    0.28087E+03        -0.92626E+02         0.00000E+00
    0.00000E+00         0.00000E+00        -0.16767E+04
 
   -0.54165E+04         0.34503E+03         0.00000E+00
    0.34503E+03        -0.13329E+03         0.00000E+00
    0.00000E+00         0.00000E+00        -0.16649E+04
 
   -0.53191E+04         0.41171E+03         0.00000E+00
    0.41171E+03        -0.18230E+03         0.00000E+00
    0.00000E+00         0.00000E+00        -0.16504E+04
 
   -0.52033E+04         0.48030E+03         0.00000E+00
    0.48030E+03        -0.23987E+03         0.00000E+00
    0.00000E+00         0.00000E+00        -0.16329E+04
 
   -0.50684E+04         0.55019E+03         0.00000E+00
    0.55019E+03        -0.30612E+03         0.00000E+00
    0.00000E+00         0.00000E+00        -0.16124E+04
 
   -0.49141E+04         0.62081E+03         0.00000E+00
    0.62081E+03        -0.38110E+03         0.00000E+00
    0.00000E+00         0.00000E+00        -0.15886E+04
 
   -0.47400E+04         0.69158E+03         0.00000E+00
    0.69158E+03        -0.46479E+03         0.00000E+00
    0.00000E+00         0.00000E+00        -0.15614E+04
 
   -0.45458E+04         0.76195E+03         0.00000E+00
    0.76195E+03        -0.55709E+03         0.00000E+00
    0.00000E+00         0.00000E+00        -0.15309E+04
 
   -0.43315E+04         0.83139E+03         0.00000E+00
    0.83139E+03        -0.65787E+03         0.00000E+00
    0.00000E+00         0.00000E+00        -0.14968E+04
 
   -0.40970E+04         0.89938E+03         0.00000E+00
    0.89938E+03        -0.76692E+03         0.00000E+00
    0.00000E+00         0.00000E+00        -0.14592E+04
 
   -0.38424E+04         0.96540E+03         0.00000E+00
    0.96540E+03        -0.88400E+03         0.00000E+00
    0.00000E+00         0.00000E+00        -0.14179E+04
 
   -0.35679E+04         0.10289E+04         0.00000E+00
    0.10289E+04        -0.10088E+04         0.00000E+00
    0.00000E+00         0.00000E+00        -0.13730E+04
 
   -0.32738E+04         0.10895E+04         0.00000E+00
    0.10895E+04        -0.11410E+04         0.00000E+00
    0.00000E+00         0.00000E+00        -0.13244E+04
 
   -0.29603E+04         0.11465E+04         0.00000E+00
    0.11465E+04        -0.12803E+04         0.00000E+00
    0.00000E+00         0.00000E+00        -0.12722E+04
 
   -0.26281E+04         0.11993E+04         0.00000E+00
    0.11993E+04        -0.14262E+04         0.00000E+00
    0.00000E+00         0.00000E+00        -0.12163E+04
 
   -0.22777E+04         0.12475E+04         0.00000E+00
    0.12475E+04        -0.15783E+04         0.00000E+00
    0.00000E+00         0.00000E+00        -0.11568E+04
 
   -0.19098E+04         0.12902E+04         0.00000E+00
    0.12902E+04        -0.17360E+04         0.00000E+00
    0.00000E+00         0.00000E+00        -0.10937E+04
 
   -0.15254E+04         0.13268E+04         0.00000E+00
    0.13268E+04        -0.18987E+04         0.00000E+00
    0.00000E+00         0.00000E+00        -0.10272E+04
 
   -0.11253E+04         0.13564E+04         0.00000E+00
    0.13564E+04        -0.20658E+04         0.00000E+00
    0.00000E+00         0.00000E+00        -0.95734E+03
 
   -0.56281E+04         0.16637E+02         0.00000E+00
    0.16637E+02        -0.91333E+00         0.00000E+00
    0.00000E+00         0.00000E+00        -0.16887E+04
 
   -0.56156E+04         0.53761E+02         0.00000E+00
    0.53761E+02        -0.59373E+01         0.00000E+00
    0.00000E+00         0.00000E+00        -0.16865E+04
 
   -0.55916E+04         0.95609E+02         0.00000E+00
    0.95609E+02        -0.16673E+02         0.00000E+00
    0.00000E+00         0.00000E+00        -0.16825E+04
 
   -0.55548E+04         0.14175E+03         0.00000E+00
    0.14175E+03        -0.33776E+02         0.00000E+00
    0.00000E+00         0.00000E+00        -0.16766E+04
 
   -0.55038E+04         0.19170E+03         0.00000E+00
    0.19170E+03        -0.57815E+02         0.00000E+00
    0.00000E+00         0.00000E+00        -0.16685E+04
 
   -0.54376E+04         0.24497E+03         0.00000E+00
    0.24497E+03        -0.89273E+02         0.00000E+00
    0.00000E+00         0.00000E+00        -0.16581E+04
 
   -0.53552E+04         0.30103E+03         0.00000E+00
    0.30103E+03        -0.12854E+03         0.00000E+00
    0.00000E+00         0.00000E+00        -0.16451E+04
 
   -0.52556E+04         0.35935E+03         0.00000E+00
    0.35935E+03        -0.17594E+03         0.00000E+00
    0.00000E+00         0.00000E+00        -0.16295E+04
 
   -0.51383E+04         0.41940E+03         0.00000E+00
    0.41940E+03        -0.23169E+03         0.00000E+00
    0.00000E+00         0.00000E+00        -0.16110E+04
 
   -0.50024E+04         0.48067E+03         0.00000E+00
    0.48067E+03        -0.29594E+03         0.00000E+00
    0.00000E+00         0.00000E+00        -0.15895E+04
 
   -0.48477E+04         0.54263E+03         0.00000E+00
    0.54263E+03        -0.36877E+03         0.00000E+00
    0.00000E+00         0.00000E+00        -0.15649E+04
 
   -0.46737E+04         0.60478E+03         0.00000E+00
    0.60478E+03        -0.45018E+03         0.00000E+00
    0.00000E+00         0.00000E+00        -0.15372E+04
 
   -0.44801E+04         0.66664E+03         0.00000E+00
    0.66664E+03        -0.54011E+03         0.00000E+00
    0.00000E+00         0.00000E+00        -0.15061E+04
 
   -0.42669E+04         0.72773E+03         0.00000E+00
    0.72773E+03        -0.63844E+03         0.00000E+00
    0.00000E+00         0.00000E+00        -0.14716E+04
 
   -0.40340E+04         0.78757E+03         0.00000E+00
    0.78757E+03        -0.74499E+03         0.00000E+00
    0.00000E+00         0.00000E+00        -0.14337E+04
 
   -0.37815E+04         0.84571E+03         0.00000E+00
    0.84571E+03        -0.85954E+03         0.00000E+00
    0.00000E+00         0.00000E+00        -0.13923E+04
 
   -0.35095E+04         0.90168E+03         0.00000E+00
    0.90168E+03        -0.98181E+03         0.00000E+00
    0.00000E+00         0.00000E+00        -0.13474E+04
 
   -0.32185E+04         0.95499E+03         0.00000E+00
    0.95499E+03        -0.11115E+04         0.00000E+00
    0.00000E+00         0.00000E+00        -0.12990E+04
 
   -0.29086E+04         0.10051E+04         0.00000E+00
    0.10051E+04        -0.12482E+04         0.00000E+00
    0.00000E+00         0.00000E+00        -0.12470E+04
 
   -0.25806E+04         0.10516E+04         0.00000E+00
    0.10516E+04        -0.13914E+04         0.00000E+00
    0.00000E+00         0.00000E+00        -0.11916E+04
 
   -0.22350E+04         0.10939E+04         0.00000E+00
    0.10939E+04        -0.15408E+04         0.00000E+00
    0.00000E+00         0.00000E+00        -0.11328E+04
 
   -0.18726E+04         0.11313E+04         0.00000E+00
    0.11313E+04        -0.16958E+04         0.00000E+00
    0.00000E+00         0.00000E+00        -0.10705E+04
 
   -0.14943E+04         0.11632E+04         0.00000E+00
    0.11632E+04        -0.18556E+04         0.00000E+00
    0.00000E+00         0.00000E+00        -0.10050E+04
 
   -0.11012E+04         0.11890E+04         0.00000E+00
    0.11890E+04        -0.20197E+04         0.00000E+00
    0.00000E+00         0.00000E+00        -0.93628E+03
 
   -0.55959E+04         0.14289E+02         0.00000E+00
    0.14289E+02        -0.88619E+00         0.00000E+00
    0.00000E+00         0.00000E+00        -0.16790E+04
 
   -0.55789E+04         0.46143E+02         0.00000E+00
    0.46143E+02        -0.57566E+01         0.00000E+00
    0.00000E+00         0.00000E+00        -0.16754E+04
 
   -0.55507E+04         0.82036E+02         0.00000E+00
    0.82036E+02        -0.16159E+02         0.00000E+00
    0.00000E+00         0.00000E+00        -0.16701E+04
 
   -0.55101E+04         0.12161E+03         0.00000E+00
    0.12161E+03        -0.32731E+02         0.00000E+00
    0.00000E+00         0.00000E+00        -0.16628E+04
 
   -0.54558E+04         0.16448E+03         0.00000E+00
    0.16448E+03        -0.56032E+02         0.00000E+00
    0.00000E+00         0.00000E+00        -0.16536E+04
 
   -0.53868E+04         0.21023E+03         0.00000E+00
    0.21023E+03        -0.86544E+02         0.00000E+00
    0.00000E+00         0.00000E+00        -0.16420E+04
 
   -0.53020E+04         0.25840E+03         0.00000E+00
    0.25840E+03        -0.12467E+03         0.00000E+00
    0.00000E+00         0.00000E+00        -0.16280E+04
 
   -0.52005E+04         0.30856E+03         0.00000E+00
    0.30856E+03        -0.17073E+03         0.00000E+00
    0.00000E+00         0.00000E+00        -0.16114E+04
 
   -0.50818E+04         0.36026E+03         0.00000E+00
    0.36026E+03        -0.22496E+03         0.00000E+00
    0.00000E+00         0.00000E+00        -0.15920E+04
 
   -0.49450E+04         0.41305E+03         0.00000E+00
    0.41305E+03        -0.28755E+03         0.00000E+00
    0.00000E+00         0.00000E+00        -0.15698E+04
 
   -0.47898E+04         0.46648E+03         0.00000E+00
    0.46648E+03        -0.35858E+03         0.00000E+00
    0.00000E+00         0.00000E+00        -0.15445E+04
 
   -0.46158E+04         0.52012E+03         0.00000E+00
    0.52012E+03        -0.43807E+03         0.00000E+00
    0.00000E+00         0.00000E+00        -0.15162E+04
 
   -0.44228E+04         0.57355E+03         0.00000E+00
    0.57355E+03        -0.52600E+03         0.00000E+00
    0.00000E+00         0.00000E+00        -0.14846E+04
 
   -0.42105E+04         0.62634E+03         0.00000E+00
    0.62634E+03        -0.62226E+03         0.00000E+00
    0.00000E+00         0.00000E+00        -0.14498E+04
 
   -0.39789E+04         0.67809E+03         0.00000E+00
    0.67809E+03        -0.72670E+03         0.00000E+00
    0.00000E+00         0.00000E+00        -0.14117E+04
 
   -0.37282E+04         0.72838E+03         0.00000E+00
    0.72838E+03        -0.83909E+03         0.00000E+00
    0.00000E+00         0.00000E+00        -0.13702E+04
 
   -0.34585E+04         0.77679E+03         0.00000E+00
    0.77679E+03        -0.95917E+03         0.00000E+00
    0.00000E+00         0.00000E+00        -0.13253E+04
 
   -0.31702E+04         0.82290E+03         0.00000E+00
    0.82290E+03        -0.10866E+04         0.00000E+00
    0.00000E+00         0.00000E+00        -0.12770E+04
 
   -0.28635E+04         0.86626E+03         0.00000E+00
    0.86626E+03        -0.12211E+04         0.00000E+00
    0.00000E+00         0.00000E+00        -0.12254E+04
 
   -0.25392E+04         0.90641E+03         0.00000E+00
    0.90641E+03        -0.13621E+04         0.00000E+00
    0.00000E+00         0.00000E+00        -0.11704E+04
 
   -0.21979E+04         0.94285E+03         0.00000E+00
    0.94285E+03        -0.15091E+04         0.00000E+00
    0.00000E+00         0.00000E+00        -0.11121E+04
 
   -0.18403E+04         0.97505E+03         0.00000E+00
    0.97505E+03        -0.16616E+04         0.00000E+00
    0.00000E+00         0.00000E+00        -0.10506E+04
 
   -0.14675E+04         0.10025E+04         0.00000E+00
    0.10025E+04        -0.18189E+04         0.00000E+00
    0.00000E+00         0.00000E+00        -0.98592E+03
 
   -0.10805E+04         0.10245E+04         0.00000E+00
    0.10245E+04        -0.19803E+04         0.00000E+00
    0.00000E+00         0.00000E+00        -0.91826E+03
 
   -0.55686E+04         0.12003E+02         0.00000E+00
    0.12003E+02        -0.86538E+00         0.00000E+00
    0.00000E+00         0.00000E+00        -0.16708E+04
 
   -0.55477E+04         0.38738E+02         0.00000E+00
    0.38738E+02        -0.56162E+01         0.00000E+00
    0.00000E+00         0.00000E+00        -0.16660E+04
 
   -0.55160E+04         0.68847E+02         0.00000E+00
    0.68847E+02        -0.15755E+02         0.00000E+00
    0.00000E+00         0.00000E+00        -0.16595E+04
 
   -0.54721E+04         0.10205E+03         0.00000E+00
    0.10205E+03        -0.31903E+02         0.00000E+00
    0.00000E+00         0.00000E+00        -0.16512E+04
 
   -0.54150E+04         0.13802E+03         0.00000E+00
    0.13802E+03        -0.54611E+02         0.00000E+00
    0.00000E+00         0.00000E+00        -0.16409E+04
 
   -0.53435E+04         0.17643E+03         0.00000E+00
    0.17643E+03        -0.84358E+02         0.00000E+00
    0.00000E+00         0.00000E+00        -0.16284E+04
 
   -0.52567E+04         0.21690E+03         0.00000E+00
    0.21690E+03        -0.12155E+03         0.00000E+00
    0.00000E+00         0.00000E+00        -0.16135E+04
 
   -0.51536E+04         0.25907E+03         0.00000E+00
    0.25907E+03        -0.16652E+03         0.00000E+00
    0.00000E+00         0.00000E+00        -0.15960E+04
 
   -0.50336E+04         0.30256E+03         0.00000E+00
    0.30256E+03        -0.21952E+03         0.00000E+00
    0.00000E+00         0.00000E+00        -0.15759E+04
 
   -0.48961E+04         0.34701E+03         0.00000E+00
    0.34701E+03        -0.28073E+03         0.00000E+00
    0.00000E+00         0.00000E+00        -0.15530E+04
 
   -0.47405E+04         0.39202E+03         0.00000E+00
    0.39202E+03        -0.35028E+03         0.00000E+00
    0.00000E+00         0.00000E+00        -0.15272E+04
 
   -0.45665E+04         0.43725E+03         0.00000E+00
    0.43725E+03        -0.42820E+03         0.00000E+00
    0.00000E+00         0.00000E+00        -0.14984E+04
 
   -0.43738E+04         0.48232E+03         0.00000E+00
    0.48232E+03        -0.51447E+03         0.00000E+00
    0.00000E+00         0.00000E+00        -0.14665E+04
 
   -0.41622E+04         0.52688E+03         0.00000E+00
    0.52688E+03        -0.60901E+03         0.00000E+00
    0.00000E+00         0.00000E+00        -0.14314E+04
 
   -0.39318E+04         0.57057E+03         0.00000E+00
    0.57057E+03        -0.71167E+03         0.00000E+00
    0.00000E+00         0.00000E+00        -0.13931E+04
 
   -0.36827E+04         0.61304E+03         0.00000E+00
    0.61304E+03        -0.82225E+03         0.00000E+00
    0.00000E+00         0.00000E+00        -0.13515E+04
 
   -0.34149E+04         0.65393E+03         0.00000E+00
    0.65393E+03        -0.94049E+03         0.00000E+00
    0.00000E+00         0.00000E+00        -0.13066E+04
 
   -0.31289E+04         0.69286E+03         0.00000E+00
    0.69286E+03        -0.10661E+04         0.00000E+00
    0.00000E+00         0.00000E+00        -0.12585E+04
 
   -0.28250E+04         0.72946E+03         0.00000E+00
    0.72946E+03        -0.11986E+04         0.00000E+00
    0.00000E+00         0.00000E+00        -0.12071E+04
 
   -0.25039E+04         0.76333E+03         0.00000E+00
    0.76333E+03        -0.13376E+04         0.00000E+00
    0.00000E+00         0.00000E+00        -0.11525E+04
 
   -0.21662E+04         0.79403E+03         0.00000E+00
    0.79403E+03        -0.14826E+04         0.00000E+00
    0.00000E+00         0.00000E+00        -0.10947E+04
 
   -0.18128E+04         0.82111E+03         0.00000E+00
    0.82111E+03        -0.16331E+04         0.00000E+00
    0.00000E+00         0.00000E+00        -0.10338E+04
 
   -0.14447E+04         0.84410E+03         0.00000E+00
    0.84410E+03        -0.17882E+04         0.00000E+00
    0.00000E+00         0.00000E+00        -0.96988E+03
 
   -0.10631E+04         0.86249E+03         0.00000E+00
    0.86249E+03        -0.19473E+04         0.00000E+00
    0.00000E+00         0.00000E+00        -0.90312E+03
 
   -0.55460E+04         0.97649E+01         0.00000E+00
    0.97649E+01        -0.84978E+00         0.00000E+00
    0.00000E+00         0.00000E+00        -0.16640E+04
 
   -0.55219E+04         0.31496E+02         0.00000E+00
    0.31496E+02        -0.55094E+01         0.00000E+00
    0.00000E+00         0.00000E+00        -0.16582E+04
 
   -0.54873E+04         0.55959E+02         0.00000E+00
    0.55959E+02        -0.15445E+02         0.00000E+00
    0.00000E+00         0.00000E+00        -0.16508E+04
 
   -0.54408E+04         0.82932E+02         0.00000E+00
    0.82932E+02        -0.31262E+02         0.00000E+00
    0.00000E+00         0.00000E+00        -0.16416E+04
 
   -0.53813E+04         0.11217E+03         0.00000E+00
    0.11217E+03        -0.53502E+02         0.00000E+00
    0.00000E+00         0.00000E+00        -0.16304E+04
 
   -0.53077E+04         0.14339E+03         0.00000E+00
    0.14339E+03        -0.82645E+02         0.00000E+00
    0.00000E+00         0.00000E+00        -0.16171E+04
 
   -0.52192E+04         0.17631E+03         0.00000E+00
    0.17631E+03        -0.11910E+03         0.00000E+00
    0.00000E+00         0.00000E+00        -0.16015E+04
 
   -0.51147E+04         0.21063E+03         0.00000E+00
    0.21063E+03        -0.16319E+03         0.00000E+00
    0.00000E+00         0.00000E+00        -0.15834E+04
 
   -0.49937E+04         0.24604E+03         0.00000E+00
    0.24604E+03        -0.21520E+03         0.00000E+00
    0.00000E+00         0.00000E+00        -0.15627E+04
 
   -0.48554E+04         0.28225E+03         0.00000E+00
    0.28225E+03        -0.27532E+03         0.00000E+00
    0.00000E+00         0.00000E+00        -0.15392E+04
 
   -0.46995E+04         0.31895E+03         0.00000E+00
    0.31895E+03        -0.34367E+03         0.00000E+00
    0.00000E+00         0.00000E+00        -0.15129E+04
 
   -0.45254E+04         0.35584E+03         0.00000E+00
    0.35584E+03        -0.42032E+03         0.00000E+00
    0.00000E+00         0.00000E+00        -0.14837E+04
 
   -0.43330E+04         0.39262E+03         0.00000E+00
    0.39262E+03        -0.50524E+03         0.00000E+00
    0.00000E+00         0.00000E+00        -0.14515E+04
 
   -0.41221E+04         0.42899E+03         0.00000E+00
    0.42899E+03        -0.59839E+03         0.00000E+00
    0.00000E+00         0.00000E+00        -0.14161E+04
 
   -0.38927E+04         0.46467E+03         0.00000E+00
    0.46467E+03        -0.69960E+03         0.00000E+00
    0.00000E+00         0.00000E+00        -0.13777E+04
 
   -0.36448E+04         0.49936E+03         0.00000E+00
    0.49936E+03        -0.80871E+03         0.00000E+00
    0.00000E+00         0.00000E+00        -0.13360E+04
 
   -0.33786E+04         0.53276E+03         0.00000E+00
    0.53276E+03        -0.92543E+03         0.00000E+00
    0.00000E+00         0.00000E+00        -0.12912E+04
 
   -0.30945E+04         0.56456E+03         0.00000E+00
    0.56456E+03        -0.10495E+04         0.00000E+00
    0.00000E+00         0.00000E+00        -0.12432E+04
 
   -0.27930E+04         0.59444E+03         0.00000E+00
    0.59444E+03        -0.11804E+04         0.00000E+00
    0.00000E+00         0.00000E+00        -0.11920E+04
 
   -0.24745E+04         0.62206E+03         0.00000E+00
    0.62206E+03        -0.13178E+04         0.00000E+00
    0.00000E+00         0.00000E+00        -0.11377E+04
 
   -0.21399E+04         0.64709E+03         0.00000E+00
    0.64709E+03        -0.14611E+04         0.00000E+00
    0.00000E+00         0.00000E+00        -0.10803E+04
 
   -0.17901E+04         0.66914E+03         0.00000E+00
    0.66914E+03        -0.16098E+04         0.00000E+00
    0.00000E+00         0.00000E+00        -0.10200E+04
 
   -0.14259E+04         0.68781E+03         0.00000E+00
    0.68781E+03        -0.17631E+04         0.00000E+00
    0.00000E+00         0.00000E+00        -0.95672E+03
 
   -0.10487E+04         0.70269E+03         0.00000E+00
    0.70269E+03        -0.19203E+04         0.00000E+00
    0.00000E+00         0.00000E+00        -0.89071E+03
 
   -0.55280E+04         0.75623E+01         0.00000E+00
    0.75623E+01        -0.83843E+00         0.00000E+00
    0.00000E+00         0.00000E+00        -0.16586E+04
 
   -0.55014E+04         0.24380E+02         0.00000E+00
    0.24380E+02        -0.54306E+01         0.00000E+00
    0.00000E+00         0.00000E+00        -0.16520E+04
 
   -0.54644E+04         0.43302E+02         0.00000E+00
    0.43302E+02        -0.15214E+02         0.00000E+00
    0.00000E+00         0.00000E+00        -0.16439E+04
 
   -0.54158E+04         0.64165E+02         0.00000E+00
    0.64165E+02        -0.30780E+02         0.00000E+00
    0.00000E+00         0.00000E+00        -0.16340E+04
 
   -0.53545E+04         0.86780E+02         0.00000E+00
    0.86780E+02        -0.52666E+02         0.00000E+00
    0.00000E+00         0.00000E+00        -0.16221E+04
 
   -0.52793E+04         0.11094E+03         0.00000E+00
    0.11094E+03        -0.81345E+02         0.00000E+00
    0.00000E+00         0.00000E+00        -0.16082E+04
 
   -0.51893E+04         0.13642E+03         0.00000E+00
    0.13642E+03        -0.11723E+03         0.00000E+00
    0.00000E+00         0.00000E+00        -0.15920E+04
 
   -0.50838E+04         0.16300E+03         0.00000E+00
    0.16300E+03        -0.16065E+03         0.00000E+00
    0.00000E+00         0.00000E+00        -0.15733E+04
 
   -0.49619E+04         0.19044E+03         0.00000E+00
    0.19044E+03        -0.21190E+03         0.00000E+00
    0.00000E+00         0.00000E+00        -0.15521E+04
 
   -0.48231E+04         0.21851E+03         0.00000E+00
    0.21851E+03        -0.27116E+03         0.00000E+00
    0.00000E+00         0.00000E+00        -0.15283E+04
 
   -0.46668E+04         0.24697E+03         0.00000E+00
    0.24697E+03        -0.33859E+03         0.00000E+00
    0.00000E+00         0.00000E+00        -0.15016E+04
 
   -0.44927E+04         0.27559E+03         0.00000E+00
    0.27559E+03        -0.41424E+03         0.00000E+00
    0.00000E+00         0.00000E+00        -0.14721E+04
 
   -0.43005E+04         0.30414E+03         0.00000E+00
    0.30414E+03        -0.49812E+03         0.00000E+00
    0.00000E+00         0.00000E+00        -0.14396E+04
 
   -0.40901E+04         0.33238E+03         0.00000E+00
    0.33238E+03        -0.59016E+03         0.00000E+00
    0.00000E+00         0.00000E+00        -0.14041E+04
 
   -0.38614E+04         0.36008E+03         0.00000E+00
    0.36008E+03        -0.69025E+03         0.00000E+00
    0.00000E+00         0.00000E+00        -0.13655E+04
 
   -0.36145E+04         0.38702E+03         0.00000E+00
    0.38702E+03        -0.79818E+03         0.00000E+00
    0.00000E+00         0.00000E+00        -0.13238E+04
 
   -0.33496E+04         0.41296E+03         0.00000E+00
    0.41296E+03        -0.91371E+03         0.00000E+00
    0.00000E+00         0.00000E+00        -0.12790E+04
 
   -0.30671E+04         0.43765E+03         0.00000E+00
    0.43765E+03        -0.10365E+04         0.00000E+00
    0.00000E+00         0.00000E+00        -0.12311E+04
 
   -0.27674E+04         0.46085E+03         0.00000E+00
    0.46085E+03        -0.11662E+04         0.00000E+00
    0.00000E+00         0.00000E+00        -0.11801E+04
 
   -0.24511E+04         0.48229E+03         0.00000E+00
    0.48229E+03        -0.13023E+04         0.00000E+00
    0.00000E+00         0.00000E+00        -0.11260E+04
 
   -0.21190E+04         0.50169E+03         0.00000E+00
    0.50169E+03        -0.14443E+04         0.00000E+00
    0.00000E+00         0.00000E+00        -0.10690E+04
 
   -0.17720E+04         0.51876E+03         0.00000E+00
    0.51876E+03        -0.15916E+04         0.00000E+00
    0.00000E+00         0.00000E+00        -0.10091E+04
 
   -0.14110E+04         0.53320E+03         0.00000E+00
    0.53320E+03        -0.17434E+04         0.00000E+00
    0.00000E+00         0.00000E+00        -0.94633E+03
 
   -0.10374E+04         0.54468E+03         0.00000E+00
    0.54468E+03        -0.18990E+04         0.00000E+00
    0.00000E+00         0.00000E+00        -0.88093E+03
 
   -0.55145E+04         0.53850E+01         0.00000E+00
    0.53850E+01        -0.83057E+00         0.00000E+00
    0.00000E+00         0.00000E+00        -0.16546E+04
 
   -0.54861E+04         0.17353E+02         0.00000E+00
    0.17353E+02        -0.53754E+01         0.00000E+00
    0.00000E+00         0.00000E+00        -0.16474E+04
 
   -0.54474E+04         0.30815E+02         0.00000E+00
    0.30815E+02        -0.15050E+02         0.00000E+00
    0.00000E+00         0.00000E+00        -0.16387E+04
 
   -0.53972E+04         0.45656E+02         0.00000E+00
    0.45656E+02        -0.30437E+02         0.00000E+00
    0.00000E+00         0.00000E+00        -0.16283E+04
 
   -0.53344E+04         0.61745E+02         0.00000E+00
    0.61745E+02        -0.52067E+02         0.00000E+00
    0.00000E+00         0.00000E+00        -0.16159E+04
 
   -0.52580E+04         0.78937E+02         0.00000E+00
    0.78937E+02        -0.80412E+02         0.00000E+00
    0.00000E+00         0.00000E+00        -0.16015E+04
 
   -0.51670E+04         0.97076E+02         0.00000E+00
    0.97076E+02        -0.11588E+03         0.00000E+00
    0.00000E+00         0.00000E+00        -0.15849E+04
 
   -0.50606E+04         0.11600E+03         0.00000E+00
    0.11600E+03        -0.15882E+03         0.00000E+00
    0.00000E+00         0.00000E+00        -0.15658E+04
 
   -0.49381E+04         0.13555E+03         0.00000E+00
    0.13555E+03        -0.20950E+03         0.00000E+00
    0.00000E+00         0.00000E+00        -0.15443E+04
 
   -0.47988E+04         0.15554E+03         0.00000E+00
    0.15554E+03        -0.26815E+03         0.00000E+00
    0.00000E+00         0.00000E+00        -0.15201E+04
 
   -0.46423E+04         0.17583E+03         0.00000E+00
    0.17583E+03        -0.33489E+03         0.00000E+00
    0.00000E+00         0.00000E+00        -0.14932E+04
 
   -0.44682E+04         0.19623E+03         0.00000E+00
    0.19623E+03        -0.40981E+03         0.00000E+00
    0.00000E+00         0.00000E+00        -0.14634E+04
 
   -0.42762E+04         0.21659E+03         0.00000E+00
    0.21659E+03        -0.49292E+03         0.00000E+00
    0.00000E+00         0.00000E+00        -0.14307E+04
 
   -0.40661E+04         0.23673E+03         0.00000E+00
    0.23673E+03        -0.58416E+03         0.00000E+00
    0.00000E+00         0.00000E+00        -0.13951E+04
 
   -0.38379E+04         0.25650E+03         0.00000E+00
    0.25650E+03        -0.68340E+03         0.00000E+00
    0.00000E+00         0.00000E+00        -0.13564E+04
 
   -0.35918E+04         0.27572E+03         0.00000E+00
    0.27572E+03        -0.79047E+03         0.00000E+00
    0.00000E+00         0.00000E+00        -0.13147E+04
 
   -0.33279E+04         0.29422E+03         0.00000E+00
    0.29422E+03        -0.90511E+03         0.00000E+00
    0.00000E+00         0.00000E+00        -0.12699E+04
 
   -0.30466E+04         0.31184E+03         0.00000E+00
    0.31184E+03        -0.10270E+04         0.00000E+00
    0.00000E+00         0.00000E+00        -0.12221E+04
 
   -0.27483E+04         0.32838E+03         0.00000E+00
    0.32838E+03        -0.11557E+04         0.00000E+00
    0.00000E+00         0.00000E+00        -0.11712E+04
 
   -0.24336E+04         0.34367E+03         0.00000E+00
    0.34367E+03        -0.12909E+04         0.00000E+00
    0.00000E+00         0.00000E+00        -0.11173E+04
 
   -0.21034E+04         0.35749E+03         0.00000E+00
    0.35749E+03        -0.14318E+04         0.00000E+00
    0.00000E+00         0.00000E+00        -0.10606E+04
 
   -0.17585E+04         0.36965E+03         0.00000E+00
    0.36965E+03        -0.15781E+04         0.00000E+00
    0.00000E+00         0.00000E+00        -0.10010E+04
 
   -0.13999E+04         0.37992E+03         0.00000E+00
    0.37992E+03        -0.17288E+04         0.00000E+00
    0.00000E+00         0.00000E+00        -0.93861E+03
 
   -0.10290E+04         0.38806E+03         0.00000E+00
    0.38806E+03        -0.18833E+04         0.00000E+00
    0.00000E+00         0.00000E+00        -0.87367E+03
 
   -0.55056E+04         0.32246E+01         0.00000E+00
    0.32246E+01        -0.82565E+00         0.00000E+00
    0.00000E+00         0.00000E+00        -0.16519E+04
 
   -0.54759E+04         0.10388E+02         0.00000E+00
    0.10388E+02        -0.53405E+01         0.00000E+00
    0.00000E+00         0.00000E+00        -0.16444E+04
 
   -0.54361E+04         0.18444E+02         0.00000E+00
    0.18444E+02        -0.14946E+02         0.00000E+00
    0.00000E+00         0.00000E+00        -0.16353E+04
 
   -0.53848E+04         0.27325E+02         0.00000E+00
    0.27325E+02        -0.30218E+02         0.00000E+00
    0.00000E+00         0.00000E+00        -0.16245E+04
 
   -0.53211E+04         0.36953E+02         0.00000E+00
    0.36953E+02        -0.51682E+02         0.00000E+00
    0.00000E+00         0.00000E+00        -0.16118E+04
 
   -0.52439E+04         0.47242E+02         0.00000E+00
    0.47242E+02        -0.79809E+02         0.00000E+00
    0.00000E+00         0.00000E+00        -0.15971E+04
 
   -0.51522E+04         0.58100E+02         0.00000E+00
    0.58100E+02        -0.11501E+03         0.00000E+00
    0.00000E+00         0.00000E+00        -0.15802E+04
 
   -0.50452E+04         0.69430E+02         0.00000E+00
    0.69430E+02        -0.15763E+03         0.00000E+00
    0.00000E+00         0.00000E+00        -0.15609E+04
 
   -0.49223E+04         0.81135E+02         0.00000E+00
    0.81135E+02        -0.20795E+03         0.00000E+00
    0.00000E+00         0.00000E+00        -0.15391E+04
 
   -0.47827E+04         0.93114E+02         0.00000E+00
    0.93114E+02        -0.26618E+03         0.00000E+00
    0.00000E+00         0.00000E+00        -0.15147E+04
 
   -0.46260E+04         0.10527E+03         0.00000E+00
    0.10527E+03        -0.33248E+03         0.00000E+00
    0.00000E+00         0.00000E+00        -0.14876E+04
 
   -0.44519E+04         0.11749E+03         0.00000E+00
    0.11749E+03        -0.40692E+03         0.00000E+00
    0.00000E+00         0.00000E+00        -0.14576E+04
 
   -0.42600E+04         0.12969E+03         0.00000E+00
    0.12969E+03        -0.48952E+03         0.00000E+00
    0.00000E+00         0.00000E+00        -0.14248E+04
 
   -0.40501E+04         0.14177E+03         0.00000E+00
    0.14177E+03        -0.58023E+03         0.00000E+00
    0.00000E+00         0.00000E+00        -0.13891E+04
 
   -0.38223E+04         0.15362E+03         0.00000E+00
    0.15362E+03        -0.67892E+03         0.00000E+00
    0.00000E+00         0.00000E+00        -0.13504E+04
 
   -0.35767E+04         0.16514E+03         0.00000E+00
    0.16514E+03        -0.78541E+03         0.00000E+00
    0.00000E+00         0.00000E+00        -0.13086E+04
 
   -0.33134E+04         0.17624E+03         0.00000E+00
    0.17624E+03        -0.89946E+03         0.00000E+00
    0.00000E+00         0.00000E+00        -0.12639E+04
 
   -0.30329E+04         0.18680E+03         0.00000E+00
    0.18680E+03        -0.10207E+04         0.00000E+00
    0.00000E+00         0.00000E+00        -0.12161E+04
 
   -0.27355E+04         0.19671E+03         0.00000E+00
    0.19671E+03        -0.11488E+04         0.00000E+00
    0.00000E+00         0.00000E+00        -0.11653E+04
 
   -0.24220E+04         0.20587E+03         0.00000E+00
    0.20587E+03        -0.12833E+04         0.00000E+00
    0.00000E+00         0.00000E+00        -0.11116E+04
 
   -0.20930E+04         0.21415E+03         0.00000E+00
    0.21415E+03        -0.14236E+04         0.00000E+00
    0.00000E+00         0.00000E+00        -0.10550E+04
 
   -0.17495E+04         0.22143E+03         0.00000E+00
    0.22143E+03        -0.15692E+04         0.00000E+00
    0.00000E+00         0.00000E+00        -0.99559E+03
 
   -0.13925E+04         0.22757E+03         0.00000E+00
    0.22757E+03        -0.17192E+04         0.00000E+00
    0.00000E+00         0.00000E+00        -0.93351E+03
 
   -0.10234E+04         0.23244E+03         0.00000E+00
    0.23244E+03        -0.18729E+04         0.00000E+00
    0.00000E+00         0.00000E+00        -0.86888E+03
 
   -0.55011E+04         0.10738E+01         0.00000E+00
    0.10738E+01        -0.82328E+00         0.00000E+00
    0.00000E+00         0.00000E+00        -0.16506E+04
 
   -0.54709E+04         0.34590E+01         0.00000E+00
    0.34590E+01        -0.53236E+01         0.00000E+00
    0.00000E+00         0.00000E+00        -0.16429E+04
 
   -0.54304E+04         0.61406E+01         0.00000E+00
    0.61406E+01        -0.14895E+02         0.00000E+00
    0.00000E+00         0.00000E+00        -0.16336E+04
 
   -0.53787E+04         0.90968E+01         0.00000E+00
    0.90968E+01        -0.30111E+02         0.00000E+00
    0.00000E+00         0.00000E+00        -0.16226E+04
 
   -0.53145E+04         0.12302E+02         0.00000E+00
    0.12302E+02        -0.51494E+02         0.00000E+00
    0.00000E+00         0.00000E+00        -0.16098E+04
 
   -0.52368E+04         0.15727E+02         0.00000E+00
    0.15727E+02        -0.79514E+02         0.00000E+00
    0.00000E+00         0.00000E+00        -0.15949E+04
 
   -0.51448E+04         0.19343E+02         0.00000E+00
    0.19343E+02        -0.11458E+03         0.00000E+00
    0.00000E+00         0.00000E+00        -0.15778E+04
 
   -0.50375E+04         0.23115E+02         0.00000E+00
    0.23115E+02        -0.15704E+03         0.00000E+00
    0.00000E+00         0.00000E+00        -0.15584E+04
 
   -0.49144E+04         0.27013E+02         0.00000E+00
    0.27013E+02        -0.20718E+03         0.00000E+00
    0.00000E+00         0.00000E+00        -0.15365E+04
 
   -0.47747E+04         0.31003E+02         0.00000E+00
    0.31003E+02        -0.26522E+03         0.00000E+00
    0.00000E+00         0.00000E+00        -0.15120E+04
 
   -0.46179E+04         0.35051E+02         0.00000E+00
    0.35051E+02        -0.33130E+03         0.00000E+00
    0.00000E+00         0.00000E+00        -0.14848E+04
 
   -0.44437E+04         0.39123E+02         0.00000E+00
    0.39123E+02        -0.40550E+03         0.00000E+00
    0.00000E+00         0.00000E+00        -0.14548E+04
 
   -0.42519E+04         0.43188E+02         0.00000E+00
    0.43188E+02        -0.48785E+03         0.00000E+00
    0.00000E+00         0.00000E+00        -0.14219E+04
 
   -0.40421E+04         0.47211E+02         0.00000E+00
    0.47211E+02        -0.57829E+03         0.00000E+00
    0.00000E+00         0.00000E+00        -0.13861E+04
 
   -0.38145E+04         0.51159E+02         0.00000E+00
    0.51159E+02        -0.67670E+03         0.00000E+00
    0.00000E+00         0.00000E+00        -0.13474E+04
 
   -0.35692E+04         0.54999E+02         0.00000E+00
    0.54999E+02        -0.78291E+03         0.00000E+00
    0.00000E+00         0.00000E+00        -0.13056E+04
 
   -0.33062E+04         0.58695E+02         0.00000E+00
    0.58695E+02        -0.89666E+03         0.00000E+00
    0.00000E+00         0.00000E+00        -0.12609E+04
 
   -0.30260E+04         0.62214E+02         0.00000E+00
    0.62214E+02        -0.10176E+04         0.00000E+00
    0.00000E+00         0.00000E+00        -0.12131E+04
 
   -0.27291E+04         0.65518E+02         0.00000E+00
    0.65518E+02        -0.11454E+04         0.00000E+00
    0.00000E+00         0.00000E+00        -0.11624E+04
 
   -0.24161E+04         0.68569E+02         0.00000E+00
    0.68569E+02        -0.12796E+04         0.00000E+00
    0.00000E+00         0.00000E+00        -0.11087E+04
 
   -0.20878E+04         0.71327E+02         0.00000E+00
    0.71327E+02        -0.14196E+04         0.00000E+00
    0.00000E+00         0.00000E+00        -0.10522E+04
 
   -0.17450E+04         0.73750E+02         0.00000E+00
    0.73750E+02        -0.15647E+04         0.00000E+00
    0.00000E+00         0.00000E+00        -0.99292E+03
 
   -0.13889E+04         0.75794E+02         0.00000E+00
    0.75794E+02        -0.17144E+04         0.00000E+00
    0.00000E+00         0.00000E+00        -0.93097E+03
 
   -0.10206E+04         0.77413E+02         0.00000E+00
    0.77413E+02        -0.18677E+04         0.00000E+00
    0.00000E+00         0.00000E+00        -0.86649E+03
 
TENSORS stresstot double 
   -0.50391E+05         0.36730E+03         0.00000E+00
    0.36730E+03        -0.10022E+06         0.00000E+00
    0.00000E+00         0.00000E+00        -0.56226E+05
 
   -0.40546E+05         0.26486E+04         0.00000E+00
    0.26486E+04        -0.96900E+05         0.00000E+00
    0.00000E+00         0.00000E+00        -0.65782E+05
 
   -0.34885E+05         0.38063E+04         0.00000E+00
    0.38063E+04        -0.88952E+05         0.00000E+00
    0.00000E+00         0.00000E+00        -0.63209E+05
 
   -0.29645E+05         0.40509E+04         0.00000E+00
    0.40509E+04        -0.80509E+05         0.00000E+00
    0.00000E+00         0.00000E+00        -0.57496E+05
 
   -0.24761E+05         0.38935E+04         0.00000E+00
    0.38935E+04        -0.72692E+05         0.00000E+00
    0.00000E+00         0.00000E+00        -0.51282E+05
 
   -0.20330E+05         0.35934E+04         0.00000E+00
    0.35934E+04        -0.65568E+05         0.00000E+00
    0.00000E+00         0.00000E+00        -0.45219E+05
 
   -0.16348E+05         0.32081E+04         0.00000E+00
    0.32081E+04        -0.59151E+05         0.00000E+00
    0.00000E+00         0.00000E+00        -0.39561E+05
 
   -0.13259E+05         0.27880E+04         0.00000E+00
    0.27880E+04        -0.53412E+05         0.00000E+00
    0.00000E+00         0.00000E+00        -0.34605E+05
 
   -0.10653E+05         0.24213E+04         0.00000E+00
    0.24213E+04        -0.48357E+05         0.00000E+00
    0.00000E+00         0.00000E+00        -0.30293E+05
 
   -0.83767E+04         0.20929E+04         0.00000E+00
    0.20929E+04        -0.43954E+05         0.00000E+00
    0.00000E+00         0.00000E+00        -0.26573E+05
 
   -0.64942E+04         0.18174E+04         0.00000E+00
    0.18174E+04        -0.40076E+05         0.00000E+00
    0.00000E+00         0.00000E+00        -0.23398E+05
 
   -0.48386E+04         0.16290E+04         0.00000E+00
    0.16290E+04        -0.36660E+05         0.00000E+00
    0.00000E+00         0.00000E+00        -0.20596E+05
 
   -0.33193E+04         0.14654E+04         0.00000E+00
    0.14654E+04        -0.33629E+05         0.00000E+00
    0.00000E+00         0.00000E+00        -0.18044E+05
 
   -0.19102E+04         0.13215E+04         0.00000E+00
    0.13215E+04        -0.30891E+05         0.00000E+00
    0.00000E+00         0.00000E+00        -0.15675E+05
 
   -0.62664E+03         0.11691E+04         0.00000E+00
    0.11691E+04        -0.28436E+05         0.00000E+00
    0.00000E+00         0.00000E+00        -0.13468E+05
 
    0.38828E+03         0.10430E+04         0.00000E+00
    0.10430E+04        -0.26254E+05         0.00000E+00
    0.00000E+00         0.00000E+00        -0.11469E+05
 
    0.12312E+04         0.89577E+03         0.00000E+00
    0.89577E+03        -0.24359E+05         0.00000E+00
    0.00000E+00         0.00000E+00        -0.96121E+04
 
    0.19401E+04         0.79589E+03         0.00000E+00
    0.79589E+03        -0.22703E+05         0.00000E+00
    0.00000E+00         0.00000E+00        -0.79618E+04
 
    0.25345E+04         0.70734E+03         0.00000E+00
    0.70734E+03        -0.21226E+05         0.00000E+00
    0.00000E+00         0.00000E+00        -0.64142E+04
 
    0.27045E+04         0.63230E+03         0.00000E+00
    0.63230E+03        -0.19901E+05         0.00000E+00
    0.00000E+00         0.00000E+00        -0.52517E+04
 
    0.78899E+03         0.54023E+03         0.00000E+00
    0.54023E+03        -0.18737E+05         0.00000E+00
    0.00000E+00         0.00000E+00        -0.53843E+04
 
   -0.13049E+04         0.48390E+03         0.00000E+00
    0.48390E+03        -0.17720E+05         0.00000E+00
    0.00000E+00         0.00000E+00        -0.57075E+04
 
   -0.33711E+04         0.46006E+03         0.00000E+00
    0.46006E+03        -0.16781E+05         0.00000E+00
    0.00000E+00         0.00000E+00        -0.60456E+04
 
   -0.55070E+04         0.46042E+03         0.00000E+00
    0.46042E+03        -0.15865E+05         0.00000E+00
    0.00000E+00         0.00000E+00        -0.64115E+04
 
   -0.46905E+05         0.27391E+04         0.00000E+00
    0.27391E+04        -0.99614E+05         0.00000E+00
    0.00000E+00         0.00000E+00        -0.59029E+05
 
   -0.37182E+05         0.97166E+04         0.00000E+00
    0.97166E+04        -0.88863E+05         0.00000E+00
    0.00000E+00         0.00000E+00        -0.63738E+05
 
   -0.33484E+05         0.11696E+05         0.00000E+00
    0.11696E+05        -0.80360E+05         0.00000E+00
    0.00000E+00         0.00000E+00        -0.59430E+05
 
   -0.29650E+05         0.11870E+05         0.00000E+00
    0.11870E+05        -0.73326E+05         0.00000E+00
    0.00000E+00         0.00000E+00        -0.54320E+05
 
   -0.25346E+05         0.11185E+05         0.00000E+00
    0.11185E+05        -0.66651E+05         0.00000E+00
    0.00000E+00         0.00000E+00        -0.48714E+05
 
   -0.21103E+05         0.10180E+05         0.00000E+00
    0.10180E+05        -0.60606E+05         0.00000E+00
    0.00000E+00         0.00000E+00        -0.43217E+05
 
   -0.17293E+05         0.90435E+04         0.00000E+00
    0.90435E+04        -0.55212E+05         0.00000E+00
    0.00000E+00         0.00000E+00        -0.38134E+05
 
   -0.14047E+05         0.79392E+04         0.00000E+00
    0.79392E+04        -0.50454E+05         0.00000E+00
    0.00000E+00         0.00000E+00        -0.33598E+05
 
   -0.11359E+05         0.69290E+04         0.00000E+00
    0.69290E+04        -0.46145E+05         0.00000E+00
    0.00000E+00         0.00000E+00        -0.29593E+05
 
   -0.89791E+04         0.60580E+04         0.00000E+00
    0.60580E+04        -0.42208E+05         0.00000E+00
    0.00000E+00         0.00000E+00        -0.26015E+05
 
   -0.69214E+04         0.53488E+04         0.00000E+00
    0.53488E+04        -0.38725E+05         0.00000E+00
    0.00000E+00         0.00000E+00        -0.22876E+05
 
   -0.51691E+04         0.47850E+04         0.00000E+00
    0.47850E+04        -0.35551E+05         0.00000E+00
    0.00000E+00         0.00000E+00        -0.20117E+05
 
   -0.36323E+04         0.42983E+04         0.00000E+00
    0.42983E+04        -0.32658E+05         0.00000E+00
    0.00000E+00         0.00000E+00        -0.17626E+05
 
   -0.21938E+04         0.38774E+04         0.00000E+00
    0.38774E+04        -0.30101E+05         0.00000E+00
    0.00000E+00         0.00000E+00        -0.15307E+05
 
   -0.92462E+03         0.34478E+04         0.00000E+00
    0.34478E+04        -0.27827E+05         0.00000E+00
    0.00000E+00         0.00000E+00        -0.13185E+05
 
    0.11973E+03         0.30234E+04         0.00000E+00
    0.30234E+04        -0.25818E+05         0.00000E+00
    0.00000E+00         0.00000E+00        -0.11265E+05
 
    0.99390E+03         0.26574E+04         0.00000E+00
    0.26574E+04        -0.24029E+05         0.00000E+00
    0.00000E+00         0.00000E+00        -0.94461E+04
 
    0.17507E+04         0.23527E+04         0.00000E+00
    0.23527E+04        -0.22425E+05         0.00000E+00
    0.00000E+00         0.00000E+00        -0.78184E+04
 
    0.23768E+04         0.21001E+04         0.00000E+00
    0.21001E+04        -0.21004E+05         0.00000E+00
    0.00000E+00         0.00000E+00        -0.63129E+04
 
    0.25249E+04         0.18769E+04         0.00000E+00
    0.18769E+04        -0.19710E+05         0.00000E+00
    0.00000E+00         0.00000E+00        -0.52244E+04
 
    0.63689E+03         0.16069E+04         0.00000E+00
    0.16069E+04        -0.18585E+05         0.00000E+00
    0.00000E+00         0.00000E+00        -0.53845E+04
 
   -0.13809E+04         0.14443E+04         0.00000E+00
    0.14443E+04        -0.17587E+05         0.00000E+00
    0.00000E+00         0.00000E+00        -0.56904E+04
 
   -0.33933E+04         0.13733E+04         0.00000E+00
    0.13733E+04        -0.16662E+05         0.00000E+00
    0.00000E+00         0.00000E+00        -0.60165E+04
 
   -0.54856E+04         0.13738E+04         0.00000E+00
    0.13738E+04        -0.15760E+05         0.00000E+00
    0.00000E+00         0.00000E+00        -0.63738E+04
 
   -0.34308E+05         0.16166E+05         0.00000E+00
    0.16166E+05        -0.75384E+05         0.00000E+00
    0.00000E+00         0.00000E+00        -0.55713E+05
 
   -0.33389E+05         0.18376E+05         0.00000E+00
    0.18376E+05        -0.64371E+05         0.00000E+00
    0.00000E+00         0.00000E+00        -0.52842E+05
 
   -0.33536E+05         0.18913E+05         0.00000E+00
    0.18913E+05        -0.61966E+05         0.00000E+00
    0.00000E+00         0.00000E+00        -0.51523E+05
 
   -0.30579E+05         0.17942E+05         0.00000E+00
    0.17942E+05        -0.58431E+05         0.00000E+00
    0.00000E+00         0.00000E+00        -0.47919E+05
 
   -0.26760E+05         0.16566E+05         0.00000E+00
    0.16566E+05        -0.55017E+05         0.00000E+00
    0.00000E+00         0.00000E+00        -0.43895E+05
 
   -0.22640E+05         0.14973E+05         0.00000E+00
    0.14973E+05        -0.51500E+05         0.00000E+00
    0.00000E+00         0.00000E+00        -0.39628E+05
 
   -0.18792E+05         0.13368E+05         0.00000E+00
    0.13368E+05        -0.48055E+05         0.00000E+00
    0.00000E+00         0.00000E+00        -0.35481E+05
 
   -0.15435E+05         0.11880E+05         0.00000E+00
    0.11880E+05        -0.44737E+05         0.00000E+00
    0.00000E+00         0.00000E+00        -0.31594E+05
 
   -0.12522E+05         0.10622E+05         0.00000E+00
    0.10622E+05        -0.41612E+05         0.00000E+00
    0.00000E+00         0.00000E+00        -0.28020E+05
 
   -0.99566E+04         0.94652E+04         0.00000E+00
    0.94652E+04        -0.38612E+05         0.00000E+00
    0.00000E+00         0.00000E+00        -0.24768E+05
 
   -0.77452E+04         0.84419E+04         0.00000E+00
    0.84419E+04        -0.35718E+05         0.00000E+00
    0.00000E+00         0.00000E+00        -0.21794E+05
 
   -0.58439E+04         0.75695E+04         0.00000E+00
    0.75695E+04        -0.33140E+05         0.00000E+00
    0.00000E+00         0.00000E+00        -0.19138E+05
 
   -0.42040E+04         0.68304E+04         0.00000E+00
    0.68304E+04        -0.30829E+05         0.00000E+00
    0.00000E+00         0.00000E+00        -0.16768E+05
 
   -0.27501E+04         0.61366E+04         0.00000E+00
    0.61366E+04        -0.28684E+05         0.00000E+00
    0.00000E+00         0.00000E+00        -0.14613E+05
 
   -0.14931E+04         0.54808E+04         0.00000E+00
    0.54808E+04        -0.26720E+05         0.00000E+00
    0.00000E+00         0.00000E+00        -0.12623E+05
 
   -0.38869E+03         0.48451E+04         0.00000E+00
    0.48451E+04        -0.24951E+05         0.00000E+00
    0.00000E+00         0.00000E+00        -0.10746E+05
 
    0.57353E+03         0.42774E+04         0.00000E+00
    0.42774E+04        -0.23346E+05         0.00000E+00
    0.00000E+00         0.00000E+00        -0.90464E+04
 
    0.13887E+04         0.38061E+04         0.00000E+00
    0.38061E+04        -0.21894E+05         0.00000E+00
    0.00000E+00         0.00000E+00        -0.75201E+04
 
    0.20778E+04         0.34279E+04         0.00000E+00
    0.34279E+04        -0.20566E+05         0.00000E+00
    0.00000E+00         0.00000E+00        -0.61163E+04
 
    0.21726E+04         0.30632E+04         0.00000E+00
    0.30632E+04        -0.19352E+05         0.00000E+00
    0.00000E+00         0.00000E+00        -0.51739E+04
 
    0.34950E+03         0.26406E+04         0.00000E+00
    0.26406E+04        -0.18272E+05         0.00000E+00
    0.00000E+00         0.00000E+00        -0.53767E+04
 
   -0.15292E+04         0.23831E+04         0.00000E+00
    0.23831E+04        -0.17308E+05         0.00000E+00
    0.00000E+00         0.00000E+00        -0.56512E+04
 
   -0.34392E+04         0.22644E+04         0.00000E+00
    0.22644E+04        -0.16414E+05         0.00000E+00
    0.00000E+00         0.00000E+00        -0.59559E+04
 
   -0.54425E+04         0.22634E+04         0.00000E+00
    0.22634E+04        -0.15545E+05         0.00000E+00
    0.00000E+00         0.00000E+00        -0.62962E+04
 
   -0.13667E+05         0.14261E+05         0.00000E+00
    0.14261E+05        -0.27519E+05         0.00000E+00
    0.00000E+00         0.00000E+00        -0.24696E+05
 
   -0.33315E+05         0.19993E+05         0.00000E+00
    0.19993E+05        -0.37879E+05         0.00000E+00
    0.00000E+00         0.00000E+00        -0.41094E+05
 
   -0.33834E+05         0.19630E+05         0.00000E+00
    0.19630E+05        -0.37797E+05         0.00000E+00
    0.00000E+00         0.00000E+00        -0.40565E+05
 
   -0.31843E+05         0.19156E+05         0.00000E+00
    0.19156E+05        -0.38809E+05         0.00000E+00
    0.00000E+00         0.00000E+00        -0.39546E+05
 
   -0.28267E+05         0.18222E+05         0.00000E+00
    0.18222E+05        -0.38968E+05         0.00000E+00
    0.00000E+00         0.00000E+00        -0.37283E+05
 
   -0.24305E+05         0.17046E+05         0.00000E+00
    0.17046E+05        -0.38593E+05         0.00000E+00
    0.00000E+00         0.00000E+00        -0.34534E+05
 
   -0.20436E+05         0.15706E+05         0.00000E+00
    0.15706E+05        -0.37658E+05         0.00000E+00
    0.00000E+00         0.00000E+00        -0.31522E+05
 
   -0.16926E+05         0.14338E+05         0.00000E+00
    0.14338E+05        -0.36332E+05         0.00000E+00
    0.00000E+00         0.00000E+00        -0.28473E+05
 
   -0.13889E+05         0.13037E+05         0.00000E+00
    0.13037E+05        -0.34814E+05         0.00000E+00
    0.00000E+00         0.00000E+00        -0.25514E+05
 
   -0.11146E+05         0.11875E+05         0.00000E+00
    0.11875E+05        -0.33248E+05         0.00000E+00
    0.00000E+00         0.00000E+00        -0.22674E+05
 
   -0.87931E+04         0.10766E+05         0.00000E+00
    0.10766E+05        -0.31607E+05         0.00000E+00
    0.00000E+00         0.00000E+00        -0.20065E+05
 
   -0.67725E+04         0.96977E+04         0.00000E+00
    0.96977E+04        -0.29870E+05         0.00000E+00
    0.00000E+00         0.00000E+00        -0.17688E+05
 
   -0.50155E+04         0.87620E+04         0.00000E+00
    0.87620E+04        -0.28192E+05         0.00000E+00
    0.00000E+00         0.00000E+00        -0.15537E+05
 
   -0.35112E+04         0.79189E+04         0.00000E+00
    0.79189E+04        -0.26640E+05         0.00000E+00
    0.00000E+00         0.00000E+00        -0.13603E+05
 
   -0.22066E+04         0.71244E+04         0.00000E+00
    0.71244E+04        -0.25200E+05         0.00000E+00
    0.00000E+00         0.00000E+00        -0.11804E+05
 
   -0.10641E+04         0.63871E+04         0.00000E+00
    0.63871E+04        -0.23832E+05         0.00000E+00
    0.00000E+00         0.00000E+00        -0.10128E+05
 
   -0.26000E+02         0.57347E+04         0.00000E+00
    0.57347E+04        -0.22452E+05         0.00000E+00
    0.00000E+00         0.00000E+00        -0.85749E+04
 
    0.91722E+03         0.51302E+04         0.00000E+00
    0.51302E+04        -0.21118E+05         0.00000E+00
    0.00000E+00         0.00000E+00        -0.71372E+04
 
    0.17001E+04         0.46607E+04         0.00000E+00
    0.46607E+04        -0.19885E+05         0.00000E+00
    0.00000E+00         0.00000E+00        -0.58498E+04
 
    0.16256E+04         0.41619E+04         0.00000E+00
    0.41619E+04        -0.18763E+05         0.00000E+00
    0.00000E+00         0.00000E+00        -0.51412E+04
 
   -0.43840E+02         0.36219E+04         0.00000E+00
    0.36219E+04        -0.17765E+05         0.00000E+00
    0.00000E+00         0.00000E+00        -0.53427E+04
 
   -0.17473E+04         0.32798E+04         0.00000E+00
    0.32798E+04        -0.16863E+05         0.00000E+00
    0.00000E+00         0.00000E+00        -0.55830E+04
 
   -0.35104E+04         0.31135E+04         0.00000E+00
    0.31135E+04        -0.16023E+05         0.00000E+00
    0.00000E+00         0.00000E+00        -0.58602E+04
 
   -0.53774E+04         0.31096E+04         0.00000E+00
    0.31096E+04        -0.15209E+05         0.00000E+00
    0.00000E+00         0.00000E+00        -0.61759E+04
 
   -0.53469E+04         0.32349E+04         0.00000E+00
    0.32349E+04         0.36723E+04         0.00000E+00
    0.00000E+00         0.00000E+00         0.23212E+03
 
   -0.27103E+05         0.11085E+05         0.00000E+00
    0.11085E+05        -0.97059E+04         0.00000E+00
    0.00000E+00         0.00000E+00        -0.19807E+05
 
   -0.32124E+05         0.14176E+05         0.00000E+00
    0.14176E+05        -0.17695E+05         0.00000E+00
    0.00000E+00         0.00000E+00        -0.27674E+05
 
   -0.30963E+05         0.15562E+05         0.00000E+00
    0.15562E+05        -0.21987E+05         0.00000E+00
    0.00000E+00         0.00000E+00        -0.29206E+05
 
   -0.28342E+05         0.16162E+05         0.00000E+00
    0.16162E+05        -0.24972E+05         0.00000E+00
    0.00000E+00         0.00000E+00        -0.29112E+05
 
   -0.24962E+05         0.16103E+05         0.00000E+00
    0.16103E+05        -0.26821E+05         0.00000E+00
    0.00000E+00         0.00000E+00        -0.27933E+05
 
   -0.21430E+05         0.15590E+05         0.00000E+00
    0.15590E+05        -0.27861E+05         0.00000E+00
    0.00000E+00         0.00000E+00        -0.26198E+05
 
   -0.18058E+05         0.14789E+05         0.00000E+00
    0.14789E+05        -0.28262E+05         0.00000E+00
    0.00000E+00         0.00000E+00        -0.24178E+05
 
   -0.15009E+05         0.13853E+05         0.00000E+00
    0.13853E+05        -0.28171E+05         0.00000E+00
    0.00000E+00         0.00000E+00        -0.22050E+05
 
   -0.12272E+05         0.12870E+05         0.00000E+00
    0.12870E+05        -0.27744E+05         0.00000E+00
    0.00000E+00         0.00000E+00        -0.19909E+05
 
   -0.98618E+04         0.11908E+05         0.00000E+00
    0.11908E+05        -0.27142E+05         0.00000E+00
    0.00000E+00         0.00000E+00        -0.17841E+05
 
   -0.77535E+04         0.10979E+05         0.00000E+00
    0.10979E+05        -0.26368E+05         0.00000E+00
    0.00000E+00         0.00000E+00        -0.15892E+05
 
   -0.59144E+04         0.10067E+05         0.00000E+00
    0.10067E+05        -0.25391E+05         0.00000E+00
    0.00000E+00         0.00000E+00        -0.14077E+05
 
   -0.43694E+04         0.91818E+04         0.00000E+00
    0.91818E+04        -0.24354E+05         0.00000E+00
    0.00000E+00         0.00000E+00        -0.12417E+05
 
   -0.29850E+04         0.83396E+04         0.00000E+00
    0.83396E+04        -0.23314E+05         0.00000E+00
    0.00000E+00         0.00000E+00        -0.10870E+05
 
   -0.17770E+04         0.76113E+04         0.00000E+00
    0.76113E+04        -0.22205E+05         0.00000E+00
    0.00000E+00         0.00000E+00        -0.94383E+04
 
   -0.69009E+03         0.69418E+04         0.00000E+00
    0.69418E+04        -0.21129E+05         0.00000E+00
    0.00000E+00         0.00000E+00        -0.80770E+04
 
    0.34342E+03         0.63231E+04         0.00000E+00
    0.63231E+04        -0.20069E+05         0.00000E+00
    0.00000E+00         0.00000E+00        -0.67235E+04
 
    0.12771E+04         0.57860E+04         0.00000E+00
    0.57860E+04        -0.18954E+05         0.00000E+00
    0.00000E+00         0.00000E+00        -0.55141E+04
 
    0.91327E+03         0.51595E+04         0.00000E+00
    0.51595E+04        -0.17920E+05         0.00000E+00
    0.00000E+00         0.00000E+00        -0.51021E+04
 
   -0.52612E+03         0.45179E+04         0.00000E+00
    0.45179E+04        -0.17043E+05         0.00000E+00
    0.00000E+00         0.00000E+00        -0.52707E+04
 
   -0.20290E+04         0.41035E+04         0.00000E+00
    0.41035E+04        -0.16239E+05         0.00000E+00
    0.00000E+00         0.00000E+00        -0.54804E+04
 
   -0.36066E+04         0.38952E+04         0.00000E+00
    0.38952E+04        -0.15486E+05         0.00000E+00
    0.00000E+00         0.00000E+00        -0.57277E+04
 
   -0.52900E+04         0.38895E+04         0.00000E+00
    0.38895E+04        -0.14750E+05         0.00000E+00
    0.00000E+00         0.00000E+00        -0.60120E+04
 
    0.33639E+03        -0.11882E+04         0.00000E+00
   -0.11882E+04        -0.16838E+04         0.00000E+00
    0.00000E+00         0.00000E+00        -0.16420E+03
 
   -0.24262E+05         0.58099E+04         0.00000E+00
    0.58099E+04        -0.31118E+04         0.00000E+00
    0.00000E+00         0.00000E+00        -0.10025E+05
 
   -0.28863E+05         0.95685E+04         0.00000E+00
    0.95685E+04        -0.92097E+04         0.00000E+00
    0.00000E+00         0.00000E+00        -0.18316E+05
 
   -0.29153E+05         0.11881E+05         0.00000E+00
    0.11881E+05        -0.13479E+05         0.00000E+00
    0.00000E+00         0.00000E+00        -0.21768E+05
 
   -0.27273E+05         0.13319E+05         0.00000E+00
    0.13319E+05        -0.16587E+05         0.00000E+00
    0.00000E+00         0.00000E+00        -0.22791E+05
 
   -0.24636E+05         0.14068E+05         0.00000E+00
    0.14068E+05        -0.18911E+05         0.00000E+00
    0.00000E+00         0.00000E+00        -0.22591E+05
 
   -0.21632E+05         0.14282E+05         0.00000E+00
    0.14282E+05        -0.20587E+05         0.00000E+00
    0.00000E+00         0.00000E+00        -0.21711E+05
 
   -0.18606E+05         0.14091E+05         0.00000E+00
    0.14091E+05        -0.21700E+05         0.00000E+00
    0.00000E+00         0.00000E+00        -0.20427E+05
 
   -0.15747E+05         0.13634E+05         0.00000E+00
    0.13634E+05        -0.22353E+05         0.00000E+00
    0.00000E+00         0.00000E+00        -0.18938E+05
 
   -0.13116E+05         0.13006E+05         0.00000E+00
    0.13006E+05        -0.22633E+05         0.00000E+00
    0.00000E+00         0.00000E+00        -0.17346E+05
 
   -0.10738E+05         0.12268E+05         0.00000E+00
    0.12268E+05        -0.22615E+05         0.00000E+00
    0.00000E+00         0.00000E+00        -0.15732E+05
 
   -0.86043E+04         0.11540E+05         0.00000E+00
    0.11540E+05        -0.22382E+05         0.00000E+00
    0.00000E+00         0.00000E+00        -0.14132E+05
 
   -0.67729E+04         0.10766E+05         0.00000E+00
    0.10766E+05        -0.22038E+05         0.00000E+00
    0.00000E+00         0.00000E+00        -0.12647E+05
 
   -0.51816E+04         0.99913E+04         0.00000E+00
    0.99913E+04        -0.21522E+05         0.00000E+00
    0.00000E+00         0.00000E+00        -0.11256E+05
 
   -0.37702E+04         0.92553E+04         0.00000E+00
    0.92553E+04        -0.20804E+05         0.00000E+00
    0.00000E+00         0.00000E+00        -0.99528E+04
 
   -0.24763E+04         0.85359E+04         0.00000E+00
    0.85359E+04        -0.20024E+05         0.00000E+00
    0.00000E+00         0.00000E+00        -0.86863E+04
 
   -0.13432E+04         0.78591E+04         0.00000E+00
    0.78591E+04        -0.19230E+05         0.00000E+00
    0.00000E+00         0.00000E+00        -0.74664E+04
 
   -0.22848E+03         0.72841E+04         0.00000E+00
    0.72841E+04        -0.18419E+05         0.00000E+00
    0.00000E+00         0.00000E+00        -0.62236E+04
 
    0.76161E+03         0.67704E+04         0.00000E+00
    0.67704E+04        -0.17586E+05         0.00000E+00
    0.00000E+00         0.00000E+00        -0.51440E+04
 
    0.94004E+02         0.59908E+04         0.00000E+00
    0.59908E+04        -0.16813E+05         0.00000E+00
    0.00000E+00         0.00000E+00        -0.50157E+04
 
   -0.10801E+04         0.52840E+04         0.00000E+00
    0.52840E+04        -0.16111E+05         0.00000E+00
    0.00000E+00         0.00000E+00        -0.51572E+04
 
   -0.23610E+04         0.48173E+04         0.00000E+00
    0.48173E+04        -0.15450E+05         0.00000E+00
    0.00000E+00         0.00000E+00        -0.53432E+04
 
   -0.37207E+04         0.45829E+04         0.00000E+00
    0.45829E+04        -0.14812E+05         0.00000E+00
    0.00000E+00         0.00000E+00        -0.55597E+04
 
   -0.51809E+04         0.45806E+04         0.00000E+00
    0.45806E+04        -0.14178E+05         0.00000E+00
    0.00000E+00         0.00000E+00        -0.58075E+04
 
    0.94886E+03        -0.17039E+04         0.00000E+00
   -0.17039E+04         0.49000E+02         0.00000E+00
    0.00000E+00         0.00000E+00         0.35061E+03
 
   -0.18633E+05         0.80513E+03         0.00000E+00
    0.80513E+03        -0.13738E+04         0.00000E+00
    0.00000E+00         0.00000E+00        -0.60021E+04
 
   -0.26652E+05         0.61350E+04         0.00000E+00
    0.61350E+04        -0.49879E+04         0.00000E+00
    0.00000E+00         0.00000E+00        -0.12163E+05
 
   -0.26866E+05         0.88909E+04         0.00000E+00
    0.88909E+04        -0.83077E+04         0.00000E+00
    0.00000E+00         0.00000E+00        -0.15722E+05
 
   -0.25819E+05         0.10756E+05         0.00000E+00
    0.10756E+05        -0.11200E+05         0.00000E+00
    0.00000E+00         0.00000E+00        -0.17432E+05
 
   -0.23743E+05         0.12012E+05         0.00000E+00
    0.12012E+05        -0.13532E+05         0.00000E+00
    0.00000E+00         0.00000E+00        -0.17925E+05
 
   -0.21274E+05         0.12691E+05         0.00000E+00
    0.12691E+05        -0.15312E+05         0.00000E+00
    0.00000E+00         0.00000E+00        -0.17677E+05
 
   -0.18639E+05         0.12948E+05         0.00000E+00
    0.12948E+05        -0.16671E+05         0.00000E+00
    0.00000E+00         0.00000E+00        -0.16960E+05
 
   -0.16062E+05         0.12881E+05         0.00000E+00
    0.12881E+05        -0.17656E+05         0.00000E+00
    0.00000E+00         0.00000E+00        -0.15976E+05
 
   -0.13629E+05         0.12588E+05         0.00000E+00
    0.12588E+05        -0.18329E+05         0.00000E+00
    0.00000E+00         0.00000E+00        -0.14829E+05
 
   -0.11342E+05         0.12166E+05         0.00000E+00
    0.12166E+05        -0.18723E+05         0.00000E+00
    0.00000E+00         0.00000E+00        -0.13573E+05
 
   -0.92757E+04         0.11624E+05         0.00000E+00
    0.11624E+05        -0.18892E+05         0.00000E+00
    0.00000E+00         0.00000E+00        -0.12303E+05
 
   -0.74748E+04         0.11037E+05         0.00000E+00
    0.11037E+05        -0.18828E+05         0.00000E+00
    0.00000E+00         0.00000E+00        -0.11097E+05
 
   -0.58745E+04         0.10419E+05         0.00000E+00
    0.10419E+05        -0.18585E+05         0.00000E+00
    0.00000E+00         0.00000E+00        -0.99498E+04
 
   -0.44468E+04         0.97933E+04         0.00000E+00
    0.97933E+04        -0.18255E+05         0.00000E+00
    0.00000E+00         0.00000E+00        -0.88637E+04
 
   -0.31403E+04         0.91719E+04         0.00000E+00
    0.91719E+04        -0.17824E+05         0.00000E+00
    0.00000E+00         0.00000E+00        -0.77694E+04
 
   -0.19320E+04         0.85745E+04         0.00000E+00
    0.85745E+04        -0.17271E+05         0.00000E+00
    0.00000E+00         0.00000E+00        -0.66786E+04
 
   -0.77438E+03         0.80332E+04         0.00000E+00
    0.80332E+04        -0.16616E+05         0.00000E+00
    0.00000E+00         0.00000E+00        -0.56677E+04
 
    0.49807E+02         0.74566E+04         0.00000E+00
    0.74566E+04        -0.15971E+05         0.00000E+00
    0.00000E+00         0.00000E+00        -0.48140E+04
 
   -0.71328E+03         0.65799E+04         0.00000E+00
    0.65799E+04        -0.15497E+05         0.00000E+00
    0.00000E+00         0.00000E+00        -0.48631E+04
 
   -0.16787E+04         0.58665E+04         0.00000E+00
    0.58665E+04        -0.15029E+05         0.00000E+00
    0.00000E+00         0.00000E+00        -0.50124E+04
 
   -0.27151E+04         0.53907E+04         0.00000E+00
    0.53907E+04        -0.14538E+05         0.00000E+00
    0.00000E+00         0.00000E+00        -0.51760E+04
 
   -0.38388E+04         0.51553E+04         0.00000E+00
    0.51553E+04        -0.14034E+05         0.00000E+00
    0.00000E+00         0.00000E+00        -0.53619E+04
 
   -0.50506E+04         0.51650E+04         0.00000E+00
    0.51650E+04        -0.13515E+05         0.00000E+00
    0.00000E+00         0.00000E+00        -0.55698E+04
 
   -0.85879E+03        -0.17690E+04         0.00000E+00
   -0.17690E+04        -0.28083E+02         0.00000E+00
    0.00000E+00         0.00000E+00        -0.26606E+03
 
   -0.14035E+05        -0.11455E+04         0.00000E+00
   -0.11455E+04        -0.32864E+03         0.00000E+00
    0.00000E+00         0.00000E+00        -0.43091E+04
 
   -0.23208E+05         0.29835E+04         0.00000E+00
    0.29835E+04        -0.14805E+04         0.00000E+00
    0.00000E+00         0.00000E+00        -0.76369E+04
 
   -0.24778E+05         0.62787E+04         0.00000E+00
    0.62787E+04        -0.46971E+04         0.00000E+00
    0.00000E+00         0.00000E+00        -0.11370E+05
 
   -0.24089E+05         0.84507E+04         0.00000E+00
    0.84507E+04        -0.71061E+04         0.00000E+00
    0.00000E+00         0.00000E+00        -0.13210E+05
 
   -0.22523E+05         0.10024E+05         0.00000E+00
    0.10024E+05        -0.92865E+04         0.00000E+00
    0.00000E+00         0.00000E+00        -0.13934E+05
 
   -0.20561E+05         0.11079E+05         0.00000E+00
    0.11079E+05        -0.11179E+05         0.00000E+00
    0.00000E+00         0.00000E+00        -0.14109E+05
 
   -0.18317E+05         0.11676E+05         0.00000E+00
    0.11676E+05        -0.12665E+05         0.00000E+00
    0.00000E+00         0.00000E+00        -0.13789E+05
 
   -0.16049E+05         0.11923E+05         0.00000E+00
    0.11923E+05        -0.13809E+05         0.00000E+00
    0.00000E+00         0.00000E+00        -0.13195E+05
 
   -0.13819E+05         0.11917E+05         0.00000E+00
    0.11917E+05        -0.14651E+05         0.00000E+00
    0.00000E+00         0.00000E+00        -0.12395E+05
 
   -0.11692E+05         0.11738E+05         0.00000E+00
    0.11738E+05        -0.15235E+05         0.00000E+00
    0.00000E+00         0.00000E+00        -0.11466E+05
 
   -0.97379E+04         0.11432E+05         0.00000E+00
    0.11432E+05        -0.15589E+05         0.00000E+00
    0.00000E+00         0.00000E+00        -0.10482E+05
 
   -0.79966E+04         0.11021E+05         0.00000E+00
    0.11021E+05        -0.15783E+05         0.00000E+00
    0.00000E+00         0.00000E+00        -0.95297E+04
 
   -0.64293E+04         0.10558E+05         0.00000E+00
    0.10558E+05        -0.15833E+05         0.00000E+00
    0.00000E+00         0.00000E+00        -0.86046E+04
 
   -0.50032E+04         0.10065E+05         0.00000E+00
    0.10065E+05        -0.15714E+05         0.00000E+00
    0.00000E+00         0.00000E+00        -0.76959E+04
 
   -0.37032E+04         0.95621E+04         0.00000E+00
    0.95621E+04        -0.15459E+05         0.00000E+00
    0.00000E+00         0.00000E+00        -0.68247E+04
 
   -0.24583E+04         0.90654E+04         0.00000E+00
    0.90654E+04        -0.15114E+05         0.00000E+00
    0.00000E+00         0.00000E+00        -0.59392E+04
 
   -0.12849E+04         0.85754E+04         0.00000E+00
    0.85754E+04        -0.14687E+05         0.00000E+00
    0.00000E+00         0.00000E+00        -0.50593E+04
 
   -0.83313E+03         0.78527E+04         0.00000E+00
    0.78527E+04        -0.14352E+05         0.00000E+00
    0.00000E+00         0.00000E+00        -0.45556E+04
 
   -0.15300E+04         0.69179E+04         0.00000E+00
    0.69179E+04        -0.14162E+05         0.00000E+00
    0.00000E+00         0.00000E+00        -0.47076E+04
 
   -0.22529E+04         0.62514E+04         0.00000E+00
    0.62514E+04        -0.13896E+05         0.00000E+00
    0.00000E+00         0.00000E+00        -0.48446E+04
 
   -0.30572E+04         0.58140E+04         0.00000E+00
    0.58140E+04        -0.13569E+05         0.00000E+00
    0.00000E+00         0.00000E+00        -0.49877E+04
 
   -0.39429E+04         0.56042E+04         0.00000E+00
    0.56042E+04        -0.13197E+05         0.00000E+00
    0.00000E+00         0.00000E+00        -0.51419E+04
 
   -0.49005E+04         0.56343E+04         0.00000E+00
    0.56343E+04        -0.12796E+05         0.00000E+00
    0.00000E+00         0.00000E+00        -0.53089E+04
 
   -0.28933E+04        -0.15202E+04         0.00000E+00
   -0.15202E+04         0.15846E+03         0.00000E+00
    0.00000E+00         0.00000E+00        -0.82044E+03
 
   -0.11935E+05        -0.16427E+04         0.00000E+00
   -0.16427E+04         0.28788E+03         0.00000E+00
    0.00000E+00         0.00000E+00        -0.34942E+04
 
   -0.19235E+05         0.78366E+03         0.00000E+00
    0.78366E+03        -0.66784E+03         0.00000E+00
    0.00000E+00         0.00000E+00        -0.59710E+04
 
   -0.22452E+05         0.41344E+04         0.00000E+00
    0.41344E+04        -0.20292E+04         0.00000E+00
    0.00000E+00         0.00000E+00        -0.80266E+04
 
   -0.22272E+05         0.65008E+04         0.00000E+00
    0.65008E+04        -0.41139E+04         0.00000E+00
    0.00000E+00         0.00000E+00        -0.99064E+04
 
   -0.21132E+05         0.82004E+04         0.00000E+00
    0.82004E+04        -0.59006E+04         0.00000E+00
    0.00000E+00         0.00000E+00        -0.10847E+05
 
   -0.19582E+05         0.94568E+04         0.00000E+00
    0.94568E+04        -0.75618E+04         0.00000E+00
    0.00000E+00         0.00000E+00        -0.11158E+05
 
   -0.17718E+05         0.10347E+05         0.00000E+00
    0.10347E+05        -0.90534E+04         0.00000E+00
    0.00000E+00         0.00000E+00        -0.11095E+05
 
   -0.15778E+05         0.10864E+05         0.00000E+00
    0.10864E+05        -0.10293E+05         0.00000E+00
    0.00000E+00         0.00000E+00        -0.10763E+05
 
   -0.13763E+05         0.11108E+05         0.00000E+00
    0.11108E+05        -0.11265E+05         0.00000E+00
    0.00000E+00         0.00000E+00        -0.10221E+05
 
   -0.11810E+05         0.11158E+05         0.00000E+00
    0.11158E+05        -0.12011E+05         0.00000E+00
    0.00000E+00         0.00000E+00        -0.95412E+04
 
   -0.99983E+04         0.11044E+05         0.00000E+00
    0.11044E+05        -0.12561E+05         0.00000E+00
    0.00000E+00         0.00000E+00        -0.88017E+04
 
   -0.83532E+04         0.10809E+05         0.00000E+00
    0.10809E+05        -0.12920E+05         0.00000E+00
    0.00000E+00         0.00000E+00        -0.80669E+04
 
   -0.68353E+04         0.10502E+05         0.00000E+00
    0.10502E+05        -0.13103E+05         0.00000E+00
    0.00000E+00         0.00000E+00        -0.73334E+04
 
   -0.54348E+04         0.10142E+05         0.00000E+00
    0.10142E+05        -0.13176E+05         0.00000E+00
    0.00000E+00         0.00000E+00        -0.65981E+04
 
   -0.41538E+04         0.97446E+04         0.00000E+00
    0.97446E+04        -0.13151E+05         0.00000E+00
    0.00000E+00         0.00000E+00        -0.58851E+04
 
   -0.29116E+04         0.93335E+04         0.00000E+00
    0.93335E+04        -0.12983E+05         0.00000E+00
    0.00000E+00         0.00000E+00        -0.51328E+04
 
   -0.18341E+04         0.88775E+04         0.00000E+00
    0.88775E+04        -0.12817E+05         0.00000E+00
    0.00000E+00         0.00000E+00        -0.44384E+04
 
   -0.18899E+04         0.78617E+04         0.00000E+00
    0.78617E+04        -0.12913E+05         0.00000E+00
    0.00000E+00         0.00000E+00        -0.44409E+04
 
   -0.22673E+04         0.70549E+04         0.00000E+00
    0.70549E+04        -0.12911E+05         0.00000E+00
    0.00000E+00         0.00000E+00        -0.45536E+04
 
   -0.27675E+04         0.64762E+04         0.00000E+00
    0.64762E+04        -0.12796E+05         0.00000E+00
    0.00000E+00         0.00000E+00        -0.46691E+04
 
   -0.33558E+04         0.61020E+04         0.00000E+00
    0.61020E+04        -0.12599E+05         0.00000E+00
    0.00000E+00         0.00000E+00        -0.47864E+04
 
   -0.40186E+04         0.59351E+04         0.00000E+00
    0.59351E+04        -0.12344E+05         0.00000E+00
    0.00000E+00         0.00000E+00        -0.49087E+04
 
   -0.47333E+04         0.59900E+04         0.00000E+00
    0.59900E+04        -0.12053E+05         0.00000E+00
    0.00000E+00         0.00000E+00        -0.50359E+04
 
   -0.47269E+04        -0.11862E+04         0.00000E+00
   -0.11862E+04         0.14245E+03         0.00000E+00
    0.00000E+00         0.00000E+00        -0.13753E+04
 
   -0.11047E+05        -0.16568E+04         0.00000E+00
   -0.16568E+04         0.43173E+03         0.00000E+00
    0.00000E+00         0.00000E+00        -0.31847E+04
 
   -0.16292E+05        -0.95858E+02         0.00000E+00
   -0.95858E+02         0.34137E+03         0.00000E+00
    0.00000E+00         0.00000E+00        -0.47852E+04
 
   -0.19717E+05         0.24489E+04         0.00000E+00
    0.24489E+04        -0.40740E+03         0.00000E+00
    0.00000E+00         0.00000E+00        -0.60373E+04
 
   -0.20417E+05         0.48762E+04         0.00000E+00
    0.48762E+04        -0.18355E+04         0.00000E+00
    0.00000E+00         0.00000E+00        -0.72832E+04
 
   -0.19683E+05         0.66865E+04         0.00000E+00
    0.66865E+04        -0.34016E+04         0.00000E+00
    0.00000E+00         0.00000E+00        -0.82663E+04
 
   -0.18455E+05         0.80361E+04         0.00000E+00
    0.80361E+04        -0.47981E+04         0.00000E+00
    0.00000E+00         0.00000E+00        -0.87344E+04
 
   -0.16919E+05         0.90457E+04         0.00000E+00
    0.90457E+04        -0.60913E+04         0.00000E+00
    0.00000E+00         0.00000E+00        -0.88335E+04
 
   -0.15274E+05         0.97703E+04         0.00000E+00
    0.97703E+04        -0.72626E+04         0.00000E+00
    0.00000E+00         0.00000E+00        -0.86739E+04
 
   -0.13502E+05         0.10223E+05         0.00000E+00
    0.10223E+05        -0.82791E+04         0.00000E+00
    0.00000E+00         0.00000E+00        -0.83371E+04
 
   -0.11742E+05         0.10460E+05         0.00000E+00
    0.10460E+05        -0.90917E+04         0.00000E+00
    0.00000E+00         0.00000E+00        -0.78551E+04
 
   -0.10087E+05         0.10516E+05         0.00000E+00
    0.10516E+05        -0.97327E+04         0.00000E+00
    0.00000E+00         0.00000E+00        -0.73021E+04
 
   -0.85416E+04         0.10444E+05         0.00000E+00
    0.10444E+05        -0.10234E+05         0.00000E+00
    0.00000E+00         0.00000E+00        -0.67062E+04
 
   -0.70980E+04         0.10280E+05         0.00000E+00
    0.10280E+05        -0.10625E+05         0.00000E+00
    0.00000E+00         0.00000E+00        -0.61321E+04
 
   -0.57467E+04         0.10048E+05         0.00000E+00
    0.10048E+05        -0.10834E+05         0.00000E+00
    0.00000E+00         0.00000E+00        -0.55334E+04
 
   -0.45157E+04         0.97447E+04         0.00000E+00
    0.97447E+04        -0.10909E+05         0.00000E+00
    0.00000E+00         0.00000E+00        -0.49475E+04
 
   -0.32800E+04         0.94363E+04         0.00000E+00
    0.94363E+04        -0.11002E+05         0.00000E+00
    0.00000E+00         0.00000E+00        -0.43277E+04
 
   -0.28000E+04         0.85713E+04         0.00000E+00
    0.85713E+04        -0.11370E+05         0.00000E+00
    0.00000E+00         0.00000E+00        -0.42511E+04
 
   -0.27299E+04         0.77261E+04         0.00000E+00
    0.77261E+04        -0.11674E+05         0.00000E+00
    0.00000E+00         0.00000E+00        -0.43211E+04
 
   -0.28983E+04         0.70649E+04         0.00000E+00
    0.70649E+04        -0.11780E+05         0.00000E+00
    0.00000E+00         0.00000E+00        -0.44034E+04
 
   -0.32011E+04         0.65839E+04         0.00000E+00
    0.65839E+04        -0.11765E+05         0.00000E+00
    0.00000E+00         0.00000E+00        -0.44897E+04
 
   -0.35979E+04         0.62810E+04         0.00000E+00
    0.62810E+04        -0.11665E+05         0.00000E+00
    0.00000E+00         0.00000E+00        -0.45790E+04
 
   -0.40587E+04         0.61621E+04         0.00000E+00
    0.61621E+04        -0.11507E+05         0.00000E+00
    0.00000E+00         0.00000E+00        -0.46697E+04
 
   -0.45530E+04         0.62414E+04         0.00000E+00
    0.62414E+04        -0.11313E+05         0.00000E+00
    0.00000E+00         0.00000E+00        -0.47597E+04
 
   -0.62296E+04        -0.87760E+03         0.00000E+00
   -0.87760E+03         0.12298E+03         0.00000E+00
    0.00000E+00         0.00000E+00        -0.18320E+04
 
   -0.10573E+05        -0.13323E+04         0.00000E+00
   -0.13323E+04         0.49511E+03         0.00000E+00
    0.00000E+00         0.00000E+00        -0.30234E+04
 
   -0.14492E+05        -0.34043E+03         0.00000E+00
   -0.34043E+03         0.66362E+03         0.00000E+00
    0.00000E+00         0.00000E+00        -0.41485E+04
 
   -0.17174E+05         0.15172E+04         0.00000E+00
    0.15172E+04         0.31660E+03         0.00000E+00
    0.00000E+00         0.00000E+00        -0.50574E+04
 
   -0.18455E+05         0.36122E+04         0.00000E+00
    0.36122E+04        -0.27224E+03         0.00000E+00
    0.00000E+00         0.00000E+00        -0.56182E+04
 
   -0.18199E+05         0.53906E+04         0.00000E+00
    0.53906E+04        -0.13932E+04         0.00000E+00
    0.00000E+00         0.00000E+00        -0.62368E+04
 
   -0.17279E+05         0.68192E+04         0.00000E+00
    0.68192E+04        -0.26544E+04         0.00000E+00
    0.00000E+00         0.00000E+00        -0.67050E+04
 
   -0.16024E+05         0.79157E+04         0.00000E+00
    0.79157E+04        -0.37929E+04         0.00000E+00
    0.00000E+00         0.00000E+00        -0.68947E+04
 
   -0.14609E+05         0.87133E+04         0.00000E+00
    0.87133E+04        -0.48589E+04         0.00000E+00
    0.00000E+00         0.00000E+00        -0.68866E+04
 
   -0.13078E+05         0.93270E+04         0.00000E+00
    0.93270E+04        -0.57892E+04         0.00000E+00
    0.00000E+00         0.00000E+00        -0.66458E+04
 
   -0.11514E+05         0.97069E+04         0.00000E+00
    0.97069E+04        -0.66270E+04         0.00000E+00
    0.00000E+00         0.00000E+00        -0.63117E+04
 
   -0.10016E+05         0.99219E+04         0.00000E+00
    0.99219E+04        -0.73432E+04         0.00000E+00
    0.00000E+00         0.00000E+00        -0.59045E+04
 
   -0.85960E+04         0.99736E+04         0.00000E+00
    0.99736E+04        -0.78915E+04         0.00000E+00
    0.00000E+00         0.00000E+00        -0.54619E+04
 
   -0.72245E+04         0.99317E+04         0.00000E+00
    0.99317E+04        -0.82713E+04         0.00000E+00
    0.00000E+00         0.00000E+00        -0.49872E+04
 
   -0.59829E+04         0.98139E+04         0.00000E+00
    0.98139E+04        -0.86439E+04         0.00000E+00
    0.00000E+00         0.00000E+00        -0.45277E+04
 
   -0.48085E+04         0.95438E+04         0.00000E+00
    0.95438E+04        -0.90728E+04         0.00000E+00
    0.00000E+00         0.00000E+00        -0.41644E+04
 
   -0.40217E+04         0.88593E+04         0.00000E+00
    0.88593E+04        -0.97152E+04         0.00000E+00
    0.00000E+00         0.00000E+00        -0.41211E+04
 
   -0.35873E+04         0.81566E+04         0.00000E+00
    0.81566E+04        -0.10263E+05         0.00000E+00
    0.00000E+00         0.00000E+00        -0.41552E+04
 
   -0.34007E+04         0.75135E+04         0.00000E+00
    0.75135E+04        -0.10584E+05         0.00000E+00
    0.00000E+00         0.00000E+00        -0.41955E+04
 
   -0.34103E+04         0.69899E+04         0.00000E+00
    0.69899E+04        -0.10752E+05         0.00000E+00
    0.00000E+00         0.00000E+00        -0.42488E+04
 
   -0.35516E+04         0.66068E+04         0.00000E+00
    0.66068E+04        -0.10809E+05         0.00000E+00
    0.00000E+00         0.00000E+00        -0.43081E+04
 
   -0.37808E+04         0.63737E+04         0.00000E+00
    0.63737E+04        -0.10785E+05         0.00000E+00
    0.00000E+00         0.00000E+00        -0.43696E+04
 
   -0.40633E+04         0.63009E+04         0.00000E+00
    0.63009E+04        -0.10705E+05         0.00000E+00
    0.00000E+00         0.00000E+00        -0.44304E+04
 
   -0.43639E+04         0.64011E+04         0.00000E+00
    0.64011E+04        -0.10593E+05         0.00000E+00
    0.00000E+00         0.00000E+00        -0.44872E+04
 
   -0.73281E+04        -0.60329E+03         0.00000E+00
   -0.60329E+03         0.10361E+03         0.00000E+00
    0.00000E+00         0.00000E+00        -0.21674E+04
 
   -0.10325E+05        -0.94944E+03         0.00000E+00
   -0.94944E+03         0.43993E+03         0.00000E+00
    0.00000E+00         0.00000E+00        -0.29656E+04
 
   -0.13209E+05        -0.26268E+03         0.00000E+00
   -0.26268E+03         0.72374E+03         0.00000E+00
    0.00000E+00         0.00000E+00        -0.37454E+04
 
   -0.15356E+05         0.11436E+04         0.00000E+00
    0.11436E+04         0.69969E+03         0.00000E+00
    0.00000E+00         0.00000E+00        -0.43968E+04
 
   -0.16508E+05         0.28279E+04         0.00000E+00
    0.28279E+04         0.26371E+03         0.00000E+00
    0.00000E+00         0.00000E+00        -0.48734E+04
 
   -0.16675E+05         0.44510E+04         0.00000E+00
    0.44510E+04        -0.25740E+03         0.00000E+00
    0.00000E+00         0.00000E+00        -0.50797E+04
 
   -0.16101E+05         0.58299E+04         0.00000E+00
    0.58299E+04        -0.93854E+03         0.00000E+00
    0.00000E+00         0.00000E+00        -0.51867E+04
 
   -0.15094E+05         0.69051E+04         0.00000E+00
    0.69051E+04        -0.19088E+04         0.00000E+00
    0.00000E+00         0.00000E+00        -0.53480E+04
 
   -0.13870E+05         0.78024E+04         0.00000E+00
    0.78024E+04        -0.28345E+04         0.00000E+00
    0.00000E+00         0.00000E+00        -0.53552E+04
 
   -0.12534E+05         0.84782E+04         0.00000E+00
    0.84782E+04        -0.37027E+04         0.00000E+00
    0.00000E+00         0.00000E+00        -0.52132E+04
 
   -0.11162E+05         0.89547E+04         0.00000E+00
    0.89547E+04        -0.44695E+04         0.00000E+00
    0.00000E+00         0.00000E+00        -0.49794E+04
 
   -0.98216E+04         0.92662E+04         0.00000E+00
    0.92662E+04        -0.51508E+04         0.00000E+00
    0.00000E+00         0.00000E+00        -0.46734E+04
 
   -0.85344E+04         0.94674E+04         0.00000E+00
    0.94674E+04        -0.57953E+04         0.00000E+00
    0.00000E+00         0.00000E+00        -0.43468E+04
 
   -0.73175E+04         0.94252E+04         0.00000E+00
    0.94252E+04        -0.65246E+04         0.00000E+00
    0.00000E+00         0.00000E+00        -0.41537E+04
 
   -0.62163E+04         0.91762E+04         0.00000E+00
    0.91762E+04        -0.73106E+04         0.00000E+00
    0.00000E+00         0.00000E+00        -0.40581E+04
 
   -0.53287E+04         0.87700E+04         0.00000E+00
    0.87700E+04        -0.81417E+04         0.00000E+00
    0.00000E+00         0.00000E+00        -0.40411E+04
 
   -0.46466E+04         0.82748E+04         0.00000E+00
    0.82748E+04        -0.88033E+04         0.00000E+00
    0.00000E+00         0.00000E+00        -0.40350E+04
 
   -0.41769E+04         0.77446E+04         0.00000E+00
    0.77446E+04        -0.92796E+04         0.00000E+00
    0.00000E+00         0.00000E+00        -0.40369E+04
 
   -0.39173E+04         0.72612E+04         0.00000E+00
    0.72612E+04        -0.96135E+04         0.00000E+00
    0.00000E+00         0.00000E+00        -0.40592E+04
 
   -0.38119E+04         0.68594E+04         0.00000E+00
    0.68594E+04        -0.98191E+04         0.00000E+00
    0.00000E+00         0.00000E+00        -0.40893E+04
 
   -0.38220E+04         0.65663E+04         0.00000E+00
    0.65663E+04        -0.99264E+04         0.00000E+00
    0.00000E+00         0.00000E+00        -0.41245E+04
 
   -0.39085E+04         0.63977E+04         0.00000E+00
    0.63977E+04        -0.99609E+04         0.00000E+00
    0.00000E+00         0.00000E+00        -0.41608E+04
 
   -0.40364E+04         0.63660E+04         0.00000E+00
    0.63660E+04        -0.99458E+04         0.00000E+00
    0.00000E+00         0.00000E+00        -0.41947E+04
 
   -0.41703E+04         0.64827E+04         0.00000E+00
    0.64827E+04        -0.99042E+04         0.00000E+00
    0.00000E+00         0.00000E+00        -0.42224E+04
 
   -0.80647E+04        -0.38413E+03         0.00000E+00
   -0.38413E+03         0.79132E+02         0.00000E+00
    0.00000E+00         0.00000E+00        -0.23957E+04
 
   -0.10146E+05        -0.58713E+03         0.00000E+00
   -0.58713E+03         0.35939E+03         0.00000E+00
    0.00000E+00         0.00000E+00        -0.29361E+04
 
   -0.12251E+05        -0.60532E+02         0.00000E+00
   -0.60532E+02         0.64815E+03         0.00000E+00
    0.00000E+00         0.00000E+00        -0.34808E+04
 
   -0.13935E+05         0.10248E+04         0.00000E+00
    0.10248E+04         0.73677E+03         0.00000E+00
    0.00000E+00         0.00000E+00        -0.39595E+04
 
   -0.14937E+05         0.24159E+04         0.00000E+00
    0.24159E+04         0.55900E+03         0.00000E+00
    0.00000E+00         0.00000E+00        -0.43133E+04
 
   -0.15207E+05         0.38420E+04         0.00000E+00
    0.38420E+04         0.10876E+03         0.00000E+00
    0.00000E+00         0.00000E+00        -0.45293E+04
 
   -0.14893E+05         0.50911E+04         0.00000E+00
    0.50911E+04        -0.49709E+03         0.00000E+00
    0.00000E+00         0.00000E+00        -0.46170E+04
 
   -0.14127E+05         0.61596E+04         0.00000E+00
    0.61596E+04        -0.10431E+04         0.00000E+00
    0.00000E+00         0.00000E+00        -0.45511E+04
 
   -0.13103E+05         0.70370E+04         0.00000E+00
    0.70370E+04        -0.16792E+04         0.00000E+00
    0.00000E+00         0.00000E+00        -0.44346E+04
 
   -0.11960E+05         0.77096E+04         0.00000E+00
    0.77096E+04        -0.24165E+04         0.00000E+00
    0.00000E+00         0.00000E+00        -0.43131E+04
 
   -0.10772E+05         0.82009E+04         0.00000E+00
    0.82009E+04        -0.32268E+04         0.00000E+00
    0.00000E+00         0.00000E+00        -0.41996E+04
 
   -0.95799E+04         0.85001E+04         0.00000E+00
    0.85001E+04        -0.40904E+04         0.00000E+00
    0.00000E+00         0.00000E+00        -0.41011E+04
 
   -0.84849E+04         0.86037E+04         0.00000E+00
    0.86037E+04        -0.50147E+04         0.00000E+00
    0.00000E+00         0.00000E+00        -0.40499E+04
 
   -0.74644E+04         0.85728E+04         0.00000E+00
    0.85728E+04        -0.58906E+04         0.00000E+00
    0.00000E+00         0.00000E+00        -0.40065E+04
 
   -0.65193E+04         0.83886E+04         0.00000E+00
    0.83886E+04        -0.66870E+04         0.00000E+00
    0.00000E+00         0.00000E+00        -0.39619E+04
 
   -0.57193E+04         0.80869E+04         0.00000E+00
    0.80869E+04        -0.73717E+04         0.00000E+00
    0.00000E+00         0.00000E+00        -0.39273E+04
 
   -0.50903E+04         0.77297E+04         0.00000E+00
    0.77297E+04        -0.79507E+04         0.00000E+00
    0.00000E+00         0.00000E+00        -0.39123E+04
 
   -0.46212E+04         0.73483E+04         0.00000E+00
    0.73483E+04        -0.84074E+04         0.00000E+00
    0.00000E+00         0.00000E+00        -0.39086E+04
 
   -0.43047E+04         0.69894E+04         0.00000E+00
    0.69894E+04        -0.87397E+04         0.00000E+00
    0.00000E+00         0.00000E+00        -0.39133E+04
 
   -0.41155E+04         0.66910E+04         0.00000E+00
    0.66910E+04        -0.89688E+04         0.00000E+00
    0.00000E+00         0.00000E+00        -0.39253E+04
 
   -0.40200E+04         0.64773E+04         0.00000E+00
    0.64773E+04        -0.91134E+04         0.00000E+00
    0.00000E+00         0.00000E+00        -0.39400E+04
 
   -0.39865E+04         0.63658E+04         0.00000E+00
    0.63658E+04        -0.91946E+04         0.00000E+00
    0.00000E+00         0.00000E+00        -0.39543E+04
 
   -0.39828E+04         0.63695E+04         0.00000E+00
    0.63695E+04        -0.92330E+04         0.00000E+00
    0.00000E+00         0.00000E+00        -0.39647E+04
 
   -0.39755E+04         0.64985E+04         0.00000E+00
    0.64985E+04        -0.92498E+04         0.00000E+00
    0.00000E+00         0.00000E+00        -0.39676E+04
 
   -0.85028E+04        -0.21785E+03         0.00000E+00
   -0.21785E+03         0.58385E+02         0.00000E+00
    0.00000E+00         0.00000E+00        -0.25333E+04
 
   -0.99670E+04        -0.28460E+03         0.00000E+00
   -0.28460E+03         0.27468E+03         0.00000E+00
    0.00000E+00         0.00000E+00        -0.29077E+04
 
   -0.11504E+05         0.15677E+03         0.00000E+00
    0.15677E+03         0.51984E+03         0.00000E+00
    0.00000E+00         0.00000E+00        -0.32954E+04
 
   -0.12792E+05         0.10248E+04         0.00000E+00
    0.10248E+04         0.63897E+03         0.00000E+00
    0.00000E+00         0.00000E+00        -0.36459E+04
 
   -0.13625E+05         0.21560E+04         0.00000E+00
    0.21560E+04         0.54336E+03         0.00000E+00
    0.00000E+00         0.00000E+00        -0.39245E+04
 
   -0.13935E+05         0.33665E+04         0.00000E+00
    0.33665E+04         0.22791E+03         0.00000E+00
    0.00000E+00         0.00000E+00        -0.41122E+04
 
   -0.13756E+05         0.45189E+04         0.00000E+00
    0.45189E+04        -0.25085E+03         0.00000E+00
    0.00000E+00         0.00000E+00        -0.42022E+04
 
   -0.13190E+05         0.55226E+04         0.00000E+00
    0.55226E+04        -0.85678E+03         0.00000E+00
    0.00000E+00         0.00000E+00        -0.42139E+04
 
   -0.12364E+05         0.63284E+04         0.00000E+00
    0.63284E+04        -0.15334E+04         0.00000E+00
    0.00000E+00         0.00000E+00        -0.41693E+04
 
   -0.11408E+05         0.69439E+04         0.00000E+00
    0.69439E+04        -0.22614E+04         0.00000E+00
    0.00000E+00         0.00000E+00        -0.41009E+04
 
   -0.10397E+05         0.73850E+04         0.00000E+00
    0.73850E+04        -0.30292E+04         0.00000E+00
    0.00000E+00         0.00000E+00        -0.40278E+04
 
   -0.93906E+04         0.76556E+04         0.00000E+00
    0.76556E+04        -0.38223E+04         0.00000E+00
    0.00000E+00         0.00000E+00        -0.39639E+04
 
   -0.84338E+04         0.77791E+04         0.00000E+00
    0.77791E+04        -0.46000E+04         0.00000E+00
    0.00000E+00         0.00000E+00        -0.39101E+04
 
   -0.75409E+04         0.77877E+04         0.00000E+00
    0.77877E+04        -0.53509E+04         0.00000E+00
    0.00000E+00         0.00000E+00        -0.38675E+04
 
   -0.67194E+04         0.76837E+04         0.00000E+00
    0.76837E+04        -0.60510E+04         0.00000E+00
    0.00000E+00         0.00000E+00        -0.38311E+04
 
   -0.60015E+04         0.74860E+04         0.00000E+00
    0.74860E+04        -0.66710E+04         0.00000E+00
    0.00000E+00         0.00000E+00        -0.38017E+04
 
   -0.54081E+04         0.72339E+04         0.00000E+00
    0.72339E+04        -0.71943E+04         0.00000E+00
    0.00000E+00         0.00000E+00        -0.37807E+04
 
   -0.49405E+04         0.69639E+04         0.00000E+00
    0.69639E+04        -0.76199E+04         0.00000E+00
    0.00000E+00         0.00000E+00        -0.37681E+04
 
   -0.45885E+04         0.67082E+04         0.00000E+00
    0.67082E+04        -0.79496E+04         0.00000E+00
    0.00000E+00         0.00000E+00        -0.37614E+04
 
   -0.43344E+04         0.64962E+04         0.00000E+00
    0.64962E+04        -0.81930E+04         0.00000E+00
    0.00000E+00         0.00000E+00        -0.37582E+04
 
   -0.41545E+04         0.63507E+04         0.00000E+00
    0.63507E+04        -0.83656E+04         0.00000E+00
    0.00000E+00         0.00000E+00        -0.37560E+04
 
   -0.40216E+04         0.62883E+04         0.00000E+00
    0.62883E+04        -0.84841E+04         0.00000E+00
    0.00000E+00         0.00000E+00        -0.37517E+04
 
   -0.39075E+04         0.63216E+04         0.00000E+00
    0.63216E+04        -0.85665E+04         0.00000E+00
    0.00000E+00         0.00000E+00        -0.37422E+04
 
   -0.37820E+04         0.64594E+04         0.00000E+00
    0.64594E+04        -0.86318E+04         0.00000E+00
    0.00000E+00         0.00000E+00        -0.37241E+04
 
   -0.87116E+04        -0.97278E+02         0.00000E+00
   -0.97278E+02         0.41219E+02         0.00000E+00
    0.00000E+00         0.00000E+00        -0.26011E+04
 
   -0.97628E+04        -0.52517E+02         0.00000E+00
   -0.52517E+02         0.19847E+03         0.00000E+00
    0.00000E+00         0.00000E+00        -0.28693E+04
 
   -0.10891E+05         0.34354E+03         0.00000E+00
    0.34354E+03         0.38622E+03         0.00000E+00
    0.00000E+00         0.00000E+00        -0.31513E+04
 
   -0.11869E+05         0.10547E+04         0.00000E+00
    0.10547E+04         0.48744E+03         0.00000E+00
    0.00000E+00         0.00000E+00        -0.34143E+04
 
   -0.12538E+05         0.19811E+04         0.00000E+00
    0.19811E+04         0.42912E+03         0.00000E+00
    0.00000E+00         0.00000E+00        -0.36328E+04
 
   -0.12826E+05         0.30007E+04         0.00000E+00
    0.30007E+04         0.18863E+03         0.00000E+00
    0.00000E+00         0.00000E+00        -0.37913E+04
 
   -0.12735E+05         0.40005E+04         0.00000E+00
    0.40005E+04        -0.22070E+03         0.00000E+00
    0.00000E+00         0.00000E+00        -0.38868E+04
 
   -0.12323E+05         0.48961E+04         0.00000E+00
    0.48961E+04        -0.76090E+03         0.00000E+00
    0.00000E+00         0.00000E+00        -0.39252E+04
 
   -0.11680E+05         0.56390E+04         0.00000E+00
    0.56390E+04        -0.13915E+04         0.00000E+00
    0.00000E+00         0.00000E+00        -0.39214E+04
 
   -0.10897E+05         0.62160E+04         0.00000E+00
    0.62160E+04        -0.20733E+04         0.00000E+00
    0.00000E+00         0.00000E+00        -0.38911E+04
 
   -0.10049E+05         0.66344E+04         0.00000E+00
    0.66344E+04        -0.27815E+04         0.00000E+00
    0.00000E+00         0.00000E+00        -0.38492E+04
 
   -0.91892E+04         0.69083E+04         0.00000E+00
    0.69083E+04        -0.34934E+04         0.00000E+00
    0.00000E+00         0.00000E+00        -0.38048E+04
 
   -0.83547E+04         0.70575E+04         0.00000E+00
    0.70575E+04        -0.41896E+04         0.00000E+00
    0.00000E+00         0.00000E+00        -0.37633E+04
 
   -0.75656E+04         0.71025E+04         0.00000E+00
    0.71025E+04        -0.48540E+04         0.00000E+00
    0.00000E+00         0.00000E+00        -0.37259E+04
 
   -0.68373E+04         0.70578E+04         0.00000E+00
    0.70578E+04        -0.54732E+04         0.00000E+00
    0.00000E+00         0.00000E+00        -0.36932E+04
 
   -0.61869E+04         0.69407E+04         0.00000E+00
    0.69407E+04        -0.60293E+04         0.00000E+00
    0.00000E+00         0.00000E+00        -0.36649E+04
 
   -0.56277E+04         0.67771E+04         0.00000E+00
    0.67771E+04        -0.65098E+04         0.00000E+00
    0.00000E+00         0.00000E+00        -0.36412E+04
 
   -0.51627E+04         0.65955E+04         0.00000E+00
    0.65955E+04        -0.69101E+04         0.00000E+00
    0.00000E+00         0.00000E+00        -0.36219E+04
 
   -0.47855E+04         0.64230E+04         0.00000E+00
    0.64230E+04        -0.72329E+04         0.00000E+00
    0.00000E+00         0.00000E+00        -0.36055E+04
 
   -0.44824E+04         0.62829E+04         0.00000E+00
    0.62829E+04        -0.74853E+04         0.00000E+00
    0.00000E+00         0.00000E+00        -0.35903E+04
 
   -0.42348E+04         0.61948E+04         0.00000E+00
    0.61948E+04        -0.76786E+04         0.00000E+00
    0.00000E+00         0.00000E+00        -0.35740E+04
 
   -0.40205E+04         0.61739E+04         0.00000E+00
    0.61739E+04        -0.78268E+04         0.00000E+00
    0.00000E+00         0.00000E+00        -0.35542E+04
 
   -0.38150E+04         0.62314E+04         0.00000E+00
    0.62314E+04        -0.79451E+04         0.00000E+00
    0.00000E+00         0.00000E+00        -0.35280E+04
 
   -0.35917E+04         0.63748E+04         0.00000E+00
    0.63748E+04        -0.80504E+04         0.00000E+00
    0.00000E+00         0.00000E+00        -0.34926E+04
 
   -0.87539E+04        -0.13730E+02         0.00000E+00
   -0.13730E+02         0.27824E+02         0.00000E+00
    0.00000E+00         0.00000E+00        -0.26178E+04
 
   -0.95299E+04         0.11397E+03         0.00000E+00
    0.11397E+03         0.13588E+03         0.00000E+00
    0.00000E+00         0.00000E+00        -0.28182E+04
 
   -0.10367E+05         0.48279E+03         0.00000E+00
    0.48279E+03         0.26701E+03         0.00000E+00
    0.00000E+00         0.00000E+00        -0.30300E+04
 
   -0.11109E+05         0.10808E+04         0.00000E+00
    0.10808E+04         0.33707E+03         0.00000E+00
    0.00000E+00         0.00000E+00        -0.32315E+04
 
   -0.11637E+05         0.18479E+04         0.00000E+00
    0.18479E+04         0.28655E+03         0.00000E+00
    0.00000E+00         0.00000E+00        -0.34050E+04
 
   -0.11886E+05         0.27005E+04         0.00000E+00
    0.27005E+04         0.87910E+02         0.00000E+00
    0.00000E+00         0.00000E+00        -0.35393E+04
 
   -0.11845E+05         0.35541E+04         0.00000E+00
    0.35541E+04        -0.25642E+03         0.00000E+00
    0.00000E+00         0.00000E+00        -0.36303E+04
 
   -0.11546E+05         0.43394E+04         0.00000E+00
    0.43394E+04        -0.72376E+03         0.00000E+00
    0.00000E+00         0.00000E+00        -0.36808E+04
 
   -0.11046E+05         0.50114E+04         0.00000E+00
    0.50114E+04        -0.12801E+04         0.00000E+00
    0.00000E+00         0.00000E+00        -0.36979E+04
 
   -0.10413E+05         0.55505E+04         0.00000E+00
    0.55505E+04        -0.18914E+04         0.00000E+00
    0.00000E+00         0.00000E+00        -0.36914E+04
 
   -0.97061E+04         0.59559E+04         0.00000E+00
    0.59559E+04        -0.25284E+04         0.00000E+00
    0.00000E+00         0.00000E+00        -0.36703E+04
 
   -0.89719E+04         0.62375E+04         0.00000E+00
    0.62375E+04        -0.31683E+04         0.00000E+00
    0.00000E+00         0.00000E+00        -0.36421E+04
 
   -0.82441E+04         0.64109E+04         0.00000E+00
    0.64109E+04        -0.37931E+04         0.00000E+00
    0.00000E+00         0.00000E+00        -0.36112E+04
 
   -0.75454E+04         0.64926E+04         0.00000E+00
    0.64926E+04        -0.43892E+04         0.00000E+00
    0.00000E+00         0.00000E+00        -0.35804E+04
 
   -0.68915E+04         0.64983E+04         0.00000E+00
    0.64983E+04        -0.49444E+04         0.00000E+00
    0.00000E+00         0.00000E+00        -0.35508E+04
 
   -0.62957E+04         0.64447E+04         0.00000E+00
    0.64447E+04        -0.54476E+04         0.00000E+00
    0.00000E+00         0.00000E+00        -0.35230E+04
 
   -0.57666E+04         0.63521E+04         0.00000E+00
    0.63521E+04        -0.58900E+04         0.00000E+00
    0.00000E+00         0.00000E+00        -0.34970E+04
 
   -0.53068E+04         0.62425E+04         0.00000E+00
    0.62425E+04        -0.62680E+04         0.00000E+00
    0.00000E+00         0.00000E+00        -0.34724E+04
 
   -0.49117E+04         0.61375E+04         0.00000E+00
    0.61375E+04        -0.65827E+04         0.00000E+00
    0.00000E+00         0.00000E+00        -0.34483E+04
 
   -0.45711E+04         0.60567E+04         0.00000E+00
    0.60567E+04        -0.68400E+04         0.00000E+00
    0.00000E+00         0.00000E+00        -0.34233E+04
 
   -0.42698E+04         0.60163E+04         0.00000E+00
    0.60163E+04        -0.70487E+04         0.00000E+00
    0.00000E+00         0.00000E+00        -0.33956E+04
 
   -0.39896E+04         0.60296E+04         0.00000E+00
    0.60296E+04        -0.72201E+04         0.00000E+00
    0.00000E+00         0.00000E+00        -0.33629E+04
 
   -0.37094E+04         0.61064E+04         0.00000E+00
    0.61064E+04        -0.73675E+04         0.00000E+00
    0.00000E+00         0.00000E+00        -0.33231E+04
 
   -0.34062E+04         0.62530E+04         0.00000E+00
    0.62530E+04        -0.75053E+04         0.00000E+00
    0.00000E+00         0.00000E+00        -0.32734E+04
 
   -0.86818E+04         0.41390E+02         0.00000E+00
    0.41390E+02         0.17830E+02         0.00000E+00
    0.00000E+00         0.00000E+00        -0.25992E+04
 
   -0.92744E+04         0.22544E+03         0.00000E+00
    0.22544E+03         0.87376E+02         0.00000E+00
    0.00000E+00         0.00000E+00        -0.27561E+04
 
   -0.99069E+04         0.57488E+03         0.00000E+00
    0.57488E+03         0.17054E+03         0.00000E+00
    0.00000E+00         0.00000E+00        -0.29209E+04
 
   -0.10473E+05         0.10893E+04         0.00000E+00
    0.10893E+04         0.20775E+03         0.00000E+00
    0.00000E+00         0.00000E+00        -0.30794E+04
 
   -0.10885E+05         0.17326E+04         0.00000E+00
    0.17326E+04         0.15290E+03         0.00000E+00
    0.00000E+00         0.00000E+00        -0.32196E+04
 
   -0.11092E+05         0.24482E+04         0.00000E+00
    0.24482E+04        -0.19062E+02         0.00000E+00
    0.00000E+00         0.00000E+00        -0.33333E+04
 
   -0.11077E+05         0.31747E+04         0.00000E+00
    0.31747E+04        -0.31170E+03         0.00000E+00
    0.00000E+00         0.00000E+00        -0.34167E+04
 
   -0.10857E+05         0.38580E+04         0.00000E+00
    0.38580E+04        -0.71105E+03         0.00000E+00
    0.00000E+00         0.00000E+00        -0.34703E+04
 
   -0.10467E+05         0.44597E+04         0.00000E+00
    0.44597E+04        -0.11927E+04         0.00000E+00
    0.00000E+00         0.00000E+00        -0.34979E+04
 
   -0.99550E+04         0.49588E+04         0.00000E+00
    0.49588E+04        -0.17287E+04         0.00000E+00
    0.00000E+00         0.00000E+00        -0.35051E+04
 
   -0.93661E+04         0.53494E+04         0.00000E+00
    0.53494E+04        -0.22930E+04         0.00000E+00
    0.00000E+00         0.00000E+00        -0.34977E+04
 
   -0.87394E+04         0.56363E+04         0.00000E+00
    0.56363E+04        -0.28637E+04         0.00000E+00
    0.00000E+00         0.00000E+00        -0.34809E+04
 
   -0.81049E+04         0.58301E+04         0.00000E+00
    0.58301E+04        -0.34238E+04         0.00000E+00
    0.00000E+00         0.00000E+00        -0.34586E+04
 
   -0.74843E+04         0.59442E+04         0.00000E+00
    0.59442E+04        -0.39600E+04         0.00000E+00
    0.00000E+00         0.00000E+00        -0.34333E+04
 
   -0.68934E+04         0.59928E+04         0.00000E+00
    0.59928E+04        -0.44617E+04         0.00000E+00
    0.00000E+00         0.00000E+00        -0.34065E+04
 
   -0.63431E+04         0.59909E+04         0.00000E+00
    0.59909E+04        -0.49204E+04         0.00000E+00
    0.00000E+00         0.00000E+00        -0.33791E+04
 
   -0.58405E+04         0.59555E+04         0.00000E+00
    0.59555E+04        -0.53298E+04         0.00000E+00
    0.00000E+00         0.00000E+00        -0.33511E+04
 
   -0.53873E+04         0.59042E+04         0.00000E+00
    0.59042E+04        -0.56870E+04         0.00000E+00
    0.00000E+00         0.00000E+00        -0.33223E+04
 
   -0.49801E+04         0.58543E+04         0.00000E+00
    0.58543E+04        -0.59931E+04         0.00000E+00
    0.00000E+00         0.00000E+00        -0.32920E+04
 
   -0.46109E+04         0.58218E+04         0.00000E+00
    0.58218E+04        -0.62524E+04         0.00000E+00
    0.00000E+00         0.00000E+00        -0.32590E+04
 
   -0.42675E+04         0.58206E+04         0.00000E+00
    0.58206E+04        -0.64720E+04         0.00000E+00
    0.00000E+00         0.00000E+00        -0.32218E+04
 
   -0.39345E+04         0.58618E+04         0.00000E+00
    0.58618E+04        -0.66615E+04         0.00000E+00
    0.00000E+00         0.00000E+00        -0.31788E+04
 
   -0.35940E+04         0.59535E+04         0.00000E+00
    0.59535E+04        -0.68319E+04         0.00000E+00
    0.00000E+00         0.00000E+00        -0.31278E+04
 
   -0.32264E+04         0.61011E+04         0.00000E+00
    0.61011E+04        -0.69958E+04         0.00000E+00
    0.00000E+00         0.00000E+00        -0.30667E+04
 
   -0.85357E+04         0.75553E+02         0.00000E+00
    0.75553E+02         0.10632E+02         0.00000E+00
    0.00000E+00         0.00000E+00        -0.25575E+04
 
   -0.90052E+04         0.29401E+03         0.00000E+00
    0.29401E+03         0.51549E+02         0.00000E+00
    0.00000E+00         0.00000E+00        -0.26861E+04
 
   -0.94939E+04         0.62659E+03         0.00000E+00
    0.62659E+03         0.97058E+02         0.00000E+00
    0.00000E+00         0.00000E+00        -0.28191E+04
 
   -0.99301E+04         0.10774E+04         0.00000E+00
    0.10774E+04         0.10576E+03         0.00000E+00
    0.00000E+00         0.00000E+00        -0.29473E+04
 
   -0.10252E+05         0.16248E+04         0.00000E+00
    0.16248E+04         0.43315E+02         0.00000E+00
    0.00000E+00         0.00000E+00        -0.30627E+04
 
   -0.10420E+05         0.22308E+04         0.00000E+00
    0.22308E+04        -0.11117E+03         0.00000E+00
    0.00000E+00         0.00000E+00        -0.31594E+04
 
   -0.10417E+05         0.28513E+04         0.00000E+00
    0.28513E+04        -0.36325E+03         0.00000E+00
    0.00000E+00         0.00000E+00        -0.32341E+04
 
   -0.10250E+05         0.34454E+04         0.00000E+00
    0.34454E+04        -0.70512E+03         0.00000E+00
    0.00000E+00         0.00000E+00        -0.32866E+04
 
   -0.99418E+04         0.39815E+04         0.00000E+00
    0.39815E+04        -0.11197E+04         0.00000E+00
    0.00000E+00         0.00000E+00        -0.33184E+04
 
   -0.95245E+04         0.44400E+04         0.00000E+00
    0.44400E+04        -0.15854E+04         0.00000E+00
    0.00000E+00         0.00000E+00        -0.33330E+04
 
   -0.90322E+04         0.48125E+04         0.00000E+00
    0.48125E+04        -0.20808E+04         0.00000E+00
    0.00000E+00         0.00000E+00        -0.33339E+04
 
   -0.84961E+04         0.50999E+04         0.00000E+00
    0.50999E+04        -0.25865E+04         0.00000E+00
    0.00000E+00         0.00000E+00        -0.33248E+04
 
   -0.79417E+04         0.53089E+04         0.00000E+00
    0.53089E+04        -0.30868E+04         0.00000E+00
    0.00000E+00         0.00000E+00        -0.33086E+04
 
   -0.73888E+04         0.54494E+04         0.00000E+00
    0.54494E+04        -0.35692E+04         0.00000E+00
    0.00000E+00         0.00000E+00        -0.32874E+04
 
   -0.68519E+04         0.55333E+04         0.00000E+00
    0.55333E+04        -0.40241E+04         0.00000E+00
    0.00000E+00         0.00000E+00        -0.32628E+04
 
   -0.63410E+04         0.55737E+04         0.00000E+00
    0.55737E+04        -0.44440E+04         0.00000E+00
    0.00000E+00         0.00000E+00        -0.32355E+04
 
   -0.58619E+04         0.55845E+04         0.00000E+00
    0.55845E+04        -0.48241E+04         0.00000E+00
    0.00000E+00         0.00000E+00        -0.32058E+04
 
   -0.54162E+04         0.55801E+04         0.00000E+00
    0.55801E+04        -0.51622E+04         0.00000E+00
    0.00000E+00         0.00000E+00        -0.31735E+04
 
   -0.50014E+04         0.55749E+04         0.00000E+00
    0.55749E+04        -0.54590E+04         0.00000E+00
    0.00000E+00         0.00000E+00        -0.31381E+04
 
   -0.46109E+04         0.55817E+04         0.00000E+00
    0.55817E+04        -0.57180E+04         0.00000E+00
    0.00000E+00         0.00000E+00        -0.30987E+04
 
   -0.42348E+04         0.56122E+04         0.00000E+00
    0.56122E+04        -0.59451E+04         0.00000E+00
    0.00000E+00         0.00000E+00        -0.30540E+04
 
   -0.38602E+04         0.56755E+04         0.00000E+00
    0.56755E+04        -0.61481E+04         0.00000E+00
    0.00000E+00         0.00000E+00        -0.30025E+04
 
   -0.34720E+04         0.57784E+04         0.00000E+00
    0.57784E+04        -0.63365E+04         0.00000E+00
    0.00000E+00         0.00000E+00        -0.29426E+04
 
   -0.30534E+04         0.59252E+04         0.00000E+00
    0.59252E+04        -0.65209E+04         0.00000E+00
    0.00000E+00         0.00000E+00        -0.28723E+04
 
   -0.83457E+04         0.94825E+02         0.00000E+00
    0.94825E+02         0.56205E+01         0.00000E+00
    0.00000E+00         0.00000E+00        -0.25020E+04
 
   -0.87311E+04         0.33080E+03         0.00000E+00
    0.33080E+03         0.26092E+02         0.00000E+00
    0.00000E+00         0.00000E+00        -0.26115E+04
 
   -0.91184E+04         0.64666E+03         0.00000E+00
    0.64666E+03         0.43735E+02         0.00000E+00
    0.00000E+00         0.00000E+00        -0.27224E+04
 
   -0.94600E+04         0.10475E+04         0.00000E+00
    0.10475E+04         0.30232E+02         0.00000E+00
    0.00000E+00         0.00000E+00        -0.28289E+04
 
   -0.97129E+04         0.15202E+04         0.00000E+00
    0.15202E+04        -0.39344E+02         0.00000E+00
    0.00000E+00         0.00000E+00        -0.29257E+04
 
   -0.98469E+04         0.20391E+04         0.00000E+00
    0.20391E+04        -0.18143E+03         0.00000E+00
    0.00000E+00         0.00000E+00        -0.30085E+04
 
   -0.98475E+04         0.25730E+04         0.00000E+00
    0.25730E+04        -0.40189E+03         0.00000E+00
    0.00000E+00         0.00000E+00        -0.30748E+04
 
   -0.97164E+04         0.30913E+04         0.00000E+00
    0.30913E+04        -0.69659E+03         0.00000E+00
    0.00000E+00         0.00000E+00        -0.31239E+04
 
   -0.94677E+04         0.35686E+04         0.00000E+00
    0.35686E+04        -0.10539E+04         0.00000E+00
    0.00000E+00         0.00000E+00        -0.31565E+04
 
   -0.91234E+04         0.39878E+04         0.00000E+00
    0.39878E+04        -0.14578E+04         0.00000E+00
    0.00000E+00         0.00000E+00        -0.31743E+04
 
   -0.87084E+04         0.43400E+04         0.00000E+00
    0.43400E+04        -0.18911E+04         0.00000E+00
    0.00000E+00         0.00000E+00        -0.31798E+04
 
   -0.82471E+04         0.46235E+04         0.00000E+00
    0.46235E+04        -0.23376E+04         0.00000E+00
    0.00000E+00         0.00000E+00        -0.31754E+04
 
   -0.77604E+04         0.48420E+04         0.00000E+00
    0.48420E+04        -0.27833E+04         0.00000E+00
    0.00000E+00         0.00000E+00        -0.31631E+04
 
   -0.72655E+04         0.50025E+04         0.00000E+00
    0.50025E+04        -0.32170E+04         0.00000E+00
    0.00000E+00         0.00000E+00        -0.31448E+04
 
   -0.67754E+04         0.51145E+04         0.00000E+00
    0.51145E+04        -0.36298E+04         0.00000E+00
    0.00000E+00         0.00000E+00        -0.31215E+04
 
   -0.62988E+04         0.51887E+04         0.00000E+00
    0.51887E+04        -0.40151E+04         0.00000E+00
    0.00000E+00         0.00000E+00        -0.30942E+04
 
   -0.58410E+04         0.52365E+04         0.00000E+00
    0.52365E+04        -0.43688E+04         0.00000E+00
    0.00000E+00         0.00000E+00        -0.30629E+04
 
   -0.54036E+04         0.52700E+04         0.00000E+00
    0.52700E+04        -0.46889E+04         0.00000E+00
    0.00000E+00         0.00000E+00        -0.30278E+04
 
   -0.49847E+04         0.53006E+04         0.00000E+00
    0.53006E+04        -0.49761E+04         0.00000E+00
    0.00000E+00         0.00000E+00        -0.29882E+04
 
   -0.45788E+04         0.53390E+04         0.00000E+00
    0.53390E+04        -0.52331E+04         0.00000E+00
    0.00000E+00         0.00000E+00        -0.29436E+04
 
   -0.41779E+04         0.53947E+04         0.00000E+00
    0.53947E+04        -0.54647E+04         0.00000E+00
    0.00000E+00         0.00000E+00        -0.28928E+04
 
   -0.37711E+04         0.54753E+04         0.00000E+00
    0.54753E+04        -0.56775E+04         0.00000E+00
    0.00000E+00         0.00000E+00        -0.28346E+04
 
   -0.33459E+04         0.55861E+04         0.00000E+00
    0.55861E+04        -0.58795E+04         0.00000E+00
    0.00000E+00         0.00000E+00        -0.27676E+04
 
   -0.28878E+04         0.57306E+04         0.00000E+00
    0.57306E+04        -0.60796E+04         0.00000E+00
    0.00000E+00         0.00000E+00        -0.26902E+04
 
   -0.81333E+04         0.10386E+03         0.00000E+00
    0.10386E+03         0.22419E+01         0.00000E+00
    0.00000E+00         0.00000E+00        -0.24393E+04
 
   -0.84595E+04         0.34503E+03         0.00000E+00
    0.34503E+03         0.86606E+01         0.00000E+00
    0.00000E+00         0.00000E+00        -0.25353E+04
 
   -0.87744E+04         0.64353E+03         0.00000E+00
    0.64353E+03         0.67064E+01         0.00000E+00
    0.00000E+00         0.00000E+00        -0.26303E+04
 
   -0.90468E+04         0.10037E+04         0.00000E+00
    0.10037E+04        -0.22747E+02         0.00000E+00
    0.00000E+00         0.00000E+00        -0.27209E+04
 
   -0.92470E+04         0.14174E+04         0.00000E+00
    0.14174E+04        -0.97437E+02         0.00000E+00
    0.00000E+00         0.00000E+00        -0.28033E+04
 
   -0.93529E+04         0.18672E+04         0.00000E+00
    0.18672E+04        -0.22984E+03         0.00000E+00
    0.00000E+00         0.00000E+00        -0.28748E+04
 
   -0.93527E+04         0.23309E+04         0.00000E+00
    0.23309E+04        -0.42522E+03         0.00000E+00
    0.00000E+00         0.00000E+00        -0.29334E+04
 
   -0.92456E+04         0.27855E+04         0.00000E+00
    0.27855E+04        -0.68162E+03         0.00000E+00
    0.00000E+00         0.00000E+00        -0.29782E+04
 
   -0.90402E+04         0.32114E+04         0.00000E+00
    0.32114E+04        -0.99115E+03         0.00000E+00
    0.00000E+00         0.00000E+00        -0.30094E+04
 
   -0.87515E+04         0.35941E+04         0.00000E+00
    0.35941E+04        -0.13421E+04         0.00000E+00
    0.00000E+00         0.00000E+00        -0.30281E+04
 
   -0.83976E+04         0.39251E+04         0.00000E+00
    0.39251E+04        -0.17211E+04         0.00000E+00
    0.00000E+00         0.00000E+00        -0.30356E+04
 
   -0.79971E+04         0.42013E+04         0.00000E+00
    0.42013E+04        -0.21150E+04         0.00000E+00
    0.00000E+00         0.00000E+00        -0.30336E+04
 
   -0.75668E+04         0.44243E+04         0.00000E+00
    0.44243E+04        -0.25118E+04         0.00000E+00
    0.00000E+00         0.00000E+00        -0.30236E+04
 
   -0.71212E+04         0.45989E+04         0.00000E+00
    0.45989E+04        -0.29016E+04         0.00000E+00
    0.00000E+00         0.00000E+00        -0.30068E+04
 
   -0.66712E+04         0.47323E+04         0.00000E+00
    0.47323E+04        -0.32764E+04         0.00000E+00
    0.00000E+00         0.00000E+00        -0.29843E+04
 
   -0.62247E+04         0.48328E+04         0.00000E+00
    0.48328E+04        -0.36304E+04         0.00000E+00
    0.00000E+00         0.00000E+00        -0.29565E+04
 
   -0.57864E+04         0.49100E+04         0.00000E+00
    0.49100E+04        -0.39598E+04         0.00000E+00
    0.00000E+00         0.00000E+00        -0.29239E+04
 
   -0.53578E+04         0.49734E+04         0.00000E+00
    0.49734E+04        -0.42630E+04         0.00000E+00
    0.00000E+00         0.00000E+00        -0.28863E+04
 
   -0.49375E+04         0.50324E+04         0.00000E+00
    0.50324E+04        -0.45403E+04         0.00000E+00
    0.00000E+00         0.00000E+00        -0.28433E+04
 
   -0.45211E+04         0.50958E+04         0.00000E+00
    0.50958E+04        -0.47938E+04         0.00000E+00
    0.00000E+00         0.00000E+00        -0.27945E+04
 
   -0.41020E+04         0.51713E+04         0.00000E+00
    0.51713E+04        -0.50276E+04         0.00000E+00
    0.00000E+00         0.00000E+00        -0.27389E+04
 
   -0.36712E+04         0.52649E+04         0.00000E+00
    0.52649E+04        -0.52470E+04         0.00000E+00
    0.00000E+00         0.00000E+00        -0.26754E+04
 
   -0.32179E+04         0.53809E+04         0.00000E+00
    0.53809E+04        -0.54588E+04         0.00000E+00
    0.00000E+00         0.00000E+00        -0.26030E+04
 
   -0.27302E+04         0.55219E+04         0.00000E+00
    0.55219E+04        -0.56706E+04         0.00000E+00
    0.00000E+00         0.00000E+00        -0.25202E+04
 
   -0.79132E+04         0.10609E+03         0.00000E+00
    0.10609E+03         0.44625E-01         0.00000E+00
    0.00000E+00         0.00000E+00        -0.23740E+04
 
   -0.81959E+04         0.34395E+03         0.00000E+00
    0.34395E+03        -0.28050E+01         0.00000E+00
    0.00000E+00         0.00000E+00        -0.24596E+04
 
   -0.84581E+04         0.62437E+03         0.00000E+00
    0.62437E+03        -0.17832E+02         0.00000E+00
    0.00000E+00         0.00000E+00        -0.25428E+04
 
   -0.86794E+04         0.95043E+03         0.00000E+00
    0.95043E+03        -0.57834E+02         0.00000E+00
    0.00000E+00         0.00000E+00        -0.26212E+04
 
   -0.88396E+04         0.13167E+04         0.00000E+00
    0.13167E+04        -0.13524E+03         0.00000E+00
    0.00000E+00         0.00000E+00        -0.26924E+04
 
   -0.89226E+04         0.17112E+04         0.00000E+00
    0.17112E+04        -0.25926E+03         0.00000E+00
    0.00000E+00         0.00000E+00        -0.27546E+04
 
   -0.89194E+04         0.21177E+04         0.00000E+00
    0.21177E+04        -0.43426E+03         0.00000E+00
    0.00000E+00         0.00000E+00        -0.28061E+04
 
   -0.88283E+04         0.25194E+04         0.00000E+00
    0.25194E+04        -0.65943E+03         0.00000E+00
    0.00000E+00         0.00000E+00        -0.28463E+04
 
   -0.86543E+04         0.29011E+04         0.00000E+00
    0.29011E+04        -0.92943E+03         0.00000E+00
    0.00000E+00         0.00000E+00        -0.28751E+04
 
   -0.84077E+04         0.32506E+04         0.00000E+00
    0.32506E+04        -0.12357E+04         0.00000E+00
    0.00000E+00         0.00000E+00        -0.28930E+04
 
   -0.81015E+04         0.35605E+04         0.00000E+00
    0.35605E+04        -0.15681E+04         0.00000E+00
    0.00000E+00         0.00000E+00        -0.29009E+04
 
   -0.77499E+04         0.38271E+04         0.00000E+00
    0.38271E+04        -0.19160E+04         0.00000E+00
    0.00000E+00         0.00000E+00        -0.28998E+04
 
   -0.73660E+04         0.40507E+04         0.00000E+00
    0.40507E+04        -0.22695E+04         0.00000E+00
    0.00000E+00         0.00000E+00        -0.28907E+04
 
   -0.69616E+04         0.42343E+04         0.00000E+00
    0.42343E+04        -0.26200E+04         0.00000E+00
    0.00000E+00         0.00000E+00        -0.28745E+04
 
   -0.65460E+04         0.43830E+04         0.00000E+00
    0.43830E+04        -0.29607E+04         0.00000E+00
    0.00000E+00         0.00000E+00        -0.28520E+04
 
   -0.61259E+04         0.45036E+04         0.00000E+00
    0.45036E+04        -0.32864E+04         0.00000E+00
    0.00000E+00         0.00000E+00        -0.28237E+04
 
   -0.57054E+04         0.46033E+04         0.00000E+00
    0.46033E+04        -0.35935E+04         0.00000E+00
    0.00000E+00         0.00000E+00        -0.27897E+04
 
   -0.52859E+04         0.46900E+04         0.00000E+00
    0.46900E+04        -0.38806E+04         0.00000E+00
    0.00000E+00         0.00000E+00        -0.27500E+04
 
   -0.48665E+04         0.47712E+04         0.00000E+00
    0.47712E+04        -0.41478E+04         0.00000E+00
    0.00000E+00         0.00000E+00        -0.27043E+04
 
   -0.44436E+04         0.48540E+04         0.00000E+00
    0.48540E+04        -0.43967E+04         0.00000E+00
    0.00000E+00         0.00000E+00        -0.26521E+04
 
   -0.40117E+04         0.49444E+04         0.00000E+00
    0.49444E+04        -0.46306E+04         0.00000E+00
    0.00000E+00         0.00000E+00        -0.25927E+04
 
   -0.35634E+04         0.50475E+04         0.00000E+00
    0.50475E+04        -0.48541E+04         0.00000E+00
    0.00000E+00         0.00000E+00        -0.25253E+04
 
   -0.30898E+04         0.51664E+04         0.00000E+00
    0.51664E+04        -0.50726E+04         0.00000E+00
    0.00000E+00         0.00000E+00        -0.24487E+04
 
   -0.25807E+04         0.53029E+04         0.00000E+00
    0.53029E+04        -0.52927E+04         0.00000E+00
    0.00000E+00         0.00000E+00        -0.23620E+04
 
   -0.76952E+04         0.10398E+03         0.00000E+00
    0.10398E+03        -0.13200E+01         0.00000E+00
    0.00000E+00         0.00000E+00        -0.23089E+04
 
   -0.79442E+04         0.33294E+03         0.00000E+00
    0.33294E+03        -0.99733E+01         0.00000E+00
    0.00000E+00         0.00000E+00        -0.23862E+04
 
   -0.81668E+04         0.59489E+03         0.00000E+00
    0.59489E+03        -0.33159E+02         0.00000E+00
    0.00000E+00         0.00000E+00        -0.24600E+04
 
   -0.83497E+04         0.89152E+03         0.00000E+00
    0.89152E+03        -0.79395E+02         0.00000E+00
    0.00000E+00         0.00000E+00        -0.25287E+04
 
   -0.84792E+04         0.12189E+04         0.00000E+00
    0.12189E+04        -0.15729E+03         0.00000E+00
    0.00000E+00         0.00000E+00        -0.25909E+04
 
   -0.85438E+04         0.15684E+04         0.00000E+00
    0.15684E+04        -0.27350E+03         0.00000E+00
    0.00000E+00         0.00000E+00        -0.26452E+04
 
   -0.85367E+04         0.19283E+04         0.00000E+00
    0.19283E+04        -0.43144E+03         0.00000E+00
    0.00000E+00         0.00000E+00        -0.26905E+04
 
   -0.84560E+04         0.22860E+04         0.00000E+00
    0.22860E+04        -0.63086E+03         0.00000E+00
    0.00000E+00         0.00000E+00        -0.27261E+04
 
   -0.83048E+04         0.26297E+04         0.00000E+00
    0.26297E+04        -0.86810E+03         0.00000E+00
    0.00000E+00         0.00000E+00        -0.27519E+04
 
   -0.80899E+04         0.29496E+04         0.00000E+00
    0.29496E+04        -0.11370E+04         0.00000E+00
    0.00000E+00         0.00000E+00        -0.27681E+04
 
   -0.78209E+04         0.32392E+04         0.00000E+00
    0.32392E+04        -0.14296E+04         0.00000E+00
    0.00000E+00         0.00000E+00        -0.27752E+04
 
   -0.75082E+04         0.34949E+04         0.00000E+00
    0.34949E+04        -0.17378E+04         0.00000E+00
    0.00000E+00         0.00000E+00        -0.27738E+04
 
   -0.71621E+04         0.37160E+04         0.00000E+00
    0.37160E+04        -0.20535E+04         0.00000E+00
    0.00000E+00         0.00000E+00        -0.27647E+04
 
   -0.67921E+04         0.39043E+04         0.00000E+00
    0.39043E+04        -0.23694E+04         0.00000E+00
    0.00000E+00         0.00000E+00        -0.27484E+04
 
   -0.64056E+04         0.40635E+04         0.00000E+00
    0.40635E+04        -0.26796E+04         0.00000E+00
    0.00000E+00         0.00000E+00        -0.27255E+04
 
   -0.60084E+04         0.41985E+04         0.00000E+00
    0.41985E+04        -0.29795E+04         0.00000E+00
    0.00000E+00         0.00000E+00        -0.26964E+04
 
   -0.56041E+04         0.43151E+04         0.00000E+00
    0.43151E+04        -0.32662E+04         0.00000E+00
    0.00000E+00         0.00000E+00        -0.26611E+04
 
   -0.51939E+04         0.44194E+04         0.00000E+00
    0.44194E+04        -0.35380E+04         0.00000E+00
    0.00000E+00         0.00000E+00        -0.26196E+04
 
   -0.47770E+04         0.45174E+04         0.00000E+00
    0.45174E+04        -0.37950E+04         0.00000E+00
    0.00000E+00         0.00000E+00        -0.25716E+04
 
   -0.43509E+04         0.46148E+04         0.00000E+00
    0.46148E+04        -0.40385E+04         0.00000E+00
    0.00000E+00         0.00000E+00        -0.25168E+04
 
   -0.39108E+04         0.47163E+04         0.00000E+00
    0.47163E+04        -0.42710E+04         0.00000E+00
    0.00000E+00         0.00000E+00        -0.24545E+04
 
   -0.34508E+04         0.48258E+04         0.00000E+00
    0.48258E+04        -0.44963E+04         0.00000E+00
    0.00000E+00         0.00000E+00        -0.23841E+04
 
   -0.29632E+04         0.49456E+04         0.00000E+00
    0.49456E+04        -0.47189E+04         0.00000E+00
    0.00000E+00         0.00000E+00        -0.23046E+04
 
   -0.24397E+04         0.50769E+04         0.00000E+00
    0.50769E+04        -0.49443E+04         0.00000E+00
    0.00000E+00         0.00000E+00        -0.22152E+04
 
   -0.74852E+04         0.99252E+02         0.00000E+00
    0.99252E+02        -0.21112E+01         0.00000E+00
    0.00000E+00         0.00000E+00        -0.22462E+04
 
   -0.77067E+04         0.31593E+03         0.00000E+00
    0.31593E+03        -0.14128E+02         0.00000E+00
    0.00000E+00         0.00000E+00        -0.23163E+04
 
   -0.78985E+04         0.55937E+03         0.00000E+00
    0.55937E+03        -0.41906E+02         0.00000E+00
    0.00000E+00         0.00000E+00        -0.23821E+04
 
   -0.80519E+04         0.83007E+03         0.00000E+00
    0.83007E+03        -0.91113E+02         0.00000E+00
    0.00000E+00         0.00000E+00        -0.24429E+04
 
   -0.81574E+04         0.11249E+04         0.00000E+00
    0.11249E+04        -0.16767E+03         0.00000E+00
    0.00000E+00         0.00000E+00        -0.24975E+04
 
   -0.82071E+04         0.14373E+04         0.00000E+00
    0.14373E+04        -0.27630E+03         0.00000E+00
    0.00000E+00         0.00000E+00        -0.25450E+04
 
   -0.81958E+04         0.17587E+04         0.00000E+00
    0.17587E+04        -0.41957E+03         0.00000E+00
    0.00000E+00         0.00000E+00        -0.25846E+04
 
   -0.81219E+04         0.20796E+04         0.00000E+00
    0.20796E+04        -0.59746E+03         0.00000E+00
    0.00000E+00         0.00000E+00        -0.26158E+04
 
   -0.79870E+04         0.23907E+04         0.00000E+00
    0.23907E+04        -0.80742E+03         0.00000E+00
    0.00000E+00         0.00000E+00        -0.26383E+04
 
   -0.77960E+04         0.26844E+04         0.00000E+00
    0.26844E+04        -0.10449E+04         0.00000E+00
    0.00000E+00         0.00000E+00        -0.26523E+04
 
   -0.75557E+04         0.29550E+04         0.00000E+00
    0.29550E+04        -0.13040E+04         0.00000E+00
    0.00000E+00         0.00000E+00        -0.26579E+04
 
   -0.72738E+04         0.31990E+04         0.00000E+00
    0.31990E+04        -0.15781E+04         0.00000E+00
    0.00000E+00         0.00000E+00        -0.26556E+04
 
   -0.69584E+04         0.34155E+04         0.00000E+00
    0.34155E+04        -0.18609E+04         0.00000E+00
    0.00000E+00         0.00000E+00        -0.26458E+04
 
   -0.66166E+04         0.36052E+04         0.00000E+00
    0.36052E+04        -0.21463E+04         0.00000E+00
    0.00000E+00         0.00000E+00        -0.26289E+04
 
   -0.62548E+04         0.37707E+04         0.00000E+00
    0.37707E+04        -0.24295E+04         0.00000E+00
    0.00000E+00         0.00000E+00        -0.26053E+04
 
   -0.58775E+04         0.39155E+04         0.00000E+00
    0.39155E+04        -0.27063E+04         0.00000E+00
    0.00000E+00         0.00000E+00        -0.25751E+04
 
   -0.54878E+04         0.40442E+04         0.00000E+00
    0.40442E+04        -0.29742E+04         0.00000E+00
    0.00000E+00         0.00000E+00        -0.25386E+04
 
   -0.50868E+04         0.41613E+04         0.00000E+00
    0.41613E+04        -0.32317E+04         0.00000E+00
    0.00000E+00         0.00000E+00        -0.24955E+04
 
   -0.46740E+04         0.42716E+04         0.00000E+00
    0.42716E+04        -0.34786E+04         0.00000E+00
    0.00000E+00         0.00000E+00        -0.24458E+04
 
   -0.42472E+04         0.43795E+04         0.00000E+00
    0.43795E+04        -0.37159E+04         0.00000E+00
    0.00000E+00         0.00000E+00        -0.23889E+04
 
   -0.38026E+04         0.44886E+04         0.00000E+00
    0.44886E+04        -0.39457E+04         0.00000E+00
    0.00000E+00         0.00000E+00        -0.23245E+04
 
   -0.33354E+04         0.46020E+04         0.00000E+00
    0.46020E+04        -0.41711E+04         0.00000E+00
    0.00000E+00         0.00000E+00        -0.22519E+04
 
   -0.28392E+04         0.47211E+04         0.00000E+00
    0.47211E+04        -0.43957E+04         0.00000E+00
    0.00000E+00         0.00000E+00        -0.21705E+04
 
   -0.23072E+04         0.48466E+04         0.00000E+00
    0.48466E+04        -0.46240E+04         0.00000E+00
    0.00000E+00         0.00000E+00        -0.20794E+04
 
   -0.72869E+04         0.93090E+02         0.00000E+00
    0.93090E+02        -0.25167E+01         0.00000E+00
    0.00000E+00         0.00000E+00        -0.21868E+04
 
   -0.74849E+04         0.29567E+03         0.00000E+00
    0.29567E+03        -0.16224E+02         0.00000E+00
    0.00000E+00         0.00000E+00        -0.22503E+04
 
   -0.76517E+04         0.52092E+03         0.00000E+00
    0.52092E+03        -0.46091E+02         0.00000E+00
    0.00000E+00         0.00000E+00        -0.23093E+04
 
   -0.77816E+04         0.76842E+03         0.00000E+00
    0.76842E+03        -0.95917E+02         0.00000E+00
    0.00000E+00         0.00000E+00        -0.23632E+04
 
   -0.78680E+04         0.10354E+04         0.00000E+00
    0.10354E+04        -0.16976E+03         0.00000E+00
    0.00000E+00         0.00000E+00        -0.24113E+04
 
   -0.79054E+04         0.13168E+04         0.00000E+00
    0.13168E+04        -0.27095E+03         0.00000E+00
    0.00000E+00         0.00000E+00        -0.24529E+04
 
   -0.78898E+04         0.16060E+04         0.00000E+00
    0.16060E+04        -0.40134E+03         0.00000E+00
    0.00000E+00         0.00000E+00        -0.24873E+04
 
   -0.78200E+04         0.18958E+04         0.00000E+00
    0.18958E+04        -0.56096E+03         0.00000E+00
    0.00000E+00         0.00000E+00        -0.25143E+04
 
   -0.76969E+04         0.21790E+04         0.00000E+00
    0.21790E+04        -0.74800E+03         0.00000E+00
    0.00000E+00         0.00000E+00        -0.25335E+04
 
   -0.75238E+04         0.24494E+04         0.00000E+00
    0.24494E+04        -0.95907E+03         0.00000E+00
    0.00000E+00         0.00000E+00        -0.25449E+04
 
   -0.73056E+04         0.27022E+04         0.00000E+00
    0.27022E+04        -0.11897E+04         0.00000E+00
    0.00000E+00         0.00000E+00        -0.25486E+04
 
   -0.70480E+04         0.29344E+04         0.00000E+00
    0.29344E+04        -0.14348E+04         0.00000E+00
    0.00000E+00         0.00000E+00        -0.25448E+04
 
   -0.67572E+04         0.31446E+04         0.00000E+00
    0.31446E+04        -0.16892E+04         0.00000E+00
    0.00000E+00         0.00000E+00        -0.25339E+04
 
   -0.64388E+04         0.33332E+04         0.00000E+00
    0.33332E+04        -0.19481E+04         0.00000E+00
    0.00000E+00         0.00000E+00        -0.25161E+04
 
   -0.60976E+04         0.35016E+04         0.00000E+00
    0.35016E+04        -0.22073E+04         0.00000E+00
    0.00000E+00         0.00000E+00        -0.24915E+04
 
   -0.57376E+04         0.36525E+04         0.00000E+00
    0.36525E+04        -0.24634E+04         0.00000E+00
    0.00000E+00         0.00000E+00        -0.24603E+04
 
   -0.53610E+04         0.37891E+04         0.00000E+00
    0.37891E+04        -0.27141E+04         0.00000E+00
    0.00000E+00         0.00000E+00        -0.24225E+04
 
   -0.49690E+04         0.39150E+04         0.00000E+00
    0.39150E+04        -0.29582E+04         0.00000E+00
    0.00000E+00         0.00000E+00        -0.23782E+04
 
   -0.45612E+04         0.40338E+04         0.00000E+00
    0.40338E+04        -0.31952E+04         0.00000E+00
    0.00000E+00         0.00000E+00        -0.23269E+04
 
   -0.41358E+04         0.41488E+04         0.00000E+00
    0.41488E+04        -0.34260E+04         0.00000E+00
    0.00000E+00         0.00000E+00        -0.22686E+04
 
   -0.36899E+04         0.42628E+04         0.00000E+00
    0.42628E+04        -0.36522E+04         0.00000E+00
    0.00000E+00         0.00000E+00        -0.22026E+04
 
   -0.32192E+04         0.43778E+04         0.00000E+00
    0.43778E+04        -0.38762E+04         0.00000E+00
    0.00000E+00         0.00000E+00        -0.21286E+04
 
   -0.27189E+04         0.44950E+04         0.00000E+00
    0.44950E+04        -0.41010E+04         0.00000E+00
    0.00000E+00         0.00000E+00        -0.20460E+04
 
   -0.21831E+04         0.46142E+04         0.00000E+00
    0.46142E+04        -0.43302E+04         0.00000E+00
    0.00000E+00         0.00000E+00        -0.19540E+04
 
   -0.71021E+04         0.86273E+02         0.00000E+00
    0.86273E+02        -0.26694E+01         0.00000E+00
    0.00000E+00         0.00000E+00        -0.21314E+04
 
   -0.72791E+04         0.27404E+03         0.00000E+00
    0.27404E+03        -0.16953E+02         0.00000E+00
    0.00000E+00         0.00000E+00        -0.21888E+04
 
   -0.74249E+04         0.48172E+03         0.00000E+00
    0.48172E+03        -0.47211E+02         0.00000E+00
    0.00000E+00         0.00000E+00        -0.22416E+04
 
   -0.75354E+04         0.70824E+03         0.00000E+00
    0.70824E+03        -0.96044E+02         0.00000E+00
    0.00000E+00         0.00000E+00        -0.22894E+04
 
   -0.76061E+04         0.95099E+03         0.00000E+00
    0.95099E+03        -0.16625E+03         0.00000E+00
    0.00000E+00         0.00000E+00        -0.23317E+04
 
   -0.76330E+04         0.12059E+04         0.00000E+00
    0.12059E+04        -0.26014E+03         0.00000E+00
    0.00000E+00         0.00000E+00        -0.23679E+04
 
   -0.76132E+04         0.14679E+04         0.00000E+00
    0.14679E+04        -0.37905E+03         0.00000E+00
    0.00000E+00         0.00000E+00        -0.23977E+04
 
   -0.75456E+04         0.17312E+04         0.00000E+00
    0.17312E+04        -0.52297E+03         0.00000E+00
    0.00000E+00         0.00000E+00        -0.24206E+04
 
   -0.74309E+04         0.19901E+04         0.00000E+00
    0.19901E+04        -0.69059E+03         0.00000E+00
    0.00000E+00         0.00000E+00        -0.24364E+04
 
   -0.72711E+04         0.22398E+04         0.00000E+00
    0.22398E+04        -0.87936E+03         0.00000E+00
    0.00000E+00         0.00000E+00        -0.24451E+04
 
   -0.70699E+04         0.24762E+04         0.00000E+00
    0.24762E+04        -0.10859E+04         0.00000E+00
    0.00000E+00         0.00000E+00        -0.24467E+04
 
   -0.68315E+04         0.26966E+04         0.00000E+00
    0.26966E+04        -0.13062E+04         0.00000E+00
    0.00000E+00         0.00000E+00        -0.24413E+04
 
   -0.65604E+04         0.28995E+04         0.00000E+00
    0.28995E+04        -0.15362E+04         0.00000E+00
    0.00000E+00         0.00000E+00        -0.24290E+04
 
   -0.62611E+04         0.30849E+04         0.00000E+00
    0.30849E+04        -0.17720E+04         0.00000E+00
    0.00000E+00         0.00000E+00        -0.24099E+04
 
   -0.59373E+04         0.32537E+04         0.00000E+00
    0.32537E+04        -0.20101E+04         0.00000E+00
    0.00000E+00         0.00000E+00        -0.23842E+04
 
   -0.55921E+04         0.34075E+04         0.00000E+00
    0.34075E+04        -0.22477E+04         0.00000E+00
    0.00000E+00         0.00000E+00        -0.23519E+04
 
   -0.52274E+04         0.35488E+04         0.00000E+00
    0.35488E+04        -0.24829E+04         0.00000E+00
    0.00000E+00         0.00000E+00        -0.23131E+04
 
   -0.48442E+04         0.36801E+04         0.00000E+00
    0.36801E+04        -0.27144E+04         0.00000E+00
    0.00000E+00         0.00000E+00        -0.22676E+04
 
   -0.44421E+04         0.38042E+04         0.00000E+00
    0.38042E+04        -0.29419E+04         0.00000E+00
    0.00000E+00         0.00000E+00        -0.22152E+04
 
   -0.40198E+04         0.39234E+04         0.00000E+00
    0.39234E+04        -0.31660E+04         0.00000E+00
    0.00000E+00         0.00000E+00        -0.21557E+04
 
   -0.35748E+04         0.40398E+04         0.00000E+00
    0.40398E+04        -0.33877E+04         0.00000E+00
    0.00000E+00         0.00000E+00        -0.20888E+04
 
   -0.31039E+04         0.41548E+04         0.00000E+00
    0.41548E+04        -0.36092E+04         0.00000E+00
    0.00000E+00         0.00000E+00        -0.20139E+04
 
   -0.26029E+04         0.42689E+04         0.00000E+00
    0.42689E+04        -0.38328E+04         0.00000E+00
    0.00000E+00         0.00000E+00        -0.19307E+04
 
   -0.20673E+04         0.43817E+04         0.00000E+00
    0.43817E+04        -0.40614E+04         0.00000E+00
    0.00000E+00         0.00000E+00        -0.18386E+04
 
   -0.69315E+04         0.79309E+02         0.00000E+00
    0.79309E+02        -0.26622E+01         0.00000E+00
    0.00000E+00         0.00000E+00        -0.20802E+04
 
   -0.70892E+04         0.25226E+03         0.00000E+00
    0.25226E+03        -0.16807E+02         0.00000E+00
    0.00000E+00         0.00000E+00        -0.21318E+04
 
   -0.72166E+04         0.44322E+03         0.00000E+00
    0.44322E+03        -0.46357E+02         0.00000E+00
    0.00000E+00         0.00000E+00        -0.21789E+04
 
   -0.73106E+04         0.65064E+03         0.00000E+00
    0.65064E+03        -0.93154E+02         0.00000E+00
    0.00000E+00         0.00000E+00        -0.22211E+04
 
   -0.73679E+04         0.87206E+03         0.00000E+00
    0.87206E+03        -0.15916E+03         0.00000E+00
    0.00000E+00         0.00000E+00        -0.22581E+04
 
   -0.73857E+04         0.11041E+04         0.00000E+00
    0.11041E+04        -0.24598E+03         0.00000E+00
    0.00000E+00         0.00000E+00        -0.22895E+04
 
   -0.73618E+04         0.13425E+04         0.00000E+00
    0.13425E+04        -0.35456E+03         0.00000E+00
    0.00000E+00         0.00000E+00        -0.23149E+04
 
   -0.72951E+04         0.15829E+04         0.00000E+00
    0.15829E+04        -0.48486E+03         0.00000E+00
    0.00000E+00         0.00000E+00        -0.23340E+04
 
   -0.71861E+04         0.18207E+04         0.00000E+00
    0.18207E+04        -0.63588E+03         0.00000E+00
    0.00000E+00         0.00000E+00        -0.23466E+04
 
   -0.70363E+04         0.20518E+04         0.00000E+00
    0.20518E+04        -0.80572E+03         0.00000E+00
    0.00000E+00         0.00000E+00        -0.23526E+04
 
   -0.68480E+04         0.22729E+04         0.00000E+00
    0.22729E+04        -0.99173E+03         0.00000E+00
    0.00000E+00         0.00000E+00        -0.23519E+04
 
   -0.66246E+04         0.24817E+04         0.00000E+00
    0.24817E+04        -0.11909E+04         0.00000E+00
    0.00000E+00         0.00000E+00        -0.23446E+04
 
   -0.63694E+04         0.26766E+04         0.00000E+00
    0.26766E+04        -0.13998E+04         0.00000E+00
    0.00000E+00         0.00000E+00        -0.23308E+04
 
   -0.60856E+04         0.28574E+04         0.00000E+00
    0.28574E+04        -0.16156E+04         0.00000E+00
    0.00000E+00         0.00000E+00        -0.23104E+04
 
   -0.57764E+04         0.30244E+04         0.00000E+00
    0.30244E+04        -0.18352E+04         0.00000E+00
    0.00000E+00         0.00000E+00        -0.22835E+04
 
   -0.54440E+04         0.31786E+04         0.00000E+00
    0.31786E+04        -0.20565E+04         0.00000E+00
    0.00000E+00         0.00000E+00        -0.22502E+04
 
   -0.50901E+04         0.33219E+04         0.00000E+00
    0.33219E+04        -0.22776E+04         0.00000E+00
    0.00000E+00         0.00000E+00        -0.22103E+04
 
   -0.47153E+04         0.34559E+04         0.00000E+00
    0.34559E+04        -0.24975E+04         0.00000E+00
    0.00000E+00         0.00000E+00        -0.21638E+04
 
   -0.43195E+04         0.35826E+04         0.00000E+00
    0.35826E+04        -0.27158E+04         0.00000E+00
    0.00000E+00         0.00000E+00        -0.21106E+04
 
   -0.39014E+04         0.37037E+04         0.00000E+00
    0.37037E+04        -0.29330E+04         0.00000E+00
    0.00000E+00         0.00000E+00        -0.20503E+04
 
   -0.34594E+04         0.38206E+04         0.00000E+00
    0.38206E+04        -0.31499E+04         0.00000E+00
    0.00000E+00         0.00000E+00        -0.19828E+04
 
   -0.29906E+04         0.39341E+04         0.00000E+00
    0.39341E+04        -0.33680E+04         0.00000E+00
    0.00000E+00         0.00000E+00        -0.19076E+04
 
   -0.24919E+04         0.40443E+04         0.00000E+00
    0.40443E+04        -0.35892E+04         0.00000E+00
    0.00000E+00         0.00000E+00        -0.18243E+04
 
   -0.19597E+04         0.41505E+04         0.00000E+00
    0.41505E+04        -0.38159E+04         0.00000E+00
    0.00000E+00         0.00000E+00        -0.17327E+04
 
   -0.67748E+04         0.72512E+02         0.00000E+00
    0.72512E+02        -0.25588E+01         0.00000E+00
    0.00000E+00         0.00000E+00        -0.20332E+04
 
   -0.69146E+04         0.23113E+03         0.00000E+00
    0.23113E+03        -0.16130E+02         0.00000E+00
    0.00000E+00         0.00000E+00        -0.20792E+04
 
   -0.70255E+04         0.40632E+03         0.00000E+00
    0.40632E+03        -0.44303E+02         0.00000E+00
    0.00000E+00         0.00000E+00        -0.21209E+04
 
   -0.71050E+04         0.59629E+03         0.00000E+00
    0.59629E+03        -0.88452E+02         0.00000E+00
    0.00000E+00         0.00000E+00        -0.21580E+04
 
   -0.71507E+04         0.79868E+03         0.00000E+00
    0.79868E+03        -0.14999E+03         0.00000E+00
    0.00000E+00         0.00000E+00        -0.21902E+04
 
   -0.71603E+04         0.10106E+04         0.00000E+00
    0.10106E+04        -0.23006E+03         0.00000E+00
    0.00000E+00         0.00000E+00        -0.22171E+04
 
   -0.71322E+04         0.12285E+04         0.00000E+00
    0.12285E+04        -0.32931E+03         0.00000E+00
    0.00000E+00         0.00000E+00        -0.22384E+04
 
   -0.70654E+04         0.14488E+04         0.00000E+00
    0.14488E+04        -0.44770E+03         0.00000E+00
    0.00000E+00         0.00000E+00        -0.22539E+04
 
   -0.69602E+04         0.16678E+04         0.00000E+00
    0.16678E+04        -0.58445E+03         0.00000E+00
    0.00000E+00         0.00000E+00        -0.22634E+04
 
   -0.68176E+04         0.18821E+04         0.00000E+00
    0.18821E+04        -0.73809E+03         0.00000E+00
    0.00000E+00         0.00000E+00        -0.22667E+04
 
   -0.66393E+04         0.20891E+04         0.00000E+00
    0.20891E+04        -0.90661E+03         0.00000E+00
    0.00000E+00         0.00000E+00        -0.22638E+04
 
   -0.64276E+04         0.22865E+04         0.00000E+00
    0.22865E+04        -0.10876E+04         0.00000E+00
    0.00000E+00         0.00000E+00        -0.22546E+04
 
   -0.61850E+04         0.24730E+04         0.00000E+00
    0.24730E+04        -0.12785E+04         0.00000E+00
    0.00000E+00         0.00000E+00        -0.22391E+04
 
   -0.59141E+04         0.26479E+04         0.00000E+00
    0.26479E+04        -0.14769E+04         0.00000E+00
    0.00000E+00         0.00000E+00        -0.22173E+04
 
   -0.56171E+04         0.28115E+04         0.00000E+00
    0.28115E+04        -0.16803E+04         0.00000E+00
    0.00000E+00         0.00000E+00        -0.21892E+04
 
   -0.52958E+04         0.29643E+04         0.00000E+00
    0.29643E+04        -0.18870E+04         0.00000E+00
    0.00000E+00         0.00000E+00        -0.21548E+04
 
   -0.49515E+04         0.31072E+04         0.00000E+00
    0.31072E+04        -0.20954E+04         0.00000E+00
    0.00000E+00         0.00000E+00        -0.21141E+04
 
   -0.45848E+04         0.32417E+04         0.00000E+00
    0.32417E+04        -0.23046E+04         0.00000E+00
    0.00000E+00         0.00000E+00        -0.20668E+04
 
   -0.41955E+04         0.33688E+04         0.00000E+00
    0.33688E+04        -0.25143E+04         0.00000E+00
    0.00000E+00         0.00000E+00        -0.20129E+04
 
   -0.37828E+04         0.34899E+04         0.00000E+00
    0.34899E+04        -0.27246E+04         0.00000E+00
    0.00000E+00         0.00000E+00        -0.19522E+04
 
   -0.33451E+04         0.36056E+04         0.00000E+00
    0.36056E+04        -0.29363E+04         0.00000E+00
    0.00000E+00         0.00000E+00        -0.18844E+04
 
   -0.28805E+04         0.37165E+04         0.00000E+00
    0.37165E+04        -0.31504E+04         0.00000E+00
    0.00000E+00         0.00000E+00        -0.18093E+04
 
   -0.23863E+04         0.38222E+04         0.00000E+00
    0.38222E+04        -0.33684E+04         0.00000E+00
    0.00000E+00         0.00000E+00        -0.17264E+04
 
   -0.18598E+04         0.39218E+04         0.00000E+00
    0.39218E+04        -0.35921E+04         0.00000E+00
    0.00000E+00         0.00000E+00        -0.16356E+04
 
   -0.66317E+04         0.66064E+02         0.00000E+00
    0.66064E+02        -0.24026E+01         0.00000E+00
    0.00000E+00         0.00000E+00        -0.19902E+04
 
   -0.67547E+04         0.21109E+03         0.00000E+00
    0.21109E+03        -0.15160E+02         0.00000E+00
    0.00000E+00         0.00000E+00        -0.20309E+04
 
   -0.68504E+04         0.37155E+03         0.00000E+00
    0.37155E+03        -0.41591E+02         0.00000E+00
    0.00000E+00         0.00000E+00        -0.20676E+04
 
   -0.69169E+04         0.54553E+03         0.00000E+00
    0.54553E+03        -0.82789E+02         0.00000E+00
    0.00000E+00         0.00000E+00        -0.20999E+04
 
   -0.69521E+04         0.73078E+03         0.00000E+00
    0.73078E+03        -0.13982E+03         0.00000E+00
    0.00000E+00         0.00000E+00        -0.21276E+04
 
   -0.69542E+04         0.92472E+03         0.00000E+00
    0.92472E+03        -0.21352E+03         0.00000E+00
    0.00000E+00         0.00000E+00        -0.21503E+04
 
   -0.69218E+04         0.11244E+04         0.00000E+00
    0.11244E+04        -0.30436E+03         0.00000E+00
    0.00000E+00         0.00000E+00        -0.21678E+04
 
   -0.68542E+04         0.13269E+04         0.00000E+00
    0.13269E+04        -0.41228E+03         0.00000E+00
    0.00000E+00         0.00000E+00        -0.21799E+04
 
   -0.67513E+04         0.15291E+04         0.00000E+00
    0.15291E+04        -0.53668E+03         0.00000E+00
    0.00000E+00         0.00000E+00        -0.21864E+04
 
   -0.66139E+04         0.17282E+04         0.00000E+00
    0.17282E+04        -0.67643E+03         0.00000E+00
    0.00000E+00         0.00000E+00        -0.21871E+04
 
   -0.64431E+04         0.19218E+04         0.00000E+00
    0.19218E+04        -0.82996E+03         0.00000E+00
    0.00000E+00         0.00000E+00        -0.21819E+04
 
   -0.62405E+04         0.21082E+04         0.00000E+00
    0.21082E+04        -0.99541E+03         0.00000E+00
    0.00000E+00         0.00000E+00        -0.21708E+04
 
   -0.60081E+04         0.22859E+04         0.00000E+00
    0.22859E+04        -0.11708E+04         0.00000E+00
    0.00000E+00         0.00000E+00        -0.21536E+04
 
   -0.57476E+04         0.24542E+04         0.00000E+00
    0.24542E+04        -0.13540E+04         0.00000E+00
    0.00000E+00         0.00000E+00        -0.21305E+04
 
   -0.54609E+04         0.26131E+04         0.00000E+00
    0.26131E+04        -0.15433E+04         0.00000E+00
    0.00000E+00         0.00000E+00        -0.21013E+04
 
   -0.51492E+04         0.27628E+04         0.00000E+00
    0.27628E+04        -0.17371E+04         0.00000E+00
    0.00000E+00         0.00000E+00        -0.20659E+04
 
   -0.48137E+04         0.29037E+04         0.00000E+00
    0.29037E+04        -0.19341E+04         0.00000E+00
    0.00000E+00         0.00000E+00        -0.20243E+04
 
   -0.44547E+04         0.30368E+04         0.00000E+00
    0.30368E+04        -0.21335E+04         0.00000E+00
    0.00000E+00         0.00000E+00        -0.19764E+04
 
   -0.40721E+04         0.31627E+04         0.00000E+00
    0.31627E+04        -0.23350E+04         0.00000E+00
    0.00000E+00         0.00000E+00        -0.19221E+04
 
   -0.36654E+04         0.32821E+04         0.00000E+00
    0.32821E+04        -0.25386E+04         0.00000E+00
    0.00000E+00         0.00000E+00        -0.18612E+04
 
   -0.32333E+04         0.33954E+04         0.00000E+00
    0.33954E+04        -0.27448E+04         0.00000E+00
    0.00000E+00         0.00000E+00        -0.17934E+04
 
   -0.27742E+04         0.35027E+04         0.00000E+00
    0.35027E+04        -0.29544E+04         0.00000E+00
    0.00000E+00         0.00000E+00        -0.17186E+04
 
   -0.22864E+04         0.36034E+04         0.00000E+00
    0.36034E+04        -0.31686E+04         0.00000E+00
    0.00000E+00         0.00000E+00        -0.16365E+04
 
   -0.17676E+04         0.36965E+04         0.00000E+00
    0.36965E+04        -0.33886E+04         0.00000E+00
    0.00000E+00         0.00000E+00        -0.15469E+04
 
   -0.65012E+04         0.60059E+02         0.00000E+00
    0.60059E+02        -0.22221E+01         0.00000E+00
    0.00000E+00         0.00000E+00        -0.19510E+04
 
   -0.66083E+04         0.19239E+03         0.00000E+00
    0.19239E+03        -0.14055E+02         0.00000E+00
    0.00000E+00         0.00000E+00        -0.19867E+04
 
   -0.66901E+04         0.33916E+03         0.00000E+00
    0.33916E+03        -0.38588E+02         0.00000E+00
    0.00000E+00         0.00000E+00        -0.20186E+04
 
   -0.67447E+04         0.49845E+03         0.00000E+00
    0.49845E+03        -0.76754E+02         0.00000E+00
    0.00000E+00         0.00000E+00        -0.20464E+04
 
   -0.67702E+04         0.66815E+03         0.00000E+00
    0.66815E+03        -0.12940E+03         0.00000E+00
    0.00000E+00         0.00000E+00        -0.20699E+04
 
   -0.67652E+04         0.84595E+03         0.00000E+00
    0.84595E+03        -0.19719E+03         0.00000E+00
    0.00000E+00         0.00000E+00        -0.20887E+04
 
   -0.67285E+04         0.10293E+04         0.00000E+00
    0.10293E+04        -0.28045E+03         0.00000E+00
    0.00000E+00         0.00000E+00        -0.21027E+04
 
   -0.66594E+04         0.12158E+04         0.00000E+00
    0.12158E+04        -0.37915E+03         0.00000E+00
    0.00000E+00         0.00000E+00        -0.21116E+04
 
   -0.65578E+04         0.14027E+04         0.00000E+00
    0.14027E+04        -0.49282E+03         0.00000E+00
    0.00000E+00         0.00000E+00        -0.21152E+04
 
   -0.64240E+04         0.15877E+04         0.00000E+00
    0.15877E+04        -0.62059E+03         0.00000E+00
    0.00000E+00         0.00000E+00        -0.21134E+04
 
   -0.62588E+04         0.17688E+04         0.00000E+00
    0.17688E+04        -0.76124E+03         0.00000E+00
    0.00000E+00         0.00000E+00        -0.21060E+04
 
   -0.60633E+04         0.19444E+04         0.00000E+00
    0.19444E+04        -0.91331E+03         0.00000E+00
    0.00000E+00         0.00000E+00        -0.20930E+04
 
   -0.58390E+04         0.21131E+04         0.00000E+00
    0.21131E+04        -0.10752E+04         0.00000E+00
    0.00000E+00         0.00000E+00        -0.20743E+04
 
   -0.55871E+04         0.22743E+04         0.00000E+00
    0.22743E+04        -0.12454E+04         0.00000E+00
    0.00000E+00         0.00000E+00        -0.20498E+04
 
   -0.53091E+04         0.24275E+04         0.00000E+00
    0.24275E+04        -0.14223E+04         0.00000E+00
    0.00000E+00         0.00000E+00        -0.20194E+04
 
   -0.50059E+04         0.25728E+04         0.00000E+00
    0.25728E+04        -0.16046E+04         0.00000E+00
    0.00000E+00         0.00000E+00        -0.19831E+04
 
   -0.46782E+04         0.27104E+04         0.00000E+00
    0.27104E+04        -0.17913E+04         0.00000E+00
    0.00000E+00         0.00000E+00        -0.19409E+04
 
   -0.43266E+04         0.28406E+04         0.00000E+00
    0.28406E+04        -0.19817E+04         0.00000E+00
    0.00000E+00         0.00000E+00        -0.18925E+04
 
   -0.39508E+04         0.29638E+04         0.00000E+00
    0.29638E+04        -0.21755E+04         0.00000E+00
    0.00000E+00         0.00000E+00        -0.18379E+04
 
   -0.35505E+04         0.30803E+04         0.00000E+00
    0.30803E+04        -0.23726E+04         0.00000E+00
    0.00000E+00         0.00000E+00        -0.17769E+04
 
   -0.31248E+04         0.31902E+04         0.00000E+00
    0.31902E+04        -0.25733E+04         0.00000E+00
    0.00000E+00         0.00000E+00        -0.17094E+04
 
   -0.26725E+04         0.32932E+04         0.00000E+00
    0.32932E+04        -0.27782E+04         0.00000E+00
    0.00000E+00         0.00000E+00        -0.16352E+04
 
   -0.21923E+04         0.33886E+04         0.00000E+00
    0.33886E+04        -0.29881E+04         0.00000E+00
    0.00000E+00         0.00000E+00        -0.15541E+04
 
   -0.16825E+04         0.34752E+04         0.00000E+00
    0.34752E+04        -0.32039E+04         0.00000E+00
    0.00000E+00         0.00000E+00        -0.14659E+04
 
   -0.63825E+04         0.54530E+02         0.00000E+00
    0.54530E+02        -0.20362E+01         0.00000E+00
    0.00000E+00         0.00000E+00        -0.19154E+04
 
   -0.64747E+04         0.17510E+03         0.00000E+00
    0.17510E+03        -0.12921E+02         0.00000E+00
    0.00000E+00         0.00000E+00        -0.19463E+04
 
   -0.65435E+04         0.30921E+03         0.00000E+00
    0.30921E+03        -0.35542E+02         0.00000E+00
    0.00000E+00         0.00000E+00        -0.19737E+04
 
   -0.65869E+04         0.45498E+03         0.00000E+00
    0.45498E+03        -0.70742E+02         0.00000E+00
    0.00000E+00         0.00000E+00        -0.19973E+04
 
   -0.66035E+04         0.61047E+03         0.00000E+00
    0.61047E+03        -0.11925E+03         0.00000E+00
    0.00000E+00         0.00000E+00        -0.20168E+04
 
   -0.65918E+04         0.77359E+03         0.00000E+00
    0.77359E+03        -0.18159E+03         0.00000E+00
    0.00000E+00         0.00000E+00        -0.20320E+04
 
   -0.65508E+04         0.94216E+03         0.00000E+00
    0.94216E+03        -0.25807E+03         0.00000E+00
    0.00000E+00         0.00000E+00        -0.20427E+04
 
   -0.64797E+04         0.11140E+04         0.00000E+00
    0.11140E+04        -0.34864E+03         0.00000E+00
    0.00000E+00         0.00000E+00        -0.20485E+04
 
   -0.63784E+04         0.12869E+04         0.00000E+00
    0.12869E+04        -0.45296E+03         0.00000E+00
    0.00000E+00         0.00000E+00        -0.20494E+04
 
   -0.62470E+04         0.14588E+04         0.00000E+00
    0.14588E+04        -0.57036E+03         0.00000E+00
    0.00000E+00         0.00000E+00        -0.20452E+04
 
   -0.60859E+04         0.16281E+04         0.00000E+00
    0.16281E+04        -0.69990E+03         0.00000E+00
    0.00000E+00         0.00000E+00        -0.20357E+04
 
   -0.58960E+04         0.17931E+04         0.00000E+00
    0.17931E+04        -0.84044E+03         0.00000E+00
    0.00000E+00         0.00000E+00        -0.20209E+04
 
   -0.56781E+04         0.19528E+04         0.00000E+00
    0.19528E+04        -0.99073E+03         0.00000E+00
    0.00000E+00         0.00000E+00        -0.20007E+04
 
   -0.54334E+04         0.21063E+04         0.00000E+00
    0.21063E+04        -0.11495E+04         0.00000E+00
    0.00000E+00         0.00000E+00        -0.19749E+04
 
   -0.51627E+04         0.22531E+04         0.00000E+00
    0.22531E+04        -0.13155E+04         0.00000E+00
    0.00000E+00         0.00000E+00        -0.19435E+04
 
   -0.48669E+04         0.23931E+04         0.00000E+00
    0.23931E+04        -0.14877E+04         0.00000E+00
    0.00000E+00         0.00000E+00        -0.19064E+04
 
   -0.45465E+04         0.25261E+04         0.00000E+00
    0.25261E+04        -0.16652E+04         0.00000E+00
    0.00000E+00         0.00000E+00        -0.18635E+04
 
   -0.42018E+04         0.26523E+04         0.00000E+00
    0.26523E+04        -0.18474E+04         0.00000E+00
    0.00000E+00         0.00000E+00        -0.18148E+04
 
   -0.38328E+04         0.27718E+04         0.00000E+00
    0.27718E+04        -0.20340E+04         0.00000E+00
    0.00000E+00         0.00000E+00        -0.17600E+04
 
   -0.34393E+04         0.28844E+04         0.00000E+00
    0.28844E+04        -0.22248E+04         0.00000E+00
    0.00000E+00         0.00000E+00        -0.16992E+04
 
   -0.30205E+04         0.29901E+04         0.00000E+00
    0.29901E+04        -0.24201E+04         0.00000E+00
    0.00000E+00         0.00000E+00        -0.16322E+04
 
   -0.25758E+04         0.30883E+04         0.00000E+00
    0.30883E+04        -0.26201E+04         0.00000E+00
    0.00000E+00         0.00000E+00        -0.15588E+04
 
   -0.21041E+04         0.31782E+04         0.00000E+00
    0.31782E+04        -0.28254E+04         0.00000E+00
    0.00000E+00         0.00000E+00        -0.14788E+04
 
   -0.16043E+04         0.32585E+04         0.00000E+00
    0.32585E+04        -0.30366E+04         0.00000E+00
    0.00000E+00         0.00000E+00        -0.13923E+04
 
   -0.62746E+04         0.49474E+02         0.00000E+00
    0.49474E+02        -0.18563E+01         0.00000E+00
    0.00000E+00         0.00000E+00        -0.18829E+04
 
   -0.63529E+04         0.15921E+03         0.00000E+00
    0.15921E+03        -0.11823E+02         0.00000E+00
    0.00000E+00         0.00000E+00        -0.19094E+04
 
   -0.64094E+04         0.28162E+03         0.00000E+00
    0.28162E+03        -0.32607E+02         0.00000E+00
    0.00000E+00         0.00000E+00        -0.19326E+04
 
   -0.64425E+04         0.41494E+03         0.00000E+00
    0.41494E+03        -0.65005E+02         0.00000E+00
    0.00000E+00         0.00000E+00        -0.19523E+04
 
   -0.64507E+04         0.55737E+03         0.00000E+00
    0.55737E+03        -0.10967E+03         0.00000E+00
    0.00000E+00         0.00000E+00        -0.19681E+04
 
   -0.64325E+04         0.70703E+03         0.00000E+00
    0.70703E+03        -0.16708E+03         0.00000E+00
    0.00000E+00         0.00000E+00        -0.19799E+04
 
   -0.63872E+04         0.86202E+03         0.00000E+00
    0.86202E+03        -0.23749E+03         0.00000E+00
    0.00000E+00         0.00000E+00        -0.19874E+04
 
   -0.63138E+04         0.10204E+04         0.00000E+00
    0.10204E+04        -0.32091E+03         0.00000E+00
    0.00000E+00         0.00000E+00        -0.19904E+04
 
   -0.62121E+04         0.11803E+04         0.00000E+00
    0.11803E+04        -0.41708E+03         0.00000E+00
    0.00000E+00         0.00000E+00        -0.19888E+04
 
   -0.60821E+04         0.13400E+04         0.00000E+00
    0.13400E+04        -0.52550E+03         0.00000E+00
    0.00000E+00         0.00000E+00        -0.19823E+04
 
   -0.59240E+04         0.14979E+04         0.00000E+00
    0.14979E+04        -0.64544E+03         0.00000E+00
    0.00000E+00         0.00000E+00        -0.19708E+04
 
   -0.57384E+04         0.16527E+04         0.00000E+00
    0.16527E+04        -0.77600E+03         0.00000E+00
    0.00000E+00         0.00000E+00        -0.19543E+04
 
   -0.55257E+04         0.18032E+04         0.00000E+00
    0.18032E+04        -0.91621E+03         0.00000E+00
    0.00000E+00         0.00000E+00        -0.19326E+04
 
   -0.52869E+04         0.19487E+04         0.00000E+00
    0.19487E+04        -0.10650E+04         0.00000E+00
    0.00000E+00         0.00000E+00        -0.19056E+04
 
   -0.50225E+04         0.20886E+04         0.00000E+00
    0.20886E+04        -0.12215E+04         0.00000E+00
    0.00000E+00         0.00000E+00        -0.18732E+04
 
   -0.47332E+04         0.22225E+04         0.00000E+00
    0.22225E+04        -0.13847E+04         0.00000E+00
    0.00000E+00         0.00000E+00        -0.18354E+04
 
   -0.44193E+04         0.23502E+04         0.00000E+00
    0.23502E+04        -0.15540E+04         0.00000E+00
    0.00000E+00         0.00000E+00        -0.17920E+04
 
   -0.40813E+04         0.24715E+04         0.00000E+00
    0.24715E+04        -0.17287E+04         0.00000E+00
    0.00000E+00         0.00000E+00        -0.17430E+04
 
   -0.37190E+04         0.25863E+04         0.00000E+00
    0.25863E+04        -0.19086E+04         0.00000E+00
    0.00000E+00         0.00000E+00        -0.16883E+04
 
   -0.33324E+04         0.26943E+04         0.00000E+00
    0.26943E+04        -0.20935E+04         0.00000E+00
    0.00000E+00         0.00000E+00        -0.16277E+04
 
   -0.29210E+04         0.27951E+04         0.00000E+00
    0.27951E+04        -0.22833E+04         0.00000E+00
    0.00000E+00         0.00000E+00        -0.15613E+04
 
   -0.24843E+04         0.28882E+04         0.00000E+00
    0.28882E+04        -0.24784E+04         0.00000E+00
    0.00000E+00         0.00000E+00        -0.14888E+04
 
   -0.20217E+04         0.29724E+04         0.00000E+00
    0.29724E+04        -0.26789E+04         0.00000E+00
    0.00000E+00         0.00000E+00        -0.14102E+04
 
   -0.15326E+04         0.30466E+04         0.00000E+00
    0.30466E+04        -0.28853E+04         0.00000E+00
    0.00000E+00         0.00000E+00        -0.13254E+04
 
   -0.61767E+04         0.44868E+02         0.00000E+00
    0.44868E+02        -0.16894E+01         0.00000E+00
    0.00000E+00         0.00000E+00        -0.18535E+04
 
   -0.62418E+04         0.14466E+03         0.00000E+00
    0.14466E+03        -0.10802E+02         0.00000E+00
    0.00000E+00         0.00000E+00        -0.18758E+04
 
   -0.62870E+04         0.25627E+03         0.00000E+00
    0.25627E+03        -0.29879E+02         0.00000E+00
    0.00000E+00         0.00000E+00        -0.18951E+04
 
   -0.63104E+04         0.37808E+03         0.00000E+00
    0.37808E+03        -0.59694E+02         0.00000E+00
    0.00000E+00         0.00000E+00        -0.19110E+04
 
   -0.63106E+04         0.50844E+03         0.00000E+00
    0.50844E+03        -0.10087E+03         0.00000E+00
    0.00000E+00         0.00000E+00        -0.19234E+04
 
   -0.62863E+04         0.64568E+03         0.00000E+00
    0.64568E+03        -0.15384E+03         0.00000E+00
    0.00000E+00         0.00000E+00        -0.19320E+04
 
   -0.62366E+04         0.78810E+03         0.00000E+00
    0.78810E+03        -0.21887E+03         0.00000E+00
    0.00000E+00         0.00000E+00        -0.19366E+04
 
   -0.61607E+04         0.93401E+03         0.00000E+00
    0.93401E+03        -0.29601E+03         0.00000E+00
    0.00000E+00         0.00000E+00        -0.19370E+04
 
   -0.60581E+04         0.10818E+04         0.00000E+00
    0.10818E+04        -0.38507E+03         0.00000E+00
    0.00000E+00         0.00000E+00        -0.19330E+04
 
   -0.59288E+04         0.12299E+04         0.00000E+00
    0.12299E+04        -0.48569E+03         0.00000E+00
    0.00000E+00         0.00000E+00        -0.19244E+04
 
   -0.57728E+04         0.13769E+04         0.00000E+00
    0.13769E+04        -0.59731E+03         0.00000E+00
    0.00000E+00         0.00000E+00        -0.19110E+04
 
   -0.55904E+04         0.15216E+04         0.00000E+00
    0.15216E+04        -0.71923E+03         0.00000E+00
    0.00000E+00         0.00000E+00        -0.18929E+04
 
   -0.53819E+04         0.16630E+04         0.00000E+00
    0.16630E+04        -0.85069E+03         0.00000E+00
    0.00000E+00         0.00000E+00        -0.18698E+04
 
   -0.51480E+04         0.18003E+04         0.00000E+00
    0.18003E+04        -0.99086E+03         0.00000E+00
    0.00000E+00         0.00000E+00        -0.18417E+04
 
   -0.48890E+04         0.19328E+04         0.00000E+00
    0.19328E+04        -0.11390E+04         0.00000E+00
    0.00000E+00         0.00000E+00        -0.18084E+04
 
   -0.46055E+04         0.20601E+04         0.00000E+00
    0.20601E+04        -0.12942E+04         0.00000E+00
    0.00000E+00         0.00000E+00        -0.17699E+04
 
   -0.42977E+04         0.21818E+04         0.00000E+00
    0.21818E+04        -0.14561E+04         0.00000E+00
    0.00000E+00         0.00000E+00        -0.17261E+04
 
   -0.39659E+04         0.22975E+04         0.00000E+00
    0.22975E+04        -0.16240E+04         0.00000E+00
    0.00000E+00         0.00000E+00        -0.16770E+04
 
   -0.36102E+04         0.24070E+04         0.00000E+00
    0.24070E+04        -0.17976E+04         0.00000E+00
    0.00000E+00         0.00000E+00        -0.16224E+04
 
   -0.32305E+04         0.25097E+04         0.00000E+00
    0.25097E+04        -0.19768E+04         0.00000E+00
    0.00000E+00         0.00000E+00        -0.15622E+04
 
   -0.28266E+04         0.26053E+04         0.00000E+00
    0.26053E+04        -0.21614E+04         0.00000E+00
    0.00000E+00         0.00000E+00        -0.14964E+04
 
   -0.23983E+04         0.26928E+04         0.00000E+00
    0.26928E+04        -0.23516E+04         0.00000E+00
    0.00000E+00         0.00000E+00        -0.14250E+04
 
   -0.19452E+04         0.27714E+04         0.00000E+00
    0.27714E+04        -0.25473E+04         0.00000E+00
    0.00000E+00         0.00000E+00        -0.13477E+04
 
   -0.14671E+04         0.28397E+04         0.00000E+00
    0.28397E+04        -0.27487E+04         0.00000E+00
    0.00000E+00         0.00000E+00        -0.12647E+04
 
   -0.60878E+04         0.40671E+02         0.00000E+00
    0.40671E+02        -0.15390E+01         0.00000E+00
    0.00000E+00         0.00000E+00        -0.18268E+04
 
   -0.61408E+04         0.13132E+03         0.00000E+00
    0.13132E+03        -0.98779E+01         0.00000E+00
    0.00000E+00         0.00000E+00        -0.18452E+04
 
   -0.61753E+04         0.23295E+03         0.00000E+00
    0.23295E+03        -0.27408E+02         0.00000E+00
    0.00000E+00         0.00000E+00        -0.18608E+04
 
   -0.61896E+04         0.34410E+03         0.00000E+00
    0.34410E+03        -0.54889E+02         0.00000E+00
    0.00000E+00         0.00000E+00        -0.18733E+04
 
   -0.61823E+04         0.46326E+03         0.00000E+00
    0.46326E+03        -0.92925E+02         0.00000E+00
    0.00000E+00         0.00000E+00        -0.18826E+04
 
   -0.61521E+04         0.58895E+03         0.00000E+00
    0.58895E+03        -0.14195E+03         0.00000E+00
    0.00000E+00         0.00000E+00        -0.18882E+04
 
   -0.60981E+04         0.71966E+03         0.00000E+00
    0.71966E+03        -0.20224E+03         0.00000E+00
    0.00000E+00         0.00000E+00        -0.18901E+04
 
   -0.60195E+04         0.85390E+03         0.00000E+00
    0.85390E+03        -0.27386E+03         0.00000E+00
    0.00000E+00         0.00000E+00        -0.18880E+04
 
   -0.59157E+04         0.99022E+03         0.00000E+00
    0.99022E+03        -0.35673E+03         0.00000E+00
    0.00000E+00         0.00000E+00        -0.18817E+04
 
   -0.57865E+04         0.11273E+04         0.00000E+00
    0.11273E+04        -0.45058E+03         0.00000E+00
    0.00000E+00         0.00000E+00        -0.18711E+04
 
   -0.56319E+04         0.12638E+04         0.00000E+00
    0.12638E+04        -0.55499E+03         0.00000E+00
    0.00000E+00         0.00000E+00        -0.18561E+04
 
   -0.54519E+04         0.13987E+04         0.00000E+00
    0.13987E+04        -0.66943E+03         0.00000E+00
    0.00000E+00         0.00000E+00        -0.18364E+04
 
   -0.52469E+04         0.15310E+04         0.00000E+00
    0.15310E+04        -0.79328E+03         0.00000E+00
    0.00000E+00         0.00000E+00        -0.18120E+04
 
   -0.50170E+04         0.16599E+04         0.00000E+00
    0.16599E+04        -0.92589E+03         0.00000E+00
    0.00000E+00         0.00000E+00        -0.17829E+04
 
   -0.47627E+04         0.17848E+04         0.00000E+00
    0.17848E+04        -0.10666E+04         0.00000E+00
    0.00000E+00         0.00000E+00        -0.17488E+04
 
   -0.44843E+04         0.19050E+04         0.00000E+00
    0.19050E+04        -0.12148E+04         0.00000E+00
    0.00000E+00         0.00000E+00        -0.17098E+04
 
   -0.41821E+04         0.20201E+04         0.00000E+00
    0.20201E+04        -0.13700E+04         0.00000E+00
    0.00000E+00         0.00000E+00        -0.16656E+04
 
   -0.38562E+04         0.21297E+04         0.00000E+00
    0.21297E+04        -0.15318E+04         0.00000E+00
    0.00000E+00         0.00000E+00        -0.16164E+04
 
   -0.35069E+04         0.22333E+04         0.00000E+00
    0.22333E+04        -0.16996E+04         0.00000E+00
    0.00000E+00         0.00000E+00        -0.15620E+04
 
   -0.31340E+04         0.23304E+04         0.00000E+00
    0.23304E+04        -0.18735E+04         0.00000E+00
    0.00000E+00         0.00000E+00        -0.15023E+04
 
   -0.27377E+04         0.24204E+04         0.00000E+00
    0.24204E+04        -0.20531E+04         0.00000E+00
    0.00000E+00         0.00000E+00        -0.14372E+04
 
   -0.23179E+04         0.25024E+04         0.00000E+00
    0.25024E+04        -0.22383E+04         0.00000E+00
    0.00000E+00         0.00000E+00        -0.13669E+04
 
   -0.18744E+04         0.25753E+04         0.00000E+00
    0.25753E+04        -0.24293E+04         0.00000E+00
    0.00000E+00         0.00000E+00        -0.12911E+04
 
   -0.14074E+04         0.26380E+04         0.00000E+00
    0.26380E+04        -0.26258E+04         0.00000E+00
    0.00000E+00         0.00000E+00        -0.12100E+04
 
   -0.60072E+04         0.36839E+02         0.00000E+00
    0.36839E+02        -0.14067E+01         0.00000E+00
    0.00000E+00         0.00000E+00        -0.18026E+04
 
   -0.60489E+04         0.11908E+03         0.00000E+00
    0.11908E+03        -0.90605E+01         0.00000E+00
    0.00000E+00         0.00000E+00        -0.18174E+04
 
   -0.60736E+04         0.21147E+03         0.00000E+00
    0.21147E+03        -0.25215E+02         0.00000E+00
    0.00000E+00         0.00000E+00        -0.18296E+04
 
   -0.60794E+04         0.31269E+03         0.00000E+00
    0.31269E+03        -0.50622E+02         0.00000E+00
    0.00000E+00         0.00000E+00        -0.18390E+04
 
   -0.60651E+04         0.42142E+03         0.00000E+00
    0.42142E+03        -0.85877E+02         0.00000E+00
    0.00000E+00         0.00000E+00        -0.18453E+04
 
   -0.60293E+04         0.53631E+03         0.00000E+00
    0.53631E+03        -0.13142E+03         0.00000E+00
    0.00000E+00         0.00000E+00        -0.18482E+04
 
   -0.59710E+04         0.65603E+03         0.00000E+00
    0.65603E+03        -0.18754E+03         0.00000E+00
    0.00000E+00         0.00000E+00        -0.18476E+04
 
   -0.58895E+04         0.77926E+03         0.00000E+00
    0.77926E+03        -0.25436E+03         0.00000E+00
    0.00000E+00         0.00000E+00        -0.18432E+04
 
   -0.57842E+04         0.90473E+03         0.00000E+00
    0.90473E+03        -0.33184E+03         0.00000E+00
    0.00000E+00         0.00000E+00        -0.18348E+04
 
   -0.56548E+04         0.10312E+04         0.00000E+00
    0.10312E+04        -0.41981E+03         0.00000E+00
    0.00000E+00         0.00000E+00        -0.18224E+04
 
   -0.55010E+04         0.11576E+04         0.00000E+00
    0.11576E+04        -0.51797E+03         0.00000E+00
    0.00000E+00         0.00000E+00        -0.18057E+04
 
   -0.53229E+04         0.12828E+04         0.00000E+00
    0.12828E+04        -0.62591E+03         0.00000E+00
    0.00000E+00         0.00000E+00        -0.17846E+04
 
   -0.51206E+04         0.14061E+04         0.00000E+00
    0.14061E+04        -0.74314E+03         0.00000E+00
    0.00000E+00         0.00000E+00        -0.17591E+04
 
   -0.48942E+04         0.15265E+04         0.00000E+00
    0.15265E+04        -0.86915E+03         0.00000E+00
    0.00000E+00         0.00000E+00        -0.17290E+04
 
   -0.46439E+04         0.16435E+04         0.00000E+00
    0.16435E+04        -0.10034E+04         0.00000E+00
    0.00000E+00         0.00000E+00        -0.16942E+04
 
   -0.43701E+04         0.17563E+04         0.00000E+00
    0.17563E+04        -0.11454E+04         0.00000E+00
    0.00000E+00         0.00000E+00        -0.16547E+04
 
   -0.40730E+04         0.18646E+04         0.00000E+00
    0.18646E+04        -0.12946E+04         0.00000E+00
    0.00000E+00         0.00000E+00        -0.16103E+04
 
   -0.37527E+04         0.19677E+04         0.00000E+00
    0.19677E+04        -0.14507E+04         0.00000E+00
    0.00000E+00         0.00000E+00        -0.15610E+04
 
   -0.34095E+04         0.20651E+04         0.00000E+00
    0.20651E+04        -0.16133E+04         0.00000E+00
    0.00000E+00         0.00000E+00        -0.15068E+04
 
   -0.30434E+04         0.21562E+04         0.00000E+00
    0.21562E+04        -0.17821E+04         0.00000E+00
    0.00000E+00         0.00000E+00        -0.14476E+04
 
   -0.26545E+04         0.22403E+04         0.00000E+00
    0.22403E+04        -0.19569E+04         0.00000E+00
    0.00000E+00         0.00000E+00        -0.13834E+04
 
   -0.22431E+04         0.23166E+04         0.00000E+00
    0.23166E+04        -0.21375E+04         0.00000E+00
    0.00000E+00         0.00000E+00        -0.13142E+04
 
   -0.18092E+04         0.23840E+04         0.00000E+00
    0.23840E+04        -0.23237E+04         0.00000E+00
    0.00000E+00         0.00000E+00        -0.12399E+04
 
   -0.13532E+04         0.24412E+04         0.00000E+00
    0.24412E+04        -0.25153E+04         0.00000E+00
    0.00000E+00         0.00000E+00        -0.11606E+04
 
   -0.59342E+04         0.33325E+02         0.00000E+00
    0.33325E+02        -0.12923E+01         0.00000E+00
    0.00000E+00         0.00000E+00        -0.17806E+04
 
   -0.59656E+04         0.10781E+03         0.00000E+00
    0.10781E+03        -0.83502E+01         0.00000E+00
    0.00000E+00         0.00000E+00        -0.17922E+04
 
   -0.59811E+04         0.19160E+03         0.00000E+00
    0.19160E+03        -0.23301E+02         0.00000E+00
    0.00000E+00         0.00000E+00        -0.18013E+04
 
   -0.59791E+04         0.28356E+03         0.00000E+00
    0.28356E+03        -0.46889E+02         0.00000E+00
    0.00000E+00         0.00000E+00        -0.18078E+04
 
   -0.59581E+04         0.38251E+03         0.00000E+00
    0.38251E+03        -0.79708E+02         0.00000E+00
    0.00000E+00         0.00000E+00        -0.18113E+04
 
   -0.59170E+04         0.48725E+03         0.00000E+00
    0.48725E+03        -0.12221E+03         0.00000E+00
    0.00000E+00         0.00000E+00        -0.18118E+04
 
   -0.58546E+04         0.59661E+03         0.00000E+00
    0.59661E+03        -0.17469E+03         0.00000E+00
    0.00000E+00         0.00000E+00        -0.18088E+04
 
   -0.57703E+04         0.70940E+03         0.00000E+00
    0.70940E+03        -0.23733E+03         0.00000E+00
    0.00000E+00         0.00000E+00        -0.18023E+04
 
   -0.56633E+04         0.82449E+03         0.00000E+00
    0.82449E+03        -0.31014E+03         0.00000E+00
    0.00000E+00         0.00000E+00        -0.17920E+04
 
   -0.55333E+04         0.94081E+03         0.00000E+00
    0.94081E+03        -0.39302E+03         0.00000E+00
    0.00000E+00         0.00000E+00        -0.17779E+04
 
   -0.53799E+04         0.10573E+04         0.00000E+00
    0.10573E+04        -0.48576E+03         0.00000E+00
    0.00000E+00         0.00000E+00        -0.17597E+04
 
   -0.52032E+04         0.11731E+04         0.00000E+00
    0.11731E+04        -0.58805E+03         0.00000E+00
    0.00000E+00         0.00000E+00        -0.17374E+04
 
   -0.50030E+04         0.12874E+04         0.00000E+00
    0.12874E+04        -0.69952E+03         0.00000E+00
    0.00000E+00         0.00000E+00        -0.17108E+04
 
   -0.47795E+04         0.13993E+04         0.00000E+00
    0.13993E+04        -0.81976E+03         0.00000E+00
    0.00000E+00         0.00000E+00        -0.16798E+04
 
   -0.45329E+04         0.15082E+04         0.00000E+00
    0.15082E+04        -0.94831E+03         0.00000E+00
    0.00000E+00         0.00000E+00        -0.16444E+04
 
   -0.42632E+04         0.16134E+04         0.00000E+00
    0.16134E+04        -0.10847E+04         0.00000E+00
    0.00000E+00         0.00000E+00        -0.16044E+04
 
   -0.39707E+04         0.17145E+04         0.00000E+00
    0.17145E+04        -0.12286E+04         0.00000E+00
    0.00000E+00         0.00000E+00        -0.15598E+04
 
   -0.36557E+04         0.18108E+04         0.00000E+00
    0.18108E+04        -0.13796E+04         0.00000E+00
    0.00000E+00         0.00000E+00        -0.15106E+04
 
   -0.33183E+04         0.19018E+04         0.00000E+00
    0.19018E+04        -0.15373E+04         0.00000E+00
    0.00000E+00         0.00000E+00        -0.14567E+04
 
   -0.29587E+04         0.19867E+04         0.00000E+00
    0.19867E+04        -0.17015E+04         0.00000E+00
    0.00000E+00         0.00000E+00        -0.13980E+04
 
   -0.25772E+04         0.20649E+04         0.00000E+00
    0.20649E+04        -0.18717E+04         0.00000E+00
    0.00000E+00         0.00000E+00        -0.13347E+04
 
   -0.21739E+04         0.21354E+04         0.00000E+00
    0.21354E+04        -0.20478E+04         0.00000E+00
    0.00000E+00         0.00000E+00        -0.12665E+04
 
   -0.17494E+04         0.21973E+04         0.00000E+00
    0.21973E+04        -0.22295E+04         0.00000E+00
    0.00000E+00         0.00000E+00        -0.11937E+04
 
   -0.13041E+04         0.22494E+04         0.00000E+00
    0.22494E+04        -0.24165E+04         0.00000E+00
    0.00000E+00         0.00000E+00        -0.11162E+04
 
   -0.58682E+04         0.30084E+02         0.00000E+00
    0.30084E+02        -0.11952E+01         0.00000E+00
    0.00000E+00         0.00000E+00        -0.17608E+04
 
   -0.58901E+04         0.97362E+02         0.00000E+00
    0.97362E+02        -0.77424E+01         0.00000E+00
    0.00000E+00         0.00000E+00        -0.17694E+04
 
   -0.58973E+04         0.17314E+03         0.00000E+00
    0.17314E+03        -0.21655E+02         0.00000E+00
    0.00000E+00         0.00000E+00        -0.17757E+04
 
   -0.58880E+04         0.25642E+03         0.00000E+00
    0.25642E+03        -0.43667E+02         0.00000E+00
    0.00000E+00         0.00000E+00        -0.17795E+04
 
   -0.58609E+04         0.34616E+03         0.00000E+00
    0.34616E+03        -0.74372E+02         0.00000E+00
    0.00000E+00         0.00000E+00        -0.17806E+04
 
   -0.58147E+04         0.44131E+03         0.00000E+00
    0.44131E+03        -0.11423E+03         0.00000E+00
    0.00000E+00         0.00000E+00        -0.17787E+04
 
   -0.57484E+04         0.54083E+03         0.00000E+00
    0.54083E+03        -0.16357E+03         0.00000E+00
    0.00000E+00         0.00000E+00        -0.17736E+04
 
   -0.56612E+04         0.64366E+03         0.00000E+00
    0.64366E+03        -0.22258E+03         0.00000E+00
    0.00000E+00         0.00000E+00        -0.17651E+04
 
   -0.55524E+04         0.74882E+03         0.00000E+00
    0.74882E+03        -0.29134E+03         0.00000E+00
    0.00000E+00         0.00000E+00        -0.17531E+04
 
   -0.54216E+04         0.85531E+03         0.00000E+00
    0.85531E+03        -0.36982E+03         0.00000E+00
    0.00000E+00         0.00000E+00        -0.17374E+04
 
   -0.52684E+04         0.96224E+03         0.00000E+00
    0.96224E+03        -0.45787E+03         0.00000E+00
    0.00000E+00         0.00000E+00        -0.17179E+04
 
   -0.50927E+04         0.10687E+04         0.00000E+00
    0.10687E+04        -0.55527E+03         0.00000E+00
    0.00000E+00         0.00000E+00        -0.16944E+04
 
   -0.48943E+04         0.11740E+04         0.00000E+00
    0.11740E+04        -0.66174E+03         0.00000E+00
    0.00000E+00         0.00000E+00        -0.16668E+04
 
   -0.46732E+04         0.12774E+04         0.00000E+00
    0.12774E+04        -0.77693E+03         0.00000E+00
    0.00000E+00         0.00000E+00        -0.16350E+04
 
   -0.44297E+04         0.13781E+04         0.00000E+00
    0.13781E+04        -0.90047E+03         0.00000E+00
    0.00000E+00         0.00000E+00        -0.15990E+04
 
   -0.41637E+04         0.14757E+04         0.00000E+00
    0.14757E+04        -0.10320E+04         0.00000E+00
    0.00000E+00         0.00000E+00        -0.15587E+04
 
   -0.38755E+04         0.15694E+04         0.00000E+00
    0.15694E+04        -0.11711E+04         0.00000E+00
    0.00000E+00         0.00000E+00        -0.15140E+04
 
   -0.35654E+04         0.16587E+04         0.00000E+00
    0.16587E+04        -0.13175E+04         0.00000E+00
    0.00000E+00         0.00000E+00        -0.14649E+04
 
   -0.32335E+04         0.17430E+04         0.00000E+00
    0.17430E+04        -0.14707E+04         0.00000E+00
    0.00000E+00         0.00000E+00        -0.14113E+04
 
   -0.28801E+04         0.18216E+04         0.00000E+00
    0.18216E+04        -0.16305E+04         0.00000E+00
    0.00000E+00         0.00000E+00        -0.13532E+04
 
   -0.25056E+04         0.18938E+04         0.00000E+00
    0.18938E+04        -0.17965E+04         0.00000E+00
    0.00000E+00         0.00000E+00        -0.12906E+04
 
   -0.21104E+04         0.19586E+04         0.00000E+00
    0.19586E+04        -0.19684E+04         0.00000E+00
    0.00000E+00         0.00000E+00        -0.12236E+04
 
   -0.16949E+04         0.20152E+04         0.00000E+00
    0.20152E+04        -0.21458E+04         0.00000E+00
    0.00000E+00         0.00000E+00        -0.11522E+04
 
   -0.12598E+04         0.20623E+04         0.00000E+00
    0.20623E+04        -0.23282E+04         0.00000E+00
    0.00000E+00         0.00000E+00        -0.10764E+04
 
   -0.58087E+04         0.27075E+02         0.00000E+00
    0.27075E+02        -0.11139E+01         0.00000E+00
    0.00000E+00         0.00000E+00        -0.17429E+04
 
   -0.58221E+04         0.87631E+02         0.00000E+00
    0.87631E+02        -0.72296E+01         0.00000E+00
    0.00000E+00         0.00000E+00        -0.17488E+04
 
   -0.58216E+04         0.15589E+03         0.00000E+00
    0.15589E+03        -0.20257E+02         0.00000E+00
    0.00000E+00         0.00000E+00        -0.17526E+04
 
   -0.58056E+04         0.23099E+03         0.00000E+00
    0.23099E+03        -0.40919E+02         0.00000E+00
    0.00000E+00         0.00000E+00        -0.17540E+04
 
   -0.57728E+04         0.31202E+03         0.00000E+00
    0.31202E+03        -0.69808E+02         0.00000E+00
    0.00000E+00         0.00000E+00        -0.17528E+04
 
   -0.57219E+04         0.39806E+03         0.00000E+00
    0.39806E+03        -0.10739E+03         0.00000E+00
    0.00000E+00         0.00000E+00        -0.17488E+04
 
   -0.56518E+04         0.48820E+03         0.00000E+00
    0.48820E+03        -0.15401E+03         0.00000E+00
    0.00000E+00         0.00000E+00        -0.17418E+04
 
   -0.55619E+04         0.58150E+03         0.00000E+00
    0.58150E+03        -0.20990E+03         0.00000E+00
    0.00000E+00         0.00000E+00        -0.17315E+04
 
   -0.54513E+04         0.67708E+03         0.00000E+00
    0.67708E+03        -0.27518E+03         0.00000E+00
    0.00000E+00         0.00000E+00        -0.17179E+04
 
   -0.53195E+04         0.77406E+03         0.00000E+00
    0.77406E+03        -0.34986E+03         0.00000E+00
    0.00000E+00         0.00000E+00        -0.17008E+04
 
   -0.51663E+04         0.87162E+03         0.00000E+00
    0.87162E+03        -0.43386E+03         0.00000E+00
    0.00000E+00         0.00000E+00        -0.16800E+04
 
   -0.49912E+04         0.96898E+03         0.00000E+00
    0.96898E+03        -0.52703E+03         0.00000E+00
    0.00000E+00         0.00000E+00        -0.16555E+04
 
   -0.47942E+04         0.10654E+04         0.00000E+00
    0.10654E+04        -0.62915E+03         0.00000E+00
    0.00000E+00         0.00000E+00        -0.16270E+04
 
   -0.45753E+04         0.11602E+04         0.00000E+00
    0.11602E+04        -0.73993E+03         0.00000E+00
    0.00000E+00         0.00000E+00        -0.15946E+04
 
   -0.43344E+04         0.12528E+04         0.00000E+00
    0.12528E+04        -0.85908E+03         0.00000E+00
    0.00000E+00         0.00000E+00        -0.15581E+04
 
   -0.40718E+04         0.13425E+04         0.00000E+00
    0.13425E+04        -0.98627E+03         0.00000E+00
    0.00000E+00         0.00000E+00        -0.15174E+04
 
   -0.37876E+04         0.14288E+04         0.00000E+00
    0.14288E+04        -0.11211E+04         0.00000E+00
    0.00000E+00         0.00000E+00        -0.14726E+04
 
   -0.34820E+04         0.15110E+04         0.00000E+00
    0.15110E+04        -0.12634E+04         0.00000E+00
    0.00000E+00         0.00000E+00        -0.14236E+04
 
   -0.31553E+04         0.15885E+04         0.00000E+00
    0.15885E+04        -0.14125E+04         0.00000E+00
    0.00000E+00         0.00000E+00        -0.13703E+04
 
   -0.28078E+04         0.16607E+04         0.00000E+00
    0.16607E+04        -0.15684E+04         0.00000E+00
    0.00000E+00         0.00000E+00        -0.13128E+04
 
   -0.24399E+04         0.17268E+04         0.00000E+00
    0.17268E+04        -0.17304E+04         0.00000E+00
    0.00000E+00         0.00000E+00        -0.12511E+04
 
   -0.20523E+04         0.17860E+04         0.00000E+00
    0.17860E+04        -0.18983E+04         0.00000E+00
    0.00000E+00         0.00000E+00        -0.11852E+04
 
   -0.16454E+04         0.18373E+04         0.00000E+00
    0.18373E+04        -0.20716E+04         0.00000E+00
    0.00000E+00         0.00000E+00        -0.11151E+04
 
   -0.12200E+04         0.18798E+04         0.00000E+00
    0.18798E+04        -0.22497E+04         0.00000E+00
    0.00000E+00         0.00000E+00        -0.10409E+04
 
   -0.57553E+04         0.24257E+02         0.00000E+00
    0.24257E+02        -0.10467E+01         0.00000E+00
    0.00000E+00         0.00000E+00        -0.17269E+04
 
   -0.57610E+04         0.78499E+02         0.00000E+00
    0.78499E+02        -0.68025E+01         0.00000E+00
    0.00000E+00         0.00000E+00        -0.17303E+04
 
   -0.57536E+04         0.13967E+03         0.00000E+00
    0.13967E+03        -0.19085E+02         0.00000E+00
    0.00000E+00         0.00000E+00        -0.17318E+04
 
   -0.57315E+04         0.20702E+03         0.00000E+00
    0.20702E+03        -0.38602E+02         0.00000E+00
    0.00000E+00         0.00000E+00        -0.17310E+04
 
   -0.56934E+04         0.27977E+03         0.00000E+00
    0.27977E+03        -0.65943E+02         0.00000E+00
    0.00000E+00         0.00000E+00        -0.17278E+04
 
   -0.56381E+04         0.35713E+03         0.00000E+00
    0.35713E+03        -0.10158E+03         0.00000E+00
    0.00000E+00         0.00000E+00        -0.17219E+04
 
   -0.55646E+04         0.43828E+03         0.00000E+00
    0.43828E+03        -0.14588E+03         0.00000E+00
    0.00000E+00         0.00000E+00        -0.17131E+04
 
   -0.54720E+04         0.52241E+03         0.00000E+00
    0.52241E+03        -0.19910E+03         0.00000E+00
    0.00000E+00         0.00000E+00        -0.17013E+04
 
   -0.53596E+04         0.60873E+03         0.00000E+00
    0.60873E+03        -0.26138E+03         0.00000E+00
    0.00000E+00         0.00000E+00        -0.16863E+04
 
   -0.52268E+04         0.69646E+03         0.00000E+00
    0.69646E+03        -0.33280E+03         0.00000E+00
    0.00000E+00         0.00000E+00        -0.16679E+04
 
   -0.50733E+04         0.78486E+03         0.00000E+00
    0.78486E+03        -0.41331E+03         0.00000E+00
    0.00000E+00         0.00000E+00        -0.16460E+04
 
   -0.48987E+04         0.87322E+03         0.00000E+00
    0.87322E+03        -0.50283E+03         0.00000E+00
    0.00000E+00         0.00000E+00        -0.16204E+04
 
   -0.47028E+04         0.96088E+03         0.00000E+00
    0.96088E+03        -0.60118E+03         0.00000E+00
    0.00000E+00         0.00000E+00        -0.15912E+04
 
   -0.44857E+04         0.10472E+04         0.00000E+00
    0.10472E+04        -0.70813E+03         0.00000E+00
    0.00000E+00         0.00000E+00        -0.15581E+04
 
   -0.42473E+04         0.11316E+04         0.00000E+00
    0.11316E+04        -0.82344E+03         0.00000E+00
    0.00000E+00         0.00000E+00        -0.15212E+04
 
   -0.39876E+04         0.12134E+04         0.00000E+00
    0.12134E+04        -0.94680E+03         0.00000E+00
    0.00000E+00         0.00000E+00        -0.14803E+04
 
   -0.37070E+04         0.12921E+04         0.00000E+00
    0.12921E+04        -0.10779E+04         0.00000E+00
    0.00000E+00         0.00000E+00        -0.14355E+04
 
   -0.34055E+04         0.13671E+04         0.00000E+00
    0.13671E+04        -0.12164E+04         0.00000E+00
    0.00000E+00         0.00000E+00        -0.13866E+04
 
   -0.30836E+04         0.14378E+04         0.00000E+00
    0.14378E+04        -0.13619E+04         0.00000E+00
    0.00000E+00         0.00000E+00        -0.13337E+04
 
   -0.27417E+04         0.15035E+04         0.00000E+00
    0.15035E+04        -0.15141E+04         0.00000E+00
    0.00000E+00         0.00000E+00        -0.12767E+04
 
   -0.23801E+04         0.15636E+04         0.00000E+00
    0.15636E+04        -0.16725E+04         0.00000E+00
    0.00000E+00         0.00000E+00        -0.12158E+04
 
   -0.19996E+04         0.16172E+04         0.00000E+00
    0.16172E+04        -0.18366E+04         0.00000E+00
    0.00000E+00         0.00000E+00        -0.11509E+04
 
   -0.16007E+04         0.16635E+04         0.00000E+00
    0.16635E+04        -0.20061E+04         0.00000E+00
    0.00000E+00         0.00000E+00        -0.10820E+04
 
   -0.11845E+04         0.17015E+04         0.00000E+00
    0.17015E+04        -0.21802E+04         0.00000E+00
    0.00000E+00         0.00000E+00        -0.10094E+04
 
   -0.57075E+04         0.21598E+02         0.00000E+00
    0.21598E+02        -0.99205E+00         0.00000E+00
    0.00000E+00         0.00000E+00        -0.17126E+04
 
   -0.57064E+04         0.69868E+02         0.00000E+00
    0.69868E+02        -0.64512E+01         0.00000E+00
    0.00000E+00         0.00000E+00        -0.17138E+04
 
   -0.56928E+04         0.12431E+03         0.00000E+00
    0.12431E+03        -0.18113E+02         0.00000E+00
    0.00000E+00         0.00000E+00        -0.17133E+04
 
   -0.56652E+04         0.18428E+03         0.00000E+00
    0.18428E+03        -0.36670E+02         0.00000E+00
    0.00000E+00         0.00000E+00        -0.17106E+04
 
   -0.56223E+04         0.24914E+03         0.00000E+00
    0.24914E+03        -0.62704E+02         0.00000E+00
    0.00000E+00         0.00000E+00        -0.17055E+04
 
   -0.55630E+04         0.31817E+03         0.00000E+00
    0.31817E+03        -0.96696E+02         0.00000E+00
    0.00000E+00         0.00000E+00        -0.16979E+04
 
   -0.54863E+04         0.39067E+03         0.00000E+00
    0.39067E+03        -0.13902E+03         0.00000E+00
    0.00000E+00         0.00000E+00        -0.16876E+04
 
   -0.53911E+04         0.46594E+03         0.00000E+00
    0.46594E+03        -0.18996E+03         0.00000E+00
    0.00000E+00         0.00000E+00        -0.16743E+04
 
   -0.52770E+04         0.54328E+03         0.00000E+00
    0.54328E+03        -0.24969E+03         0.00000E+00
    0.00000E+00         0.00000E+00        -0.16580E+04
 
   -0.51432E+04         0.62199E+03         0.00000E+00
    0.62199E+03        -0.31831E+03         0.00000E+00
    0.00000E+00         0.00000E+00        -0.16384E+04
 
   -0.49893E+04         0.70141E+03         0.00000E+00
    0.70141E+03        -0.39584E+03         0.00000E+00
    0.00000E+00         0.00000E+00        -0.16155E+04
 
   -0.48150E+04         0.78092E+03         0.00000E+00
    0.78092E+03        -0.48222E+03         0.00000E+00
    0.00000E+00         0.00000E+00        -0.15892E+04
 
   -0.46201E+04         0.85989E+03         0.00000E+00
    0.85989E+03        -0.57731E+03         0.00000E+00
    0.00000E+00         0.00000E+00        -0.15592E+04
 
   -0.44045E+04         0.93774E+03         0.00000E+00
    0.93774E+03        -0.68095E+03         0.00000E+00
    0.00000E+00         0.00000E+00        -0.15256E+04
 
   -0.41681E+04         0.10139E+04         0.00000E+00
    0.10139E+04        -0.79290E+03         0.00000E+00
    0.00000E+00         0.00000E+00        -0.14883E+04
 
   -0.39112E+04         0.10878E+04         0.00000E+00
    0.10878E+04        -0.91291E+03         0.00000E+00
    0.00000E+00         0.00000E+00        -0.14472E+04
 
   -0.36337E+04         0.11590E+04         0.00000E+00
    0.11590E+04        -0.10407E+04         0.00000E+00
    0.00000E+00         0.00000E+00        -0.14023E+04
 
   -0.33361E+04         0.12267E+04         0.00000E+00
    0.12267E+04        -0.11758E+04         0.00000E+00
    0.00000E+00         0.00000E+00        -0.13536E+04
 
   -0.30187E+04         0.12906E+04         0.00000E+00
    0.12906E+04        -0.13180E+04         0.00000E+00
    0.00000E+00         0.00000E+00        -0.13010E+04
 
   -0.26818E+04         0.13499E+04         0.00000E+00
    0.13499E+04        -0.14669E+04         0.00000E+00
    0.00000E+00         0.00000E+00        -0.12446E+04
 
   -0.23261E+04         0.14039E+04         0.00000E+00
    0.14039E+04        -0.16220E+04         0.00000E+00
    0.00000E+00         0.00000E+00        -0.11844E+04
 
   -0.19521E+04         0.14520E+04         0.00000E+00
    0.14520E+04        -0.17828E+04         0.00000E+00
    0.00000E+00         0.00000E+00        -0.11205E+04
 
   -0.15608E+04         0.14934E+04         0.00000E+00
    0.14934E+04        -0.19487E+04         0.00000E+00
    0.00000E+00         0.00000E+00        -0.10528E+04
 
   -0.11530E+04         0.15271E+04         0.00000E+00
    0.15271E+04        -0.21191E+04         0.00000E+00
    0.00000E+00         0.00000E+00        -0.98165E+03
 
   -0.56652E+04         0.19066E+02         0.00000E+00
    0.19066E+02        -0.94813E+00         0.00000E+00
    0.00000E+00         0.00000E+00        -0.16999E+04
 
   -0.56580E+04         0.61647E+02         0.00000E+00
    0.61647E+02        -0.61660E+01         0.00000E+00
    0.00000E+00         0.00000E+00        -0.16993E+04
 
   -0.56389E+04         0.10966E+03         0.00000E+00
    0.10966E+03        -0.17317E+02         0.00000E+00
    0.00000E+00         0.00000E+00        -0.16969E+04
 
   -0.56064E+04         0.16259E+03         0.00000E+00
    0.16259E+03        -0.35076E+02         0.00000E+00
    0.00000E+00         0.00000E+00        -0.16924E+04
 
   -0.55592E+04         0.21985E+03         0.00000E+00
    0.21985E+03        -0.60018E+02         0.00000E+00
    0.00000E+00         0.00000E+00        -0.16858E+04
 
   -0.54963E+04         0.28087E+03         0.00000E+00
    0.28087E+03        -0.92626E+02         0.00000E+00
    0.00000E+00         0.00000E+00        -0.16767E+04
 
   -0.54165E+04         0.34503E+03         0.00000E+00
    0.34503E+03        -0.13329E+03         0.00000E+00
    0.00000E+00         0.00000E+00        -0.16649E+04
 
   -0.53191E+04         0.41171E+03         0.00000E+00
    0.41171E+03        -0.18230E+03         0.00000E+00
    0.00000E+00         0.00000E+00        -0.16504E+04
 
   -0.52033E+04         0.48030E+03         0.00000E+00
    0.48030E+03        -0.23987E+03         0.00000E+00
    0.00000E+00         0.00000E+00        -0.16329E+04
 
   -0.50684E+04         0.55019E+03         0.00000E+00
    0.55019E+03        -0.30612E+03         0.00000E+00
    0.00000E+00         0.00000E+00        -0.16124E+04
 
   -0.49141E+04         0.62081E+03         0.00000E+00
    0.62081E+03        -0.38110E+03         0.00000E+00
    0.00000E+00         0.00000E+00        -0.15886E+04
 
   -0.47400E+04         0.69158E+03         0.00000E+00
    0.69158E+03        -0.46479E+03         0.00000E+00
    0.00000E+00         0.00000E+00        -0.15614E+04
 
   -0.45458E+04         0.76195E+03         0.00000E+00
    0.76195E+03        -0.55709E+03         0.00000E+00
    0.00000E+00         0.00000E+00        -0.15309E+04
 
   -0.43315E+04         0.83139E+03         0.00000E+00
    0.83139E+03        -0.65787E+03         0.00000E+00
    0.00000E+00         0.00000E+00        -0.14968E+04
 
   -0.40970E+04         0.89938E+03         0.00000E+00
    0.89938E+03        -0.76692E+03         0.00000E+00
    0.00000E+00         0.00000E+00        -0.14592E+04
 
   -0.38424E+04         0.96540E+03         0.00000E+00
    0.96540E+03        -0.88400E+03         0.00000E+00
    0.00000E+00         0.00000E+00        -0.14179E+04
 
   -0.35679E+04         0.10289E+04         0.00000E+00
    0.10289E+04        -0.10088E+04         0.00000E+00
    0.00000E+00         0.00000E+00        -0.13730E+04
 
   -0.32738E+04         0.10895E+04         0.00000E+00
    0.10895E+04        -0.11410E+04         0.00000E+00
    0.00000E+00         0.00000E+00        -0.13244E+04
 
   -0.29603E+04         0.11465E+04         0.00000E+00
    0.11465E+04        -0.12803E+04         0.00000E+00
    0.00000E+00         0.00000E+00        -0.12722E+04
 
   -0.26281E+04         0.11993E+04         0.00000E+00
    0.11993E+04        -0.14262E+04         0.00000E+00
    0.00000E+00         0.00000E+00        -0.12163E+04
 
   -0.22777E+04         0.12475E+04         0.00000E+00
    0.12475E+04        -0.15783E+04         0.00000E+00
    0.00000E+00         0.00000E+00        -0.11568E+04
 
   -0.19098E+04         0.12902E+04         0.00000E+00
    0.12902E+04        -0.17360E+04         0.00000E+00
    0.00000E+00         0.00000E+00        -0.10937E+04
 
   -0.15254E+04         0.13268E+04         0.00000E+00
    0.13268E+04        -0.18987E+04         0.00000E+00
    0.00000E+00         0.00000E+00        -0.10272E+04
 
   -0.11253E+04         0.13564E+04         0.00000E+00
    0.13564E+04        -0.20658E+04         0.00000E+00
    0.00000E+00         0.00000E+00        -0.95734E+03
 
   -0.56281E+04         0.16637E+02         0.00000E+00
    0.16637E+02        -0.91333E+00         0.00000E+00
    0.00000E+00         0.00000E+00        -0.16887E+04
 
   -0.56156E+04         0.53761E+02         0.00000E+00
    0.53761E+02        -0.59373E+01         0.00000E+00
    0.00000E+00         0.00000E+00        -0.16865E+04
 
   -0.55916E+04         0.95609E+02         0.00000E+00
    0.95609E+02        -0.16673E+02         0.00000E+00
    0.00000E+00         0.00000E+00        -0.16825E+04
 
   -0.55548E+04         0.14175E+03         0.00000E+00
    0.14175E+03        -0.33776E+02         0.00000E+00
    0.00000E+00         0.00000E+00        -0.16766E+04
 
   -0.55038E+04         0.19170E+03         0.00000E+00
    0.19170E+03        -0.57815E+02         0.00000E+00
    0.00000E+00         0.00000E+00        -0.16685E+04
 
   -0.54376E+04         0.24497E+03         0.00000E+00
    0.24497E+03        -0.89273E+02         0.00000E+00
    0.00000E+00         0.00000E+00        -0.16581E+04
 
   -0.53552E+04         0.30103E+03         0.00000E+00
    0.30103E+03        -0.12854E+03         0.00000E+00
    0.00000E+00         0.00000E+00        -0.16451E+04
 
   -0.52556E+04         0.35935E+03         0.00000E+00
    0.35935E+03        -0.17594E+03         0.00000E+00
    0.00000E+00         0.00000E+00        -0.16295E+04
 
   -0.51383E+04         0.41940E+03         0.00000E+00
    0.41940E+03        -0.23169E+03         0.00000E+00
    0.00000E+00         0.00000E+00        -0.16110E+04
 
   -0.50024E+04         0.48067E+03         0.00000E+00
    0.48067E+03        -0.29594E+03         0.00000E+00
    0.00000E+00         0.00000E+00        -0.15895E+04
 
   -0.48477E+04         0.54263E+03         0.00000E+00
    0.54263E+03        -0.36877E+03         0.00000E+00
    0.00000E+00         0.00000E+00        -0.15649E+04
 
   -0.46737E+04         0.60478E+03         0.00000E+00
    0.60478E+03        -0.45018E+03         0.00000E+00
    0.00000E+00         0.00000E+00        -0.15372E+04
 
   -0.44801E+04         0.66664E+03         0.00000E+00
    0.66664E+03        -0.54011E+03         0.00000E+00
    0.00000E+00         0.00000E+00        -0.15061E+04
 
   -0.42669E+04         0.72773E+03         0.00000E+00
    0.72773E+03        -0.63844E+03         0.00000E+00
    0.00000E+00         0.00000E+00        -0.14716E+04
 
   -0.40340E+04         0.78757E+03         0.00000E+00
    0.78757E+03        -0.74499E+03         0.00000E+00
    0.00000E+00         0.00000E+00        -0.14337E+04
 
   -0.37815E+04         0.84571E+03         0.00000E+00
    0.84571E+03        -0.85954E+03         0.00000E+00
    0.00000E+00         0.00000E+00        -0.13923E+04
 
   -0.35095E+04         0.90168E+03         0.00000E+00
    0.90168E+03        -0.98181E+03         0.00000E+00
    0.00000E+00         0.00000E+00        -0.13474E+04
 
   -0.32185E+04         0.95499E+03         0.00000E+00
    0.95499E+03        -0.11115E+04         0.00000E+00
    0.00000E+00         0.00000E+00        -0.12990E+04
 
   -0.29086E+04         0.10051E+04         0.00000E+00
    0.10051E+04        -0.12482E+04         0.00000E+00
    0.00000E+00         0.00000E+00        -0.12470E+04
 
   -0.25806E+04         0.10516E+04         0.00000E+00
    0.10516E+04        -0.13914E+04         0.00000E+00
    0.00000E+00         0.00000E+00        -0.11916E+04
 
   -0.22350E+04         0.10939E+04         0.00000E+00
    0.10939E+04        -0.15408E+04         0.00000E+00
    0.00000E+00         0.00000E+00        -0.11328E+04
 
   -0.18726E+04         0.11313E+04         0.00000E+00
    0.11313E+04        -0.16958E+04         0.00000E+00
    0.00000E+00         0.00000E+00        -0.10705E+04
 
   -0.14943E+04         0.11632E+04         0.00000E+00
    0.11632E+04        -0.18556E+04         0.00000E+00
    0.00000E+00         0.00000E+00        -0.10050E+04
 
   -0.11012E+04         0.11890E+04         0.00000E+00
    0.11890E+04        -0.20197E+04         0.00000E+00
    0.00000E+00         0.00000E+00        -0.93628E+03
 
   -0.55959E+04         0.14289E+02         0.00000E+00
    0.14289E+02        -0.88619E+00         0.00000E+00
    0.00000E+00         0.00000E+00        -0.16790E+04
 
   -0.55789E+04         0.46143E+02         0.00000E+00
    0.46143E+02        -0.57566E+01         0.00000E+00
    0.00000E+00         0.00000E+00        -0.16754E+04
 
   -0.55507E+04         0.82036E+02         0.00000E+00
    0.82036E+02        -0.16159E+02         0.00000E+00
    0.00000E+00         0.00000E+00        -0.16701E+04
 
   -0.55101E+04         0.12161E+03         0.00000E+00
    0.12161E+03        -0.32731E+02         0.00000E+00
    0.00000E+00         0.00000E+00        -0.16628E+04
 
   -0.54558E+04         0.16448E+03         0.00000E+00
    0.16448E+03        -0.56032E+02         0.00000E+00
    0.00000E+00         0.00000E+00        -0.16536E+04
 
   -0.53868E+04         0.21023E+03         0.00000E+00
    0.21023E+03        -0.86544E+02         0.00000E+00
    0.00000E+00         0.00000E+00        -0.16420E+04
 
   -0.53020E+04         0.25840E+03         0.00000E+00
    0.25840E+03        -0.12467E+03         0.00000E+00
    0.00000E+00         0.00000E+00        -0.16280E+04
 
   -0.52005E+04         0.30856E+03         0.00000E+00
    0.30856E+03        -0.17073E+03         0.00000E+00
    0.00000E+00         0.00000E+00        -0.16114E+04
 
   -0.50818E+04         0.36026E+03         0.00000E+00
    0.36026E+03        -0.22496E+03         0.00000E+00
    0.00000E+00         0.00000E+00        -0.15920E+04
 
   -0.49450E+04         0.41305E+03         0.00000E+00
    0.41305E+03        -0.28755E+03         0.00000E+00
    0.00000E+00         0.00000E+00        -0.15698E+04
 
   -0.47898E+04         0.46648E+03         0.00000E+00
    0.46648E+03        -0.35858E+03         0.00000E+00
    0.00000E+00         0.00000E+00        -0.15445E+04
 
   -0.46158E+04         0.52012E+03         0.00000E+00
    0.52012E+03        -0.43807E+03         0.00000E+00
    0.00000E+00         0.00000E+00        -0.15162E+04
 
   -0.44228E+04         0.57355E+03         0.00000E+00
    0.57355E+03        -0.52600E+03         0.00000E+00
    0.00000E+00         0.00000E+00        -0.14846E+04
 
   -0.42105E+04         0.62634E+03         0.00000E+00
    0.62634E+03        -0.62226E+03         0.00000E+00
    0.00000E+00         0.00000E+00        -0.14498E+04
 
   -0.39789E+04         0.67809E+03         0.00000E+00
    0.67809E+03        -0.72670E+03         0.00000E+00
    0.00000E+00         0.00000E+00        -0.14117E+04
 
   -0.37282E+04         0.72838E+03         0.00000E+00
    0.72838E+03        -0.83909E+03         0.00000E+00
    0.00000E+00         0.00000E+00        -0.13702E+04
 
   -0.34585E+04         0.77679E+03         0.00000E+00
    0.77679E+03        -0.95917E+03         0.00000E+00
    0.00000E+00         0.00000E+00        -0.13253E+04
 
   -0.31702E+04         0.82290E+03         0.00000E+00
    0.82290E+03        -0.10866E+04         0.00000E+00
    0.00000E+00         0.00000E+00        -0.12770E+04
 
   -0.28635E+04         0.86626E+03         0.00000E+00
    0.86626E+03        -0.12211E+04         0.00000E+00
    0.00000E+00         0.00000E+00        -0.12254E+04
 
   -0.25392E+04         0.90641E+03         0.00000E+00
    0.90641E+03        -0.13621E+04         0.00000E+00
    0.00000E+00         0.00000E+00        -0.11704E+04
 
   -0.21979E+04         0.94285E+03         0.00000E+00
    0.94285E+03        -0.15091E+04         0.00000E+00
    0.00000E+00         0.00000E+00        -0.11121E+04
 
   -0.18403E+04         0.97505E+03         0.00000E+00
    0.97505E+03        -0.16616E+04         0.00000E+00
    0.00000E+00         0.00000E+00        -0.10506E+04
 
   -0.14675E+04         0.10025E+04         0.00000E+00
    0.10025E+04        -0.18189E+04         0.00000E+00
    0.00000E+00         0.00000E+00        -0.98592E+03
 
   -0.10805E+04         0.10245E+04         0.00000E+00
    0.10245E+04        -0.19803E+04         0.00000E+00
    0.00000E+00         0.00000E+00        -0.91826E+03
 
   -0.55686E+04         0.12003E+02         0.00000E+00
    0.12003E+02        -0.86538E+00         0.00000E+00
    0.00000E+00         0.00000E+00        -0.16708E+04
 
   -0.55477E+04         0.38738E+02         0.00000E+00
    0.38738E+02        -0.56162E+01         0.00000E+00
    0.00000E+00         0.00000E+00        -0.16660E+04
 
   -0.55160E+04         0.68847E+02         0.00000E+00
    0.68847E+02        -0.15755E+02         0.00000E+00
    0.00000E+00         0.00000E+00        -0.16595E+04
 
   -0.54721E+04         0.10205E+03         0.00000E+00
    0.10205E+03        -0.31903E+02         0.00000E+00
    0.00000E+00         0.00000E+00        -0.16512E+04
 
   -0.54150E+04         0.13802E+03         0.00000E+00
    0.13802E+03        -0.54611E+02         0.00000E+00
    0.00000E+00         0.00000E+00        -0.16409E+04
 
   -0.53435E+04         0.17643E+03         0.00000E+00
    0.17643E+03        -0.84358E+02         0.00000E+00
    0.00000E+00         0.00000E+00        -0.16284E+04
 
   -0.52567E+04         0.21690E+03         0.00000E+00
    0.21690E+03        -0.12155E+03         0.00000E+00
    0.00000E+00         0.00000E+00        -0.16135E+04
 
   -0.51536E+04         0.25907E+03         0.00000E+00
    0.25907E+03        -0.16652E+03         0.00000E+00
    0.00000E+00         0.00000E+00        -0.15960E+04
 
   -0.50336E+04         0.30256E+03         0.00000E+00
    0.30256E+03        -0.21952E+03         0.00000E+00
    0.00000E+00         0.00000E+00        -0.15759E+04
 
   -0.48961E+04         0.34701E+03         0.00000E+00
    0.34701E+03        -0.28073E+03         0.00000E+00
    0.00000E+00         0.00000E+00        -0.15530E+04
 
   -0.47405E+04         0.39202E+03         0.00000E+00
    0.39202E+03        -0.35028E+03         0.00000E+00
    0.00000E+00         0.00000E+00        -0.15272E+04
 
   -0.45665E+04         0.43725E+03         0.00000E+00
    0.43725E+03        -0.42820E+03         0.00000E+00
    0.00000E+00         0.00000E+00        -0.14984E+04
 
   -0.43738E+04         0.48232E+03         0.00000E+00
    0.48232E+03        -0.51447E+03         0.00000E+00
    0.00000E+00         0.00000E+00        -0.14665E+04
 
   -0.41622E+04         0.52688E+03         0.00000E+00
    0.52688E+03        -0.60901E+03         0.00000E+00
    0.00000E+00         0.00000E+00        -0.14314E+04
 
   -0.39318E+04         0.57057E+03         0.00000E+00
    0.57057E+03        -0.71167E+03         0.00000E+00
    0.00000E+00         0.00000E+00        -0.13931E+04
 
   -0.36827E+04         0.61304E+03         0.00000E+00
    0.61304E+03        -0.82225E+03         0.00000E+00
    0.00000E+00         0.00000E+00        -0.13515E+04
 
   -0.34149E+04         0.65393E+03         0.00000E+00
    0.65393E+03        -0.94049E+03         0.00000E+00
    0.00000E+00         0.00000E+00        -0.13066E+04
 
   -0.31289E+04         0.69286E+03         0.00000E+00
    0.69286E+03        -0.10661E+04         0.00000E+00
    0.00000E+00         0.00000E+00        -0.12585E+04
 
   -0.28250E+04         0.72946E+03         0.00000E+00
    0.72946E+03        -0.11986E+04         0.00000E+00
    0.00000E+00         0.00000E+00        -0.12071E+04
 
   -0.25039E+04         0.76333E+03         0.00000E+00
    0.76333E+03        -0.13376E+04         0.00000E+00
    0.00000E+00         0.00000E+00        -0.11525E+04
 
   -0.21662E+04         0.79403E+03         0.00000E+00
    0.79403E+03        -0.14826E+04         0.00000E+00
    0.00000E+00         0.00000E+00        -0.10947E+04
 
   -0.18128E+04         0.82111E+03         0.00000E+00
    0.82111E+03        -0.16331E+04         0.00000E+00
    0.00000E+00         0.00000E+00        -0.10338E+04
 
   -0.14447E+04         0.84410E+03         0.00000E+00
    0.84410E+03        -0.17882E+04         0.00000E+00
    0.00000E+00         0.00000E+00        -0.96988E+03
 
   -0.10631E+04         0.86249E+03         0.00000E+00
    0.86249E+03        -0.19473E+04         0.00000E+00
    0.00000E+00         0.00000E+00        -0.90312E+03
 
   -0.55460E+04         0.97649E+01         0.00000E+00
    0.97649E+01        -0.84978E+00         0.00000E+00
    0.00000E+00         0.00000E+00        -0.16640E+04
 
   -0.55219E+04         0.31496E+02         0.00000E+00
    0.31496E+02        -0.55094E+01         0.00000E+00
    0.00000E+00         0.00000E+00        -0.16582E+04
 
   -0.54873E+04         0.55959E+02         0.00000E+00
    0.55959E+02        -0.15445E+02         0.00000E+00
    0.00000E+00         0.00000E+00        -0.16508E+04
 
   -0.54408E+04         0.82932E+02         0.00000E+00
    0.82932E+02        -0.31262E+02         0.00000E+00
    0.00000E+00         0.00000E+00        -0.16416E+04
 
   -0.53813E+04         0.11217E+03         0.00000E+00
    0.11217E+03        -0.53502E+02         0.00000E+00
    0.00000E+00         0.00000E+00        -0.16304E+04
 
   -0.53077E+04         0.14339E+03         0.00000E+00
    0.14339E+03        -0.82645E+02         0.00000E+00
    0.00000E+00         0.00000E+00        -0.16171E+04
 
   -0.52192E+04         0.17631E+03         0.00000E+00
    0.17631E+03        -0.11910E+03         0.00000E+00
    0.00000E+00         0.00000E+00        -0.16015E+04
 
   -0.51147E+04         0.21063E+03         0.00000E+00
    0.21063E+03        -0.16319E+03         0.00000E+00
    0.00000E+00         0.00000E+00        -0.15834E+04
 
   -0.49937E+04         0.24604E+03         0.00000E+00
    0.24604E+03        -0.21520E+03         0.00000E+00
    0.00000E+00         0.00000E+00        -0.15627E+04
 
   -0.48554E+04         0.28225E+03         0.00000E+00
    0.28225E+03        -0.27532E+03         0.00000E+00
    0.00000E+00         0.00000E+00        -0.15392E+04
 
   -0.46995E+04         0.31895E+03         0.00000E+00
    0.31895E+03        -0.34367E+03         0.00000E+00
    0.00000E+00         0.00000E+00        -0.15129E+04
 
   -0.45254E+04         0.35584E+03         0.00000E+00
    0.35584E+03        -0.42032E+03         0.00000E+00
    0.00000E+00         0.00000E+00        -0.14837E+04
 
   -0.43330E+04         0.39262E+03         0.00000E+00
    0.39262E+03        -0.50524E+03         0.00000E+00
    0.00000E+00         0.00000E+00        -0.14515E+04
 
   -0.41221E+04         0.42899E+03         0.00000E+00
    0.42899E+03        -0.59839E+03         0.00000E+00
    0.00000E+00         0.00000E+00        -0.14161E+04
 
   -0.38927E+04         0.46467E+03         0.00000E+00
    0.46467E+03        -0.69960E+03         0.00000E+00
    0.00000E+00         0.00000E+00        -0.13777E+04
 
   -0.36448E+04         0.49936E+03         0.00000E+00
    0.49936E+03        -0.80871E+03         0.00000E+00
    0.00000E+00         0.00000E+00        -0.13360E+04
 
   -0.33786E+04         0.53276E+03         0.00000E+00
    0.53276E+03        -0.92543E+03         0.00000E+00
    0.00000E+00         0.00000E+00        -0.12912E+04
 
   -0.30945E+04         0.56456E+03         0.00000E+00
    0.56456E+03        -0.10495E+04         0.00000E+00
    0.00000E+00         0.00000E+00        -0.12432E+04
 
   -0.27930E+04         0.59444E+03         0.00000E+00
    0.59444E+03        -0.11804E+04         0.00000E+00
    0.00000E+00         0.00000E+00        -0.11920E+04
 
   -0.24745E+04         0.62206E+03         0.00000E+00
    0.62206E+03        -0.13178E+04         0.00000E+00
    0.00000E+00         0.00000E+00        -0.11377E+04
 
   -0.21399E+04         0.64709E+03         0.00000E+00
    0.64709E+03        -0.14611E+04         0.00000E+00
    0.00000E+00         0.00000E+00        -0.10803E+04
 
   -0.17901E+04         0.66914E+03         0.00000E+00
    0.66914E+03        -0.16098E+04         0.00000E+00
    0.00000E+00         0.00000E+00        -0.10200E+04
 
   -0.14259E+04         0.68781E+03         0.00000E+00
    0.68781E+03        -0.17631E+04         0.00000E+00
    0.00000E+00         0.00000E+00        -0.95672E+03
 
   -0.10487E+04         0.70269E+03         0.00000E+00
    0.70269E+03        -0.19203E+04         0.00000E+00
    0.00000E+00         0.00000E+00        -0.89071E+03
 
   -0.55280E+04         0.75623E+01         0.00000E+00
    0.75623E+01        -0.83843E+00         0.00000E+00
    0.00000E+00         0.00000E+00        -0.16586E+04
 
   -0.55014E+04         0.24380E+02         0.00000E+00
    0.24380E+02        -0.54306E+01         0.00000E+00
    0.00000E+00         0.00000E+00        -0.16520E+04
 
   -0.54644E+04         0.43302E+02         0.00000E+00
    0.43302E+02        -0.15214E+02         0.00000E+00
    0.00000E+00         0.00000E+00        -0.16439E+04
 
   -0.54158E+04         0.64165E+02         0.00000E+00
    0.64165E+02        -0.30780E+02         0.00000E+00
    0.00000E+00         0.00000E+00        -0.16340E+04
 
   -0.53545E+04         0.86780E+02         0.00000E+00
    0.86780E+02        -0.52666E+02         0.00000E+00
    0.00000E+00         0.00000E+00        -0.16221E+04
 
   -0.52793E+04         0.11094E+03         0.00000E+00
    0.11094E+03        -0.81345E+02         0.00000E+00
    0.00000E+00         0.00000E+00        -0.16082E+04
 
   -0.51893E+04         0.13642E+03         0.00000E+00
    0.13642E+03        -0.11723E+03         0.00000E+00
    0.00000E+00         0.00000E+00        -0.15920E+04
 
   -0.50838E+04         0.16300E+03         0.00000E+00
    0.16300E+03        -0.16065E+03         0.00000E+00
    0.00000E+00         0.00000E+00        -0.15733E+04
 
   -0.49619E+04         0.19044E+03         0.00000E+00
    0.19044E+03        -0.21190E+03         0.00000E+00
    0.00000E+00         0.00000E+00        -0.15521E+04
 
   -0.48231E+04         0.21851E+03         0.00000E+00
    0.21851E+03        -0.27116E+03         0.00000E+00
    0.00000E+00         0.00000E+00        -0.15283E+04
 
   -0.46668E+04         0.24697E+03         0.00000E+00
    0.24697E+03        -0.33859E+03         0.00000E+00
    0.00000E+00         0.00000E+00        -0.15016E+04
 
   -0.44927E+04         0.27559E+03         0.00000E+00
    0.27559E+03        -0.41424E+03         0.00000E+00
    0.00000E+00         0.00000E+00        -0.14721E+04
 
   -0.43005E+04         0.30414E+03         0.00000E+00
    0.30414E+03        -0.49812E+03         0.00000E+00
    0.00000E+00         0.00000E+00        -0.14396E+04
 
   -0.40901E+04         0.33238E+03         0.00000E+00
    0.33238E+03        -0.59016E+03         0.00000E+00
    0.00000E+00         0.00000E+00        -0.14041E+04
 
   -0.38614E+04         0.36008E+03         0.00000E+00
    0.36008E+03        -0.69025E+03         0.00000E+00
    0.00000E+00         0.00000E+00        -0.13655E+04
 
   -0.36145E+04         0.38702E+03         0.00000E+00
    0.38702E+03        -0.79818E+03         0.00000E+00
    0.00000E+00         0.00000E+00        -0.13238E+04
 
   -0.33496E+04         0.41296E+03         0.00000E+00
    0.41296E+03        -0.91371E+03         0.00000E+00
    0.00000E+00         0.00000E+00        -0.12790E+04
 
   -0.30671E+04         0.43765E+03         0.00000E+00
    0.43765E+03        -0.10365E+04         0.00000E+00
    0.00000E+00         0.00000E+00        -0.12311E+04
 
   -0.27674E+04         0.46085E+03         0.00000E+00
    0.46085E+03        -0.11662E+04         0.00000E+00
    0.00000E+00         0.00000E+00        -0.11801E+04
 
   -0.24511E+04         0.48229E+03         0.00000E+00
    0.48229E+03        -0.13023E+04         0.00000E+00
    0.00000E+00         0.00000E+00        -0.11260E+04
 
   -0.21190E+04         0.50169E+03         0.00000E+00
    0.50169E+03        -0.14443E+04         0.00000E+00
    0.00000E+00         0.00000E+00        -0.10690E+04
 
   -0.17720E+04         0.51876E+03         0.00000E+00
    0.51876E+03        -0.15916E+04         0.00000E+00
    0.00000E+00         0.00000E+00        -0.10091E+04
 
   -0.14110E+04         0.53320E+03         0.00000E+00
    0.53320E+03        -0.17434E+04         0.00000E+00
    0.00000E+00         0.00000E+00        -0.94633E+03
 
   -0.10374E+04         0.54468E+03         0.00000E+00
    0.54468E+03        -0.18990E+04         0.00000E+00
    0.00000E+00         0.00000E+00        -0.88093E+03
 
   -0.55145E+04         0.53850E+01         0.00000E+00
    0.53850E+01        -0.83057E+00         0.00000E+00
    0.00000E+00         0.00000E+00        -0.16546E+04
 
   -0.54861E+04         0.17353E+02         0.00000E+00
    0.17353E+02        -0.53754E+01         0.00000E+00
    0.00000E+00         0.00000E+00        -0.16474E+04
 
   -0.54474E+04         0.30815E+02         0.00000E+00
    0.30815E+02        -0.15050E+02         0.00000E+00
    0.00000E+00         0.00000E+00        -0.16387E+04
 
   -0.53972E+04         0.45656E+02         0.00000E+00
    0.45656E+02        -0.30437E+02         0.00000E+00
    0.00000E+00         0.00000E+00        -0.16283E+04
 
   -0.53344E+04         0.61745E+02         0.00000E+00
    0.61745E+02        -0.52067E+02         0.00000E+00
    0.00000E+00         0.00000E+00        -0.16159E+04
 
   -0.52580E+04         0.78937E+02         0.00000E+00
    0.78937E+02        -0.80412E+02         0.00000E+00
    0.00000E+00         0.00000E+00        -0.16015E+04
 
   -0.51670E+04         0.97076E+02         0.00000E+00
    0.97076E+02        -0.11588E+03         0.00000E+00
    0.00000E+00         0.00000E+00        -0.15849E+04
 
   -0.50606E+04         0.11600E+03         0.00000E+00
    0.11600E+03        -0.15882E+03         0.00000E+00
    0.00000E+00         0.00000E+00        -0.15658E+04
 
   -0.49381E+04         0.13555E+03         0.00000E+00
    0.13555E+03        -0.20950E+03         0.00000E+00
    0.00000E+00         0.00000E+00        -0.15443E+04
 
   -0.47988E+04         0.15554E+03         0.00000E+00
    0.15554E+03        -0.26815E+03         0.00000E+00
    0.00000E+00         0.00000E+00        -0.15201E+04
 
   -0.46423E+04         0.17583E+03         0.00000E+00
    0.17583E+03        -0.33489E+03         0.00000E+00
    0.00000E+00         0.00000E+00        -0.14932E+04
 
   -0.44682E+04         0.19623E+03         0.00000E+00
    0.19623E+03        -0.40981E+03         0.00000E+00
    0.00000E+00         0.00000E+00        -0.14634E+04
 
   -0.42762E+04         0.21659E+03         0.00000E+00
    0.21659E+03        -0.49292E+03         0.00000E+00
    0.00000E+00         0.00000E+00        -0.14307E+04
 
   -0.40661E+04         0.23673E+03         0.00000E+00
    0.23673E+03        -0.58416E+03         0.00000E+00
    0.00000E+00         0.00000E+00        -0.13951E+04
 
   -0.38379E+04         0.25650E+03         0.00000E+00
    0.25650E+03        -0.68340E+03         0.00000E+00
    0.00000E+00         0.00000E+00        -0.13564E+04
 
   -0.35918E+04         0.27572E+03         0.00000E+00
    0.27572E+03        -0.79047E+03         0.00000E+00
    0.00000E+00         0.00000E+00        -0.13147E+04
 
   -0.33279E+04         0.29422E+03         0.00000E+00
    0.29422E+03        -0.90511E+03         0.00000E+00
    0.00000E+00         0.00000E+00        -0.12699E+04
 
   -0.30466E+04         0.31184E+03         0.00000E+00
    0.31184E+03        -0.10270E+04         0.00000E+00
    0.00000E+00         0.00000E+00        -0.12221E+04
 
   -0.27483E+04         0.32838E+03         0.00000E+00
    0.32838E+03        -0.11557E+04         0.00000E+00
    0.00000E+00         0.00000E+00        -0.11712E+04
 
   -0.24336E+04         0.34367E+03         0.00000E+00
    0.34367E+03        -0.12909E+04         0.00000E+00
    0.00000E+00         0.00000E+00        -0.11173E+04
 
   -0.21034E+04         0.35749E+03         0.00000E+00
    0.35749E+03        -0.14318E+04         0.00000E+00
    0.00000E+00         0.00000E+00        -0.10606E+04
 
   -0.17585E+04         0.36965E+03         0.00000E+00
    0.36965E+03        -0.15781E+04         0.00000E+00
    0.00000E+00         0.00000E+00        -0.10010E+04
 
   -0.13999E+04         0.37992E+03         0.00000E+00
    0.37992E+03        -0.17288E+04         0.00000E+00
    0.00000E+00         0.00000E+00        -0.93861E+03
 
   -0.10290E+04         0.38806E+03         0.00000E+00
    0.38806E+03        -0.18833E+04         0.00000E+00
    0.00000E+00         0.00000E+00        -0.87367E+03
 
   -0.55056E+04         0.32246E+01         0.00000E+00
    0.32246E+01        -0.82565E+00         0.00000E+00
    0.00000E+00         0.00000E+00        -0.16519E+04
 
   -0.54759E+04         0.10388E+02         0.00000E+00
    0.10388E+02        -0.53405E+01         0.00000E+00
    0.00000E+00         0.00000E+00        -0.16444E+04
 
   -0.54361E+04         0.18444E+02         0.00000E+00
    0.18444E+02        -0.14946E+02         0.00000E+00
    0.00000E+00         0.00000E+00        -0.16353E+04
 
   -0.53848E+04         0.27325E+02         0.00000E+00
    0.27325E+02        -0.30218E+02         0.00000E+00
    0.00000E+00         0.00000E+00        -0.16245E+04
 
   -0.53211E+04         0.36953E+02         0.00000E+00
    0.36953E+02        -0.51682E+02         0.00000E+00
    0.00000E+00         0.00000E+00        -0.16118E+04
 
   -0.52439E+04         0.47242E+02         0.00000E+00
    0.47242E+02        -0.79809E+02         0.00000E+00
    0.00000E+00         0.00000E+00        -0.15971E+04
 
   -0.51522E+04         0.58100E+02         0.00000E+00
    0.58100E+02        -0.11501E+03         0.00000E+00
    0.00000E+00         0.00000E+00        -0.15802E+04
 
   -0.50452E+04         0.69430E+02         0.00000E+00
    0.69430E+02        -0.15763E+03         0.00000E+00
    0.00000E+00         0.00000E+00        -0.15609E+04
 
   -0.49223E+04         0.81135E+02         0.00000E+00
    0.81135E+02        -0.20795E+03         0.00000E+00
    0.00000E+00         0.00000E+00        -0.15391E+04
 
   -0.47827E+04         0.93114E+02         0.00000E+00
    0.93114E+02        -0.26618E+03         0.00000E+00
    0.00000E+00         0.00000E+00        -0.15147E+04
 
   -0.46260E+04         0.10527E+03         0.00000E+00
    0.10527E+03        -0.33248E+03         0.00000E+00
    0.00000E+00         0.00000E+00        -0.14876E+04
 
   -0.44519E+04         0.11749E+03         0.00000E+00
    0.11749E+03        -0.40692E+03         0.00000E+00
    0.00000E+00         0.00000E+00        -0.14576E+04
 
   -0.42600E+04         0.12969E+03         0.00000E+00
    0.12969E+03        -0.48952E+03         0.00000E+00
    0.00000E+00         0.00000E+00        -0.14248E+04
 
   -0.40501E+04         0.14177E+03         0.00000E+00
    0.14177E+03        -0.58023E+03         0.00000E+00
    0.00000E+00         0.00000E+00        -0.13891E+04
 
   -0.38223E+04         0.15362E+03         0.00000E+00
    0.15362E+03        -0.67892E+03         0.00000E+00
    0.00000E+00         0.00000E+00        -0.13504E+04
 
   -0.35767E+04         0.16514E+03         0.00000E+00
    0.16514E+03        -0.78541E+03         0.00000E+00
    0.00000E+00         0.00000E+00        -0.13086E+04
 
   -0.33134E+04         0.17624E+03         0.00000E+00
    0.17624E+03        -0.89946E+03         0.00000E+00
    0.00000E+00         0.00000E+00        -0.12639E+04
 
   -0.30329E+04         0.18680E+03         0.00000E+00
    0.18680E+03        -0.10207E+04         0.00000E+00
    0.00000E+00         0.00000E+00        -0.12161E+04
 
   -0.27355E+04         0.19671E+03         0.00000E+00
    0.19671E+03        -0.11488E+04         0.00000E+00
    0.00000E+00         0.00000E+00        -0.11653E+04
 
   -0.24220E+04         0.20587E+03         0.00000E+00
    0.20587E+03        -0.12833E+04         0.00000E+00
    0.00000E+00         0.00000E+00        -0.11116E+04
 
   -0.20930E+04         0.21415E+03         0.00000E+00
    0.21415E+03        -0.14236E+04         0.00000E+00
    0.00000E+00         0.00000E+00        -0.10550E+04
 
   -0.17495E+04         0.22143E+03         0.00000E+00
    0.22143E+03        -0.15692E+04         0.00000E+00
    0.00000E+00         0.00000E+00        -0.99559E+03
 
   -0.13925E+04         0.22757E+03         0.00000E+00
    0.22757E+03        -0.17192E+04         0.00000E+00
    0.00000E+00         0.00000E+00        -0.93351E+03
 
   -0.10234E+04         0.23244E+03         0.00000E+00
    0.23244E+03        -0.18729E+04         0.00000E+00
    0.00000E+00         0.00000E+00        -0.86888E+03
 
   -0.55011E+04         0.10738E+01         0.00000E+00
    0.10738E+01        -0.82328E+00         0.00000E+00
    0.00000E+00         0.00000E+00        -0.16506E+04
 
   -0.54709E+04         0.34590E+01         0.00000E+00
    0.34590E+01        -0.53236E+01         0.00000E+00
    0.00000E+00         0.00000E+00        -0.16429E+04
 
   -0.54304E+04         0.61406E+01         0.00000E+00
    0.61406E+01        -0.14895E+02         0.00000E+00
    0.00000E+00         0.00000E+00        -0.16336E+04
 
   -0.53787E+04         0.90968E+01         0.00000E+00
    0.90968E+01        -0.30111E+02         0.00000E+00
    0.00000E+00         0.00000E+00        -0.16226E+04
 
   -0.53145E+04         0.12302E+02         0.00000E+00
    0.12302E+02        -0.51494E+02         0.00000E+00
    0.00000E+00         0.00000E+00        -0.16098E+04
 
   -0.52368E+04         0.15727E+02         0.00000E+00
    0.15727E+02        -0.79514E+02         0.00000E+00
    0.00000E+00         0.00000E+00        -0.15949E+04
 
   -0.51448E+04         0.19343E+02         0.00000E+00
    0.19343E+02        -0.11458E+03         0.00000E+00
    0.00000E+00         0.00000E+00        -0.15778E+04
 
   -0.50375E+04         0.23115E+02         0.00000E+00
    0.23115E+02        -0.15704E+03         0.00000E+00
    0.00000E+00         0.00000E+00        -0.15584E+04
 
   -0.49144E+04         0.27013E+02         0.00000E+00
    0.27013E+02        -0.20718E+03         0.00000E+00
    0.00000E+00         0.00000E+00        -0.15365E+04
 
   -0.47747E+04         0.31003E+02         0.00000E+00
    0.31003E+02        -0.26522E+03         0.00000E+00
    0.00000E+00         0.00000E+00        -0.15120E+04
 
   -0.46179E+04         0.35051E+02         0.00000E+00
    0.35051E+02        -0.33130E+03         0.00000E+00
    0.00000E+00         0.00000E+00        -0.14848E+04
 
   -0.44437E+04         0.39123E+02         0.00000E+00
    0.39123E+02        -0.40550E+03         0.00000E+00
    0.00000E+00         0.00000E+00        -0.14548E+04
 
   -0.42519E+04         0.43188E+02         0.00000E+00
    0.43188E+02        -0.48785E+03         0.00000E+00
    0.00000E+00         0.00000E+00        -0.14219E+04
 
   -0.40421E+04         0.47211E+02         0.00000E+00
    0.47211E+02        -0.57829E+03         0.00000E+00
    0.00000E+00         0.00000E+00        -0.13861E+04
 
   -0.38145E+04         0.51159E+02         0.00000E+00
    0.51159E+02        -0.67670E+03         0.00000E+00
    0.00000E+00         0.00000E+00        -0.13474E+04
 
   -0.35692E+04         0.54999E+02         0.00000E+00
    0.54999E+02        -0.78291E+03         0.00000E+00
    0.00000E+00         0.00000E+00        -0.13056E+04
 
   -0.33062E+04         0.58695E+02         0.00000E+00
    0.58695E+02        -0.89666E+03         0.00000E+00
    0.00000E+00         0.00000E+00        -0.12609E+04
 
   -0.30260E+04         0.62214E+02         0.00000E+00
    0.62214E+02        -0.10176E+04         0.00000E+00
    0.00000E+00         0.00000E+00        -0.12131E+04
 
   -0.27291E+04         0.65518E+02         0.00000E+00
    0.65518E+02        -0.11454E+04         0.00000E+00
    0.00000E+00         0.00000E+00        -0.11624E+04
 
   -0.24161E+04         0.68569E+02         0.00000E+00
    0.68569E+02        -0.12796E+04         0.00000E+00
    0.00000E+00         0.00000E+00        -0.11087E+04
 
   -0.20878E+04         0.71327E+02         0.00000E+00
    0.71327E+02        -0.14196E+04         0.00000E+00
    0.00000E+00         0.00000E+00        -0.10522E+04
 
   -0.17450E+04         0.73750E+02         0.00000E+00
    0.73750E+02        -0.15647E+04         0.00000E+00
    0.00000E+00         0.00000E+00        -0.99292E+03
 
   -0.13889E+04         0.75794E+02         0.00000E+00
    0.75794E+02        -0.17144E+04         0.00000E+00
    0.00000E+00         0.00000E+00        -0.93097E+03
 
   -0.10206E+04         0.77413E+02         0.00000E+00
    0.77413E+02        -0.18677E+04         0.00000E+00
    0.00000E+00         0.00000E+00        -0.86649E+03
 
SCALARS stresss double 
LOOKUP_TABLE default
  -68946.3284073661     
  -67742.3782816388     
  -62348.4927774687     
  -55883.6438384252     
  -49578.4524050858     
  -43705.5834839603     
  -38353.3390967078     
  -33758.7621826056     
  -29767.6302774372     
  -26301.2412808941     
  -23322.7669498390     
  -20698.1090816254     
  -18330.9822583611     
  -16158.8313048191     
  -14176.8234540682     
  -12444.8509794866     
  -10913.1629896857     
  -9574.83671758169     
  -8368.64807373269     
  -7482.68857031145     
  -7777.38462652903     
  -8244.12372964139     
  -8732.57139789476     
  -9261.12743708987     
  -68516.0009353668     
  -63260.7682255476     
  -57758.1142742543     
  -52431.6604907948     
  -46903.7632855560     
  -41642.1575304104     
  -36879.8352266004     
  -32699.5808655567     
  -29032.0333024760     
  -25734.2535530875     
  -22840.9120820353     
  -20279.1011879021     
  -17971.9096076509     
  -15867.4587386073     
  -13979.0132451938     
  -12321.0521990534     
  -10827.1962561458     
  -9497.55904192405     
  -8313.28733237183     
  -7469.89738008838     
  -7777.61438354918     
  -8219.43539374410     
  -8690.54984009602     
  -9206.64258757111     
  -55134.8503102632     
  -50200.5025722465     
  -49008.4871073856     
  -45643.0845327082     
  -41890.6267632719     
  -37922.5606485396     
  -34109.5268041437     
  -30588.7401389895     
  -27384.8481274226     
  -24445.7391462522     
  -21752.3111238251     
  -19373.7015563961     
  -17267.1631497721     
  -15348.8813647077     
  -13612.0197753437     
  -12028.5003632611     
  -10606.1627381494     
  -9341.83768025416     
  -8201.43247176107     
  -7450.95476967521     
  -7766.32020995437     
  -8162.78800843130     
  -8602.91931146652     
  -9094.50418688020     
  -21960.6030429094     
  -37429.4236921880     
  -37398.7668949253     
  -36732.8004230173     
  -34839.3575388397     
  -32477.0118084758     
  -29871.9232043157     
  -27243.7204454771     
  -24738.6693994763     
  -22355.9527893816     
  -20155.0579051171     
  -18110.2117152338     
  -16248.0908683526     
  -14584.8478896185     
  -13070.1218061077     
  -11674.4112760627     
  -10351.0134011054     
  -9112.52797472154     
  -8011.52814915933     
  -7426.21971865982     
  -7717.24530219305     
  -8064.39220220770     
  -8464.69791680653     
  -8920.73649524430     
  -480.825868362393     
  -18872.0281522550     
  -25831.2700543106     
  -27385.5606985133     
  -27475.3758328760     
  -26571.6313816139     
  -25162.7168417589     
  -23499.2474656888     
  -21743.4287312426     
  -19974.9855529891     
  -18281.5594054634     
  -16671.1450180867     
  -15127.3833193226     
  -13713.5548016802     
  -12389.7219965140     
  -11140.1511958268     
  -9965.33469499224     
  -8816.36397359862     
  -7730.41398788383     
  -7369.65749895255     
  -7613.27207690369     
  -7916.10190995401     
  -8273.27666765858     
  -8684.01592049644     
  -503.873210752331     
  -12466.3425369112     
  -18796.3230041890     
  -21466.3937100815     
  -22216.9224565789     
  -22046.2527241471     
  -21310.0013461919     
  -20244.0406236633     
  -19012.7169091229     
  -17698.2003714368     
  -16361.6671873288     
  -15039.4324547413     
  -13819.3887534209     
  -12653.3987794827     
  -11509.0580472527     
  -10395.4750797289     
  -9346.36586806332     
  -8290.45138730733     
  -7322.81002246464     
  -7244.93047794562     
  -7449.28483354799     
  -7717.98159769280     
  -8030.71691200660     
  -8388.67310896447     
   449.488634691573     
  -8669.74049001143     
  -14600.7107869462     
  -16965.2324332217     
  -18150.4303577284     
  -18400.0670869996     
  -18087.8800038641     
  -17423.4794609836     
  -16564.8181012434     
  -15595.7614367619     
  -14546.3169412678     
  -13490.3133094188     
  -12466.8303718290     
  -11469.6677426835     
  -10521.7597912494     
  -9578.06457003595     
  -8627.25882760315     
  -7686.12459344604     
  -6911.66477185158     
  -7024.46085745527     
  -7240.11875869434     
  -7476.46620762405     
  -7744.90790259013     
  -8045.20817601765     
  -384.312091125113     
  -6224.21808440246     
  -10775.0125515627     
  -13615.2236446933     
  -14801.8104184488     
  -15247.8463105672     
  -15282.9097518355     
  -14923.5608751488     
  -14350.8699803809     
  -13621.5481689978     
  -12797.7748919913     
  -11936.1991985602     
  -11102.9734495126     
  -10289.0619175564     
  -9470.98559723467     
  -8662.22219925839     
  -7837.30442569703     
  -7010.42986943160     
  -6580.33478951316     
  -6799.88858850891     
  -6997.72482776027     
  -7204.51344793358     
  -7427.23450640967     
  -7668.46662393471     
  -1185.07962318853     
  -5047.24969568123     
  -8624.76641707886     
  -10835.7784106895     
  -12097.3328363660     
  -12626.5456037706     
  -12767.3138621839     
  -12622.0233697129     
  -12278.1637994569     
  -11749.5007100659     
  -11120.6260780925     
  -10453.5904403667     
  -9780.09262678227     
  -9090.71160880300     
  -8403.09367038161     
  -7729.97317373610     
  -7009.05595637107     
  -6363.15663810882     
  -6414.68296621699     
  -6577.47924453381     
  -6744.30158214911     
  -6913.62587438532     
  -7090.36320769436     
  -7274.01240951309     
  -1986.60551908924     
  -4600.12626707043     
  -6911.90195757493     
  -8720.60805140659     
  -9845.11436446366     
  -10450.4241977313     
  -10662.5473824197     
  -10614.4701609388     
  -10403.5454718173     
  -10039.2787264860     
  -9562.97010612113     
  -9040.53515713604     
  -8493.86598109124     
  -7951.82589149108     
  -7371.41366370080     
  -6790.87223685956     
  -6203.33079397213     
  -6140.46936111845     
  -6241.58578139223     
  -6360.44650048564     
  -6485.14285625572     
  -6614.12153293811     
  -6745.05788538444     
  -6875.18149238097     
  -2646.19423393851     
  -4367.12654860980     
  -5992.25825625383     
  -7305.07952039430     
  -8115.19995473102     
  -8609.70351924918     
  -8879.48705726699     
  -8903.71628654808     
  -8784.93478180478     
  -8504.36680919623     
  -8150.95383544488     
  -7754.70423043470     
  -7316.46694385143     
  -6827.65317824699     
  -6384.83233538238     
  -6015.19638268520     
  -5952.65089999518     
  -6001.91346160117     
  -6060.16100225110     
  -6137.15052130220     
  -6222.87368684826     
  -6311.67657894794     
  -6399.48380239474     
  -6481.50659112573     
  -3130.61986258198     
  -4283.62823227573     
  -5410.08751241164     
  -6350.94546663971     
  -7039.39584757018     
  -7337.35217916109     
  -7408.78930107195     
  -7450.14767025144     
  -7353.22900230602     
  -7149.86908084708     
  -6870.32484007924     
  -6548.59964185938     
  -6225.51803126379     
  -5998.60585370520     
  -5861.66774398511     
  -5837.16532472582     
  -5828.29243427945     
  -5831.12841200480     
  -5863.30652520481     
  -5906.79303694316     
  -5957.65484527273     
  -6010.06273827034     
  -6058.94048633721     
  -6098.98053750788     
  -3460.39688444688     
  -4241.04078414909     
  -5027.82985701851     
  -5719.29678056184     
  -6230.26954707598     
  -6542.37185716770     
  -6668.99470727332     
  -6573.84882160963     
  -6405.50314331080     
  -6229.99056889035     
  -6066.06165360195     
  -5923.79162085743     
  -5849.82207264995     
  -5787.19824150543     
  -5722.75628581050     
  -5672.76205918855     
  -5651.09884909847     
  -5645.73033434846     
  -5652.56883808459     
  -5669.83622622317     
  -5691.14536409951     
  -5711.81672094289     
  -5726.83663878285     
  -5730.97926981937     
  -3659.26111999016     
  -4199.99672389332     
  -4760.00088104631     
  -5266.32726157713     
  -5668.69287572986     
  -5939.90100489382     
  -6069.77846657079     
  -6086.73582245894     
  -6022.28824479380     
  -5923.51018256739     
  -5817.96796701564     
  -5725.61477086361     
  -5647.96265628975     
  -5586.44450287413     
  -5533.84455968942     
  -5491.40736309915     
  -5461.03645190226     
  -5442.82563293236     
  -5433.17661979300     
  -5428.56044142284     
  -5425.35812789988     
  -5419.11916852139     
  -5405.36959195130     
  -5379.31528505755     
  -3757.17083254883     
  -4144.54827291206     
  -4551.93614200041     
  -4931.79779912357     
  -5247.37570558462     
  -5476.34032995063     
  -5614.28432699935     
  -5669.75176918670     
  -5664.31165098405     
  -5620.52119031791     
  -5559.94942378276     
  -5495.78803558608     
  -5435.87073544109     
  -5381.85375084475     
  -5334.55735568611     
  -5293.68022246685     
  -5259.56577588308     
  -5231.56311156660     
  -5207.95780363733     
  -5186.00976872191     
  -5162.49395426270     
  -5133.83175023499     
  -5096.05552588038     
  -5044.93339929688     
  -3781.30708214718     
  -4070.73626458373     
  -4376.72571498567     
  -4667.77808154787     
  -4918.37572788750     
  -5112.38525049069     
  -5243.83153970577     
  -5316.71624974488     
  -5341.45011289083     
  -5332.04905102705     
  -5301.61359270433     
  -5260.75473222221     
  -5216.13291544432     
  -5171.62107231321     
  -5128.88651035422     
  -5088.73705503393     
  -5051.20064437521     
  -5015.71996513308     
  -4980.93869493082     
  -4944.80318571762     
  -4904.68764490793     
  -4857.54130790867     
  -4799.97547856274     
  -4728.30736938425     
  -3754.36706407616     
  -3981.04176194530     
  -4219.10132498846     
  -4448.07014241030     
  -4650.59530368220     
  -4814.76840565349     
  -4935.22657411405     
  -5012.67315810896     
  -5052.58340274783     
  -5062.93075052759     
  -5052.26839441224     
  -5027.99590495288     
  -4995.74227354440     
  -4959.19006944255     
  -4920.54358449054     
  -4880.86943896806     
  -4840.45136078766     
  -4798.86894304281     
  -4755.07317474253     
  -4707.42240211518     
  -4653.77193687948     
  -4591.56312848504     
  -4517.90230339971     
  -4429.62567678567     
  -3694.18004349510     
  -3879.92414719422     
  -4071.97506911976     
  -4257.19914016932     
  -4423.89863178651     
  -4563.52872815239     
  -4671.51559569303     
  -4747.24930295642     
  -4793.30471298580     
  -4814.30530352381     
  -4815.63650192918     
  -4802.45366953133     
  -4779.01763706167     
  -4748.48465680699     
  -4712.92431888175     
  -4673.49737216196     
  -4630.60176411464     
  -4583.99540681253     
  -4532.86332222085     
  -4475.88287039447     
  -4411.28636861565     
  -4336.93031262126     
  -4250.36119628893     
  -4148.87589649001     
  -3614.03724934119     
  -3772.18697766999     
  -3932.36153394204     
  -4086.22728364529     
  -4225.98863463665     
  -4345.59199753076     
  -4441.39909941981     
  -4512.29719136781     
  -4559.35534663675     
  -4585.16802252708     
  -4593.11292091230     
  -4586.67263116575     
  -4568.95945453773     
  -4542.44675749980     
  -4508.88959338741     
  -4469.34486526028     
  -4424.24082348577     
  -4373.44495093865     
  -4316.32680292496     
  -4251.81246588250     
  -4178.43970670926     
  -4094.41328590250     
  -3997.66036051093     
  -3885.88410060097     
  -3523.46912543227     
  -3662.03411443090     
  -3799.33687214485     
  -3930.13597025832     
  -4049.27521002541     
  -4152.52419936220     
  -4237.09345910109     
  -4301.80225120092     
  -4346.93832419535     
  -4373.90805730462     
  -4384.78734830572     
  -4381.88675131937     
  -4367.40052556404     
  -4343.17652241663     
  -4310.59553186467     
  -4270.53449491486     
  -4223.37630641160     
  -4169.04260580893     
  -4107.03340994703     
  -4036.46981743528     
  -3956.13803514612     
  -3864.53510163527     
  -3759.91535926831     
  -3640.33694946970     
  -3429.05231824375     
  -3552.77081639788     
  -3672.88862860308     
  -3786.12272432711     
  -3889.07696979184     
  -3978.81796153618     
  -4053.26018592162     
  -4111.33292260581     
  -4152.94734057100     
  -4178.81350631775     
  -4190.17572721076     
  -4188.53119856279     
  -4175.38361262355     
  -4152.05829395077     
  -4119.58523682002     
  -4078.63927252231     
  -4029.52160065747     
  -3972.16651916842     
  -3906.16259804204     
  -3830.78160320416     
  -3745.01221055288     
  -3647.59676973268     
  -3537.07010503611     
  -3411.79941924868     
  -3335.14854153475     
  -3446.79359152805     
  -3553.30033345367     
  -3652.60380260710     
  -3742.46149589256     
  -3820.84235460491     
  -3886.20611919701     
  -3937.64845556181     
  -3974.91567365781     
  -3998.31547212978     
  -4008.56218532382     
  -4006.59735736182     
  -3993.41910545884     
  -3969.94217955517     
  -3936.89744439970     
  -3894.76978923479     
  -3843.76742657439     
  -3783.81417337298     
  -3714.55716944556     
  -3635.38471758899     
  -3545.45074511287     
  -3443.70376319688     
  -3328.91888404500     
  -3199.73187194246     
  -3244.51241678410     
  -3345.70770157800     
  -3440.85571510744     
  -3528.63259840383     
  -3607.53829239034     
  -3676.15518885370     
  -3733.34596282873     
  -3778.36977717665     
  -3810.91451271316     
  -3831.05753234315     
  -3839.17684850236     
  -3835.83741466639     
  -3821.67480043902     
  -3797.29231748585     
  -3763.18046302475     
  -3719.66104398397     
  -3666.85402159635     
  -3604.66293686063     
  -3532.77445943766     
  -3450.66819818932     
  -3357.63386836200     
  -3252.79372973483     
  -3135.12882747040     
  -3003.50796393700     
  -3158.76487011463     
  -3250.48528248942     
  -3335.71731597424     
  -3413.57558981622     
  -3483.02779031003     
  -3543.06383858834     
  -3592.83279019823     
  -3631.73100759032     
  -3659.43680020580     
  -3675.89671600844     
  -3681.27542292272     
  -3675.88412419306     
  -3660.10196032524     
  -3634.30194272960     
  -3598.78887841138     
  -3553.75275938925     
  -3499.23795892716     
  -3435.12666622795     
  -3361.13415257232     
  -3276.81339729679     
  -3181.56691657481     
  -3074.66407745776     
  -2955.26258181697     
  -2822.43313383788     
  -3078.74800857809     
  -3161.62064667623     
  -3237.89622345955     
  -3306.93910979752     
  -3368.00424364164     
  -3420.34564425978     
  -3463.30900498267     
  -3496.39583057721     
  -3519.29391285670     
  -3531.87554344692     
  -3534.16971638793     
  -3526.31717574299     
  -3508.51759859651     
  -3480.97695631996     
  -3443.86090433589     
  -3397.25761994637     
  -3341.15139566628     
  -3275.40677646064     
  -3199.76215553393     
  -3113.83138884753     
  -3017.11197840077     
  -2908.99853759038     
  -2788.80047784192     
  -2655.76308363836     
  -3004.78399455551     
  -3079.26466012263     
  -3147.26463081804     
  -3208.28291990389     
  -3261.74531792532     
  -3307.07232386202     
  -3343.74022367707     
  -3371.32604873638     
  -3389.53169812374     
  -3398.18684949521     
  -3397.23369564786     
  -3386.69864555942     
  -3366.65687038612     
  -3337.19519005577     
  -3298.37767409999     
  -3250.21690075027     
  -3192.65243360714     
  -3125.53696196516     
  -3048.62979334463     
  -2961.59696623342     
  -2864.01708813029     
  -2755.39200850241     
  -2635.16153192600     
  -2502.72151505833     
  -2936.85999092926     
  -3003.33304366013     
  -3063.58514013125     
  -3117.18185749538     
  -3163.64648888090     
  -3202.50118491918     
  -3233.30606230656     
  -3255.68957394520     
  -3269.36623404811     
  -3274.14061581215     
  -3269.89890466089     
  -3256.59090203739     
  -3234.20614718689     
  -3202.74784752373     
  -3162.20778931842     
  -3112.54458821334     
  -3053.66676120827     
  -2985.42132153842     
  -2907.58800249388     
  -2819.87882497854     
  -2721.94251194116     
  -2613.37317607382     
  -2493.72272052895     
  -2362.51646082277     
  -2874.75795399433     
  -2933.58968620401     
  -2986.54343013806     
  -3033.21289342904     
  -3073.17404435645     
  -3106.00884605258     
  -3131.32934566770     
  -3148.79735113009     
  -3158.13662807214     
  -3159.13637059761     
  -3151.64631655761     
  -3135.56507403962     
  -3110.82390921398     
  -3077.36843886714     
  -3035.14047712211     
  -2984.06184777203     
  -2924.02143373557     
  -2854.86620765760     
  -2776.39654519107     
  -2688.36579680455     
  -2590.48388548883     
  -2482.42458882049     
  -2363.83613029690     
  -2234.35472409621     
  -2818.14415027758     
  -2869.70851379444     
  -2915.77808342115     
  -2955.95462416603     
  -2989.84056177026     
  -3017.05163118688     
  -3037.23091384178     
  -3050.06092498667     
  -3055.27142987765     
  -3052.64183025457     
  -3041.99805472775     
  -3023.20475205606     
  -2996.15414392479     
  -2960.75313496832     
  -2916.91024956960     
  -2864.52374667101     
  -2803.47194299876     
  -2733.60642868626     
  -2654.74854291812     
  -2566.68922241022     
  -2469.19215303749     
  -2362.00004104813     
  -2244.84376379670     
  -2117.45414721300     
  -2766.62969889757     
  -2811.31804427137     
  -2850.90520360426     
  -2884.99201631558     
  -2913.19305950795     
  -2935.14243011853     
  -2950.50122410505     
  -2958.96440774999     
  -2960.26537338211     
  -2954.17720611394     
  -2940.51041738896     
  -2919.10751506192     
  -2889.83521259287     
  -2852.57531147657     
  -2807.21533878167     
  -2753.63992783643     
  -2691.72374713955     
  -2621.32656096310     
  -2542.29078515565     
  -2454.44171000862     
  -2357.59041209917     
  -2251.53927166371     
  -2136.08994732986     
  -2011.05362840583     
  -2719.81051104956     
  -2758.03249131331     
  -2791.53739750596     
  -2819.92260672676     
  -2842.80797052352     
  -2859.83751739067     
  -2870.68279522049     
  -2875.04628621387     
  -2872.66366786675     
  -2863.30415130242     
  -2846.76860950786     
  -2822.88563638520     
  -2791.50600217349     
  -2752.49616936268     
  -2705.73160852971     
  -2651.09062651437     
  -2588.44932055996     
  -2517.67813370468     
  -2438.64033692080     
  -2351.19262299162     
  -2255.18787845509     
  -2150.48010843681     
  -2036.93142467878     
  -1914.42096577122     
  -2677.29272912924     
  -2709.47270159003     
  -2737.29759407832     
  -2760.36229746568     
  -2778.28952158720     
  -2790.72923467510     
  -2797.35952201254     
  -2797.88781624367     
  -2792.05163868732     
  -2779.61827147650     
  -2760.38309406658     
  -2734.16661204533     
  -2700.81044335720     
  -2660.17268665341     
  -2612.12317469218     
  -2556.53912166220     
  -2493.30162406360     
  -2422.29339040590     
  -2343.39797444302     
  -2256.50068524462     
  -2161.49125554358     
  -2058.26827313023     
  -1946.74532013069     
  -1826.85872026798     
  -2638.70806789513     
  -2665.27957231963     
  -2687.82851328382     
  -2705.94996039061     
  -2719.26958513841     
  -2727.44200104770     
  -2730.15024781556     
  -2727.10573472264     
  -2718.04805407458     
  -2702.74424346731     
  -2680.98727721083     
  -2652.59376658003     
  -2617.40101808493     
  -2575.26372172180     
  -2526.05061099629     
  -2469.64145622102     
  -2405.92473119429     
  -2334.79624295913     
  -2256.15894737752     
  -2169.92410056565     
  -2076.01382591666     
  -1974.36511350443     
  -1864.93521523697     
  -1747.70835492415     
  -2603.72221090759     
  -2625.12201502312     
  -2642.79865961052     
  -2656.35063909430     
  -2665.40796078475     
  -2669.63011299684     
  -2668.70490356902     
  -2662.34773457049     
  -2650.30092163236     
  -2632.33276371058     
  -2608.23619624485     
  -2577.82699351156     
  -2540.94160472468     
  -2497.43479974177     
  -2447.17735760994     
  -2390.05405433154     
  -2325.96219944548     
  -2254.81094133459     
  -2176.52151653395     
  -2091.02856616592     
  -1998.28258895544     
  -1898.25354917908     
  -1790.93561150883     
  -1676.35293339593     
  -2572.03850846717     
  -2588.70104260733     
  -2601.90564752681     
  -2611.25742140488     
  -2616.39256725707     
  -2616.97642683339     
  -2612.70213891403     
  -2603.28965893370     
  -2588.48488989102     
  -2568.05872810548     
  -2541.80590569807     
  -2509.54359856206     
  -2471.10985010764     
  -2426.36192700910     
  -2375.17476772455     
  -2317.43970602175     
  -2253.06365178992     
  -2181.96889392457     
  -2104.09365996310     
  -2019.39352939263     
  -1927.84375643333     
  -1829.44251679182     
  -1724.21505328704     
  -1612.21865805289     
  -2543.39856938272     
  -2555.75116484332     
  -2564.87754938424     
  -2570.39218047393     
  -2571.93932562227     
  -2569.19140976303     
  -2561.84777830444     
  -2549.63372815243     
  -2532.29965634179     
  -2509.62020288555     
  -2481.39331105930     
  -2447.43918385947     
  -2407.59917007657     
  -2361.73465971314     
  -2309.72610148848     
  -2251.47227280393     
  -2186.88993505423     
  -2115.91399653340     
  -2038.49828434317     
  -1954.61699890471     
  -1864.26689288529     
  -1767.47018296079     
  -1664.27816943977     
  -1554.77550616955     
  -2517.58086955194     
  -2526.03997155855     
  -2531.47283006758     
  -2533.50542085278     
  -2531.79167957054     
  -2526.01228726587     
  -2515.87370114293     
  -2501.10735940950     
  -2481.46897881827     
  -2456.73787471114     
  -2426.71625967546     
  -2391.22851128689     
  -2350.12043511292     
  -2303.25858063715     
  -2250.52969116628     
  -2191.84038203830     
  -2127.11714414201     
  -2056.30676274919     
  -1979.37722663629     
  -1896.31918148913     
  -1807.14795668168     
  -1711.90616744611     
  -1610.66686650301     
  -1503.53719119848     
  -2494.39816442444     
  -2499.36654885136     
  -2501.47931554465     
  -2500.37546042721     
  -2495.71978351735     
  -2487.20215908565     
  -2474.53691589286     
  -2457.46230595190     
  -2435.74002722933     
  -2409.15476787297     
  -2377.51375308268     
  -2340.64629602669     
  -2298.40337664157     
  -2250.65729274851     
  -2197.30144369167     
  -2138.25031584112     
  -2073.43974111874     
  -2002.82749444826     
  -1926.39428460979     
  -1844.14517667001     
  -1756.11146433489     
  -1662.35298850286     
  -1562.96087501689     
  -1458.06064087564     
  -2473.69425256666     
  -2475.55919689441     
  -2474.71254157378     
  -2470.80715355941     
  -2463.51942771583     
  -2452.54903999328     
  -2437.61870591683     
  -2418.47395407052     
  -2394.88291095073     
  -2366.63609090260     
  -2333.54619053807     
  -2295.44789809417     
  -2252.19774150837     
  -2203.67401173156     
  -2149.77680772941     
  -2090.42825524041     
  -2025.57295193151     
  -1955.17868705363     
  -1879.23747449867     
  -1797.76692506683     
  -1710.81196768854     
  -1618.44691122645     
  -1520.77781913118     
  -1417.94514931739     
  -2455.34046673227     
  -2454.47278576334     
  -2451.01374568857     
  -2444.63032831216     
  -2435.01078196455     
  -2421.86482767215     
  -2404.92379109799     
  -2383.94068874636     
  -2358.69028463441     
  -2328.96912866772     
  -2294.59558898086     
  -2255.40989563503     
  -2211.27422021807     
  -2162.07282308588     
  -2107.71230556808     
  -2048.12200725261     
  -1983.25458778699     
  -1913.08682828930     
  -1837.62067963363     
  -1756.88457402210     
  -1670.93500299152     
  -1579.85834999615     
  -1483.77294961000     
  -1382.83132879770     
  -2439.23214762173     
  -2435.98598781192     
  -2430.24769906909     
  -2421.69807796266     
  -2410.03703802089     
  -2394.98422332678     
  -2376.27948865652     
  -2353.68328521961     
  -2326.97698035021     
  -2295.96313370267     
  -2260.46575089567     
  -2220.33053696233     
  -2175.42517502599     
  -2125.63965896623     
  -2070.88671127587     
  -2011.10231793152     
  -1946.24641033736     
  -1876.30372001542     
  -1801.28482475376     
  -1721.22739565536     
  -1636.19764336985     
  -1546.29194922989     
  -1451.63865357324     
  -1352.39995972542     
  -2425.28526995109     
  -2419.99855317937     
  -2412.30052284705     
  -2401.88501736665     
  -2388.46302266782     
  -2371.76364027534     
  -2351.53487867617     
  -2327.54431228070     
  -2299.57964329423     
  -2267.44919600603     
  -2230.98237002359     
  -2190.03007813568     
  -2144.46519489423     
  -2094.18304273633     
  -2039.10194267952     
  -1979.16385564218     
  -1914.33513781042     
  -1844.60742896812     
  -1769.99868631054     
  -1690.55436813558     
  -1606.34876223493     
  -1517.48644316251     
  -1424.10383125645     
  -1326.37081477542     
  -2413.43333054286     
  -2406.42874266253     
  -2397.07759336284     
  -2385.08558935668     
  -2370.17384263151     
  -2352.08013768531     
  -2330.55999110801     
  -2305.38754977337     
  -2276.35636654957     
  -2243.28008702151     
  -2205.99307712801     
  -2164.35101946001     
  -2118.23150469447     
  -2067.53464363443     
  -2012.18372400583     
  -1952.12593403568     
  -1887.33317155596     
  -1817.80295275257     
  -1743.55942867097     
  -1664.65451029902     
  -1581.16909467997     
  -1493.21437535097     
  -1400.93321079668     
  -1304.50151492933     
  -2403.62456672521     
  -2395.21099452063     
  -2384.50161060562     
  -2371.21248546438     
  -2355.07361145242     
  -2335.83041434540     
  -2313.24503560725     
  -2287.09743172509     
  -2257.18633102322     
  -2223.33008350603     
  -2185.36743550667     
  -2143.15825804624     
  -2096.58425550774     
  -2045.54967910407     
  -1989.98206727274     
  -1929.83303221398     
  -1865.07910804810     
  -1795.72267135068     
  -1721.79293909460     
  -1643.34704235340     
  -1560.47116665940     
  -1473.28174189142     
  -1381.92665627487     
  -1286.58646083470     
  -2395.81954521058     
  -2386.29387507957     
  -2374.51088151690     
  -2360.19522853700     
  -2343.08429811306     
  -2322.92989309720     
  -2299.49969618687     
  -2272.57853045328     
  -2241.96946217040     
  -2207.49478237658     
  -2168.99689986494     
  -2126.33917506755     
  -2079.40672139375     
  -2028.10719775572     
  -1972.37161300169     
  -1912.15515953719     
  -1847.43808936274     
  -1778.22664098095     
  -1704.55402010025     
  -1626.48143083847     
  -1544.09914733808     
  -1457.52760853537     
  -1366.91851152099     
  -1272.45587176875     
  -2389.98914309028     
  -2379.63834444490     
  -2367.05785332913     
  -2351.97895173748     
  -2334.14472820605     
  -2313.31192153749     
  -2289.25251105364     
  -2261.75509779554     
  -2230.62611718461     
  -2195.69091982433     
  -2156.79475350490     
  -2113.80367608536     
  -2066.60542568540     
  -2015.11027137130     
  -1959.25186409448     
  -1898.98810387008     
  -1834.30203493361     
  -1765.20277580771     
  -1691.72648583065     
  -1613.93736379269     
  -1531.92866800711     
  -1445.82374057588     
  -1355.77701200836     
  -1261.97495596194     
  -2386.11293091390     
  -2375.21635607804     
  -2362.10792024875     
  -2346.52339836835     
  -2328.20976080361     
  -2306.92710953026     
  -2282.45035518977     
  -2254.57067850011     
  -2223.09681617543     
  -2187.85620801174     
  -2148.69603829721     
  -2105.48420126253     
  -2058.11021686974     
  -2006.48611975842     
  -1950.54734050612     
  -1890.25359439683     
  -1825.58978852883     
  -1756.56695327314     
  -1683.22319880945     
  -1605.62469176413     
  -1523.86664095775     
  -1438.07427508900     
  -1348.40378903053     
  -1255.04322951889     
  -2384.17796103655     
  -2373.00980081077     
  -2359.63851843468     
  -2343.80215933906     
  -2325.24965787327     
  -2303.74281927484     
  -2279.05803988741     
  -2250.98780858085     
  -2219.34202928872     
  -2183.94920125547     
  -2144.65749015662     
  -2101.33571979808     
  -2053.87431061213     
  -2002.18618758446     
  -1946.20767647914     
  -1885.89940317805     
  -1821.24720653697     
  -1752.26307033660     
  -1678.98607466946     
  -1601.48336150105     
  -1519.85110327415     
  -1434.21545743227     
  -1344.73348380795     
  -1251.59399616908     
SCALARS 2waySource double 
LOOKUP_TABLE default
 -5.774416518467325E-018
 -6.077289806461445E-018
  8.893458442874039E-018
 -5.879941008480357E-018
  0.000000000000000E+000
  7.041007621230426E-019
  0.000000000000000E+000
 -2.086182773701595E-018
  0.000000000000000E+000
 -6.821210263296965E-020
 -1.425166645374500E-019
 -4.303775138004199E-019
  8.562950378710492E-019
 -9.843967890005821E-019
 -9.549694368615740E-019
  3.601541257502413E-019
 -4.019851058799578E-020
 -1.386542001308342E-019
 -3.516129621661490E-019
  1.489078864705485E-019
  8.942635535941495E-020
 -1.049562661997797E-019
  2.953670686285153E-020
 -1.136868377216159E-020
 -6.229461091960701E-019
 -2.319211489520974E-018
  4.246349896452058E-018
  1.252828110190711E-018
 -2.776348941700126E-018
  0.000000000000000E+000
  0.000000000000000E+000
  1.957163284393280E-019
  4.121001359858860E-019
 -9.078622322312085E-019
 -2.245461552551626E-019
 -1.603363227750270E-018
  1.870556597906013E-018
 -1.774112193780386E-018
  6.827185516528688E-019
  6.683036382449533E-019
 -7.955891546036255E-019
 -2.273736754432316E-020
 -1.766227158539350E-019
 -1.055244900130117E-020
  3.474517350979460E-019
 -1.303317459944282E-019
  1.220092918580221E-019
  5.379718922505250E-020
  1.575291032685413E-019
  2.980985249599036E-018
 -3.684211173931322E-018
  3.697270930265114E-018
 -2.152762406792843E-018
  3.232205542456872E-019
  1.451926583753243E-018
 -4.913021065155283E-019
 -7.592531084222452E-019
 -1.174618183491578E-018
  1.109233601046672E-018
 -4.385398615090237E-019
  4.961995151406922E-019
  6.821210263296960E-020
 -1.059619089083840E-019
  2.925395484404462E-019
 -3.676603451157873E-019
  1.788527107188299E-019
  7.694267415480591E-020
 -2.065675401022168E-019
  6.862022001839978E-020
 -5.918276844954618E-020
  2.167118717180878E-019
 -9.317946504218788E-020
 -1.921741050732726E-018
 -1.411728073165241E-018
 -1.062243602456073E-018
  8.843672329359110E-019
  0.000000000000000E+000
  1.174749964764833E-020
 -3.213693752562802E-018
 -1.451926583753241E-018
 -1.729789608950052E-019
 -7.186757819587642E-019
 -1.116169492845226E-019
  8.926310840524308E-019
  6.092459271511000E-021
  4.106863758918527E-019
 -3.909952379832836E-019
 -6.591649493376860E-019
 -6.532911995138620E-019
 -1.583453380394018E-019
 -2.229994864895074E-021
 -2.812294676881689E-020
  3.065170429529904E-020
 -5.075095958929694E-020
  1.213024118110047E-019
 -4.019851058799579E-020
  9.930473073085181E-019
  2.087537930775745E-018
  3.975251161501677E-019
  0.000000000000000E+000
 -1.506321298301474E-018
  1.649275381734290E-018
  4.563798204281825E-019
  1.586718319477461E-018
  1.557888492661624E-018
  9.123222219609998E-019
 -1.669564044966031E-018
 -5.659854842954992E-019
 -9.042184772722748E-019
 -6.015052957060177E-019
  7.125833226872502E-020
 -9.430032277662378E-019
  4.206412995699793E-019
 -2.600659666656816E-019
  1.433328993083106E-019
  1.264692815878125E-019
  2.372192443975158E-019
  5.379718922505248E-020
  2.273736754432319E-020
  0.000000000000000E+000
  0.000000000000000E+000
  1.380566748076603E-019
  2.602260730934849E-019
 -1.855544159174926E-018
 -3.178771466475458E-018
 -1.412106889040734E-018
  4.591215398401863E-020
  0.000000000000000E+000
  7.417919653785706E-019
  2.028866323174213E-020
 -1.177680115759180E-019
  6.516587299721410E-019
 -1.729789608950050E-019
 -1.136868377216140E-020
  4.439761924374760E-019
  1.794502360420048E-019
 -1.605753329042970E-019
  1.067781436792445E-019
  1.827151751254462E-019
 -2.031131930810311E-019
 -3.564810692813697E-019
  2.155968742856403E-019
  3.938227581713541E-020
  7.501144195149795E-020
 -2.545710327173444E-019
 -1.047668582620358E-019
 -1.396657031414270E-018
  1.341664791542867E-018
  1.188872990471695E-018
  2.113321527955820E-018
 -2.123116345206151E-018
 -6.857647812886257E-019
 -2.291795422799155E-018
 -1.056033937144800E-018
  1.083012584971224E-018
  6.130340859059813E-020
  5.604905503471608E-019
 -7.458731392328752E-019
 -2.996669519305038E-019
 -4.927158666095643E-019
 -3.079601045569674E-019
  1.035147748589879E-018
  2.655315991040766E-019
  4.476785504162908E-020
  6.130340859059824E-020
  1.349010904480614E-019
 -6.475775561178387E-020
  1.049562661997797E-019
 -8.344686090664580E-019
 -3.547138691638260E-019
 -3.843052533885998E-019
  2.358972581213580E-018
  1.881487862782812E-018
 -9.867439899052416E-020
  2.610423078643418E-019
  1.364242052659388E-019
 -2.180119870494749E-018
  1.704486331053381E-018
 -1.885889249492705E-019
  1.237116642728523E-018
  3.676603451157861E-019
  3.286568851741393E-019
  1.553049687056348E-018
  7.218020648084180E-019
 -4.773753637069436E-019
 -8.221889865545642E-020
  8.779388581769423E-020
 -1.386542001308343E-019
 -1.895145144439741E-019
 -2.872047209199113E-020
  9.429446247463542E-020
 -4.506661770321620E-020
 -4.511109213050220E-019
 -7.444847549908209E-019
  1.512851176468351E-018
  8.209353328883359E-019
 -1.171571953855824E-018
  6.094489339669342E-019
  3.987201667965166E-019
 -7.245338291507348E-020
  2.170821075159689E-018
  2.666743277832818E-018
  3.542217729065329E-019
 -1.010180386180663E-018
  1.822777562300746E-019
 -8.973097832299069E-019
 -1.656045419542879E-018
  2.171199891035185E-019
 -5.807284618749455E-019
 -5.300575554995493E-019
  4.060662797342606E-020
 -2.969995381702364E-019
  1.583453380394019E-019
  2.689859461252624E-020
 -2.836996221947667E-019
  9.774880949582106E-020
  8.690921324922161E-019
  2.910457351325105E-019
 -9.176570494815268E-020
  4.508848864798489E-019
  4.492524169381283E-019
  8.001820530050264E-020
  2.610716093742857E-018
  1.880292812136457E-018
 -2.882982681583417E-020
  7.844391802791506E-019
 -1.483904143612749E-019
 -3.240074875066049E-019
 -1.340927069931268E-020
 -5.045219692770978E-020
  7.156002508130621E-019
  5.275287979730662E-019
  8.813717550041106E-019
  1.074420669683168E-018
 -1.626159198314479E-019
 -2.807627472828541E-019
  1.319642155361491E-019
  2.474729307372301E-019
  9.277134765675778E-020
 -2.801359204497381E-020
 -8.193614663664927E-019
 -6.286225997662329E-019
  2.300117876935577E-019
 -2.608235984166536E-020
  7.826173027996860E-019
 -1.155743280353868E-018
  2.964606158669455E-020
 -1.711277819055975E-019
 -1.626609239732416E-020
 -8.471563489637854E-019
  1.691565230953397E-018
 -2.969995381702362E-019
 -1.855426953135159E-019
  1.150205446017498E-019
 -2.512260404200025E-019
 -1.055953883930897E-018
  0.000000000000000E+000
  3.369793393105448E-020
  8.333389608790423E-020
 -6.274647019457508E-020
 -7.085021488329489E-019
  4.621442155281665E-019
  1.177680115759182E-020
  1.552991084036463E-020
  5.360953374091383E-019
 -8.944100611438641E-020
 -1.177680115759176E-020
 -8.366196025943318E-020
 -1.041400314289193E-018
  1.351459608793192E-018
 -3.682578704389609E-019
 -7.346938633984589E-019
 -2.166825702081459E-019
  9.607338319615600E-019
  1.279275687029768E-018
  3.805228421958862E-019
 -1.208833589531898E-018
 -1.547744161045760E-018
 -3.934146407859229E-019
  4.376943252282223E-019
 -1.096349653772563E-019
  5.962290712053681E-019
  1.802664708128646E-019
 -6.598210776807450E-020
 -1.136868377216163E-020
  4.582016979076507E-019
  2.239193284220461E-019
  0.000000000000000E+000
  7.547384413305334E-019
  8.374347854883165E-019
  5.985684207941047E-019
 -6.453904616409748E-020
 -2.426048236220137E-020
  1.003650508013774E-018
 -8.616141627597436E-020
 -3.372273502681733E-019
 -5.857059237140087E-019
  7.067603245673861E-019
 -1.221616033398103E-018
  3.663266382356538E-019
 -5.973147671278717E-019
  8.533288614491970E-019
 -5.569561501120754E-019
  0.000000000000000E+000
  7.055145222170782E-020
  1.276936337441030E-019
  3.853108960972048E-019
  1.602765702427108E-019
  3.284674772363966E-019
  3.376061661436631E-019
  8.730571521836348E-021
  7.501144195149814E-020
 -2.151534128978594E-018
 -8.561856831472084E-020
 -2.385529512776493E-019
 -5.832279178914829E-019
  6.574524265820674E-019
 -3.311856427006234E-019
  1.127401624137361E-018
  2.932464284874627E-019
  1.708239440736156E-018
  8.725611302683765E-019
  2.330958989168609E-018
  1.419941172577813E-018
 -6.986565798786630E-019
  3.424742732588822E-019
  2.487773361074215E-019
 -2.306093130167318E-019
  7.359768185746337E-020
  3.608610057972580E-019
 -1.847264605426547E-019
 -2.638190763484549E-019
 -5.450406927206966E-020
  4.283662283832098E-020
  7.501144195149786E-020
 -5.684341886080792E-021
  8.201630503823866E-019
  6.267714207768202E-020
 -3.581857407210649E-020
  1.192786206582264E-018
  6.464918601953370E-019
  5.686235965458217E-019
  2.568303290921826E-019
  1.121090455418168E-018
  2.031424945909718E-019
 -4.828702976552806E-019
 -1.405446205955992E-018
 -6.933803553780149E-019
  6.257657780682173E-019
  5.753135811405094E-019
  1.253542841553648E-019
  0.000000000000000E+000
 -4.593166953400964E-019
 -7.008865747435599E-019
 -4.216469422785838E-019
  5.968558980384854E-019
  1.735178831982954E-020
 -2.011819608777232E-019
  2.385236497677075E-020
 -5.948153111113334E-020
  1.226156076341793E-018
 -8.455824824419456E-020
 -7.207456703958572E-021
 -6.668898781509213E-020
 -3.674416356681036E-020
  2.192113277346272E-020
 -7.359768185746357E-020
 -4.657079172731981E-019
  6.785573245846692E-019
  2.036306651903047E-019
 -4.886346927552648E-019
 -6.944152995965628E-019
 -2.167228071904717E-018
  1.363441520520385E-019
 -5.078376600645000E-019
 -3.869433656389252E-019
  1.464591821579674E-019
 -1.153193072633371E-019
  1.258717562646383E-019
  3.224843726887292E-019
 -2.523410378524505E-019
 -1.228255266288829E-019
 -3.826727838468803E-020
  7.207456703958557E-021
 -3.316581106681076E-020
  8.200536956585410E-019
 -5.532030404293036E-020
  6.448593906536147E-019
  1.117556055183085E-019
 -1.246474041083471E-019
 -8.355260553559030E-020
 -5.919584894133217E-019
  1.597300069988706E-018
  1.210546112287530E-018
 -3.265362450330889E-019
  1.603880699859554E-018
  6.167364438847959E-019
  4.159626003925043E-019
  5.383800096359555E-019
  1.511378813354442E-019
 -8.820200320312459E-020
 -1.582359833155586E-019
  1.745821289267847E-019
 -1.959057363770728E-019
 -1.969113790856776E-020
  1.128706029507559E-019
 -5.338907183962242E-020
  3.258293649860716E-020
 -7.618111674586716E-020
  3.496016767489406E-019
  5.065039531843654E-019
 -1.291132541401262E-018
  4.081173854302024E-022
  1.207556381917914E-020
  9.837563632893760E-020
  3.539230102449454E-019
 -6.844603759184345E-019
  1.748008383744704E-019
 -6.841323117469053E-019
  1.075645021839463E-018
  1.937850962360202E-019
 -7.023003348375953E-019
  4.228712944348745E-019
 -2.767108749384945E-019
  3.478598524833766E-019
 -3.496817299628413E-019
 -7.144774020646910E-020
  4.660066799347829E-019
 -9.288070238060089E-020
  2.812294676881667E-020
  2.282846141829637E-019
  6.100464592901089E-020
 -8.249764801356862E-019
  3.029826427179031E-020
 -7.035793643558057E-019
  2.238392752081459E-020
 -4.547473508864657E-020
 -1.400679602248678E-020
 -7.125833226872524E-020
  3.948870038998422E-019
  9.325308319788354E-019
  2.921314310550155E-019
 -3.745104361382753E-020
 -1.248623982734472E-018
 -6.420025689556017E-019
  9.023672982828720E-019
 -4.849909377963330E-019
 -5.640542520921890E-019
 -2.047456626227513E-019
  2.734459358550521E-019
 -3.675509903919448E-019
  1.292167485619810E-019
 -2.402654740332713E-019
 -1.489078864705483E-019
  6.445899295019719E-021
 -1.062753223249428E-019
  1.096056638673136E-020
  1.744874249579124E-019
 -9.962536433720808E-020
 -6.232370205417370E-020
  1.268773989732426E-020
  1.114997432447559E-021
 -1.523114817877757E-021
  4.811284733897157E-020
 -6.639022515350507E-020
  6.753216870111705E-019
  6.936791180396019E-019
  1.830139377870334E-019
 -6.424399878509726E-019
 -7.284119961892033E-019
 -1.207849397017311E-019
 -4.304068153103649E-020
  8.942635535941565E-020
  4.122094907097311E-019
  3.688700465171069E-019
  4.471317767970761E-020
 -3.862071840819652E-020
  1.469766542672412E-019
 -1.566728418907311E-019
 -1.421085471520203E-020
  6.445899295019668E-021
  1.546615564735221E-019
  3.889146244491818E-019
 -3.770977966846412E-020
  4.415567896348387E-020
  8.166139993923244E-020
 -6.462302503596150E-020
 -5.418490074121113E-019
 -5.053089025380169E-019
 -1.713064647463339E-019
 -7.112896424140682E-019
 -4.029321455686787E-020
 -5.371009801177424E-019
  2.474582799822589E-019
  5.095501828201214E-020
  7.207456703958522E-020
  4.122094907097281E-019
  4.066130533534757E-020
  1.289033351454226E-019
 -1.947360615827036E-019
  3.369793393105457E-020
  7.764955420182327E-020
  7.257738839388754E-020
  7.560896727467233E-021
  1.472500410768480E-019
 -8.750977391107789E-020
  6.431248540048490E-021
 -4.319006286182979E-020
  8.069578383757904E-020
  4.415567896348379E-020
  2.294689397323041E-019
  1.180411880101496E-018
  9.433966943966975E-019
 -1.975382059187933E-019
  2.812802193921276E-019
  2.260946459250190E-019
  5.653879589723239E-019
  4.687541469089511E-019
  2.597125266421730E-019
  6.072989923159401E-019
 -1.543520687149284E-020
 -5.362593694949047E-019
 -3.081094858877612E-019
  1.172905660735954E-019
 -7.876455163427096E-020
 -7.293082841739625E-020
 -6.917771873462362E-020
 -4.471317767970756E-020
 -1.801864175989641E-019
 -1.317269578604844E-018
  7.003398011243428E-021
 -7.521550064421331E-020
  2.141831141916048E-020
 -1.384101148311680E-019
 -6.505437325396891E-019
  3.364511421042632E-019
  7.090742983041427E-019
  5.817341045835492E-019
  7.261526998143646E-019
 -4.788037745559502E-019
 -7.313488711011116E-020
  5.078923374264196E-019
  2.730378184696197E-019
 -5.105304496767460E-019
 -1.304957780801924E-019
  2.253477392710504E-019
  2.518782431050978E-019
 -2.842170943040402E-020
 -1.606300102662181E-019
 -3.410605131648478E-020
 -9.492128930775157E-021
 -1.913363919234389E-020
 -6.211964336145906E-020
  8.866479795047677E-020
  4.471317767970751E-020
 -1.292167485619808E-019
  3.770977966846415E-020
  6.018733864845025E-019
 -6.270047809794858E-019
 -1.163632241252867E-018
 -1.454972813389000E-018
  5.901873636378202E-020
 -8.213327251767539E-019
 -2.632469268772598E-019
 -3.493829673012553E-019
 -4.703719656957010E-019
  7.747429926556660E-019
  1.126097218767177E-018
  2.446454105491619E-020
 -3.493829673012564E-019
 -1.518047347755109E-019
  3.466355003270858E-020
  1.107353120547320E-019
  4.435973765619908E-020
 -7.003398011243449E-021
 -1.057178236087190E-019
  2.852774143745652E-019
  8.846073925776161E-020
 -5.323969050882858E-020
 -7.125833226872526E-020
  1.000334817226375E-019
  2.447947918799526E-019
  9.017443971077145E-019
  8.253845975211142E-019
  9.217382233358339E-020
  6.094489339669374E-019
  1.746914836506269E-019
  4.300787511388344E-019
  5.557317979557820E-019
  4.136818538236470E-020
  3.224990234436973E-019
  2.977610955791742E-019
 -1.589575141175475E-019
  9.572287332364109E-020
 -1.879367222641752E-019
 -1.854479913446435E-019
 -3.999445189528069E-020
 -1.156180699249241E-019
 -1.024675352802484E-019
  2.080613534101524E-021
 -3.341518191224756E-019
  2.176774878197427E-019
 -7.389644451905063E-020
 -3.258293649860720E-020
  7.969014112897455E-021
  6.460837428099056E-020
 -8.440886691340127E-020
 -2.200021866535098E-019
  5.488231039134148E-019
 -5.647532808232893E-020
  3.137538011668926E-019
 -1.350104451719050E-019
 -9.674384673112109E-019
 -5.126843169857060E-021
 -7.371825943179927E-019
 -2.621866068067352E-019
 -3.527572611085398E-020
 -4.491723637242276E-020
  6.241840602304709E-021
  3.862464406616036E-021
  2.203156000700679E-019
  9.962536433720769E-020
  9.845568954283888E-021
 -1.523114817877758E-021
  1.595150128337700E-019
  6.730116389323711E-020
 -1.157274246487664E-020
 -1.004962764699893E-020
  7.729611417831434E-020
 -1.268773989732420E-020
  1.127358723749324E-019
 -7.928202374354369E-020
 -5.769060240752776E-019
  1.672252908920317E-019
  2.334514839597710E-019
  1.852585834068987E-019
  2.706037649120108E-019
 -3.707466013584929E-019
 -3.344992297342674E-021
  8.252352161903177E-019
 -4.302281324696254E-019
  4.567879378136125E-020
  4.409846401636413E-019
 -9.836098557396615E-020
 -1.589575141175462E-019
  5.831185631676407E-020
 -1.892958049962878E-020
 -1.344929730626305E-020
 -3.305480907704995E-019
  9.282602501867959E-020
  4.679379121380937E-020
 -3.258293649860727E-020
 -1.456429473871086E-020
  4.319006286182975E-020
  2.613703720358739E-020
 -1.447613101573170E-019
 -6.429135076953328E-019
  1.055244900130128E-020
  1.057178236087188E-019
  4.153650750693320E-019
  3.636885259853286E-019
  6.928628832687411E-019
 -6.864863120906165E-019
  4.658973252109399E-020
 -7.658923413129759E-020
  2.463032559428624E-019
 -6.516587299721450E-020
 -4.365285760918185E-021
  8.693762443988403E-020
 -1.661102934595850E-019
  1.168824486881660E-019
 -2.766015202146532E-020
 -1.651046507509796E-019
 -3.371033447893595E-019
 -3.218721966105837E-019
  1.248368120460919E-020
 -8.253231207201533E-020
 -2.178268691505353E-019
 -1.139455737762527E-019
 -1.549310176251657E-019
  8.075553636989684E-019
 -5.505249015720270E-019
 -3.871474243316397E-019
 -7.964053893744878E-019
  4.308256577927987E-019
 -1.484450917231972E-019
 -1.116062241875145E-019
 -3.721203348455789E-019
  6.420025689556039E-020
 -8.744044579418561E-020
 -6.126338198364747E-020
  4.242850545289097E-020
  8.374201347333425E-020
  7.058075373165016E-021
  6.308525946311262E-020
  3.798852902657597E-020
  8.801474028478202E-019
 -1.063250221520384E-020
  6.471840894873726E-019
 -3.694275452333281E-019
 -8.617606703094449E-020
  3.176562921804567E-019
 -1.592709275341050E-019
  2.145833802611121E-020
 -4.832637642857385E-019
  9.319411579715858E-020
  1.051887360831561E-018
 -7.546837639686116E-019
  8.069578383757823E-020
  2.220427735806586E-019
  5.537605391455245E-019
 -2.375180070591031E-019
  2.125506446498833E-019
 -4.828156202933579E-019
 -9.693257472496087E-020
  1.119596642110229E-019
  1.430194858917519E-019
 -2.426048236220085E-020
 -1.629146824930353E-020
  0.000000000000000E+000
 -3.313496747863878E-019
  4.333290394673077E-019
 -3.876502456859435E-019
  1.579918980158939E-019
 -5.616348492895531E-019
 -3.779540580624541E-019
 -6.236851645341157E-019
 -3.369393127035956E-019
 -4.047979753130580E-019
 -1.019500631709746E-019
 -9.191508627894659E-020
  9.405037717497021E-020
 -1.224174092434524E-019
  4.781408467738476E-020
  9.414508114384166E-020
 -9.176570494815332E-020
 -4.460568059715804E-019
  4.026226578100841E-019
  1.834220551724638E-019
  3.229871940430315E-019
  9.607631334715022E-020
 -8.714168313259839E-020
 -6.679101716144915E-020
 -4.745331927639058E-020
  3.907911792905670E-019
 -2.725203463603496E-020
  2.680389064365422E-020
  6.167510946397696E-019
  1.057578502156695E-019
 -8.472228032995897E-020
 -6.071349602301752E-019
  7.052518605044762E-019
  1.297195699162824E-019
  3.603728351979280E-020
  9.526007857628910E-020
  6.351195326147719E-021
  9.022793937530469E-020
  2.819324220772231E-019
  7.582767672235850E-020
 -3.464314416343720E-019
 -5.212469307638122E-020
 -9.845568954283818E-021
 -3.811789705389424E-020
 -1.530691135387515E-019
  2.055472466386416E-019
  9.028994211471189E-020
  4.405364961712637E-020
  2.481798107842465E-020
 -5.907341372570315E-020
  1.098243733149992E-019
 -7.879882312692076E-019
 -2.182349865359663E-019
  2.611663133431578E-019
  3.664359929594938E-019
  1.851892552900071E-019
  2.156769274995411E-020
 -2.578359718007852E-020
 -9.759942816502723E-020
 -8.840606189583881E-020
  6.288120077039712E-020
 -7.125833226872471E-020
  2.086881802432690E-019
 -5.699280019160105E-020
  1.837754951959710E-019
 -4.131350802044331E-020
  1.523075561298113E-019
  4.852096472440164E-020
  1.498188252102809E-019
 -2.200641893929159E-019
 -7.133302293412140E-020
  1.040306767050762E-021
  2.842170943040387E-021
  3.379596061671724E-019
  1.868217248317281E-019
  9.339817448987396E-020
  6.406434862234884E-019
  8.730571521836348E-021
  4.221097370259365E-019
 -1.971847658952850E-019
 -2.088375615740645E-019
  4.027720391408754E-019
 -2.838089769186110E-019
 -1.383007601073266E-019
  3.459286202800704E-019
  1.318548608123063E-019
 -2.397079753170476E-019
  5.933214978033966E-020
 -5.323969050882885E-020
  4.718725784426770E-021
 -4.755534862274830E-020
  1.776830359244625E-019
  4.317933776482107E-021
  2.021202382984159E-019
 -1.306851860179373E-020
  6.343869948662178E-021
 -1.098790506769222E-020
 -6.720567479277240E-019
  2.700794933636866E-020
  2.597925798560731E-019
 -3.273524798039500E-019
 -1.035425061057461E-019
 -3.327234082734733E-019
  3.654557261028715E-019
 -1.778470680102255E-019
 -3.222256366340925E-019
 -2.051391292532134E-019
  1.659609121287908E-019
 -2.649047722709609E-020
 -9.437451568853604E-021
 -1.340848556772009E-019
  8.455824824419522E-020
  3.431011000919996E-020
 -1.796142681277691E-019
 -1.324523861354802E-020
 -1.344929730626318E-020
 -1.010737884896890E-019
  2.758546135606855E-020
  1.050509701686521E-020
 -5.656466950269616E-020
 -3.222949647509840E-021
 -3.046151122596229E-019
 -7.562361802964293E-020
  8.431808860249096E-021
  1.827552017323957E-019
  5.534960555287409E-021
  4.708747870500015E-019
 -1.566181645288087E-019
  3.432905080297395E-019
  3.300452694161926E-019
  2.531572726233084E-019
 -6.587275304423098E-020
  1.850945513211337E-019
  3.864805708915719E-019
  2.151887569002087E-019
  2.125506446498832E-019
  5.461342399591254E-020
  3.744997110412637E-019
  8.498637893309957E-020
  1.011758178360455E-019
  2.276250861203811E-019
 -1.161208912792255E-019
 -4.943190346413401E-020
  8.800526988789430E-020
  2.547750914100589E-020
 -1.127758989818839E-019
 -2.836595955878170E-019
 -1.651993547198525E-019
  2.800558672358374E-019
  1.070915570958030E-019
 -1.684896696552722E-020
  1.042894127597127E-019
 -1.247967854391428E-019
 -1.487585051397550E-019
 -4.004912925720229E-020
  1.227708492669609E-019
 -3.991136334269762E-019
 -4.494164490238916E-019
 -1.874739275168246E-019
 -9.825163085012431E-020
  1.191124435530601E-019
 -7.896861032698649E-020
  3.689354489760387E-020
 -8.224623733641768E-020
 -5.965825112288772E-020
 -2.205050080078111E-020
 -1.299382793639690E-020
 -7.927469836605862E-020
  7.764955420182384E-021
  2.678709486928143E-019
  2.594938171944900E-019
 -1.085599945517584E-019
  5.126843169857095E-021
 -2.710265330524165E-020
 -3.127335077033170E-019
  8.886885664319079E-020
 -8.431808860250310E-021
 -1.839248765267682E-019
  4.969063951877138E-020
  4.090539063501360E-020
 -2.141831141916068E-020
  8.623074439286618E-020
  2.031131930810321E-019
  3.787156154713910E-019
 -9.394102245112745E-020
 -5.740091757703226E-020
  1.310659647224064E-019
 -1.627106238003202E-019
  4.149022803219771E-020
 -6.100464592901155E-020
 -1.560460150576173E-020
  3.382730195837318E-020
  5.684341886080845E-021
  3.535988717313771E-019
  6.745054522403029E-020
  1.421632245139399E-019
 -7.658923413129660E-020
 -1.268227216113201E-019
  1.604806289354241E-019
  1.761052437446618E-020
  1.424619871755293E-019
  1.257624015407942E-019
  2.178815465124549E-019
  3.700289962144648E-020
  2.472688720445138E-019
  3.099460141221974E-019
  1.945320028899872E-019
 -1.095256106534120E-019
 -1.169844780345223E-019
  1.630914025047896E-019
  7.450129521971037E-020
  6.724648653131490E-021
 -6.356806751393917E-020
 -3.534400235086670E-022
  4.450911898699188E-020
  0.000000000000000E+000
  1.487038277778318E-020
 -3.993977453335946E-020
  2.725203463603480E-020
 -6.369743554125813E-020
  4.110944932772812E-020
  6.546463565880033E-020
 -2.274683794121039E-019
  3.759281218902692E-019
  2.623359881375250E-019
 -1.113474881328768E-019
  8.379669083525551E-020
  1.896638957747670E-019
  1.037865914054107E-019
 -2.169159304108023E-019
 -8.465295221306608E-020
  1.799203561668415E-019
  6.107933659440811E-020
 -2.733868096078539E-023
 -8.977979538292303E-020
 -4.998940218035816E-020
 -7.754752485546574E-020
 -5.786371232438364E-021
  1.733177501635430E-020
 -1.781458306718134E-020
 -3.882477710091152E-021
  8.638012572365961E-020
  4.339412155454520E-020
 -8.998385407563792E-020
 -7.222394837038017E-020
 -1.972247925022365E-019
  1.142336113408317E-020
 -7.146239096144000E-020
 -1.954976189916425E-019
 -3.319511257675232E-020
 -1.392663762089801E-019
 -1.599231302192011E-019
 -1.033784740199804E-019
  6.003902982735699E-020
 -1.174946247663106E-019
 -7.394379650348630E-020
 -6.808273460565136E-020
  6.021574983911096E-020
  4.166694804395199E-020
  9.043932344550517E-020
 -4.052461193054399E-020
 -1.393210535709012E-020
  2.453923172031292E-020
 -2.182642880459031E-021
  3.222949647509817E-021
 -1.123677815964528E-019
 -2.510219817272858E-019
 -1.638256212327688E-019
  1.777377132863817E-019
  1.784992706953219E-019
  2.947148659434188E-019
  6.141276331444175E-020
 -1.752489823668505E-019
 -6.668898781509233E-020
 -3.319511257675248E-020
 -1.669958563473370E-020
 -7.207456703958546E-021
  9.698725208688220E-020
 -6.579806237883541E-020
  2.842170943040395E-021
  8.249764801356842E-020
  1.809333242529328E-020
  1.292914392273774E-019
  7.085021488329492E-020
  3.902883579362699E-020
  1.771255372082374E-020
 -1.507444147049838E-020
  1.667224695377294E-020
  1.240899053921245E-020
  9.241790763324925E-020
 -8.318451475711006E-020
 -1.722574300930161E-019
 -1.344929730626331E-020
 -1.089681119371901E-019
 -7.404582584984453E-020
  9.754475080310513E-020
  7.770423156374515E-020
  1.613915676751563E-019
  6.364275817933695E-020
 -1.011484791550845E-019
  8.730571521836354E-021
 -2.009925529399798E-020
  7.029271616707097E-020
  3.527572611085397E-020
  9.761944146850380E-020
  2.070410599465735E-020
 -5.785638694689836E-020
 -4.214975609477934E-020
 -4.166694804395170E-020
 -2.842170943040395E-021
  3.501699005621737E-021
  1.523440678665685E-035
  9.947598300641425E-021
  1.116062241875147E-019
  2.402107966713474E-019
  1.396198162324871E-019
 -3.527572611085408E-020
 -3.577854746515614E-020
 -1.936210641502553E-019
 -1.552991084036479E-020
  5.192063438366550E-020
 -7.404582584984419E-020
  8.186545863194722E-020
 -8.506106959849704E-020
 -1.373733487084276E-021
 -1.941238855045579E-020
  8.220424790048538E-021
 -7.719408483195690E-020
 -7.310754842915019E-020
  2.641578656169926E-020
 -1.185149182298860E-020
 -5.493952533846091E-020
  9.084011545344978E-021
  1.040306767050763E-021
 -1.319056125162638E-021
  7.764955420182253E-021
  2.842170943040401E-021
  2.994482424828179E-020
 -2.974076555556702E-020
 -9.186040891702546E-020
  1.365735865967328E-019
 -4.410100160156262E-020
  6.384681687205086E-020
  1.009444204623702E-019
 -1.123131042345325E-019
  8.465295221306670E-020
 -3.293637652211611E-020
  3.807787044694447E-021
  4.283662283832123E-020
  7.338629778726253E-020
 -5.029549021943076E-020
 -2.953670686285149E-020
  2.766015202146529E-020
 -6.557399038264432E-020
 -4.439976426314936E-021
 -1.801864175989643E-021
 -3.220215779413765E-020
  2.944200289397957E-021
 -1.268773989732426E-020
  2.263533819796565E-020
  3.807787044694456E-022
 -1.597190715264845E-019
 -7.556894066772144E-020
 -3.399669659264188E-021
  2.080359775581730E-019
  3.390199262376971E-020
 -5.130845830552048E-020
  5.400124791776760E-020
 -2.045269531750657E-020
  5.871997370219438E-020
  2.009925529399793E-020
  1.623571837768116E-019
 -2.141831141916058E-020
  6.928707345846645E-021
  7.303285776375396E-020
  2.880248813487344E-020
 -4.644035119030028E-021
  7.030736692204215E-021
  4.225178544113654E-020
 -3.807787044694253E-022
 -5.963091244192696E-021
  1.240899053921237E-020
 -1.136868377216161E-020
  2.182642880459105E-021
  3.222949647509880E-021
 -9.511069724549561E-020
 -2.273736754432318E-020
 -3.091044034993548E-020
  5.836653367868539E-020
  6.197026203066515E-020
  6.037781909589425E-021
  9.074541148457745E-020
 -7.207456703958524E-021
 -2.065675401022149E-020
 -2.238392752081446E-020
 -6.780398524753889E-020
  1.060712636322265E-020
  1.060712636322262E-020
  7.003398011243409E-021
 -2.007191661303699E-020
  5.684341886080774E-021
 -1.147071311851908E-020
 -4.773206863450191E-020
  3.012154426003611E-020
  4.263256414560592E-021
  2.301611690243497E-020
 -1.306851860179377E-020
  2.842170943040376E-021
 -1.240899053921229E-020
 -4.512129506513792E-020
 -1.837208178340484E-020
  7.207456703958501E-021
  1.098790506769208E-019
 -8.879952852629746E-021
 -1.157274246487659E-020
 -3.577854746515584E-020
  6.364275817933607E-020
  4.922784477141938E-021
  1.004962764699903E-020
 -3.761581922631320E-036
 -7.207456703958492E-021
  2.080613534101519E-021
  3.807787044694390E-022
  5.303563181611404E-021
  1.687630564648816E-020
  1.317054794815115E-020
  0.000000000000000E+000
  6.724648653131523E-021
  2.974076555556646E-020
  1.202821183474296E-020
  2.106485876673539E-035
  1.733177501635418E-020
 -6.724648653131547E-021
SCALARS elementIsPlast double 
LOOKUP_TABLE default
  0.000000000000000E+000
  0.000000000000000E+000
  0.000000000000000E+000
  0.000000000000000E+000
  0.000000000000000E+000
  0.000000000000000E+000
  0.000000000000000E+000
  0.000000000000000E+000
  0.000000000000000E+000
  0.000000000000000E+000
  0.000000000000000E+000
  0.000000000000000E+000
  0.000000000000000E+000
  0.000000000000000E+000
  0.000000000000000E+000
  0.000000000000000E+000
  0.000000000000000E+000
  0.000000000000000E+000
  0.000000000000000E+000
  0.000000000000000E+000
  0.000000000000000E+000
  0.000000000000000E+000
  0.000000000000000E+000
  0.000000000000000E+000
  0.000000000000000E+000
  0.000000000000000E+000
  0.000000000000000E+000
  0.000000000000000E+000
  0.000000000000000E+000
  0.000000000000000E+000
  0.000000000000000E+000
  0.000000000000000E+000
  0.000000000000000E+000
  0.000000000000000E+000
  0.000000000000000E+000
  0.000000000000000E+000
  0.000000000000000E+000
  0.000000000000000E+000
  0.000000000000000E+000
  0.000000000000000E+000
  0.000000000000000E+000
  0.000000000000000E+000
  0.000000000000000E+000
  0.000000000000000E+000
  0.000000000000000E+000
  0.000000000000000E+000
  0.000000000000000E+000
  0.000000000000000E+000
  0.000000000000000E+000
  0.000000000000000E+000
  0.000000000000000E+000
  0.000000000000000E+000
  0.000000000000000E+000
  0.000000000000000E+000
  0.000000000000000E+000
  0.000000000000000E+000
  0.000000000000000E+000
  0.000000000000000E+000
  0.000000000000000E+000
  0.000000000000000E+000
  0.000000000000000E+000
  0.000000000000000E+000
  0.000000000000000E+000
  0.000000000000000E+000
  0.000000000000000E+000
  0.000000000000000E+000
  0.000000000000000E+000
  0.000000000000000E+000
  0.000000000000000E+000
  0.000000000000000E+000
  0.000000000000000E+000
  0.000000000000000E+000
  0.000000000000000E+000
  0.000000000000000E+000
  0.000000000000000E+000
  0.000000000000000E+000
  0.000000000000000E+000
  0.000000000000000E+000
  0.000000000000000E+000
  0.000000000000000E+000
  0.000000000000000E+000
  0.000000000000000E+000
  0.000000000000000E+000
  0.000000000000000E+000
  0.000000000000000E+000
  0.000000000000000E+000
  0.000000000000000E+000
  0.000000000000000E+000
  0.000000000000000E+000
  0.000000000000000E+000
  0.000000000000000E+000
  0.000000000000000E+000
  0.000000000000000E+000
  0.000000000000000E+000
  0.000000000000000E+000
  0.000000000000000E+000
  0.000000000000000E+000
  0.000000000000000E+000
  0.000000000000000E+000
  0.000000000000000E+000
  0.000000000000000E+000
  0.000000000000000E+000
  0.000000000000000E+000
  0.000000000000000E+000
  0.000000000000000E+000
  0.000000000000000E+000
  0.000000000000000E+000
  0.000000000000000E+000
  0.000000000000000E+000
  0.000000000000000E+000
  0.000000000000000E+000
  0.000000000000000E+000
  0.000000000000000E+000
  0.000000000000000E+000
  0.000000000000000E+000
  0.000000000000000E+000
  0.000000000000000E+000
  0.000000000000000E+000
  0.000000000000000E+000
  0.000000000000000E+000
  0.000000000000000E+000
  0.000000000000000E+000
  0.000000000000000E+000
  0.000000000000000E+000
  0.000000000000000E+000
  0.000000000000000E+000
  0.000000000000000E+000
  0.000000000000000E+000
  0.000000000000000E+000
  0.000000000000000E+000
  0.000000000000000E+000
  0.000000000000000E+000
  0.000000000000000E+000
  0.000000000000000E+000
  0.000000000000000E+000
  0.000000000000000E+000
  0.000000000000000E+000
  0.000000000000000E+000
  0.000000000000000E+000
  0.000000000000000E+000
  0.000000000000000E+000
  0.000000000000000E+000
  0.000000000000000E+000
  0.000000000000000E+000
  0.000000000000000E+000
  0.000000000000000E+000
  0.000000000000000E+000
  0.000000000000000E+000
  0.000000000000000E+000
  0.000000000000000E+000
  0.000000000000000E+000
  0.000000000000000E+000
  0.000000000000000E+000
  0.000000000000000E+000
  0.000000000000000E+000
  0.000000000000000E+000
  0.000000000000000E+000
  0.000000000000000E+000
  0.000000000000000E+000
  0.000000000000000E+000
  0.000000000000000E+000
  0.000000000000000E+000
  0.000000000000000E+000
  0.000000000000000E+000
  0.000000000000000E+000
  0.000000000000000E+000
  0.000000000000000E+000
  0.000000000000000E+000
  0.000000000000000E+000
  0.000000000000000E+000
  0.000000000000000E+000
  0.000000000000000E+000
  0.000000000000000E+000
  0.000000000000000E+000
  0.000000000000000E+000
  0.000000000000000E+000
  0.000000000000000E+000
  0.000000000000000E+000
  0.000000000000000E+000
  0.000000000000000E+000
  0.000000000000000E+000
  0.000000000000000E+000
  0.000000000000000E+000
  0.000000000000000E+000
  0.000000000000000E+000
  0.000000000000000E+000
  0.000000000000000E+000
  0.000000000000000E+000
  0.000000000000000E+000
  0.000000000000000E+000
  0.000000000000000E+000
  0.000000000000000E+000
  0.000000000000000E+000
  0.000000000000000E+000
  0.000000000000000E+000
  0.000000000000000E+000
  0.000000000000000E+000
  0.000000000000000E+000
  0.000000000000000E+000
  0.000000000000000E+000
  0.000000000000000E+000
  0.000000000000000E+000
  0.000000000000000E+000
  0.000000000000000E+000
  0.000000000000000E+000
  0.000000000000000E+000
  0.000000000000000E+000
  0.000000000000000E+000
  0.000000000000000E+000
  0.000000000000000E+000
  0.000000000000000E+000
  0.000000000000000E+000
  0.000000000000000E+000
  0.000000000000000E+000
  0.000000000000000E+000
  0.000000000000000E+000
  0.000000000000000E+000
  0.000000000000000E+000
  0.000000000000000E+000
  0.000000000000000E+000
  0.000000000000000E+000
  0.000000000000000E+000
  0.000000000000000E+000
  0.000000000000000E+000
  0.000000000000000E+000
  0.000000000000000E+000
  0.000000000000000E+000
  0.000000000000000E+000
  0.000000000000000E+000
  0.000000000000000E+000
  0.000000000000000E+000
  0.000000000000000E+000
  0.000000000000000E+000
  0.000000000000000E+000
  0.000000000000000E+000
  0.000000000000000E+000
  0.000000000000000E+000
  0.000000000000000E+000
  0.000000000000000E+000
  0.000000000000000E+000
  0.000000000000000E+000
  0.000000000000000E+000
  0.000000000000000E+000
  0.000000000000000E+000
  0.000000000000000E+000
  0.000000000000000E+000
  0.000000000000000E+000
  0.000000000000000E+000
  0.000000000000000E+000
  0.000000000000000E+000
  0.000000000000000E+000
  0.000000000000000E+000
  0.000000000000000E+000
  0.000000000000000E+000
  0.000000000000000E+000
  0.000000000000000E+000
  0.000000000000000E+000
  0.000000000000000E+000
  0.000000000000000E+000
  0.000000000000000E+000
  0.000000000000000E+000
  0.000000000000000E+000
  0.000000000000000E+000
  0.000000000000000E+000
  0.000000000000000E+000
  0.000000000000000E+000
  0.000000000000000E+000
  0.000000000000000E+000
  0.000000000000000E+000
  0.000000000000000E+000
  0.000000000000000E+000
  0.000000000000000E+000
  0.000000000000000E+000
  0.000000000000000E+000
  0.000000000000000E+000
  0.000000000000000E+000
  0.000000000000000E+000
  0.000000000000000E+000
  0.000000000000000E+000
  0.000000000000000E+000
  0.000000000000000E+000
  0.000000000000000E+000
  0.000000000000000E+000
  0.000000000000000E+000
  0.000000000000000E+000
  0.000000000000000E+000
  0.000000000000000E+000
  0.000000000000000E+000
  0.000000000000000E+000
  0.000000000000000E+000
  0.000000000000000E+000
  0.000000000000000E+000
  0.000000000000000E+000
  0.000000000000000E+000
  0.000000000000000E+000
  0.000000000000000E+000
  0.000000000000000E+000
  0.000000000000000E+000
  0.000000000000000E+000
  0.000000000000000E+000
  0.000000000000000E+000
  0.000000000000000E+000
  0.000000000000000E+000
  0.000000000000000E+000
  0.000000000000000E+000
  0.000000000000000E+000
  0.000000000000000E+000
  0.000000000000000E+000
  0.000000000000000E+000
  0.000000000000000E+000
  0.000000000000000E+000
  0.000000000000000E+000
  0.000000000000000E+000
  0.000000000000000E+000
  0.000000000000000E+000
  0.000000000000000E+000
  0.000000000000000E+000
  0.000000000000000E+000
  0.000000000000000E+000
  0.000000000000000E+000
  0.000000000000000E+000
  0.000000000000000E+000
  0.000000000000000E+000
  0.000000000000000E+000
  0.000000000000000E+000
  0.000000000000000E+000
  0.000000000000000E+000
  0.000000000000000E+000
  0.000000000000000E+000
  0.000000000000000E+000
  0.000000000000000E+000
  0.000000000000000E+000
  0.000000000000000E+000
  0.000000000000000E+000
  0.000000000000000E+000
  0.000000000000000E+000
  0.000000000000000E+000
  0.000000000000000E+000
  0.000000000000000E+000
  0.000000000000000E+000
  0.000000000000000E+000
  0.000000000000000E+000
  0.000000000000000E+000
  0.000000000000000E+000
  0.000000000000000E+000
  0.000000000000000E+000
  0.000000000000000E+000
  0.000000000000000E+000
  0.000000000000000E+000
  0.000000000000000E+000
  0.000000000000000E+000
  0.000000000000000E+000
  0.000000000000000E+000
  0.000000000000000E+000
  0.000000000000000E+000
  0.000000000000000E+000
  0.000000000000000E+000
  0.000000000000000E+000
  0.000000000000000E+000
  0.000000000000000E+000
  0.000000000000000E+000
  0.000000000000000E+000
  0.000000000000000E+000
  0.000000000000000E+000
  0.000000000000000E+000
  0.000000000000000E+000
  0.000000000000000E+000
  0.000000000000000E+000
  0.000000000000000E+000
  0.000000000000000E+000
  0.000000000000000E+000
  0.000000000000000E+000
  0.000000000000000E+000
  0.000000000000000E+000
  0.000000000000000E+000
  0.000000000000000E+000
  0.000000000000000E+000
  0.000000000000000E+000
  0.000000000000000E+000
  0.000000000000000E+000
  0.000000000000000E+000
  0.000000000000000E+000
  0.000000000000000E+000
  0.000000000000000E+000
  0.000000000000000E+000
  0.000000000000000E+000
  0.000000000000000E+000
  0.000000000000000E+000
  0.000000000000000E+000
  0.000000000000000E+000
  0.000000000000000E+000
  0.000000000000000E+000
  0.000000000000000E+000
  0.000000000000000E+000
  0.000000000000000E+000
  0.000000000000000E+000
  0.000000000000000E+000
  0.000000000000000E+000
  0.000000000000000E+000
  0.000000000000000E+000
  0.000000000000000E+000
  0.000000000000000E+000
  0.000000000000000E+000
  0.000000000000000E+000
  0.000000000000000E+000
  0.000000000000000E+000
  0.000000000000000E+000
  0.000000000000000E+000
  0.000000000000000E+000
  0.000000000000000E+000
  0.000000000000000E+000
  0.000000000000000E+000
  0.000000000000000E+000
  0.000000000000000E+000
  0.000000000000000E+000
  0.000000000000000E+000
  0.000000000000000E+000
  0.000000000000000E+000
  0.000000000000000E+000
  0.000000000000000E+000
  0.000000000000000E+000
  0.000000000000000E+000
  0.000000000000000E+000
  0.000000000000000E+000
  0.000000000000000E+000
  0.000000000000000E+000
  0.000000000000000E+000
  0.000000000000000E+000
  0.000000000000000E+000
  0.000000000000000E+000
  0.000000000000000E+000
  0.000000000000000E+000
  0.000000000000000E+000
  0.000000000000000E+000
  0.000000000000000E+000
  0.000000000000000E+000
  0.000000000000000E+000
  0.000000000000000E+000
  0.000000000000000E+000
  0.000000000000000E+000
  0.000000000000000E+000
  0.000000000000000E+000
  0.000000000000000E+000
  0.000000000000000E+000
  0.000000000000000E+000
  0.000000000000000E+000
  0.000000000000000E+000
  0.000000000000000E+000
  0.000000000000000E+000
  0.000000000000000E+000
  0.000000000000000E+000
  0.000000000000000E+000
  0.000000000000000E+000
  0.000000000000000E+000
  0.000000000000000E+000
  0.000000000000000E+000
  0.000000000000000E+000
  0.000000000000000E+000
  0.000000000000000E+000
  0.000000000000000E+000
  0.000000000000000E+000
  0.000000000000000E+000
  0.000000000000000E+000
  0.000000000000000E+000
  0.000000000000000E+000
  0.000000000000000E+000
  0.000000000000000E+000
  0.000000000000000E+000
  0.000000000000000E+000
  0.000000000000000E+000
  0.000000000000000E+000
  0.000000000000000E+000
  0.000000000000000E+000
  0.000000000000000E+000
  0.000000000000000E+000
  0.000000000000000E+000
  0.000000000000000E+000
  0.000000000000000E+000
  0.000000000000000E+000
  0.000000000000000E+000
  0.000000000000000E+000
  0.000000000000000E+000
  0.000000000000000E+000
  0.000000000000000E+000
  0.000000000000000E+000
  0.000000000000000E+000
  0.000000000000000E+000
  0.000000000000000E+000
  0.000000000000000E+000
  0.000000000000000E+000
  0.000000000000000E+000
  0.000000000000000E+000
  0.000000000000000E+000
  0.000000000000000E+000
  0.000000000000000E+000
  0.000000000000000E+000
  0.000000000000000E+000
  0.000000000000000E+000
  0.000000000000000E+000
  0.000000000000000E+000
  0.000000000000000E+000
  0.000000000000000E+000
  0.000000000000000E+000
  0.000000000000000E+000
  0.000000000000000E+000
  0.000000000000000E+000
  0.000000000000000E+000
  0.000000000000000E+000
  0.000000000000000E+000
  0.000000000000000E+000
  0.000000000000000E+000
  0.000000000000000E+000
  0.000000000000000E+000
  0.000000000000000E+000
  0.000000000000000E+000
  0.000000000000000E+000
  0.000000000000000E+000
  0.000000000000000E+000
  0.000000000000000E+000
  0.000000000000000E+000
  0.000000000000000E+000
  0.000000000000000E+000
  0.000000000000000E+000
  0.000000000000000E+000
  0.000000000000000E+000
  0.000000000000000E+000
  0.000000000000000E+000
  0.000000000000000E+000
  0.000000000000000E+000
  0.000000000000000E+000
  0.000000000000000E+000
  0.000000000000000E+000
  0.000000000000000E+000
  0.000000000000000E+000
  0.000000000000000E+000
  0.000000000000000E+000
  0.000000000000000E+000
  0.000000000000000E+000
  0.000000000000000E+000
  0.000000000000000E+000
  0.000000000000000E+000
  0.000000000000000E+000
  0.000000000000000E+000
  0.000000000000000E+000
  0.000000000000000E+000
  0.000000000000000E+000
  0.000000000000000E+000
  0.000000000000000E+000
  0.000000000000000E+000
  0.000000000000000E+000
  0.000000000000000E+000
  0.000000000000000E+000
  0.000000000000000E+000
  0.000000000000000E+000
  0.000000000000000E+000
  0.000000000000000E+000
  0.000000000000000E+000
  0.000000000000000E+000
  0.000000000000000E+000
  0.000000000000000E+000
  0.000000000000000E+000
  0.000000000000000E+000
  0.000000000000000E+000
  0.000000000000000E+000
  0.000000000000000E+000
  0.000000000000000E+000
  0.000000000000000E+000
  0.000000000000000E+000
  0.000000000000000E+000
  0.000000000000000E+000
  0.000000000000000E+000
  0.000000000000000E+000
  0.000000000000000E+000
  0.000000000000000E+000
  0.000000000000000E+000
  0.000000000000000E+000
  0.000000000000000E+000
  0.000000000000000E+000
  0.000000000000000E+000
  0.000000000000000E+000
  0.000000000000000E+000
  0.000000000000000E+000
  0.000000000000000E+000
  0.000000000000000E+000
  0.000000000000000E+000
  0.000000000000000E+000
  0.000000000000000E+000
  0.000000000000000E+000
  0.000000000000000E+000
  0.000000000000000E+000
  0.000000000000000E+000
  0.000000000000000E+000
  0.000000000000000E+000
  0.000000000000000E+000
  0.000000000000000E+000
  0.000000000000000E+000
  0.000000000000000E+000
  0.000000000000000E+000
  0.000000000000000E+000
  0.000000000000000E+000
  0.000000000000000E+000
  0.000000000000000E+000
  0.000000000000000E+000
  0.000000000000000E+000
  0.000000000000000E+000
  0.000000000000000E+000
  0.000000000000000E+000
  0.000000000000000E+000
  0.000000000000000E+000
  0.000000000000000E+000
  0.000000000000000E+000
  0.000000000000000E+000
  0.000000000000000E+000
  0.000000000000000E+000
  0.000000000000000E+000
  0.000000000000000E+000
  0.000000000000000E+000
  0.000000000000000E+000
  0.000000000000000E+000
  0.000000000000000E+000
  0.000000000000000E+000
  0.000000000000000E+000
  0.000000000000000E+000
  0.000000000000000E+000
  0.000000000000000E+000
  0.000000000000000E+000
  0.000000000000000E+000
  0.000000000000000E+000
  0.000000000000000E+000
  0.000000000000000E+000
  0.000000000000000E+000
  0.000000000000000E+000
  0.000000000000000E+000
  0.000000000000000E+000
  0.000000000000000E+000
  0.000000000000000E+000
  0.000000000000000E+000
  0.000000000000000E+000
  0.000000000000000E+000
  0.000000000000000E+000
  0.000000000000000E+000
  0.000000000000000E+000
  0.000000000000000E+000
  0.000000000000000E+000
  0.000000000000000E+000
  0.000000000000000E+000
  0.000000000000000E+000
  0.000000000000000E+000
  0.000000000000000E+000
  0.000000000000000E+000
  0.000000000000000E+000
  0.000000000000000E+000
  0.000000000000000E+000
  0.000000000000000E+000
  0.000000000000000E+000
  0.000000000000000E+000
  0.000000000000000E+000
  0.000000000000000E+000
  0.000000000000000E+000
  0.000000000000000E+000
  0.000000000000000E+000
  0.000000000000000E+000
  0.000000000000000E+000
  0.000000000000000E+000
  0.000000000000000E+000
  0.000000000000000E+000
  0.000000000000000E+000
  0.000000000000000E+000
  0.000000000000000E+000
  0.000000000000000E+000
  0.000000000000000E+000
  0.000000000000000E+000
  0.000000000000000E+000
  0.000000000000000E+000
  0.000000000000000E+000
  0.000000000000000E+000
  0.000000000000000E+000
  0.000000000000000E+000
  0.000000000000000E+000
  0.000000000000000E+000
  0.000000000000000E+000
  0.000000000000000E+000
  0.000000000000000E+000
  0.000000000000000E+000
  0.000000000000000E+000
  0.000000000000000E+000
  0.000000000000000E+000
  0.000000000000000E+000
  0.000000000000000E+000
  0.000000000000000E+000
  0.000000000000000E+000
  0.000000000000000E+000
  0.000000000000000E+000
  0.000000000000000E+000
  0.000000000000000E+000
  0.000000000000000E+000
  0.000000000000000E+000
  0.000000000000000E+000
  0.000000000000000E+000
  0.000000000000000E+000
  0.000000000000000E+000
  0.000000000000000E+000
  0.000000000000000E+000
  0.000000000000000E+000
  0.000000000000000E+000
  0.000000000000000E+000
  0.000000000000000E+000
  0.000000000000000E+000
  0.000000000000000E+000
  0.000000000000000E+000
  0.000000000000000E+000
  0.000000000000000E+000
  0.000000000000000E+000
  0.000000000000000E+000
  0.000000000000000E+000
  0.000000000000000E+000
  0.000000000000000E+000
  0.000000000000000E+000
  0.000000000000000E+000
  0.000000000000000E+000
  0.000000000000000E+000
  0.000000000000000E+000
  0.000000000000000E+000
  0.000000000000000E+000
  0.000000000000000E+000
  0.000000000000000E+000
  0.000000000000000E+000
  0.000000000000000E+000
  0.000000000000000E+000
  0.000000000000000E+000
  0.000000000000000E+000
  0.000000000000000E+000
  0.000000000000000E+000
  0.000000000000000E+000
  0.000000000000000E+000
  0.000000000000000E+000
  0.000000000000000E+000
  0.000000000000000E+000
  0.000000000000000E+000
  0.000000000000000E+000
  0.000000000000000E+000
  0.000000000000000E+000
  0.000000000000000E+000
  0.000000000000000E+000
  0.000000000000000E+000
  0.000000000000000E+000
  0.000000000000000E+000
  0.000000000000000E+000
  0.000000000000000E+000
  0.000000000000000E+000
  0.000000000000000E+000
  0.000000000000000E+000
  0.000000000000000E+000
  0.000000000000000E+000
  0.000000000000000E+000
  0.000000000000000E+000
  0.000000000000000E+000
  0.000000000000000E+000
  0.000000000000000E+000
  0.000000000000000E+000
  0.000000000000000E+000
  0.000000000000000E+000
  0.000000000000000E+000
  0.000000000000000E+000
  0.000000000000000E+000
  0.000000000000000E+000
  0.000000000000000E+000
  0.000000000000000E+000
  0.000000000000000E+000
  0.000000000000000E+000
  0.000000000000000E+000
  0.000000000000000E+000
  0.000000000000000E+000
  0.000000000000000E+000
  0.000000000000000E+000
  0.000000000000000E+000
  0.000000000000000E+000
  0.000000000000000E+000
  0.000000000000000E+000
  0.000000000000000E+000
  0.000000000000000E+000
  0.000000000000000E+000
  0.000000000000000E+000
  0.000000000000000E+000
  0.000000000000000E+000
  0.000000000000000E+000
  0.000000000000000E+000
  0.000000000000000E+000
  0.000000000000000E+000
  0.000000000000000E+000
  0.000000000000000E+000
  0.000000000000000E+000
  0.000000000000000E+000
  0.000000000000000E+000
  0.000000000000000E+000
  0.000000000000000E+000
  0.000000000000000E+000
  0.000000000000000E+000
  0.000000000000000E+000
  0.000000000000000E+000
  0.000000000000000E+000
  0.000000000000000E+000
  0.000000000000000E+000
  0.000000000000000E+000
  0.000000000000000E+000
  0.000000000000000E+000
  0.000000000000000E+000
  0.000000000000000E+000
  0.000000000000000E+000
  0.000000000000000E+000
  0.000000000000000E+000
  0.000000000000000E+000
  0.000000000000000E+000
  0.000000000000000E+000
  0.000000000000000E+000
  0.000000000000000E+000
  0.000000000000000E+000
  0.000000000000000E+000
  0.000000000000000E+000
  0.000000000000000E+000
  0.000000000000000E+000
  0.000000000000000E+000
  0.000000000000000E+000
  0.000000000000000E+000
  0.000000000000000E+000
  0.000000000000000E+000
  0.000000000000000E+000
  0.000000000000000E+000
  0.000000000000000E+000
  0.000000000000000E+000
  0.000000000000000E+000
  0.000000000000000E+000
  0.000000000000000E+000
  0.000000000000000E+000
  0.000000000000000E+000
  0.000000000000000E+000
  0.000000000000000E+000
  0.000000000000000E+000
  0.000000000000000E+000
  0.000000000000000E+000
  0.000000000000000E+000
  0.000000000000000E+000
  0.000000000000000E+000
  0.000000000000000E+000
  0.000000000000000E+000
  0.000000000000000E+000
  0.000000000000000E+000
  0.000000000000000E+000
  0.000000000000000E+000
  0.000000000000000E+000
  0.000000000000000E+000
  0.000000000000000E+000
  0.000000000000000E+000
  0.000000000000000E+000
  0.000000000000000E+000
  0.000000000000000E+000
  0.000000000000000E+000
  0.000000000000000E+000
  0.000000000000000E+000
  0.000000000000000E+000
  0.000000000000000E+000
  0.000000000000000E+000
  0.000000000000000E+000
  0.000000000000000E+000
  0.000000000000000E+000
  0.000000000000000E+000
  0.000000000000000E+000
  0.000000000000000E+000
  0.000000000000000E+000
  0.000000000000000E+000
  0.000000000000000E+000
  0.000000000000000E+000
  0.000000000000000E+000
  0.000000000000000E+000
  0.000000000000000E+000
  0.000000000000000E+000
  0.000000000000000E+000
  0.000000000000000E+000
  0.000000000000000E+000
  0.000000000000000E+000
  0.000000000000000E+000
  0.000000000000000E+000
  0.000000000000000E+000
  0.000000000000000E+000
  0.000000000000000E+000
  0.000000000000000E+000
  0.000000000000000E+000
  0.000000000000000E+000
  0.000000000000000E+000
  0.000000000000000E+000
  0.000000000000000E+000
  0.000000000000000E+000
  0.000000000000000E+000
  0.000000000000000E+000
  0.000000000000000E+000
  0.000000000000000E+000
  0.000000000000000E+000
  0.000000000000000E+000
  0.000000000000000E+000
  0.000000000000000E+000
  0.000000000000000E+000
  0.000000000000000E+000
  0.000000000000000E+000
  0.000000000000000E+000
  0.000000000000000E+000
  0.000000000000000E+000
  0.000000000000000E+000
  0.000000000000000E+000
  0.000000000000000E+000
  0.000000000000000E+000
  0.000000000000000E+000
  0.000000000000000E+000
  0.000000000000000E+000
  0.000000000000000E+000
  0.000000000000000E+000
  0.000000000000000E+000
  0.000000000000000E+000
  0.000000000000000E+000
  0.000000000000000E+000
  0.000000000000000E+000
  0.000000000000000E+000
  0.000000000000000E+000
  0.000000000000000E+000
  0.000000000000000E+000
  0.000000000000000E+000
  0.000000000000000E+000
  0.000000000000000E+000
  0.000000000000000E+000
  0.000000000000000E+000
  0.000000000000000E+000
  0.000000000000000E+000
  0.000000000000000E+000
  0.000000000000000E+000
  0.000000000000000E+000
  0.000000000000000E+000
  0.000000000000000E+000
  0.000000000000000E+000
  0.000000000000000E+000
  0.000000000000000E+000
  0.000000000000000E+000
  0.000000000000000E+000
  0.000000000000000E+000
  0.000000000000000E+000
  0.000000000000000E+000
  0.000000000000000E+000
  0.000000000000000E+000
  0.000000000000000E+000
  0.000000000000000E+000
  0.000000000000000E+000
  0.000000000000000E+000
  0.000000000000000E+000
  0.000000000000000E+000
  0.000000000000000E+000
  0.000000000000000E+000
  0.000000000000000E+000
  0.000000000000000E+000
  0.000000000000000E+000
  0.000000000000000E+000
  0.000000000000000E+000
  0.000000000000000E+000
  0.000000000000000E+000
  0.000000000000000E+000
  0.000000000000000E+000
  0.000000000000000E+000
  0.000000000000000E+000
  0.000000000000000E+000
  0.000000000000000E+000
  0.000000000000000E+000
  0.000000000000000E+000
  0.000000000000000E+000
  0.000000000000000E+000
  0.000000000000000E+000
  0.000000000000000E+000
  0.000000000000000E+000
  0.000000000000000E+000
  0.000000000000000E+000
  0.000000000000000E+000
  0.000000000000000E+000
  0.000000000000000E+000
  0.000000000000000E+000
  0.000000000000000E+000
  0.000000000000000E+000
  0.000000000000000E+000
  0.000000000000000E+000
  0.000000000000000E+000
  0.000000000000000E+000
  0.000000000000000E+000
  0.000000000000000E+000
  0.000000000000000E+000
  0.000000000000000E+000
  0.000000000000000E+000
  0.000000000000000E+000
  0.000000000000000E+000
  0.000000000000000E+000
  0.000000000000000E+000
  0.000000000000000E+000
  0.000000000000000E+000
  0.000000000000000E+000
  0.000000000000000E+000
  0.000000000000000E+000
  0.000000000000000E+000
  0.000000000000000E+000
  0.000000000000000E+000
  0.000000000000000E+000
  0.000000000000000E+000
  0.000000000000000E+000
  0.000000000000000E+000
  0.000000000000000E+000
  0.000000000000000E+000
  0.000000000000000E+000
  0.000000000000000E+000
  0.000000000000000E+000
  0.000000000000000E+000
  0.000000000000000E+000
  0.000000000000000E+000
  0.000000000000000E+000
  0.000000000000000E+000
  0.000000000000000E+000
  0.000000000000000E+000
  0.000000000000000E+000
  0.000000000000000E+000
  0.000000000000000E+000
  0.000000000000000E+000
  0.000000000000000E+000
  0.000000000000000E+000
  0.000000000000000E+000
  0.000000000000000E+000
  0.000000000000000E+000
  0.000000000000000E+000
  0.000000000000000E+000
  0.000000000000000E+000
  0.000000000000000E+000
  0.000000000000000E+000
  0.000000000000000E+000
  0.000000000000000E+000
  0.000000000000000E+000
  0.000000000000000E+000
  0.000000000000000E+000
  0.000000000000000E+000
  0.000000000000000E+000
  0.000000000000000E+000
  0.000000000000000E+000
  0.000000000000000E+000
  0.000000000000000E+000
  0.000000000000000E+000
  0.000000000000000E+000
  0.000000000000000E+000
  0.000000000000000E+000
  0.000000000000000E+000
  0.000000000000000E+000
  0.000000000000000E+000
  0.000000000000000E+000
  0.000000000000000E+000
  0.000000000000000E+000
  0.000000000000000E+000
  0.000000000000000E+000
  0.000000000000000E+000
  0.000000000000000E+000
  0.000000000000000E+000
  0.000000000000000E+000
  0.000000000000000E+000
  0.000000000000000E+000
  0.000000000000000E+000
  0.000000000000000E+000
  0.000000000000000E+000
  0.000000000000000E+000
  0.000000000000000E+000
  0.000000000000000E+000
  0.000000000000000E+000
  0.000000000000000E+000
  0.000000000000000E+000
  0.000000000000000E+000
  0.000000000000000E+000
  0.000000000000000E+000
  0.000000000000000E+000
  0.000000000000000E+000
  0.000000000000000E+000
  0.000000000000000E+000
  0.000000000000000E+000
  0.000000000000000E+000
  0.000000000000000E+000
  0.000000000000000E+000
  0.000000000000000E+000
  0.000000000000000E+000
  0.000000000000000E+000
  0.000000000000000E+000
  0.000000000000000E+000
  0.000000000000000E+000
  0.000000000000000E+000
  0.000000000000000E+000
  0.000000000000000E+000
  0.000000000000000E+000
  0.000000000000000E+000
  0.000000000000000E+000
  0.000000000000000E+000
  0.000000000000000E+000
  0.000000000000000E+000
  0.000000000000000E+000
  0.000000000000000E+000
  0.000000000000000E+000
  0.000000000000000E+000
  0.000000000000000E+000
  0.000000000000000E+000
  0.000000000000000E+000
  0.000000000000000E+000
  0.000000000000000E+000
  0.000000000000000E+000
  0.000000000000000E+000
  0.000000000000000E+000
  0.000000000000000E+000
  0.000000000000000E+000
  0.000000000000000E+000
  0.000000000000000E+000
  0.000000000000000E+000
  0.000000000000000E+000
  0.000000000000000E+000
  0.000000000000000E+000
  0.000000000000000E+000
  0.000000000000000E+000
  0.000000000000000E+000
  0.000000000000000E+000
  0.000000000000000E+000
  0.000000000000000E+000
  0.000000000000000E+000
  0.000000000000000E+000
  0.000000000000000E+000
  0.000000000000000E+000
  0.000000000000000E+000
  0.000000000000000E+000
  0.000000000000000E+000
  0.000000000000000E+000
  0.000000000000000E+000
  0.000000000000000E+000
  0.000000000000000E+000
  0.000000000000000E+000
  0.000000000000000E+000
  0.000000000000000E+000
  0.000000000000000E+000
  0.000000000000000E+000
  0.000000000000000E+000
  0.000000000000000E+000
  0.000000000000000E+000
  0.000000000000000E+000
  0.000000000000000E+000
  0.000000000000000E+000
  0.000000000000000E+000
  0.000000000000000E+000
  0.000000000000000E+000
  0.000000000000000E+000
  0.000000000000000E+000
  0.000000000000000E+000
  0.000000000000000E+000
