# vtk DataFile Version 3.0
vtk output
ASCII
DATASET UNSTRUCTURED_GRID
POINTS      1225 double 
  0.00000000E+00  2.40000000E+01  0.00000000E+00
  0.00000000E+00  2.30000000E+01  0.00000000E+00
  0.00000000E+00  2.20000000E+01  0.00000000E+00
  0.00000000E+00  2.10000000E+01  0.00000000E+00
  0.00000000E+00  2.00000000E+01  0.00000000E+00
  0.00000000E+00  1.90000000E+01  0.00000000E+00
  0.00000000E+00  1.80000000E+01  0.00000000E+00
  0.00000000E+00  1.70000000E+01  0.00000000E+00
  0.00000000E+00  1.60000000E+01  0.00000000E+00
  0.00000000E+00  1.50000000E+01  0.00000000E+00
  0.00000000E+00  1.40000000E+01  0.00000000E+00
  0.00000000E+00  1.30000000E+01  0.00000000E+00
  0.00000000E+00  1.20000000E+01  0.00000000E+00
  0.00000000E+00  1.10000000E+01  0.00000000E+00
  0.00000000E+00  1.00000000E+01  0.00000000E+00
  0.00000000E+00  9.00000000E+00  0.00000000E+00
  0.00000000E+00  8.00000000E+00  0.00000000E+00
  0.00000000E+00  7.00000000E+00  0.00000000E+00
  0.00000000E+00  6.00000000E+00  0.00000000E+00
  0.00000000E+00  5.00000000E+00  0.00000000E+00
  0.00000000E+00  4.00000000E+00  0.00000000E+00
  0.00000000E+00  3.00000000E+00  0.00000000E+00
  0.00000000E+00  2.00000000E+00  0.00000000E+00
  0.00000000E+00  1.00000000E+00  0.00000000E+00
  0.00000000E+00 -2.66453526E-15  0.00000000E+00
  1.00000000E+00  2.40000000E+01  0.00000000E+00
  1.00000000E+00  2.30000000E+01  0.00000000E+00
  1.00000000E+00  2.20000000E+01  0.00000000E+00
  1.00000000E+00  2.10000000E+01  0.00000000E+00
  1.00000000E+00  2.00000000E+01  0.00000000E+00
  1.00000000E+00  1.90000000E+01  0.00000000E+00
  1.00000000E+00  1.80000000E+01  0.00000000E+00
  1.00000000E+00  1.70000000E+01  0.00000000E+00
  1.00000000E+00  1.60000000E+01  0.00000000E+00
  1.00000000E+00  1.50000000E+01  0.00000000E+00
  1.00000000E+00  1.40000000E+01  0.00000000E+00
  1.00000000E+00  1.30000000E+01  0.00000000E+00
  1.00000000E+00  1.20000000E+01  0.00000000E+00
  1.00000000E+00  1.10000000E+01  0.00000000E+00
  1.00000000E+00  1.00000000E+01  0.00000000E+00
  1.00000000E+00  9.00000000E+00  0.00000000E+00
  1.00000000E+00  8.00000000E+00  0.00000000E+00
  1.00000000E+00  7.00000000E+00  0.00000000E+00
  1.00000000E+00  6.00000000E+00  0.00000000E+00
  1.00000000E+00  5.00000000E+00  0.00000000E+00
  1.00000000E+00  4.00000000E+00  0.00000000E+00
  1.00000000E+00  3.00000000E+00  0.00000000E+00
  1.00000000E+00  2.00000000E+00  0.00000000E+00
  1.00000000E+00  1.00000000E+00  0.00000000E+00
  1.00000000E+00 -2.66453526E-15  0.00000000E+00
  2.00000000E+00  2.40000000E+01  0.00000000E+00
  2.00000000E+00  2.30000000E+01  0.00000000E+00
  2.00000000E+00  2.20000000E+01  0.00000000E+00
  2.00000000E+00  2.10000000E+01  0.00000000E+00
  2.00000000E+00  2.00000000E+01  0.00000000E+00
  2.00000000E+00  1.90000000E+01  0.00000000E+00
  2.00000000E+00  1.80000000E+01  0.00000000E+00
  2.00000000E+00  1.70000000E+01  0.00000000E+00
  2.00000000E+00  1.60000000E+01  0.00000000E+00
  2.00000000E+00  1.50000000E+01  0.00000000E+00
  2.00000000E+00  1.40000000E+01  0.00000000E+00
  2.00000000E+00  1.30000000E+01  0.00000000E+00
  2.00000000E+00  1.20000000E+01  0.00000000E+00
  2.00000000E+00  1.10000000E+01  0.00000000E+00
  2.00000000E+00  1.00000000E+01  0.00000000E+00
  2.00000000E+00  9.00000000E+00  0.00000000E+00
  2.00000000E+00  8.00000000E+00  0.00000000E+00
  2.00000000E+00  7.00000000E+00  0.00000000E+00
  2.00000000E+00  6.00000000E+00  0.00000000E+00
  2.00000000E+00  5.00000000E+00  0.00000000E+00
  2.00000000E+00  4.00000000E+00  0.00000000E+00
  2.00000000E+00  3.00000000E+00  0.00000000E+00
  2.00000000E+00  2.00000000E+00  0.00000000E+00
  2.00000000E+00  1.00000000E+00  0.00000000E+00
  2.00000000E+00 -2.66453526E-15  0.00000000E+00
  3.00000000E+00  2.40000000E+01  0.00000000E+00
  3.00000000E+00  2.30000000E+01  0.00000000E+00
  3.00000000E+00  2.20000000E+01  0.00000000E+00
  3.00000000E+00  2.10000000E+01  0.00000000E+00
  3.00000000E+00  2.00000000E+01  0.00000000E+00
  3.00000000E+00  1.90000000E+01  0.00000000E+00
  3.00000000E+00  1.80000000E+01  0.00000000E+00
  3.00000000E+00  1.70000000E+01  0.00000000E+00
  3.00000000E+00  1.60000000E+01  0.00000000E+00
  3.00000000E+00  1.50000000E+01  0.00000000E+00
  3.00000000E+00  1.40000000E+01  0.00000000E+00
  3.00000000E+00  1.30000000E+01  0.00000000E+00
  3.00000000E+00  1.20000000E+01  0.00000000E+00
  3.00000000E+00  1.10000000E+01  0.00000000E+00
  3.00000000E+00  1.00000000E+01  0.00000000E+00
  3.00000000E+00  9.00000000E+00  0.00000000E+00
  3.00000000E+00  8.00000000E+00  0.00000000E+00
  3.00000000E+00  7.00000000E+00  0.00000000E+00
  3.00000000E+00  6.00000000E+00  0.00000000E+00
  3.00000000E+00  5.00000000E+00  0.00000000E+00
  3.00000000E+00  4.00000000E+00  0.00000000E+00
  3.00000000E+00  3.00000000E+00  0.00000000E+00
  3.00000000E+00  2.00000000E+00  0.00000000E+00
  3.00000000E+00  1.00000000E+00  0.00000000E+00
  3.00000000E+00 -2.66453526E-15  0.00000000E+00
  4.00000000E+00  2.40000000E+01  0.00000000E+00
  4.00000000E+00  2.30000000E+01  0.00000000E+00
  4.00000000E+00  2.20000000E+01  0.00000000E+00
  4.00000000E+00  2.10000000E+01  0.00000000E+00
  4.00000000E+00  2.00000000E+01  0.00000000E+00
  4.00000000E+00  1.90000000E+01  0.00000000E+00
  4.00000000E+00  1.80000000E+01  0.00000000E+00
  4.00000000E+00  1.70000000E+01  0.00000000E+00
  4.00000000E+00  1.60000000E+01  0.00000000E+00
  4.00000000E+00  1.50000000E+01  0.00000000E+00
  4.00000000E+00  1.40000000E+01  0.00000000E+00
  4.00000000E+00  1.30000000E+01  0.00000000E+00
  4.00000000E+00  1.20000000E+01  0.00000000E+00
  4.00000000E+00  1.10000000E+01  0.00000000E+00
  4.00000000E+00  1.00000000E+01  0.00000000E+00
  4.00000000E+00  9.00000000E+00  0.00000000E+00
  4.00000000E+00  8.00000000E+00  0.00000000E+00
  4.00000000E+00  7.00000000E+00  0.00000000E+00
  4.00000000E+00  6.00000000E+00  0.00000000E+00
  4.00000000E+00  5.00000000E+00  0.00000000E+00
  4.00000000E+00  4.00000000E+00  0.00000000E+00
  4.00000000E+00  3.00000000E+00  0.00000000E+00
  4.00000000E+00  2.00000000E+00  0.00000000E+00
  4.00000000E+00  1.00000000E+00  0.00000000E+00
  4.00000000E+00 -2.66453526E-15  0.00000000E+00
  5.00000000E+00  2.40000000E+01  0.00000000E+00
  5.00000000E+00  2.30000000E+01  0.00000000E+00
  5.00000000E+00  2.20000000E+01  0.00000000E+00
  5.00000000E+00  2.10000000E+01  0.00000000E+00
  5.00000000E+00  2.00000000E+01  0.00000000E+00
  5.00000000E+00  1.90000000E+01  0.00000000E+00
  5.00000000E+00  1.80000000E+01  0.00000000E+00
  5.00000000E+00  1.70000000E+01  0.00000000E+00
  5.00000000E+00  1.60000000E+01  0.00000000E+00
  5.00000000E+00  1.50000000E+01  0.00000000E+00
  5.00000000E+00  1.40000000E+01  0.00000000E+00
  5.00000000E+00  1.30000000E+01  0.00000000E+00
  5.00000000E+00  1.20000000E+01  0.00000000E+00
  5.00000000E+00  1.10000000E+01  0.00000000E+00
  5.00000000E+00  1.00000000E+01  0.00000000E+00
  5.00000000E+00  9.00000000E+00  0.00000000E+00
  5.00000000E+00  8.00000000E+00  0.00000000E+00
  5.00000000E+00  7.00000000E+00  0.00000000E+00
  5.00000000E+00  6.00000000E+00  0.00000000E+00
  5.00000000E+00  5.00000000E+00  0.00000000E+00
  5.00000000E+00  4.00000000E+00  0.00000000E+00
  5.00000000E+00  3.00000000E+00  0.00000000E+00
  5.00000000E+00  2.00000000E+00  0.00000000E+00
  5.00000000E+00  1.00000000E+00  0.00000000E+00
  5.00000000E+00 -2.66453526E-15  0.00000000E+00
  6.00000000E+00  2.40000000E+01  0.00000000E+00
  6.00000000E+00  2.30000000E+01  0.00000000E+00
  6.00000000E+00  2.20000000E+01  0.00000000E+00
  6.00000000E+00  2.10000000E+01  0.00000000E+00
  6.00000000E+00  2.00000000E+01  0.00000000E+00
  6.00000000E+00  1.90000000E+01  0.00000000E+00
  6.00000000E+00  1.80000000E+01  0.00000000E+00
  6.00000000E+00  1.70000000E+01  0.00000000E+00
  6.00000000E+00  1.60000000E+01  0.00000000E+00
  6.00000000E+00  1.50000000E+01  0.00000000E+00
  6.00000000E+00  1.40000000E+01  0.00000000E+00
  6.00000000E+00  1.30000000E+01  0.00000000E+00
  6.00000000E+00  1.20000000E+01  0.00000000E+00
  6.00000000E+00  1.10000000E+01  0.00000000E+00
  6.00000000E+00  1.00000000E+01  0.00000000E+00
  6.00000000E+00  9.00000000E+00  0.00000000E+00
  6.00000000E+00  8.00000000E+00  0.00000000E+00
  6.00000000E+00  7.00000000E+00  0.00000000E+00
  6.00000000E+00  6.00000000E+00  0.00000000E+00
  6.00000000E+00  5.00000000E+00  0.00000000E+00
  6.00000000E+00  4.00000000E+00  0.00000000E+00
  6.00000000E+00  3.00000000E+00  0.00000000E+00
  6.00000000E+00  2.00000000E+00  0.00000000E+00
  6.00000000E+00  1.00000000E+00  0.00000000E+00
  6.00000000E+00 -2.66453526E-15  0.00000000E+00
  7.00000000E+00  2.40000000E+01  0.00000000E+00
  7.00000000E+00  2.30000000E+01  0.00000000E+00
  7.00000000E+00  2.20000000E+01  0.00000000E+00
  7.00000000E+00  2.10000000E+01  0.00000000E+00
  7.00000000E+00  2.00000000E+01  0.00000000E+00
  7.00000000E+00  1.90000000E+01  0.00000000E+00
  7.00000000E+00  1.80000000E+01  0.00000000E+00
  7.00000000E+00  1.70000000E+01  0.00000000E+00
  7.00000000E+00  1.60000000E+01  0.00000000E+00
  7.00000000E+00  1.50000000E+01  0.00000000E+00
  7.00000000E+00  1.40000000E+01  0.00000000E+00
  7.00000000E+00  1.30000000E+01  0.00000000E+00
  7.00000000E+00  1.20000000E+01  0.00000000E+00
  7.00000000E+00  1.10000000E+01  0.00000000E+00
  7.00000000E+00  1.00000000E+01  0.00000000E+00
  7.00000000E+00  9.00000000E+00  0.00000000E+00
  7.00000000E+00  8.00000000E+00  0.00000000E+00
  7.00000000E+00  7.00000000E+00  0.00000000E+00
  7.00000000E+00  6.00000000E+00  0.00000000E+00
  7.00000000E+00  5.00000000E+00  0.00000000E+00
  7.00000000E+00  4.00000000E+00  0.00000000E+00
  7.00000000E+00  3.00000000E+00  0.00000000E+00
  7.00000000E+00  2.00000000E+00  0.00000000E+00
  7.00000000E+00  1.00000000E+00  0.00000000E+00
  7.00000000E+00 -2.66453526E-15  0.00000000E+00
  8.00000000E+00  2.40000000E+01  0.00000000E+00
  8.00000000E+00  2.30000000E+01  0.00000000E+00
  8.00000000E+00  2.20000000E+01  0.00000000E+00
  8.00000000E+00  2.10000000E+01  0.00000000E+00
  8.00000000E+00  2.00000000E+01  0.00000000E+00
  8.00000000E+00  1.90000000E+01  0.00000000E+00
  8.00000000E+00  1.80000000E+01  0.00000000E+00
  8.00000000E+00  1.70000000E+01  0.00000000E+00
  8.00000000E+00  1.60000000E+01  0.00000000E+00
  8.00000000E+00  1.50000000E+01  0.00000000E+00
  8.00000000E+00  1.40000000E+01  0.00000000E+00
  8.00000000E+00  1.30000000E+01  0.00000000E+00
  8.00000000E+00  1.20000000E+01  0.00000000E+00
  8.00000000E+00  1.10000000E+01  0.00000000E+00
  8.00000000E+00  1.00000000E+01  0.00000000E+00
  8.00000000E+00  9.00000000E+00  0.00000000E+00
  8.00000000E+00  8.00000000E+00  0.00000000E+00
  8.00000000E+00  7.00000000E+00  0.00000000E+00
  8.00000000E+00  6.00000000E+00  0.00000000E+00
  8.00000000E+00  5.00000000E+00  0.00000000E+00
  8.00000000E+00  4.00000000E+00  0.00000000E+00
  8.00000000E+00  3.00000000E+00  0.00000000E+00
  8.00000000E+00  2.00000000E+00  0.00000000E+00
  8.00000000E+00  1.00000000E+00  0.00000000E+00
  8.00000000E+00 -2.66453526E-15  0.00000000E+00
  9.00000000E+00  2.40000000E+01  0.00000000E+00
  9.00000000E+00  2.30000000E+01  0.00000000E+00
  9.00000000E+00  2.20000000E+01  0.00000000E+00
  9.00000000E+00  2.10000000E+01  0.00000000E+00
  9.00000000E+00  2.00000000E+01  0.00000000E+00
  9.00000000E+00  1.90000000E+01  0.00000000E+00
  9.00000000E+00  1.80000000E+01  0.00000000E+00
  9.00000000E+00  1.70000000E+01  0.00000000E+00
  9.00000000E+00  1.60000000E+01  0.00000000E+00
  9.00000000E+00  1.50000000E+01  0.00000000E+00
  9.00000000E+00  1.40000000E+01  0.00000000E+00
  9.00000000E+00  1.30000000E+01  0.00000000E+00
  9.00000000E+00  1.20000000E+01  0.00000000E+00
  9.00000000E+00  1.10000000E+01  0.00000000E+00
  9.00000000E+00  1.00000000E+01  0.00000000E+00
  9.00000000E+00  9.00000000E+00  0.00000000E+00
  9.00000000E+00  8.00000000E+00  0.00000000E+00
  9.00000000E+00  7.00000000E+00  0.00000000E+00
  9.00000000E+00  6.00000000E+00  0.00000000E+00
  9.00000000E+00  5.00000000E+00  0.00000000E+00
  9.00000000E+00  4.00000000E+00  0.00000000E+00
  9.00000000E+00  3.00000000E+00  0.00000000E+00
  9.00000000E+00  2.00000000E+00  0.00000000E+00
  9.00000000E+00  1.00000000E+00  0.00000000E+00
  9.00000000E+00 -2.66453526E-15  0.00000000E+00
  1.00000000E+01  2.40000000E+01  0.00000000E+00
  1.00000000E+01  2.30000000E+01  0.00000000E+00
  1.00000000E+01  2.20000000E+01  0.00000000E+00
  1.00000000E+01  2.10000000E+01  0.00000000E+00
  1.00000000E+01  2.00000000E+01  0.00000000E+00
  1.00000000E+01  1.90000000E+01  0.00000000E+00
  1.00000000E+01  1.80000000E+01  0.00000000E+00
  1.00000000E+01  1.70000000E+01  0.00000000E+00
  1.00000000E+01  1.60000000E+01  0.00000000E+00
  1.00000000E+01  1.50000000E+01  0.00000000E+00
  1.00000000E+01  1.40000000E+01  0.00000000E+00
  1.00000000E+01  1.30000000E+01  0.00000000E+00
  1.00000000E+01  1.20000000E+01  0.00000000E+00
  1.00000000E+01  1.10000000E+01  0.00000000E+00
  1.00000000E+01  1.00000000E+01  0.00000000E+00
  1.00000000E+01  9.00000000E+00  0.00000000E+00
  1.00000000E+01  8.00000000E+00  0.00000000E+00
  1.00000000E+01  7.00000000E+00  0.00000000E+00
  1.00000000E+01  6.00000000E+00  0.00000000E+00
  1.00000000E+01  5.00000000E+00  0.00000000E+00
  1.00000000E+01  4.00000000E+00  0.00000000E+00
  1.00000000E+01  3.00000000E+00  0.00000000E+00
  1.00000000E+01  2.00000000E+00  0.00000000E+00
  1.00000000E+01  1.00000000E+00  0.00000000E+00
  1.00000000E+01 -2.66453526E-15  0.00000000E+00
  1.10000000E+01  2.40000000E+01  0.00000000E+00
  1.10000000E+01  2.30000000E+01  0.00000000E+00
  1.10000000E+01  2.20000000E+01  0.00000000E+00
  1.10000000E+01  2.10000000E+01  0.00000000E+00
  1.10000000E+01  2.00000000E+01  0.00000000E+00
  1.10000000E+01  1.90000000E+01  0.00000000E+00
  1.10000000E+01  1.80000000E+01  0.00000000E+00
  1.10000000E+01  1.70000000E+01  0.00000000E+00
  1.10000000E+01  1.60000000E+01  0.00000000E+00
  1.10000000E+01  1.50000000E+01  0.00000000E+00
  1.10000000E+01  1.40000000E+01  0.00000000E+00
  1.10000000E+01  1.30000000E+01  0.00000000E+00
  1.10000000E+01  1.20000000E+01  0.00000000E+00
  1.10000000E+01  1.10000000E+01  0.00000000E+00
  1.10000000E+01  1.00000000E+01  0.00000000E+00
  1.10000000E+01  9.00000000E+00  0.00000000E+00
  1.10000000E+01  8.00000000E+00  0.00000000E+00
  1.10000000E+01  7.00000000E+00  0.00000000E+00
  1.10000000E+01  6.00000000E+00  0.00000000E+00
  1.10000000E+01  5.00000000E+00  0.00000000E+00
  1.10000000E+01  4.00000000E+00  0.00000000E+00
  1.10000000E+01  3.00000000E+00  0.00000000E+00
  1.10000000E+01  2.00000000E+00  0.00000000E+00
  1.10000000E+01  1.00000000E+00  0.00000000E+00
  1.10000000E+01 -2.66453526E-15  0.00000000E+00
  1.20000000E+01  2.40000000E+01  0.00000000E+00
  1.20000000E+01  2.30000000E+01  0.00000000E+00
  1.20000000E+01  2.20000000E+01  0.00000000E+00
  1.20000000E+01  2.10000000E+01  0.00000000E+00
  1.20000000E+01  2.00000000E+01  0.00000000E+00
  1.20000000E+01  1.90000000E+01  0.00000000E+00
  1.20000000E+01  1.80000000E+01  0.00000000E+00
  1.20000000E+01  1.70000000E+01  0.00000000E+00
  1.20000000E+01  1.60000000E+01  0.00000000E+00
  1.20000000E+01  1.50000000E+01  0.00000000E+00
  1.20000000E+01  1.40000000E+01  0.00000000E+00
  1.20000000E+01  1.30000000E+01  0.00000000E+00
  1.20000000E+01  1.20000000E+01  0.00000000E+00
  1.20000000E+01  1.10000000E+01  0.00000000E+00
  1.20000000E+01  1.00000000E+01  0.00000000E+00
  1.20000000E+01  9.00000000E+00  0.00000000E+00
  1.20000000E+01  8.00000000E+00  0.00000000E+00
  1.20000000E+01  7.00000000E+00  0.00000000E+00
  1.20000000E+01  6.00000000E+00  0.00000000E+00
  1.20000000E+01  5.00000000E+00  0.00000000E+00
  1.20000000E+01  4.00000000E+00  0.00000000E+00
  1.20000000E+01  3.00000000E+00  0.00000000E+00
  1.20000000E+01  2.00000000E+00  0.00000000E+00
  1.20000000E+01  1.00000000E+00  0.00000000E+00
  1.20000000E+01 -2.66453526E-15  0.00000000E+00
  1.30000000E+01  2.40000000E+01  0.00000000E+00
  1.30000000E+01  2.30000000E+01  0.00000000E+00
  1.30000000E+01  2.20000000E+01  0.00000000E+00
  1.30000000E+01  2.10000000E+01  0.00000000E+00
  1.30000000E+01  2.00000000E+01  0.00000000E+00
  1.30000000E+01  1.90000000E+01  0.00000000E+00
  1.30000000E+01  1.80000000E+01  0.00000000E+00
  1.30000000E+01  1.70000000E+01  0.00000000E+00
  1.30000000E+01  1.60000000E+01  0.00000000E+00
  1.30000000E+01  1.50000000E+01  0.00000000E+00
  1.30000000E+01  1.40000000E+01  0.00000000E+00
  1.30000000E+01  1.30000000E+01  0.00000000E+00
  1.30000000E+01  1.20000000E+01  0.00000000E+00
  1.30000000E+01  1.10000000E+01  0.00000000E+00
  1.30000000E+01  1.00000000E+01  0.00000000E+00
  1.30000000E+01  9.00000000E+00  0.00000000E+00
  1.30000000E+01  8.00000000E+00  0.00000000E+00
  1.30000000E+01  7.00000000E+00  0.00000000E+00
  1.30000000E+01  6.00000000E+00  0.00000000E+00
  1.30000000E+01  5.00000000E+00  0.00000000E+00
  1.30000000E+01  4.00000000E+00  0.00000000E+00
  1.30000000E+01  3.00000000E+00  0.00000000E+00
  1.30000000E+01  2.00000000E+00  0.00000000E+00
  1.30000000E+01  1.00000000E+00  0.00000000E+00
  1.30000000E+01 -2.66453526E-15  0.00000000E+00
  1.40000000E+01  2.40000000E+01  0.00000000E+00
  1.40000000E+01  2.30000000E+01  0.00000000E+00
  1.40000000E+01  2.20000000E+01  0.00000000E+00
  1.40000000E+01  2.10000000E+01  0.00000000E+00
  1.40000000E+01  2.00000000E+01  0.00000000E+00
  1.40000000E+01  1.90000000E+01  0.00000000E+00
  1.40000000E+01  1.80000000E+01  0.00000000E+00
  1.40000000E+01  1.70000000E+01  0.00000000E+00
  1.40000000E+01  1.60000000E+01  0.00000000E+00
  1.40000000E+01  1.50000000E+01  0.00000000E+00
  1.40000000E+01  1.40000000E+01  0.00000000E+00
  1.40000000E+01  1.30000000E+01  0.00000000E+00
  1.40000000E+01  1.20000000E+01  0.00000000E+00
  1.40000000E+01  1.10000000E+01  0.00000000E+00
  1.40000000E+01  1.00000000E+01  0.00000000E+00
  1.40000000E+01  9.00000000E+00  0.00000000E+00
  1.40000000E+01  8.00000000E+00  0.00000000E+00
  1.40000000E+01  7.00000000E+00  0.00000000E+00
  1.40000000E+01  6.00000000E+00  0.00000000E+00
  1.40000000E+01  5.00000000E+00  0.00000000E+00
  1.40000000E+01  4.00000000E+00  0.00000000E+00
  1.40000000E+01  3.00000000E+00  0.00000000E+00
  1.40000000E+01  2.00000000E+00  0.00000000E+00
  1.40000000E+01  1.00000000E+00  0.00000000E+00
  1.40000000E+01 -2.66453526E-15  0.00000000E+00
  1.50000000E+01  2.40000000E+01  0.00000000E+00
  1.50000000E+01  2.30000000E+01  0.00000000E+00
  1.50000000E+01  2.20000000E+01  0.00000000E+00
  1.50000000E+01  2.10000000E+01  0.00000000E+00
  1.50000000E+01  2.00000000E+01  0.00000000E+00
  1.50000000E+01  1.90000000E+01  0.00000000E+00
  1.50000000E+01  1.80000000E+01  0.00000000E+00
  1.50000000E+01  1.70000000E+01  0.00000000E+00
  1.50000000E+01  1.60000000E+01  0.00000000E+00
  1.50000000E+01  1.50000000E+01  0.00000000E+00
  1.50000000E+01  1.40000000E+01  0.00000000E+00
  1.50000000E+01  1.30000000E+01  0.00000000E+00
  1.50000000E+01  1.20000000E+01  0.00000000E+00
  1.50000000E+01  1.10000000E+01  0.00000000E+00
  1.50000000E+01  1.00000000E+01  0.00000000E+00
  1.50000000E+01  9.00000000E+00  0.00000000E+00
  1.50000000E+01  8.00000000E+00  0.00000000E+00
  1.50000000E+01  7.00000000E+00  0.00000000E+00
  1.50000000E+01  6.00000000E+00  0.00000000E+00
  1.50000000E+01  5.00000000E+00  0.00000000E+00
  1.50000000E+01  4.00000000E+00  0.00000000E+00
  1.50000000E+01  3.00000000E+00  0.00000000E+00
  1.50000000E+01  2.00000000E+00  0.00000000E+00
  1.50000000E+01  1.00000000E+00  0.00000000E+00
  1.50000000E+01 -2.66453526E-15  0.00000000E+00
  1.60000000E+01  2.40000000E+01  0.00000000E+00
  1.60000000E+01  2.30000000E+01  0.00000000E+00
  1.60000000E+01  2.20000000E+01  0.00000000E+00
  1.60000000E+01  2.10000000E+01  0.00000000E+00
  1.60000000E+01  2.00000000E+01  0.00000000E+00
  1.60000000E+01  1.90000000E+01  0.00000000E+00
  1.60000000E+01  1.80000000E+01  0.00000000E+00
  1.60000000E+01  1.70000000E+01  0.00000000E+00
  1.60000000E+01  1.60000000E+01  0.00000000E+00
  1.60000000E+01  1.50000000E+01  0.00000000E+00
  1.60000000E+01  1.40000000E+01  0.00000000E+00
  1.60000000E+01  1.30000000E+01  0.00000000E+00
  1.60000000E+01  1.20000000E+01  0.00000000E+00
  1.60000000E+01  1.10000000E+01  0.00000000E+00
  1.60000000E+01  1.00000000E+01  0.00000000E+00
  1.60000000E+01  9.00000000E+00  0.00000000E+00
  1.60000000E+01  8.00000000E+00  0.00000000E+00
  1.60000000E+01  7.00000000E+00  0.00000000E+00
  1.60000000E+01  6.00000000E+00  0.00000000E+00
  1.60000000E+01  5.00000000E+00  0.00000000E+00
  1.60000000E+01  4.00000000E+00  0.00000000E+00
  1.60000000E+01  3.00000000E+00  0.00000000E+00
  1.60000000E+01  2.00000000E+00  0.00000000E+00
  1.60000000E+01  1.00000000E+00  0.00000000E+00
  1.60000000E+01 -2.66453526E-15  0.00000000E+00
  1.70000000E+01  2.40000000E+01  0.00000000E+00
  1.70000000E+01  2.30000000E+01  0.00000000E+00
  1.70000000E+01  2.20000000E+01  0.00000000E+00
  1.70000000E+01  2.10000000E+01  0.00000000E+00
  1.70000000E+01  2.00000000E+01  0.00000000E+00
  1.70000000E+01  1.90000000E+01  0.00000000E+00
  1.70000000E+01  1.80000000E+01  0.00000000E+00
  1.70000000E+01  1.70000000E+01  0.00000000E+00
  1.70000000E+01  1.60000000E+01  0.00000000E+00
  1.70000000E+01  1.50000000E+01  0.00000000E+00
  1.70000000E+01  1.40000000E+01  0.00000000E+00
  1.70000000E+01  1.30000000E+01  0.00000000E+00
  1.70000000E+01  1.20000000E+01  0.00000000E+00
  1.70000000E+01  1.10000000E+01  0.00000000E+00
  1.70000000E+01  1.00000000E+01  0.00000000E+00
  1.70000000E+01  9.00000000E+00  0.00000000E+00
  1.70000000E+01  8.00000000E+00  0.00000000E+00
  1.70000000E+01  7.00000000E+00  0.00000000E+00
  1.70000000E+01  6.00000000E+00  0.00000000E+00
  1.70000000E+01  5.00000000E+00  0.00000000E+00
  1.70000000E+01  4.00000000E+00  0.00000000E+00
  1.70000000E+01  3.00000000E+00  0.00000000E+00
  1.70000000E+01  2.00000000E+00  0.00000000E+00
  1.70000000E+01  1.00000000E+00  0.00000000E+00
  1.70000000E+01 -2.66453526E-15  0.00000000E+00
  1.80000000E+01  2.40000000E+01  0.00000000E+00
  1.80000000E+01  2.30000000E+01  0.00000000E+00
  1.80000000E+01  2.20000000E+01  0.00000000E+00
  1.80000000E+01  2.10000000E+01  0.00000000E+00
  1.80000000E+01  2.00000000E+01  0.00000000E+00
  1.80000000E+01  1.90000000E+01  0.00000000E+00
  1.80000000E+01  1.80000000E+01  0.00000000E+00
  1.80000000E+01  1.70000000E+01  0.00000000E+00
  1.80000000E+01  1.60000000E+01  0.00000000E+00
  1.80000000E+01  1.50000000E+01  0.00000000E+00
  1.80000000E+01  1.40000000E+01  0.00000000E+00
  1.80000000E+01  1.30000000E+01  0.00000000E+00
  1.80000000E+01  1.20000000E+01  0.00000000E+00
  1.80000000E+01  1.10000000E+01  0.00000000E+00
  1.80000000E+01  1.00000000E+01  0.00000000E+00
  1.80000000E+01  9.00000000E+00  0.00000000E+00
  1.80000000E+01  8.00000000E+00  0.00000000E+00
  1.80000000E+01  7.00000000E+00  0.00000000E+00
  1.80000000E+01  6.00000000E+00  0.00000000E+00
  1.80000000E+01  5.00000000E+00  0.00000000E+00
  1.80000000E+01  4.00000000E+00  0.00000000E+00
  1.80000000E+01  3.00000000E+00  0.00000000E+00
  1.80000000E+01  2.00000000E+00  0.00000000E+00
  1.80000000E+01  1.00000000E+00  0.00000000E+00
  1.80000000E+01 -2.66453526E-15  0.00000000E+00
  1.90000000E+01  2.40000000E+01  0.00000000E+00
  1.90000000E+01  2.30000000E+01  0.00000000E+00
  1.90000000E+01  2.20000000E+01  0.00000000E+00
  1.90000000E+01  2.10000000E+01  0.00000000E+00
  1.90000000E+01  2.00000000E+01  0.00000000E+00
  1.90000000E+01  1.90000000E+01  0.00000000E+00
  1.90000000E+01  1.80000000E+01  0.00000000E+00
  1.90000000E+01  1.70000000E+01  0.00000000E+00
  1.90000000E+01  1.60000000E+01  0.00000000E+00
  1.90000000E+01  1.50000000E+01  0.00000000E+00
  1.90000000E+01  1.40000000E+01  0.00000000E+00
  1.90000000E+01  1.30000000E+01  0.00000000E+00
  1.90000000E+01  1.20000000E+01  0.00000000E+00
  1.90000000E+01  1.10000000E+01  0.00000000E+00
  1.90000000E+01  1.00000000E+01  0.00000000E+00
  1.90000000E+01  9.00000000E+00  0.00000000E+00
  1.90000000E+01  8.00000000E+00  0.00000000E+00
  1.90000000E+01  7.00000000E+00  0.00000000E+00
  1.90000000E+01  6.00000000E+00  0.00000000E+00
  1.90000000E+01  5.00000000E+00  0.00000000E+00
  1.90000000E+01  4.00000000E+00  0.00000000E+00
  1.90000000E+01  3.00000000E+00  0.00000000E+00
  1.90000000E+01  2.00000000E+00  0.00000000E+00
  1.90000000E+01  1.00000000E+00  0.00000000E+00
  1.90000000E+01 -2.66453526E-15  0.00000000E+00
  2.00000000E+01  2.40000000E+01  0.00000000E+00
  2.00000000E+01  2.30000000E+01  0.00000000E+00
  2.00000000E+01  2.20000000E+01  0.00000000E+00
  2.00000000E+01  2.10000000E+01  0.00000000E+00
  2.00000000E+01  2.00000000E+01  0.00000000E+00
  2.00000000E+01  1.90000000E+01  0.00000000E+00
  2.00000000E+01  1.80000000E+01  0.00000000E+00
  2.00000000E+01  1.70000000E+01  0.00000000E+00
  2.00000000E+01  1.60000000E+01  0.00000000E+00
  2.00000000E+01  1.50000000E+01  0.00000000E+00
  2.00000000E+01  1.40000000E+01  0.00000000E+00
  2.00000000E+01  1.30000000E+01  0.00000000E+00
  2.00000000E+01  1.20000000E+01  0.00000000E+00
  2.00000000E+01  1.10000000E+01  0.00000000E+00
  2.00000000E+01  1.00000000E+01  0.00000000E+00
  2.00000000E+01  9.00000000E+00  0.00000000E+00
  2.00000000E+01  8.00000000E+00  0.00000000E+00
  2.00000000E+01  7.00000000E+00  0.00000000E+00
  2.00000000E+01  6.00000000E+00  0.00000000E+00
  2.00000000E+01  5.00000000E+00  0.00000000E+00
  2.00000000E+01  4.00000000E+00  0.00000000E+00
  2.00000000E+01  3.00000000E+00  0.00000000E+00
  2.00000000E+01  2.00000000E+00  0.00000000E+00
  2.00000000E+01  1.00000000E+00  0.00000000E+00
  2.00000000E+01 -2.66453526E-15  0.00000000E+00
  2.10000000E+01  2.40000000E+01  0.00000000E+00
  2.10000000E+01  2.30000000E+01  0.00000000E+00
  2.10000000E+01  2.20000000E+01  0.00000000E+00
  2.10000000E+01  2.10000000E+01  0.00000000E+00
  2.10000000E+01  2.00000000E+01  0.00000000E+00
  2.10000000E+01  1.90000000E+01  0.00000000E+00
  2.10000000E+01  1.80000000E+01  0.00000000E+00
  2.10000000E+01  1.70000000E+01  0.00000000E+00
  2.10000000E+01  1.60000000E+01  0.00000000E+00
  2.10000000E+01  1.50000000E+01  0.00000000E+00
  2.10000000E+01  1.40000000E+01  0.00000000E+00
  2.10000000E+01  1.30000000E+01  0.00000000E+00
  2.10000000E+01  1.20000000E+01  0.00000000E+00
  2.10000000E+01  1.10000000E+01  0.00000000E+00
  2.10000000E+01  1.00000000E+01  0.00000000E+00
  2.10000000E+01  9.00000000E+00  0.00000000E+00
  2.10000000E+01  8.00000000E+00  0.00000000E+00
  2.10000000E+01  7.00000000E+00  0.00000000E+00
  2.10000000E+01  6.00000000E+00  0.00000000E+00
  2.10000000E+01  5.00000000E+00  0.00000000E+00
  2.10000000E+01  4.00000000E+00  0.00000000E+00
  2.10000000E+01  3.00000000E+00  0.00000000E+00
  2.10000000E+01  2.00000000E+00  0.00000000E+00
  2.10000000E+01  1.00000000E+00  0.00000000E+00
  2.10000000E+01 -2.66453526E-15  0.00000000E+00
  2.20000000E+01  2.40000000E+01  0.00000000E+00
  2.20000000E+01  2.30000000E+01  0.00000000E+00
  2.20000000E+01  2.20000000E+01  0.00000000E+00
  2.20000000E+01  2.10000000E+01  0.00000000E+00
  2.20000000E+01  2.00000000E+01  0.00000000E+00
  2.20000000E+01  1.90000000E+01  0.00000000E+00
  2.20000000E+01  1.80000000E+01  0.00000000E+00
  2.20000000E+01  1.70000000E+01  0.00000000E+00
  2.20000000E+01  1.60000000E+01  0.00000000E+00
  2.20000000E+01  1.50000000E+01  0.00000000E+00
  2.20000000E+01  1.40000000E+01  0.00000000E+00
  2.20000000E+01  1.30000000E+01  0.00000000E+00
  2.20000000E+01  1.20000000E+01  0.00000000E+00
  2.20000000E+01  1.10000000E+01  0.00000000E+00
  2.20000000E+01  1.00000000E+01  0.00000000E+00
  2.20000000E+01  9.00000000E+00  0.00000000E+00
  2.20000000E+01  8.00000000E+00  0.00000000E+00
  2.20000000E+01  7.00000000E+00  0.00000000E+00
  2.20000000E+01  6.00000000E+00  0.00000000E+00
  2.20000000E+01  5.00000000E+00  0.00000000E+00
  2.20000000E+01  4.00000000E+00  0.00000000E+00
  2.20000000E+01  3.00000000E+00  0.00000000E+00
  2.20000000E+01  2.00000000E+00  0.00000000E+00
  2.20000000E+01  1.00000000E+00  0.00000000E+00
  2.20000000E+01 -2.66453526E-15  0.00000000E+00
  2.30000000E+01  2.40000000E+01  0.00000000E+00
  2.30000000E+01  2.30000000E+01  0.00000000E+00
  2.30000000E+01  2.20000000E+01  0.00000000E+00
  2.30000000E+01  2.10000000E+01  0.00000000E+00
  2.30000000E+01  2.00000000E+01  0.00000000E+00
  2.30000000E+01  1.90000000E+01  0.00000000E+00
  2.30000000E+01  1.80000000E+01  0.00000000E+00
  2.30000000E+01  1.70000000E+01  0.00000000E+00
  2.30000000E+01  1.60000000E+01  0.00000000E+00
  2.30000000E+01  1.50000000E+01  0.00000000E+00
  2.30000000E+01  1.40000000E+01  0.00000000E+00
  2.30000000E+01  1.30000000E+01  0.00000000E+00
  2.30000000E+01  1.20000000E+01  0.00000000E+00
  2.30000000E+01  1.10000000E+01  0.00000000E+00
  2.30000000E+01  1.00000000E+01  0.00000000E+00
  2.30000000E+01  9.00000000E+00  0.00000000E+00
  2.30000000E+01  8.00000000E+00  0.00000000E+00
  2.30000000E+01  7.00000000E+00  0.00000000E+00
  2.30000000E+01  6.00000000E+00  0.00000000E+00
  2.30000000E+01  5.00000000E+00  0.00000000E+00
  2.30000000E+01  4.00000000E+00  0.00000000E+00
  2.30000000E+01  3.00000000E+00  0.00000000E+00
  2.30000000E+01  2.00000000E+00  0.00000000E+00
  2.30000000E+01  1.00000000E+00  0.00000000E+00
  2.30000000E+01 -2.66453526E-15  0.00000000E+00
  2.40000000E+01  2.40000000E+01  0.00000000E+00
  2.40000000E+01  2.30000000E+01  0.00000000E+00
  2.40000000E+01  2.20000000E+01  0.00000000E+00
  2.40000000E+01  2.10000000E+01  0.00000000E+00
  2.40000000E+01  2.00000000E+01  0.00000000E+00
  2.40000000E+01  1.90000000E+01  0.00000000E+00
  2.40000000E+01  1.80000000E+01  0.00000000E+00
  2.40000000E+01  1.70000000E+01  0.00000000E+00
  2.40000000E+01  1.60000000E+01  0.00000000E+00
  2.40000000E+01  1.50000000E+01  0.00000000E+00
  2.40000000E+01  1.40000000E+01  0.00000000E+00
  2.40000000E+01  1.30000000E+01  0.00000000E+00
  2.40000000E+01  1.20000000E+01  0.00000000E+00
  2.40000000E+01  1.10000000E+01  0.00000000E+00
  2.40000000E+01  1.00000000E+01  0.00000000E+00
  2.40000000E+01  9.00000000E+00  0.00000000E+00
  2.40000000E+01  8.00000000E+00  0.00000000E+00
  2.40000000E+01  7.00000000E+00  0.00000000E+00
  2.40000000E+01  6.00000000E+00  0.00000000E+00
  2.40000000E+01  5.00000000E+00  0.00000000E+00
  2.40000000E+01  4.00000000E+00  0.00000000E+00
  2.40000000E+01  3.00000000E+00  0.00000000E+00
  2.40000000E+01  2.00000000E+00  0.00000000E+00
  2.40000000E+01  1.00000000E+00  0.00000000E+00
  2.40000000E+01 -2.66453526E-15  0.00000000E+00
  2.50000000E+01  2.40000000E+01  0.00000000E+00
  2.50000000E+01  2.30000000E+01  0.00000000E+00
  2.50000000E+01  2.20000000E+01  0.00000000E+00
  2.50000000E+01  2.10000000E+01  0.00000000E+00
  2.50000000E+01  2.00000000E+01  0.00000000E+00
  2.50000000E+01  1.90000000E+01  0.00000000E+00
  2.50000000E+01  1.80000000E+01  0.00000000E+00
  2.50000000E+01  1.70000000E+01  0.00000000E+00
  2.50000000E+01  1.60000000E+01  0.00000000E+00
  2.50000000E+01  1.50000000E+01  0.00000000E+00
  2.50000000E+01  1.40000000E+01  0.00000000E+00
  2.50000000E+01  1.30000000E+01  0.00000000E+00
  2.50000000E+01  1.20000000E+01  0.00000000E+00
  2.50000000E+01  1.10000000E+01  0.00000000E+00
  2.50000000E+01  1.00000000E+01  0.00000000E+00
  2.50000000E+01  9.00000000E+00  0.00000000E+00
  2.50000000E+01  8.00000000E+00  0.00000000E+00
  2.50000000E+01  7.00000000E+00  0.00000000E+00
  2.50000000E+01  6.00000000E+00  0.00000000E+00
  2.50000000E+01  5.00000000E+00  0.00000000E+00
  2.50000000E+01  4.00000000E+00  0.00000000E+00
  2.50000000E+01  3.00000000E+00  0.00000000E+00
  2.50000000E+01  2.00000000E+00  0.00000000E+00
  2.50000000E+01  1.00000000E+00  0.00000000E+00
  2.50000000E+01 -2.66453526E-15  0.00000000E+00
  2.60000000E+01  2.40000000E+01  0.00000000E+00
  2.60000000E+01  2.30000000E+01  0.00000000E+00
  2.60000000E+01  2.20000000E+01  0.00000000E+00
  2.60000000E+01  2.10000000E+01  0.00000000E+00
  2.60000000E+01  2.00000000E+01  0.00000000E+00
  2.60000000E+01  1.90000000E+01  0.00000000E+00
  2.60000000E+01  1.80000000E+01  0.00000000E+00
  2.60000000E+01  1.70000000E+01  0.00000000E+00
  2.60000000E+01  1.60000000E+01  0.00000000E+00
  2.60000000E+01  1.50000000E+01  0.00000000E+00
  2.60000000E+01  1.40000000E+01  0.00000000E+00
  2.60000000E+01  1.30000000E+01  0.00000000E+00
  2.60000000E+01  1.20000000E+01  0.00000000E+00
  2.60000000E+01  1.10000000E+01  0.00000000E+00
  2.60000000E+01  1.00000000E+01  0.00000000E+00
  2.60000000E+01  9.00000000E+00  0.00000000E+00
  2.60000000E+01  8.00000000E+00  0.00000000E+00
  2.60000000E+01  7.00000000E+00  0.00000000E+00
  2.60000000E+01  6.00000000E+00  0.00000000E+00
  2.60000000E+01  5.00000000E+00  0.00000000E+00
  2.60000000E+01  4.00000000E+00  0.00000000E+00
  2.60000000E+01  3.00000000E+00  0.00000000E+00
  2.60000000E+01  2.00000000E+00  0.00000000E+00
  2.60000000E+01  1.00000000E+00  0.00000000E+00
  2.60000000E+01 -2.66453526E-15  0.00000000E+00
  2.70000000E+01  2.40000000E+01  0.00000000E+00
  2.70000000E+01  2.30000000E+01  0.00000000E+00
  2.70000000E+01  2.20000000E+01  0.00000000E+00
  2.70000000E+01  2.10000000E+01  0.00000000E+00
  2.70000000E+01  2.00000000E+01  0.00000000E+00
  2.70000000E+01  1.90000000E+01  0.00000000E+00
  2.70000000E+01  1.80000000E+01  0.00000000E+00
  2.70000000E+01  1.70000000E+01  0.00000000E+00
  2.70000000E+01  1.60000000E+01  0.00000000E+00
  2.70000000E+01  1.50000000E+01  0.00000000E+00
  2.70000000E+01  1.40000000E+01  0.00000000E+00
  2.70000000E+01  1.30000000E+01  0.00000000E+00
  2.70000000E+01  1.20000000E+01  0.00000000E+00
  2.70000000E+01  1.10000000E+01  0.00000000E+00
  2.70000000E+01  1.00000000E+01  0.00000000E+00
  2.70000000E+01  9.00000000E+00  0.00000000E+00
  2.70000000E+01  8.00000000E+00  0.00000000E+00
  2.70000000E+01  7.00000000E+00  0.00000000E+00
  2.70000000E+01  6.00000000E+00  0.00000000E+00
  2.70000000E+01  5.00000000E+00  0.00000000E+00
  2.70000000E+01  4.00000000E+00  0.00000000E+00
  2.70000000E+01  3.00000000E+00  0.00000000E+00
  2.70000000E+01  2.00000000E+00  0.00000000E+00
  2.70000000E+01  1.00000000E+00  0.00000000E+00
  2.70000000E+01 -2.66453526E-15  0.00000000E+00
  2.80000000E+01  2.40000000E+01  0.00000000E+00
  2.80000000E+01  2.30000000E+01  0.00000000E+00
  2.80000000E+01  2.20000000E+01  0.00000000E+00
  2.80000000E+01  2.10000000E+01  0.00000000E+00
  2.80000000E+01  2.00000000E+01  0.00000000E+00
  2.80000000E+01  1.90000000E+01  0.00000000E+00
  2.80000000E+01  1.80000000E+01  0.00000000E+00
  2.80000000E+01  1.70000000E+01  0.00000000E+00
  2.80000000E+01  1.60000000E+01  0.00000000E+00
  2.80000000E+01  1.50000000E+01  0.00000000E+00
  2.80000000E+01  1.40000000E+01  0.00000000E+00
  2.80000000E+01  1.30000000E+01  0.00000000E+00
  2.80000000E+01  1.20000000E+01  0.00000000E+00
  2.80000000E+01  1.10000000E+01  0.00000000E+00
  2.80000000E+01  1.00000000E+01  0.00000000E+00
  2.80000000E+01  9.00000000E+00  0.00000000E+00
  2.80000000E+01  8.00000000E+00  0.00000000E+00
  2.80000000E+01  7.00000000E+00  0.00000000E+00
  2.80000000E+01  6.00000000E+00  0.00000000E+00
  2.80000000E+01  5.00000000E+00  0.00000000E+00
  2.80000000E+01  4.00000000E+00  0.00000000E+00
  2.80000000E+01  3.00000000E+00  0.00000000E+00
  2.80000000E+01  2.00000000E+00  0.00000000E+00
  2.80000000E+01  1.00000000E+00  0.00000000E+00
  2.80000000E+01 -2.66453526E-15  0.00000000E+00
  2.90000000E+01  2.40000000E+01  0.00000000E+00
  2.90000000E+01  2.30000000E+01  0.00000000E+00
  2.90000000E+01  2.20000000E+01  0.00000000E+00
  2.90000000E+01  2.10000000E+01  0.00000000E+00
  2.90000000E+01  2.00000000E+01  0.00000000E+00
  2.90000000E+01  1.90000000E+01  0.00000000E+00
  2.90000000E+01  1.80000000E+01  0.00000000E+00
  2.90000000E+01  1.70000000E+01  0.00000000E+00
  2.90000000E+01  1.60000000E+01  0.00000000E+00
  2.90000000E+01  1.50000000E+01  0.00000000E+00
  2.90000000E+01  1.40000000E+01  0.00000000E+00
  2.90000000E+01  1.30000000E+01  0.00000000E+00
  2.90000000E+01  1.20000000E+01  0.00000000E+00
  2.90000000E+01  1.10000000E+01  0.00000000E+00
  2.90000000E+01  1.00000000E+01  0.00000000E+00
  2.90000000E+01  9.00000000E+00  0.00000000E+00
  2.90000000E+01  8.00000000E+00  0.00000000E+00
  2.90000000E+01  7.00000000E+00  0.00000000E+00
  2.90000000E+01  6.00000000E+00  0.00000000E+00
  2.90000000E+01  5.00000000E+00  0.00000000E+00
  2.90000000E+01  4.00000000E+00  0.00000000E+00
  2.90000000E+01  3.00000000E+00  0.00000000E+00
  2.90000000E+01  2.00000000E+00  0.00000000E+00
  2.90000000E+01  1.00000000E+00  0.00000000E+00
  2.90000000E+01 -2.66453526E-15  0.00000000E+00
  3.00000000E+01  2.40000000E+01  0.00000000E+00
  3.00000000E+01  2.30000000E+01  0.00000000E+00
  3.00000000E+01  2.20000000E+01  0.00000000E+00
  3.00000000E+01  2.10000000E+01  0.00000000E+00
  3.00000000E+01  2.00000000E+01  0.00000000E+00
  3.00000000E+01  1.90000000E+01  0.00000000E+00
  3.00000000E+01  1.80000000E+01  0.00000000E+00
  3.00000000E+01  1.70000000E+01  0.00000000E+00
  3.00000000E+01  1.60000000E+01  0.00000000E+00
  3.00000000E+01  1.50000000E+01  0.00000000E+00
  3.00000000E+01  1.40000000E+01  0.00000000E+00
  3.00000000E+01  1.30000000E+01  0.00000000E+00
  3.00000000E+01  1.20000000E+01  0.00000000E+00
  3.00000000E+01  1.10000000E+01  0.00000000E+00
  3.00000000E+01  1.00000000E+01  0.00000000E+00
  3.00000000E+01  9.00000000E+00  0.00000000E+00
  3.00000000E+01  8.00000000E+00  0.00000000E+00
  3.00000000E+01  7.00000000E+00  0.00000000E+00
  3.00000000E+01  6.00000000E+00  0.00000000E+00
  3.00000000E+01  5.00000000E+00  0.00000000E+00
  3.00000000E+01  4.00000000E+00  0.00000000E+00
  3.00000000E+01  3.00000000E+00  0.00000000E+00
  3.00000000E+01  2.00000000E+00  0.00000000E+00
  3.00000000E+01  1.00000000E+00  0.00000000E+00
  3.00000000E+01 -2.66453526E-15  0.00000000E+00
  3.10000000E+01  2.40000000E+01  0.00000000E+00
  3.10000000E+01  2.30000000E+01  0.00000000E+00
  3.10000000E+01  2.20000000E+01  0.00000000E+00
  3.10000000E+01  2.10000000E+01  0.00000000E+00
  3.10000000E+01  2.00000000E+01  0.00000000E+00
  3.10000000E+01  1.90000000E+01  0.00000000E+00
  3.10000000E+01  1.80000000E+01  0.00000000E+00
  3.10000000E+01  1.70000000E+01  0.00000000E+00
  3.10000000E+01  1.60000000E+01  0.00000000E+00
  3.10000000E+01  1.50000000E+01  0.00000000E+00
  3.10000000E+01  1.40000000E+01  0.00000000E+00
  3.10000000E+01  1.30000000E+01  0.00000000E+00
  3.10000000E+01  1.20000000E+01  0.00000000E+00
  3.10000000E+01  1.10000000E+01  0.00000000E+00
  3.10000000E+01  1.00000000E+01  0.00000000E+00
  3.10000000E+01  9.00000000E+00  0.00000000E+00
  3.10000000E+01  8.00000000E+00  0.00000000E+00
  3.10000000E+01  7.00000000E+00  0.00000000E+00
  3.10000000E+01  6.00000000E+00  0.00000000E+00
  3.10000000E+01  5.00000000E+00  0.00000000E+00
  3.10000000E+01  4.00000000E+00  0.00000000E+00
  3.10000000E+01  3.00000000E+00  0.00000000E+00
  3.10000000E+01  2.00000000E+00  0.00000000E+00
  3.10000000E+01  1.00000000E+00  0.00000000E+00
  3.10000000E+01 -2.66453526E-15  0.00000000E+00
  3.20000000E+01  2.40000000E+01  0.00000000E+00
  3.20000000E+01  2.30000000E+01  0.00000000E+00
  3.20000000E+01  2.20000000E+01  0.00000000E+00
  3.20000000E+01  2.10000000E+01  0.00000000E+00
  3.20000000E+01  2.00000000E+01  0.00000000E+00
  3.20000000E+01  1.90000000E+01  0.00000000E+00
  3.20000000E+01  1.80000000E+01  0.00000000E+00
  3.20000000E+01  1.70000000E+01  0.00000000E+00
  3.20000000E+01  1.60000000E+01  0.00000000E+00
  3.20000000E+01  1.50000000E+01  0.00000000E+00
  3.20000000E+01  1.40000000E+01  0.00000000E+00
  3.20000000E+01  1.30000000E+01  0.00000000E+00
  3.20000000E+01  1.20000000E+01  0.00000000E+00
  3.20000000E+01  1.10000000E+01  0.00000000E+00
  3.20000000E+01  1.00000000E+01  0.00000000E+00
  3.20000000E+01  9.00000000E+00  0.00000000E+00
  3.20000000E+01  8.00000000E+00  0.00000000E+00
  3.20000000E+01  7.00000000E+00  0.00000000E+00
  3.20000000E+01  6.00000000E+00  0.00000000E+00
  3.20000000E+01  5.00000000E+00  0.00000000E+00
  3.20000000E+01  4.00000000E+00  0.00000000E+00
  3.20000000E+01  3.00000000E+00  0.00000000E+00
  3.20000000E+01  2.00000000E+00  0.00000000E+00
  3.20000000E+01  1.00000000E+00  0.00000000E+00
  3.20000000E+01 -2.66453526E-15  0.00000000E+00
  3.30000000E+01  2.40000000E+01  0.00000000E+00
  3.30000000E+01  2.30000000E+01  0.00000000E+00
  3.30000000E+01  2.20000000E+01  0.00000000E+00
  3.30000000E+01  2.10000000E+01  0.00000000E+00
  3.30000000E+01  2.00000000E+01  0.00000000E+00
  3.30000000E+01  1.90000000E+01  0.00000000E+00
  3.30000000E+01  1.80000000E+01  0.00000000E+00
  3.30000000E+01  1.70000000E+01  0.00000000E+00
  3.30000000E+01  1.60000000E+01  0.00000000E+00
  3.30000000E+01  1.50000000E+01  0.00000000E+00
  3.30000000E+01  1.40000000E+01  0.00000000E+00
  3.30000000E+01  1.30000000E+01  0.00000000E+00
  3.30000000E+01  1.20000000E+01  0.00000000E+00
  3.30000000E+01  1.10000000E+01  0.00000000E+00
  3.30000000E+01  1.00000000E+01  0.00000000E+00
  3.30000000E+01  9.00000000E+00  0.00000000E+00
  3.30000000E+01  8.00000000E+00  0.00000000E+00
  3.30000000E+01  7.00000000E+00  0.00000000E+00
  3.30000000E+01  6.00000000E+00  0.00000000E+00
  3.30000000E+01  5.00000000E+00  0.00000000E+00
  3.30000000E+01  4.00000000E+00  0.00000000E+00
  3.30000000E+01  3.00000000E+00  0.00000000E+00
  3.30000000E+01  2.00000000E+00  0.00000000E+00
  3.30000000E+01  1.00000000E+00  0.00000000E+00
  3.30000000E+01 -2.66453526E-15  0.00000000E+00
  3.40000000E+01  2.40000000E+01  0.00000000E+00
  3.40000000E+01  2.30000000E+01  0.00000000E+00
  3.40000000E+01  2.20000000E+01  0.00000000E+00
  3.40000000E+01  2.10000000E+01  0.00000000E+00
  3.40000000E+01  2.00000000E+01  0.00000000E+00
  3.40000000E+01  1.90000000E+01  0.00000000E+00
  3.40000000E+01  1.80000000E+01  0.00000000E+00
  3.40000000E+01  1.70000000E+01  0.00000000E+00
  3.40000000E+01  1.60000000E+01  0.00000000E+00
  3.40000000E+01  1.50000000E+01  0.00000000E+00
  3.40000000E+01  1.40000000E+01  0.00000000E+00
  3.40000000E+01  1.30000000E+01  0.00000000E+00
  3.40000000E+01  1.20000000E+01  0.00000000E+00
  3.40000000E+01  1.10000000E+01  0.00000000E+00
  3.40000000E+01  1.00000000E+01  0.00000000E+00
  3.40000000E+01  9.00000000E+00  0.00000000E+00
  3.40000000E+01  8.00000000E+00  0.00000000E+00
  3.40000000E+01  7.00000000E+00  0.00000000E+00
  3.40000000E+01  6.00000000E+00  0.00000000E+00
  3.40000000E+01  5.00000000E+00  0.00000000E+00
  3.40000000E+01  4.00000000E+00  0.00000000E+00
  3.40000000E+01  3.00000000E+00  0.00000000E+00
  3.40000000E+01  2.00000000E+00  0.00000000E+00
  3.40000000E+01  1.00000000E+00  0.00000000E+00
  3.40000000E+01 -2.66453526E-15  0.00000000E+00
  3.50000000E+01  2.40000000E+01  0.00000000E+00
  3.50000000E+01  2.30000000E+01  0.00000000E+00
  3.50000000E+01  2.20000000E+01  0.00000000E+00
  3.50000000E+01  2.10000000E+01  0.00000000E+00
  3.50000000E+01  2.00000000E+01  0.00000000E+00
  3.50000000E+01  1.90000000E+01  0.00000000E+00
  3.50000000E+01  1.80000000E+01  0.00000000E+00
  3.50000000E+01  1.70000000E+01  0.00000000E+00
  3.50000000E+01  1.60000000E+01  0.00000000E+00
  3.50000000E+01  1.50000000E+01  0.00000000E+00
  3.50000000E+01  1.40000000E+01  0.00000000E+00
  3.50000000E+01  1.30000000E+01  0.00000000E+00
  3.50000000E+01  1.20000000E+01  0.00000000E+00
  3.50000000E+01  1.10000000E+01  0.00000000E+00
  3.50000000E+01  1.00000000E+01  0.00000000E+00
  3.50000000E+01  9.00000000E+00  0.00000000E+00
  3.50000000E+01  8.00000000E+00  0.00000000E+00
  3.50000000E+01  7.00000000E+00  0.00000000E+00
  3.50000000E+01  6.00000000E+00  0.00000000E+00
  3.50000000E+01  5.00000000E+00  0.00000000E+00
  3.50000000E+01  4.00000000E+00  0.00000000E+00
  3.50000000E+01  3.00000000E+00  0.00000000E+00
  3.50000000E+01  2.00000000E+00  0.00000000E+00
  3.50000000E+01  1.00000000E+00  0.00000000E+00
  3.50000000E+01 -2.66453526E-15  0.00000000E+00
  3.60000000E+01  2.40000000E+01  0.00000000E+00
  3.60000000E+01  2.30000000E+01  0.00000000E+00
  3.60000000E+01  2.20000000E+01  0.00000000E+00
  3.60000000E+01  2.10000000E+01  0.00000000E+00
  3.60000000E+01  2.00000000E+01  0.00000000E+00
  3.60000000E+01  1.90000000E+01  0.00000000E+00
  3.60000000E+01  1.80000000E+01  0.00000000E+00
  3.60000000E+01  1.70000000E+01  0.00000000E+00
  3.60000000E+01  1.60000000E+01  0.00000000E+00
  3.60000000E+01  1.50000000E+01  0.00000000E+00
  3.60000000E+01  1.40000000E+01  0.00000000E+00
  3.60000000E+01  1.30000000E+01  0.00000000E+00
  3.60000000E+01  1.20000000E+01  0.00000000E+00
  3.60000000E+01  1.10000000E+01  0.00000000E+00
  3.60000000E+01  1.00000000E+01  0.00000000E+00
  3.60000000E+01  9.00000000E+00  0.00000000E+00
  3.60000000E+01  8.00000000E+00  0.00000000E+00
  3.60000000E+01  7.00000000E+00  0.00000000E+00
  3.60000000E+01  6.00000000E+00  0.00000000E+00
  3.60000000E+01  5.00000000E+00  0.00000000E+00
  3.60000000E+01  4.00000000E+00  0.00000000E+00
  3.60000000E+01  3.00000000E+00  0.00000000E+00
  3.60000000E+01  2.00000000E+00  0.00000000E+00
  3.60000000E+01  1.00000000E+00  0.00000000E+00
  3.60000000E+01 -2.66453526E-15  0.00000000E+00
  3.70000000E+01  2.40000000E+01  0.00000000E+00
  3.70000000E+01  2.30000000E+01  0.00000000E+00
  3.70000000E+01  2.20000000E+01  0.00000000E+00
  3.70000000E+01  2.10000000E+01  0.00000000E+00
  3.70000000E+01  2.00000000E+01  0.00000000E+00
  3.70000000E+01  1.90000000E+01  0.00000000E+00
  3.70000000E+01  1.80000000E+01  0.00000000E+00
  3.70000000E+01  1.70000000E+01  0.00000000E+00
  3.70000000E+01  1.60000000E+01  0.00000000E+00
  3.70000000E+01  1.50000000E+01  0.00000000E+00
  3.70000000E+01  1.40000000E+01  0.00000000E+00
  3.70000000E+01  1.30000000E+01  0.00000000E+00
  3.70000000E+01  1.20000000E+01  0.00000000E+00
  3.70000000E+01  1.10000000E+01  0.00000000E+00
  3.70000000E+01  1.00000000E+01  0.00000000E+00
  3.70000000E+01  9.00000000E+00  0.00000000E+00
  3.70000000E+01  8.00000000E+00  0.00000000E+00
  3.70000000E+01  7.00000000E+00  0.00000000E+00
  3.70000000E+01  6.00000000E+00  0.00000000E+00
  3.70000000E+01  5.00000000E+00  0.00000000E+00
  3.70000000E+01  4.00000000E+00  0.00000000E+00
  3.70000000E+01  3.00000000E+00  0.00000000E+00
  3.70000000E+01  2.00000000E+00  0.00000000E+00
  3.70000000E+01  1.00000000E+00  0.00000000E+00
  3.70000000E+01 -2.66453526E-15  0.00000000E+00
  3.80000000E+01  2.40000000E+01  0.00000000E+00
  3.80000000E+01  2.30000000E+01  0.00000000E+00
  3.80000000E+01  2.20000000E+01  0.00000000E+00
  3.80000000E+01  2.10000000E+01  0.00000000E+00
  3.80000000E+01  2.00000000E+01  0.00000000E+00
  3.80000000E+01  1.90000000E+01  0.00000000E+00
  3.80000000E+01  1.80000000E+01  0.00000000E+00
  3.80000000E+01  1.70000000E+01  0.00000000E+00
  3.80000000E+01  1.60000000E+01  0.00000000E+00
  3.80000000E+01  1.50000000E+01  0.00000000E+00
  3.80000000E+01  1.40000000E+01  0.00000000E+00
  3.80000000E+01  1.30000000E+01  0.00000000E+00
  3.80000000E+01  1.20000000E+01  0.00000000E+00
  3.80000000E+01  1.10000000E+01  0.00000000E+00
  3.80000000E+01  1.00000000E+01  0.00000000E+00
  3.80000000E+01  9.00000000E+00  0.00000000E+00
  3.80000000E+01  8.00000000E+00  0.00000000E+00
  3.80000000E+01  7.00000000E+00  0.00000000E+00
  3.80000000E+01  6.00000000E+00  0.00000000E+00
  3.80000000E+01  5.00000000E+00  0.00000000E+00
  3.80000000E+01  4.00000000E+00  0.00000000E+00
  3.80000000E+01  3.00000000E+00  0.00000000E+00
  3.80000000E+01  2.00000000E+00  0.00000000E+00
  3.80000000E+01  1.00000000E+00  0.00000000E+00
  3.80000000E+01 -2.66453526E-15  0.00000000E+00
  3.90000000E+01  2.40000000E+01  0.00000000E+00
  3.90000000E+01  2.30000000E+01  0.00000000E+00
  3.90000000E+01  2.20000000E+01  0.00000000E+00
  3.90000000E+01  2.10000000E+01  0.00000000E+00
  3.90000000E+01  2.00000000E+01  0.00000000E+00
  3.90000000E+01  1.90000000E+01  0.00000000E+00
  3.90000000E+01  1.80000000E+01  0.00000000E+00
  3.90000000E+01  1.70000000E+01  0.00000000E+00
  3.90000000E+01  1.60000000E+01  0.00000000E+00
  3.90000000E+01  1.50000000E+01  0.00000000E+00
  3.90000000E+01  1.40000000E+01  0.00000000E+00
  3.90000000E+01  1.30000000E+01  0.00000000E+00
  3.90000000E+01  1.20000000E+01  0.00000000E+00
  3.90000000E+01  1.10000000E+01  0.00000000E+00
  3.90000000E+01  1.00000000E+01  0.00000000E+00
  3.90000000E+01  9.00000000E+00  0.00000000E+00
  3.90000000E+01  8.00000000E+00  0.00000000E+00
  3.90000000E+01  7.00000000E+00  0.00000000E+00
  3.90000000E+01  6.00000000E+00  0.00000000E+00
  3.90000000E+01  5.00000000E+00  0.00000000E+00
  3.90000000E+01  4.00000000E+00  0.00000000E+00
  3.90000000E+01  3.00000000E+00  0.00000000E+00
  3.90000000E+01  2.00000000E+00  0.00000000E+00
  3.90000000E+01  1.00000000E+00  0.00000000E+00
  3.90000000E+01 -2.66453526E-15  0.00000000E+00
  4.00000000E+01  2.40000000E+01  0.00000000E+00
  4.00000000E+01  2.30000000E+01  0.00000000E+00
  4.00000000E+01  2.20000000E+01  0.00000000E+00
  4.00000000E+01  2.10000000E+01  0.00000000E+00
  4.00000000E+01  2.00000000E+01  0.00000000E+00
  4.00000000E+01  1.90000000E+01  0.00000000E+00
  4.00000000E+01  1.80000000E+01  0.00000000E+00
  4.00000000E+01  1.70000000E+01  0.00000000E+00
  4.00000000E+01  1.60000000E+01  0.00000000E+00
  4.00000000E+01  1.50000000E+01  0.00000000E+00
  4.00000000E+01  1.40000000E+01  0.00000000E+00
  4.00000000E+01  1.30000000E+01  0.00000000E+00
  4.00000000E+01  1.20000000E+01  0.00000000E+00
  4.00000000E+01  1.10000000E+01  0.00000000E+00
  4.00000000E+01  1.00000000E+01  0.00000000E+00
  4.00000000E+01  9.00000000E+00  0.00000000E+00
  4.00000000E+01  8.00000000E+00  0.00000000E+00
  4.00000000E+01  7.00000000E+00  0.00000000E+00
  4.00000000E+01  6.00000000E+00  0.00000000E+00
  4.00000000E+01  5.00000000E+00  0.00000000E+00
  4.00000000E+01  4.00000000E+00  0.00000000E+00
  4.00000000E+01  3.00000000E+00  0.00000000E+00
  4.00000000E+01  2.00000000E+00  0.00000000E+00
  4.00000000E+01  1.00000000E+00  0.00000000E+00
  4.00000000E+01 -2.66453526E-15  0.00000000E+00
  4.10000000E+01  2.40000000E+01  0.00000000E+00
  4.10000000E+01  2.30000000E+01  0.00000000E+00
  4.10000000E+01  2.20000000E+01  0.00000000E+00
  4.10000000E+01  2.10000000E+01  0.00000000E+00
  4.10000000E+01  2.00000000E+01  0.00000000E+00
  4.10000000E+01  1.90000000E+01  0.00000000E+00
  4.10000000E+01  1.80000000E+01  0.00000000E+00
  4.10000000E+01  1.70000000E+01  0.00000000E+00
  4.10000000E+01  1.60000000E+01  0.00000000E+00
  4.10000000E+01  1.50000000E+01  0.00000000E+00
  4.10000000E+01  1.40000000E+01  0.00000000E+00
  4.10000000E+01  1.30000000E+01  0.00000000E+00
  4.10000000E+01  1.20000000E+01  0.00000000E+00
  4.10000000E+01  1.10000000E+01  0.00000000E+00
  4.10000000E+01  1.00000000E+01  0.00000000E+00
  4.10000000E+01  9.00000000E+00  0.00000000E+00
  4.10000000E+01  8.00000000E+00  0.00000000E+00
  4.10000000E+01  7.00000000E+00  0.00000000E+00
  4.10000000E+01  6.00000000E+00  0.00000000E+00
  4.10000000E+01  5.00000000E+00  0.00000000E+00
  4.10000000E+01  4.00000000E+00  0.00000000E+00
  4.10000000E+01  3.00000000E+00  0.00000000E+00
  4.10000000E+01  2.00000000E+00  0.00000000E+00
  4.10000000E+01  1.00000000E+00  0.00000000E+00
  4.10000000E+01 -2.66453526E-15  0.00000000E+00
  4.20000000E+01  2.40000000E+01  0.00000000E+00
  4.20000000E+01  2.30000000E+01  0.00000000E+00
  4.20000000E+01  2.20000000E+01  0.00000000E+00
  4.20000000E+01  2.10000000E+01  0.00000000E+00
  4.20000000E+01  2.00000000E+01  0.00000000E+00
  4.20000000E+01  1.90000000E+01  0.00000000E+00
  4.20000000E+01  1.80000000E+01  0.00000000E+00
  4.20000000E+01  1.70000000E+01  0.00000000E+00
  4.20000000E+01  1.60000000E+01  0.00000000E+00
  4.20000000E+01  1.50000000E+01  0.00000000E+00
  4.20000000E+01  1.40000000E+01  0.00000000E+00
  4.20000000E+01  1.30000000E+01  0.00000000E+00
  4.20000000E+01  1.20000000E+01  0.00000000E+00
  4.20000000E+01  1.10000000E+01  0.00000000E+00
  4.20000000E+01  1.00000000E+01  0.00000000E+00
  4.20000000E+01  9.00000000E+00  0.00000000E+00
  4.20000000E+01  8.00000000E+00  0.00000000E+00
  4.20000000E+01  7.00000000E+00  0.00000000E+00
  4.20000000E+01  6.00000000E+00  0.00000000E+00
  4.20000000E+01  5.00000000E+00  0.00000000E+00
  4.20000000E+01  4.00000000E+00  0.00000000E+00
  4.20000000E+01  3.00000000E+00  0.00000000E+00
  4.20000000E+01  2.00000000E+00  0.00000000E+00
  4.20000000E+01  1.00000000E+00  0.00000000E+00
  4.20000000E+01 -2.66453526E-15  0.00000000E+00
  4.30000000E+01  2.40000000E+01  0.00000000E+00
  4.30000000E+01  2.30000000E+01  0.00000000E+00
  4.30000000E+01  2.20000000E+01  0.00000000E+00
  4.30000000E+01  2.10000000E+01  0.00000000E+00
  4.30000000E+01  2.00000000E+01  0.00000000E+00
  4.30000000E+01  1.90000000E+01  0.00000000E+00
  4.30000000E+01  1.80000000E+01  0.00000000E+00
  4.30000000E+01  1.70000000E+01  0.00000000E+00
  4.30000000E+01  1.60000000E+01  0.00000000E+00
  4.30000000E+01  1.50000000E+01  0.00000000E+00
  4.30000000E+01  1.40000000E+01  0.00000000E+00
  4.30000000E+01  1.30000000E+01  0.00000000E+00
  4.30000000E+01  1.20000000E+01  0.00000000E+00
  4.30000000E+01  1.10000000E+01  0.00000000E+00
  4.30000000E+01  1.00000000E+01  0.00000000E+00
  4.30000000E+01  9.00000000E+00  0.00000000E+00
  4.30000000E+01  8.00000000E+00  0.00000000E+00
  4.30000000E+01  7.00000000E+00  0.00000000E+00
  4.30000000E+01  6.00000000E+00  0.00000000E+00
  4.30000000E+01  5.00000000E+00  0.00000000E+00
  4.30000000E+01  4.00000000E+00  0.00000000E+00
  4.30000000E+01  3.00000000E+00  0.00000000E+00
  4.30000000E+01  2.00000000E+00  0.00000000E+00
  4.30000000E+01  1.00000000E+00  0.00000000E+00
  4.30000000E+01 -2.66453526E-15  0.00000000E+00
  4.40000000E+01  2.40000000E+01  0.00000000E+00
  4.40000000E+01  2.30000000E+01  0.00000000E+00
  4.40000000E+01  2.20000000E+01  0.00000000E+00
  4.40000000E+01  2.10000000E+01  0.00000000E+00
  4.40000000E+01  2.00000000E+01  0.00000000E+00
  4.40000000E+01  1.90000000E+01  0.00000000E+00
  4.40000000E+01  1.80000000E+01  0.00000000E+00
  4.40000000E+01  1.70000000E+01  0.00000000E+00
  4.40000000E+01  1.60000000E+01  0.00000000E+00
  4.40000000E+01  1.50000000E+01  0.00000000E+00
  4.40000000E+01  1.40000000E+01  0.00000000E+00
  4.40000000E+01  1.30000000E+01  0.00000000E+00
  4.40000000E+01  1.20000000E+01  0.00000000E+00
  4.40000000E+01  1.10000000E+01  0.00000000E+00
  4.40000000E+01  1.00000000E+01  0.00000000E+00
  4.40000000E+01  9.00000000E+00  0.00000000E+00
  4.40000000E+01  8.00000000E+00  0.00000000E+00
  4.40000000E+01  7.00000000E+00  0.00000000E+00
  4.40000000E+01  6.00000000E+00  0.00000000E+00
  4.40000000E+01  5.00000000E+00  0.00000000E+00
  4.40000000E+01  4.00000000E+00  0.00000000E+00
  4.40000000E+01  3.00000000E+00  0.00000000E+00
  4.40000000E+01  2.00000000E+00  0.00000000E+00
  4.40000000E+01  1.00000000E+00  0.00000000E+00
  4.40000000E+01 -2.66453526E-15  0.00000000E+00
  4.50000000E+01  2.40000000E+01  0.00000000E+00
  4.50000000E+01  2.30000000E+01  0.00000000E+00
  4.50000000E+01  2.20000000E+01  0.00000000E+00
  4.50000000E+01  2.10000000E+01  0.00000000E+00
  4.50000000E+01  2.00000000E+01  0.00000000E+00
  4.50000000E+01  1.90000000E+01  0.00000000E+00
  4.50000000E+01  1.80000000E+01  0.00000000E+00
  4.50000000E+01  1.70000000E+01  0.00000000E+00
  4.50000000E+01  1.60000000E+01  0.00000000E+00
  4.50000000E+01  1.50000000E+01  0.00000000E+00
  4.50000000E+01  1.40000000E+01  0.00000000E+00
  4.50000000E+01  1.30000000E+01  0.00000000E+00
  4.50000000E+01  1.20000000E+01  0.00000000E+00
  4.50000000E+01  1.10000000E+01  0.00000000E+00
  4.50000000E+01  1.00000000E+01  0.00000000E+00
  4.50000000E+01  9.00000000E+00  0.00000000E+00
  4.50000000E+01  8.00000000E+00  0.00000000E+00
  4.50000000E+01  7.00000000E+00  0.00000000E+00
  4.50000000E+01  6.00000000E+00  0.00000000E+00
  4.50000000E+01  5.00000000E+00  0.00000000E+00
  4.50000000E+01  4.00000000E+00  0.00000000E+00
  4.50000000E+01  3.00000000E+00  0.00000000E+00
  4.50000000E+01  2.00000000E+00  0.00000000E+00
  4.50000000E+01  1.00000000E+00  0.00000000E+00
  4.50000000E+01 -2.66453526E-15  0.00000000E+00
  4.60000000E+01  2.40000000E+01  0.00000000E+00
  4.60000000E+01  2.30000000E+01  0.00000000E+00
  4.60000000E+01  2.20000000E+01  0.00000000E+00
  4.60000000E+01  2.10000000E+01  0.00000000E+00
  4.60000000E+01  2.00000000E+01  0.00000000E+00
  4.60000000E+01  1.90000000E+01  0.00000000E+00
  4.60000000E+01  1.80000000E+01  0.00000000E+00
  4.60000000E+01  1.70000000E+01  0.00000000E+00
  4.60000000E+01  1.60000000E+01  0.00000000E+00
  4.60000000E+01  1.50000000E+01  0.00000000E+00
  4.60000000E+01  1.40000000E+01  0.00000000E+00
  4.60000000E+01  1.30000000E+01  0.00000000E+00
  4.60000000E+01  1.20000000E+01  0.00000000E+00
  4.60000000E+01  1.10000000E+01  0.00000000E+00
  4.60000000E+01  1.00000000E+01  0.00000000E+00
  4.60000000E+01  9.00000000E+00  0.00000000E+00
  4.60000000E+01  8.00000000E+00  0.00000000E+00
  4.60000000E+01  7.00000000E+00  0.00000000E+00
  4.60000000E+01  6.00000000E+00  0.00000000E+00
  4.60000000E+01  5.00000000E+00  0.00000000E+00
  4.60000000E+01  4.00000000E+00  0.00000000E+00
  4.60000000E+01  3.00000000E+00  0.00000000E+00
  4.60000000E+01  2.00000000E+00  0.00000000E+00
  4.60000000E+01  1.00000000E+00  0.00000000E+00
  4.60000000E+01 -2.66453526E-15  0.00000000E+00
  4.70000000E+01  2.40000000E+01  0.00000000E+00
  4.70000000E+01  2.30000000E+01  0.00000000E+00
  4.70000000E+01  2.20000000E+01  0.00000000E+00
  4.70000000E+01  2.10000000E+01  0.00000000E+00
  4.70000000E+01  2.00000000E+01  0.00000000E+00
  4.70000000E+01  1.90000000E+01  0.00000000E+00
  4.70000000E+01  1.80000000E+01  0.00000000E+00
  4.70000000E+01  1.70000000E+01  0.00000000E+00
  4.70000000E+01  1.60000000E+01  0.00000000E+00
  4.70000000E+01  1.50000000E+01  0.00000000E+00
  4.70000000E+01  1.40000000E+01  0.00000000E+00
  4.70000000E+01  1.30000000E+01  0.00000000E+00
  4.70000000E+01  1.20000000E+01  0.00000000E+00
  4.70000000E+01  1.10000000E+01  0.00000000E+00
  4.70000000E+01  1.00000000E+01  0.00000000E+00
  4.70000000E+01  9.00000000E+00  0.00000000E+00
  4.70000000E+01  8.00000000E+00  0.00000000E+00
  4.70000000E+01  7.00000000E+00  0.00000000E+00
  4.70000000E+01  6.00000000E+00  0.00000000E+00
  4.70000000E+01  5.00000000E+00  0.00000000E+00
  4.70000000E+01  4.00000000E+00  0.00000000E+00
  4.70000000E+01  3.00000000E+00  0.00000000E+00
  4.70000000E+01  2.00000000E+00  0.00000000E+00
  4.70000000E+01  1.00000000E+00  0.00000000E+00
  4.70000000E+01 -2.66453526E-15  0.00000000E+00
  4.80000000E+01  2.40000000E+01  0.00000000E+00
  4.80000000E+01  2.30000000E+01  0.00000000E+00
  4.80000000E+01  2.20000000E+01  0.00000000E+00
  4.80000000E+01  2.10000000E+01  0.00000000E+00
  4.80000000E+01  2.00000000E+01  0.00000000E+00
  4.80000000E+01  1.90000000E+01  0.00000000E+00
  4.80000000E+01  1.80000000E+01  0.00000000E+00
  4.80000000E+01  1.70000000E+01  0.00000000E+00
  4.80000000E+01  1.60000000E+01  0.00000000E+00
  4.80000000E+01  1.50000000E+01  0.00000000E+00
  4.80000000E+01  1.40000000E+01  0.00000000E+00
  4.80000000E+01  1.30000000E+01  0.00000000E+00
  4.80000000E+01  1.20000000E+01  0.00000000E+00
  4.80000000E+01  1.10000000E+01  0.00000000E+00
  4.80000000E+01  1.00000000E+01  0.00000000E+00
  4.80000000E+01  9.00000000E+00  0.00000000E+00
  4.80000000E+01  8.00000000E+00  0.00000000E+00
  4.80000000E+01  7.00000000E+00  0.00000000E+00
  4.80000000E+01  6.00000000E+00  0.00000000E+00
  4.80000000E+01  5.00000000E+00  0.00000000E+00
  4.80000000E+01  4.00000000E+00  0.00000000E+00
  4.80000000E+01  3.00000000E+00  0.00000000E+00
  4.80000000E+01  2.00000000E+00  0.00000000E+00
  4.80000000E+01  1.00000000E+00  0.00000000E+00
  4.80000000E+01 -2.66453526E-15  0.00000000E+00
CELLS      1152      5760
         4           0           1          26          25
         4           1           2          27          26
         4           2           3          28          27
         4           3           4          29          28
         4           4           5          30          29
         4           5           6          31          30
         4           6           7          32          31
         4           7           8          33          32
         4           8           9          34          33
         4           9          10          35          34
         4          10          11          36          35
         4          11          12          37          36
         4          12          13          38          37
         4          13          14          39          38
         4          14          15          40          39
         4          15          16          41          40
         4          16          17          42          41
         4          17          18          43          42
         4          18          19          44          43
         4          19          20          45          44
         4          20          21          46          45
         4          21          22          47          46
         4          22          23          48          47
         4          23          24          49          48
         4          25          26          51          50
         4          26          27          52          51
         4          27          28          53          52
         4          28          29          54          53
         4          29          30          55          54
         4          30          31          56          55
         4          31          32          57          56
         4          32          33          58          57
         4          33          34          59          58
         4          34          35          60          59
         4          35          36          61          60
         4          36          37          62          61
         4          37          38          63          62
         4          38          39          64          63
         4          39          40          65          64
         4          40          41          66          65
         4          41          42          67          66
         4          42          43          68          67
         4          43          44          69          68
         4          44          45          70          69
         4          45          46          71          70
         4          46          47          72          71
         4          47          48          73          72
         4          48          49          74          73
         4          50          51          76          75
         4          51          52          77          76
         4          52          53          78          77
         4          53          54          79          78
         4          54          55          80          79
         4          55          56          81          80
         4          56          57          82          81
         4          57          58          83          82
         4          58          59          84          83
         4          59          60          85          84
         4          60          61          86          85
         4          61          62          87          86
         4          62          63          88          87
         4          63          64          89          88
         4          64          65          90          89
         4          65          66          91          90
         4          66          67          92          91
         4          67          68          93          92
         4          68          69          94          93
         4          69          70          95          94
         4          70          71          96          95
         4          71          72          97          96
         4          72          73          98          97
         4          73          74          99          98
         4          75          76         101         100
         4          76          77         102         101
         4          77          78         103         102
         4          78          79         104         103
         4          79          80         105         104
         4          80          81         106         105
         4          81          82         107         106
         4          82          83         108         107
         4          83          84         109         108
         4          84          85         110         109
         4          85          86         111         110
         4          86          87         112         111
         4          87          88         113         112
         4          88          89         114         113
         4          89          90         115         114
         4          90          91         116         115
         4          91          92         117         116
         4          92          93         118         117
         4          93          94         119         118
         4          94          95         120         119
         4          95          96         121         120
         4          96          97         122         121
         4          97          98         123         122
         4          98          99         124         123
         4         100         101         126         125
         4         101         102         127         126
         4         102         103         128         127
         4         103         104         129         128
         4         104         105         130         129
         4         105         106         131         130
         4         106         107         132         131
         4         107         108         133         132
         4         108         109         134         133
         4         109         110         135         134
         4         110         111         136         135
         4         111         112         137         136
         4         112         113         138         137
         4         113         114         139         138
         4         114         115         140         139
         4         115         116         141         140
         4         116         117         142         141
         4         117         118         143         142
         4         118         119         144         143
         4         119         120         145         144
         4         120         121         146         145
         4         121         122         147         146
         4         122         123         148         147
         4         123         124         149         148
         4         125         126         151         150
         4         126         127         152         151
         4         127         128         153         152
         4         128         129         154         153
         4         129         130         155         154
         4         130         131         156         155
         4         131         132         157         156
         4         132         133         158         157
         4         133         134         159         158
         4         134         135         160         159
         4         135         136         161         160
         4         136         137         162         161
         4         137         138         163         162
         4         138         139         164         163
         4         139         140         165         164
         4         140         141         166         165
         4         141         142         167         166
         4         142         143         168         167
         4         143         144         169         168
         4         144         145         170         169
         4         145         146         171         170
         4         146         147         172         171
         4         147         148         173         172
         4         148         149         174         173
         4         150         151         176         175
         4         151         152         177         176
         4         152         153         178         177
         4         153         154         179         178
         4         154         155         180         179
         4         155         156         181         180
         4         156         157         182         181
         4         157         158         183         182
         4         158         159         184         183
         4         159         160         185         184
         4         160         161         186         185
         4         161         162         187         186
         4         162         163         188         187
         4         163         164         189         188
         4         164         165         190         189
         4         165         166         191         190
         4         166         167         192         191
         4         167         168         193         192
         4         168         169         194         193
         4         169         170         195         194
         4         170         171         196         195
         4         171         172         197         196
         4         172         173         198         197
         4         173         174         199         198
         4         175         176         201         200
         4         176         177         202         201
         4         177         178         203         202
         4         178         179         204         203
         4         179         180         205         204
         4         180         181         206         205
         4         181         182         207         206
         4         182         183         208         207
         4         183         184         209         208
         4         184         185         210         209
         4         185         186         211         210
         4         186         187         212         211
         4         187         188         213         212
         4         188         189         214         213
         4         189         190         215         214
         4         190         191         216         215
         4         191         192         217         216
         4         192         193         218         217
         4         193         194         219         218
         4         194         195         220         219
         4         195         196         221         220
         4         196         197         222         221
         4         197         198         223         222
         4         198         199         224         223
         4         200         201         226         225
         4         201         202         227         226
         4         202         203         228         227
         4         203         204         229         228
         4         204         205         230         229
         4         205         206         231         230
         4         206         207         232         231
         4         207         208         233         232
         4         208         209         234         233
         4         209         210         235         234
         4         210         211         236         235
         4         211         212         237         236
         4         212         213         238         237
         4         213         214         239         238
         4         214         215         240         239
         4         215         216         241         240
         4         216         217         242         241
         4         217         218         243         242
         4         218         219         244         243
         4         219         220         245         244
         4         220         221         246         245
         4         221         222         247         246
         4         222         223         248         247
         4         223         224         249         248
         4         225         226         251         250
         4         226         227         252         251
         4         227         228         253         252
         4         228         229         254         253
         4         229         230         255         254
         4         230         231         256         255
         4         231         232         257         256
         4         232         233         258         257
         4         233         234         259         258
         4         234         235         260         259
         4         235         236         261         260
         4         236         237         262         261
         4         237         238         263         262
         4         238         239         264         263
         4         239         240         265         264
         4         240         241         266         265
         4         241         242         267         266
         4         242         243         268         267
         4         243         244         269         268
         4         244         245         270         269
         4         245         246         271         270
         4         246         247         272         271
         4         247         248         273         272
         4         248         249         274         273
         4         250         251         276         275
         4         251         252         277         276
         4         252         253         278         277
         4         253         254         279         278
         4         254         255         280         279
         4         255         256         281         280
         4         256         257         282         281
         4         257         258         283         282
         4         258         259         284         283
         4         259         260         285         284
         4         260         261         286         285
         4         261         262         287         286
         4         262         263         288         287
         4         263         264         289         288
         4         264         265         290         289
         4         265         266         291         290
         4         266         267         292         291
         4         267         268         293         292
         4         268         269         294         293
         4         269         270         295         294
         4         270         271         296         295
         4         271         272         297         296
         4         272         273         298         297
         4         273         274         299         298
         4         275         276         301         300
         4         276         277         302         301
         4         277         278         303         302
         4         278         279         304         303
         4         279         280         305         304
         4         280         281         306         305
         4         281         282         307         306
         4         282         283         308         307
         4         283         284         309         308
         4         284         285         310         309
         4         285         286         311         310
         4         286         287         312         311
         4         287         288         313         312
         4         288         289         314         313
         4         289         290         315         314
         4         290         291         316         315
         4         291         292         317         316
         4         292         293         318         317
         4         293         294         319         318
         4         294         295         320         319
         4         295         296         321         320
         4         296         297         322         321
         4         297         298         323         322
         4         298         299         324         323
         4         300         301         326         325
         4         301         302         327         326
         4         302         303         328         327
         4         303         304         329         328
         4         304         305         330         329
         4         305         306         331         330
         4         306         307         332         331
         4         307         308         333         332
         4         308         309         334         333
         4         309         310         335         334
         4         310         311         336         335
         4         311         312         337         336
         4         312         313         338         337
         4         313         314         339         338
         4         314         315         340         339
         4         315         316         341         340
         4         316         317         342         341
         4         317         318         343         342
         4         318         319         344         343
         4         319         320         345         344
         4         320         321         346         345
         4         321         322         347         346
         4         322         323         348         347
         4         323         324         349         348
         4         325         326         351         350
         4         326         327         352         351
         4         327         328         353         352
         4         328         329         354         353
         4         329         330         355         354
         4         330         331         356         355
         4         331         332         357         356
         4         332         333         358         357
         4         333         334         359         358
         4         334         335         360         359
         4         335         336         361         360
         4         336         337         362         361
         4         337         338         363         362
         4         338         339         364         363
         4         339         340         365         364
         4         340         341         366         365
         4         341         342         367         366
         4         342         343         368         367
         4         343         344         369         368
         4         344         345         370         369
         4         345         346         371         370
         4         346         347         372         371
         4         347         348         373         372
         4         348         349         374         373
         4         350         351         376         375
         4         351         352         377         376
         4         352         353         378         377
         4         353         354         379         378
         4         354         355         380         379
         4         355         356         381         380
         4         356         357         382         381
         4         357         358         383         382
         4         358         359         384         383
         4         359         360         385         384
         4         360         361         386         385
         4         361         362         387         386
         4         362         363         388         387
         4         363         364         389         388
         4         364         365         390         389
         4         365         366         391         390
         4         366         367         392         391
         4         367         368         393         392
         4         368         369         394         393
         4         369         370         395         394
         4         370         371         396         395
         4         371         372         397         396
         4         372         373         398         397
         4         373         374         399         398
         4         375         376         401         400
         4         376         377         402         401
         4         377         378         403         402
         4         378         379         404         403
         4         379         380         405         404
         4         380         381         406         405
         4         381         382         407         406
         4         382         383         408         407
         4         383         384         409         408
         4         384         385         410         409
         4         385         386         411         410
         4         386         387         412         411
         4         387         388         413         412
         4         388         389         414         413
         4         389         390         415         414
         4         390         391         416         415
         4         391         392         417         416
         4         392         393         418         417
         4         393         394         419         418
         4         394         395         420         419
         4         395         396         421         420
         4         396         397         422         421
         4         397         398         423         422
         4         398         399         424         423
         4         400         401         426         425
         4         401         402         427         426
         4         402         403         428         427
         4         403         404         429         428
         4         404         405         430         429
         4         405         406         431         430
         4         406         407         432         431
         4         407         408         433         432
         4         408         409         434         433
         4         409         410         435         434
         4         410         411         436         435
         4         411         412         437         436
         4         412         413         438         437
         4         413         414         439         438
         4         414         415         440         439
         4         415         416         441         440
         4         416         417         442         441
         4         417         418         443         442
         4         418         419         444         443
         4         419         420         445         444
         4         420         421         446         445
         4         421         422         447         446
         4         422         423         448         447
         4         423         424         449         448
         4         425         426         451         450
         4         426         427         452         451
         4         427         428         453         452
         4         428         429         454         453
         4         429         430         455         454
         4         430         431         456         455
         4         431         432         457         456
         4         432         433         458         457
         4         433         434         459         458
         4         434         435         460         459
         4         435         436         461         460
         4         436         437         462         461
         4         437         438         463         462
         4         438         439         464         463
         4         439         440         465         464
         4         440         441         466         465
         4         441         442         467         466
         4         442         443         468         467
         4         443         444         469         468
         4         444         445         470         469
         4         445         446         471         470
         4         446         447         472         471
         4         447         448         473         472
         4         448         449         474         473
         4         450         451         476         475
         4         451         452         477         476
         4         452         453         478         477
         4         453         454         479         478
         4         454         455         480         479
         4         455         456         481         480
         4         456         457         482         481
         4         457         458         483         482
         4         458         459         484         483
         4         459         460         485         484
         4         460         461         486         485
         4         461         462         487         486
         4         462         463         488         487
         4         463         464         489         488
         4         464         465         490         489
         4         465         466         491         490
         4         466         467         492         491
         4         467         468         493         492
         4         468         469         494         493
         4         469         470         495         494
         4         470         471         496         495
         4         471         472         497         496
         4         472         473         498         497
         4         473         474         499         498
         4         475         476         501         500
         4         476         477         502         501
         4         477         478         503         502
         4         478         479         504         503
         4         479         480         505         504
         4         480         481         506         505
         4         481         482         507         506
         4         482         483         508         507
         4         483         484         509         508
         4         484         485         510         509
         4         485         486         511         510
         4         486         487         512         511
         4         487         488         513         512
         4         488         489         514         513
         4         489         490         515         514
         4         490         491         516         515
         4         491         492         517         516
         4         492         493         518         517
         4         493         494         519         518
         4         494         495         520         519
         4         495         496         521         520
         4         496         497         522         521
         4         497         498         523         522
         4         498         499         524         523
         4         500         501         526         525
         4         501         502         527         526
         4         502         503         528         527
         4         503         504         529         528
         4         504         505         530         529
         4         505         506         531         530
         4         506         507         532         531
         4         507         508         533         532
         4         508         509         534         533
         4         509         510         535         534
         4         510         511         536         535
         4         511         512         537         536
         4         512         513         538         537
         4         513         514         539         538
         4         514         515         540         539
         4         515         516         541         540
         4         516         517         542         541
         4         517         518         543         542
         4         518         519         544         543
         4         519         520         545         544
         4         520         521         546         545
         4         521         522         547         546
         4         522         523         548         547
         4         523         524         549         548
         4         525         526         551         550
         4         526         527         552         551
         4         527         528         553         552
         4         528         529         554         553
         4         529         530         555         554
         4         530         531         556         555
         4         531         532         557         556
         4         532         533         558         557
         4         533         534         559         558
         4         534         535         560         559
         4         535         536         561         560
         4         536         537         562         561
         4         537         538         563         562
         4         538         539         564         563
         4         539         540         565         564
         4         540         541         566         565
         4         541         542         567         566
         4         542         543         568         567
         4         543         544         569         568
         4         544         545         570         569
         4         545         546         571         570
         4         546         547         572         571
         4         547         548         573         572
         4         548         549         574         573
         4         550         551         576         575
         4         551         552         577         576
         4         552         553         578         577
         4         553         554         579         578
         4         554         555         580         579
         4         555         556         581         580
         4         556         557         582         581
         4         557         558         583         582
         4         558         559         584         583
         4         559         560         585         584
         4         560         561         586         585
         4         561         562         587         586
         4         562         563         588         587
         4         563         564         589         588
         4         564         565         590         589
         4         565         566         591         590
         4         566         567         592         591
         4         567         568         593         592
         4         568         569         594         593
         4         569         570         595         594
         4         570         571         596         595
         4         571         572         597         596
         4         572         573         598         597
         4         573         574         599         598
         4         575         576         601         600
         4         576         577         602         601
         4         577         578         603         602
         4         578         579         604         603
         4         579         580         605         604
         4         580         581         606         605
         4         581         582         607         606
         4         582         583         608         607
         4         583         584         609         608
         4         584         585         610         609
         4         585         586         611         610
         4         586         587         612         611
         4         587         588         613         612
         4         588         589         614         613
         4         589         590         615         614
         4         590         591         616         615
         4         591         592         617         616
         4         592         593         618         617
         4         593         594         619         618
         4         594         595         620         619
         4         595         596         621         620
         4         596         597         622         621
         4         597         598         623         622
         4         598         599         624         623
         4         600         601         626         625
         4         601         602         627         626
         4         602         603         628         627
         4         603         604         629         628
         4         604         605         630         629
         4         605         606         631         630
         4         606         607         632         631
         4         607         608         633         632
         4         608         609         634         633
         4         609         610         635         634
         4         610         611         636         635
         4         611         612         637         636
         4         612         613         638         637
         4         613         614         639         638
         4         614         615         640         639
         4         615         616         641         640
         4         616         617         642         641
         4         617         618         643         642
         4         618         619         644         643
         4         619         620         645         644
         4         620         621         646         645
         4         621         622         647         646
         4         622         623         648         647
         4         623         624         649         648
         4         625         626         651         650
         4         626         627         652         651
         4         627         628         653         652
         4         628         629         654         653
         4         629         630         655         654
         4         630         631         656         655
         4         631         632         657         656
         4         632         633         658         657
         4         633         634         659         658
         4         634         635         660         659
         4         635         636         661         660
         4         636         637         662         661
         4         637         638         663         662
         4         638         639         664         663
         4         639         640         665         664
         4         640         641         666         665
         4         641         642         667         666
         4         642         643         668         667
         4         643         644         669         668
         4         644         645         670         669
         4         645         646         671         670
         4         646         647         672         671
         4         647         648         673         672
         4         648         649         674         673
         4         650         651         676         675
         4         651         652         677         676
         4         652         653         678         677
         4         653         654         679         678
         4         654         655         680         679
         4         655         656         681         680
         4         656         657         682         681
         4         657         658         683         682
         4         658         659         684         683
         4         659         660         685         684
         4         660         661         686         685
         4         661         662         687         686
         4         662         663         688         687
         4         663         664         689         688
         4         664         665         690         689
         4         665         666         691         690
         4         666         667         692         691
         4         667         668         693         692
         4         668         669         694         693
         4         669         670         695         694
         4         670         671         696         695
         4         671         672         697         696
         4         672         673         698         697
         4         673         674         699         698
         4         675         676         701         700
         4         676         677         702         701
         4         677         678         703         702
         4         678         679         704         703
         4         679         680         705         704
         4         680         681         706         705
         4         681         682         707         706
         4         682         683         708         707
         4         683         684         709         708
         4         684         685         710         709
         4         685         686         711         710
         4         686         687         712         711
         4         687         688         713         712
         4         688         689         714         713
         4         689         690         715         714
         4         690         691         716         715
         4         691         692         717         716
         4         692         693         718         717
         4         693         694         719         718
         4         694         695         720         719
         4         695         696         721         720
         4         696         697         722         721
         4         697         698         723         722
         4         698         699         724         723
         4         700         701         726         725
         4         701         702         727         726
         4         702         703         728         727
         4         703         704         729         728
         4         704         705         730         729
         4         705         706         731         730
         4         706         707         732         731
         4         707         708         733         732
         4         708         709         734         733
         4         709         710         735         734
         4         710         711         736         735
         4         711         712         737         736
         4         712         713         738         737
         4         713         714         739         738
         4         714         715         740         739
         4         715         716         741         740
         4         716         717         742         741
         4         717         718         743         742
         4         718         719         744         743
         4         719         720         745         744
         4         720         721         746         745
         4         721         722         747         746
         4         722         723         748         747
         4         723         724         749         748
         4         725         726         751         750
         4         726         727         752         751
         4         727         728         753         752
         4         728         729         754         753
         4         729         730         755         754
         4         730         731         756         755
         4         731         732         757         756
         4         732         733         758         757
         4         733         734         759         758
         4         734         735         760         759
         4         735         736         761         760
         4         736         737         762         761
         4         737         738         763         762
         4         738         739         764         763
         4         739         740         765         764
         4         740         741         766         765
         4         741         742         767         766
         4         742         743         768         767
         4         743         744         769         768
         4         744         745         770         769
         4         745         746         771         770
         4         746         747         772         771
         4         747         748         773         772
         4         748         749         774         773
         4         750         751         776         775
         4         751         752         777         776
         4         752         753         778         777
         4         753         754         779         778
         4         754         755         780         779
         4         755         756         781         780
         4         756         757         782         781
         4         757         758         783         782
         4         758         759         784         783
         4         759         760         785         784
         4         760         761         786         785
         4         761         762         787         786
         4         762         763         788         787
         4         763         764         789         788
         4         764         765         790         789
         4         765         766         791         790
         4         766         767         792         791
         4         767         768         793         792
         4         768         769         794         793
         4         769         770         795         794
         4         770         771         796         795
         4         771         772         797         796
         4         772         773         798         797
         4         773         774         799         798
         4         775         776         801         800
         4         776         777         802         801
         4         777         778         803         802
         4         778         779         804         803
         4         779         780         805         804
         4         780         781         806         805
         4         781         782         807         806
         4         782         783         808         807
         4         783         784         809         808
         4         784         785         810         809
         4         785         786         811         810
         4         786         787         812         811
         4         787         788         813         812
         4         788         789         814         813
         4         789         790         815         814
         4         790         791         816         815
         4         791         792         817         816
         4         792         793         818         817
         4         793         794         819         818
         4         794         795         820         819
         4         795         796         821         820
         4         796         797         822         821
         4         797         798         823         822
         4         798         799         824         823
         4         800         801         826         825
         4         801         802         827         826
         4         802         803         828         827
         4         803         804         829         828
         4         804         805         830         829
         4         805         806         831         830
         4         806         807         832         831
         4         807         808         833         832
         4         808         809         834         833
         4         809         810         835         834
         4         810         811         836         835
         4         811         812         837         836
         4         812         813         838         837
         4         813         814         839         838
         4         814         815         840         839
         4         815         816         841         840
         4         816         817         842         841
         4         817         818         843         842
         4         818         819         844         843
         4         819         820         845         844
         4         820         821         846         845
         4         821         822         847         846
         4         822         823         848         847
         4         823         824         849         848
         4         825         826         851         850
         4         826         827         852         851
         4         827         828         853         852
         4         828         829         854         853
         4         829         830         855         854
         4         830         831         856         855
         4         831         832         857         856
         4         832         833         858         857
         4         833         834         859         858
         4         834         835         860         859
         4         835         836         861         860
         4         836         837         862         861
         4         837         838         863         862
         4         838         839         864         863
         4         839         840         865         864
         4         840         841         866         865
         4         841         842         867         866
         4         842         843         868         867
         4         843         844         869         868
         4         844         845         870         869
         4         845         846         871         870
         4         846         847         872         871
         4         847         848         873         872
         4         848         849         874         873
         4         850         851         876         875
         4         851         852         877         876
         4         852         853         878         877
         4         853         854         879         878
         4         854         855         880         879
         4         855         856         881         880
         4         856         857         882         881
         4         857         858         883         882
         4         858         859         884         883
         4         859         860         885         884
         4         860         861         886         885
         4         861         862         887         886
         4         862         863         888         887
         4         863         864         889         888
         4         864         865         890         889
         4         865         866         891         890
         4         866         867         892         891
         4         867         868         893         892
         4         868         869         894         893
         4         869         870         895         894
         4         870         871         896         895
         4         871         872         897         896
         4         872         873         898         897
         4         873         874         899         898
         4         875         876         901         900
         4         876         877         902         901
         4         877         878         903         902
         4         878         879         904         903
         4         879         880         905         904
         4         880         881         906         905
         4         881         882         907         906
         4         882         883         908         907
         4         883         884         909         908
         4         884         885         910         909
         4         885         886         911         910
         4         886         887         912         911
         4         887         888         913         912
         4         888         889         914         913
         4         889         890         915         914
         4         890         891         916         915
         4         891         892         917         916
         4         892         893         918         917
         4         893         894         919         918
         4         894         895         920         919
         4         895         896         921         920
         4         896         897         922         921
         4         897         898         923         922
         4         898         899         924         923
         4         900         901         926         925
         4         901         902         927         926
         4         902         903         928         927
         4         903         904         929         928
         4         904         905         930         929
         4         905         906         931         930
         4         906         907         932         931
         4         907         908         933         932
         4         908         909         934         933
         4         909         910         935         934
         4         910         911         936         935
         4         911         912         937         936
         4         912         913         938         937
         4         913         914         939         938
         4         914         915         940         939
         4         915         916         941         940
         4         916         917         942         941
         4         917         918         943         942
         4         918         919         944         943
         4         919         920         945         944
         4         920         921         946         945
         4         921         922         947         946
         4         922         923         948         947
         4         923         924         949         948
         4         925         926         951         950
         4         926         927         952         951
         4         927         928         953         952
         4         928         929         954         953
         4         929         930         955         954
         4         930         931         956         955
         4         931         932         957         956
         4         932         933         958         957
         4         933         934         959         958
         4         934         935         960         959
         4         935         936         961         960
         4         936         937         962         961
         4         937         938         963         962
         4         938         939         964         963
         4         939         940         965         964
         4         940         941         966         965
         4         941         942         967         966
         4         942         943         968         967
         4         943         944         969         968
         4         944         945         970         969
         4         945         946         971         970
         4         946         947         972         971
         4         947         948         973         972
         4         948         949         974         973
         4         950         951         976         975
         4         951         952         977         976
         4         952         953         978         977
         4         953         954         979         978
         4         954         955         980         979
         4         955         956         981         980
         4         956         957         982         981
         4         957         958         983         982
         4         958         959         984         983
         4         959         960         985         984
         4         960         961         986         985
         4         961         962         987         986
         4         962         963         988         987
         4         963         964         989         988
         4         964         965         990         989
         4         965         966         991         990
         4         966         967         992         991
         4         967         968         993         992
         4         968         969         994         993
         4         969         970         995         994
         4         970         971         996         995
         4         971         972         997         996
         4         972         973         998         997
         4         973         974         999         998
         4         975         976        1001        1000
         4         976         977        1002        1001
         4         977         978        1003        1002
         4         978         979        1004        1003
         4         979         980        1005        1004
         4         980         981        1006        1005
         4         981         982        1007        1006
         4         982         983        1008        1007
         4         983         984        1009        1008
         4         984         985        1010        1009
         4         985         986        1011        1010
         4         986         987        1012        1011
         4         987         988        1013        1012
         4         988         989        1014        1013
         4         989         990        1015        1014
         4         990         991        1016        1015
         4         991         992        1017        1016
         4         992         993        1018        1017
         4         993         994        1019        1018
         4         994         995        1020        1019
         4         995         996        1021        1020
         4         996         997        1022        1021
         4         997         998        1023        1022
         4         998         999        1024        1023
         4        1000        1001        1026        1025
         4        1001        1002        1027        1026
         4        1002        1003        1028        1027
         4        1003        1004        1029        1028
         4        1004        1005        1030        1029
         4        1005        1006        1031        1030
         4        1006        1007        1032        1031
         4        1007        1008        1033        1032
         4        1008        1009        1034        1033
         4        1009        1010        1035        1034
         4        1010        1011        1036        1035
         4        1011        1012        1037        1036
         4        1012        1013        1038        1037
         4        1013        1014        1039        1038
         4        1014        1015        1040        1039
         4        1015        1016        1041        1040
         4        1016        1017        1042        1041
         4        1017        1018        1043        1042
         4        1018        1019        1044        1043
         4        1019        1020        1045        1044
         4        1020        1021        1046        1045
         4        1021        1022        1047        1046
         4        1022        1023        1048        1047
         4        1023        1024        1049        1048
         4        1025        1026        1051        1050
         4        1026        1027        1052        1051
         4        1027        1028        1053        1052
         4        1028        1029        1054        1053
         4        1029        1030        1055        1054
         4        1030        1031        1056        1055
         4        1031        1032        1057        1056
         4        1032        1033        1058        1057
         4        1033        1034        1059        1058
         4        1034        1035        1060        1059
         4        1035        1036        1061        1060
         4        1036        1037        1062        1061
         4        1037        1038        1063        1062
         4        1038        1039        1064        1063
         4        1039        1040        1065        1064
         4        1040        1041        1066        1065
         4        1041        1042        1067        1066
         4        1042        1043        1068        1067
         4        1043        1044        1069        1068
         4        1044        1045        1070        1069
         4        1045        1046        1071        1070
         4        1046        1047        1072        1071
         4        1047        1048        1073        1072
         4        1048        1049        1074        1073
         4        1050        1051        1076        1075
         4        1051        1052        1077        1076
         4        1052        1053        1078        1077
         4        1053        1054        1079        1078
         4        1054        1055        1080        1079
         4        1055        1056        1081        1080
         4        1056        1057        1082        1081
         4        1057        1058        1083        1082
         4        1058        1059        1084        1083
         4        1059        1060        1085        1084
         4        1060        1061        1086        1085
         4        1061        1062        1087        1086
         4        1062        1063        1088        1087
         4        1063        1064        1089        1088
         4        1064        1065        1090        1089
         4        1065        1066        1091        1090
         4        1066        1067        1092        1091
         4        1067        1068        1093        1092
         4        1068        1069        1094        1093
         4        1069        1070        1095        1094
         4        1070        1071        1096        1095
         4        1071        1072        1097        1096
         4        1072        1073        1098        1097
         4        1073        1074        1099        1098
         4        1075        1076        1101        1100
         4        1076        1077        1102        1101
         4        1077        1078        1103        1102
         4        1078        1079        1104        1103
         4        1079        1080        1105        1104
         4        1080        1081        1106        1105
         4        1081        1082        1107        1106
         4        1082        1083        1108        1107
         4        1083        1084        1109        1108
         4        1084        1085        1110        1109
         4        1085        1086        1111        1110
         4        1086        1087        1112        1111
         4        1087        1088        1113        1112
         4        1088        1089        1114        1113
         4        1089        1090        1115        1114
         4        1090        1091        1116        1115
         4        1091        1092        1117        1116
         4        1092        1093        1118        1117
         4        1093        1094        1119        1118
         4        1094        1095        1120        1119
         4        1095        1096        1121        1120
         4        1096        1097        1122        1121
         4        1097        1098        1123        1122
         4        1098        1099        1124        1123
         4        1100        1101        1126        1125
         4        1101        1102        1127        1126
         4        1102        1103        1128        1127
         4        1103        1104        1129        1128
         4        1104        1105        1130        1129
         4        1105        1106        1131        1130
         4        1106        1107        1132        1131
         4        1107        1108        1133        1132
         4        1108        1109        1134        1133
         4        1109        1110        1135        1134
         4        1110        1111        1136        1135
         4        1111        1112        1137        1136
         4        1112        1113        1138        1137
         4        1113        1114        1139        1138
         4        1114        1115        1140        1139
         4        1115        1116        1141        1140
         4        1116        1117        1142        1141
         4        1117        1118        1143        1142
         4        1118        1119        1144        1143
         4        1119        1120        1145        1144
         4        1120        1121        1146        1145
         4        1121        1122        1147        1146
         4        1122        1123        1148        1147
         4        1123        1124        1149        1148
         4        1125        1126        1151        1150
         4        1126        1127        1152        1151
         4        1127        1128        1153        1152
         4        1128        1129        1154        1153
         4        1129        1130        1155        1154
         4        1130        1131        1156        1155
         4        1131        1132        1157        1156
         4        1132        1133        1158        1157
         4        1133        1134        1159        1158
         4        1134        1135        1160        1159
         4        1135        1136        1161        1160
         4        1136        1137        1162        1161
         4        1137        1138        1163        1162
         4        1138        1139        1164        1163
         4        1139        1140        1165        1164
         4        1140        1141        1166        1165
         4        1141        1142        1167        1166
         4        1142        1143        1168        1167
         4        1143        1144        1169        1168
         4        1144        1145        1170        1169
         4        1145        1146        1171        1170
         4        1146        1147        1172        1171
         4        1147        1148        1173        1172
         4        1148        1149        1174        1173
         4        1150        1151        1176        1175
         4        1151        1152        1177        1176
         4        1152        1153        1178        1177
         4        1153        1154        1179        1178
         4        1154        1155        1180        1179
         4        1155        1156        1181        1180
         4        1156        1157        1182        1181
         4        1157        1158        1183        1182
         4        1158        1159        1184        1183
         4        1159        1160        1185        1184
         4        1160        1161        1186        1185
         4        1161        1162        1187        1186
         4        1162        1163        1188        1187
         4        1163        1164        1189        1188
         4        1164        1165        1190        1189
         4        1165        1166        1191        1190
         4        1166        1167        1192        1191
         4        1167        1168        1193        1192
         4        1168        1169        1194        1193
         4        1169        1170        1195        1194
         4        1170        1171        1196        1195
         4        1171        1172        1197        1196
         4        1172        1173        1198        1197
         4        1173        1174        1199        1198
         4        1175        1176        1201        1200
         4        1176        1177        1202        1201
         4        1177        1178        1203        1202
         4        1178        1179        1204        1203
         4        1179        1180        1205        1204
         4        1180        1181        1206        1205
         4        1181        1182        1207        1206
         4        1182        1183        1208        1207
         4        1183        1184        1209        1208
         4        1184        1185        1210        1209
         4        1185        1186        1211        1210
         4        1186        1187        1212        1211
         4        1187        1188        1213        1212
         4        1188        1189        1214        1213
         4        1189        1190        1215        1214
         4        1190        1191        1216        1215
         4        1191        1192        1217        1216
         4        1192        1193        1218        1217
         4        1193        1194        1219        1218
         4        1194        1195        1220        1219
         4        1195        1196        1221        1220
         4        1196        1197        1222        1221
         4        1197        1198        1223        1222
         4        1198        1199        1224        1223
CELL_TYPES       1152
9
9
9
9
9
9
9
9
9
9
9
9
9
9
9
9
9
9
9
9
9
9
9
9
9
9
9
9
9
9
9
9
9
9
9
9
9
9
9
9
9
9
9
9
9
9
9
9
9
9
9
9
9
9
9
9
9
9
9
9
9
9
9
9
9
9
9
9
9
9
9
9
9
9
9
9
9
9
9
9
9
9
9
9
9
9
9
9
9
9
9
9
9
9
9
9
9
9
9
9
9
9
9
9
9
9
9
9
9
9
9
9
9
9
9
9
9
9
9
9
9
9
9
9
9
9
9
9
9
9
9
9
9
9
9
9
9
9
9
9
9
9
9
9
9
9
9
9
9
9
9
9
9
9
9
9
9
9
9
9
9
9
9
9
9
9
9
9
9
9
9
9
9
9
9
9
9
9
9
9
9
9
9
9
9
9
9
9
9
9
9
9
9
9
9
9
9
9
9
9
9
9
9
9
9
9
9
9
9
9
9
9
9
9
9
9
9
9
9
9
9
9
9
9
9
9
9
9
9
9
9
9
9
9
9
9
9
9
9
9
9
9
9
9
9
9
9
9
9
9
9
9
9
9
9
9
9
9
9
9
9
9
9
9
9
9
9
9
9
9
9
9
9
9
9
9
9
9
9
9
9
9
9
9
9
9
9
9
9
9
9
9
9
9
9
9
9
9
9
9
9
9
9
9
9
9
9
9
9
9
9
9
9
9
9
9
9
9
9
9
9
9
9
9
9
9
9
9
9
9
9
9
9
9
9
9
9
9
9
9
9
9
9
9
9
9
9
9
9
9
9
9
9
9
9
9
9
9
9
9
9
9
9
9
9
9
9
9
9
9
9
9
9
9
9
9
9
9
9
9
9
9
9
9
9
9
9
9
9
9
9
9
9
9
9
9
9
9
9
9
9
9
9
9
9
9
9
9
9
9
9
9
9
9
9
9
9
9
9
9
9
9
9
9
9
9
9
9
9
9
9
9
9
9
9
9
9
9
9
9
9
9
9
9
9
9
9
9
9
9
9
9
9
9
9
9
9
9
9
9
9
9
9
9
9
9
9
9
9
9
9
9
9
9
9
9
9
9
9
9
9
9
9
9
9
9
9
9
9
9
9
9
9
9
9
9
9
9
9
9
9
9
9
9
9
9
9
9
9
9
9
9
9
9
9
9
9
9
9
9
9
9
9
9
9
9
9
9
9
9
9
9
9
9
9
9
9
9
9
9
9
9
9
9
9
9
9
9
9
9
9
9
9
9
9
9
9
9
9
9
9
9
9
9
9
9
9
9
9
9
9
9
9
9
9
9
9
9
9
9
9
9
9
9
9
9
9
9
9
9
9
9
9
9
9
9
9
9
9
9
9
9
9
9
9
9
9
9
9
9
9
9
9
9
9
9
9
9
9
9
9
9
9
9
9
9
9
9
9
9
9
9
9
9
9
9
9
9
9
9
9
9
9
9
9
9
9
9
9
9
9
9
9
9
9
9
9
9
9
9
9
9
9
9
9
9
9
9
9
9
9
9
9
9
9
9
9
9
9
9
9
9
9
9
9
9
9
9
9
9
9
9
9
9
9
9
9
9
9
9
9
9
9
9
9
9
9
9
9
9
9
9
9
9
9
9
9
9
9
9
9
9
9
9
9
9
9
9
9
9
9
9
9
9
9
9
9
9
9
9
9
9
9
9
9
9
9
9
9
9
9
9
9
9
9
9
9
9
9
9
9
9
9
9
9
9
9
9
9
9
9
9
9
9
9
9
9
9
9
9
9
9
9
9
9
9
9
9
9
9
9
9
9
9
9
9
9
9
9
9
9
9
9
9
9
9
9
9
9
9
9
9
9
9
9
9
9
9
9
9
9
9
9
9
9
9
9
9
9
9
9
9
9
9
9
9
9
9
9
9
9
9
9
9
9
9
9
9
9
9
9
9
9
9
9
9
9
9
9
9
9
9
9
9
9
9
9
9
9
9
9
9
9
9
9
9
9
9
9
9
9
9
9
9
9
9
9
9
9
9
9
9
9
9
9
9
9
9
9
9
9
9
9
9
9
9
9
9
9
9
9
9
9
9
9
9
9
9
9
9
9
9
9
9
9
9
9
9
9
9
9
9
9
9
9
9
9
9
9
9
9
9
9
9
9
9
9
9
9
9
9
9
9
9
9
9
9
9
9
9
9
9
9
9
9
9
9
9
9
9
9
9
9
9
9
9
9
9
9
9
9
9
9
9
9
9
9
9
9
9
9
9
9
9
9
9
9
9
9
9
9
9
9
9
9
9
9
9
9
9
9
9
9
9
9
9
9
9
9
9
9
9
9
9
9
9
9
9
9
9
9
9
9
9
9
9
9
9
9
9
9
9
9
9
9
9
9
9
9
9
9
9
9
9
9
9
9
9
9
9
9
9
9
9
9
9
9
9
9
9
9
9
9
9
9
9
9
9
9
9
9
9
9
9
9
9
9
9
9
9
9
9
9
9
9
9
9
9
9
9
9
9
9
9
9
9
9
9
9
9
9
9
9
9
9
9
9
9
9
9
9
9
9
9
9
9
9
9
9
9
9
9
9
9
9
9
9
9
9
9
9
9
9
9
9
9
9
9
9
9
9
9
POINT_DATA      1225
SCALARS p double 
LOOKUP_TABLE default
   951.174495566412     
   1001.90360647101     
   1143.39613947827     
   1346.84033747889     
   1584.73364922385     
   1837.71788990129     
   2095.78079311203     
   2352.96958530556     
   2605.44267001870     
   2850.50114784653     
   3086.11277922082     
   3310.66235328337     
   3522.81558030554     
   3721.44360432327     
   3905.58174666255     
   4074.41646900433     
   4227.26684704577     
   4363.56853815386     
   4482.81163469827     
   4584.34350590870     
   4667.73890661768     
   4732.84789035771     
   4779.44181627345     
   4807.39666420233     
   4816.68759470481     
   889.150431782979     
   949.971788691253     
   1108.01893299032     
   1327.84776991605     
   1573.17472611044     
   1830.10633798000     
   2090.33523556055     
   2348.77491024475     
   2601.99619055777     
   2847.51359483727     
   3083.41123924574     
   3308.14083434479     
   3520.40839743337     
   3719.10975703076     
   3903.29652075383     
   4072.16023258953     
   4225.04574104562     
   4361.32440672450     
   4480.51997425562     
   4582.01299181904     
   4665.38139483671     
   4730.46558859030     
   4777.03991375865     
   4804.98262072049     
   4814.26973086078     
   689.630560630575     
   771.257453512540     
   1019.99161576896     
   1276.90045569644     
   1541.61587003422     
   1808.81882275627     
   2074.83186961877     
   2336.66437887052     
   2591.93966745297     
   2838.72695421815     
   3075.41928114177     
   3300.64908499979     
   3513.23297939309     
   3712.13665838194     
   3896.45303476583     
   4065.39291896617     
   4218.29368204984     
   4354.58720645086     
   4473.66627633475     
   4575.03447657368     
   4658.31434997501     
   4723.32070044918     
   4769.83509473390     
   4797.74158997531     
   4807.01736755874     
  0.000000000000000E+000
   582.022161804459     
   909.446257109185     
   1210.30401250863     
   1497.74370954559     
   1777.86210464288     
   2051.47140342562     
   2317.91479904346     
   2576.04875907724     
   2824.63070656547     
   3062.45417600124     
   3288.39449110542     
   3501.42161155760     
   3700.60192844493     
   3885.09710113743     
   4054.16309090417     
   4207.10910666906     
   4343.36902420580     
   4462.27707419815     
   4563.42118535161     
   4646.54330840168     
   4711.41458754106     
   4757.83032309262     
   4785.67806110154     
   4794.93563107327     
  0.000000000000000E+000
   432.555513034386     
   815.985004845433     
   1144.63137392216     
   1450.43743050886     
   1742.11632729422     
   2023.08622332685     
   2294.24099376610     
   2555.40235786197     
   2805.92593664071     
   3044.98241540286     
   3271.69000503235     
   3485.17892627477     
   3684.62382569947     
   3869.26023195628     
   4038.38615263605     
   4191.35988414785     
   4327.51324080320     
   4446.25876144263     
   4547.14810410531     
   4630.05182483460     
   4694.74639283128     
   4741.03338338615     
   4768.80493492609     
   4778.03875087475     
  0.000000000000000E+000
   386.435368553407     
   752.005159599700     
   1090.60222119301     
   1406.23764753884     
   1705.73368209878     
   1992.32585817266     
   2267.36855352224     
   2531.14954904354     
   2783.39490508778     
   3023.54648020976     
   3250.91561298311     
   3464.76873005492     
   3664.37540582654     
   3849.03376394681     
   4018.08240454473     
   4170.88757430800     
   4306.84368072360     
   4425.41296810899     
   4526.13042064880     
   4608.82035331655     
   4673.32393762421     
   4719.46830140620     
   4747.15373125681     
   4756.35992176124     
  0.000000000000000E+000
   362.981066518966     
   714.578048593640     
   1049.77074027694     
   1368.06521183836     
   1671.22715753446     
   1961.11135494215     
   2238.70500842799     
   2504.31166535147     
   2757.78132406465     
   2998.69297466863     
   3226.47747691503     
   3440.49627129924     
   3640.09024270079     
   3824.60893802738     
   3993.42407866037     
   4145.93533779759     
   4281.58240222340     
   4399.86373391345     
   4500.38125054080     
   4582.87806986243     
   4647.19561924082     
   4693.19378076828     
   4720.78772197683     
   4729.96339409071     
  0.000000000000000E+000
   348.577585142896     
   689.506709595727     
   1019.13955906570     
   1335.84843416690     
   1639.49180257566     
   1930.48920540568     
   2209.19356366331     
   2475.66840987922     
   2729.70927951667     
   2970.91722244219     
   3198.77088498462     
   3412.68274129735     
   3612.03908283846     
   3796.22643484116     
   3964.64821284826     
   4116.73710282209     
   4251.96853609652     
   4369.88120597375     
   4470.10192493182     
   4552.36152114043     
   4616.47555725463     
   4662.31635893775     
   4689.81133234266     
   4698.95316028071     
  0.000000000000000E+000
   338.382557193872     
   670.900341995429     
   994.775798150022     
   1308.22886465107     
   1610.36151740946     
   1900.79820104474     
   2179.33516937445     
   2445.73409261029     
   2699.64970206436     
   2940.63188998469     
   3168.15323945095     
   3381.64041172960     
   3580.50126498396     
   3764.14584016410     
   3932.00227127122     
   4083.53014010746     
   4218.23445677852     
   4335.68162624345     
   4435.51513200240     
   4517.46278440622     
   4581.33006550046     
   4626.98835878142     
   4654.37068366758     
   4663.47403374132     
  0.000000000000000E+000
   330.370551356716     
   655.850103807271     
   974.202699100313     
   1283.72244120577     
   1583.23371134165     
   1871.95182677975     
   2149.30558139598     
   2414.79757191630     
   2667.92650438738     
   2908.15915851602     
   3134.93059601324     
   3347.65627175891     
   3545.74724935136     
   3728.62471379620     
   3895.73288488139     
   4046.55099523334     
   4180.60530485768     
   4297.48122875816     
   4396.83354032707     
   4478.39126769973     
   4541.95591884994     
   4587.39661713990     
   4614.64714384637     
   4623.70609170817     
  0.000000000000000E+000
   323.556442691006     
   642.821072384139     
   955.899599766935     
   1261.19911927373     
   1557.45553433949     
   1843.68349314067     
   2119.08974181822     
   2382.98934138029     
   2634.74608232682     
   2873.74019132437     
   3099.35665391573     
   3310.98577453334     
   3508.02964575674     
   3689.91085840037     
   3856.08180412762     
   4006.03410416419     
   4139.30805686051     
   4255.50157154865     
   4354.27730084159     
   4435.36647868539     
   4498.56915496164     
   4543.75243209744     
   4570.84895037986     
   4579.85675264296     
  0.000000000000000E+000
   317.414116524590     
   630.947585458721     
   938.928028761693     
   1239.86516235145     
   1532.48085551545     
   1815.69552225655     
   2088.58776793064     
   2350.34714376945     
   2600.23419202256     
   2837.55362646719     
   3061.64020284153     
   3271.85400275499     
   3467.58159866263     
   3648.24044981863     
   3813.28491718016     
   3962.21302550758     
   4094.57339822850     
   4209.97171105280     
   4308.07582216230     
   4388.61886068236     
   4451.40020947199     
   4496.28516012335     
   4523.20436832196     
   4532.15390303777     
  0.000000000000000E+000
   311.643287406895     
   619.717434658700     
   922.698662220246     
   1219.17962554561     
   1507.89592159565     
   1787.72735001022     
   2057.68100203663     
   2316.86615151474     
   2564.46953854442     
   2799.73607646965     
   3021.95651228644     
   3230.46133275727     
   3424.61932789718     
   3603.83922767090     
   3767.57318862788     
   3915.32126887308     
   4046.63623351277     
   4161.12808286927     
   4258.46772508085     
   4338.38939189767     
   4400.69177637599     
   4445.23829250009     
   4471.95706246843     
   4480.84114510238     
  0.000000000000000E+000
   306.064824540899     
   608.817484733408     
   906.836651635386     
   1198.77960219601     
   1483.40438609378     
   1759.57694404463     
   2026.26610679797     
   2282.53151019026     
   2527.50945110152     
   2760.40029618734     
   2980.45925093183     
   3186.99083936742     
   3379.34660498931     
   3556.92523834959     
   3719.17434441852     
   3865.59317866906     
   3995.73578619417     
   4109.21404970545     
   4205.70023577176     
   4284.92878408244     
   4346.69731746431     
   4390.86708363813     
   4417.36316707915     
   4426.17478709743     
  0.000000000000000E+000
   300.569231661129     
   598.053188859075     
   891.103101214447     
   1178.42615787380     
   1458.80396433451     
   1731.10172801709     
   1994.26932585579     
   2247.33680645002     
   2489.40722601226     
   2719.64922950987     
   2937.29090898728     
   3141.61560596941     
   3331.95969951315     
   3507.71207731533     
   3668.31485613601     
   3813.26490368986     
   3942.11574621670     
   4054.47949673345     
   4150.02851547567     
   4228.49663015241     
   4289.67989080082     
   4333.43697213199     
   4359.68941595873     
   4368.42190301804     
  0.000000000000000E+000
   295.089404867580     
   587.304176203565     
   875.348210563093     
   1157.96737354279     
   1433.96509308650     
   1702.21203810297     
   1961.65026877974     
   2211.29314801353     
   2450.22267701141     
   2677.58580992028     
   2892.59090057328     
   3094.50495044710     
   3282.65191081160     
   3456.41200698704     
   3615.22189430345     
   3758.57538839542     
   3886.02450119845     
   3997.18053781129     
   4091.71506201695     
   4169.36061680781     
   4229.91117912350     
   4273.22241192049     
   4299.21182608213     
   4307.85896520042     
  0.000000000000000E+000
   289.585347854236     
   576.498511966030     
   859.482490450808     
   1137.31339105474     
   1408.81389564505     
   1672.86280942495     
   1928.40075258326     
   2174.43263222943     
   2410.02784308963     
   2634.31918066438     
   2846.50128668296     
   3045.82919019279     
   3231.61724951568     
   3403.23859383670     
   3560.12502466755     
   3701.76726002102     
   3827.71537334587     
   3937.57928274340     
   4031.02917562301     
   4107.79580251367     
   4167.67063058191     
   4210.50589781251     
   4236.21463824054     
   4244.77074863325     
  0.000000000000000E+000
   284.035149332193     
   565.597111158489     
   843.458530869048     
   1116.41945243477     
   1383.31921917422     
   1643.04567907551     
   1894.54161588923     
   2136.80870297356     
   2368.90951405099     
   2589.96820496635     
   2799.17043132929     
   2995.76294071044     
   3179.05312732922     
   3348.40869970671     
   3503.25750664467     
   3643.08749849207     
   3767.44676542235     
   3875.94358634592     
   3968.24643490245     
   4044.08391591663     
   4103.24463836873     
   4145.57705964271     
   4170.98935177995     
   4179.44933866310     
  0.000000000000000E+000
   278.429409757011     
   554.583911621511     
   827.259084425561     
   1095.27418548904     
   1357.48290223197     
   1612.78216957435     
   1860.11892186405     
   2098.49489552794     
   2326.96977447393     
   2544.66305609281     
   2750.75501952406     
   2944.48712429618     
   3125.16208579529     
   3292.14378893457     
   3444.85712878628     
   3582.78781412276     
   3705.48213806504     
   3812.54670726662     
   3903.64812344262     
   3978.51262358788     
   4036.92570189859     
   4078.73175082828     
   4103.83376540416     
   4112.19315090730     
  0.000000000000000E+000
   272.767650051266     
   543.459434365824     
   810.889022364393     
   1073.89133364088     
   1331.33243872826     
   1582.11801090600     
   1825.20018121448     
   2059.58281567872     
   2284.32536371988     
   2498.54550505317     
   2701.42084913552     
   2892.18992739679     
   3070.15267988347     
   3234.67058987813     
   3385.16657411337     
   3521.12469930106     
   3642.08977071970     
   3747.66682551904     
   3837.52056027340     
   3911.37472592945     
   3969.01152966244     
   4010.27108814982     
   4035.05097699918     
   4043.30591475624     
  0.000000000000000E+000
   267.055901153046     
   532.236400405367     
   794.369721032945     
   1052.30376382297     
   1304.91537034012     
   1551.11845279643     
   1789.87084058200     
   2020.17980944593     
   2241.10635668895     
   2451.76835347011     
   2651.34274081355     
   2839.06694339755     
   3014.23966292833     
   3176.22118996286     
   3324.43334726901     
   3458.35915466066     
   3577.54228769324     
   3681.58639151443     
   3770.15430580280     
   3842.96725526054     
   3899.80406009254     
   3940.50041975216     
   3964.94831891316     
   3973.09559613592     
  0.000000000000000E+000
   261.305019909788     
   520.936632311609     
   777.735008204484     
   1030.55899871638     
   1278.29491366229     
   1519.86437578301     
   1754.23110366681     
   1980.40655992751     
   2197.45447598421     
   2404.49432269024     
   2600.70383383668     
   2785.32070827797     
   2957.64362006060     
   3117.03265966473     
   3262.90931827512     
   3394.75611479195     
   3512.11595456049     
   3614.59130063944     
   3701.84323277862     
   3773.59046522974     
   3829.60839067825     
   3869.72821247996     
   3893.83621985376     
   3901.87325021800     
  0.000000000000000E+000
   255.529465184894     
   509.588780344076     
   761.028133302439     
   1008.71578449873     
   1251.54647095540     
   1488.44902687527     
   1718.39307789486     
   1940.39472887268     
   2153.52122441000     
   2356.89461121988     
   2549.69446887286     
   2731.15979993905     
   2900.59018374294     
   3057.34630259202     
   3200.84994842231     
   3330.58361392298     
   3446.08976721372     
   3546.96990407128     
   3632.88346678371     
   3703.54671361335     
   3758.73161688247     
   3798.26486009570     
   3822.02699470627     
   3829.95180495469     
  0.000000000000000E+000
   249.746374223643     
   498.226592469882     
   744.299426086681     
   986.841375541001     
   1224.75477998866     
   1456.97524000046     
   1682.47821406337     
   1900.28469896006     
   2109.46595296228     
   2309.14726462849     
   2498.51080613708     
   2676.79763745452     
   2843.30894657508     
   2997.40662282752     
   3138.51326646615     
   3266.11174004802     
   3379.74436671171     
   3479.01187823121     
   3563.57221196803     
   3633.13925056459     
   3687.48159115964     
   3726.42142175799     
   3749.83357096611     
   3757.64478367680     
  0.000000000000000E+000
   243.974841103058     
   486.887553877722     
   727.604431043837     
   965.009327554237     
   1198.01153497554     
   1425.55303605903     
   1646.61500282578     
   1860.22344229796     
   2065.45393575671     
   2261.43545682760     
   2447.35328843229     
   2622.45108739139     
   2786.03216786295     
   2937.46009120217     
   3076.15866098344     
   3201.61142870733     
   3313.36081890922     
   3411.00698257357     
   3494.20648527649     
   3562.67093146431     
   3616.16561873086     
   3654.50830586630     
   3677.56816587873     
   3685.26498036219     
  0.000000000000000E+000
   238.235335997486     
   475.611786050685     
   711.002381129817     
   943.297662272191     
   1171.41336426143     
   1394.29752657894     
   1610.93689677265     
   1820.36252652920     
   2021.65449771181     
   2213.94575188429     
   2396.42503034718     
   2568.33896108676     
   2728.99335354926     
   2877.75378160631     
   3014.04554964317     
   3137.35314674217     
   3247.21929986234     
   3343.24373909979     
   3425.08178682972     
   3492.44287797443     
   3545.08911095952     
   3582.83391826859     
   3605.54093211085     
   3613.12310491060     
  0.000000000000000E+000
   232.549226511939     
   464.441135291736     
   694.554922763895     
   921.787313537452     
   1145.06008750189     
   1363.32706752584     
   1575.58043399999     
   1780.85626388468     
   1978.23922569036     
   2166.86639586212     
   2345.93019457143     
   2514.68046856360     
   2672.42577453831     
   2818.53393802626     
   2952.43197966351     
   3073.60551316444     
   3181.59772729239     
   3276.00806790820     
   3356.49073594392     
   3422.75311310372     
   3474.55421945303     
   3511.70329607920     
   3534.05859201505     
   3541.52641802556     
  0.000000000000000E+000
   226.938376291830     
   453.418405539585     
   678.325034726678     
   900.560795278479     
   1119.05320034860     
   1332.76162637661     
   1540.68354572517     
   1741.86000616511     
   1935.38028459046     
   2120.38567485928     
   2296.07240146581     
   2461.69368051026     
   2616.56097610783     
   2760.04452324431     
   2891.57320669112     
   3010.63389970774     
   3116.77037581590     
   3209.58191197090     
   3288.72170210638     
   3353.89519647287     
   3404.85847467629     
   3441.41674915931     
   3463.42308144582     
   3470.77737625175     
  0.000000000000000E+000
   221.424804847193     
   442.586706050321     
   662.376103284933     
   879.701051840870     
   1093.49455162344     
   1302.72133717216     
   1506.38403572131     
   1703.52858765186     
   1893.24885385254     
   2074.69036597828     
   2247.05320689371     
   2409.59403840670     
   2561.62732064050     
   2702.52579121739     
   2831.72029222228     
   2948.69904828553     
   3053.00650985688     
   3144.24188176780     
   3222.05745855520     
   3286.15688490118     
   3336.29345218474     
   3372.26853088099     
   3393.93022380657     
   3401.17230750173     
  0.000000000000000E+000
   216.030398000491     
   431.988894452741     
   646.771128406009     
   859.290464039020     
   1068.48518909688     
   1273.32522603453     
   1472.81822290354     
   1666.01491724681     
   1852.01369546276     
   2029.96430086664     
   2199.07067463000     
   2358.59294363781     
   2507.84859694777     
   2646.21291704464     
   2773.11875274199     
   2888.05573688495     
   2990.56906363065     
   3080.25794687680     
   3156.77388336992     
   3219.81884128267     
   3269.14348784996     
   3304.54555834817     
   3325.86845373875     
   3333.00013620853     
  0.000000000000000E+000
   210.776661772811     
   421.667101902478     
   631.572043822174     
   839.409992468937     
   1044.12435706417     
   1244.69009452611     
   1440.11974047148     
   1629.46872024438     
   1811.83986095191     
   1986.38705577982     
   2152.31806258917     
   2308.89644869650     
   2455.44272168228     
   2591.33471108347     
   2716.00728712518     
   2828.95151964524     
   2929.71339266935     
   3017.89219748696     
   3093.13872951166     
   3155.15341178312     
   3203.68446091897     
   3238.52620000729     
   3259.51760780817     
   3266.54117525332     
  0.000000000000000E+000
   205.684514605594     
   411.662330876527     
   616.839138561133     
   820.138444633829     
   1020.50863318682     
   1216.92955103197     
   1408.41848587791     
   1594.03542890992     
   1772.88754169320     
   1944.13277729932     
   2106.98263614076     
   2260.70406694902     
   2404.62055150336     
   2538.11243710851     
   2660.61660260129     
   2771.62556119602     
   2870.68611630723     
   2957.39769435159     
   3031.41048134364     
   3092.42348793837     
   3140.18266066179     
   3174.47914576414     
   3195.14779689873     
   3202.06599923705     
  0.000000000000000E+000
   200.774114046639     
   402.014118411569     
   602.630570422940     
   801.551855340072     
   997.731194435304     
   1190.15318168202     
   1377.83971586291     
   1559.85521950309     
   1735.31106381458     
   1903.36914860504     
   2063.24461660352     
   2214.20771165811     
   2355.58481861560     
   2486.75874837776     
   2607.16835378227     
   2716.30757989603     
   2813.72406554672     
   2899.01742115467     
   2971.83731104700     
   3031.88146649585     
   3078.89374893547     
   3112.66237153285     
   3133.01837198629     
   3139.83441068333     
  0.000000000000000E+000
   196.064714716414     
   392.760258851364     
   589.001963456363     
   783.722971348882     
   975.881203073452     
   1164.46585267955     
   1348.50328015211     
   1527.06219164378     
   1699.25802621571     
   1864.25649741440     
   2021.27626846159     
   2169.59076988780     
   2308.52919694437     
   2437.47675004515     
   2555.87420393177     
   2663.21690951829     
   2759.05334593181     
   2842.98334880066     
   2914.65614421191     
   2973.76831600744     
   3020.06182741448     
   3053.32220676390     
   3073.37699171417     
   3080.09450755605     
  0.000000000000000E+000
   191.574554717220     
   383.936580800442     
   576.006082243306     
   766.720831921730     
   955.043303928709     
   1139.96713563385     
   1320.52298641355     
   1495.78368409361     
   1664.86857753543     
   1826.94704331294     
   1981.24112484723     
   2127.02731246726     
   2263.63750149154     
   2390.45919152592     
   2506.93501284581     
   2612.56168424766     
   2706.88852057382     
   2789.51561689127     
   2860.09183988226     
   2918.31275541203     
   2963.91861467047     
   2996.69251008862     
   3016.45879688660     
   3023.08185720838     
  0.000000000000000E+000
   187.320767788759     
   375.576773232671     
   563.692576062425     
   750.610437026405     
   935.297224025771     
   1116.75084688406     
   1294.00608789856     
   1466.13971923736     
   1632.27482550149     
   1791.58427920796     
   1943.29334734936     
   2086.68143732977     
   2221.08301930167     
   2345.88778817771     
   2460.54015144762     
   2564.53814765187     
   2657.43191439176     
   2738.82183372974     
   2808.35648658431     
   2865.73054626996     
   2910.68273486121     
   2942.99395491804     
   2962.48569377747     
   2969.01877869016     
  0.000000000000000E+000
   183.319318540998     
   367.712255743309     
   552.107785994385     
   735.452494820155     
   916.717465262571     
   1094.90469105317     
   1269.05288401642     
   1438.24256689885     
   1601.60036996246     
   1758.30247905197     
   1907.57721322984     
   2048.70674025072     
   2181.02796695263     
   2303.93266800971     
   2416.86693949633     
   2519.33008259872     
   2610.87303700904     
   2691.09649267418     
   2759.64881246926     
   2816.22389703287     
   2860.55911662117     
   2892.43342375526     
   2911.66574513183     
   2918.11373234271     
  0.000000000000000E+000
   179.584958070373     
   360.372087876217     
   541.294607903335     
   721.303239766039     
   899.373080343092     
   1074.50999833351     
   1245.75642302559     
   1412.19641669624     
   1572.95994910092     
   1727.22632182779     
   1874.22672065792     
   2013.24590427758     
   2143.62306655710     
   2264.75193607403     
   2376.08019968244     
   2477.10835595140     
   2567.38811863419     
   2646.52049960431     
   2714.15370471690     
   2769.98097482887     
   2813.73849791709     
   2845.20350721349     
   2864.19266501196     
   2870.56081289912     
  0.000000000000000E+000
   176.131197229156     
   353.582912380574     
   531.292404084121     
   708.214312483599     
   883.327521766460     
   1055.64154438104     
   1224.20229515068     
   1388.09714699136     
   1546.45918689199     
   1698.47062007569     
   1843.36530061164     
   1980.43039696811     
   2109.00722991536     
   2228.49134672589     
   2338.33191883991     
   2438.03056929502     
   2527.13975067343     
   2605.26080370935     
   2672.04183082969     
   2727.17551777148     
   2770.39703020598     
   2801.48210134334     
   2820.24541127616     
   2826.53933995350     
  0.000000000000000E+000
   172.970294796704     
   347.368927203523     
   522.136956269366     
   696.232692260727     
   868.638553381962     
   1038.36744125301     
   1204.46850380772     
   1366.03217765625     
   1522.19442882345     
   1672.14013998269     
   1815.10562263569     
   1950.38026292039     
   2077.30733868341     
   2195.28407205215     
   2303.76100503971     
   2402.24080493609     
   2490.27662078980     
   2567.47012177019     
   2633.46935242431     
   2687.96653879784     
   2730.69597325120     
   2761.43209491016     
   2779.98786752812     
   2786.21353771653     
  0.000000000000000E+000
   170.113257811746     
   341.751881037346     
   513.860452686322     
   685.400673107362     
   855.358213901508     
   1022.74908760461     
   1186.62540227383     
   1346.08039338550     
   1500.25265224191     
   1648.32949924190     
   1789.54948067998     
   1923.20399797288     
   2048.63810719427     
   2165.25055344301     
   2272.49312793008     
   2369.86945496287     
   2456.93333063548     
   2533.28674460189     
   2598.57772061250     
   2652.49811052602     
   2694.78147043995     
   2725.20113675319     
   2743.56860486790     
   2749.73229446824     
  0.000000000000000E+000
   167.569851375605     
   336.751087329431     
   506.491501963489     
   675.755874338770     
   843.532821839532     
   1008.84116638350     
   1170.73568308247     
   1328.31212413220     
   1480.71143742798     
   1627.12312851278     
   1766.78774475056     
   1898.99849085077     
   2023.10201386991     
   2138.49842249622     
   2244.64062883215     
   2341.03312024216     
   2427.23028352864     
   2502.83441333587     
   2567.49354105445     
   2620.89921959690     
   2662.78439340948     
   2692.92147231448     
   2711.12071272626     
   2717.22899106705     
  0.000000000000000E+000
   165.348615331463     
   332.383451837934     
   500.055166921318     
   667.331276947420     
   833.203011633864     
   996.691678532907     
   1156.85440766284     
   1312.78916942793     
   1463.63898561858     
   1608.59528234986     
   1746.90036405843     
   1877.84901790660     
   2000.78928695388     
   2115.12247716314     
   2220.30248675561     
   2315.83456582872     
   2401.27362890029     
   2476.22225273627     
   2540.32849625077     
   2593.28367842277     
   2634.82024422519     
   2664.70983784462     
   2682.76168747183     
   2688.82138727702     
  0.000000000000000E+000
   163.456885364745     
   328.663509076686     
   494.573011640869     
   660.155277457294     
   824.403791186769     
   986.342001726127     
   1145.02906425777     
   1299.56485384795     
   1449.09417066182     
   1592.81008588999     
   1729.95640772062     
   1859.82927691246     
   1981.77793054346     
   2095.20469923539     
   2199.56432663178     
   2294.36271934334     
   2379.15525036814     
   2453.54474873386     
   2517.17931258991     
   2569.75008218221     
   2610.98910324300     
   2640.66740065921     
   2658.59336733184     
   2664.61155452044     
  0.000000000000000E+000
   161.900816252477     
   325.603463335704     
   490.063155683391     
   654.251751544884     
   817.164611741912     
   977.826963893325     
   1135.29964293106     
   1288.68410167524     
   1437.12661178103     
   1579.82160436176     
   1716.01412981198     
   1845.00144656755     
   1966.13377756304     
   2078.81429988617     
   2182.49845662805     
   2276.69269939407     
   2360.95278476641     
   2434.88175778762     
   2498.12776005339     
   2550.38179924898     
   2591.37561110357     
   2620.87973410893     
   2638.70190243849     
   2644.68584392663     
  0.000000000000000E+000
   160.685405211347     
   323.213230382060     
   486.540329922452     
   649.640120443921     
   811.509441863567     
   971.174922244149     
   1127.69871748496     
   1280.18351987246     
   1427.77675600480     
   1569.67392356836     
   1705.12104664629     
   1833.41625944528     
   1953.91055735155     
   2066.00778097592     
   2169.16392236308     
   2262.88586202714     
   2346.72966032785     
   2420.29853650796     
   2483.24067326190     
   2535.24698398349     
   2576.04897401240     
   2605.41681660411     
   2623.15774947079     
   2629.11487919825     
  0.000000000000000E+000
   159.814513550741     
   321.500476430954     
   484.015929136202     
   646.335414009670     
   807.456838288630     
   966.407839612619     
   1122.25152532512     
   1274.09147975653     
   1421.07596015256     
   1562.40123085584     
   1697.31401553699     
   1825.11307747227     
   1945.14996688952     
   2056.82900115974     
   2159.60656713696     
   2252.98985445142     
   2336.53514343055     
   2409.84578114856     
   2472.56998367684     
   2524.39860190706     
   2565.06298251485     
   2594.33304506013     
   2612.01568136752     
   2617.95356481345     
  0.000000000000000E+000
   159.290885123074     
   320.470651519132     
   482.498057276244     
   644.348325285083     
   805.020007557373     
   963.541351227400     
   1118.97603770118     
   1270.42818925108     
   1417.04656381263     
   1558.02788767117     
   1692.61930590642     
   1820.11996066006     
   1939.88173631605     
   2051.30923744240     
   2153.85908887455     
   2247.03866683157     
   2330.40438483621     
   2403.55966804819     
   2466.15275420422     
   2517.87445867159     
   2558.45603533234     
   2587.66725445755     
   2605.31480389372     
   2611.24110138168     
  0.000000000000000E+000
   159.116160373887     
   320.127015001753     
   481.991562166601     
   643.685252465887     
   804.206853571846     
   962.584816412964     
   1117.88301428587     
   1269.20574923267     
   1415.70194647168     
   1556.56848659615     
   1691.05265543346     
   1818.45372165268     
   1938.12368123321     
   2049.46723466707     
   2151.94108630109     
   2245.05267473898     
   2328.35845810653     
   2401.46188782569     
   2464.01120913123     
   2515.69722588226     
   2556.25116143496     
   2585.44273679092     
   2603.07857240269     
   2609.00100152178     
VECTORS u double 
    0.00000E+00        -0.71351E+00         0.00000E+00
    0.00000E+00        -0.67068E+00         0.00000E+00
    0.00000E+00        -0.61010E+00         0.00000E+00
    0.00000E+00        -0.54161E+00         0.00000E+00
    0.00000E+00        -0.47361E+00         0.00000E+00
    0.00000E+00        -0.41082E+00         0.00000E+00
    0.00000E+00        -0.35499E+00         0.00000E+00
    0.00000E+00        -0.30626E+00         0.00000E+00
    0.00000E+00        -0.26381E+00         0.00000E+00
    0.00000E+00        -0.22659E+00         0.00000E+00
    0.00000E+00        -0.19377E+00         0.00000E+00
    0.00000E+00        -0.16465E+00         0.00000E+00
    0.00000E+00        -0.13883E+00         0.00000E+00
    0.00000E+00        -0.11608E+00         0.00000E+00
    0.00000E+00        -0.96154E-01         0.00000E+00
    0.00000E+00        -0.78831E-01         0.00000E+00
    0.00000E+00        -0.63858E-01         0.00000E+00
    0.00000E+00        -0.51042E-01         0.00000E+00
    0.00000E+00        -0.40144E-01         0.00000E+00
    0.00000E+00        -0.30852E-01         0.00000E+00
    0.00000E+00        -0.22859E-01         0.00000E+00
    0.00000E+00        -0.15839E-01         0.00000E+00
    0.00000E+00        -0.97057E-02         0.00000E+00
    0.00000E+00        -0.44250E-02         0.00000E+00
    0.00000E+00         0.00000E+00         0.00000E+00
   -0.11425E-01        -0.69149E+00         0.00000E+00
    0.32329E-01        -0.64721E+00         0.00000E+00
    0.58735E-01        -0.58499E+00         0.00000E+00
    0.68206E-01        -0.51867E+00         0.00000E+00
    0.66890E-01        -0.45482E+00         0.00000E+00
    0.60568E-01        -0.39620E+00         0.00000E+00
    0.52681E-01        -0.34379E+00         0.00000E+00
    0.45174E-01        -0.29754E+00         0.00000E+00
    0.38951E-01        -0.25687E+00         0.00000E+00
    0.33915E-01        -0.22102E+00         0.00000E+00
    0.29763E-01        -0.18926E+00         0.00000E+00
    0.26181E-01        -0.16108E+00         0.00000E+00
    0.22825E-01        -0.13609E+00         0.00000E+00
    0.19669E-01        -0.11400E+00         0.00000E+00
    0.16720E-01        -0.94614E-01         0.00000E+00
    0.13990E-01        -0.77719E-01         0.00000E+00
    0.11579E-01        -0.63111E-01         0.00000E+00
    0.92661E-02        -0.50579E-01         0.00000E+00
    0.73924E-02        -0.39841E-01         0.00000E+00
    0.58497E-02        -0.30649E-01         0.00000E+00
    0.45977E-02        -0.22717E-01         0.00000E+00
    0.34469E-02        -0.15745E-01         0.00000E+00
    0.23301E-02        -0.96518E-02         0.00000E+00
    0.11957E-02        -0.44021E-02         0.00000E+00
    0.00000E+00         0.00000E+00         0.00000E+00
   -0.18454E-01        -0.61723E+00         0.00000E+00
    0.78522E-01        -0.56505E+00         0.00000E+00
    0.11940E+00        -0.50538E+00         0.00000E+00
    0.13051E+00        -0.45076E+00         0.00000E+00
    0.12618E+00        -0.40044E+00         0.00000E+00
    0.11446E+00        -0.35400E+00         0.00000E+00
    0.10049E+00        -0.31125E+00         0.00000E+00
    0.86996E-01        -0.27217E+00         0.00000E+00
    0.75233E-01        -0.23676E+00         0.00000E+00
    0.65612E-01        -0.20490E+00         0.00000E+00
    0.57501E-01        -0.17639E+00         0.00000E+00
    0.50401E-01        -0.15094E+00         0.00000E+00
    0.43979E-01        -0.12826E+00         0.00000E+00
    0.37947E-01        -0.10812E+00         0.00000E+00
    0.32299E-01        -0.90311E-01         0.00000E+00
    0.27108E-01        -0.74652E-01         0.00000E+00
    0.22294E-01        -0.61021E-01         0.00000E+00
    0.18059E-01        -0.49205E-01         0.00000E+00
    0.14503E-01        -0.38929E-01         0.00000E+00
    0.11543E-01        -0.30030E-01         0.00000E+00
    0.90886E-02        -0.22286E-01         0.00000E+00
    0.68205E-02        -0.15462E-01         0.00000E+00
    0.46131E-02        -0.94875E-02         0.00000E+00
    0.23685E-02        -0.43322E-02         0.00000E+00
    0.00000E+00         0.00000E+00         0.00000E+00
    0.51512E-02        -0.42727E+00         0.00000E+00
    0.13365E+00        -0.38775E+00         0.00000E+00
    0.16947E+00        -0.36536E+00         0.00000E+00
    0.17787E+00        -0.34202E+00         0.00000E+00
    0.17098E+00        -0.31644E+00         0.00000E+00
    0.15655E+00        -0.28888E+00         0.00000E+00
    0.13935E+00        -0.26047E+00         0.00000E+00
    0.12218E+00        -0.23234E+00         0.00000E+00
    0.10645E+00        -0.20536E+00         0.00000E+00
    0.92827E-01        -0.18012E+00         0.00000E+00
    0.81282E-01        -0.15693E+00         0.00000E+00
    0.71168E-01        -0.13584E+00         0.00000E+00
    0.62012E-01        -0.11675E+00         0.00000E+00
    0.53576E-01        -0.99504E-01         0.00000E+00
    0.45730E-01        -0.83998E-01         0.00000E+00
    0.38504E-01        -0.70150E-01         0.00000E+00
    0.31797E-01        -0.57873E-01         0.00000E+00
    0.26004E-01        -0.46999E-01         0.00000E+00
    0.21092E-01        -0.37408E-01         0.00000E+00
    0.16933E-01        -0.28981E-01         0.00000E+00
    0.13368E-01        -0.21550E-01         0.00000E+00
    0.10047E-01        -0.14977E-01         0.00000E+00
    0.68006E-02        -0.92069E-02         0.00000E+00
    0.34937E-02        -0.42132E-02         0.00000E+00
    0.00000E+00         0.00000E+00         0.00000E+00
    0.82223E-01        -0.15534E+00         0.00000E+00
    0.15963E+00        -0.16234E+00         0.00000E+00
    0.19524E+00        -0.18605E+00         0.00000E+00
    0.20368E+00        -0.20187E+00         0.00000E+00
    0.19817E+00        -0.20731E+00         0.00000E+00
    0.18409E+00        -0.20438E+00         0.00000E+00
    0.16624E+00        -0.19527E+00         0.00000E+00
    0.14755E+00        -0.18213E+00         0.00000E+00
    0.12967E+00        -0.16675E+00         0.00000E+00
    0.11348E+00        -0.15043E+00         0.00000E+00
    0.99355E-01        -0.13410E+00         0.00000E+00
    0.87091E-01        -0.11829E+00         0.00000E+00
    0.76120E-01        -0.10332E+00         0.00000E+00
    0.66036E-01        -0.89345E-01         0.00000E+00
    0.56648E-01        -0.76419E-01         0.00000E+00
    0.47900E-01        -0.64598E-01         0.00000E+00
    0.39909E-01        -0.53834E-01         0.00000E+00
    0.32956E-01        -0.44060E-01         0.00000E+00
    0.26958E-01        -0.35300E-01         0.00000E+00
    0.21884E-01        -0.27480E-01         0.00000E+00
    0.17336E-01        -0.20494E-01         0.00000E+00
    0.13051E-01        -0.14282E-01         0.00000E+00
    0.88413E-02        -0.88058E-02         0.00000E+00
    0.45449E-02        -0.40437E-02         0.00000E+00
    0.00000E+00         0.00000E+00         0.00000E+00
    0.93955E-01        -0.92065E-01         0.00000E+00
    0.14497E+00        -0.89592E-01         0.00000E+00
    0.18033E+00        -0.98298E-01         0.00000E+00
    0.19672E+00        -0.11497E+00         0.00000E+00
    0.19824E+00        -0.12926E+00         0.00000E+00
    0.18981E+00        -0.13793E+00         0.00000E+00
    0.17579E+00        -0.14042E+00         0.00000E+00
    0.15927E+00        -0.13774E+00         0.00000E+00
    0.14228E+00        -0.13125E+00         0.00000E+00
    0.12602E+00        -0.12225E+00         0.00000E+00
    0.11120E+00        -0.11181E+00         0.00000E+00
    0.97994E-01        -0.10074E+00         0.00000E+00
    0.86133E-01        -0.89578E-01         0.00000E+00
    0.75218E-01        -0.78673E-01         0.00000E+00
    0.64964E-01        -0.68239E-01         0.00000E+00
    0.55374E-01        -0.58371E-01         0.00000E+00
    0.46675E-01        -0.49092E-01         0.00000E+00
    0.38873E-01        -0.40486E-01         0.00000E+00
    0.32089E-01        -0.32613E-01         0.00000E+00
    0.26273E-01        -0.25511E-01         0.00000E+00
    0.20898E-01        -0.19115E-01         0.00000E+00
    0.15758E-01        -0.13381E-01         0.00000E+00
    0.10684E-01        -0.82893E-02         0.00000E+00
    0.54951E-02        -0.38265E-02         0.00000E+00
    0.00000E+00         0.00000E+00         0.00000E+00
    0.10569E+00        -0.51624E-01         0.00000E+00
    0.13744E+00        -0.51195E-01         0.00000E+00
    0.16458E+00        -0.54685E-01         0.00000E+00
    0.18122E+00        -0.64094E-01         0.00000E+00
    0.18727E+00        -0.76583E-01         0.00000E+00
    0.18419E+00        -0.87664E-01         0.00000E+00
    0.17494E+00        -0.95171E-01         0.00000E+00
    0.16202E+00        -0.98552E-01         0.00000E+00
    0.14747E+00        -0.98184E-01         0.00000E+00
    0.13260E+00        -0.94846E-01         0.00000E+00
    0.11836E+00        -0.89359E-01         0.00000E+00
    0.10521E+00        -0.82499E-01         0.00000E+00
    0.93130E-01        -0.74891E-01         0.00000E+00
    0.81863E-01        -0.66964E-01         0.00000E+00
    0.71304E-01        -0.58965E-01         0.00000E+00
    0.61440E-01        -0.51041E-01         0.00000E+00
    0.52325E-01        -0.43367E-01         0.00000E+00
    0.43970E-01        -0.36099E-01         0.00000E+00
    0.36510E-01        -0.29345E-01         0.00000E+00
    0.30029E-01        -0.23144E-01         0.00000E+00
    0.23960E-01        -0.17469E-01         0.00000E+00
    0.18101E-01        -0.12314E-01         0.00000E+00
    0.12286E-01        -0.76790E-02         0.00000E+00
    0.63212E-02        -0.35698E-02         0.00000E+00
    0.00000E+00         0.00000E+00         0.00000E+00
    0.11175E+00        -0.27324E-01         0.00000E+00
    0.13318E+00        -0.27160E-01         0.00000E+00
    0.15283E+00        -0.29898E-01         0.00000E+00
    0.16672E+00        -0.35049E-01         0.00000E+00
    0.17354E+00        -0.43694E-01         0.00000E+00
    0.17348E+00        -0.53406E-01         0.00000E+00
    0.16802E+00        -0.61656E-01         0.00000E+00
    0.15862E+00        -0.67417E-01         0.00000E+00
    0.14697E+00        -0.70335E-01         0.00000E+00
    0.13419E+00        -0.70643E-01         0.00000E+00
    0.12129E+00        -0.68777E-01         0.00000E+00
    0.10890E+00        -0.65252E-01         0.00000E+00
    0.97234E-01        -0.60584E-01         0.00000E+00
    0.86223E-01        -0.55187E-01         0.00000E+00
    0.75796E-01        -0.49361E-01         0.00000E+00
    0.65908E-01        -0.43348E-01         0.00000E+00
    0.56602E-01        -0.37332E-01         0.00000E+00
    0.47941E-01        -0.31487E-01         0.00000E+00
    0.40099E-01        -0.25871E-01         0.00000E+00
    0.33094E-01        -0.20595E-01         0.00000E+00
    0.26470E-01        -0.15687E-01         0.00000E+00
    0.20041E-01        -0.11152E-01         0.00000E+00
    0.13618E-01        -0.70109E-02         0.00000E+00
    0.70084E-02        -0.32874E-02         0.00000E+00
    0.00000E+00         0.00000E+00         0.00000E+00
    0.11492E+00        -0.11260E-01         0.00000E+00
    0.12966E+00        -0.11683E-01         0.00000E+00
    0.14411E+00        -0.14328E-01         0.00000E+00
    0.15489E+00        -0.18023E-01         0.00000E+00
    0.16077E+00        -0.23737E-01         0.00000E+00
    0.16189E+00        -0.30995E-01         0.00000E+00
    0.15864E+00        -0.38363E-01         0.00000E+00
    0.15191E+00        -0.44453E-01         0.00000E+00
    0.14281E+00        -0.48655E-01         0.00000E+00
    0.13221E+00        -0.50869E-01         0.00000E+00
    0.12100E+00        -0.51215E-01         0.00000E+00
    0.10982E+00        -0.49974E-01         0.00000E+00
    0.99001E-01        -0.47493E-01         0.00000E+00
    0.88551E-01        -0.44144E-01         0.00000E+00
    0.78480E-01        -0.40216E-01         0.00000E+00
    0.68808E-01        -0.35919E-01         0.00000E+00
    0.59530E-01        -0.31450E-01         0.00000E+00
    0.50839E-01        -0.26897E-01         0.00000E+00
    0.42818E-01        -0.22411E-01         0.00000E+00
    0.35439E-01        -0.18066E-01         0.00000E+00
    0.28431E-01        -0.13898E-01         0.00000E+00
    0.21572E-01        -0.99690E-02         0.00000E+00
    0.14675E-01        -0.63241E-02         0.00000E+00
    0.75531E-02        -0.29944E-02         0.00000E+00
    0.00000E+00         0.00000E+00         0.00000E+00
    0.11603E+00        -0.57739E-03         0.00000E+00
    0.12625E+00        -0.13824E-02         0.00000E+00
    0.13692E+00        -0.38631E-02         0.00000E+00
    0.14520E+00        -0.75172E-02         0.00000E+00
    0.14993E+00        -0.11633E-01         0.00000E+00
    0.15110E+00        -0.16884E-01         0.00000E+00
    0.14902E+00        -0.22651E-01         0.00000E+00
    0.14402E+00        -0.28139E-01         0.00000E+00
    0.13689E+00        -0.32538E-01         0.00000E+00
    0.12816E+00        -0.35547E-01         0.00000E+00
    0.11857E+00        -0.37114E-01         0.00000E+00
    0.10867E+00        -0.37335E-01         0.00000E+00
    0.98837E-01        -0.36418E-01         0.00000E+00
    0.89125E-01        -0.34622E-01         0.00000E+00
    0.79580E-01        -0.32193E-01         0.00000E+00
    0.70278E-01        -0.29316E-01         0.00000E+00
    0.61256E-01        -0.26115E-01         0.00000E+00
    0.52683E-01        -0.22748E-01         0.00000E+00
    0.44650E-01        -0.19264E-01         0.00000E+00
    0.37129E-01        -0.15693E-01         0.00000E+00
    0.29880E-01        -0.12186E-01         0.00000E+00
    0.22719E-01        -0.88222E-02         0.00000E+00
    0.15471E-01        -0.56500E-02         0.00000E+00
    0.79617E-02        -0.27034E-02         0.00000E+00
    0.00000E+00         0.00000E+00         0.00000E+00
    0.11554E+00         0.67528E-02         0.00000E+00
    0.12276E+00         0.56227E-02         0.00000E+00
    0.13055E+00         0.31917E-02         0.00000E+00
    0.13695E+00        -0.27135E-03         0.00000E+00
    0.14072E+00        -0.41628E-02         0.00000E+00
    0.14165E+00        -0.81847E-02         0.00000E+00
    0.13999E+00        -0.12664E-01         0.00000E+00
    0.13606E+00        -0.17145E-01         0.00000E+00
    0.13031E+00        -0.21125E-01         0.00000E+00
    0.12303E+00        -0.24305E-01         0.00000E+00
    0.11485E+00        -0.26404E-01         0.00000E+00
    0.10615E+00        -0.27448E-01         0.00000E+00
    0.97290E-01        -0.27543E-01         0.00000E+00
    0.88356E-01        -0.26870E-01         0.00000E+00
    0.79402E-01        -0.25578E-01         0.00000E+00
    0.70599E-01        -0.23788E-01         0.00000E+00
    0.61916E-01        -0.21685E-01         0.00000E+00
    0.53643E-01        -0.19208E-01         0.00000E+00
    0.45788E-01        -0.16420E-01         0.00000E+00
    0.38247E-01        -0.13511E-01         0.00000E+00
    0.30874E-01        -0.10593E-01         0.00000E+00
    0.23520E-01        -0.77417E-02         0.00000E+00
    0.16030E-01        -0.50079E-02         0.00000E+00
    0.82468E-02        -0.24228E-02         0.00000E+00
    0.00000E+00         0.00000E+00         0.00000E+00
    0.11387E+00         0.11932E-01         0.00000E+00
    0.11906E+00         0.10551E-01         0.00000E+00
    0.12476E+00         0.81949E-02         0.00000E+00
    0.12960E+00         0.49512E-02         0.00000E+00
    0.13261E+00         0.11733E-02         0.00000E+00
    0.13335E+00        -0.26629E-02         0.00000E+00
    0.13188E+00        -0.63978E-02         0.00000E+00
    0.12857E+00        -0.10056E-01         0.00000E+00
    0.12370E+00        -0.13506E-01         0.00000E+00
    0.11750E+00        -0.16486E-01         0.00000E+00
    0.11045E+00        -0.18724E-01         0.00000E+00
    0.10278E+00        -0.20187E-01         0.00000E+00
    0.94788E-01        -0.20887E-01         0.00000E+00
    0.86622E-01        -0.20940E-01         0.00000E+00
    0.78308E-01        -0.20475E-01         0.00000E+00
    0.70002E-01        -0.19511E-01         0.00000E+00
    0.61893E-01        -0.17991E-01         0.00000E+00
    0.54005E-01        -0.16060E-01         0.00000E+00
    0.46359E-01        -0.13870E-01         0.00000E+00
    0.38882E-01        -0.11528E-01         0.00000E+00
    0.31475E-01        -0.91288E-02         0.00000E+00
    0.24018E-01        -0.67400E-02         0.00000E+00
    0.16380E-01        -0.44070E-02         0.00000E+00
    0.84237E-02        -0.21573E-02         0.00000E+00
    0.00000E+00         0.00000E+00         0.00000E+00
    0.11136E+00         0.15728E-01         0.00000E+00
    0.11519E+00         0.14179E-01         0.00000E+00
    0.11938E+00         0.11892E-01         0.00000E+00
    0.12298E+00         0.88759E-02         0.00000E+00
    0.12527E+00         0.53501E-02         0.00000E+00
    0.12584E+00         0.16079E-02         0.00000E+00
    0.12458E+00        -0.20408E-02         0.00000E+00
    0.12170E+00        -0.53972E-02         0.00000E+00
    0.11742E+00        -0.84732E-02         0.00000E+00
    0.11204E+00        -0.11158E-01         0.00000E+00
    0.10584E+00        -0.13357E-01         0.00000E+00
    0.99025E-01        -0.15013E-01         0.00000E+00
    0.91791E-01        -0.16091E-01         0.00000E+00
    0.84332E-01        -0.16546E-01         0.00000E+00
    0.76695E-01        -0.16423E-01         0.00000E+00
    0.69016E-01        -0.15779E-01         0.00000E+00
    0.61406E-01        -0.14702E-01         0.00000E+00
    0.53888E-01        -0.13274E-01         0.00000E+00
    0.46471E-01        -0.11588E-01         0.00000E+00
    0.39113E-01        -0.97364E-02         0.00000E+00
    0.31739E-01        -0.77948E-02         0.00000E+00
    0.24255E-01        -0.58197E-02         0.00000E+00
    0.16550E-01        -0.38502E-02         0.00000E+00
    0.85078E-02        -0.19085E-02         0.00000E+00
    0.00000E+00         0.00000E+00         0.00000E+00
    0.10829E+00         0.18631E-01         0.00000E+00
    0.11119E+00         0.16977E-01         0.00000E+00
    0.11429E+00         0.14760E-01         0.00000E+00
    0.11694E+00         0.11959E-01         0.00000E+00
    0.11860E+00         0.87058E-02         0.00000E+00
    0.11894E+00         0.52219E-02         0.00000E+00
    0.11783E+00         0.17378E-02         0.00000E+00
    0.11532E+00        -0.15685E-02         0.00000E+00
    0.11158E+00        -0.45550E-02         0.00000E+00
    0.10684E+00        -0.71409E-02         0.00000E+00
    0.10132E+00        -0.92728E-02         0.00000E+00
    0.95211E-01        -0.10913E-01         0.00000E+00
    0.88684E-01        -0.12037E-01         0.00000E+00
    0.81872E-01        -0.12662E-01         0.00000E+00
    0.74855E-01        -0.12804E-01         0.00000E+00
    0.67723E-01        -0.12499E-01         0.00000E+00
    0.60554E-01        -0.11807E-01         0.00000E+00
    0.53384E-01        -0.10799E-01         0.00000E+00
    0.46212E-01        -0.95481E-02         0.00000E+00
    0.39010E-01        -0.81234E-02         0.00000E+00
    0.31721E-01        -0.65849E-02         0.00000E+00
    0.24270E-01        -0.49789E-02         0.00000E+00
    0.16567E-01        -0.33373E-02         0.00000E+00
    0.85133E-02        -0.16771E-02         0.00000E+00
    0.00000E+00         0.00000E+00         0.00000E+00
    0.10487E+00         0.20936E-01         0.00000E+00
    0.10712E+00         0.19226E-01         0.00000E+00
    0.10944E+00         0.17082E-01         0.00000E+00
    0.11137E+00         0.14474E-01         0.00000E+00
    0.11252E+00         0.11487E-01         0.00000E+00
    0.11264E+00         0.82781E-02         0.00000E+00
    0.11158E+00         0.50279E-02         0.00000E+00
    0.10936E+00         0.19050E-02         0.00000E+00
    0.10608E+00        -0.95781E-03         0.00000E+00
    0.10189E+00        -0.34675E-02         0.00000E+00
    0.96966E-01        -0.55705E-02         0.00000E+00
    0.91476E-01        -0.72372E-02         0.00000E+00
    0.85552E-01        -0.84597E-02         0.00000E+00
    0.79307E-01        -0.92464E-02         0.00000E+00
    0.72825E-01        -0.96179E-02         0.00000E+00
    0.66174E-01        -0.96036E-02         0.00000E+00
    0.59413E-01        -0.92474E-02         0.00000E+00
    0.52570E-01        -0.86034E-02         0.00000E+00
    0.45650E-01        -0.77282E-02         0.00000E+00
    0.38629E-01        -0.66754E-02         0.00000E+00
    0.31466E-01        -0.54917E-02         0.00000E+00
    0.24100E-01        -0.42139E-02         0.00000E+00
    0.16456E-01        -0.28669E-02         0.00000E+00
    0.84529E-02        -0.14628E-02         0.00000E+00
    0.00000E+00         0.00000E+00         0.00000E+00
    0.10125E+00         0.22827E-01         0.00000E+00
    0.10305E+00         0.21098E-01         0.00000E+00
    0.10479E+00         0.19026E-01         0.00000E+00
    0.10618E+00         0.16586E-01         0.00000E+00
    0.10694E+00         0.13834E-01         0.00000E+00
    0.10685E+00         0.10886E-01         0.00000E+00
    0.10582E+00         0.78809E-02         0.00000E+00
    0.10381E+00         0.49595E-02         0.00000E+00
    0.10089E+00         0.22407E-02         0.00000E+00
    0.97165E-01        -0.18788E-03         0.00000E+00
    0.92758E-01        -0.22699E-02         0.00000E+00
    0.87799E-01        -0.39758E-02         0.00000E+00
    0.82401E-01        -0.52962E-02         0.00000E+00
    0.76659E-01        -0.62367E-02         0.00000E+00
    0.70647E-01        -0.68137E-02         0.00000E+00
    0.64425E-01        -0.70524E-02         0.00000E+00
    0.58037E-01        -0.69868E-02         0.00000E+00
    0.51508E-01        -0.66575E-02         0.00000E+00
    0.44842E-01        -0.61078E-02         0.00000E+00
    0.38023E-01        -0.53790E-02         0.00000E+00
    0.31016E-01        -0.45071E-02         0.00000E+00
    0.23775E-01        -0.35203E-02         0.00000E+00
    0.16238E-01        -0.24371E-02         0.00000E+00
    0.83377E-02        -0.12651E-02         0.00000E+00
    0.00000E+00         0.00000E+00         0.00000E+00
    0.97544E-01         0.24413E-01         0.00000E+00
    0.99000E-01         0.22690E-01         0.00000E+00
    0.10032E+00         0.20688E-01         0.00000E+00
    0.10131E+00         0.18392E-01         0.00000E+00
    0.10176E+00         0.15842E-01         0.00000E+00
    0.10152E+00         0.13122E-01         0.00000E+00
    0.10049E+00         0.10341E-01         0.00000E+00
    0.98642E-01         0.76122E-02         0.00000E+00
    0.96009E-01         0.50358E-02         0.00000E+00
    0.92660E-01         0.26915E-02         0.00000E+00
    0.88685E-01         0.63369E-03         0.00000E+00
    0.84183E-01        -0.11058E-02         0.00000E+00
    0.79243E-01        -0.25138E-02         0.00000E+00
    0.73945E-01        -0.35913E-02         0.00000E+00
    0.68354E-01        -0.43497E-02         0.00000E+00
    0.62519E-01        -0.48085E-02         0.00000E+00
    0.56477E-01        -0.49937E-02         0.00000E+00
    0.50248E-01        -0.49362E-02         0.00000E+00
    0.43837E-01        -0.46684E-02         0.00000E+00
    0.37233E-01        -0.42216E-02         0.00000E+00
    0.30407E-01        -0.36230E-02         0.00000E+00
    0.23323E-01        -0.28935E-02         0.00000E+00
    0.15932E-01        -0.20458E-02         0.00000E+00
    0.81775E-02        -0.10836E-02         0.00000E+00
    0.00000E+00         0.00000E+00         0.00000E+00
    0.93820E-01         0.25760E-01         0.00000E+00
    0.95013E-01         0.24059E-01         0.00000E+00
    0.96020E-01         0.22126E-01         0.00000E+00
    0.96703E-01         0.19952E-01         0.00000E+00
    0.96920E-01         0.17570E-01         0.00000E+00
    0.96552E-01         0.15043E-01         0.00000E+00
    0.95523E-01         0.12456E-01         0.00000E+00
    0.93800E-01         0.98984E-02         0.00000E+00
    0.91397E-01         0.74537E-02         0.00000E+00
    0.88357E-01         0.51912E-02         0.00000E+00
    0.84746E-01         0.31620E-02         0.00000E+00
    0.80634E-01         0.13986E-02         0.00000E+00
    0.76094E-01        -0.82398E-04         0.00000E+00
    0.71190E-01        -0.12772E-02         0.00000E+00
    0.65975E-01        -0.21921E-02         0.00000E+00
    0.60492E-01        -0.28404E-02         0.00000E+00
    0.54772E-01        -0.32414E-02         0.00000E+00
    0.48832E-01        -0.34178E-02         0.00000E+00
    0.42676E-01        -0.33935E-02         0.00000E+00
    0.36295E-01        -0.31917E-02         0.00000E+00
    0.29670E-01        -0.28319E-02         0.00000E+00
    0.22769E-01        -0.23290E-02         0.00000E+00
    0.15554E-01        -0.16908E-02         0.00000E+00
    0.79808E-02        -0.91739E-03         0.00000E+00
    0.00000E+00         0.00000E+00         0.00000E+00
    0.90123E-01         0.26910E-01         0.00000E+00
    0.91105E-01         0.25240E-01         0.00000E+00
    0.91872E-01         0.23371E-01         0.00000E+00
    0.92326E-01         0.21302E-01         0.00000E+00
    0.92365E-01         0.19059E-01         0.00000E+00
    0.91900E-01         0.16693E-01         0.00000E+00
    0.90871E-01         0.14269E-01         0.00000E+00
    0.89246E-01         0.11858E-01         0.00000E+00
    0.87028E-01         0.95300E-02         0.00000E+00
    0.84243E-01         0.73437E-02         0.00000E+00
    0.80935E-01         0.53455E-02         0.00000E+00
    0.77159E-01         0.35675E-02         0.00000E+00
    0.72967E-01         0.20284E-02         0.00000E+00
    0.68411E-01         0.73593E-03         0.00000E+00
    0.63536E-01        -0.31114E-03         0.00000E+00
    0.58376E-01        -0.11209E-02         0.00000E+00
    0.52957E-01        -0.17062E-02         0.00000E+00
    0.47293E-01        -0.20830E-02         0.00000E+00
    0.41390E-01        -0.22683E-02         0.00000E+00
    0.35241E-01        -0.22783E-02         0.00000E+00
    0.28830E-01        -0.21266E-02         0.00000E+00
    0.22133E-01        -0.18226E-02         0.00000E+00
    0.15120E-01        -0.13700E-02         0.00000E+00
    0.77549E-02        -0.76594E-03         0.00000E+00
    0.00000E+00         0.00000E+00         0.00000E+00
    0.86482E-01         0.27888E-01         0.00000E+00
    0.87288E-01         0.26255E-01         0.00000E+00
    0.87865E-01         0.24446E-01         0.00000E+00
    0.88143E-01         0.22466E-01         0.00000E+00
    0.88047E-01         0.20339E-01         0.00000E+00
    0.87511E-01         0.18105E-01         0.00000E+00
    0.86484E-01         0.15816E-01         0.00000E+00
    0.84939E-01         0.13530E-01         0.00000E+00
    0.82873E-01         0.11302E-01         0.00000E+00
    0.80300E-01         0.91847E-02         0.00000E+00
    0.77250E-01         0.72180E-02         0.00000E+00
    0.73761E-01         0.54327E-02         0.00000E+00
    0.69874E-01         0.38489E-02         0.00000E+00
    0.65628E-01         0.24771E-02         0.00000E+00
    0.61059E-01         0.13200E-02         0.00000E+00
    0.56196E-01         0.37459E-03         0.00000E+00
    0.51060E-01        -0.36676E-03         0.00000E+00
    0.45663E-01        -0.91421E-03         0.00000E+00
    0.40010E-01        -0.12789E-02         0.00000E+00
    0.34096E-01        -0.14714E-02         0.00000E+00
    0.27910E-01        -0.15001E-02         0.00000E+00
    0.21432E-01        -0.13700E-02         0.00000E+00
    0.14640E-01        -0.10812E-02         0.00000E+00
    0.75061E-02        -0.62848E-03         0.00000E+00
    0.00000E+00         0.00000E+00         0.00000E+00
    0.82911E-01         0.28712E-01         0.00000E+00
    0.83565E-01         0.27118E-01         0.00000E+00
    0.83989E-01         0.25365E-01         0.00000E+00
    0.84130E-01         0.23462E-01         0.00000E+00
    0.83932E-01         0.21432E-01         0.00000E+00
    0.83342E-01         0.19307E-01         0.00000E+00
    0.82321E-01         0.17130E-01         0.00000E+00
    0.80845E-01         0.14947E-01         0.00000E+00
    0.78906E-01         0.12806E-01         0.00000E+00
    0.76512E-01         0.10749E-01         0.00000E+00
    0.73682E-01         0.88131E-02         0.00000E+00
    0.70442E-01         0.70263E-02         0.00000E+00
    0.66823E-01         0.54090E-02         0.00000E+00
    0.62854E-01         0.39738E-02         0.00000E+00
    0.58564E-01         0.27267E-02         0.00000E+00
    0.53976E-01         0.16685E-02         0.00000E+00
    0.49106E-01         0.79617E-03         0.00000E+00
    0.43966E-01         0.10448E-03         0.00000E+00
    0.38559E-01        -0.41287E-03         0.00000E+00
    0.32882E-01        -0.76169E-03         0.00000E+00
    0.26928E-01        -0.94607E-03         0.00000E+00
    0.20683E-01        -0.96721E-03         0.00000E+00
    0.14127E-01        -0.82242E-03         0.00000E+00
    0.72399E-02        -0.50427E-03         0.00000E+00
    0.00000E+00         0.00000E+00         0.00000E+00
    0.79417E-01         0.29397E-01         0.00000E+00
    0.79938E-01         0.27841E-01         0.00000E+00
    0.80235E-01         0.26139E-01         0.00000E+00
    0.80267E-01         0.24303E-01         0.00000E+00
    0.79989E-01         0.22355E-01         0.00000E+00
    0.79361E-01         0.20321E-01         0.00000E+00
    0.78350E-01         0.18237E-01         0.00000E+00
    0.76935E-01         0.16141E-01         0.00000E+00
    0.75106E-01         0.14073E-01         0.00000E+00
    0.72865E-01         0.12070E-01         0.00000E+00
    0.70225E-01         0.10163E-01         0.00000E+00
    0.67203E-01         0.83787E-02         0.00000E+00
    0.63821E-01         0.67373E-02         0.00000E+00
    0.60101E-01         0.52524E-02         0.00000E+00
    0.56066E-01         0.39325E-02         0.00000E+00
    0.51732E-01         0.27816E-02         0.00000E+00
    0.47114E-01         0.18005E-02         0.00000E+00
    0.42221E-01         0.98792E-03         0.00000E+00
    0.37057E-01         0.34160E-03         0.00000E+00
    0.31619E-01        -0.14029E-03         0.00000E+00
    0.25902E-01        -0.45823E-03         0.00000E+00
    0.19896E-01        -0.61032E-03         0.00000E+00
    0.13588E-01        -0.59144E-03         0.00000E+00
    0.69609E-02        -0.39252E-03         0.00000E+00
    0.00000E+00         0.00000E+00         0.00000E+00
    0.75999E-01         0.29953E-01         0.00000E+00
    0.76401E-01         0.28434E-01         0.00000E+00
    0.76592E-01         0.26779E-01         0.00000E+00
    0.76536E-01         0.25003E-01         0.00000E+00
    0.76197E-01         0.23123E-01         0.00000E+00
    0.75543E-01         0.21166E-01         0.00000E+00
    0.74544E-01         0.19160E-01         0.00000E+00
    0.73184E-01         0.17138E-01         0.00000E+00
    0.71451E-01         0.15132E-01         0.00000E+00
    0.69345E-01         0.13176E-01         0.00000E+00
    0.66871E-01         0.11296E-01         0.00000E+00
    0.64042E-01         0.95181E-02         0.00000E+00
    0.60872E-01         0.78602E-02         0.00000E+00
    0.57378E-01         0.63373E-02         0.00000E+00
    0.53576E-01         0.49596E-02         0.00000E+00
    0.49481E-01         0.37335E-02         0.00000E+00
    0.45102E-01         0.26630E-02         0.00000E+00
    0.40447E-01         0.17499E-02         0.00000E+00
    0.35521E-01         0.99544E-03         0.00000E+00
    0.30321E-01         0.40107E-03         0.00000E+00
    0.24845E-01        -0.30744E-04         0.00000E+00
    0.19084E-01        -0.29556E-03         0.00000E+00
    0.13031E-01        -0.38625E-03         0.00000E+00
    0.66728E-02        -0.29244E-03         0.00000E+00
    0.00000E+00         0.00000E+00         0.00000E+00
    0.72655E-01         0.30392E-01         0.00000E+00
    0.72952E-01         0.28907E-01         0.00000E+00
    0.73051E-01         0.27296E-01         0.00000E+00
    0.72923E-01         0.25571E-01         0.00000E+00
    0.72537E-01         0.23752E-01         0.00000E+00
    0.71864E-01         0.21860E-01         0.00000E+00
    0.70882E-01         0.19920E-01         0.00000E+00
    0.69573E-01         0.17960E-01         0.00000E+00
    0.67926E-01         0.16009E-01         0.00000E+00
    0.65939E-01         0.14094E-01         0.00000E+00
    0.63614E-01         0.12240E-01         0.00000E+00
    0.60957E-01         0.10470E-01         0.00000E+00
    0.57979E-01         0.88022E-02         0.00000E+00
    0.54691E-01         0.72511E-02         0.00000E+00
    0.51106E-01         0.58283E-02         0.00000E+00
    0.47233E-01         0.45421E-02         0.00000E+00
    0.43082E-01         0.33989E-02         0.00000E+00
    0.38658E-01         0.24032E-02         0.00000E+00
    0.33964E-01         0.15589E-02         0.00000E+00
    0.29001E-01         0.87019E-03         0.00000E+00
    0.23767E-01         0.34194E-03         0.00000E+00
    0.18256E-01        -0.19308E-04         0.00000E+00
    0.12462E-01        -0.20484E-03         0.00000E+00
    0.63791E-02        -0.20324E-03         0.00000E+00
    0.00000E+00         0.00000E+00         0.00000E+00
    0.69381E-01         0.30724E-01         0.00000E+00
    0.69583E-01         0.29271E-01         0.00000E+00
    0.69604E-01         0.27699E-01         0.00000E+00
    0.69416E-01         0.26021E-01         0.00000E+00
    0.68992E-01         0.24254E-01         0.00000E+00
    0.68309E-01         0.22418E-01         0.00000E+00
    0.67345E-01         0.20535E-01         0.00000E+00
    0.66085E-01         0.18629E-01         0.00000E+00
    0.64517E-01         0.16725E-01         0.00000E+00
    0.62638E-01         0.14847E-01         0.00000E+00
    0.60446E-01         0.13018E-01         0.00000E+00
    0.57945E-01         0.11258E-01         0.00000E+00
    0.55142E-01         0.95855E-02         0.00000E+00
    0.52045E-01         0.80144E-02         0.00000E+00
    0.48661E-01         0.65573E-02         0.00000E+00
    0.44999E-01         0.52240E-02         0.00000E+00
    0.41065E-01         0.40225E-02         0.00000E+00
    0.36864E-01         0.29597E-02         0.00000E+00
    0.32399E-01         0.20415E-02         0.00000E+00
    0.27671E-01         0.12744E-02         0.00000E+00
    0.22678E-01         0.66509E-03         0.00000E+00
    0.17418E-01         0.22190E-03         0.00000E+00
    0.11887E-01        -0.45228E-04         0.00000E+00
    0.60823E-02        -0.12410E-03         0.00000E+00
    0.00000E+00         0.00000E+00         0.00000E+00
    0.66170E-01         0.30959E-01         0.00000E+00
    0.66288E-01         0.29536E-01         0.00000E+00
    0.66241E-01         0.27999E-01         0.00000E+00
    0.66003E-01         0.26362E-01         0.00000E+00
    0.65551E-01         0.24641E-01         0.00000E+00
    0.64863E-01         0.22855E-01         0.00000E+00
    0.63919E-01         0.21021E-01         0.00000E+00
    0.62705E-01         0.19163E-01         0.00000E+00
    0.61212E-01         0.17301E-01         0.00000E+00
    0.59431E-01         0.15457E-01         0.00000E+00
    0.57362E-01         0.13651E-01         0.00000E+00
    0.55005E-01         0.11904E-01         0.00000E+00
    0.52363E-01         0.10230E-01         0.00000E+00
    0.49442E-01         0.86459E-02         0.00000E+00
    0.46248E-01         0.71637E-02         0.00000E+00
    0.42786E-01         0.57942E-02         0.00000E+00
    0.39060E-01         0.45470E-02         0.00000E+00
    0.35075E-01         0.34303E-02         0.00000E+00
    0.30834E-01         0.24522E-02         0.00000E+00
    0.26337E-01         0.16205E-02         0.00000E+00
    0.21585E-01         0.94368E-03         0.00000E+00
    0.16576E-01         0.43137E-03         0.00000E+00
    0.11310E-01         0.94482E-04         0.00000E+00
    0.57846E-02        -0.54233E-04         0.00000E+00
    0.00000E+00         0.00000E+00         0.00000E+00
    0.63015E-01         0.31108E-01         0.00000E+00
    0.63059E-01         0.29711E-01         0.00000E+00
    0.62954E-01         0.28206E-01         0.00000E+00
    0.62676E-01         0.26607E-01         0.00000E+00
    0.62202E-01         0.24927E-01         0.00000E+00
    0.61513E-01         0.23184E-01         0.00000E+00
    0.60592E-01         0.21394E-01         0.00000E+00
    0.59424E-01         0.19578E-01         0.00000E+00
    0.57999E-01         0.17753E-01         0.00000E+00
    0.56311E-01         0.15941E-01         0.00000E+00
    0.54355E-01         0.14158E-01         0.00000E+00
    0.52131E-01         0.12424E-01         0.00000E+00
    0.49641E-01         0.10754E-01         0.00000E+00
    0.46886E-01         0.91625E-02         0.00000E+00
    0.43870E-01         0.76629E-02         0.00000E+00
    0.40598E-01         0.62666E-02         0.00000E+00
    0.37073E-01         0.49841E-02         0.00000E+00
    0.33299E-01         0.38252E-02         0.00000E+00
    0.29277E-01         0.27990E-02         0.00000E+00
    0.25008E-01         0.19148E-02         0.00000E+00
    0.20495E-01         0.11824E-02         0.00000E+00
    0.15737E-01         0.61223E-03         0.00000E+00
    0.10734E-01         0.21612E-03         0.00000E+00
    0.54878E-02         0.71303E-05         0.00000E+00
    0.00000E+00         0.00000E+00         0.00000E+00
    0.59912E-01         0.31180E-01         0.00000E+00
    0.59892E-01         0.29807E-01         0.00000E+00
    0.59737E-01         0.28331E-01         0.00000E+00
    0.59425E-01         0.26765E-01         0.00000E+00
    0.58936E-01         0.25123E-01         0.00000E+00
    0.58251E-01         0.23418E-01         0.00000E+00
    0.57353E-01         0.21668E-01         0.00000E+00
    0.56231E-01         0.19889E-01         0.00000E+00
    0.54872E-01         0.18099E-01         0.00000E+00
    0.53271E-01         0.16316E-01         0.00000E+00
    0.51422E-01         0.14556E-01         0.00000E+00
    0.49323E-01         0.12837E-01         0.00000E+00
    0.46974E-01         0.11173E-01         0.00000E+00
    0.44376E-01         0.95792E-02         0.00000E+00
    0.41531E-01         0.80687E-02         0.00000E+00
    0.38441E-01         0.66535E-02         0.00000E+00
    0.35110E-01         0.53449E-02         0.00000E+00
    0.31540E-01         0.41535E-02         0.00000E+00
    0.27732E-01         0.30895E-02         0.00000E+00
    0.23689E-01         0.21632E-02         0.00000E+00
    0.19412E-01         0.13855E-02         0.00000E+00
    0.14902E-01         0.76744E-03         0.00000E+00
    0.10162E-01         0.32142E-03         0.00000E+00
    0.51933E-02         0.60745E-04         0.00000E+00
    0.00000E+00         0.00000E+00         0.00000E+00
    0.56855E-01         0.31186E-01         0.00000E+00
    0.56778E-01         0.29833E-01         0.00000E+00
    0.56582E-01         0.28383E-01         0.00000E+00
    0.56243E-01         0.26848E-01         0.00000E+00
    0.55744E-01         0.25239E-01         0.00000E+00
    0.55066E-01         0.23570E-01         0.00000E+00
    0.54195E-01         0.21855E-01         0.00000E+00
    0.53117E-01         0.20111E-01         0.00000E+00
    0.51823E-01         0.18353E-01         0.00000E+00
    0.50304E-01         0.16597E-01         0.00000E+00
    0.48556E-01         0.14860E-01         0.00000E+00
    0.46576E-01         0.13156E-01         0.00000E+00
    0.44361E-01         0.11501E-01         0.00000E+00
    0.41913E-01         0.99095E-02         0.00000E+00
    0.39231E-01         0.83937E-02         0.00000E+00
    0.36317E-01         0.69663E-02         0.00000E+00
    0.33174E-01         0.56391E-02         0.00000E+00
    0.29802E-01         0.44235E-02         0.00000E+00
    0.26205E-01         0.33305E-02         0.00000E+00
    0.22383E-01         0.23712E-02         0.00000E+00
    0.18340E-01         0.15570E-02         0.00000E+00
    0.14076E-01         0.89975E-03         0.00000E+00
    0.95959E-02         0.41205E-03         0.00000E+00
    0.49021E-02         0.10733E-03         0.00000E+00
    0.00000E+00         0.00000E+00         0.00000E+00
    0.53837E-01         0.31133E-01         0.00000E+00
    0.53713E-01         0.29799E-01         0.00000E+00
    0.53483E-01         0.28373E-01         0.00000E+00
    0.53124E-01         0.26865E-01         0.00000E+00
    0.52619E-01         0.25287E-01         0.00000E+00
    0.51952E-01         0.23650E-01         0.00000E+00
    0.51108E-01         0.21968E-01         0.00000E+00
    0.50075E-01         0.20256E-01         0.00000E+00
    0.48844E-01         0.18527E-01         0.00000E+00
    0.47405E-01         0.16798E-01         0.00000E+00
    0.45754E-01         0.15082E-01         0.00000E+00
    0.43887E-01         0.13396E-01         0.00000E+00
    0.41801E-01         0.11752E-01         0.00000E+00
    0.39496E-01         0.10166E-01         0.00000E+00
    0.36971E-01         0.86489E-02         0.00000E+00
    0.34228E-01         0.72149E-02         0.00000E+00
    0.31267E-01         0.58756E-02         0.00000E+00
    0.28089E-01         0.46429E-02         0.00000E+00
    0.24698E-01         0.35283E-02         0.00000E+00
    0.21094E-01         0.25436E-02         0.00000E+00
    0.17281E-01         0.17007E-02         0.00000E+00
    0.13261E-01         0.10117E-02         0.00000E+00
    0.90373E-02         0.48953E-03         0.00000E+00
    0.46150E-02         0.14758E-03         0.00000E+00
    0.00000E+00         0.00000E+00         0.00000E+00
    0.50855E-01         0.31032E-01         0.00000E+00
    0.50692E-01         0.29715E-01         0.00000E+00
    0.50434E-01         0.28310E-01         0.00000E+00
    0.50061E-01         0.26827E-01         0.00000E+00
    0.49555E-01         0.25276E-01         0.00000E+00
    0.48902E-01         0.23669E-01         0.00000E+00
    0.48088E-01         0.22017E-01         0.00000E+00
    0.47100E-01         0.20334E-01         0.00000E+00
    0.45930E-01         0.18634E-01         0.00000E+00
    0.44569E-01         0.16930E-01         0.00000E+00
    0.43012E-01         0.15236E-01         0.00000E+00
    0.41254E-01         0.13567E-01         0.00000E+00
    0.39293E-01         0.11937E-01         0.00000E+00
    0.37126E-01         0.10358E-01         0.00000E+00
    0.34753E-01         0.88445E-02         0.00000E+00
    0.32174E-01         0.74084E-02         0.00000E+00
    0.29391E-01         0.60623E-02         0.00000E+00
    0.26403E-01         0.48184E-02         0.00000E+00
    0.23214E-01         0.36886E-02         0.00000E+00
    0.19825E-01         0.26850E-02         0.00000E+00
    0.16238E-01         0.18199E-02         0.00000E+00
    0.12458E-01         0.11057E-02         0.00000E+00
    0.84873E-02         0.55533E-03         0.00000E+00
    0.43326E-02         0.18215E-03         0.00000E+00
    0.00000E+00         0.00000E+00         0.00000E+00
    0.47903E-01         0.30890E-01         0.00000E+00
    0.47709E-01         0.29588E-01         0.00000E+00
    0.47430E-01         0.28203E-01         0.00000E+00
    0.47048E-01         0.26743E-01         0.00000E+00
    0.46546E-01         0.25217E-01         0.00000E+00
    0.45910E-01         0.23637E-01         0.00000E+00
    0.45127E-01         0.22013E-01         0.00000E+00
    0.44185E-01         0.20357E-01         0.00000E+00
    0.43076E-01         0.18683E-01         0.00000E+00
    0.41792E-01         0.17004E-01         0.00000E+00
    0.40326E-01         0.15332E-01         0.00000E+00
    0.38674E-01         0.13681E-01         0.00000E+00
    0.36832E-01         0.12065E-01         0.00000E+00
    0.34800E-01         0.10497E-01         0.00000E+00
    0.32574E-01         0.89893E-02         0.00000E+00
    0.30157E-01         0.75550E-02         0.00000E+00
    0.27546E-01         0.62065E-02         0.00000E+00
    0.24745E-01         0.49563E-02         0.00000E+00
    0.21754E-01         0.38165E-02         0.00000E+00
    0.18575E-01         0.27995E-02         0.00000E+00
    0.15212E-01         0.19178E-02         0.00000E+00
    0.11668E-01         0.11839E-02         0.00000E+00
    0.79467E-02         0.61077E-03         0.00000E+00
    0.40552E-02         0.21164E-03         0.00000E+00
    0.00000E+00         0.00000E+00         0.00000E+00
    0.44978E-01         0.30717E-01         0.00000E+00
    0.44760E-01         0.29427E-01         0.00000E+00
    0.44467E-01         0.28060E-01         0.00000E+00
    0.44081E-01         0.26620E-01         0.00000E+00
    0.43586E-01         0.25118E-01         0.00000E+00
    0.42970E-01         0.23563E-01         0.00000E+00
    0.42220E-01         0.21964E-01         0.00000E+00
    0.41326E-01         0.20335E-01         0.00000E+00
    0.40277E-01         0.18686E-01         0.00000E+00
    0.39068E-01         0.17030E-01         0.00000E+00
    0.37691E-01         0.15379E-01         0.00000E+00
    0.36143E-01         0.13747E-01         0.00000E+00
    0.34419E-01         0.12147E-01         0.00000E+00
    0.32517E-01         0.10590E-01         0.00000E+00
    0.30436E-01         0.90913E-02         0.00000E+00
    0.28175E-01         0.76618E-02         0.00000E+00
    0.25734E-01         0.63145E-02         0.00000E+00
    0.23115E-01         0.50620E-02         0.00000E+00
    0.20318E-01         0.39166E-02         0.00000E+00
    0.17347E-01         0.28908E-02         0.00000E+00
    0.14203E-01         0.19971E-02         0.00000E+00
    0.10891E-01         0.12483E-02         0.00000E+00
    0.74160E-02         0.65711E-03         0.00000E+00
    0.37831E-02         0.23662E-03         0.00000E+00
    0.00000E+00         0.00000E+00         0.00000E+00
    0.42077E-01         0.30518E-01         0.00000E+00
    0.41842E-01         0.29241E-01         0.00000E+00
    0.41540E-01         0.27889E-01         0.00000E+00
    0.41154E-01         0.26468E-01         0.00000E+00
    0.40672E-01         0.24987E-01         0.00000E+00
    0.40078E-01         0.23455E-01         0.00000E+00
    0.39364E-01         0.21881E-01         0.00000E+00
    0.38517E-01         0.20275E-01         0.00000E+00
    0.37530E-01         0.18650E-01         0.00000E+00
    0.36395E-01         0.17017E-01         0.00000E+00
    0.35106E-01         0.15387E-01         0.00000E+00
    0.33658E-01         0.13774E-01         0.00000E+00
    0.32049E-01         0.12189E-01         0.00000E+00
    0.30275E-01         0.10647E-01         0.00000E+00
    0.28335E-01         0.91576E-02         0.00000E+00
    0.26228E-01         0.77353E-02         0.00000E+00
    0.23953E-01         0.63921E-02         0.00000E+00
    0.21513E-01         0.51405E-02         0.00000E+00
    0.18908E-01         0.39931E-02         0.00000E+00
    0.16140E-01         0.29622E-02         0.00000E+00
    0.13212E-01         0.20606E-02         0.00000E+00
    0.10129E-01         0.13007E-02         0.00000E+00
    0.68952E-02         0.69548E-03         0.00000E+00
    0.35163E-02         0.25762E-03         0.00000E+00
    0.00000E+00         0.00000E+00         0.00000E+00
    0.39197E-01         0.30302E-01         0.00000E+00
    0.38951E-01         0.29035E-01         0.00000E+00
    0.38645E-01         0.27697E-01         0.00000E+00
    0.38265E-01         0.26294E-01         0.00000E+00
    0.37797E-01         0.24832E-01         0.00000E+00
    0.37230E-01         0.23321E-01         0.00000E+00
    0.36552E-01         0.21769E-01         0.00000E+00
    0.35754E-01         0.20187E-01         0.00000E+00
    0.34828E-01         0.18584E-01         0.00000E+00
    0.33767E-01         0.16972E-01         0.00000E+00
    0.32565E-01         0.15363E-01         0.00000E+00
    0.31218E-01         0.13768E-01         0.00000E+00
    0.29721E-01         0.12201E-01         0.00000E+00
    0.28073E-01         0.10672E-01         0.00000E+00
    0.26271E-01         0.91946E-02         0.00000E+00
    0.24315E-01         0.77813E-02         0.00000E+00
    0.22204E-01         0.64444E-02         0.00000E+00
    0.19939E-01         0.51964E-02         0.00000E+00
    0.17522E-01         0.40496E-02         0.00000E+00
    0.14954E-01         0.30168E-02         0.00000E+00
    0.12240E-01         0.21103E-02         0.00000E+00
    0.93812E-02         0.13429E-02         0.00000E+00
    0.63843E-02         0.72693E-03         0.00000E+00
    0.32548E-02         0.27514E-03         0.00000E+00
    0.00000E+00         0.00000E+00         0.00000E+00
    0.36335E-01         0.30075E-01         0.00000E+00
    0.36083E-01         0.28817E-01         0.00000E+00
    0.35779E-01         0.27492E-01         0.00000E+00
    0.35408E-01         0.26104E-01         0.00000E+00
    0.34959E-01         0.24660E-01         0.00000E+00
    0.34420E-01         0.23169E-01         0.00000E+00
    0.33781E-01         0.21638E-01         0.00000E+00
    0.33034E-01         0.20076E-01         0.00000E+00
    0.32170E-01         0.18495E-01         0.00000E+00
    0.31183E-01         0.16903E-01         0.00000E+00
    0.30067E-01         0.15314E-01         0.00000E+00
    0.28818E-01         0.13738E-01         0.00000E+00
    0.27433E-01         0.12187E-01         0.00000E+00
    0.25908E-01         0.10673E-01         0.00000E+00
    0.24242E-01         0.92080E-02         0.00000E+00
    0.22434E-01         0.78050E-02         0.00000E+00
    0.20484E-01         0.64760E-02         0.00000E+00
    0.18392E-01         0.52334E-02         0.00000E+00
    0.16160E-01         0.40897E-02         0.00000E+00
    0.13790E-01         0.30572E-02         0.00000E+00
    0.11284E-01         0.21486E-02         0.00000E+00
    0.86470E-02         0.13762E-02         0.00000E+00
    0.58832E-02         0.75241E-03         0.00000E+00
    0.29985E-02         0.28962E-03         0.00000E+00
    0.00000E+00         0.00000E+00         0.00000E+00
    0.33488E-01         0.29843E-01         0.00000E+00
    0.33237E-01         0.28593E-01         0.00000E+00
    0.32938E-01         0.27279E-01         0.00000E+00
    0.32581E-01         0.25905E-01         0.00000E+00
    0.32154E-01         0.24478E-01         0.00000E+00
    0.31646E-01         0.23004E-01         0.00000E+00
    0.31048E-01         0.21492E-01         0.00000E+00
    0.30352E-01         0.19950E-01         0.00000E+00
    0.29550E-01         0.18389E-01         0.00000E+00
    0.28637E-01         0.16817E-01         0.00000E+00
    0.27607E-01         0.15246E-01         0.00000E+00
    0.26456E-01         0.13688E-01         0.00000E+00
    0.25181E-01         0.12153E-01         0.00000E+00
    0.23778E-01         0.10654E-01         0.00000E+00
    0.22246E-01         0.92028E-02         0.00000E+00
    0.20584E-01         0.78109E-02         0.00000E+00
    0.18792E-01         0.64909E-02         0.00000E+00
    0.16871E-01         0.52552E-02         0.00000E+00
    0.14821E-01         0.41161E-02         0.00000E+00
    0.12645E-01         0.30860E-02         0.00000E+00
    0.10346E-01         0.21772E-02         0.00000E+00
    0.79262E-02         0.14021E-02         0.00000E+00
    0.53915E-02         0.77279E-03         0.00000E+00
    0.27472E-02         0.30148E-03         0.00000E+00
    0.00000E+00         0.00000E+00         0.00000E+00
    0.30655E-01         0.29610E-01         0.00000E+00
    0.30409E-01         0.28367E-01         0.00000E+00
    0.30121E-01         0.27063E-01         0.00000E+00
    0.29781E-01         0.25702E-01         0.00000E+00
    0.29378E-01         0.24290E-01         0.00000E+00
    0.28904E-01         0.22833E-01         0.00000E+00
    0.28348E-01         0.21338E-01         0.00000E+00
    0.27705E-01         0.19815E-01         0.00000E+00
    0.26967E-01         0.18272E-01         0.00000E+00
    0.26128E-01         0.16719E-01         0.00000E+00
    0.25183E-01         0.15166E-01         0.00000E+00
    0.24129E-01         0.13625E-01         0.00000E+00
    0.22962E-01         0.12106E-01         0.00000E+00
    0.21680E-01         0.10622E-01         0.00000E+00
    0.20281E-01         0.91834E-02         0.00000E+00
    0.18763E-01         0.78030E-02         0.00000E+00
    0.17128E-01         0.64928E-02         0.00000E+00
    0.15375E-01         0.52650E-02         0.00000E+00
    0.13505E-01         0.41317E-02         0.00000E+00
    0.11520E-01         0.31052E-02         0.00000E+00
    0.94233E-02         0.21979E-02         0.00000E+00
    0.72181E-02         0.14217E-02         0.00000E+00
    0.49088E-02         0.78885E-03         0.00000E+00
    0.25006E-02         0.31108E-03         0.00000E+00
    0.00000E+00         0.00000E+00         0.00000E+00
    0.27834E-01         0.29383E-01         0.00000E+00
    0.27597E-01         0.28146E-01         0.00000E+00
    0.27324E-01         0.26851E-01         0.00000E+00
    0.27004E-01         0.25502E-01         0.00000E+00
    0.26629E-01         0.24103E-01         0.00000E+00
    0.26190E-01         0.22660E-01         0.00000E+00
    0.25679E-01         0.21182E-01         0.00000E+00
    0.25090E-01         0.19675E-01         0.00000E+00
    0.24415E-01         0.18149E-01         0.00000E+00
    0.23651E-01         0.16613E-01         0.00000E+00
    0.22792E-01         0.15077E-01         0.00000E+00
    0.21834E-01         0.13552E-01         0.00000E+00
    0.20775E-01         0.12049E-01         0.00000E+00
    0.19612E-01         0.10579E-01         0.00000E+00
    0.18344E-01         0.91538E-02         0.00000E+00
    0.16970E-01         0.77850E-02         0.00000E+00
    0.15488E-01         0.64849E-02         0.00000E+00
    0.13901E-01         0.52654E-02         0.00000E+00
    0.12209E-01         0.41387E-02         0.00000E+00
    0.10413E-01         0.31169E-02         0.00000E+00
    0.85161E-02         0.22121E-02         0.00000E+00
    0.65220E-02         0.14363E-02         0.00000E+00
    0.44345E-02         0.80129E-03         0.00000E+00
    0.22585E-02         0.31877E-03         0.00000E+00
    0.00000E+00         0.00000E+00         0.00000E+00
    0.25024E-01         0.29164E-01         0.00000E+00
    0.24800E-01         0.27933E-01         0.00000E+00
    0.24544E-01         0.26646E-01         0.00000E+00
    0.24248E-01         0.25307E-01         0.00000E+00
    0.23903E-01         0.23920E-01         0.00000E+00
    0.23502E-01         0.22491E-01         0.00000E+00
    0.23037E-01         0.21027E-01         0.00000E+00
    0.22503E-01         0.19536E-01         0.00000E+00
    0.21893E-01         0.18025E-01         0.00000E+00
    0.21203E-01         0.16505E-01         0.00000E+00
    0.20430E-01         0.14985E-01         0.00000E+00
    0.19568E-01         0.13475E-01         0.00000E+00
    0.18616E-01         0.11986E-01         0.00000E+00
    0.17572E-01         0.10530E-01         0.00000E+00
    0.16434E-01         0.91174E-02         0.00000E+00
    0.15200E-01         0.77600E-02         0.00000E+00
    0.13872E-01         0.64699E-02         0.00000E+00
    0.12449E-01         0.52590E-02         0.00000E+00
    0.10931E-01         0.41392E-02         0.00000E+00
    0.93221E-02         0.31226E-02         0.00000E+00
    0.76230E-02         0.22212E-02         0.00000E+00
    0.58370E-02         0.14466E-02         0.00000E+00
    0.39680E-02         0.81075E-03         0.00000E+00
    0.20205E-02         0.32485E-03         0.00000E+00
    0.00000E+00         0.00000E+00         0.00000E+00
    0.22223E-01         0.28959E-01         0.00000E+00
    0.22015E-01         0.27733E-01         0.00000E+00
    0.21780E-01         0.26453E-01         0.00000E+00
    0.21510E-01         0.25122E-01         0.00000E+00
    0.21197E-01         0.23746E-01         0.00000E+00
    0.20836E-01         0.22329E-01         0.00000E+00
    0.20419E-01         0.20878E-01         0.00000E+00
    0.19940E-01         0.19400E-01         0.00000E+00
    0.19396E-01         0.17904E-01         0.00000E+00
    0.18782E-01         0.16399E-01         0.00000E+00
    0.18094E-01         0.14893E-01         0.00000E+00
    0.17328E-01         0.13397E-01         0.00000E+00
    0.16483E-01         0.11922E-01         0.00000E+00
    0.15557E-01         0.10478E-01         0.00000E+00
    0.14547E-01         0.90772E-02         0.00000E+00
    0.13454E-01         0.77308E-02         0.00000E+00
    0.12276E-01         0.64504E-02         0.00000E+00
    0.11016E-01         0.52478E-02         0.00000E+00
    0.96718E-02         0.41351E-02         0.00000E+00
    0.82468E-02         0.31240E-02         0.00000E+00
    0.67427E-02         0.22263E-02         0.00000E+00
    0.51621E-02         0.14537E-02         0.00000E+00
    0.35086E-02         0.81777E-03         0.00000E+00
    0.17863E-02         0.32958E-03         0.00000E+00
    0.00000E+00         0.00000E+00         0.00000E+00
    0.19429E-01         0.28770E-01         0.00000E+00
    0.19241E-01         0.27548E-01         0.00000E+00
    0.19029E-01         0.26274E-01         0.00000E+00
    0.18788E-01         0.24952E-01         0.00000E+00
    0.18510E-01         0.23585E-01         0.00000E+00
    0.18189E-01         0.22178E-01         0.00000E+00
    0.17821E-01         0.20739E-01         0.00000E+00
    0.17401E-01         0.19273E-01         0.00000E+00
    0.16923E-01         0.17790E-01         0.00000E+00
    0.16384E-01         0.16297E-01         0.00000E+00
    0.15781E-01         0.14804E-01         0.00000E+00
    0.15112E-01         0.13321E-01         0.00000E+00
    0.14373E-01         0.11858E-01         0.00000E+00
    0.13563E-01         0.10426E-01         0.00000E+00
    0.12682E-01         0.90360E-02         0.00000E+00
    0.11727E-01         0.76996E-02         0.00000E+00
    0.10700E-01         0.64284E-02         0.00000E+00
    0.95999E-02         0.52339E-02         0.00000E+00
    0.84279E-02         0.41279E-02         0.00000E+00
    0.71853E-02         0.31223E-02         0.00000E+00
    0.58740E-02         0.22285E-02         0.00000E+00
    0.44964E-02         0.14583E-02         0.00000E+00
    0.30557E-02         0.82286E-03         0.00000E+00
    0.15554E-02         0.33322E-03         0.00000E+00
    0.00000E+00         0.00000E+00         0.00000E+00
    0.16642E-01         0.28601E-01         0.00000E+00
    0.16476E-01         0.27382E-01         0.00000E+00
    0.16290E-01         0.26113E-01         0.00000E+00
    0.16079E-01         0.24798E-01         0.00000E+00
    0.15838E-01         0.23439E-01         0.00000E+00
    0.15560E-01         0.22041E-01         0.00000E+00
    0.15242E-01         0.20612E-01         0.00000E+00
    0.14880E-01         0.19157E-01         0.00000E+00
    0.14469E-01         0.17685E-01         0.00000E+00
    0.14006E-01         0.16203E-01         0.00000E+00
    0.13489E-01         0.14721E-01         0.00000E+00
    0.12915E-01         0.13249E-01         0.00000E+00
    0.12283E-01         0.11797E-01         0.00000E+00
    0.11590E-01         0.10376E-01         0.00000E+00
    0.10835E-01         0.89959E-02         0.00000E+00
    0.10019E-01         0.76687E-02         0.00000E+00
    0.91401E-02         0.64058E-02         0.00000E+00
    0.81996E-02         0.52187E-02         0.00000E+00
    0.71978E-02         0.41191E-02         0.00000E+00
    0.61359E-02         0.31186E-02         0.00000E+00
    0.50155E-02         0.22287E-02         0.00000E+00
    0.38388E-02         0.14610E-02         0.00000E+00
    0.26085E-02         0.82643E-03         0.00000E+00
    0.13276E-02         0.33596E-03         0.00000E+00
    0.00000E+00         0.00000E+00         0.00000E+00
    0.13860E-01         0.28453E-01         0.00000E+00
    0.13718E-01         0.27237E-01         0.00000E+00
    0.13561E-01         0.25973E-01         0.00000E+00
    0.13382E-01         0.24663E-01         0.00000E+00
    0.13178E-01         0.23311E-01         0.00000E+00
    0.12945E-01         0.21921E-01         0.00000E+00
    0.12679E-01         0.20500E-01         0.00000E+00
    0.12375E-01         0.19055E-01         0.00000E+00
    0.12032E-01         0.17592E-01         0.00000E+00
    0.11646E-01         0.16120E-01         0.00000E+00
    0.11215E-01         0.14648E-01         0.00000E+00
    0.10736E-01         0.13185E-01         0.00000E+00
    0.10209E-01         0.11743E-01         0.00000E+00
    0.96324E-02         0.10330E-01         0.00000E+00
    0.90046E-02         0.89588E-02         0.00000E+00
    0.83254E-02         0.76397E-02         0.00000E+00
    0.75947E-02         0.63841E-02         0.00000E+00
    0.68125E-02         0.52036E-02         0.00000E+00
    0.59797E-02         0.41097E-02         0.00000E+00
    0.50970E-02         0.31139E-02         0.00000E+00
    0.41659E-02         0.22277E-02         0.00000E+00
    0.31882E-02         0.14623E-02         0.00000E+00
    0.21661E-02         0.82886E-03         0.00000E+00
    0.11023E-02         0.33798E-03         0.00000E+00
    0.00000E+00         0.00000E+00         0.00000E+00
    0.11083E-01         0.28330E-01         0.00000E+00
    0.10967E-01         0.27116E-01         0.00000E+00
    0.10839E-01         0.25855E-01         0.00000E+00
    0.10695E-01         0.24550E-01         0.00000E+00
    0.10530E-01         0.23203E-01         0.00000E+00
    0.10342E-01         0.21820E-01         0.00000E+00
    0.10128E-01         0.20406E-01         0.00000E+00
    0.98841E-02         0.18968E-01         0.00000E+00
    0.96088E-02         0.17512E-01         0.00000E+00
    0.92995E-02         0.16048E-01         0.00000E+00
    0.89543E-02         0.14585E-01         0.00000E+00
    0.85717E-02         0.13130E-01         0.00000E+00
    0.81503E-02         0.11695E-01         0.00000E+00
    0.76892E-02         0.10291E-01         0.00000E+00
    0.71875E-02         0.89264E-02         0.00000E+00
    0.66449E-02         0.76140E-02         0.00000E+00
    0.60612E-02         0.63647E-02         0.00000E+00
    0.54366E-02         0.51898E-02         0.00000E+00
    0.47716E-02         0.41007E-02         0.00000E+00
    0.40669E-02         0.31090E-02         0.00000E+00
    0.33238E-02         0.22260E-02         0.00000E+00
    0.25435E-02         0.14628E-02         0.00000E+00
    0.17279E-02         0.83043E-03         0.00000E+00
    0.87926E-03         0.33944E-03         0.00000E+00
    0.00000E+00         0.00000E+00         0.00000E+00
    0.83090E-02         0.28232E-01         0.00000E+00
    0.82211E-02         0.27020E-01         0.00000E+00
    0.81239E-02         0.25762E-01         0.00000E+00
    0.80144E-02         0.24460E-01         0.00000E+00
    0.78901E-02         0.23118E-01         0.00000E+00
    0.77484E-02         0.21740E-01         0.00000E+00
    0.75870E-02         0.20331E-01         0.00000E+00
    0.74038E-02         0.18898E-01         0.00000E+00
    0.71969E-02         0.17449E-01         0.00000E+00
    0.69646E-02         0.15991E-01         0.00000E+00
    0.67056E-02         0.14534E-01         0.00000E+00
    0.64187E-02         0.13086E-01         0.00000E+00
    0.61028E-02         0.11657E-01         0.00000E+00
    0.57571E-02         0.10258E-01         0.00000E+00
    0.53812E-02         0.88999E-02         0.00000E+00
    0.49746E-02         0.75929E-02         0.00000E+00
    0.45374E-02         0.63485E-02         0.00000E+00
    0.40696E-02         0.51781E-02         0.00000E+00
    0.35716E-02         0.40929E-02         0.00000E+00
    0.30440E-02         0.31045E-02         0.00000E+00
    0.24876E-02         0.22241E-02         0.00000E+00
    0.19035E-02         0.14628E-02         0.00000E+00
    0.12930E-02         0.83140E-03         0.00000E+00
    0.65791E-03         0.34045E-03         0.00000E+00
    0.00000E+00         0.00000E+00         0.00000E+00
    0.55379E-02         0.28161E-01         0.00000E+00
    0.54787E-02         0.26951E-01         0.00000E+00
    0.54133E-02         0.25695E-01         0.00000E+00
    0.53399E-02         0.24395E-01         0.00000E+00
    0.52566E-02         0.23056E-01         0.00000E+00
    0.51617E-02         0.21681E-01         0.00000E+00
    0.50538E-02         0.20276E-01         0.00000E+00
    0.49314E-02         0.18848E-01         0.00000E+00
    0.47933E-02         0.17403E-01         0.00000E+00
    0.46384E-02         0.15950E-01         0.00000E+00
    0.44656E-02         0.14497E-01         0.00000E+00
    0.42743E-02         0.13053E-01         0.00000E+00
    0.40637E-02         0.11629E-01         0.00000E+00
    0.38334E-02         0.10235E-01         0.00000E+00
    0.35829E-02         0.88803E-02         0.00000E+00
    0.33121E-02         0.75772E-02         0.00000E+00
    0.30209E-02         0.63364E-02         0.00000E+00
    0.27093E-02         0.51692E-02         0.00000E+00
    0.23777E-02         0.40870E-02         0.00000E+00
    0.20263E-02         0.31010E-02         0.00000E+00
    0.16559E-02         0.22225E-02         0.00000E+00
    0.12670E-02         0.14626E-02         0.00000E+00
    0.86064E-03         0.83196E-03         0.00000E+00
    0.43788E-03         0.34110E-03         0.00000E+00
    0.00000E+00         0.00000E+00         0.00000E+00
    0.27685E-02         0.28118E-01         0.00000E+00
    0.27388E-02         0.26909E-01         0.00000E+00
    0.27059E-02         0.25654E-01         0.00000E+00
    0.26690E-02         0.24356E-01         0.00000E+00
    0.26272E-02         0.23018E-01         0.00000E+00
    0.25797E-02         0.21646E-01         0.00000E+00
    0.25256E-02         0.20243E-01         0.00000E+00
    0.24644E-02         0.18817E-01         0.00000E+00
    0.23953E-02         0.17375E-01         0.00000E+00
    0.23178E-02         0.15925E-01         0.00000E+00
    0.22314E-02         0.14474E-01         0.00000E+00
    0.21357E-02         0.13033E-01         0.00000E+00
    0.20304E-02         0.11612E-01         0.00000E+00
    0.19153E-02         0.10220E-01         0.00000E+00
    0.17901E-02         0.88683E-02         0.00000E+00
    0.16548E-02         0.75675E-02         0.00000E+00
    0.15092E-02         0.63289E-02         0.00000E+00
    0.13535E-02         0.51637E-02         0.00000E+00
    0.11878E-02         0.40832E-02         0.00000E+00
    0.10123E-02         0.30988E-02         0.00000E+00
    0.82718E-03         0.22215E-02         0.00000E+00
    0.63291E-03         0.14624E-02         0.00000E+00
    0.42990E-03         0.83225E-03         0.00000E+00
    0.21872E-03         0.34147E-03         0.00000E+00
    0.00000E+00         0.00000E+00         0.00000E+00
    0.00000E+00         0.28104E-01         0.00000E+00
    0.00000E+00         0.26895E-01         0.00000E+00
    0.00000E+00         0.25640E-01         0.00000E+00
    0.00000E+00         0.24343E-01         0.00000E+00
    0.00000E+00         0.23006E-01         0.00000E+00
    0.00000E+00         0.21634E-01         0.00000E+00
    0.00000E+00         0.20232E-01         0.00000E+00
    0.00000E+00         0.18807E-01         0.00000E+00
    0.00000E+00         0.17366E-01         0.00000E+00
    0.00000E+00         0.15916E-01         0.00000E+00
    0.00000E+00         0.14467E-01         0.00000E+00
    0.00000E+00         0.13027E-01         0.00000E+00
    0.00000E+00         0.11606E-01         0.00000E+00
    0.00000E+00         0.10215E-01         0.00000E+00
    0.00000E+00         0.88642E-02         0.00000E+00
    0.00000E+00         0.75643E-02         0.00000E+00
    0.00000E+00         0.63264E-02         0.00000E+00
    0.00000E+00         0.51619E-02         0.00000E+00
    0.00000E+00         0.40820E-02         0.00000E+00
    0.00000E+00         0.30980E-02         0.00000E+00
    0.00000E+00         0.22211E-02         0.00000E+00
    0.00000E+00         0.14623E-02         0.00000E+00
    0.00000E+00         0.83233E-03         0.00000E+00
    0.00000E+00         0.34158E-03         0.00000E+00
    0.00000E+00         0.00000E+00         0.00000E+00
CELL_DATA       1152
VECTORS vDarcy double 
    0.56978E-03         0.55775E-03         0.00000E+00
    0.43655E-03         0.14977E-02         0.00000E+00
    0.27185E-03         0.21164E-02         0.00000E+00
    0.15276E-03         0.24161E-02         0.00000E+00
    0.95852E-04         0.25496E-02         0.00000E+00
    0.65286E-04         0.25915E-02         0.00000E+00
    0.48201E-04         0.25781E-02         0.00000E+00
    0.38206E-04         0.25285E-02         0.00000E+00
    0.32170E-04         0.24529E-02         0.00000E+00
    0.28445E-04         0.23575E-02         0.00000E+00
    0.26115E-04         0.22464E-02         0.00000E+00
    0.24644E-04         0.21221E-02         0.00000E+00
    0.23705E-04         0.19866E-02         0.00000E+00
    0.23095E-04         0.18416E-02         0.00000E+00
    0.22707E-04         0.16885E-02         0.00000E+00
    0.22387E-04         0.15287E-02         0.00000E+00
    0.22326E-04         0.13629E-02         0.00000E+00
    0.22679E-04         0.11922E-02         0.00000E+00
    0.23111E-04         0.10151E-02         0.00000E+00
    0.23440E-04         0.83382E-03         0.00000E+00
    0.23699E-04         0.65097E-03         0.00000E+00
    0.23921E-04         0.46584E-03         0.00000E+00
    0.24080E-04         0.27949E-03         0.00000E+00
    0.24160E-04         0.92890E-04         0.00000E+00
    0.18912E-02         0.71224E-03         0.00000E+00
    0.13337E-02         0.20339E-02         0.00000E+00
    0.69487E-03         0.23837E-02         0.00000E+00
    0.41253E-03         0.25502E-02         0.00000E+00
    0.26423E-03         0.26207E-02         0.00000E+00
    0.18395E-03         0.26312E-02         0.00000E+00
    0.13807E-03         0.26014E-02         0.00000E+00
    0.11084E-03         0.25425E-02         0.00000E+00
    0.94216E-04         0.24615E-02         0.00000E+00
    0.83893E-04         0.23629E-02         0.00000E+00
    0.77419E-04         0.22498E-02         0.00000E+00
    0.73336E-04         0.21243E-02         0.00000E+00
    0.70743E-04         0.19880E-02         0.00000E+00
    0.69083E-04         0.18425E-02         0.00000E+00
    0.68054E-04         0.16890E-02         0.00000E+00
    0.67597E-04         0.15289E-02         0.00000E+00
    0.67446E-04         0.13629E-02         0.00000E+00
    0.67954E-04         0.11914E-02         0.00000E+00
    0.69161E-04         0.10143E-02         0.00000E+00
    0.70228E-04         0.83324E-03         0.00000E+00
    0.71060E-04         0.65045E-03         0.00000E+00
    0.71749E-04         0.46544E-03         0.00000E+00
    0.72229E-04         0.27925E-03         0.00000E+00
    0.72467E-04         0.92814E-04         0.00000E+00
    0.43943E-02         0.33182E-02         0.00000E+00
    0.14989E-02         0.28808E-02         0.00000E+00
    0.88571E-03         0.27888E-02         0.00000E+00
    0.55234E-03         0.27608E-02         0.00000E+00
    0.37414E-03         0.27366E-02         0.00000E+00
    0.27159E-03         0.26981E-02         0.00000E+00
    0.21055E-03         0.26414E-02         0.00000E+00
    0.17320E-03         0.25670E-02         0.00000E+00
    0.14994E-03         0.24768E-02         0.00000E+00
    0.13531E-03         0.23726E-02         0.00000E+00
    0.12610E-03         0.22559E-02         0.00000E+00
    0.12033E-03         0.21281E-02         0.00000E+00
    0.11673E-03         0.19904E-02         0.00000E+00
    0.11445E-03         0.18441E-02         0.00000E+00
    0.11293E-03         0.16900E-02         0.00000E+00
    0.11207E-03         0.15292E-02         0.00000E+00
    0.11201E-03         0.13628E-02         0.00000E+00
    0.11304E-03         0.11899E-02         0.00000E+00
    0.11501E-03         0.10126E-02         0.00000E+00
    0.11692E-03         0.83201E-03         0.00000E+00
    0.11839E-03         0.64939E-03         0.00000E+00
    0.11955E-03         0.46465E-03         0.00000E+00
    0.12034E-03         0.27877E-03         0.00000E+00
    0.12073E-03         0.92667E-04         0.00000E+00
    0.74733E-03         0.50729E-02         0.00000E+00
    0.12146E-02         0.35543E-02         0.00000E+00
    0.79567E-03         0.31475E-02         0.00000E+00
    0.56489E-03         0.29662E-02         0.00000E+00
    0.41526E-03         0.28590E-02         0.00000E+00
    0.32065E-03         0.27729E-02         0.00000E+00
    0.26029E-03         0.26880E-02         0.00000E+00
    0.22160E-03         0.25965E-02         0.00000E+00
    0.19676E-03         0.24955E-02         0.00000E+00
    0.18088E-03         0.23844E-02         0.00000E+00
    0.17088E-03         0.22632E-02         0.00000E+00
    0.16474E-03         0.21326E-02         0.00000E+00
    0.16110E-03         0.19931E-02         0.00000E+00
    0.15907E-03         0.18457E-02         0.00000E+00
    0.15807E-03         0.16910E-02         0.00000E+00
    0.15763E-03         0.15296E-02         0.00000E+00
    0.15803E-03         0.13621E-02         0.00000E+00
    0.15937E-03         0.11883E-02         0.00000E+00
    0.16146E-03         0.10102E-02         0.00000E+00
    0.16382E-03         0.83013E-03         0.00000E+00
    0.16580E-03         0.64783E-03         0.00000E+00
    0.16733E-03         0.46351E-03         0.00000E+00
    0.16835E-03         0.27810E-03         0.00000E+00
    0.16885E-03         0.92457E-04         0.00000E+00
    0.23060E-03         0.40950E-02         0.00000E+00
    0.55050E-03         0.37450E-02         0.00000E+00
    0.59004E-03         0.33362E-02         0.00000E+00
    0.49114E-03         0.31072E-02         0.00000E+00
    0.40291E-03         0.29559E-02         0.00000E+00
    0.33572E-03         0.28378E-02         0.00000E+00
    0.28816E-03         0.27310E-02         0.00000E+00
    0.25563E-03         0.26247E-02         0.00000E+00
    0.23392E-03         0.25138E-02         0.00000E+00
    0.21983E-03         0.23960E-02         0.00000E+00
    0.21105E-03         0.22704E-02         0.00000E+00
    0.20592E-03         0.21367E-02         0.00000E+00
    0.20329E-03         0.19953E-02         0.00000E+00
    0.20237E-03         0.18465E-02         0.00000E+00
    0.20265E-03         0.16909E-02         0.00000E+00
    0.20388E-03         0.15289E-02         0.00000E+00
    0.20571E-03         0.13605E-02         0.00000E+00
    0.20758E-03         0.11866E-02         0.00000E+00
    0.20932E-03         0.10080E-02         0.00000E+00
    0.21125E-03         0.82797E-03         0.00000E+00
    0.21327E-03         0.64599E-03         0.00000E+00
    0.21494E-03         0.46216E-03         0.00000E+00
    0.21608E-03         0.27728E-03         0.00000E+00
    0.21665E-03         0.92200E-04         0.00000E+00
    0.11727E-03         0.37471E-02         0.00000E+00
    0.30441E-03         0.35858E-02         0.00000E+00
    0.39129E-03         0.33689E-02         0.00000E+00
    0.39502E-03         0.31696E-02         0.00000E+00
    0.36339E-03         0.30133E-02         0.00000E+00
    0.32861E-03         0.28824E-02         0.00000E+00
    0.29939E-03         0.27632E-02         0.00000E+00
    0.27751E-03         0.26469E-02         0.00000E+00
    0.26226E-03         0.25286E-02         0.00000E+00
    0.25234E-03         0.24053E-02         0.00000E+00
    0.24646E-03         0.22758E-02         0.00000E+00
    0.24355E-03         0.21394E-02         0.00000E+00
    0.24279E-03         0.19960E-02         0.00000E+00
    0.24355E-03         0.18459E-02         0.00000E+00
    0.24542E-03         0.16893E-02         0.00000E+00
    0.24805E-03         0.15266E-02         0.00000E+00
    0.25107E-03         0.13580E-02         0.00000E+00
    0.25405E-03         0.11843E-02         0.00000E+00
    0.25649E-03         0.10062E-02         0.00000E+00
    0.25846E-03         0.82593E-03         0.00000E+00
    0.26035E-03         0.64411E-03         0.00000E+00
    0.26201E-03         0.46071E-03         0.00000E+00
    0.26320E-03         0.27640E-03         0.00000E+00
    0.26381E-03         0.91909E-04         0.00000E+00
    0.72017E-04         0.35578E-02         0.00000E+00
    0.19737E-03         0.34626E-02         0.00000E+00
    0.27851E-03         0.33241E-02         0.00000E+00
    0.31424E-03         0.31750E-02         0.00000E+00
    0.31976E-03         0.30340E-02         0.00000E+00
    0.31179E-03         0.29044E-02         0.00000E+00
    0.30067E-03         0.27815E-02         0.00000E+00
    0.29077E-03         0.26604E-02         0.00000E+00
    0.28358E-03         0.25376E-02         0.00000E+00
    0.27924E-03         0.24106E-02         0.00000E+00
    0.27741E-03         0.22782E-02         0.00000E+00
    0.27760E-03         0.21397E-02         0.00000E+00
    0.27932E-03         0.19948E-02         0.00000E+00
    0.28217E-03         0.18435E-02         0.00000E+00
    0.28579E-03         0.16862E-02         0.00000E+00
    0.28987E-03         0.15230E-02         0.00000E+00
    0.29406E-03         0.13544E-02         0.00000E+00
    0.29798E-03         0.11810E-02         0.00000E+00
    0.30131E-03         0.10037E-02         0.00000E+00
    0.30398E-03         0.82378E-03         0.00000E+00
    0.30618E-03         0.64216E-03         0.00000E+00
    0.30799E-03         0.45919E-03         0.00000E+00
    0.30927E-03         0.27544E-03         0.00000E+00
    0.30993E-03         0.91588E-04         0.00000E+00
    0.50975E-04         0.34348E-02         0.00000E+00
    0.14401E-03         0.33672E-02         0.00000E+00
    0.21485E-03         0.32675E-02         0.00000E+00
    0.25992E-03         0.31508E-02         0.00000E+00
    0.28375E-03         0.30289E-02         0.00000E+00
    0.29411E-03         0.29072E-02         0.00000E+00
    0.29775E-03         0.27862E-02         0.00000E+00
    0.29896E-03         0.26644E-02         0.00000E+00
    0.29997E-03         0.25398E-02         0.00000E+00
    0.30172E-03         0.24110E-02         0.00000E+00
    0.30451E-03         0.22769E-02         0.00000E+00
    0.30830E-03         0.21370E-02         0.00000E+00
    0.31290E-03         0.19911E-02         0.00000E+00
    0.31809E-03         0.18392E-02         0.00000E+00
    0.32363E-03         0.16814E-02         0.00000E+00
    0.32926E-03         0.15181E-02         0.00000E+00
    0.33471E-03         0.13497E-02         0.00000E+00
    0.33967E-03         0.11768E-02         0.00000E+00
    0.34393E-03         0.10003E-02         0.00000E+00
    0.34743E-03         0.82104E-03         0.00000E+00
    0.35022E-03         0.63991E-03         0.00000E+00
    0.35237E-03         0.45750E-03         0.00000E+00
    0.35384E-03         0.27439E-03         0.00000E+00
    0.35460E-03         0.91226E-04         0.00000E+00
    0.40060E-04         0.33438E-02         0.00000E+00
    0.11531E-03         0.32900E-02         0.00000E+00
    0.17812E-03         0.32111E-02         0.00000E+00
    0.22540E-03         0.31149E-02         0.00000E+00
    0.25817E-03         0.30082E-02         0.00000E+00
    0.27987E-03         0.28958E-02         0.00000E+00
    0.29438E-03         0.27795E-02         0.00000E+00
    0.30483E-03         0.26595E-02         0.00000E+00
    0.31330E-03         0.25352E-02         0.00000E+00
    0.32098E-03         0.24061E-02         0.00000E+00
    0.32848E-03         0.22715E-02         0.00000E+00
    0.33603E-03         0.21311E-02         0.00000E+00
    0.34369E-03         0.19848E-02         0.00000E+00
    0.35138E-03         0.18326E-02         0.00000E+00
    0.35895E-03         0.16748E-02         0.00000E+00
    0.36624E-03         0.15117E-02         0.00000E+00
    0.37304E-03         0.13438E-02         0.00000E+00
    0.37915E-03         0.11716E-02         0.00000E+00
    0.38441E-03         0.99593E-03         0.00000E+00
    0.38877E-03         0.81753E-03         0.00000E+00
    0.39223E-03         0.63716E-03         0.00000E+00
    0.39483E-03         0.45549E-03         0.00000E+00
    0.39658E-03         0.27316E-03         0.00000E+00
    0.39746E-03         0.90811E-04         0.00000E+00
    0.34071E-04         0.32696E-02         0.00000E+00
    0.99216E-04         0.32237E-02         0.00000E+00
    0.15666E-03         0.31572E-02         0.00000E+00
    0.20413E-03         0.30741E-02         0.00000E+00
    0.24151E-03         0.29788E-02         0.00000E+00
    0.27023E-03         0.28747E-02         0.00000E+00
    0.29242E-03         0.27638E-02         0.00000E+00
    0.31012E-03         0.26470E-02         0.00000E+00
    0.32494E-03         0.25244E-02         0.00000E+00
    0.33800E-03         0.23961E-02         0.00000E+00
    0.34996E-03         0.22619E-02         0.00000E+00
    0.36122E-03         0.21218E-02         0.00000E+00
    0.37194E-03         0.19757E-02         0.00000E+00
    0.38216E-03         0.18238E-02         0.00000E+00
    0.39182E-03         0.16664E-02         0.00000E+00
    0.40084E-03         0.15039E-02         0.00000E+00
    0.40907E-03         0.13366E-02         0.00000E+00
    0.41638E-03         0.11653E-02         0.00000E+00
    0.42268E-03         0.99064E-03         0.00000E+00
    0.42791E-03         0.81323E-03         0.00000E+00
    0.43206E-03         0.63384E-03         0.00000E+00
    0.43515E-03         0.45312E-03         0.00000E+00
    0.43721E-03         0.27174E-03         0.00000E+00
    0.43824E-03         0.90334E-04         0.00000E+00
    0.30712E-04         0.32049E-02         0.00000E+00
    0.90079E-04         0.31640E-02         0.00000E+00
    0.14423E-03         0.31053E-02         0.00000E+00
    0.19153E-03         0.30312E-02         0.00000E+00
    0.23154E-03         0.29444E-02         0.00000E+00
    0.26481E-03         0.28472E-02         0.00000E+00
    0.29245E-03         0.27415E-02         0.00000E+00
    0.31572E-03         0.26283E-02         0.00000E+00
    0.33577E-03         0.25082E-02         0.00000E+00
    0.35349E-03         0.23816E-02         0.00000E+00
    0.36952E-03         0.22485E-02         0.00000E+00
    0.38424E-03         0.21092E-02         0.00000E+00
    0.39790E-03         0.19639E-02         0.00000E+00
    0.41059E-03         0.18127E-02         0.00000E+00
    0.42234E-03         0.16561E-02         0.00000E+00
    0.43309E-03         0.14944E-02         0.00000E+00
    0.44278E-03         0.13282E-02         0.00000E+00
    0.45132E-03         0.11580E-02         0.00000E+00
    0.45866E-03         0.98440E-03         0.00000E+00
    0.46475E-03         0.80816E-03         0.00000E+00
    0.46958E-03         0.62992E-03         0.00000E+00
    0.47318E-03         0.45034E-03         0.00000E+00
    0.47556E-03         0.27008E-03         0.00000E+00
    0.47674E-03         0.89787E-04         0.00000E+00
    0.28854E-04         0.31453E-02         0.00000E+00
    0.85005E-04         0.31080E-02         0.00000E+00
    0.13730E-03         0.30548E-02         0.00000E+00
    0.18457E-03         0.29871E-02         0.00000E+00
    0.22635E-03         0.29067E-02         0.00000E+00
    0.26277E-03         0.28152E-02         0.00000E+00
    0.29437E-03         0.27142E-02         0.00000E+00
    0.32194E-03         0.26047E-02         0.00000E+00
    0.34623E-03         0.24875E-02         0.00000E+00
    0.36791E-03         0.23629E-02         0.00000E+00
    0.38751E-03         0.22315E-02         0.00000E+00
    0.40538E-03         0.20936E-02         0.00000E+00
    0.42177E-03         0.19494E-02         0.00000E+00
    0.43682E-03         0.17994E-02         0.00000E+00
    0.45056E-03         0.16439E-02         0.00000E+00
    0.46302E-03         0.14834E-02         0.00000E+00
    0.47414E-03         0.13184E-02         0.00000E+00
    0.48390E-03         0.11495E-02         0.00000E+00
    0.49226E-03         0.97722E-03         0.00000E+00
    0.49919E-03         0.80232E-03         0.00000E+00
    0.50469E-03         0.62542E-03         0.00000E+00
    0.50878E-03         0.44716E-03         0.00000E+00
    0.51147E-03         0.26819E-03         0.00000E+00
    0.51280E-03         0.89168E-04         0.00000E+00
    0.27892E-04         0.30885E-02         0.00000E+00
    0.82392E-04         0.30541E-02         0.00000E+00
    0.13381E-03         0.30050E-02         0.00000E+00
    0.18131E-03         0.29421E-02         0.00000E+00
    0.22446E-03         0.28667E-02         0.00000E+00
    0.26321E-03         0.27800E-02         0.00000E+00
    0.29783E-03         0.26832E-02         0.00000E+00
    0.32875E-03         0.25773E-02         0.00000E+00
    0.35647E-03         0.24629E-02         0.00000E+00
    0.38148E-03         0.23408E-02         0.00000E+00
    0.40417E-03         0.22114E-02         0.00000E+00
    0.42484E-03         0.20752E-02         0.00000E+00
    0.44372E-03         0.19326E-02         0.00000E+00
    0.46093E-03         0.17840E-02         0.00000E+00
    0.47656E-03         0.16299E-02         0.00000E+00
    0.49063E-03         0.14708E-02         0.00000E+00
    0.50314E-03         0.13073E-02         0.00000E+00
    0.51407E-03         0.11399E-02         0.00000E+00
    0.52341E-03         0.96913E-03         0.00000E+00
    0.53114E-03         0.79575E-03         0.00000E+00
    0.53728E-03         0.62035E-03         0.00000E+00
    0.54183E-03         0.44358E-03         0.00000E+00
    0.54483E-03         0.26607E-03         0.00000E+00
    0.54630E-03         0.88479E-04         0.00000E+00
    0.27478E-04         0.30332E-02         0.00000E+00
    0.81299E-04         0.30012E-02         0.00000E+00
    0.13249E-03         0.29553E-02         0.00000E+00
    0.18043E-03         0.28963E-02         0.00000E+00
    0.22477E-03         0.28250E-02         0.00000E+00
    0.26538E-03         0.27424E-02         0.00000E+00
    0.30236E-03         0.26493E-02         0.00000E+00
    0.33596E-03         0.25467E-02         0.00000E+00
    0.36648E-03         0.24352E-02         0.00000E+00
    0.39427E-03         0.23157E-02         0.00000E+00
    0.41960E-03         0.21885E-02         0.00000E+00
    0.44272E-03         0.20543E-02         0.00000E+00
    0.46381E-03         0.19135E-02         0.00000E+00
    0.48300E-03         0.17667E-02         0.00000E+00
    0.50036E-03         0.16143E-02         0.00000E+00
    0.51594E-03         0.14568E-02         0.00000E+00
    0.52974E-03         0.12950E-02         0.00000E+00
    0.54177E-03         0.11292E-02         0.00000E+00
    0.55203E-03         0.96018E-03         0.00000E+00
    0.56052E-03         0.78848E-03         0.00000E+00
    0.56725E-03         0.61476E-03         0.00000E+00
    0.57224E-03         0.43963E-03         0.00000E+00
    0.57552E-03         0.26374E-03         0.00000E+00
    0.57713E-03         0.87721E-04         0.00000E+00
    0.27399E-04         0.29783E-02         0.00000E+00
    0.81144E-04         0.29485E-02         0.00000E+00
    0.13252E-03         0.29055E-02         0.00000E+00
    0.18107E-03         0.28497E-02         0.00000E+00
    0.22649E-03         0.27819E-02         0.00000E+00
    0.26864E-03         0.27027E-02         0.00000E+00
    0.30754E-03         0.26130E-02         0.00000E+00
    0.34331E-03         0.25136E-02         0.00000E+00
    0.37614E-03         0.24050E-02         0.00000E+00
    0.40624E-03         0.22880E-02         0.00000E+00
    0.43382E-03         0.21632E-02         0.00000E+00
    0.45905E-03         0.20312E-02         0.00000E+00
    0.48209E-03         0.18925E-02         0.00000E+00
    0.50304E-03         0.17476E-02         0.00000E+00
    0.52197E-03         0.15971E-02         0.00000E+00
    0.53891E-03         0.14415E-02         0.00000E+00
    0.55390E-03         0.12815E-02         0.00000E+00
    0.56695E-03         0.11176E-02         0.00000E+00
    0.57806E-03         0.95042E-03         0.00000E+00
    0.58725E-03         0.78057E-03         0.00000E+00
    0.59452E-03         0.60867E-03         0.00000E+00
    0.59992E-03         0.43534E-03         0.00000E+00
    0.60346E-03         0.26121E-03         0.00000E+00
    0.60520E-03         0.86898E-04         0.00000E+00
    0.27520E-04         0.29234E-02         0.00000E+00
    0.81549E-04         0.28956E-02         0.00000E+00
    0.13336E-03         0.28551E-02         0.00000E+00
    0.18260E-03         0.28023E-02         0.00000E+00
    0.22903E-03         0.27375E-02         0.00000E+00
    0.27250E-03         0.26615E-02         0.00000E+00
    0.31299E-03         0.25749E-02         0.00000E+00
    0.35055E-03         0.24784E-02         0.00000E+00
    0.38528E-03         0.23726E-02         0.00000E+00
    0.41731E-03         0.22583E-02         0.00000E+00
    0.44678E-03         0.21359E-02         0.00000E+00
    0.47383E-03         0.20062E-02         0.00000E+00
    0.49855E-03         0.18697E-02         0.00000E+00
    0.52104E-03         0.17269E-02         0.00000E+00
    0.54135E-03         0.15785E-02         0.00000E+00
    0.55952E-03         0.14250E-02         0.00000E+00
    0.57559E-03         0.12670E-02         0.00000E+00
    0.58955E-03         0.11051E-02         0.00000E+00
    0.60144E-03         0.93992E-03         0.00000E+00
    0.61125E-03         0.77206E-03         0.00000E+00
    0.61903E-03         0.60213E-03         0.00000E+00
    0.62479E-03         0.43073E-03         0.00000E+00
    0.62857E-03         0.25849E-03         0.00000E+00
    0.63043E-03         0.86016E-04         0.00000E+00
    0.27751E-04         0.28681E-02         0.00000E+00
    0.82258E-04         0.28424E-02         0.00000E+00
    0.13463E-03         0.28042E-02         0.00000E+00
    0.18459E-03         0.27540E-02         0.00000E+00
    0.23194E-03         0.26920E-02         0.00000E+00
    0.27656E-03         0.26189E-02         0.00000E+00
    0.31838E-03         0.25352E-02         0.00000E+00
    0.35742E-03         0.24415E-02         0.00000E+00
    0.39371E-03         0.23385E-02         0.00000E+00
    0.42735E-03         0.22268E-02         0.00000E+00
    0.45841E-03         0.21069E-02         0.00000E+00
    0.48699E-03         0.19796E-02         0.00000E+00
    0.51315E-03         0.18454E-02         0.00000E+00
    0.53697E-03         0.17049E-02         0.00000E+00
    0.55849E-03         0.15587E-02         0.00000E+00
    0.57774E-03         0.14074E-02         0.00000E+00
    0.59474E-03         0.12515E-02         0.00000E+00
    0.60952E-03         0.10918E-02         0.00000E+00
    0.62209E-03         0.92876E-03         0.00000E+00
    0.63247E-03         0.76302E-03         0.00000E+00
    0.64069E-03         0.59518E-03         0.00000E+00
    0.64677E-03         0.42584E-03         0.00000E+00
    0.65077E-03         0.25561E-03         0.00000E+00
    0.65273E-03         0.85080E-04         0.00000E+00
    0.28029E-04         0.28123E-02         0.00000E+00
    0.83095E-04         0.27886E-02         0.00000E+00
    0.13606E-03         0.27527E-02         0.00000E+00
    0.18672E-03         0.27049E-02         0.00000E+00
    0.23491E-03         0.26455E-02         0.00000E+00
    0.28050E-03         0.25751E-02         0.00000E+00
    0.32343E-03         0.24942E-02         0.00000E+00
    0.36368E-03         0.24032E-02         0.00000E+00
    0.40127E-03         0.23029E-02         0.00000E+00
    0.43622E-03         0.21938E-02         0.00000E+00
    0.46860E-03         0.20765E-02         0.00000E+00
    0.49846E-03         0.19516E-02         0.00000E+00
    0.52583E-03         0.18198E-02         0.00000E+00
    0.55078E-03         0.16817E-02         0.00000E+00
    0.57333E-03         0.15378E-02         0.00000E+00
    0.59350E-03         0.13888E-02         0.00000E+00
    0.61132E-03         0.12353E-02         0.00000E+00
    0.62681E-03         0.10778E-02         0.00000E+00
    0.63998E-03         0.91702E-03         0.00000E+00
    0.65085E-03         0.75351E-03         0.00000E+00
    0.65945E-03         0.58787E-03         0.00000E+00
    0.66582E-03         0.42069E-03         0.00000E+00
    0.67000E-03         0.25257E-03         0.00000E+00
    0.67206E-03         0.84097E-04         0.00000E+00
    0.28309E-04         0.27560E-02         0.00000E+00
    0.83931E-04         0.27342E-02         0.00000E+00
    0.13747E-03         0.27005E-02         0.00000E+00
    0.18876E-03         0.26551E-02         0.00000E+00
    0.23767E-03         0.25982E-02         0.00000E+00
    0.28407E-03         0.25304E-02         0.00000E+00
    0.32791E-03         0.24521E-02         0.00000E+00
    0.36915E-03         0.23638E-02         0.00000E+00
    0.40778E-03         0.22661E-02         0.00000E+00
    0.44381E-03         0.21596E-02         0.00000E+00
    0.47726E-03         0.20448E-02         0.00000E+00
    0.50816E-03         0.19225E-02         0.00000E+00
    0.53653E-03         0.17932E-02         0.00000E+00
    0.56241E-03         0.16575E-02         0.00000E+00
    0.58582E-03         0.15160E-02         0.00000E+00
    0.60677E-03         0.13694E-02         0.00000E+00
    0.62528E-03         0.12183E-02         0.00000E+00
    0.64136E-03         0.10632E-02         0.00000E+00
    0.65504E-03         0.90478E-03         0.00000E+00
    0.66633E-03         0.74359E-03         0.00000E+00
    0.67526E-03         0.58025E-03         0.00000E+00
    0.68187E-03         0.41533E-03         0.00000E+00
    0.68622E-03         0.24941E-03         0.00000E+00
    0.68835E-03         0.83072E-04         0.00000E+00
    0.28559E-04         0.26991E-02         0.00000E+00
    0.84674E-04         0.26794E-02         0.00000E+00
    0.13871E-03         0.26478E-02         0.00000E+00
    0.19053E-03         0.26047E-02         0.00000E+00
    0.24002E-03         0.25503E-02         0.00000E+00
    0.28708E-03         0.24849E-02         0.00000E+00
    0.33164E-03         0.24092E-02         0.00000E+00
    0.37366E-03         0.23235E-02         0.00000E+00
    0.41311E-03         0.22283E-02         0.00000E+00
    0.44998E-03         0.21244E-02         0.00000E+00
    0.48428E-03         0.20122E-02         0.00000E+00
    0.51601E-03         0.18925E-02         0.00000E+00
    0.54518E-03         0.17657E-02         0.00000E+00
    0.57181E-03         0.16325E-02         0.00000E+00
    0.59591E-03         0.14935E-02         0.00000E+00
    0.61749E-03         0.13494E-02         0.00000E+00
    0.63657E-03         0.12007E-02         0.00000E+00
    0.65314E-03         0.10481E-02         0.00000E+00
    0.66723E-03         0.89211E-03         0.00000E+00
    0.67887E-03         0.73334E-03         0.00000E+00
    0.68807E-03         0.57237E-03         0.00000E+00
    0.69489E-03         0.40978E-03         0.00000E+00
    0.69937E-03         0.24614E-03         0.00000E+00
    0.70156E-03         0.82011E-04         0.00000E+00
    0.28754E-04         0.26418E-02         0.00000E+00
    0.85253E-04         0.26241E-02         0.00000E+00
    0.13967E-03         0.25947E-02         0.00000E+00
    0.19190E-03         0.25538E-02         0.00000E+00
    0.24183E-03         0.25017E-02         0.00000E+00
    0.28937E-03         0.24389E-02         0.00000E+00
    0.33447E-03         0.23656E-02         0.00000E+00
    0.37706E-03         0.22824E-02         0.00000E+00
    0.41713E-03         0.21899E-02         0.00000E+00
    0.45463E-03         0.20885E-02         0.00000E+00
    0.48956E-03         0.19789E-02         0.00000E+00
    0.52193E-03         0.18617E-02         0.00000E+00
    0.55171E-03         0.17375E-02         0.00000E+00
    0.57892E-03         0.16069E-02         0.00000E+00
    0.60356E-03         0.14704E-02         0.00000E+00
    0.62564E-03         0.13289E-02         0.00000E+00
    0.64515E-03         0.11827E-02         0.00000E+00
    0.66211E-03         0.10326E-02         0.00000E+00
    0.67653E-03         0.87910E-03         0.00000E+00
    0.68844E-03         0.72280E-03         0.00000E+00
    0.69786E-03         0.56427E-03         0.00000E+00
    0.70484E-03         0.40408E-03         0.00000E+00
    0.70942E-03         0.24278E-03         0.00000E+00
    0.71167E-03         0.80922E-04         0.00000E+00
    0.28878E-04         0.25842E-02         0.00000E+00
    0.85617E-04         0.25685E-02         0.00000E+00
    0.14027E-03         0.25412E-02         0.00000E+00
    0.19275E-03         0.25026E-02         0.00000E+00
    0.24296E-03         0.24528E-02         0.00000E+00
    0.29082E-03         0.23924E-02         0.00000E+00
    0.33627E-03         0.23216E-02         0.00000E+00
    0.37925E-03         0.22409E-02         0.00000E+00
    0.41973E-03         0.21509E-02         0.00000E+00
    0.45766E-03         0.20521E-02         0.00000E+00
    0.49305E-03         0.19450E-02         0.00000E+00
    0.52585E-03         0.18304E-02         0.00000E+00
    0.55607E-03         0.17088E-02         0.00000E+00
    0.58370E-03         0.15807E-02         0.00000E+00
    0.60873E-03         0.14469E-02         0.00000E+00
    0.63116E-03         0.13079E-02         0.00000E+00
    0.65099E-03         0.11643E-02         0.00000E+00
    0.66824E-03         0.10168E-02         0.00000E+00
    0.68291E-03         0.86583E-03         0.00000E+00
    0.69502E-03         0.71205E-03         0.00000E+00
    0.70460E-03         0.55601E-03         0.00000E+00
    0.71170E-03         0.39827E-03         0.00000E+00
    0.71636E-03         0.23935E-03         0.00000E+00
    0.71865E-03         0.79809E-04         0.00000E+00
    0.28915E-04         0.25264E-02         0.00000E+00
    0.85726E-04         0.25127E-02         0.00000E+00
    0.14045E-03         0.24876E-02         0.00000E+00
    0.19302E-03         0.24511E-02         0.00000E+00
    0.24333E-03         0.24037E-02         0.00000E+00
    0.29133E-03         0.23456E-02         0.00000E+00
    0.33694E-03         0.22772E-02         0.00000E+00
    0.38012E-03         0.21990E-02         0.00000E+00
    0.42083E-03         0.21115E-02         0.00000E+00
    0.45901E-03         0.20153E-02         0.00000E+00
    0.49466E-03         0.19108E-02         0.00000E+00
    0.52773E-03         0.17988E-02         0.00000E+00
    0.55822E-03         0.16797E-02         0.00000E+00
    0.58610E-03         0.15543E-02         0.00000E+00
    0.61138E-03         0.14231E-02         0.00000E+00
    0.63404E-03         0.12867E-02         0.00000E+00
    0.65409E-03         0.11457E-02         0.00000E+00
    0.67152E-03         0.10007E-02         0.00000E+00
    0.68635E-03         0.85237E-03         0.00000E+00
    0.69859E-03         0.70115E-03         0.00000E+00
    0.70829E-03         0.54764E-03         0.00000E+00
    0.71547E-03         0.39237E-03         0.00000E+00
    0.72018E-03         0.23587E-03         0.00000E+00
    0.72250E-03         0.78680E-04         0.00000E+00
    0.28858E-04         0.24686E-02         0.00000E+00
    0.85553E-04         0.24570E-02         0.00000E+00
    0.14017E-03         0.24339E-02         0.00000E+00
    0.19264E-03         0.23997E-02         0.00000E+00
    0.24288E-03         0.23546E-02         0.00000E+00
    0.29083E-03         0.22988E-02         0.00000E+00
    0.33643E-03         0.22328E-02         0.00000E+00
    0.37962E-03         0.21571E-02         0.00000E+00
    0.42037E-03         0.20721E-02         0.00000E+00
    0.45862E-03         0.19783E-02         0.00000E+00
    0.49435E-03         0.18764E-02         0.00000E+00
    0.52752E-03         0.17669E-02         0.00000E+00
    0.55812E-03         0.16505E-02         0.00000E+00
    0.58612E-03         0.15276E-02         0.00000E+00
    0.61151E-03         0.13990E-02         0.00000E+00
    0.63427E-03         0.12653E-02         0.00000E+00
    0.65442E-03         0.11269E-02         0.00000E+00
    0.67194E-03         0.98457E-03         0.00000E+00
    0.68685E-03         0.83880E-03         0.00000E+00
    0.69917E-03         0.69016E-03         0.00000E+00
    0.70892E-03         0.53919E-03         0.00000E+00
    0.71615E-03         0.38641E-03         0.00000E+00
    0.72089E-03         0.23236E-03         0.00000E+00
    0.72323E-03         0.77540E-04         0.00000E+00
    0.28698E-04         0.24111E-02         0.00000E+00
    0.85076E-04         0.24014E-02         0.00000E+00
    0.13939E-03         0.23805E-02         0.00000E+00
    0.19157E-03         0.23485E-02         0.00000E+00
    0.24155E-03         0.23056E-02         0.00000E+00
    0.28927E-03         0.22521E-02         0.00000E+00
    0.33467E-03         0.21885E-02         0.00000E+00
    0.37770E-03         0.21152E-02         0.00000E+00
    0.41830E-03         0.20326E-02         0.00000E+00
    0.45645E-03         0.19414E-02         0.00000E+00
    0.49209E-03         0.18420E-02         0.00000E+00
    0.52520E-03         0.17351E-02         0.00000E+00
    0.55575E-03         0.16212E-02         0.00000E+00
    0.58373E-03         0.15009E-02         0.00000E+00
    0.60910E-03         0.13750E-02         0.00000E+00
    0.63186E-03         0.12438E-02         0.00000E+00
    0.65200E-03         0.11081E-02         0.00000E+00
    0.66952E-03         0.96835E-03         0.00000E+00
    0.68444E-03         0.82519E-03         0.00000E+00
    0.69676E-03         0.67913E-03         0.00000E+00
    0.70652E-03         0.53070E-03         0.00000E+00
    0.71375E-03         0.38044E-03         0.00000E+00
    0.71851E-03         0.22883E-03         0.00000E+00
    0.72085E-03         0.76395E-04         0.00000E+00
    0.28431E-04         0.23539E-02         0.00000E+00
    0.84284E-04         0.23463E-02         0.00000E+00
    0.13809E-03         0.23275E-02         0.00000E+00
    0.18979E-03         0.22976E-02         0.00000E+00
    0.23932E-03         0.22569E-02         0.00000E+00
    0.28662E-03         0.22058E-02         0.00000E+00
    0.33163E-03         0.21445E-02         0.00000E+00
    0.37431E-03         0.20735E-02         0.00000E+00
    0.41461E-03         0.19934E-02         0.00000E+00
    0.45247E-03         0.19046E-02         0.00000E+00
    0.48787E-03         0.18077E-02         0.00000E+00
    0.52077E-03         0.17033E-02         0.00000E+00
    0.55113E-03         0.15920E-02         0.00000E+00
    0.57894E-03         0.14743E-02         0.00000E+00
    0.60417E-03         0.13509E-02         0.00000E+00
    0.62681E-03         0.12224E-02         0.00000E+00
    0.64685E-03         0.10893E-02         0.00000E+00
    0.66429E-03         0.95217E-03         0.00000E+00
    0.67913E-03         0.81160E-03         0.00000E+00
    0.69140E-03         0.66812E-03         0.00000E+00
    0.70112E-03         0.52224E-03         0.00000E+00
    0.70833E-03         0.37447E-03         0.00000E+00
    0.71306E-03         0.22531E-03         0.00000E+00
    0.71540E-03         0.75250E-04         0.00000E+00
    0.28054E-04         0.22974E-02         0.00000E+00
    0.83168E-04         0.22919E-02         0.00000E+00
    0.13626E-03         0.22751E-02         0.00000E+00
    0.18728E-03         0.22473E-02         0.00000E+00
    0.23617E-03         0.22088E-02         0.00000E+00
    0.28286E-03         0.21599E-02         0.00000E+00
    0.32731E-03         0.21009E-02         0.00000E+00
    0.36947E-03         0.20323E-02         0.00000E+00
    0.40928E-03         0.19545E-02         0.00000E+00
    0.44670E-03         0.18682E-02         0.00000E+00
    0.48169E-03         0.17738E-02         0.00000E+00
    0.51422E-03         0.16719E-02         0.00000E+00
    0.54426E-03         0.15631E-02         0.00000E+00
    0.57177E-03         0.14480E-02         0.00000E+00
    0.59674E-03         0.13271E-02         0.00000E+00
    0.61915E-03         0.12012E-02         0.00000E+00
    0.63899E-03         0.10706E-02         0.00000E+00
    0.65627E-03         0.93611E-03         0.00000E+00
    0.67098E-03         0.79811E-03         0.00000E+00
    0.68313E-03         0.65718E-03         0.00000E+00
    0.69277E-03         0.51382E-03         0.00000E+00
    0.69991E-03         0.36854E-03         0.00000E+00
    0.70461E-03         0.22181E-03         0.00000E+00
    0.70692E-03         0.74111E-04         0.00000E+00
    0.27568E-04         0.22418E-02         0.00000E+00
    0.81726E-04         0.22382E-02         0.00000E+00
    0.13390E-03         0.22235E-02         0.00000E+00
    0.18404E-03         0.21978E-02         0.00000E+00
    0.23209E-03         0.21614E-02         0.00000E+00
    0.27799E-03         0.21147E-02         0.00000E+00
    0.32170E-03         0.20579E-02         0.00000E+00
    0.36315E-03         0.19916E-02         0.00000E+00
    0.40231E-03         0.19162E-02         0.00000E+00
    0.43913E-03         0.18322E-02         0.00000E+00
    0.47357E-03         0.17402E-02         0.00000E+00
    0.50559E-03         0.16408E-02         0.00000E+00
    0.53517E-03         0.15345E-02         0.00000E+00
    0.56226E-03         0.14219E-02         0.00000E+00
    0.58686E-03         0.13036E-02         0.00000E+00
    0.60894E-03         0.11802E-02         0.00000E+00
    0.62849E-03         0.10522E-02         0.00000E+00
    0.64552E-03         0.92023E-03         0.00000E+00
    0.66002E-03         0.78478E-03         0.00000E+00
    0.67201E-03         0.64636E-03         0.00000E+00
    0.68152E-03         0.50550E-03         0.00000E+00
    0.68857E-03         0.36267E-03         0.00000E+00
    0.69321E-03         0.21834E-03         0.00000E+00
    0.69549E-03         0.72982E-04         0.00000E+00
    0.26972E-04         0.21873E-02         0.00000E+00
    0.79961E-04         0.21856E-02         0.00000E+00
    0.13101E-03         0.21729E-02         0.00000E+00
    0.18008E-03         0.21492E-02         0.00000E+00
    0.22710E-03         0.21149E-02         0.00000E+00
    0.27203E-03         0.20703E-02         0.00000E+00
    0.31481E-03         0.20158E-02         0.00000E+00
    0.35540E-03         0.19517E-02         0.00000E+00
    0.39374E-03         0.18786E-02         0.00000E+00
    0.42981E-03         0.17970E-02         0.00000E+00
    0.46354E-03         0.17073E-02         0.00000E+00
    0.49492E-03         0.16103E-02         0.00000E+00
    0.52390E-03         0.15064E-02         0.00000E+00
    0.55046E-03         0.13963E-02         0.00000E+00
    0.57457E-03         0.12805E-02         0.00000E+00
    0.59622E-03         0.11596E-02         0.00000E+00
    0.61540E-03         0.10341E-02         0.00000E+00
    0.63211E-03         0.90462E-03         0.00000E+00
    0.64634E-03         0.77166E-03         0.00000E+00
    0.65811E-03         0.63572E-03         0.00000E+00
    0.66744E-03         0.49731E-03         0.00000E+00
    0.67436E-03         0.35689E-03         0.00000E+00
    0.67892E-03         0.21492E-03         0.00000E+00
    0.68117E-03         0.71869E-04         0.00000E+00
    0.26269E-04         0.21340E-02         0.00000E+00
    0.77878E-04         0.21342E-02         0.00000E+00
    0.12760E-03         0.21234E-02         0.00000E+00
    0.17540E-03         0.21018E-02         0.00000E+00
    0.22121E-03         0.20695E-02         0.00000E+00
    0.26498E-03         0.20270E-02         0.00000E+00
    0.30667E-03         0.19746E-02         0.00000E+00
    0.34622E-03         0.19127E-02         0.00000E+00
    0.38360E-03         0.18418E-02         0.00000E+00
    0.41876E-03         0.17625E-02         0.00000E+00
    0.45165E-03         0.16752E-02         0.00000E+00
    0.48225E-03         0.15805E-02         0.00000E+00
    0.51051E-03         0.14790E-02         0.00000E+00
    0.53642E-03         0.13713E-02         0.00000E+00
    0.55995E-03         0.12579E-02         0.00000E+00
    0.58108E-03         0.11394E-02         0.00000E+00
    0.59980E-03         0.10164E-02         0.00000E+00
    0.61611E-03         0.88934E-03         0.00000E+00
    0.63000E-03         0.75881E-03         0.00000E+00
    0.64150E-03         0.62530E-03         0.00000E+00
    0.65062E-03         0.48928E-03         0.00000E+00
    0.65739E-03         0.35122E-03         0.00000E+00
    0.66185E-03         0.21157E-03         0.00000E+00
    0.66405E-03         0.70776E-04         0.00000E+00
    0.25461E-04         0.20823E-02         0.00000E+00
    0.75485E-04         0.20843E-02         0.00000E+00
    0.12369E-03         0.20754E-02         0.00000E+00
    0.17002E-03         0.20557E-02         0.00000E+00
    0.21444E-03         0.20254E-02         0.00000E+00
    0.25688E-03         0.19849E-02         0.00000E+00
    0.29731E-03         0.19346E-02         0.00000E+00
    0.33567E-03         0.18748E-02         0.00000E+00
    0.37193E-03         0.18061E-02         0.00000E+00
    0.40603E-03         0.17290E-02         0.00000E+00
    0.43795E-03         0.16439E-02         0.00000E+00
    0.46764E-03         0.15515E-02         0.00000E+00
    0.49507E-03         0.14523E-02         0.00000E+00
    0.52022E-03         0.13469E-02         0.00000E+00
    0.54306E-03         0.12359E-02         0.00000E+00
    0.56358E-03         0.11198E-02         0.00000E+00
    0.58177E-03         0.99911E-03         0.00000E+00
    0.59761E-03         0.87445E-03         0.00000E+00
    0.61111E-03         0.74630E-03         0.00000E+00
    0.62229E-03         0.61514E-03         0.00000E+00
    0.63116E-03         0.48145E-03         0.00000E+00
    0.63774E-03         0.34569E-03         0.00000E+00
    0.64208E-03         0.20830E-03         0.00000E+00
    0.64422E-03         0.69709E-04         0.00000E+00
    0.24552E-04         0.20323E-02         0.00000E+00
    0.72793E-04         0.20361E-02         0.00000E+00
    0.11928E-03         0.20290E-02         0.00000E+00
    0.16398E-03         0.20111E-02         0.00000E+00
    0.20682E-03         0.19827E-02         0.00000E+00
    0.24777E-03         0.19442E-02         0.00000E+00
    0.28678E-03         0.18959E-02         0.00000E+00
    0.32379E-03         0.18382E-02         0.00000E+00
    0.35878E-03         0.17715E-02         0.00000E+00
    0.39170E-03         0.16965E-02         0.00000E+00
    0.42251E-03         0.16136E-02         0.00000E+00
    0.45117E-03         0.15234E-02         0.00000E+00
    0.47766E-03         0.14265E-02         0.00000E+00
    0.50195E-03         0.13233E-02         0.00000E+00
    0.52401E-03         0.12146E-02         0.00000E+00
    0.54383E-03         0.11007E-02         0.00000E+00
    0.56140E-03         0.98239E-03         0.00000E+00
    0.57671E-03         0.86002E-03         0.00000E+00
    0.58977E-03         0.73416E-03         0.00000E+00
    0.60058E-03         0.60529E-03         0.00000E+00
    0.60915E-03         0.47386E-03         0.00000E+00
    0.61553E-03         0.34033E-03         0.00000E+00
    0.61973E-03         0.20512E-03         0.00000E+00
    0.62181E-03         0.68671E-04         0.00000E+00
    0.23547E-04         0.19842E-02         0.00000E+00
    0.69816E-04         0.19897E-02         0.00000E+00
    0.11441E-03         0.19843E-02         0.00000E+00
    0.15729E-03         0.19682E-02         0.00000E+00
    0.19839E-03         0.19417E-02         0.00000E+00
    0.23769E-03         0.19050E-02         0.00000E+00
    0.27512E-03         0.18586E-02         0.00000E+00
    0.31065E-03         0.18029E-02         0.00000E+00
    0.34423E-03         0.17383E-02         0.00000E+00
    0.37583E-03         0.16653E-02         0.00000E+00
    0.40540E-03         0.15845E-02         0.00000E+00
    0.43293E-03         0.14964E-02         0.00000E+00
    0.45836E-03         0.14016E-02         0.00000E+00
    0.48169E-03         0.13006E-02         0.00000E+00
    0.50288E-03         0.11940E-02         0.00000E+00
    0.52192E-03         0.10824E-02         0.00000E+00
    0.53881E-03         0.96626E-03         0.00000E+00
    0.55352E-03         0.84612E-03         0.00000E+00
    0.56608E-03         0.72246E-03         0.00000E+00
    0.57647E-03         0.59578E-03         0.00000E+00
    0.58473E-03         0.46653E-03         0.00000E+00
    0.59086E-03         0.33515E-03         0.00000E+00
    0.59491E-03         0.20205E-03         0.00000E+00
    0.59691E-03         0.67668E-04         0.00000E+00
    0.22451E-04         0.19382E-02         0.00000E+00
    0.66569E-04         0.19453E-02         0.00000E+00
    0.10910E-03         0.19416E-02         0.00000E+00
    0.14999E-03         0.19272E-02         0.00000E+00
    0.18920E-03         0.19024E-02         0.00000E+00
    0.22668E-03         0.18675E-02         0.00000E+00
    0.26240E-03         0.18230E-02         0.00000E+00
    0.29629E-03         0.17691E-02         0.00000E+00
    0.32834E-03         0.17064E-02         0.00000E+00
    0.35849E-03         0.16354E-02         0.00000E+00
    0.38672E-03         0.15566E-02         0.00000E+00
    0.41299E-03         0.14705E-02         0.00000E+00
    0.43728E-03         0.13777E-02         0.00000E+00
    0.45955E-03         0.12788E-02         0.00000E+00
    0.47978E-03         0.11744E-02         0.00000E+00
    0.49797E-03         0.10648E-02         0.00000E+00
    0.51410E-03         0.95082E-03         0.00000E+00
    0.52816E-03         0.83279E-03         0.00000E+00
    0.54016E-03         0.71125E-03         0.00000E+00
    0.55010E-03         0.58667E-03         0.00000E+00
    0.55799E-03         0.45950E-03         0.00000E+00
    0.56386E-03         0.33017E-03         0.00000E+00
    0.56774E-03         0.19911E-03         0.00000E+00
    0.56965E-03         0.66703E-04         0.00000E+00
    0.21269E-04         0.18945E-02         0.00000E+00
    0.63068E-04         0.19031E-02         0.00000E+00
    0.10337E-03         0.19009E-02         0.00000E+00
    0.14212E-03         0.18882E-02         0.00000E+00
    0.17928E-03         0.18650E-02         0.00000E+00
    0.21481E-03         0.18319E-02         0.00000E+00
    0.24867E-03         0.17891E-02         0.00000E+00
    0.28080E-03         0.17370E-02         0.00000E+00
    0.31119E-03         0.16761E-02         0.00000E+00
    0.33978E-03         0.16069E-02         0.00000E+00
    0.36655E-03         0.15300E-02         0.00000E+00
    0.39147E-03         0.14459E-02         0.00000E+00
    0.41450E-03         0.13551E-02         0.00000E+00
    0.43563E-03         0.12581E-02         0.00000E+00
    0.45483E-03         0.11556E-02         0.00000E+00
    0.47209E-03         0.10481E-02         0.00000E+00
    0.48740E-03         0.93610E-03         0.00000E+00
    0.50075E-03         0.82009E-03         0.00000E+00
    0.51215E-03         0.70055E-03         0.00000E+00
    0.52159E-03         0.57797E-03         0.00000E+00
    0.52909E-03         0.45279E-03         0.00000E+00
    0.53467E-03         0.32543E-03         0.00000E+00
    0.53836E-03         0.19629E-03         0.00000E+00
    0.54018E-03         0.65781E-04         0.00000E+00
    0.20007E-04         0.18532E-02         0.00000E+00
    0.59330E-04         0.18632E-02         0.00000E+00
    0.97247E-04         0.18626E-02         0.00000E+00
    0.13371E-03         0.18513E-02         0.00000E+00
    0.16869E-03         0.18298E-02         0.00000E+00
    0.20213E-03         0.17982E-02         0.00000E+00
    0.23400E-03         0.17570E-02         0.00000E+00
    0.26425E-03         0.17066E-02         0.00000E+00
    0.29286E-03         0.16475E-02         0.00000E+00
    0.31978E-03         0.15801E-02         0.00000E+00
    0.34499E-03         0.15049E-02         0.00000E+00
    0.36845E-03         0.14226E-02         0.00000E+00
    0.39015E-03         0.13336E-02         0.00000E+00
    0.41005E-03         0.12385E-02         0.00000E+00
    0.42814E-03         0.11379E-02         0.00000E+00
    0.44441E-03         0.10323E-02         0.00000E+00
    0.45883E-03         0.92218E-03         0.00000E+00
    0.47142E-03         0.80807E-03         0.00000E+00
    0.48217E-03         0.69043E-03         0.00000E+00
    0.49107E-03         0.56975E-03         0.00000E+00
    0.49815E-03         0.44644E-03         0.00000E+00
    0.50342E-03         0.32093E-03         0.00000E+00
    0.50690E-03         0.19362E-03         0.00000E+00
    0.50862E-03         0.64905E-04         0.00000E+00
    0.18672E-04         0.18145E-02         0.00000E+00
    0.55373E-04         0.18259E-02         0.00000E+00
    0.90767E-04         0.18266E-02         0.00000E+00
    0.12481E-03         0.18168E-02         0.00000E+00
    0.15747E-03         0.17967E-02         0.00000E+00
    0.18870E-03         0.17666E-02         0.00000E+00
    0.21846E-03         0.17270E-02         0.00000E+00
    0.24671E-03         0.16781E-02         0.00000E+00
    0.27343E-03         0.16206E-02         0.00000E+00
    0.29858E-03         0.15548E-02         0.00000E+00
    0.32213E-03         0.14814E-02         0.00000E+00
    0.34406E-03         0.14007E-02         0.00000E+00
    0.36433E-03         0.13135E-02         0.00000E+00
    0.38293E-03         0.12202E-02         0.00000E+00
    0.39984E-03         0.11213E-02         0.00000E+00
    0.41504E-03         0.10175E-02         0.00000E+00
    0.42853E-03         0.90911E-03         0.00000E+00
    0.44030E-03         0.79678E-03         0.00000E+00
    0.45036E-03         0.68093E-03         0.00000E+00
    0.45869E-03         0.56201E-03         0.00000E+00
    0.46532E-03         0.44046E-03         0.00000E+00
    0.47025E-03         0.31670E-03         0.00000E+00
    0.47351E-03         0.19111E-03         0.00000E+00
    0.47513E-03         0.64081E-04         0.00000E+00
    0.17269E-04         0.17786E-02         0.00000E+00
    0.51215E-04         0.17912E-02         0.00000E+00
    0.83957E-04         0.17932E-02         0.00000E+00
    0.11546E-03         0.17847E-02         0.00000E+00
    0.14567E-03         0.17659E-02         0.00000E+00
    0.17457E-03         0.17373E-02         0.00000E+00
    0.20211E-03         0.16990E-02         0.00000E+00
    0.22827E-03         0.16517E-02         0.00000E+00
    0.25300E-03         0.15956E-02         0.00000E+00
    0.27628E-03         0.15314E-02         0.00000E+00
    0.29809E-03         0.14595E-02         0.00000E+00
    0.31838E-03         0.13804E-02         0.00000E+00
    0.33716E-03         0.12948E-02         0.00000E+00
    0.35438E-03         0.12031E-02         0.00000E+00
    0.37004E-03         0.11058E-02         0.00000E+00
    0.38413E-03         0.10036E-02         0.00000E+00
    0.39663E-03         0.89694E-03         0.00000E+00
    0.40754E-03         0.78627E-03         0.00000E+00
    0.41686E-03         0.67207E-03         0.00000E+00
    0.42459E-03         0.55480E-03         0.00000E+00
    0.43073E-03         0.43490E-03         0.00000E+00
    0.43531E-03         0.31275E-03         0.00000E+00
    0.43834E-03         0.18876E-03         0.00000E+00
    0.43984E-03         0.63310E-04         0.00000E+00
    0.15805E-04         0.17455E-02         0.00000E+00
    0.46874E-04         0.17593E-02         0.00000E+00
    0.76847E-04         0.17624E-02         0.00000E+00
    0.10569E-03         0.17551E-02         0.00000E+00
    0.13335E-03         0.17376E-02         0.00000E+00
    0.15982E-03         0.17102E-02         0.00000E+00
    0.18504E-03         0.16733E-02         0.00000E+00
    0.20899E-03         0.16273E-02         0.00000E+00
    0.23165E-03         0.15726E-02         0.00000E+00
    0.25298E-03         0.15098E-02         0.00000E+00
    0.27295E-03         0.14393E-02         0.00000E+00
    0.29155E-03         0.13617E-02         0.00000E+00
    0.30875E-03         0.12775E-02         0.00000E+00
    0.32454E-03         0.11873E-02         0.00000E+00
    0.33889E-03         0.10916E-02         0.00000E+00
    0.35180E-03         0.99089E-03         0.00000E+00
    0.36326E-03         0.88572E-03         0.00000E+00
    0.37327E-03         0.77657E-03         0.00000E+00
    0.38182E-03         0.66390E-03         0.00000E+00
    0.38891E-03         0.54815E-03         0.00000E+00
    0.39455E-03         0.42975E-03         0.00000E+00
    0.39876E-03         0.30911E-03         0.00000E+00
    0.40154E-03         0.18660E-03         0.00000E+00
    0.40292E-03         0.62598E-04         0.00000E+00
    0.14285E-04         0.17154E-02         0.00000E+00
    0.42370E-04         0.17302E-02         0.00000E+00
    0.69468E-04         0.17344E-02         0.00000E+00
    0.95543E-04         0.17282E-02         0.00000E+00
    0.12056E-03         0.17118E-02         0.00000E+00
    0.14449E-03         0.16856E-02         0.00000E+00
    0.16731E-03         0.16499E-02         0.00000E+00
    0.18897E-03         0.16051E-02         0.00000E+00
    0.20947E-03         0.15517E-02         0.00000E+00
    0.22876E-03         0.14901E-02         0.00000E+00
    0.24683E-03         0.14209E-02         0.00000E+00
    0.26366E-03         0.13446E-02         0.00000E+00
    0.27923E-03         0.12618E-02         0.00000E+00
    0.29351E-03         0.11729E-02         0.00000E+00
    0.30651E-03         0.10786E-02         0.00000E+00
    0.31820E-03         0.97928E-03         0.00000E+00
    0.32857E-03         0.87550E-03         0.00000E+00
    0.33763E-03         0.76773E-03         0.00000E+00
    0.34538E-03         0.65645E-03         0.00000E+00
    0.35180E-03         0.54209E-03         0.00000E+00
    0.35691E-03         0.42506E-03         0.00000E+00
    0.36073E-03         0.30578E-03         0.00000E+00
    0.36325E-03         0.18462E-03         0.00000E+00
    0.36450E-03         0.61947E-04         0.00000E+00
    0.12717E-04         0.16884E-02         0.00000E+00
    0.37721E-04         0.17041E-02         0.00000E+00
    0.61849E-04         0.17092E-02         0.00000E+00
    0.85069E-04         0.17040E-02         0.00000E+00
    0.10735E-03         0.16887E-02         0.00000E+00
    0.12867E-03         0.16635E-02         0.00000E+00
    0.14899E-03         0.16289E-02         0.00000E+00
    0.16829E-03         0.15852E-02         0.00000E+00
    0.18655E-03         0.15329E-02         0.00000E+00
    0.20374E-03         0.14724E-02         0.00000E+00
    0.21984E-03         0.14044E-02         0.00000E+00
    0.23484E-03         0.13293E-02         0.00000E+00
    0.24871E-03         0.12477E-02         0.00000E+00
    0.26144E-03         0.11600E-02         0.00000E+00
    0.27302E-03         0.10669E-02         0.00000E+00
    0.28344E-03         0.96884E-03         0.00000E+00
    0.29270E-03         0.86631E-03         0.00000E+00
    0.30078E-03         0.75979E-03         0.00000E+00
    0.30768E-03         0.64975E-03         0.00000E+00
    0.31342E-03         0.53663E-03         0.00000E+00
    0.31798E-03         0.42084E-03         0.00000E+00
    0.32138E-03         0.30278E-03         0.00000E+00
    0.32364E-03         0.18283E-03         0.00000E+00
    0.32476E-03         0.61360E-04         0.00000E+00
    0.11106E-04         0.16646E-02         0.00000E+00
    0.32944E-04         0.16811E-02         0.00000E+00
    0.54020E-04         0.16871E-02         0.00000E+00
    0.74305E-04         0.16827E-02         0.00000E+00
    0.93772E-04         0.16682E-02         0.00000E+00
    0.11240E-03         0.16440E-02         0.00000E+00
    0.13015E-03         0.16103E-02         0.00000E+00
    0.14702E-03         0.15676E-02         0.00000E+00
    0.16298E-03         0.15162E-02         0.00000E+00
    0.17800E-03         0.14568E-02         0.00000E+00
    0.19208E-03         0.13898E-02         0.00000E+00
    0.20518E-03         0.13158E-02         0.00000E+00
    0.21731E-03         0.12352E-02         0.00000E+00
    0.22844E-03         0.11486E-02         0.00000E+00
    0.23857E-03         0.10566E-02         0.00000E+00
    0.24768E-03         0.95962E-03         0.00000E+00
    0.25578E-03         0.85818E-03         0.00000E+00
    0.26284E-03         0.75276E-03         0.00000E+00
    0.26889E-03         0.64383E-03         0.00000E+00
    0.27390E-03         0.53180E-03         0.00000E+00
    0.27790E-03         0.41711E-03         0.00000E+00
    0.28088E-03         0.30013E-03         0.00000E+00
    0.28285E-03         0.18126E-03         0.00000E+00
    0.28383E-03         0.60840E-04         0.00000E+00
    0.94586E-05         0.16440E-02         0.00000E+00
    0.28058E-04         0.16612E-02         0.00000E+00
    0.46010E-04         0.16679E-02         0.00000E+00
    0.63291E-04         0.16643E-02         0.00000E+00
    0.79876E-04         0.16506E-02         0.00000E+00
    0.95744E-04         0.16271E-02         0.00000E+00
    0.11088E-03         0.15942E-02         0.00000E+00
    0.12525E-03         0.15524E-02         0.00000E+00
    0.13885E-03         0.15019E-02         0.00000E+00
    0.15165E-03         0.14434E-02         0.00000E+00
    0.16365E-03         0.13773E-02         0.00000E+00
    0.17482E-03         0.13041E-02         0.00000E+00
    0.18516E-03         0.12244E-02         0.00000E+00
    0.19465E-03         0.11388E-02         0.00000E+00
    0.20328E-03         0.10477E-02         0.00000E+00
    0.21105E-03         0.95165E-03         0.00000E+00
    0.21795E-03         0.85116E-03         0.00000E+00
    0.22398E-03         0.74669E-03         0.00000E+00
    0.22913E-03         0.63870E-03         0.00000E+00
    0.23341E-03         0.52763E-03         0.00000E+00
    0.23682E-03         0.41388E-03         0.00000E+00
    0.23937E-03         0.29784E-03         0.00000E+00
    0.24105E-03         0.17989E-03         0.00000E+00
    0.24189E-03         0.60389E-04         0.00000E+00
    0.77803E-05         0.16268E-02         0.00000E+00
    0.23081E-04         0.16445E-02         0.00000E+00
    0.37850E-04         0.16518E-02         0.00000E+00
    0.52067E-04         0.16489E-02         0.00000E+00
    0.65714E-04         0.16358E-02         0.00000E+00
    0.78771E-04         0.16130E-02         0.00000E+00
    0.91222E-04         0.15808E-02         0.00000E+00
    0.10305E-03         0.15396E-02         0.00000E+00
    0.11424E-03         0.14899E-02         0.00000E+00
    0.12478E-03         0.14321E-02         0.00000E+00
    0.13465E-03         0.13667E-02         0.00000E+00
    0.14385E-03         0.12943E-02         0.00000E+00
    0.15236E-03         0.12154E-02         0.00000E+00
    0.16017E-03         0.11305E-02         0.00000E+00
    0.16728E-03         0.10402E-02         0.00000E+00
    0.17368E-03         0.94496E-03         0.00000E+00
    0.17936E-03         0.84526E-03         0.00000E+00
    0.18433E-03         0.74159E-03         0.00000E+00
    0.18857E-03         0.63440E-03         0.00000E+00
    0.19210E-03         0.52412E-03         0.00000E+00
    0.19491E-03         0.41116E-03         0.00000E+00
    0.19701E-03         0.29591E-03         0.00000E+00
    0.19840E-03         0.17874E-03         0.00000E+00
    0.19909E-03         0.60011E-04         0.00000E+00
    0.60771E-05         0.16129E-02         0.00000E+00
    0.18028E-04         0.16312E-02         0.00000E+00
    0.29565E-04         0.16389E-02         0.00000E+00
    0.40672E-04         0.16364E-02         0.00000E+00
    0.51334E-04         0.16239E-02         0.00000E+00
    0.61536E-04         0.16016E-02         0.00000E+00
    0.71265E-04         0.15700E-02         0.00000E+00
    0.80508E-04         0.15293E-02         0.00000E+00
    0.89252E-04         0.14802E-02         0.00000E+00
    0.97488E-04         0.14230E-02         0.00000E+00
    0.10520E-03         0.13582E-02         0.00000E+00
    0.11239E-03         0.12864E-02         0.00000E+00
    0.11904E-03         0.12081E-02         0.00000E+00
    0.12515E-03         0.11239E-02         0.00000E+00
    0.13071E-03         0.10342E-02         0.00000E+00
    0.13571E-03         0.93958E-03         0.00000E+00
    0.14015E-03         0.84052E-03         0.00000E+00
    0.14403E-03         0.73749E-03         0.00000E+00
    0.14735E-03         0.63094E-03         0.00000E+00
    0.15011E-03         0.52130E-03         0.00000E+00
    0.15231E-03         0.40898E-03         0.00000E+00
    0.15395E-03         0.29436E-03         0.00000E+00
    0.15504E-03         0.17782E-03         0.00000E+00
    0.15558E-03         0.59705E-04         0.00000E+00
    0.43545E-05         0.16025E-02         0.00000E+00
    0.12918E-04         0.16211E-02         0.00000E+00
    0.21186E-04         0.16292E-02         0.00000E+00
    0.29146E-04         0.16271E-02         0.00000E+00
    0.36787E-04         0.16150E-02         0.00000E+00
    0.44098E-04         0.15931E-02         0.00000E+00
    0.51071E-04         0.15618E-02         0.00000E+00
    0.57696E-04         0.15216E-02         0.00000E+00
    0.63964E-04         0.14729E-02         0.00000E+00
    0.69867E-04         0.14161E-02         0.00000E+00
    0.75399E-04         0.13518E-02         0.00000E+00
    0.80551E-04         0.12805E-02         0.00000E+00
    0.85319E-04         0.12027E-02         0.00000E+00
    0.89697E-04         0.11189E-02         0.00000E+00
    0.93681E-04         0.10297E-02         0.00000E+00
    0.97267E-04         0.93553E-03         0.00000E+00
    0.10045E-03         0.83695E-03         0.00000E+00
    0.10324E-03         0.73440E-03         0.00000E+00
    0.10562E-03         0.62833E-03         0.00000E+00
    0.10760E-03         0.51917E-03         0.00000E+00
    0.10917E-03         0.40733E-03         0.00000E+00
    0.11035E-03         0.29319E-03         0.00000E+00
    0.11113E-03         0.17712E-03         0.00000E+00
    0.11152E-03         0.59475E-04         0.00000E+00
    0.26181E-05         0.15955E-02         0.00000E+00
    0.77673E-05         0.16143E-02         0.00000E+00
    0.12738E-04         0.16227E-02         0.00000E+00
    0.17525E-04         0.16208E-02         0.00000E+00
    0.22120E-04         0.16090E-02         0.00000E+00
    0.26517E-04         0.15874E-02         0.00000E+00
    0.30710E-04         0.15564E-02         0.00000E+00
    0.34694E-04         0.15165E-02         0.00000E+00
    0.38463E-04         0.14680E-02         0.00000E+00
    0.42014E-04         0.14115E-02         0.00000E+00
    0.45340E-04         0.13475E-02         0.00000E+00
    0.48439E-04         0.12765E-02         0.00000E+00
    0.51307E-04         0.11990E-02         0.00000E+00
    0.53940E-04         0.11155E-02         0.00000E+00
    0.56336E-04         0.10266E-02         0.00000E+00
    0.58493E-04         0.93281E-03         0.00000E+00
    0.60410E-04         0.83456E-03         0.00000E+00
    0.62084E-04         0.73233E-03         0.00000E+00
    0.63517E-04         0.62659E-03         0.00000E+00
    0.64707E-04         0.51775E-03         0.00000E+00
    0.65655E-04         0.40623E-03         0.00000E+00
    0.66364E-04         0.29241E-03         0.00000E+00
    0.66833E-04         0.17665E-03         0.00000E+00
    0.67067E-04         0.59321E-04         0.00000E+00
    0.87362E-06         0.15920E-02         0.00000E+00
    0.25918E-05         0.16110E-02         0.00000E+00
    0.42507E-05         0.16195E-02         0.00000E+00
    0.58478E-05         0.16177E-02         0.00000E+00
    0.73811E-05         0.16060E-02         0.00000E+00
    0.88484E-05         0.15845E-02         0.00000E+00
    0.10248E-04         0.15537E-02         0.00000E+00
    0.11577E-04         0.15139E-02         0.00000E+00
    0.12835E-04         0.14656E-02         0.00000E+00
    0.14020E-04         0.14092E-02         0.00000E+00
    0.15130E-04         0.13454E-02         0.00000E+00
    0.16164E-04         0.12745E-02         0.00000E+00
    0.17121E-04         0.11972E-02         0.00000E+00
    0.18000E-04         0.11139E-02         0.00000E+00
    0.18800E-04         0.10251E-02         0.00000E+00
    0.19520E-04         0.93146E-03         0.00000E+00
    0.20160E-04         0.83336E-03         0.00000E+00
    0.20719E-04         0.73129E-03         0.00000E+00
    0.21197E-04         0.62571E-03         0.00000E+00
    0.21594E-04         0.51704E-03         0.00000E+00
    0.21911E-04         0.40568E-03         0.00000E+00
    0.22147E-04         0.29201E-03         0.00000E+00
    0.22304E-04         0.17642E-03         0.00000E+00
    0.22382E-04         0.59244E-04         0.00000E+00
POINT_DATA       1225
VECTORS vDarcyNodal double 
    0.62024E-03         0.50729E-03         0.00000E+00
    0.51932E-03         0.96111E-03         0.00000E+00
    0.35377E-03         0.17247E-02         0.00000E+00
    0.18993E-03         0.22067E-02         0.00000E+00
    0.11559E-03         0.24544E-02         0.00000E+00
    0.76116E-04         0.25552E-02         0.00000E+00
    0.54456E-04         0.25763E-02         0.00000E+00
    0.41947E-04         0.25483E-02         0.00000E+00
    0.34465E-04         0.24877E-02         0.00000E+00
    0.29876E-04         0.24034E-02         0.00000E+00
    0.27015E-04         0.23008E-02         0.00000E+00
    0.25215E-04         0.21835E-02         0.00000E+00
    0.24072E-04         0.20539E-02         0.00000E+00
    0.23338E-04         0.19138E-02         0.00000E+00
    0.22852E-04         0.17649E-02         0.00000E+00
    0.22562E-04         0.16084E-02         0.00000E+00
    0.22211E-04         0.14458E-02         0.00000E+00
    0.22441E-04         0.12777E-02         0.00000E+00
    0.22917E-04         0.11039E-02         0.00000E+00
    0.23305E-04         0.92464E-03         0.00000E+00
    0.23575E-04         0.74252E-03         0.00000E+00
    0.23823E-04         0.55851E-03         0.00000E+00
    0.24019E-04         0.37274E-03         0.00000E+00
    0.24140E-04         0.18623E-03         0.00000E+00
    0.24179E-04         0.92909E-04         0.00000E+00
    0.13077E-02         0.60821E-03         0.00000E+00
    0.11532E-02         0.10943E-02         0.00000E+00
    0.61702E-03         0.18894E-02         0.00000E+00
    0.34970E-03         0.23258E-02         0.00000E+00
    0.21559E-03         0.25113E-02         0.00000E+00
    0.14450E-03         0.25858E-02         0.00000E+00
    0.10474E-03         0.25933E-02         0.00000E+00
    0.81526E-04         0.25583E-02         0.00000E+00
    0.67515E-04         0.24937E-02         0.00000E+00
    0.58871E-04         0.24071E-02         0.00000E+00
    0.53467E-04         0.23031E-02         0.00000E+00
    0.50066E-04         0.21850E-02         0.00000E+00
    0.47913E-04         0.20548E-02         0.00000E+00
    0.46535E-04         0.19144E-02         0.00000E+00
    0.45644E-04         0.17653E-02         0.00000E+00
    0.45118E-04         0.16087E-02         0.00000E+00
    0.44866E-04         0.14458E-02         0.00000E+00
    0.44907E-04         0.12774E-02         0.00000E+00
    0.45727E-04         0.11034E-02         0.00000E+00
    0.46545E-04         0.92431E-03         0.00000E+00
    0.47123E-04         0.74226E-03         0.00000E+00
    0.47636E-04         0.55829E-03         0.00000E+00
    0.48034E-04         0.37259E-03         0.00000E+00
    0.48275E-04         0.18615E-03         0.00000E+00
    0.48351E-04         0.92871E-04         0.00000E+00
    0.44458E-02         0.81627E-03         0.00000E+00
    0.18397E-02         0.16518E-02         0.00000E+00
    0.99286E-03         0.25282E-02         0.00000E+00
    0.58772E-03         0.26081E-02         0.00000E+00
    0.37716E-03         0.26596E-02         0.00000E+00
    0.26122E-03         0.26661E-02         0.00000E+00
    0.19432E-03         0.26392E-02         0.00000E+00
    0.15430E-03         0.25855E-02         0.00000E+00
    0.12974E-03         0.25103E-02         0.00000E+00
    0.11441E-03         0.24174E-02         0.00000E+00
    0.10479E-03         0.23096E-02         0.00000E+00
    0.98732E-04         0.21891E-02         0.00000E+00
    0.94934E-04         0.20574E-02         0.00000E+00
    0.92539E-04         0.19161E-02         0.00000E+00
    0.90997E-04         0.17663E-02         0.00000E+00
    0.89986E-04         0.16092E-02         0.00000E+00
    0.89683E-04         0.14460E-02         0.00000E+00
    0.89777E-04         0.12769E-02         0.00000E+00
    0.91215E-04         0.11022E-02         0.00000E+00
    0.92959E-04         0.92324E-03         0.00000E+00
    0.94190E-04         0.74143E-03         0.00000E+00
    0.95255E-04         0.55760E-03         0.00000E+00
    0.96048E-04         0.37210E-03         0.00000E+00
    0.96523E-04         0.18591E-03         0.00000E+00
    0.96670E-04         0.92758E-04         0.00000E+00
    0.34482E-02         0.58202E-02         0.00000E+00
    0.16935E-02         0.45472E-02         0.00000E+00
    0.10200E-02         0.31414E-02         0.00000E+00
    0.66135E-03         0.29415E-02         0.00000E+00
    0.45589E-03         0.28378E-02         0.00000E+00
    0.33351E-03         0.27686E-02         0.00000E+00
    0.25873E-03         0.27003E-02         0.00000E+00
    0.21212E-03         0.26229E-02         0.00000E+00
    0.18269E-03         0.25336E-02         0.00000E+00
    0.16401E-03         0.24320E-02         0.00000E+00
    0.15218E-03         0.23188E-02         0.00000E+00
    0.14480E-03         0.21948E-02         0.00000E+00
    0.14027E-03         0.20610E-02         0.00000E+00
    0.13756E-03         0.19184E-02         0.00000E+00
    0.13596E-03         0.17678E-02         0.00000E+00
    0.13503E-03         0.16101E-02         0.00000E+00
    0.13467E-03         0.14460E-02         0.00000E+00
    0.13537E-03         0.12758E-02         0.00000E+00
    0.13704E-03         0.11003E-02         0.00000E+00
    0.13943E-03         0.92133E-03         0.00000E+00
    0.14131E-03         0.73997E-03         0.00000E+00
    0.14287E-03         0.55644E-03         0.00000E+00
    0.14401E-03         0.37132E-03         0.00000E+00
    0.14468E-03         0.18553E-03         0.00000E+00
    0.14489E-03         0.92576E-04         0.00000E+00
    0.00000E+00         0.43256E-02         0.00000E+00
    0.97793E-03         0.40799E-02         0.00000E+00
    0.78721E-03         0.35604E-02         0.00000E+00
    0.59851E-03         0.31723E-02         0.00000E+00
    0.45753E-03         0.29874E-02         0.00000E+00
    0.36064E-03         0.28632E-02         0.00000E+00
    0.29573E-03         0.27606E-02         0.00000E+00
    0.25273E-03         0.26616E-02         0.00000E+00
    0.22450E-03         0.25584E-02         0.00000E+00
    0.20618E-03         0.24479E-02         0.00000E+00
    0.19454E-03         0.23288E-02         0.00000E+00
    0.18739E-03         0.22010E-02         0.00000E+00
    0.18326E-03         0.20647E-02         0.00000E+00
    0.18113E-03         0.19204E-02         0.00000E+00
    0.18032E-03         0.17688E-02         0.00000E+00
    0.18040E-03         0.16105E-02         0.00000E+00
    0.18111E-03         0.14456E-02         0.00000E+00
    0.18263E-03         0.12745E-02         0.00000E+00
    0.18432E-03         0.10982E-02         0.00000E+00
    0.18645E-03         0.91897E-03         0.00000E+00
    0.18861E-03         0.73799E-03         0.00000E+00
    0.19045E-03         0.55491E-03         0.00000E+00
    0.19181E-03         0.37029E-03         0.00000E+00
    0.19262E-03         0.18503E-03         0.00000E+00
    0.19288E-03         0.92338E-04         0.00000E+00
    0.00000E+00         0.38644E-02         0.00000E+00
    0.34787E-03         0.37600E-02         0.00000E+00
    0.50703E-03         0.35208E-02         0.00000E+00
    0.47430E-03         0.32712E-02         0.00000E+00
    0.41186E-03         0.30757E-02         0.00000E+00
    0.35445E-03         0.29304E-02         0.00000E+00
    0.30987E-03         0.28082E-02         0.00000E+00
    0.27768E-03         0.26941E-02         0.00000E+00
    0.25545E-03         0.25801E-02         0.00000E+00
    0.24072E-03         0.24620E-02         0.00000E+00
    0.23145E-03         0.23376E-02         0.00000E+00
    0.22606E-03         0.22061E-02         0.00000E+00
    0.22341E-03         0.20673E-02         0.00000E+00
    0.22267E-03         0.19213E-02         0.00000E+00
    0.22326E-03         0.17685E-02         0.00000E+00
    0.22481E-03         0.16093E-02         0.00000E+00
    0.22712E-03         0.14438E-02         0.00000E+00
    0.22965E-03         0.12726E-02         0.00000E+00
    0.23198E-03         0.10964E-02         0.00000E+00
    0.23383E-03         0.91704E-03         0.00000E+00
    0.23587E-03         0.73597E-03         0.00000E+00
    0.23775E-03         0.55324E-03         0.00000E+00
    0.23920E-03         0.36915E-03         0.00000E+00
    0.24009E-03         0.18446E-03         0.00000E+00
    0.24038E-03         0.92062E-04         0.00000E+00
    0.64478E-17         0.36298E-02         0.00000E+00
    0.18929E-03         0.35729E-02         0.00000E+00
    0.31249E-03         0.34339E-02         0.00000E+00
    0.35731E-03         0.32674E-02         0.00000E+00
    0.35195E-03         0.31073E-02         0.00000E+00
    0.33121E-03         0.29652E-02         0.00000E+00
    0.30918E-03         0.28374E-02         0.00000E+00
    0.29087E-03         0.27160E-02         0.00000E+00
    0.27741E-03         0.25954E-02         0.00000E+00
    0.26843E-03         0.24719E-02         0.00000E+00
    0.26315E-03         0.23435E-02         0.00000E+00
    0.26072E-03         0.22090E-02         0.00000E+00
    0.26043E-03         0.20681E-02         0.00000E+00
    0.26168E-03         0.19206E-02         0.00000E+00
    0.26404E-03         0.17667E-02         0.00000E+00
    0.26717E-03         0.16066E-02         0.00000E+00
    0.27075E-03         0.14408E-02         0.00000E+00
    0.27438E-03         0.12696E-02         0.00000E+00
    0.27766E-03         0.10940E-02         0.00000E+00
    0.28014E-03         0.91507E-03         0.00000E+00
    0.28229E-03         0.73407E-03         0.00000E+00
    0.28424E-03         0.55158E-03         0.00000E+00
    0.28576E-03         0.36796E-03         0.00000E+00
    0.28671E-03         0.18385E-03         0.00000E+00
    0.28703E-03         0.91757E-04         0.00000E+00
    0.00000E+00         0.34858E-02         0.00000E+00
    0.12299E-03         0.34475E-02         0.00000E+00
    0.21839E-03         0.33528E-02         0.00000E+00
    0.27497E-03         0.32317E-02         0.00000E+00
    0.29918E-03         0.31018E-02         0.00000E+00
    0.30433E-03         0.29732E-02         0.00000E+00
    0.30157E-03         0.28485E-02         0.00000E+00
    0.29685E-03         0.27259E-02         0.00000E+00
    0.29289E-03         0.26026E-02         0.00000E+00
    0.29066E-03         0.24762E-02         0.00000E+00
    0.29031E-03         0.23453E-02         0.00000E+00
    0.29162E-03         0.22088E-02         0.00000E+00
    0.29428E-03         0.20663E-02         0.00000E+00
    0.29794E-03         0.19177E-02         0.00000E+00
    0.30232E-03         0.17630E-02         0.00000E+00
    0.30711E-03         0.16026E-02         0.00000E+00
    0.31203E-03         0.14366E-02         0.00000E+00
    0.31674E-03         0.12657E-02         0.00000E+00
    0.32091E-03         0.10907E-02         0.00000E+00
    0.32433E-03         0.91240E-03         0.00000E+00
    0.32708E-03         0.73187E-03         0.00000E+00
    0.32933E-03         0.54977E-03         0.00000E+00
    0.33103E-03         0.36668E-03         0.00000E+00
    0.33209E-03         0.18318E-03         0.00000E+00
    0.33245E-03         0.91418E-04         0.00000E+00
   -0.12022E-16         0.33838E-02         0.00000E+00
    0.91035E-04         0.33545E-02         0.00000E+00
    0.16828E-03         0.32820E-02         0.00000E+00
    0.22468E-03         0.31866E-02         0.00000E+00
    0.26063E-03         0.30779E-02         0.00000E+00
    0.28129E-03         0.29628E-02         0.00000E+00
    0.29269E-03         0.28449E-02         0.00000E+00
    0.29944E-03         0.27247E-02         0.00000E+00
    0.30435E-03         0.26016E-02         0.00000E+00
    0.30891E-03         0.24745E-02         0.00000E+00
    0.31379E-03         0.23425E-02         0.00000E+00
    0.31920E-03         0.22050E-02         0.00000E+00
    0.32513E-03         0.20617E-02         0.00000E+00
    0.33146E-03         0.19125E-02         0.00000E+00
    0.33801E-03         0.17575E-02         0.00000E+00
    0.34458E-03         0.15969E-02         0.00000E+00
    0.35093E-03         0.14312E-02         0.00000E+00
    0.35682E-03         0.12608E-02         0.00000E+00
    0.36200E-03         0.10864E-02         0.00000E+00
    0.36634E-03         0.90891E-03         0.00000E+00
    0.36985E-03         0.72907E-03         0.00000E+00
    0.37260E-03         0.54763E-03         0.00000E+00
    0.37460E-03         0.36520E-03         0.00000E+00
    0.37582E-03         0.18243E-03         0.00000E+00
    0.37624E-03         0.91034E-04         0.00000E+00
    0.11556E-31         0.33037E-02         0.00000E+00
    0.74131E-04         0.32793E-02         0.00000E+00
    0.14040E-03         0.32192E-02         0.00000E+00
    0.19438E-03         0.31394E-02         0.00000E+00
    0.23515E-03         0.30452E-02         0.00000E+00
    0.26453E-03         0.29411E-02         0.00000E+00
    0.28557E-03         0.28304E-02         0.00000E+00
    0.30123E-03         0.27142E-02         0.00000E+00
    0.31372E-03         0.25931E-02         0.00000E+00
    0.32452E-03         0.24668E-02         0.00000E+00
    0.33446E-03         0.23350E-02         0.00000E+00
    0.34398E-03         0.21975E-02         0.00000E+00
    0.35327E-03         0.20541E-02         0.00000E+00
    0.36236E-03         0.19048E-02         0.00000E+00
    0.37117E-03         0.17499E-02         0.00000E+00
    0.37960E-03         0.15896E-02         0.00000E+00
    0.38748E-03         0.14244E-02         0.00000E+00
    0.39463E-03         0.12547E-02         0.00000E+00
    0.40090E-03         0.10811E-02         0.00000E+00
    0.40619E-03         0.90455E-03         0.00000E+00
    0.41048E-03         0.72561E-03         0.00000E+00
    0.41380E-03         0.54503E-03         0.00000E+00
    0.41618E-03         0.36346E-03         0.00000E+00
    0.41761E-03         0.18155E-03         0.00000E+00
    0.41809E-03         0.90589E-04         0.00000E+00
    0.57475E-17         0.32356E-02         0.00000E+00
    0.64782E-04         0.32141E-02         0.00000E+00
    0.12451E-03         0.31617E-02         0.00000E+00
    0.17637E-03         0.30919E-02         0.00000E+00
    0.21929E-03         0.30078E-02         0.00000E+00
    0.25376E-03         0.29124E-02         0.00000E+00
    0.28128E-03         0.28082E-02         0.00000E+00
    0.30359E-03         0.26965E-02         0.00000E+00
    0.32225E-03         0.25783E-02         0.00000E+00
    0.33846E-03         0.24538E-02         0.00000E+00
    0.35303E-03         0.23231E-02         0.00000E+00
    0.36645E-03         0.21862E-02         0.00000E+00
    0.37901E-03         0.20434E-02         0.00000E+00
    0.39083E-03         0.18946E-02         0.00000E+00
    0.40192E-03         0.17403E-02         0.00000E+00
    0.41224E-03         0.15806E-02         0.00000E+00
    0.42169E-03         0.14161E-02         0.00000E+00
    0.43016E-03         0.12473E-02         0.00000E+00
    0.43755E-03         0.10748E-02         0.00000E+00
    0.44379E-03         0.89932E-03         0.00000E+00
    0.44886E-03         0.72146E-03         0.00000E+00
    0.45278E-03         0.54193E-03         0.00000E+00
    0.45556E-03         0.36140E-03         0.00000E+00
    0.45721E-03         0.18052E-03         0.00000E+00
    0.45776E-03         0.90078E-04         0.00000E+00
    0.00000E+00         0.31741E-02         0.00000E+00
    0.59566E-04         0.31547E-02         0.00000E+00
    0.11552E-03         0.31076E-02         0.00000E+00
    0.16600E-03         0.30446E-02         0.00000E+00
    0.21010E-03         0.29678E-02         0.00000E+00
    0.24780E-03         0.28792E-02         0.00000E+00
    0.27978E-03         0.27805E-02         0.00000E+00
    0.30704E-03         0.26733E-02         0.00000E+00
    0.33062E-03         0.25582E-02         0.00000E+00
    0.35138E-03         0.24360E-02         0.00000E+00
    0.37002E-03         0.23070E-02         0.00000E+00
    0.38700E-03         0.21715E-02         0.00000E+00
    0.40262E-03         0.20297E-02         0.00000E+00
    0.41705E-03         0.18819E-02         0.00000E+00
    0.43036E-03         0.17285E-02         0.00000E+00
    0.44254E-03         0.15699E-02         0.00000E+00
    0.45356E-03         0.14064E-02         0.00000E+00
    0.46336E-03         0.12388E-02         0.00000E+00
    0.47187E-03         0.10675E-02         0.00000E+00
    0.47905E-03         0.89324E-03         0.00000E+00
    0.48489E-03         0.71662E-03         0.00000E+00
    0.48939E-03         0.53833E-03         0.00000E+00
    0.49257E-03         0.35902E-03         0.00000E+00
    0.49446E-03         0.17934E-03         0.00000E+00
    0.49508E-03         0.89495E-04         0.00000E+00
    0.00000E+00         0.31164E-02         0.00000E+00
    0.56746E-04         0.30986E-02         0.00000E+00
    0.11065E-03         0.30553E-02         0.00000E+00
    0.16046E-03         0.29973E-02         0.00000E+00
    0.20543E-03         0.29260E-02         0.00000E+00
    0.24538E-03         0.28427E-02         0.00000E+00
    0.28059E-03         0.27489E-02         0.00000E+00
    0.31161E-03         0.26457E-02         0.00000E+00
    0.33908E-03         0.25339E-02         0.00000E+00
    0.36362E-03         0.24143E-02         0.00000E+00
    0.38577E-03         0.22874E-02         0.00000E+00
    0.40590E-03         0.21536E-02         0.00000E+00
    0.42432E-03         0.20133E-02         0.00000E+00
    0.44117E-03         0.18669E-02         0.00000E+00
    0.45658E-03         0.17148E-02         0.00000E+00
    0.47055E-03         0.15574E-02         0.00000E+00
    0.48310E-03         0.13953E-02         0.00000E+00
    0.49419E-03         0.12290E-02         0.00000E+00
    0.50379E-03         0.10592E-02         0.00000E+00
    0.51188E-03         0.88631E-03         0.00000E+00
    0.51845E-03         0.71112E-03         0.00000E+00
    0.52351E-03         0.53424E-03         0.00000E+00
    0.52709E-03         0.35633E-03         0.00000E+00
    0.52921E-03         0.17801E-03         0.00000E+00
    0.52990E-03         0.88841E-04         0.00000E+00
    0.00000E+00         0.30606E-02         0.00000E+00
    0.55370E-04         0.30441E-02         0.00000E+00
    0.10832E-03         0.30039E-02         0.00000E+00
    0.15798E-03         0.29498E-02         0.00000E+00
    0.20377E-03         0.28828E-02         0.00000E+00
    0.24546E-03         0.28040E-02         0.00000E+00
    0.28313E-03         0.27143E-02         0.00000E+00
    0.31706E-03         0.26148E-02         0.00000E+00
    0.34765E-03         0.25062E-02         0.00000E+00
    0.37531E-03         0.23893E-02         0.00000E+00
    0.40043E-03         0.22647E-02         0.00000E+00
    0.42333E-03         0.21330E-02         0.00000E+00
    0.44423E-03         0.19944E-02         0.00000E+00
    0.46330E-03         0.18497E-02         0.00000E+00
    0.48064E-03         0.16991E-02         0.00000E+00
    0.49629E-03         0.15433E-02         0.00000E+00
    0.51028E-03         0.13828E-02         0.00000E+00
    0.52260E-03         0.12181E-02         0.00000E+00
    0.53324E-03         0.10498E-02         0.00000E+00
    0.54220E-03         0.87857E-03         0.00000E+00
    0.54946E-03         0.70499E-03         0.00000E+00
    0.55506E-03         0.52969E-03         0.00000E+00
    0.55901E-03         0.35333E-03         0.00000E+00
    0.56134E-03         0.17654E-03         0.00000E+00
    0.56210E-03         0.88116E-04         0.00000E+00
    0.00000E+00         0.30057E-02         0.00000E+00
    0.54877E-04         0.29903E-02         0.00000E+00
    0.10757E-03         0.29527E-02         0.00000E+00
    0.15744E-03         0.29019E-02         0.00000E+00
    0.20406E-03         0.28385E-02         0.00000E+00
    0.24720E-03         0.27634E-02         0.00000E+00
    0.28682E-03         0.26773E-02         0.00000E+00
    0.32308E-03         0.25812E-02         0.00000E+00
    0.35619E-03         0.24757E-02         0.00000E+00
    0.38643E-03         0.23616E-02         0.00000E+00
    0.41407E-03         0.22394E-02         0.00000E+00
    0.43934E-03         0.21098E-02         0.00000E+00
    0.46243E-03         0.19733E-02         0.00000E+00
    0.48347E-03         0.18305E-02         0.00000E+00
    0.50257E-03         0.16818E-02         0.00000E+00
    0.51976E-03         0.15278E-02         0.00000E+00
    0.53509E-03         0.13690E-02         0.00000E+00
    0.54856E-03         0.12061E-02         0.00000E+00
    0.56017E-03         0.10396E-02         0.00000E+00
    0.56993E-03         0.87009E-03         0.00000E+00
    0.57784E-03         0.69826E-03         0.00000E+00
    0.58393E-03         0.52470E-03         0.00000E+00
    0.58822E-03         0.35005E-03         0.00000E+00
    0.59076E-03         0.17492E-03         0.00000E+00
    0.59158E-03         0.87325E-04         0.00000E+00
    0.00000E+00         0.29509E-02         0.00000E+00
    0.54919E-04         0.29365E-02         0.00000E+00
    0.10777E-03         0.29013E-02         0.00000E+00
    0.15810E-03         0.28533E-02         0.00000E+00
    0.20556E-03         0.27931E-02         0.00000E+00
    0.24995E-03         0.27212E-02         0.00000E+00
    0.29119E-03         0.26384E-02         0.00000E+00
    0.32934E-03         0.25454E-02         0.00000E+00
    0.36452E-03         0.24429E-02         0.00000E+00
    0.39690E-03         0.23315E-02         0.00000E+00
    0.42665E-03         0.22118E-02         0.00000E+00
    0.45395E-03         0.20846E-02         0.00000E+00
    0.47893E-03         0.19503E-02         0.00000E+00
    0.50171E-03         0.18095E-02         0.00000E+00
    0.52237E-03         0.16628E-02         0.00000E+00
    0.54095E-03         0.15108E-02         0.00000E+00
    0.55749E-03         0.13540E-02         0.00000E+00
    0.57200E-03         0.11930E-02         0.00000E+00
    0.58450E-03         0.10285E-02         0.00000E+00
    0.59500E-03         0.86090E-03         0.00000E+00
    0.60350E-03         0.69098E-03         0.00000E+00
    0.61005E-03         0.51931E-03         0.00000E+00
    0.61466E-03         0.34650E-03         0.00000E+00
    0.61737E-03         0.17318E-03         0.00000E+00
    0.61826E-03         0.86471E-04         0.00000E+00
    0.00000E+00         0.28959E-02         0.00000E+00
    0.55271E-04         0.28825E-02         0.00000E+00
    0.10854E-03         0.28495E-02         0.00000E+00
    0.15945E-03         0.28041E-02         0.00000E+00
    0.20774E-03         0.27467E-02         0.00000E+00
    0.25323E-03         0.26777E-02         0.00000E+00
    0.29583E-03         0.25979E-02         0.00000E+00
    0.33554E-03         0.25078E-02         0.00000E+00
    0.37242E-03         0.24081E-02         0.00000E+00
    0.40657E-03         0.22994E-02         0.00000E+00
    0.43809E-03         0.21824E-02         0.00000E+00
    0.46710E-03         0.20576E-02         0.00000E+00
    0.49371E-03         0.19256E-02         0.00000E+00
    0.51799E-03         0.17870E-02         0.00000E+00
    0.54002E-03         0.16425E-02         0.00000E+00
    0.55982E-03         0.14926E-02         0.00000E+00
    0.57744E-03         0.13380E-02         0.00000E+00
    0.59289E-03         0.11791E-02         0.00000E+00
    0.60618E-03         0.10166E-02         0.00000E+00
    0.61734E-03         0.85108E-03         0.00000E+00
    0.62638E-03         0.68321E-03         0.00000E+00
    0.63333E-03         0.51355E-03         0.00000E+00
    0.63823E-03         0.34272E-03         0.00000E+00
    0.64111E-03         0.17132E-03         0.00000E+00
    0.64205E-03         0.85561E-04         0.00000E+00
    0.00000E+00         0.28404E-02         0.00000E+00
    0.55780E-04         0.28280E-02         0.00000E+00
    0.10957E-03         0.27971E-02         0.00000E+00
    0.16112E-03         0.27541E-02         0.00000E+00
    0.21020E-03         0.26993E-02         0.00000E+00
    0.25665E-03         0.26331E-02         0.00000E+00
    0.30040E-03         0.25561E-02         0.00000E+00
    0.34141E-03         0.24688E-02         0.00000E+00
    0.37969E-03         0.23718E-02         0.00000E+00
    0.41529E-03         0.22658E-02         0.00000E+00
    0.44828E-03         0.21513E-02         0.00000E+00
    0.47873E-03         0.20290E-02         0.00000E+00
    0.50671E-03         0.18994E-02         0.00000E+00
    0.53228E-03         0.17632E-02         0.00000E+00
    0.55547E-03         0.16210E-02         0.00000E+00
    0.57634E-03         0.14734E-02         0.00000E+00
    0.59490E-03         0.13209E-02         0.00000E+00
    0.61117E-03         0.11643E-02         0.00000E+00
    0.62516E-03         0.10040E-02         0.00000E+00
    0.63691E-03         0.84070E-03         0.00000E+00
    0.64642E-03         0.67499E-03         0.00000E+00
    0.65372E-03         0.50747E-03         0.00000E+00
    0.65887E-03         0.33872E-03         0.00000E+00
    0.66190E-03         0.16936E-03         0.00000E+00
    0.66289E-03         0.84600E-04         0.00000E+00
    0.00000E+00         0.27843E-02         0.00000E+00
    0.56337E-04         0.27729E-02         0.00000E+00
    0.11069E-03         0.27441E-02         0.00000E+00
    0.16285E-03         0.27035E-02         0.00000E+00
    0.21264E-03         0.26511E-02         0.00000E+00
    0.25993E-03         0.25875E-02         0.00000E+00
    0.30464E-03         0.25132E-02         0.00000E+00
    0.34671E-03         0.24286E-02         0.00000E+00
    0.38613E-03         0.23343E-02         0.00000E+00
    0.42292E-03         0.22308E-02         0.00000E+00
    0.45711E-03         0.21189E-02         0.00000E+00
    0.48875E-03         0.19991E-02         0.00000E+00
    0.51787E-03         0.18720E-02         0.00000E+00
    0.54450E-03         0.17383E-02         0.00000E+00
    0.56869E-03         0.15985E-02         0.00000E+00
    0.59045E-03         0.14532E-02         0.00000E+00
    0.60981E-03         0.13031E-02         0.00000E+00
    0.62678E-03         0.11488E-02         0.00000E+00
    0.64138E-03         0.99083E-03         0.00000E+00
    0.65363E-03         0.82983E-03         0.00000E+00
    0.66355E-03         0.66639E-03         0.00000E+00
    0.67117E-03         0.50110E-03         0.00000E+00
    0.67653E-03         0.33454E-03         0.00000E+00
    0.67969E-03         0.16731E-03         0.00000E+00
    0.68072E-03         0.83594E-04         0.00000E+00
    0.00000E+00         0.27277E-02         0.00000E+00
    0.56868E-04         0.27173E-02         0.00000E+00
    0.11174E-03         0.26906E-02         0.00000E+00
    0.16445E-03         0.26522E-02         0.00000E+00
    0.21485E-03         0.26022E-02         0.00000E+00
    0.26284E-03         0.25411E-02         0.00000E+00
    0.30832E-03         0.24693E-02         0.00000E+00
    0.35124E-03         0.23873E-02         0.00000E+00
    0.39158E-03         0.22956E-02         0.00000E+00
    0.42932E-03         0.21948E-02         0.00000E+00
    0.46447E-03         0.20855E-02         0.00000E+00
    0.49706E-03         0.19682E-02         0.00000E+00
    0.52710E-03         0.18437E-02         0.00000E+00
    0.55461E-03         0.17124E-02         0.00000E+00
    0.57961E-03         0.15751E-02         0.00000E+00
    0.60212E-03         0.14323E-02         0.00000E+00
    0.62214E-03         0.12846E-02         0.00000E+00
    0.63970E-03         0.11327E-02         0.00000E+00
    0.65480E-03         0.97715E-03         0.00000E+00
    0.66747E-03         0.81854E-03         0.00000E+00
    0.67773E-03         0.65745E-03         0.00000E+00
    0.68561E-03         0.49448E-03         0.00000E+00
    0.69116E-03         0.33020E-03         0.00000E+00
    0.69443E-03         0.16517E-03         0.00000E+00
    0.69549E-03         0.82549E-04         0.00000E+00
    0.00000E+00         0.26706E-02         0.00000E+00
    0.57313E-04         0.26612E-02         0.00000E+00
    0.11261E-03         0.26366E-02         0.00000E+00
    0.16577E-03         0.26003E-02         0.00000E+00
    0.21666E-03         0.25527E-02         0.00000E+00
    0.26519E-03         0.24941E-02         0.00000E+00
    0.31127E-03         0.24248E-02         0.00000E+00
    0.35485E-03         0.23453E-02         0.00000E+00
    0.39588E-03         0.22562E-02         0.00000E+00
    0.43435E-03         0.21579E-02         0.00000E+00
    0.47026E-03         0.20512E-02         0.00000E+00
    0.50359E-03         0.19365E-02         0.00000E+00
    0.53435E-03         0.18145E-02         0.00000E+00
    0.56255E-03         0.16858E-02         0.00000E+00
    0.58819E-03         0.15510E-02         0.00000E+00
    0.61129E-03         0.14107E-02         0.00000E+00
    0.63184E-03         0.12655E-02         0.00000E+00
    0.64987E-03         0.11161E-02         0.00000E+00
    0.66538E-03         0.96306E-03         0.00000E+00
    0.67839E-03         0.80690E-03         0.00000E+00
    0.68892E-03         0.64825E-03         0.00000E+00
    0.69702E-03         0.48767E-03         0.00000E+00
    0.70271E-03         0.32572E-03         0.00000E+00
    0.70607E-03         0.16298E-03         0.00000E+00
    0.70716E-03         0.81473E-04         0.00000E+00
    0.00000E+00         0.26131E-02         0.00000E+00
    0.57632E-04         0.26047E-02         0.00000E+00
    0.11324E-03         0.25821E-02         0.00000E+00
    0.16671E-03         0.25481E-02         0.00000E+00
    0.21794E-03         0.25028E-02         0.00000E+00
    0.26684E-03         0.24465E-02         0.00000E+00
    0.31335E-03         0.23797E-02         0.00000E+00
    0.35739E-03         0.23027E-02         0.00000E+00
    0.39893E-03         0.22161E-02         0.00000E+00
    0.43793E-03         0.21204E-02         0.00000E+00
    0.47437E-03         0.20162E-02         0.00000E+00
    0.50824E-03         0.19041E-02         0.00000E+00
    0.53954E-03         0.17847E-02         0.00000E+00
    0.56825E-03         0.16586E-02         0.00000E+00
    0.59437E-03         0.15263E-02         0.00000E+00
    0.61792E-03         0.13886E-02         0.00000E+00
    0.63888E-03         0.12460E-02         0.00000E+00
    0.65726E-03         0.10992E-02         0.00000E+00
    0.67308E-03         0.94864E-03         0.00000E+00
    0.68635E-03         0.79500E-03         0.00000E+00
    0.69710E-03         0.63883E-03         0.00000E+00
    0.70536E-03         0.48069E-03         0.00000E+00
    0.71118E-03         0.32114E-03         0.00000E+00
    0.71461E-03         0.16073E-03         0.00000E+00
    0.71572E-03         0.80370E-04         0.00000E+00
    0.00000E+00         0.25553E-02         0.00000E+00
    0.57793E-04         0.25479E-02         0.00000E+00
    0.11355E-03         0.25275E-02         0.00000E+00
    0.16718E-03         0.24956E-02         0.00000E+00
    0.21859E-03         0.24526E-02         0.00000E+00
    0.26770E-03         0.23987E-02         0.00000E+00
    0.31445E-03         0.23342E-02         0.00000E+00
    0.35876E-03         0.22597E-02         0.00000E+00
    0.40061E-03         0.21756E-02         0.00000E+00
    0.43994E-03         0.20825E-02         0.00000E+00
    0.47674E-03         0.19809E-02         0.00000E+00
    0.51097E-03         0.18713E-02         0.00000E+00
    0.54262E-03         0.17545E-02         0.00000E+00
    0.57167E-03         0.16309E-02         0.00000E+00
    0.59813E-03         0.15013E-02         0.00000E+00
    0.62198E-03         0.13662E-02         0.00000E+00
    0.64322E-03         0.12262E-02         0.00000E+00
    0.66186E-03         0.10819E-02         0.00000E+00
    0.67790E-03         0.93397E-03         0.00000E+00
    0.69136E-03         0.78288E-03         0.00000E+00
    0.70226E-03         0.62924E-03         0.00000E+00
    0.71063E-03         0.47359E-03         0.00000E+00
    0.71653E-03         0.31648E-03         0.00000E+00
    0.72001E-03         0.15843E-03         0.00000E+00
    0.72114E-03         0.79248E-04         0.00000E+00
    0.00000E+00         0.24975E-02         0.00000E+00
    0.57773E-04         0.24911E-02         0.00000E+00
    0.11351E-03         0.24728E-02         0.00000E+00
    0.16712E-03         0.24431E-02         0.00000E+00
    0.21853E-03         0.24023E-02         0.00000E+00
    0.26767E-03         0.23507E-02         0.00000E+00
    0.31448E-03         0.22886E-02         0.00000E+00
    0.35889E-03         0.22165E-02         0.00000E+00
    0.40086E-03         0.21349E-02         0.00000E+00
    0.44034E-03         0.20443E-02         0.00000E+00
    0.47730E-03         0.19452E-02         0.00000E+00
    0.51171E-03         0.18383E-02         0.00000E+00
    0.54354E-03         0.17240E-02         0.00000E+00
    0.57279E-03         0.16030E-02         0.00000E+00
    0.59943E-03         0.14760E-02         0.00000E+00
    0.62346E-03         0.13435E-02         0.00000E+00
    0.64486E-03         0.12062E-02         0.00000E+00
    0.66364E-03         0.10645E-02         0.00000E+00
    0.67981E-03         0.91914E-03         0.00000E+00
    0.69338E-03         0.77064E-03         0.00000E+00
    0.70438E-03         0.61955E-03         0.00000E+00
    0.71283E-03         0.46641E-03         0.00000E+00
    0.71878E-03         0.31176E-03         0.00000E+00
    0.72229E-03         0.15612E-03         0.00000E+00
    0.72343E-03         0.78112E-04         0.00000E+00
    0.00000E+00         0.24397E-02         0.00000E+00
    0.57555E-04         0.24344E-02         0.00000E+00
    0.11307E-03         0.24181E-02         0.00000E+00
    0.16649E-03         0.23906E-02         0.00000E+00
    0.21772E-03         0.23520E-02         0.00000E+00
    0.26671E-03         0.23027E-02         0.00000E+00
    0.31339E-03         0.22430E-02         0.00000E+00
    0.35771E-03         0.21734E-02         0.00000E+00
    0.39961E-03         0.20942E-02         0.00000E+00
    0.43906E-03         0.20061E-02         0.00000E+00
    0.47601E-03         0.19095E-02         0.00000E+00
    0.51043E-03         0.18051E-02         0.00000E+00
    0.54229E-03         0.16934E-02         0.00000E+00
    0.57158E-03         0.15750E-02         0.00000E+00
    0.59826E-03         0.14506E-02         0.00000E+00
    0.62234E-03         0.13208E-02         0.00000E+00
    0.64379E-03         0.11860E-02         0.00000E+00
    0.66263E-03         0.10470E-02         0.00000E+00
    0.67884E-03         0.90423E-03         0.00000E+00
    0.69245E-03         0.75832E-03         0.00000E+00
    0.70348E-03         0.60980E-03         0.00000E+00
    0.71196E-03         0.45919E-03         0.00000E+00
    0.71794E-03         0.30701E-03         0.00000E+00
    0.72146E-03         0.15378E-03         0.00000E+00
    0.72261E-03         0.76968E-04         0.00000E+00
    0.00000E+00         0.23824E-02         0.00000E+00
    0.57128E-04         0.23781E-02         0.00000E+00
    0.11223E-03         0.23638E-02         0.00000E+00
    0.16525E-03         0.23384E-02         0.00000E+00
    0.21611E-03         0.23021E-02         0.00000E+00
    0.26476E-03         0.22550E-02         0.00000E+00
    0.31113E-03         0.21976E-02         0.00000E+00
    0.35517E-03         0.21303E-02         0.00000E+00
    0.39684E-03         0.20536E-02         0.00000E+00
    0.43607E-03         0.19679E-02         0.00000E+00
    0.47285E-03         0.18739E-02         0.00000E+00
    0.50712E-03         0.17720E-02         0.00000E+00
    0.53885E-03         0.16628E-02         0.00000E+00
    0.56803E-03         0.15471E-02         0.00000E+00
    0.59463E-03         0.14253E-02         0.00000E+00
    0.61863E-03         0.12980E-02         0.00000E+00
    0.64003E-03         0.11659E-02         0.00000E+00
    0.65882E-03         0.10295E-02         0.00000E+00
    0.67499E-03         0.88931E-03         0.00000E+00
    0.68858E-03         0.74600E-03         0.00000E+00
    0.69959E-03         0.60004E-03         0.00000E+00
    0.70806E-03         0.45196E-03         0.00000E+00
    0.71403E-03         0.30226E-03         0.00000E+00
    0.71755E-03         0.15145E-03         0.00000E+00
    0.71869E-03         0.75822E-04         0.00000E+00
    0.00000E+00         0.23255E-02         0.00000E+00
    0.56485E-04         0.23222E-02         0.00000E+00
    0.11097E-03         0.23100E-02         0.00000E+00
    0.16339E-03         0.22867E-02         0.00000E+00
    0.21368E-03         0.22525E-02         0.00000E+00
    0.26180E-03         0.22077E-02         0.00000E+00
    0.30768E-03         0.21526E-02         0.00000E+00
    0.35127E-03         0.20876E-02         0.00000E+00
    0.39251E-03         0.20133E-02         0.00000E+00
    0.43137E-03         0.19301E-02         0.00000E+00
    0.46780E-03         0.18385E-02         0.00000E+00
    0.50176E-03         0.17391E-02         0.00000E+00
    0.53323E-03         0.16325E-02         0.00000E+00
    0.56216E-03         0.15193E-02         0.00000E+00
    0.58855E-03         0.14000E-02         0.00000E+00
    0.61236E-03         0.12754E-02         0.00000E+00
    0.63360E-03         0.11458E-02         0.00000E+00
    0.65224E-03         0.10120E-02         0.00000E+00
    0.66831E-03         0.87447E-03         0.00000E+00
    0.68180E-03         0.73373E-03         0.00000E+00
    0.69274E-03         0.59032E-03         0.00000E+00
    0.70115E-03         0.44475E-03         0.00000E+00
    0.70709E-03         0.29752E-03         0.00000E+00
    0.71059E-03         0.14912E-03         0.00000E+00
    0.71173E-03         0.74678E-04         0.00000E+00
    0.00000E+00         0.22694E-02         0.00000E+00
    0.55622E-04         0.22671E-02         0.00000E+00
    0.10927E-03         0.22569E-02         0.00000E+00
    0.16089E-03         0.22357E-02         0.00000E+00
    0.21043E-03         0.22036E-02         0.00000E+00
    0.25783E-03         0.21610E-02         0.00000E+00
    0.30303E-03         0.21082E-02         0.00000E+00
    0.34598E-03         0.20455E-02         0.00000E+00
    0.38664E-03         0.19735E-02         0.00000E+00
    0.42495E-03         0.18926E-02         0.00000E+00
    0.46088E-03         0.18035E-02         0.00000E+00
    0.49438E-03         0.17065E-02         0.00000E+00
    0.52543E-03         0.16024E-02         0.00000E+00
    0.55399E-03         0.14918E-02         0.00000E+00
    0.58004E-03         0.13751E-02         0.00000E+00
    0.60356E-03         0.12529E-02         0.00000E+00
    0.62453E-03         0.11260E-02         0.00000E+00
    0.64296E-03         0.99474E-03         0.00000E+00
    0.65883E-03         0.85976E-03         0.00000E+00
    0.67217E-03         0.72157E-03         0.00000E+00
    0.68298E-03         0.58068E-03         0.00000E+00
    0.69130E-03         0.43761E-03         0.00000E+00
    0.69717E-03         0.29282E-03         0.00000E+00
    0.70064E-03         0.14680E-03         0.00000E+00
    0.70177E-03         0.73543E-04         0.00000E+00
    0.00000E+00         0.22142E-02         0.00000E+00
    0.54540E-04         0.22129E-02         0.00000E+00
    0.10715E-03         0.22048E-02         0.00000E+00
    0.15777E-03         0.21856E-02         0.00000E+00
    0.20635E-03         0.21556E-02         0.00000E+00
    0.25284E-03         0.21151E-02         0.00000E+00
    0.29718E-03         0.20644E-02         0.00000E+00
    0.33933E-03         0.20040E-02         0.00000E+00
    0.37923E-03         0.19343E-02         0.00000E+00
    0.41683E-03         0.18558E-02         0.00000E+00
    0.45211E-03         0.17690E-02         0.00000E+00
    0.48501E-03         0.16745E-02         0.00000E+00
    0.51550E-03         0.15729E-02         0.00000E+00
    0.54356E-03         0.14647E-02         0.00000E+00
    0.56916E-03         0.13505E-02         0.00000E+00
    0.59227E-03         0.12309E-02         0.00000E+00
    0.61289E-03         0.11064E-02         0.00000E+00
    0.63101E-03         0.97771E-03         0.00000E+00
    0.64662E-03         0.84525E-03         0.00000E+00
    0.65974E-03         0.70958E-03         0.00000E+00
    0.67038E-03         0.57118E-03         0.00000E+00
    0.67857E-03         0.43056E-03         0.00000E+00
    0.68436E-03         0.28818E-03         0.00000E+00
    0.68777E-03         0.14452E-03         0.00000E+00
    0.68889E-03         0.72421E-04         0.00000E+00
    0.00000E+00         0.21603E-02         0.00000E+00
    0.53241E-04         0.21599E-02         0.00000E+00
    0.10460E-03         0.21537E-02         0.00000E+00
    0.15402E-03         0.21365E-02         0.00000E+00
    0.20146E-03         0.21086E-02         0.00000E+00
    0.24685E-03         0.20702E-02         0.00000E+00
    0.29016E-03         0.20217E-02         0.00000E+00
    0.33132E-03         0.19634E-02         0.00000E+00
    0.37030E-03         0.18960E-02         0.00000E+00
    0.40704E-03         0.18197E-02         0.00000E+00
    0.44152E-03         0.17353E-02         0.00000E+00
    0.47368E-03         0.16431E-02         0.00000E+00
    0.50349E-03         0.15439E-02         0.00000E+00
    0.53092E-03         0.14381E-02         0.00000E+00
    0.55596E-03         0.13264E-02         0.00000E+00
    0.57857E-03         0.12092E-02         0.00000E+00
    0.59874E-03         0.10873E-02         0.00000E+00
    0.61647E-03         0.96101E-03         0.00000E+00
    0.63175E-03         0.83102E-03         0.00000E+00
    0.64459E-03         0.69780E-03         0.00000E+00
    0.65502E-03         0.56185E-03         0.00000E+00
    0.66304E-03         0.42363E-03         0.00000E+00
    0.66871E-03         0.28362E-03         0.00000E+00
    0.67206E-03         0.14227E-03         0.00000E+00
    0.67316E-03         0.71317E-04         0.00000E+00
    0.00000E+00         0.21078E-02         0.00000E+00
    0.51729E-04         0.21083E-02         0.00000E+00
    0.10163E-03         0.21040E-02         0.00000E+00
    0.14966E-03         0.20887E-02         0.00000E+00
    0.19576E-03         0.20628E-02         0.00000E+00
    0.23988E-03         0.20264E-02         0.00000E+00
    0.28198E-03         0.19800E-02         0.00000E+00
    0.32200E-03         0.19239E-02         0.00000E+00
    0.35990E-03         0.18586E-02         0.00000E+00
    0.39563E-03         0.17846E-02         0.00000E+00
    0.42916E-03         0.17024E-02         0.00000E+00
    0.46044E-03         0.16125E-02         0.00000E+00
    0.48944E-03         0.15156E-02         0.00000E+00
    0.51614E-03         0.14122E-02         0.00000E+00
    0.54050E-03         0.13028E-02         0.00000E+00
    0.56251E-03         0.11881E-02         0.00000E+00
    0.58215E-03         0.10685E-02         0.00000E+00
    0.59941E-03         0.94470E-03         0.00000E+00
    0.61430E-03         0.81713E-03         0.00000E+00
    0.62682E-03         0.68631E-03         0.00000E+00
    0.63698E-03         0.55273E-03         0.00000E+00
    0.64480E-03         0.41686E-03         0.00000E+00
    0.65033E-03         0.27917E-03         0.00000E+00
    0.65360E-03         0.14007E-03         0.00000E+00
    0.65467E-03         0.70236E-04         0.00000E+00
    0.00000E+00         0.20568E-02         0.00000E+00
    0.50013E-04         0.20583E-02         0.00000E+00
    0.98265E-04         0.20558E-02         0.00000E+00
    0.14471E-03         0.20424E-02         0.00000E+00
    0.18929E-03         0.20183E-02         0.00000E+00
    0.23197E-03         0.19840E-02         0.00000E+00
    0.27268E-03         0.19395E-02         0.00000E+00
    0.31140E-03         0.18855E-02         0.00000E+00
    0.34807E-03         0.18223E-02         0.00000E+00
    0.38264E-03         0.17505E-02         0.00000E+00
    0.41509E-03         0.16705E-02         0.00000E+00
    0.44537E-03         0.15829E-02         0.00000E+00
    0.47344E-03         0.14882E-02         0.00000E+00
    0.49929E-03         0.13870E-02         0.00000E+00
    0.52288E-03         0.12800E-02         0.00000E+00
    0.54419E-03         0.11676E-02         0.00000E+00
    0.56322E-03         0.10503E-02         0.00000E+00
    0.57995E-03         0.92886E-03         0.00000E+00
    0.59437E-03         0.80362E-03         0.00000E+00
    0.60651E-03         0.67513E-03         0.00000E+00
    0.61636E-03         0.54386E-03         0.00000E+00
    0.62395E-03         0.41028E-03         0.00000E+00
    0.62932E-03         0.27483E-03         0.00000E+00
    0.63250E-03         0.13793E-03         0.00000E+00
    0.63353E-03         0.69182E-04         0.00000E+00
    0.00000E+00         0.20077E-02         0.00000E+00
    0.48099E-04         0.20101E-02         0.00000E+00
    0.94510E-04         0.20093E-02         0.00000E+00
    0.13919E-03         0.19977E-02         0.00000E+00
    0.18208E-03         0.19755E-02         0.00000E+00
    0.22314E-03         0.19430E-02         0.00000E+00
    0.26232E-03         0.19005E-02         0.00000E+00
    0.29958E-03         0.18485E-02         0.00000E+00
    0.33487E-03         0.17874E-02         0.00000E+00
    0.36815E-03         0.17176E-02         0.00000E+00
    0.39938E-03         0.16397E-02         0.00000E+00
    0.42853E-03         0.15542E-02         0.00000E+00
    0.45557E-03         0.14617E-02         0.00000E+00
    0.48046E-03         0.13628E-02         0.00000E+00
    0.50318E-03         0.12579E-02         0.00000E+00
    0.52371E-03         0.11477E-02         0.00000E+00
    0.54204E-03         0.10328E-02         0.00000E+00
    0.55816E-03         0.91355E-03         0.00000E+00
    0.57207E-03         0.79057E-03         0.00000E+00
    0.58377E-03         0.66432E-03         0.00000E+00
    0.59328E-03         0.53528E-03         0.00000E+00
    0.60060E-03         0.40390E-03         0.00000E+00
    0.60578E-03         0.27062E-03         0.00000E+00
    0.60885E-03         0.13586E-03         0.00000E+00
    0.60986E-03         0.68160E-04         0.00000E+00
    0.00000E+00         0.19606E-02         0.00000E+00
    0.45998E-04         0.19638E-02         0.00000E+00
    0.90388E-04         0.19647E-02         0.00000E+00
    0.13312E-03         0.19548E-02         0.00000E+00
    0.17416E-03         0.19344E-02         0.00000E+00
    0.21344E-03         0.19037E-02         0.00000E+00
    0.25093E-03         0.18631E-02         0.00000E+00
    0.28658E-03         0.18130E-02         0.00000E+00
    0.32036E-03         0.17538E-02         0.00000E+00
    0.35221E-03         0.16860E-02         0.00000E+00
    0.38211E-03         0.16101E-02         0.00000E+00
    0.41002E-03         0.15267E-02         0.00000E+00
    0.43590E-03         0.14363E-02         0.00000E+00
    0.45974E-03         0.13394E-02         0.00000E+00
    0.48150E-03         0.12367E-02         0.00000E+00
    0.50117E-03         0.11287E-02         0.00000E+00
    0.51873E-03         0.10159E-02         0.00000E+00
    0.53418E-03         0.89883E-03         0.00000E+00
    0.54751E-03         0.77801E-03         0.00000E+00
    0.55873E-03         0.65392E-03         0.00000E+00
    0.56784E-03         0.52703E-03         0.00000E+00
    0.57488E-03         0.39777E-03         0.00000E+00
    0.57985E-03         0.26658E-03         0.00000E+00
    0.58280E-03         0.13386E-03         0.00000E+00
    0.58376E-03         0.67175E-04         0.00000E+00
    0.00000E+00         0.19157E-02         0.00000E+00
    0.43720E-04         0.19197E-02         0.00000E+00
    0.85917E-04         0.19222E-02         0.00000E+00
    0.12655E-03         0.19139E-02         0.00000E+00
    0.16556E-03         0.18952E-02         0.00000E+00
    0.20292E-03         0.18662E-02         0.00000E+00
    0.23858E-03         0.18274E-02         0.00000E+00
    0.27249E-03         0.17791E-02         0.00000E+00
    0.30461E-03         0.17217E-02         0.00000E+00
    0.33492E-03         0.16558E-02         0.00000E+00
    0.36336E-03         0.15819E-02         0.00000E+00
    0.38991E-03         0.15004E-02         0.00000E+00
    0.41455E-03         0.14120E-02         0.00000E+00
    0.43723E-03         0.13172E-02         0.00000E+00
    0.45794E-03         0.12165E-02         0.00000E+00
    0.47667E-03         0.11105E-02         0.00000E+00
    0.49339E-03         0.99977E-03         0.00000E+00
    0.50811E-03         0.88477E-03         0.00000E+00
    0.52081E-03         0.76602E-03         0.00000E+00
    0.53150E-03         0.64399E-03         0.00000E+00
    0.54019E-03         0.51913E-03         0.00000E+00
    0.54690E-03         0.39190E-03         0.00000E+00
    0.55164E-03         0.26270E-03         0.00000E+00
    0.55446E-03         0.13195E-03         0.00000E+00
    0.55538E-03         0.66231E-04         0.00000E+00
    0.33275E-17         0.18732E-02         0.00000E+00
    0.41276E-04         0.18779E-02         0.00000E+00
    0.81122E-04         0.18819E-02         0.00000E+00
    0.11949E-03         0.18752E-02         0.00000E+00
    0.15634E-03         0.18580E-02         0.00000E+00
    0.19163E-03         0.18307E-02         0.00000E+00
    0.22531E-03         0.17935E-02         0.00000E+00
    0.25735E-03         0.17469E-02         0.00000E+00
    0.28771E-03         0.16913E-02         0.00000E+00
    0.31634E-03         0.16272E-02         0.00000E+00
    0.34322E-03         0.15551E-02         0.00000E+00
    0.36832E-03         0.14755E-02         0.00000E+00
    0.39160E-03         0.13889E-02         0.00000E+00
    0.41305E-03         0.12960E-02         0.00000E+00
    0.43263E-03         0.11973E-02         0.00000E+00
    0.45034E-03         0.10933E-02         0.00000E+00
    0.46616E-03         0.98446E-03         0.00000E+00
    0.48008E-03         0.87142E-03         0.00000E+00
    0.49210E-03         0.75462E-03         0.00000E+00
    0.50222E-03         0.63454E-03         0.00000E+00
    0.51044E-03         0.51163E-03         0.00000E+00
    0.51680E-03         0.38632E-03         0.00000E+00
    0.52130E-03         0.25901E-03         0.00000E+00
    0.52397E-03         0.13012E-03         0.00000E+00
    0.52484E-03         0.65331E-04         0.00000E+00
    0.46608E-31         0.18332E-02         0.00000E+00
    0.38679E-04         0.18386E-02         0.00000E+00
    0.76023E-04         0.18439E-02         0.00000E+00
    0.11199E-03         0.18387E-02         0.00000E+00
    0.14654E-03         0.18230E-02         0.00000E+00
    0.17962E-03         0.17973E-02         0.00000E+00
    0.21120E-03         0.17617E-02         0.00000E+00
    0.24125E-03         0.17167E-02         0.00000E+00
    0.26972E-03         0.16627E-02         0.00000E+00
    0.29657E-03         0.16003E-02         0.00000E+00
    0.32179E-03         0.15299E-02         0.00000E+00
    0.34533E-03         0.14520E-02         0.00000E+00
    0.36718E-03         0.13673E-02         0.00000E+00
    0.38730E-03         0.12761E-02         0.00000E+00
    0.40568E-03         0.11792E-02         0.00000E+00
    0.42230E-03         0.10770E-02         0.00000E+00
    0.43715E-03         0.97003E-03         0.00000E+00
    0.45022E-03         0.85883E-03         0.00000E+00
    0.46151E-03         0.74388E-03         0.00000E+00
    0.47101E-03         0.62564E-03         0.00000E+00
    0.47875E-03         0.50455E-03         0.00000E+00
    0.48472E-03         0.38105E-03         0.00000E+00
    0.48895E-03         0.25553E-03         0.00000E+00
    0.49147E-03         0.12840E-03         0.00000E+00
    0.49229E-03         0.64480E-04         0.00000E+00
   -0.31901E-17         0.17958E-02         0.00000E+00
    0.35941E-04         0.18019E-02         0.00000E+00
    0.70647E-04         0.18085E-02         0.00000E+00
    0.10408E-03         0.18047E-02         0.00000E+00
    0.13619E-03         0.17904E-02         0.00000E+00
    0.16695E-03         0.17660E-02         0.00000E+00
    0.19632E-03         0.17319E-02         0.00000E+00
    0.22425E-03         0.16884E-02         0.00000E+00
    0.25073E-03         0.16360E-02         0.00000E+00
    0.27571E-03         0.15751E-02         0.00000E+00
    0.29916E-03         0.15063E-02         0.00000E+00
    0.32106E-03         0.14301E-02         0.00000E+00
    0.34138E-03         0.13470E-02         0.00000E+00
    0.36010E-03         0.12575E-02         0.00000E+00
    0.37721E-03         0.11623E-02         0.00000E+00
    0.39268E-03         0.10618E-02         0.00000E+00
    0.40650E-03         0.95654E-03         0.00000E+00
    0.41867E-03         0.84706E-03         0.00000E+00
    0.42918E-03         0.73383E-03         0.00000E+00
    0.43803E-03         0.61730E-03         0.00000E+00
    0.44524E-03         0.49792E-03         0.00000E+00
    0.45081E-03         0.37611E-03         0.00000E+00
    0.45476E-03         0.25227E-03         0.00000E+00
    0.45710E-03         0.12679E-03         0.00000E+00
    0.45787E-03         0.63681E-04         0.00000E+00
    0.00000E+00         0.17613E-02         0.00000E+00
    0.33073E-04         0.17679E-02         0.00000E+00
    0.65016E-04         0.17758E-02         0.00000E+00
    0.95788E-04         0.17732E-02         0.00000E+00
    0.12535E-03         0.17602E-02         0.00000E+00
    0.15367E-03         0.17371E-02         0.00000E+00
    0.18071E-03         0.17044E-02         0.00000E+00
    0.20644E-03         0.16623E-02         0.00000E+00
    0.23082E-03         0.16113E-02         0.00000E+00
    0.25383E-03         0.15519E-02         0.00000E+00
    0.27543E-03         0.14845E-02         0.00000E+00
    0.29561E-03         0.14098E-02         0.00000E+00
    0.31433E-03         0.13282E-02         0.00000E+00
    0.33158E-03         0.12403E-02         0.00000E+00
    0.34734E-03         0.11466E-02         0.00000E+00
    0.36160E-03         0.10477E-02         0.00000E+00
    0.37434E-03         0.94404E-03         0.00000E+00
    0.38556E-03         0.83615E-03         0.00000E+00
    0.39525E-03         0.72451E-03         0.00000E+00
    0.40342E-03         0.60957E-03         0.00000E+00
    0.41007E-03         0.49178E-03         0.00000E+00
    0.41521E-03         0.37153E-03         0.00000E+00
    0.41886E-03         0.24924E-03         0.00000E+00
    0.42102E-03         0.12529E-03         0.00000E+00
    0.42174E-03         0.62939E-04         0.00000E+00
    0.00000E+00         0.17297E-02         0.00000E+00
    0.30090E-04         0.17368E-02         0.00000E+00
    0.59155E-04         0.17458E-02         0.00000E+00
    0.87160E-04         0.17443E-02         0.00000E+00
    0.11407E-03         0.17325E-02         0.00000E+00
    0.13985E-03         0.17107E-02         0.00000E+00
    0.16446E-03         0.16791E-02         0.00000E+00
    0.18788E-03         0.16383E-02         0.00000E+00
    0.21008E-03         0.15886E-02         0.00000E+00
    0.23103E-03         0.15305E-02         0.00000E+00
    0.25071E-03         0.14646E-02         0.00000E+00
    0.26908E-03         0.13912E-02         0.00000E+00
    0.28613E-03         0.13110E-02         0.00000E+00
    0.30185E-03         0.12245E-02         0.00000E+00
    0.31620E-03         0.11323E-02         0.00000E+00
    0.32919E-03         0.10348E-02         0.00000E+00
    0.34081E-03         0.93258E-03         0.00000E+00
    0.35103E-03         0.82615E-03         0.00000E+00
    0.35987E-03         0.71596E-03         0.00000E+00
    0.36732E-03         0.60248E-03         0.00000E+00
    0.37339E-03         0.48613E-03         0.00000E+00
    0.37808E-03         0.36733E-03         0.00000E+00
    0.38140E-03         0.24646E-03         0.00000E+00
    0.38338E-03         0.12391E-03         0.00000E+00
    0.38404E-03         0.62257E-04         0.00000E+00
    0.00000E+00         0.17011E-02         0.00000E+00
    0.27002E-04         0.17088E-02         0.00000E+00
    0.53089E-04         0.17187E-02         0.00000E+00
    0.78227E-04         0.17182E-02         0.00000E+00
    0.10238E-03         0.17075E-02         0.00000E+00
    0.12553E-03         0.16867E-02         0.00000E+00
    0.14763E-03         0.16563E-02         0.00000E+00
    0.16866E-03         0.16167E-02         0.00000E+00
    0.18860E-03         0.15681E-02         0.00000E+00
    0.20741E-03         0.15112E-02         0.00000E+00
    0.22509E-03         0.14465E-02         0.00000E+00
    0.24159E-03         0.13744E-02         0.00000E+00
    0.25691E-03         0.12954E-02         0.00000E+00
    0.27103E-03         0.12102E-02         0.00000E+00
    0.28393E-03         0.11193E-02         0.00000E+00
    0.29560E-03         0.10231E-02         0.00000E+00
    0.30604E-03         0.92220E-03         0.00000E+00
    0.31523E-03         0.81709E-03         0.00000E+00
    0.32318E-03         0.70822E-03         0.00000E+00
    0.32988E-03         0.59606E-03         0.00000E+00
    0.33534E-03         0.48102E-03         0.00000E+00
    0.33956E-03         0.36352E-03         0.00000E+00
    0.34255E-03         0.24394E-03         0.00000E+00
    0.34434E-03         0.12266E-03         0.00000E+00
    0.34492E-03         0.61637E-04         0.00000E+00
    0.00000E+00         0.16757E-02         0.00000E+00
    0.23823E-04         0.16838E-02         0.00000E+00
    0.46842E-04         0.16946E-02         0.00000E+00
    0.69026E-04         0.16950E-02         0.00000E+00
    0.90347E-04         0.16852E-02         0.00000E+00
    0.11078E-03         0.16654E-02         0.00000E+00
    0.13029E-03         0.16360E-02         0.00000E+00
    0.14885E-03         0.15974E-02         0.00000E+00
    0.16646E-03         0.15499E-02         0.00000E+00
    0.18307E-03         0.14941E-02         0.00000E+00
    0.19867E-03         0.14304E-02         0.00000E+00
    0.21325E-03         0.13594E-02         0.00000E+00
    0.22677E-03         0.12816E-02         0.00000E+00
    0.23924E-03         0.11975E-02         0.00000E+00
    0.25064E-03         0.11077E-02         0.00000E+00
    0.26095E-03         0.10127E-02         0.00000E+00
    0.27017E-03         0.91295E-03         0.00000E+00
    0.27830E-03         0.80901E-03         0.00000E+00
    0.28532E-03         0.70132E-03         0.00000E+00
    0.29125E-03         0.59032E-03         0.00000E+00
    0.29607E-03         0.47645E-03         0.00000E+00
    0.29981E-03         0.36011E-03         0.00000E+00
    0.30246E-03         0.24168E-03         0.00000E+00
    0.30403E-03         0.12154E-03         0.00000E+00
    0.30455E-03         0.61083E-04         0.00000E+00
    0.00000E+00         0.16535E-02         0.00000E+00
    0.20565E-04         0.16619E-02         0.00000E+00
    0.40438E-04         0.16735E-02         0.00000E+00
    0.59592E-04         0.16747E-02         0.00000E+00
    0.78003E-04         0.16657E-02         0.00000E+00
    0.95645E-04         0.16468E-02         0.00000E+00
    0.11250E-03         0.16183E-02         0.00000E+00
    0.12853E-03         0.15805E-02         0.00000E+00
    0.14374E-03         0.15339E-02         0.00000E+00
    0.15809E-03         0.14790E-02         0.00000E+00
    0.17157E-03         0.14163E-02         0.00000E+00
    0.18416E-03         0.13463E-02         0.00000E+00
    0.19585E-03         0.12694E-02         0.00000E+00
    0.20662E-03         0.11864E-02         0.00000E+00
    0.21647E-03         0.10976E-02         0.00000E+00
    0.22538E-03         0.10036E-02         0.00000E+00
    0.23335E-03         0.90486E-03         0.00000E+00
    0.24038E-03         0.80194E-03         0.00000E+00
    0.24645E-03         0.69527E-03         0.00000E+00
    0.25157E-03         0.58531E-03         0.00000E+00
    0.25575E-03         0.47246E-03         0.00000E+00
    0.25898E-03         0.35713E-03         0.00000E+00
    0.26127E-03         0.23971E-03         0.00000E+00
    0.26264E-03         0.12056E-03         0.00000E+00
    0.26309E-03         0.60597E-04         0.00000E+00
    0.00000E+00         0.16346E-02         0.00000E+00
    0.17239E-04         0.16433E-02         0.00000E+00
    0.33900E-04         0.16556E-02         0.00000E+00
    0.49960E-04         0.16575E-02         0.00000E+00
    0.65398E-04         0.16492E-02         0.00000E+00
    0.80192E-04         0.16309E-02         0.00000E+00
    0.94324E-04         0.16031E-02         0.00000E+00
    0.10777E-03         0.15661E-02         0.00000E+00
    0.12053E-03         0.15203E-02         0.00000E+00
    0.13256E-03         0.14662E-02         0.00000E+00
    0.14387E-03         0.14043E-02         0.00000E+00
    0.15443E-03         0.13351E-02         0.00000E+00
    0.16424E-03         0.12591E-02         0.00000E+00
    0.17328E-03         0.11769E-02         0.00000E+00
    0.18154E-03         0.10889E-02         0.00000E+00
    0.18902E-03         0.99579E-03         0.00000E+00
    0.19571E-03         0.89795E-03         0.00000E+00
    0.20160E-03         0.79591E-03         0.00000E+00
    0.20670E-03         0.69012E-03         0.00000E+00
    0.21100E-03         0.58103E-03         0.00000E+00
    0.21451E-03         0.46905E-03         0.00000E+00
    0.21722E-03         0.35459E-03         0.00000E+00
    0.21915E-03         0.23802E-03         0.00000E+00
    0.22030E-03         0.11972E-03         0.00000E+00
    0.22068E-03         0.60182E-04         0.00000E+00
    0.00000E+00         0.16190E-02         0.00000E+00
    0.13857E-04         0.16280E-02         0.00000E+00
    0.27251E-04         0.16408E-02         0.00000E+00
    0.40163E-04         0.16432E-02         0.00000E+00
    0.52576E-04         0.16355E-02         0.00000E+00
    0.64472E-04         0.16179E-02         0.00000E+00
    0.75835E-04         0.15907E-02         0.00000E+00
    0.86652E-04         0.15543E-02         0.00000E+00
    0.96907E-04         0.15091E-02         0.00000E+00
    0.10659E-03         0.14557E-02         0.00000E+00
    0.11568E-03         0.13944E-02         0.00000E+00
    0.12418E-03         0.13259E-02         0.00000E+00
    0.13207E-03         0.12506E-02         0.00000E+00
    0.13934E-03         0.11691E-02         0.00000E+00
    0.14598E-03         0.10818E-02         0.00000E+00
    0.15200E-03         0.98939E-03         0.00000E+00
    0.15738E-03         0.89227E-03         0.00000E+00
    0.16213E-03         0.79095E-03         0.00000E+00
    0.16623E-03         0.68587E-03         0.00000E+00
    0.16969E-03         0.57750E-03         0.00000E+00
    0.17252E-03         0.46624E-03         0.00000E+00
    0.17470E-03         0.35249E-03         0.00000E+00
    0.17625E-03         0.23663E-03         0.00000E+00
    0.17718E-03         0.11903E-03         0.00000E+00
    0.17748E-03         0.59839E-04         0.00000E+00
    0.00000E+00         0.16069E-02         0.00000E+00
    0.10432E-04         0.16161E-02         0.00000E+00
    0.20515E-04         0.16293E-02         0.00000E+00
    0.30236E-04         0.16321E-02         0.00000E+00
    0.39582E-04         0.16248E-02         0.00000E+00
    0.48539E-04         0.16077E-02         0.00000E+00
    0.57096E-04         0.15809E-02         0.00000E+00
    0.65241E-04         0.15450E-02         0.00000E+00
    0.72963E-04         0.15004E-02         0.00000E+00
    0.80253E-04         0.14475E-02         0.00000E+00
    0.87102E-04         0.13867E-02         0.00000E+00
    0.93501E-04         0.13187E-02         0.00000E+00
    0.99442E-04         0.12439E-02         0.00000E+00
    0.10492E-03         0.11630E-02         0.00000E+00
    0.10993E-03         0.10763E-02         0.00000E+00
    0.11446E-03         0.98439E-03         0.00000E+00
    0.11851E-03         0.88783E-03         0.00000E+00
    0.12209E-03         0.78706E-03         0.00000E+00
    0.12518E-03         0.68256E-03         0.00000E+00
    0.12779E-03         0.57474E-03         0.00000E+00
    0.12992E-03         0.46404E-03         0.00000E+00
    0.13156E-03         0.35085E-03         0.00000E+00
    0.13273E-03         0.23554E-03         0.00000E+00
    0.13343E-03         0.11849E-03         0.00000E+00
    0.13366E-03         0.59571E-04         0.00000E+00
    0.00000E+00         0.15981E-02         0.00000E+00
    0.69726E-05         0.16075E-02         0.00000E+00
    0.13713E-04         0.16210E-02         0.00000E+00
    0.20211E-04         0.16242E-02         0.00000E+00
    0.26459E-04         0.16172E-02         0.00000E+00
    0.32447E-04         0.16004E-02         0.00000E+00
    0.38168E-04         0.15740E-02         0.00000E+00
    0.43613E-04         0.15384E-02         0.00000E+00
    0.48777E-04         0.14941E-02         0.00000E+00
    0.53651E-04         0.14415E-02         0.00000E+00
    0.58230E-04         0.13812E-02         0.00000E+00
    0.62509E-04         0.13136E-02         0.00000E+00
    0.66481E-04         0.12392E-02         0.00000E+00
    0.70144E-04         0.11586E-02         0.00000E+00
    0.73493E-04         0.10723E-02         0.00000E+00
    0.76524E-04         0.98080E-03         0.00000E+00
    0.79236E-04         0.88464E-03         0.00000E+00
    0.81626E-04         0.78428E-03         0.00000E+00
    0.83694E-04         0.68017E-03         0.00000E+00
    0.85440E-04         0.57276E-03         0.00000E+00
    0.86863E-04         0.46246E-03         0.00000E+00
    0.87965E-04         0.34967E-03         0.00000E+00
    0.88748E-04         0.23476E-03         0.00000E+00
    0.89215E-04         0.11810E-03         0.00000E+00
    0.89369E-04         0.59379E-04         0.00000E+00
    0.00000E+00         0.15929E-02         0.00000E+00
    0.34918E-05         0.16024E-02         0.00000E+00
    0.68673E-05         0.16160E-02         0.00000E+00
    0.10122E-04         0.16194E-02         0.00000E+00
    0.13251E-04         0.16126E-02         0.00000E+00
    0.16250E-04         0.15960E-02         0.00000E+00
    0.19115E-04         0.15698E-02         0.00000E+00
    0.21843E-04         0.15344E-02         0.00000E+00
    0.24429E-04         0.14904E-02         0.00000E+00
    0.26870E-04         0.14380E-02         0.00000E+00
    0.29164E-04         0.13779E-02         0.00000E+00
    0.31307E-04         0.13105E-02         0.00000E+00
    0.33297E-04         0.12363E-02         0.00000E+00
    0.35131E-04         0.11559E-02         0.00000E+00
    0.36809E-04         0.10699E-02         0.00000E+00
    0.38327E-04         0.97865E-03         0.00000E+00
    0.39686E-04         0.88273E-03         0.00000E+00
    0.40883E-04         0.78261E-03         0.00000E+00
    0.41919E-04         0.67874E-03         0.00000E+00
    0.42794E-04         0.57157E-03         0.00000E+00
    0.43507E-04         0.46152E-03         0.00000E+00
    0.44059E-04         0.34896E-03         0.00000E+00
    0.44452E-04         0.23429E-03         0.00000E+00
    0.44686E-04         0.11787E-03         0.00000E+00
    0.44763E-04         0.59263E-04         0.00000E+00
    0.00000E+00         0.15912E-02         0.00000E+00
    0.17472E-05         0.16006E-02         0.00000E+00
    0.34364E-05         0.16144E-02         0.00000E+00
    0.50650E-05         0.16178E-02         0.00000E+00
    0.66307E-05         0.16111E-02         0.00000E+00
    0.81315E-05         0.15945E-02         0.00000E+00
    0.95653E-05         0.15684E-02         0.00000E+00
    0.10930E-04         0.15331E-02         0.00000E+00
    0.12224E-04         0.14891E-02         0.00000E+00
    0.13446E-04         0.14368E-02         0.00000E+00
    0.14594E-04         0.13768E-02         0.00000E+00
    0.15667E-04         0.13094E-02         0.00000E+00
    0.16662E-04         0.12354E-02         0.00000E+00
    0.17581E-04         0.11551E-02         0.00000E+00
    0.18420E-04         0.10691E-02         0.00000E+00
    0.19180E-04         0.97793E-03         0.00000E+00
    0.19860E-04         0.88209E-03         0.00000E+00
    0.20459E-04         0.78205E-03         0.00000E+00
    0.20978E-04         0.67826E-03         0.00000E+00
    0.21415E-04         0.57118E-03         0.00000E+00
    0.21772E-04         0.46120E-03         0.00000E+00
    0.22049E-04         0.34873E-03         0.00000E+00
    0.22245E-04         0.23414E-03         0.00000E+00
    0.22362E-04         0.11779E-03         0.00000E+00
    0.22401E-04         0.59224E-04         0.00000E+00
CELL_DATA       1152
TENSORS stressef double 
   -0.48991E+05         0.36664E+03         0.00000E+00
    0.36664E+03        -0.99274E+05         0.00000E+00
    0.00000E+00         0.00000E+00        -0.55521E+05
 
   -0.39281E+05         0.26455E+04         0.00000E+00
    0.26455E+04        -0.95852E+05         0.00000E+00
    0.00000E+00         0.00000E+00        -0.65088E+05
 
   -0.33665E+05         0.38016E+04         0.00000E+00
    0.38016E+04        -0.87733E+05         0.00000E+00
    0.00000E+00         0.00000E+00        -0.62477E+05
 
   -0.28413E+05         0.40459E+04         0.00000E+00
    0.40459E+04        -0.79073E+05         0.00000E+00
    0.00000E+00         0.00000E+00        -0.56695E+05
 
   -0.23486E+05         0.38878E+04         0.00000E+00
    0.38878E+04        -0.71018E+05         0.00000E+00
    0.00000E+00         0.00000E+00        -0.50397E+05
 
   -0.18995E+05         0.35868E+04         0.00000E+00
    0.35868E+04        -0.63649E+05         0.00000E+00
    0.00000E+00         0.00000E+00        -0.44243E+05
 
   -0.14945E+05         0.32007E+04         0.00000E+00
    0.32007E+04        -0.56988E+05         0.00000E+00
    0.00000E+00         0.00000E+00        -0.38491E+05
 
   -0.11784E+05         0.27799E+04         0.00000E+00
    0.27799E+04        -0.51009E+05         0.00000E+00
    0.00000E+00         0.00000E+00        -0.33441E+05
 
   -0.91052E+04         0.24122E+04         0.00000E+00
    0.24122E+04        -0.45721E+05         0.00000E+00
    0.00000E+00         0.00000E+00        -0.29038E+05
 
   -0.67583E+04         0.20829E+04         0.00000E+00
    0.20829E+04        -0.41097E+05         0.00000E+00
    0.00000E+00         0.00000E+00        -0.25230E+05
 
   -0.48116E+04         0.18067E+04         0.00000E+00
    0.18067E+04        -0.37009E+05         0.00000E+00
    0.00000E+00         0.00000E+00        -0.21973E+05
 
   -0.31025E+04         0.16184E+04         0.00000E+00
    0.16184E+04        -0.33396E+05         0.00000E+00
    0.00000E+00         0.00000E+00        -0.19096E+05
 
   -0.15441E+04         0.14543E+04         0.00000E+00
    0.14543E+04        -0.30180E+05         0.00000E+00
    0.00000E+00         0.00000E+00        -0.16477E+05
 
   -0.11751E+03         0.13099E+04         0.00000E+00
    0.13099E+04        -0.27272E+05         0.00000E+00
    0.00000E+00         0.00000E+00        -0.14052E+05
 
    0.11994E+04         0.11694E+04         0.00000E+00
    0.11694E+04        -0.24654E+05         0.00000E+00
    0.00000E+00         0.00000E+00        -0.11772E+05
 
    0.24253E+04         0.10629E+04         0.00000E+00
    0.10629E+04        -0.22293E+05         0.00000E+00
    0.00000E+00         0.00000E+00        -0.95927E+04
 
    0.35186E+04         0.91478E+03         0.00000E+00
    0.91478E+03        -0.20214E+05         0.00000E+00
    0.00000E+00         0.00000E+00        -0.75298E+04
 
    0.43453E+04         0.80320E+03         0.00000E+00
    0.80320E+03        -0.18408E+05         0.00000E+00
    0.00000E+00         0.00000E+00        -0.57577E+04
 
    0.50274E+04         0.70817E+03         0.00000E+00
    0.70817E+03        -0.16817E+05         0.00000E+00
    0.00000E+00         0.00000E+00        -0.41287E+04
 
    0.48767E+04         0.61432E+03         0.00000E+00
    0.61432E+03        -0.15409E+05         0.00000E+00
    0.00000E+00         0.00000E+00        -0.31598E+04
 
    0.27565E+04         0.53296E+03         0.00000E+00
    0.53296E+03        -0.14195E+05         0.00000E+00
    0.00000E+00         0.00000E+00        -0.34316E+04
 
    0.72291E+03         0.48611E+03         0.00000E+00
    0.48611E+03        -0.13126E+05         0.00000E+00
    0.00000E+00         0.00000E+00        -0.37209E+04
 
   -0.13290E+04         0.46585E+03         0.00000E+00
    0.46585E+03        -0.12141E+05         0.00000E+00
    0.00000E+00         0.00000E+00        -0.40411E+04
 
   -0.34829E+04         0.46873E+03         0.00000E+00
    0.46873E+03        -0.11193E+05         0.00000E+00
    0.00000E+00         0.00000E+00        -0.44027E+04
 
   -0.45633E+05         0.27371E+04         0.00000E+00
    0.27371E+04        -0.98789E+05         0.00000E+00
    0.00000E+00         0.00000E+00        -0.58400E+05
 
   -0.36010E+05         0.97057E+04         0.00000E+00
    0.97057E+04        -0.87908E+05         0.00000E+00
    0.00000E+00         0.00000E+00        -0.63100E+05
 
   -0.32313E+05         0.11683E+05         0.00000E+00
    0.11683E+05        -0.79189E+05         0.00000E+00
    0.00000E+00         0.00000E+00        -0.58728E+05
 
   -0.28447E+05         0.11856E+05         0.00000E+00
    0.11856E+05        -0.71916E+05         0.00000E+00
    0.00000E+00         0.00000E+00        -0.53536E+05
 
   -0.24090E+05         0.11168E+05         0.00000E+00
    0.11168E+05        -0.64993E+05         0.00000E+00
    0.00000E+00         0.00000E+00        -0.47840E+05
 
   -0.19782E+05         0.10161E+05         0.00000E+00
    0.10161E+05        -0.58697E+05         0.00000E+00
    0.00000E+00         0.00000E+00        -0.42249E+05
 
   -0.15901E+05         0.90220E+04         0.00000E+00
    0.90220E+04        -0.53055E+05         0.00000E+00
    0.00000E+00         0.00000E+00        -0.37069E+05
 
   -0.12581E+05         0.79154E+04         0.00000E+00
    0.79154E+04        -0.48054E+05         0.00000E+00
    0.00000E+00         0.00000E+00        -0.32438E+05
 
   -0.98189E+04         0.69028E+04         0.00000E+00
    0.69028E+04        -0.43509E+05         0.00000E+00
    0.00000E+00         0.00000E+00        -0.28340E+05
 
   -0.73680E+04         0.60293E+04         0.00000E+00
    0.60293E+04        -0.39348E+05         0.00000E+00
    0.00000E+00         0.00000E+00        -0.24674E+05
 
   -0.52449E+04         0.53179E+04         0.00000E+00
    0.53179E+04        -0.35653E+05         0.00000E+00
    0.00000E+00         0.00000E+00        -0.21452E+05
 
   -0.34370E+04         0.47534E+04         0.00000E+00
    0.47534E+04        -0.32279E+05         0.00000E+00
    0.00000E+00         0.00000E+00        -0.18616E+05
 
   -0.18625E+04         0.42692E+04         0.00000E+00
    0.42692E+04        -0.29201E+05         0.00000E+00
    0.00000E+00         0.00000E+00        -0.16058E+05
 
   -0.39923E+03         0.38506E+04         0.00000E+00
    0.38506E+04        -0.26463E+05         0.00000E+00
    0.00000E+00         0.00000E+00        -0.13678E+05
 
    0.94027E+03         0.34547E+04         0.00000E+00
    0.34547E+04        -0.24000E+05         0.00000E+00
    0.00000E+00         0.00000E+00        -0.11461E+05
 
    0.21673E+04         0.30746E+04         0.00000E+00
    0.30746E+04        -0.21815E+05         0.00000E+00
    0.00000E+00         0.00000E+00        -0.93788E+04
 
    0.32563E+04         0.27052E+04         0.00000E+00
    0.27052E+04        -0.19876E+05         0.00000E+00
    0.00000E+00         0.00000E+00        -0.73800E+04
 
    0.41341E+04         0.23672E+04         0.00000E+00
    0.23672E+04        -0.18132E+05         0.00000E+00
    0.00000E+00         0.00000E+00        -0.56403E+04
 
    0.48555E+04         0.20999E+04         0.00000E+00
    0.20999E+04        -0.16598E+05         0.00000E+00
    0.00000E+00         0.00000E+00        -0.40584E+04
 
    0.46664E+04         0.18295E+04         0.00000E+00
    0.18295E+04        -0.15226E+05         0.00000E+00
    0.00000E+00         0.00000E+00        -0.31679E+04
 
    0.26273E+04         0.15899E+04         0.00000E+00
    0.15899E+04        -0.14035E+05         0.00000E+00
    0.00000E+00         0.00000E+00        -0.34223E+04
 
    0.65245E+03         0.14508E+04         0.00000E+00
    0.14508E+04        -0.12982E+05         0.00000E+00
    0.00000E+00         0.00000E+00        -0.36988E+04
 
   -0.13508E+04         0.13897E+04         0.00000E+00
    0.13897E+04        -0.12013E+05         0.00000E+00
    0.00000E+00         0.00000E+00        -0.40092E+04
 
   -0.34603E+04         0.13977E+04         0.00000E+00
    0.13977E+04        -0.11081E+05         0.00000E+00
    0.00000E+00         0.00000E+00        -0.43624E+04
 
   -0.33361E+05         0.16156E+05         0.00000E+00
    0.16156E+05        -0.74874E+05         0.00000E+00
    0.00000E+00         0.00000E+00        -0.55276E+05
 
   -0.32361E+05         0.18364E+05         0.00000E+00
    0.18364E+05        -0.63553E+05         0.00000E+00
    0.00000E+00         0.00000E+00        -0.52288E+05
 
   -0.32448E+05         0.18895E+05         0.00000E+00
    0.18895E+05        -0.60870E+05         0.00000E+00
    0.00000E+00         0.00000E+00        -0.50869E+05
 
   -0.29427E+05         0.17918E+05         0.00000E+00
    0.17918E+05        -0.57067E+05         0.00000E+00
    0.00000E+00         0.00000E+00        -0.47164E+05
 
   -0.25539E+05         0.16538E+05         0.00000E+00
    0.16538E+05        -0.53387E+05         0.00000E+00
    0.00000E+00         0.00000E+00        -0.43040E+05
 
   -0.21345E+05         0.14942E+05         0.00000E+00
    0.14942E+05        -0.49609E+05         0.00000E+00
    0.00000E+00         0.00000E+00        -0.38672E+05
 
   -0.17420E+05         0.13334E+05         0.00000E+00
    0.13334E+05        -0.45909E+05         0.00000E+00
    0.00000E+00         0.00000E+00        -0.34426E+05
 
   -0.13986E+05         0.11842E+05         0.00000E+00
    0.11842E+05        -0.42343E+05         0.00000E+00
    0.00000E+00         0.00000E+00        -0.30441E+05
 
   -0.10997E+05         0.10581E+05         0.00000E+00
    0.10581E+05        -0.38978E+05         0.00000E+00
    0.00000E+00         0.00000E+00        -0.26773E+05
 
   -0.83593E+04         0.94214E+04         0.00000E+00
    0.94214E+04        -0.35749E+05         0.00000E+00
    0.00000E+00         0.00000E+00        -0.23430E+05
 
   -0.60814E+04         0.83948E+04         0.00000E+00
    0.83948E+04        -0.32635E+05         0.00000E+00
    0.00000E+00         0.00000E+00        -0.20370E+05
 
   -0.41222E+04         0.75197E+04         0.00000E+00
    0.75197E+04        -0.29850E+05         0.00000E+00
    0.00000E+00         0.00000E+00        -0.17634E+05
 
   -0.24368E+04         0.67807E+04         0.00000E+00
    0.67807E+04        -0.27346E+05         0.00000E+00
    0.00000E+00         0.00000E+00        -0.15191E+05
 
   -0.94658E+03         0.61041E+04         0.00000E+00
    0.61041E+04        -0.25026E+05         0.00000E+00
    0.00000E+00         0.00000E+00        -0.12959E+05
 
    0.42794E+03         0.55035E+04         0.00000E+00
    0.55035E+04        -0.22902E+05         0.00000E+00
    0.00000E+00         0.00000E+00        -0.10848E+05
 
    0.16811E+04         0.49109E+04         0.00000E+00
    0.49109E+04        -0.20969E+05         0.00000E+00
    0.00000E+00         0.00000E+00        -0.88460E+04
 
    0.27823E+04         0.43369E+04         0.00000E+00
    0.43369E+04        -0.19204E+05         0.00000E+00
    0.00000E+00         0.00000E+00        -0.70346E+04
 
    0.37312E+04         0.38326E+04         0.00000E+00
    0.38326E+04        -0.17602E+05         0.00000E+00
    0.00000E+00         0.00000E+00        -0.53969E+04
 
    0.45405E+04         0.34219E+04         0.00000E+00
    0.34219E+04        -0.16145E+05         0.00000E+00
    0.00000E+00         0.00000E+00        -0.39072E+04
 
    0.42608E+04         0.30015E+04         0.00000E+00
    0.30015E+04        -0.14850E+05         0.00000E+00
    0.00000E+00         0.00000E+00        -0.31767E+04
 
    0.23751E+04         0.26191E+04         0.00000E+00
    0.26191E+04        -0.13705E+05         0.00000E+00
    0.00000E+00         0.00000E+00        -0.33989E+04
 
    0.51216E+03         0.23919E+04         0.00000E+00
    0.23919E+04        -0.12687E+05         0.00000E+00
    0.00000E+00         0.00000E+00        -0.36524E+04
 
   -0.13959E+04         0.22889E+04         0.00000E+00
    0.22889E+04        -0.11751E+05         0.00000E+00
    0.00000E+00         0.00000E+00        -0.39441E+04
 
   -0.34153E+04         0.23004E+04         0.00000E+00
    0.23004E+04        -0.10854E+05         0.00000E+00
    0.00000E+00         0.00000E+00        -0.42809E+04
 
   -0.12990E+05         0.14257E+05         0.00000E+00
    0.14257E+05        -0.27266E+05         0.00000E+00
    0.00000E+00         0.00000E+00        -0.24418E+05
 
   -0.32430E+05         0.19972E+05         0.00000E+00
    0.19972E+05        -0.37195E+05         0.00000E+00
    0.00000E+00         0.00000E+00        -0.40623E+05
 
   -0.32836E+05         0.19604E+05         0.00000E+00
    0.19604E+05        -0.36784E+05         0.00000E+00
    0.00000E+00         0.00000E+00        -0.39962E+05
 
   -0.30752E+05         0.19124E+05         0.00000E+00
    0.19124E+05        -0.37497E+05         0.00000E+00
    0.00000E+00         0.00000E+00        -0.38826E+05
 
   -0.27090E+05         0.18184E+05         0.00000E+00
    0.18184E+05        -0.37375E+05         0.00000E+00
    0.00000E+00         0.00000E+00        -0.36451E+05
 
   -0.23043E+05         0.17004E+05         0.00000E+00
    0.17004E+05        -0.36727E+05         0.00000E+00
    0.00000E+00         0.00000E+00        -0.33595E+05
 
   -0.19091E+05         0.15661E+05         0.00000E+00
    0.15661E+05        -0.35529E+05         0.00000E+00
    0.00000E+00         0.00000E+00        -0.30480E+05
 
   -0.15499E+05         0.14289E+05         0.00000E+00
    0.14289E+05        -0.33949E+05         0.00000E+00
    0.00000E+00         0.00000E+00        -0.27330E+05
 
   -0.12384E+05         0.12986E+05         0.00000E+00
    0.12986E+05        -0.32185E+05         0.00000E+00
    0.00000E+00         0.00000E+00        -0.24274E+05
 
   -0.95671E+04         0.11822E+05         0.00000E+00
    0.11822E+05        -0.30383E+05         0.00000E+00
    0.00000E+00         0.00000E+00        -0.21341E+05
 
   -0.71461E+04         0.10711E+05         0.00000E+00
    0.10711E+05        -0.28515E+05         0.00000E+00
    0.00000E+00         0.00000E+00        -0.18644E+05
 
   -0.50648E+04         0.96440E+04         0.00000E+00
    0.96440E+04        -0.26559E+05         0.00000E+00
    0.00000E+00         0.00000E+00        -0.16182E+05
 
   -0.32540E+04         0.87169E+04         0.00000E+00
    0.87169E+04        -0.24666E+05         0.00000E+00
    0.00000E+00         0.00000E+00        -0.13951E+05
 
   -0.16737E+04         0.79045E+04         0.00000E+00
    0.79045E+04        -0.22893E+05         0.00000E+00
    0.00000E+00         0.00000E+00        -0.11928E+05
 
   -0.25351E+03         0.71470E+04         0.00000E+00
    0.71470E+04        -0.21247E+05         0.00000E+00
    0.00000E+00         0.00000E+00        -0.10030E+05
 
    0.10074E+04         0.64306E+04         0.00000E+00
    0.64306E+04        -0.19722E+05         0.00000E+00
    0.00000E+00         0.00000E+00        -0.82673E+04
 
    0.21504E+04         0.57815E+04         0.00000E+00
    0.57815E+04        -0.18226E+05         0.00000E+00
    0.00000E+00         0.00000E+00        -0.66322E+04
 
    0.32045E+04         0.51673E+04         0.00000E+00
    0.51673E+04        -0.16805E+05         0.00000E+00
    0.00000E+00         0.00000E+00        -0.50878E+04
 
    0.41080E+04         0.46436E+04         0.00000E+00
    0.46436E+04        -0.15482E+05         0.00000E+00
    0.00000E+00         0.00000E+00        -0.36950E+04
 
    0.36898E+04         0.41036E+04         0.00000E+00
    0.41036E+04        -0.14261E+05         0.00000E+00
    0.00000E+00         0.00000E+00        -0.31714E+04
 
    0.20100E+04         0.35993E+04         0.00000E+00
    0.35993E+04        -0.13189E+05         0.00000E+00
    0.00000E+00         0.00000E+00        -0.33536E+04
 
    0.30342E+03         0.32896E+04         0.00000E+00
    0.32896E+04        -0.12229E+05         0.00000E+00
    0.00000E+00         0.00000E+00        -0.35776E+04
 
   -0.14661E+04         0.31438E+04         0.00000E+00
    0.31438E+04        -0.11349E+05         0.00000E+00
    0.00000E+00         0.00000E+00        -0.38445E+04
 
   -0.33486E+04         0.31569E+04         0.00000E+00
    0.31569E+04        -0.10509E+05         0.00000E+00
    0.00000E+00         0.00000E+00        -0.41572E+04
 
   -0.47317E+04         0.32274E+04         0.00000E+00
    0.32274E+04         0.38755E+04         0.00000E+00
    0.00000E+00         0.00000E+00         0.47766E+03
 
   -0.26320E+05         0.11065E+05         0.00000E+00
    0.11065E+05        -0.91137E+04         0.00000E+00
    0.00000E+00         0.00000E+00        -0.19394E+05
 
   -0.31203E+05         0.14144E+05         0.00000E+00
    0.14144E+05        -0.16751E+05         0.00000E+00
    0.00000E+00         0.00000E+00        -0.27115E+05
 
   -0.29931E+05         0.15521E+05         0.00000E+00
    0.15521E+05        -0.20727E+05         0.00000E+00
    0.00000E+00         0.00000E+00        -0.28519E+05
 
   -0.27210E+05         0.16116E+05         0.00000E+00
    0.16116E+05        -0.23415E+05         0.00000E+00
    0.00000E+00         0.00000E+00        -0.28306E+05
 
   -0.23737E+05         0.16052E+05         0.00000E+00
    0.16052E+05        -0.24982E+05         0.00000E+00
    0.00000E+00         0.00000E+00        -0.27014E+05
 
   -0.20115E+05         0.15535E+05         0.00000E+00
    0.15535E+05        -0.25752E+05         0.00000E+00
    0.00000E+00         0.00000E+00        -0.25171E+05
 
   -0.16658E+05         0.14732E+05         0.00000E+00
    0.14732E+05        -0.25894E+05         0.00000E+00
    0.00000E+00         0.00000E+00        -0.23047E+05
 
   -0.13528E+05         0.13794E+05         0.00000E+00
    0.13794E+05        -0.25552E+05         0.00000E+00
    0.00000E+00         0.00000E+00        -0.20820E+05
 
   -0.10714E+05         0.12812E+05         0.00000E+00
    0.12812E+05        -0.24883E+05         0.00000E+00
    0.00000E+00         0.00000E+00        -0.18583E+05
 
   -0.82314E+04         0.11853E+05         0.00000E+00
    0.11853E+05        -0.24049E+05         0.00000E+00
    0.00000E+00         0.00000E+00        -0.16424E+05
 
   -0.60561E+04         0.10932E+05         0.00000E+00
    0.10932E+05        -0.23050E+05         0.00000E+00
    0.00000E+00         0.00000E+00        -0.14387E+05
 
   -0.41473E+04         0.10040E+05         0.00000E+00
    0.10040E+05        -0.21855E+05         0.00000E+00
    0.00000E+00         0.00000E+00        -0.12486E+05
 
   -0.25176E+04         0.91828E+04         0.00000E+00
    0.91828E+04        -0.20617E+05         0.00000E+00
    0.00000E+00         0.00000E+00        -0.10741E+05
 
   -0.10299E+04         0.83648E+04         0.00000E+00
    0.83648E+04        -0.19399E+05         0.00000E+00
    0.00000E+00         0.00000E+00        -0.91090E+04
 
    0.28366E+03         0.76449E+04         0.00000E+00
    0.76449E+04        -0.18133E+05         0.00000E+00
    0.00000E+00         0.00000E+00        -0.75985E+04
 
    0.14744E+04         0.69721E+04         0.00000E+00
    0.69721E+04        -0.16913E+05         0.00000E+00
    0.00000E+00         0.00000E+00        -0.61629E+04
 
    0.25680E+04         0.63281E+04         0.00000E+00
    0.63281E+04        -0.15728E+05         0.00000E+00
    0.00000E+00         0.00000E+00        -0.47525E+04
 
    0.36022E+04         0.57576E+04         0.00000E+00
    0.57576E+04        -0.14541E+05         0.00000E+00
    0.00000E+00         0.00000E+00        -0.34314E+04
 
    0.29823E+04         0.51042E+04         0.00000E+00
    0.51042E+04        -0.13428E+05         0.00000E+00
    0.00000E+00         0.00000E+00        -0.31336E+04
 
    0.15464E+04         0.45019E+04         0.00000E+00
    0.45019E+04        -0.12465E+05         0.00000E+00
    0.00000E+00         0.00000E+00        -0.32755E+04
 
    0.27994E+02         0.41159E+04         0.00000E+00
    0.41159E+04        -0.11601E+05         0.00000E+00
    0.00000E+00         0.00000E+00        -0.34719E+04
 
   -0.15619E+04         0.39306E+04         0.00000E+00
    0.39306E+04        -0.10807E+05         0.00000E+00
    0.00000E+00         0.00000E+00        -0.37106E+04
 
   -0.32613E+04         0.39451E+04         0.00000E+00
    0.39451E+04        -0.10046E+05         0.00000E+00
    0.00000E+00         0.00000E+00        -0.39923E+04
 
    0.91900E+03        -0.11973E+04         0.00000E+00
   -0.11973E+04        -0.14969E+04         0.00000E+00
    0.00000E+00         0.00000E+00         0.66644E+02
 
   -0.23534E+05         0.57862E+04         0.00000E+00
    0.57862E+04        -0.25606E+04         0.00000E+00
    0.00000E+00         0.00000E+00        -0.96417E+04
 
   -0.28002E+05         0.95324E+04         0.00000E+00
    0.95324E+04        -0.83146E+04         0.00000E+00
    0.00000E+00         0.00000E+00        -0.17789E+05
 
   -0.28173E+05         0.11835E+05         0.00000E+00
    0.11835E+05        -0.12261E+05         0.00000E+00
    0.00000E+00         0.00000E+00        -0.21108E+05
 
   -0.26185E+05         0.13266E+05         0.00000E+00
    0.13266E+05        -0.15066E+05         0.00000E+00
    0.00000E+00         0.00000E+00        -0.22009E+05
 
   -0.23449E+05         0.14010E+05         0.00000E+00
    0.14010E+05        -0.17102E+05         0.00000E+00
    0.00000E+00         0.00000E+00        -0.21692E+05
 
   -0.20350E+05         0.14220E+05         0.00000E+00
    0.14220E+05        -0.18501E+05         0.00000E+00
    0.00000E+00         0.00000E+00        -0.20701E+05
 
   -0.17234E+05         0.14028E+05         0.00000E+00
    0.14028E+05        -0.19350E+05         0.00000E+00
    0.00000E+00         0.00000E+00        -0.19310E+05
 
   -0.14290E+05         0.13571E+05         0.00000E+00
    0.13571E+05        -0.19749E+05         0.00000E+00
    0.00000E+00         0.00000E+00        -0.17719E+05
 
   -0.11578E+05         0.12946E+05         0.00000E+00
    0.12946E+05        -0.19784E+05         0.00000E+00
    0.00000E+00         0.00000E+00        -0.16030E+05
 
   -0.91234E+04         0.12216E+05         0.00000E+00
    0.12216E+05        -0.19532E+05         0.00000E+00
    0.00000E+00         0.00000E+00        -0.14322E+05
 
   -0.69143E+04         0.11500E+05         0.00000E+00
    0.11500E+05        -0.19075E+05         0.00000E+00
    0.00000E+00         0.00000E+00        -0.12633E+05
 
   -0.50049E+04         0.10745E+05         0.00000E+00
    0.10745E+05        -0.18521E+05         0.00000E+00
    0.00000E+00         0.00000E+00        -0.11061E+05
 
   -0.33276E+04         0.99926E+04         0.00000E+00
    0.99926E+04        -0.17813E+05         0.00000E+00
    0.00000E+00         0.00000E+00        -0.95876E+04
 
   -0.18230E+04         0.92746E+04         0.00000E+00
    0.92746E+04        -0.16925E+05         0.00000E+00
    0.00000E+00         0.00000E+00        -0.82047E+04
 
   -0.43502E+03         0.85628E+04         0.00000E+00
    0.85628E+04        -0.15992E+05         0.00000E+00
    0.00000E+00         0.00000E+00        -0.68644E+04
 
    0.78086E+03         0.78800E+04         0.00000E+00
    0.78800E+04        -0.15065E+05         0.00000E+00
    0.00000E+00         0.00000E+00        -0.55798E+04
 
    0.19654E+04         0.72861E+04         0.00000E+00
    0.72861E+04        -0.14133E+05         0.00000E+00
    0.00000E+00         0.00000E+00        -0.42795E+04
 
    0.29573E+04         0.67232E+04         0.00000E+00
    0.67232E+04        -0.13178E+05         0.00000E+00
    0.00000E+00         0.00000E+00        -0.31628E+04
 
    0.22143E+04         0.59449E+04         0.00000E+00
    0.59449E+04        -0.12317E+05         0.00000E+00
    0.00000E+00         0.00000E+00        -0.30307E+04
 
    0.99479E+03         0.52736E+04         0.00000E+00
    0.52736E+04        -0.11539E+05         0.00000E+00
    0.00000E+00         0.00000E+00        -0.31632E+04
 
   -0.30195E+03         0.48334E+04         0.00000E+00
    0.48334E+04        -0.10818E+05         0.00000E+00
    0.00000E+00         0.00000E+00        -0.33361E+04
 
   -0.16778E+04         0.46233E+04         0.00000E+00
    0.46233E+04        -0.10139E+05         0.00000E+00
    0.00000E+00         0.00000E+00        -0.35450E+04
 
   -0.31550E+04         0.46434E+04         0.00000E+00
    0.46434E+04        -0.94799E+04         0.00000E+00
    0.00000E+00         0.00000E+00        -0.37905E+04
 
    0.15043E+04        -0.17140E+04         0.00000E+00
   -0.17140E+04         0.22655E+03         0.00000E+00
    0.00000E+00         0.00000E+00         0.57049E+03
 
   -0.17945E+05         0.77843E+03         0.00000E+00
    0.77843E+03        -0.84703E+03         0.00000E+00
    0.00000E+00         0.00000E+00        -0.56376E+04
 
   -0.25836E+05         0.60949E+04         0.00000E+00
    0.60949E+04        -0.41250E+04         0.00000E+00
    0.00000E+00         0.00000E+00        -0.11659E+05
 
   -0.25930E+05         0.88402E+04         0.00000E+00
    0.88402E+04        -0.71240E+04         0.00000E+00
    0.00000E+00         0.00000E+00        -0.15086E+05
 
   -0.24773E+05         0.10697E+05         0.00000E+00
    0.10697E+05        -0.97106E+04         0.00000E+00
    0.00000E+00         0.00000E+00        -0.16671E+05
 
   -0.22592E+05         0.11947E+05         0.00000E+00
    0.11947E+05        -0.11751E+05         0.00000E+00
    0.00000E+00         0.00000E+00        -0.17045E+05
 
   -0.20025E+05         0.12624E+05         0.00000E+00
    0.12624E+05        -0.13252E+05         0.00000E+00
    0.00000E+00         0.00000E+00        -0.16684E+05
 
   -0.17296E+05         0.12880E+05         0.00000E+00
    0.12880E+05        -0.14344E+05         0.00000E+00
    0.00000E+00         0.00000E+00        -0.15859E+05
 
   -0.14629E+05         0.12815E+05         0.00000E+00
    0.12815E+05        -0.15072E+05         0.00000E+00
    0.00000E+00         0.00000E+00        -0.14771E+05
 
   -0.12111E+05         0.12527E+05         0.00000E+00
    0.12527E+05        -0.15500E+05         0.00000E+00
    0.00000E+00         0.00000E+00        -0.13525E+05
 
   -0.97428E+04         0.12114E+05         0.00000E+00
    0.12114E+05        -0.15661E+05         0.00000E+00
    0.00000E+00         0.00000E+00        -0.12175E+05
 
   -0.75959E+04         0.11585E+05         0.00000E+00
    0.11585E+05        -0.15609E+05         0.00000E+00
    0.00000E+00         0.00000E+00        -0.10815E+05
 
   -0.57133E+04         0.11015E+05         0.00000E+00
    0.11015E+05        -0.15340E+05         0.00000E+00
    0.00000E+00         0.00000E+00        -0.95226E+04
 
   -0.40283E+04         0.10414E+05         0.00000E+00
    0.10414E+05        -0.14910E+05         0.00000E+00
    0.00000E+00         0.00000E+00        -0.82935E+04
 
   -0.25143E+04         0.98030E+04         0.00000E+00
    0.98030E+04        -0.14413E+05         0.00000E+00
    0.00000E+00         0.00000E+00        -0.71313E+04
 
   -0.11254E+04         0.91872E+04         0.00000E+00
    0.91872E+04        -0.13833E+05         0.00000E+00
    0.00000E+00         0.00000E+00        -0.59676E+04
 
    0.15467E+03         0.85855E+04         0.00000E+00
    0.85855E+04        -0.13147E+05         0.00000E+00
    0.00000E+00         0.00000E+00        -0.48153E+04
 
    0.13618E+04         0.80278E+04         0.00000E+00
    0.80278E+04        -0.12374E+05         0.00000E+00
    0.00000E+00         0.00000E+00        -0.37542E+04
 
    0.21922E+04         0.74260E+04         0.00000E+00
    0.74260E+04        -0.11616E+05         0.00000E+00
    0.00000E+00         0.00000E+00        -0.28648E+04
 
    0.13986E+04         0.65475E+04         0.00000E+00
    0.65475E+04        -0.11030E+05         0.00000E+00
    0.00000E+00         0.00000E+00        -0.28895E+04
 
    0.39919E+03         0.58587E+04         0.00000E+00
    0.58587E+04        -0.10477E+05         0.00000E+00
    0.00000E+00         0.00000E+00        -0.30235E+04
 
   -0.65883E+03         0.54113E+04         0.00000E+00
    0.54113E+04        -0.99261E+04         0.00000E+00
    0.00000E+00         0.00000E+00        -0.31755E+04
 
   -0.18003E+04         0.52017E+04         0.00000E+00
    0.52017E+04        -0.93789E+04         0.00000E+00
    0.00000E+00         0.00000E+00        -0.33538E+04
 
   -0.30310E+04         0.52354E+04         0.00000E+00
    0.52354E+04        -0.88344E+04         0.00000E+00
    0.00000E+00         0.00000E+00        -0.35596E+04
 
   -0.32908E+03        -0.17798E+04         0.00000E+00
   -0.17798E+04         0.14339E+03         0.00000E+00
    0.00000E+00         0.00000E+00        -0.55707E+02
 
   -0.13379E+05        -0.11746E+04         0.00000E+00
   -0.11746E+04         0.18153E+03         0.00000E+00
    0.00000E+00         0.00000E+00        -0.39593E+04
 
   -0.22429E+05         0.29399E+04         0.00000E+00
    0.29399E+04        -0.64129E+03         0.00000E+00
    0.00000E+00         0.00000E+00        -0.71515E+04
 
   -0.23881E+05         0.62238E+04         0.00000E+00
    0.62238E+04        -0.35406E+04         0.00000E+00
    0.00000E+00         0.00000E+00        -0.10754E+05
 
   -0.23079E+05         0.83874E+04         0.00000E+00
    0.83874E+04        -0.56448E+04         0.00000E+00
    0.00000E+00         0.00000E+00        -0.12469E+05
 
   -0.21406E+05         0.99552E+04         0.00000E+00
    0.99552E+04        -0.75329E+04         0.00000E+00
    0.00000E+00         0.00000E+00        -0.13073E+05
 
   -0.19342E+05         0.11007E+05         0.00000E+00
    0.11007E+05        -0.91449E+04         0.00000E+00
    0.00000E+00         0.00000E+00        -0.13134E+05
 
   -0.17002E+05         0.11604E+05         0.00000E+00
    0.11604E+05        -0.10362E+05         0.00000E+00
    0.00000E+00         0.00000E+00        -0.12704E+05
 
   -0.14642E+05         0.11854E+05         0.00000E+00
    0.11854E+05        -0.11250E+05         0.00000E+00
    0.00000E+00         0.00000E+00        -0.12005E+05
 
   -0.12323E+05         0.11854E+05         0.00000E+00
    0.11854E+05        -0.11847E+05         0.00000E+00
    0.00000E+00         0.00000E+00        -0.11106E+05
 
   -0.10110E+05         0.11684E+05         0.00000E+00
    0.11684E+05        -0.12200E+05         0.00000E+00
    0.00000E+00         0.00000E+00        -0.10081E+05
 
   -0.80728E+04         0.11391E+05         0.00000E+00
    0.11391E+05        -0.12337E+05         0.00000E+00
    0.00000E+00         0.00000E+00        -0.90068E+04
 
   -0.62484E+04         0.10995E+05         0.00000E+00
    0.10995E+05        -0.12329E+05         0.00000E+00
    0.00000E+00         0.00000E+00        -0.79692E+04
 
   -0.45986E+04         0.10546E+05         0.00000E+00
    0.10546E+05        -0.12195E+05         0.00000E+00
    0.00000E+00         0.00000E+00        -0.69640E+04
 
   -0.30922E+04         0.10063E+05         0.00000E+00
    0.10063E+05        -0.11910E+05         0.00000E+00
    0.00000E+00         0.00000E+00        -0.59813E+04
 
   -0.17181E+04         0.95659E+04         0.00000E+00
    0.95659E+04        -0.11505E+05         0.00000E+00
    0.00000E+00         0.00000E+00        -0.50431E+04
 
   -0.41149E+03         0.90667E+04         0.00000E+00
    0.90667E+04        -0.11028E+05         0.00000E+00
    0.00000E+00         0.00000E+00        -0.40991E+04
 
    0.80262E+03         0.85674E+04         0.00000E+00
    0.85674E+04        -0.10479E+05         0.00000E+00
    0.00000E+00         0.00000E+00        -0.31705E+04
 
    0.12675E+04         0.78355E+04         0.00000E+00
    0.78355E+04        -0.10029E+05         0.00000E+00
    0.00000E+00         0.00000E+00        -0.26284E+04
 
    0.56022E+03         0.69033E+04         0.00000E+00
    0.69033E+04        -0.97338E+04         0.00000E+00
    0.00000E+00         0.00000E+00        -0.27521E+04
 
   -0.18256E+03         0.62541E+04         0.00000E+00
    0.62541E+04        -0.93798E+04         0.00000E+00
    0.00000E+00         0.00000E+00        -0.28687E+04
 
   -0.10070E+04         0.58418E+04         0.00000E+00
    0.58418E+04        -0.89873E+04         0.00000E+00
    0.00000E+00         0.00000E+00        -0.29983E+04
 
   -0.19122E+04         0.56583E+04         0.00000E+00
    0.56583E+04        -0.85702E+04         0.00000E+00
    0.00000E+00         0.00000E+00        -0.31447E+04
 
   -0.28908E+04         0.57133E+04         0.00000E+00
    0.57133E+04        -0.81420E+04         0.00000E+00
    0.00000E+00         0.00000E+00        -0.33099E+04
 
   -0.23891E+04        -0.15317E+04         0.00000E+00
   -0.15317E+04         0.32543E+03         0.00000E+00
    0.00000E+00         0.00000E+00        -0.61909E+03
 
   -0.11310E+05        -0.16736E+04         0.00000E+00
   -0.16736E+04         0.78535E+03         0.00000E+00
    0.00000E+00         0.00000E+00        -0.31572E+04
 
   -0.18490E+05         0.73717E+03         0.00000E+00
    0.73717E+03         0.15242E+03         0.00000E+00
    0.00000E+00         0.00000E+00        -0.55011E+04
 
   -0.21589E+05         0.40758E+04         0.00000E+00
    0.40758E+04        -0.89575E+03         0.00000E+00
    0.00000E+00         0.00000E+00        -0.74277E+04
 
   -0.21296E+05         0.64333E+04         0.00000E+00
    0.64333E+04        -0.26781E+04         0.00000E+00
    0.00000E+00         0.00000E+00        -0.91830E+04
 
   -0.20048E+05         0.81270E+04         0.00000E+00
    0.81270E+04        -0.41738E+04         0.00000E+00
    0.00000E+00         0.00000E+00        -0.10004E+05
 
   -0.18395E+05         0.93807E+04         0.00000E+00
    0.93807E+04        -0.55553E+04         0.00000E+00
    0.00000E+00         0.00000E+00        -0.10200E+05
 
   -0.16431E+05         0.10271E+05         0.00000E+00
    0.10271E+05        -0.67792E+04         0.00000E+00
    0.00000E+00         0.00000E+00        -0.10027E+05
 
   -0.14397E+05         0.10791E+05         0.00000E+00
    0.10791E+05        -0.77635E+04         0.00000E+00
    0.00000E+00         0.00000E+00        -0.95893E+04
 
   -0.12291E+05         0.11042E+05         0.00000E+00
    0.11042E+05        -0.84916E+04         0.00000E+00
    0.00000E+00         0.00000E+00        -0.89471E+04
 
   -0.10250E+05         0.11101E+05         0.00000E+00
    0.11101E+05        -0.90078E+04         0.00000E+00
    0.00000E+00         0.00000E+00        -0.81722E+04
 
   -0.83524E+04         0.10998E+05         0.00000E+00
    0.10998E+05        -0.93429E+04         0.00000E+00
    0.00000E+00         0.00000E+00        -0.73426E+04
 
   -0.66242E+04         0.10775E+05         0.00000E+00
    0.10775E+05        -0.95030E+04         0.00000E+00
    0.00000E+00         0.00000E+00        -0.65230E+04
 
   -0.50260E+04         0.10481E+05         0.00000E+00
    0.10481E+05        -0.95035E+04         0.00000E+00
    0.00000E+00         0.00000E+00        -0.57106E+04
 
   -0.35499E+04         0.10131E+05         0.00000E+00
    0.10131E+05        -0.94104E+04         0.00000E+00
    0.00000E+00         0.00000E+00        -0.49029E+04
 
   -0.22012E+04         0.97385E+04         0.00000E+00
    0.97385E+04        -0.92352E+04         0.00000E+00
    0.00000E+00         0.00000E+00        -0.41245E+04
 
   -0.90381E+03         0.93283E+04         0.00000E+00
    0.93283E+04        -0.89312E+04         0.00000E+00
    0.00000E+00         0.00000E+00        -0.33150E+04
 
    0.21157E+03         0.88704E+04         0.00000E+00
    0.88704E+04        -0.86416E+04         0.00000E+00
    0.00000E+00         0.00000E+00        -0.25720E+04
 
    0.17370E+03         0.78544E+04         0.00000E+00
    0.78544E+04        -0.86243E+04         0.00000E+00
    0.00000E+00         0.00000E+00        -0.25352E+04
 
   -0.20304E+03         0.70544E+04         0.00000E+00
    0.70544E+04        -0.85210E+04         0.00000E+00
    0.00000E+00         0.00000E+00        -0.26172E+04
 
   -0.71357E+03         0.64918E+04         0.00000E+00
    0.64918E+04        -0.83202E+04         0.00000E+00
    0.00000E+00         0.00000E+00        -0.27101E+04
 
   -0.13176E+04         0.61403E+04         0.00000E+00
    0.61403E+04        -0.80561E+04         0.00000E+00
    0.00000E+00         0.00000E+00        -0.28121E+04
 
   -0.19996E+04         0.59989E+04         0.00000E+00
    0.59989E+04        -0.77540E+04         0.00000E+00
    0.00000E+00         0.00000E+00        -0.29261E+04
 
   -0.27372E+04         0.60792E+04         0.00000E+00
    0.60792E+04        -0.74343E+04         0.00000E+00
    0.00000E+00         0.00000E+00        -0.30515E+04
 
   -0.42486E+04        -0.11982E+04         0.00000E+00
   -0.11982E+04         0.30573E+03         0.00000E+00
    0.00000E+00         0.00000E+00        -0.11829E+04
 
   -0.10450E+05        -0.16893E+04         0.00000E+00
   -0.16893E+04         0.91864E+03         0.00000E+00
    0.00000E+00         0.00000E+00        -0.28595E+04
 
   -0.15577E+05        -0.14494E+03         0.00000E+00
   -0.14494E+03         0.11453E+04         0.00000E+00
    0.00000E+00         0.00000E+00        -0.43295E+04
 
   -0.18887E+05         0.23870E+04         0.00000E+00
    0.23870E+04         0.70526E+03         0.00000E+00
    0.00000E+00         0.00000E+00        -0.54544E+04
 
   -0.19474E+05         0.48049E+04         0.00000E+00
    0.48049E+04        -0.42372E+03         0.00000E+00
    0.00000E+00         0.00000E+00        -0.65767E+04
 
   -0.18632E+05         0.66091E+04         0.00000E+00
    0.66091E+04        -0.17010E+04         0.00000E+00
    0.00000E+00         0.00000E+00        -0.74406E+04
 
   -0.17299E+05         0.79556E+04         0.00000E+00
    0.79556E+04        -0.28198E+04         0.00000E+00
    0.00000E+00         0.00000E+00        -0.77940E+04
 
   -0.15661E+05         0.89654E+04         0.00000E+00
    0.89654E+04        -0.38467E+04         0.00000E+00
    0.00000E+00         0.00000E+00        -0.77829E+04
 
   -0.13920E+05         0.96932E+04         0.00000E+00
    0.96932E+04        -0.47639E+04         0.00000E+00
    0.00000E+00         0.00000E+00        -0.75181E+04
 
   -0.12055E+05         0.10151E+05         0.00000E+00
    0.10151E+05        -0.55390E+04         0.00000E+00
    0.00000E+00         0.00000E+00        -0.70809E+04
 
   -0.10206E+05         0.10397E+05         0.00000E+00
    0.10397E+05        -0.61239E+04         0.00000E+00
    0.00000E+00         0.00000E+00        -0.65038E+04
 
   -0.84642E+04         0.10464E+05         0.00000E+00
    0.10464E+05        -0.65516E+04         0.00000E+00
    0.00000E+00         0.00000E+00        -0.58610E+04
 
   -0.68364E+04         0.10403E+05         0.00000E+00
    0.10403E+05        -0.68549E+04         0.00000E+00
    0.00000E+00         0.00000E+00        -0.51809E+04
 
   -0.53147E+04         0.10251E+05         0.00000E+00
    0.10251E+05        -0.70645E+04         0.00000E+00
    0.00000E+00         0.00000E+00        -0.45289E+04
 
   -0.38915E+04         0.10028E+05         0.00000E+00
    0.10028E+05        -0.71070E+04         0.00000E+00
    0.00000E+00         0.00000E+00        -0.38587E+04
 
   -0.25972E+04         0.97310E+04         0.00000E+00
    0.97310E+04        -0.70313E+04         0.00000E+00
    0.00000E+00         0.00000E+00        -0.32085E+04
 
   -0.13098E+04         0.94271E+04         0.00000E+00
    0.94271E+04        -0.69873E+04         0.00000E+00
    0.00000E+00         0.00000E+00        -0.25321E+04
 
   -0.79274E+03         0.85659E+04         0.00000E+00
    0.85659E+04        -0.72309E+04         0.00000E+00
    0.00000E+00         0.00000E+00        -0.24071E+04
 
   -0.70112E+03         0.77265E+04         0.00000E+00
    0.77265E+04        -0.74222E+04         0.00000E+00
    0.00000E+00         0.00000E+00        -0.24370E+04
 
   -0.86228E+03         0.70758E+04         0.00000E+00
    0.70758E+04        -0.74292E+04         0.00000E+00
    0.00000E+00         0.00000E+00        -0.24875E+04
 
   -0.11688E+04         0.66116E+04         0.00000E+00
    0.66116E+04        -0.73309E+04         0.00000E+00
    0.00000E+00         0.00000E+00        -0.25499E+04
 
   -0.15771E+04         0.63306E+04         0.00000E+00
    0.63306E+04        -0.71660E+04         0.00000E+00
    0.00000E+00         0.00000E+00        -0.26229E+04
 
   -0.20556E+04         0.62368E+04         0.00000E+00
    0.62368E+04        -0.69598E+04         0.00000E+00
    0.00000E+00         0.00000E+00        -0.27046E+04
 
   -0.25736E+04         0.63419E+04         0.00000E+00
    0.63419E+04        -0.67362E+04         0.00000E+00
    0.00000E+00         0.00000E+00        -0.27929E+04
 
   -0.57777E+04        -0.89007E+03         0.00000E+00
   -0.89007E+03         0.28304E+03         0.00000E+00
    0.00000E+00         0.00000E+00        -0.16484E+04
 
   -0.10004E+05        -0.13663E+04         0.00000E+00
   -0.13663E+04         0.97265E+03         0.00000E+00
    0.00000E+00         0.00000E+00        -0.27095E+04
 
   -0.13807E+05        -0.39188E+03         0.00000E+00
   -0.39188E+03         0.14528E+04         0.00000E+00
    0.00000E+00         0.00000E+00        -0.37063E+04
 
   -0.16375E+05         0.14521E+04         0.00000E+00
    0.14521E+04         0.14099E+04         0.00000E+00
    0.00000E+00         0.00000E+00        -0.44896E+04
 
   -0.17544E+05         0.35372E+04         0.00000E+00
    0.35372E+04         0.11165E+04         0.00000E+00
    0.00000E+00         0.00000E+00        -0.49282E+04
 
   -0.17179E+05         0.53091E+04         0.00000E+00
    0.53091E+04         0.28137E+03         0.00000E+00
    0.00000E+00         0.00000E+00        -0.54284E+04
 
   -0.16153E+05         0.67345E+04         0.00000E+00
    0.67345E+04        -0.70455E+03         0.00000E+00
    0.00000E+00         0.00000E+00        -0.57823E+04
 
   -0.14796E+05         0.78309E+04         0.00000E+00
    0.78309E+04        -0.15790E+04         0.00000E+00
    0.00000E+00         0.00000E+00        -0.58623E+04
 
   -0.13284E+05         0.86315E+04         0.00000E+00
    0.86315E+04        -0.23929E+04         0.00000E+00
    0.00000E+00         0.00000E+00        -0.57492E+04
 
   -0.11659E+05         0.92507E+04         0.00000E+00
    0.92507E+04        -0.30839E+04         0.00000E+00
    0.00000E+00         0.00000E+00        -0.54084E+04
 
   -0.10004E+05         0.96386E+04         0.00000E+00
    0.96386E+04        -0.36959E+04         0.00000E+00
    0.00000E+00         0.00000E+00        -0.49795E+04
 
   -0.84205E+04         0.98631E+04         0.00000E+00
    0.98631E+04        -0.42005E+04         0.00000E+00
    0.00000E+00         0.00000E+00        -0.44829E+04
 
   -0.69184E+04         0.99253E+04         0.00000E+00
    0.99253E+04        -0.45522E+04         0.00000E+00
    0.00000E+00         0.00000E+00        -0.39569E+04
 
   -0.54707E+04         0.98939E+04         0.00000E+00
    0.98939E+04        -0.47505E+04         0.00000E+00
    0.00000E+00         0.00000E+00        -0.34048E+04
 
   -0.41598E+04         0.97859E+04         0.00000E+00
    0.97859E+04        -0.49568E+04         0.00000E+00
    0.00000E+00         0.00000E+00        -0.28746E+04
 
   -0.29247E+04         0.95244E+04         0.00000E+00
    0.95244E+04        -0.52342E+04         0.00000E+00
    0.00000E+00         0.00000E+00        -0.24477E+04
 
   -0.20882E+04         0.88476E+04         0.00000E+00
    0.88476E+04        -0.57392E+04         0.00000E+00
    0.00000E+00         0.00000E+00        -0.23482E+04
 
   -0.16167E+04         0.81529E+04         0.00000E+00
    0.81529E+04        -0.61630E+04         0.00000E+00
    0.00000E+00         0.00000E+00        -0.23339E+04
 
   -0.14061E+04         0.75199E+04         0.00000E+00
    0.75199E+04        -0.63733E+04         0.00000E+00
    0.00000E+00         0.00000E+00        -0.23338E+04
 
   -0.14041E+04         0.70101E+04         0.00000E+00
    0.70101E+04        -0.64447E+04         0.00000E+00
    0.00000E+00         0.00000E+00        -0.23546E+04
 
   -0.15445E+04         0.66453E+04         0.00000E+00
    0.66453E+04        -0.64201E+04         0.00000E+00
    0.00000E+00         0.00000E+00        -0.23894E+04
 
   -0.17817E+04         0.64345E+04         0.00000E+00
    0.64345E+04        -0.63314E+04         0.00000E+00
    0.00000E+00         0.00000E+00        -0.24339E+04
 
   -0.20800E+04         0.63870E+04         0.00000E+00
    0.63870E+04        -0.62045E+04         0.00000E+00
    0.00000E+00         0.00000E+00        -0.24853E+04
 
   -0.24042E+04         0.65139E+04         0.00000E+00
    0.65139E+04        -0.60634E+04         0.00000E+00
    0.00000E+00         0.00000E+00        -0.25403E+04
 
   -0.69034E+04        -0.61622E+03         0.00000E+00
   -0.61622E+03         0.26069E+03         0.00000E+00
    0.00000E+00         0.00000E+00        -0.19928E+04
 
   -0.97852E+04        -0.98484E+03         0.00000E+00
   -0.98484E+03         0.90876E+03         0.00000E+00
    0.00000E+00         0.00000E+00        -0.26629E+04
 
   -0.12554E+05        -0.31636E+03         0.00000E+00
   -0.31636E+03         0.14989E+04         0.00000E+00
    0.00000E+00         0.00000E+00        -0.33164E+04
 
   -0.14587E+05         0.10757E+04         0.00000E+00
    0.10757E+04         0.17744E+04         0.00000E+00
    0.00000E+00         0.00000E+00        -0.38439E+04
 
   -0.15628E+05         0.27494E+04         0.00000E+00
    0.27494E+04         0.16299E+04         0.00000E+00
    0.00000E+00         0.00000E+00        -0.41996E+04
 
   -0.15686E+05         0.43655E+04         0.00000E+00
    0.43655E+04         0.13912E+04         0.00000E+00
    0.00000E+00         0.00000E+00        -0.42885E+04
 
   -0.15007E+05         0.57408E+04         0.00000E+00
    0.57408E+04         0.98237E+03         0.00000E+00
    0.00000E+00         0.00000E+00        -0.42820E+04
 
   -0.13897E+05         0.68156E+04         0.00000E+00
    0.68156E+04         0.27353E+03         0.00000E+00
    0.00000E+00         0.00000E+00        -0.43342E+04
 
   -0.12575E+05         0.77155E+04         0.00000E+00
    0.77155E+04        -0.40257E+03         0.00000E+00
    0.00000E+00         0.00000E+00        -0.42370E+04
 
   -0.11144E+05         0.83963E+04         0.00000E+00
    0.83963E+04        -0.10336E+04         0.00000E+00
    0.00000E+00         0.00000E+00        -0.39954E+04
 
   -0.96817E+04         0.88803E+04         0.00000E+00
    0.88803E+04        -0.15765E+04         0.00000E+00
    0.00000E+00         0.00000E+00        -0.36673E+04
 
   -0.82553E+04         0.92008E+04         0.00000E+00
    0.92008E+04        -0.20479E+04         0.00000E+00
    0.00000E+00         0.00000E+00        -0.32726E+04
 
   -0.68873E+04         0.94121E+04         0.00000E+00
    0.94121E+04        -0.24968E+04         0.00000E+00
    0.00000E+00         0.00000E+00        -0.28632E+04
 
   -0.55957E+04         0.93804E+04         0.00000E+00
    0.93804E+04        -0.30453E+04         0.00000E+00
    0.00000E+00         0.00000E+00        -0.25934E+04
 
   -0.44270E+04         0.91419E+04         0.00000E+00
    0.91419E+04        -0.36652E+04         0.00000E+00
    0.00000E+00         0.00000E+00        -0.24277E+04
 
   -0.34806E+04         0.87461E+04         0.00000E+00
    0.87461E+04        -0.43448E+04         0.00000E+00
    0.00000E+00         0.00000E+00        -0.23476E+04
 
   -0.27497E+04         0.82613E+04         0.00000E+00
    0.82613E+04        -0.48690E+04         0.00000E+00
    0.00000E+00         0.00000E+00        -0.22856E+04
 
   -0.22424E+04         0.77425E+04         0.00000E+00
    0.77425E+04        -0.52218E+04         0.00000E+00
    0.00000E+00         0.00000E+00        -0.22393E+04
 
   -0.19568E+04         0.72726E+04         0.00000E+00
    0.72726E+04        -0.54463E+04         0.00000E+00
    0.00000E+00         0.00000E+00        -0.22210E+04
 
   -0.18368E+04         0.68873E+04         0.00000E+00
    0.68873E+04        -0.55573E+04         0.00000E+00
    0.00000E+00         0.00000E+00        -0.22182E+04
 
   -0.18426E+04         0.66141E+04         0.00000E+00
    0.66141E+04        -0.55853E+04         0.00000E+00
    0.00000E+00         0.00000E+00        -0.22284E+04
 
   -0.19341E+04         0.64688E+04         0.00000E+00
    0.64688E+04        -0.55568E+04         0.00000E+00
    0.00000E+00         0.00000E+00        -0.22473E+04
 
   -0.20758E+04         0.64632E+04         0.00000E+00
    0.64632E+04        -0.54956E+04         0.00000E+00
    0.00000E+00         0.00000E+00        -0.22714E+04
 
   -0.22324E+04         0.66078E+04         0.00000E+00
    0.66078E+04        -0.54246E+04         0.00000E+00
    0.00000E+00         0.00000E+00        -0.22971E+04
 
   -0.76678E+04        -0.39753E+03         0.00000E+00
   -0.39753E+03         0.23338E+03         0.00000E+00
    0.00000E+00         0.00000E+00        -0.22303E+04
 
   -0.96356E+04        -0.62388E+03         0.00000E+00
   -0.62388E+03         0.81986E+03         0.00000E+00
    0.00000E+00         0.00000E+00        -0.26447E+04
 
   -0.11626E+05        -0.11636E+03         0.00000E+00
   -0.11636E+03         0.14098E+04         0.00000E+00
    0.00000E+00         0.00000E+00        -0.30649E+04
 
   -0.13198E+05         0.95399E+03         0.00000E+00
    0.95399E+03         0.17933E+04         0.00000E+00
    0.00000E+00         0.00000E+00        -0.34213E+04
 
   -0.14088E+05         0.23340E+04         0.00000E+00
    0.23340E+04         0.19029E+04         0.00000E+00
    0.00000E+00         0.00000E+00        -0.36556E+04
 
   -0.14249E+05         0.37526E+04         0.00000E+00
    0.37526E+04         0.17313E+04         0.00000E+00
    0.00000E+00         0.00000E+00        -0.37554E+04
 
   -0.13830E+05         0.49977E+04         0.00000E+00
    0.49977E+04         0.13945E+04         0.00000E+00
    0.00000E+00         0.00000E+00        -0.37307E+04
 
   -0.12962E+05         0.60653E+04         0.00000E+00
    0.60653E+04         0.11070E+04         0.00000E+00
    0.00000E+00         0.00000E+00        -0.35565E+04
 
   -0.11839E+05         0.69448E+04         0.00000E+00
    0.69448E+04         0.71789E+03         0.00000E+00
    0.00000E+00         0.00000E+00        -0.33363E+04
 
   -0.10602E+05         0.76222E+04         0.00000E+00
    0.76222E+04         0.21546E+03         0.00000E+00
    0.00000E+00         0.00000E+00        -0.31159E+04
 
   -0.93229E+04         0.81204E+04         0.00000E+00
    0.81204E+04        -0.37295E+03         0.00000E+00
    0.00000E+00         0.00000E+00        -0.29088E+04
 
   -0.80456E+04         0.84284E+04         0.00000E+00
    0.84284E+04        -0.10282E+04         0.00000E+00
    0.00000E+00         0.00000E+00        -0.27222E+04
 
   -0.68707E+04         0.85420E+04         0.00000E+00
    0.85420E+04        -0.17582E+04         0.00000E+00
    0.00000E+00         0.00000E+00        -0.25887E+04
 
   -0.57767E+04         0.85219E+04         0.00000E+00
    0.85219E+04        -0.24543E+04         0.00000E+00
    0.00000E+00         0.00000E+00        -0.24693E+04
 
   -0.47654E+04         0.83492E+04         0.00000E+00
    0.83492E+04        -0.30851E+04         0.00000E+00
    0.00000E+00         0.00000E+00        -0.23551E+04
 
   -0.39075E+04         0.80595E+04         0.00000E+00
    0.80595E+04        -0.36188E+04         0.00000E+00
    0.00000E+00         0.00000E+00        -0.22579E+04
 
   -0.32301E+04         0.77151E+04         0.00000E+00
    0.77151E+04        -0.40610E+04         0.00000E+00
    0.00000E+00         0.00000E+00        -0.21873E+04
 
   -0.27229E+04         0.73478E+04         0.00000E+00
    0.73478E+04        -0.43952E+04         0.00000E+00
    0.00000E+00         0.00000E+00        -0.21354E+04
 
   -0.23789E+04         0.70049E+04         0.00000E+00
    0.70049E+04        -0.46194E+04         0.00000E+00
    0.00000E+00         0.00000E+00        -0.20995E+04
 
   -0.21727E+04         0.67252E+04         0.00000E+00
    0.67252E+04        -0.47554E+04         0.00000E+00
    0.00000E+00         0.00000E+00        -0.20784E+04
 
   -0.20702E+04         0.65332E+04         0.00000E+00
    0.65332E+04        -0.48225E+04         0.00000E+00
    0.00000E+00         0.00000E+00        -0.20678E+04
 
   -0.20392E+04         0.64463E+04         0.00000E+00
    0.64463E+04        -0.48422E+04         0.00000E+00
    0.00000E+00         0.00000E+00        -0.20644E+04
 
   -0.20473E+04         0.64773E+04         0.00000E+00
    0.64773E+04        -0.48355E+04         0.00000E+00
    0.00000E+00         0.00000E+00        -0.20649E+04
 
   -0.20612E+04         0.66356E+04         0.00000E+00
    0.66356E+04        -0.48236E+04         0.00000E+00
    0.00000E+00         0.00000E+00        -0.20654E+04
 
   -0.81348E+04        -0.23172E+03         0.00000E+00
   -0.23172E+03         0.20986E+03         0.00000E+00
    0.00000E+00         0.00000E+00        -0.23775E+04
 
   -0.94859E+04        -0.32268E+03         0.00000E+00
   -0.32268E+03         0.72698E+03         0.00000E+00
    0.00000E+00         0.00000E+00        -0.26277E+04
 
   -0.10911E+05         0.98845E+02         0.00000E+00
    0.98845E+02         0.12683E+04         0.00000E+00
    0.00000E+00         0.00000E+00        -0.28927E+04
 
   -0.12086E+05         0.95116E+03         0.00000E+00
    0.95116E+03         0.16776E+04         0.00000E+00
    0.00000E+00         0.00000E+00        -0.31225E+04
 
   -0.12809E+05         0.20706E+04         0.00000E+00
    0.20706E+04         0.18650E+04         0.00000E+00
    0.00000E+00         0.00000E+00        -0.32831E+04
 
   -0.13011E+05         0.32732E+04         0.00000E+00
    0.32732E+04         0.18243E+04         0.00000E+00
    0.00000E+00         0.00000E+00        -0.33559E+04
 
   -0.12726E+05         0.44212E+04         0.00000E+00
    0.44212E+04         0.16111E+04         0.00000E+00
    0.00000E+00         0.00000E+00        -0.33345E+04
 
   -0.12057E+05         0.54236E+04         0.00000E+00
    0.54236E+04         0.12605E+04         0.00000E+00
    0.00000E+00         0.00000E+00        -0.32390E+04
 
   -0.11133E+05         0.62312E+04         0.00000E+00
    0.62312E+04         0.82817E+03         0.00000E+00
    0.00000E+00         0.00000E+00        -0.30915E+04
 
   -0.10083E+05         0.68511E+04         0.00000E+00
    0.68511E+04         0.33251E+03         0.00000E+00
    0.00000E+00         0.00000E+00        -0.29250E+04
 
   -0.89814E+04         0.72988E+04         0.00000E+00
    0.72988E+04        -0.21556E+03         0.00000E+00
    0.00000E+00         0.00000E+00        -0.27591E+04
 
   -0.78903E+04         0.75780E+04         0.00000E+00
    0.75780E+04        -0.80210E+03         0.00000E+00
    0.00000E+00         0.00000E+00        -0.26077E+04
 
   -0.68543E+04         0.77116E+04         0.00000E+00
    0.77116E+04        -0.13869E+04         0.00000E+00
    0.00000E+00         0.00000E+00        -0.24724E+04
 
   -0.58888E+04         0.77316E+04         0.00000E+00
    0.77316E+04        -0.19589E+04         0.00000E+00
    0.00000E+00         0.00000E+00        -0.23543E+04
 
   -0.50019E+04         0.76401E+04         0.00000E+00
    0.76401E+04        -0.24945E+04         0.00000E+00
    0.00000E+00         0.00000E+00        -0.22489E+04
 
   -0.42268E+04         0.74558E+04         0.00000E+00
    0.74558E+04        -0.29642E+04         0.00000E+00
    0.00000E+00         0.00000E+00        -0.21573E+04
 
   -0.35852E+04         0.72184E+04         0.00000E+00
    0.72184E+04        -0.33516E+04         0.00000E+00
    0.00000E+00         0.00000E+00        -0.20810E+04
 
   -0.30789E+04         0.69646E+04         0.00000E+00
    0.69646E+04        -0.36558E+04         0.00000E+00
    0.00000E+00         0.00000E+00        -0.20204E+04
 
   -0.26981E+04         0.67272E+04         0.00000E+00
    0.67272E+04        -0.38789E+04         0.00000E+00
    0.00000E+00         0.00000E+00        -0.19731E+04
 
   -0.24251E+04         0.65358E+04         0.00000E+00
    0.65358E+04        -0.40307E+04         0.00000E+00
    0.00000E+00         0.00000E+00        -0.19368E+04
 
   -0.22360E+04         0.64137E+04         0.00000E+00
    0.64137E+04        -0.41273E+04         0.00000E+00
    0.00000E+00         0.00000E+00        -0.19090E+04
 
   -0.21034E+04         0.63774E+04         0.00000E+00
    0.63774E+04        -0.41857E+04         0.00000E+00
    0.00000E+00         0.00000E+00        -0.18867E+04
 
   -0.19990E+04         0.64393E+04         0.00000E+00
    0.64393E+04        -0.42241E+04         0.00000E+00
    0.00000E+00         0.00000E+00        -0.18669E+04
 
   -0.18928E+04         0.66079E+04         0.00000E+00
    0.66079E+04        -0.42616E+04         0.00000E+00
    0.00000E+00         0.00000E+00        -0.18463E+04
 
   -0.83732E+04        -0.11160E+03         0.00000E+00
   -0.11160E+03         0.18995E+03         0.00000E+00
    0.00000E+00         0.00000E+00        -0.24550E+04
 
   -0.93123E+04        -0.91893E+02         0.00000E+00
   -0.91893E+02         0.64267E+03         0.00000E+00
    0.00000E+00         0.00000E+00        -0.26009E+04
 
   -0.10328E+05         0.28358E+03         0.00000E+00
    0.28358E+03         0.11215E+04         0.00000E+00
    0.00000E+00         0.00000E+00        -0.27620E+04
 
   -0.11195E+05         0.97837E+03         0.00000E+00
    0.97837E+03         0.15081E+04         0.00000E+00
    0.00000E+00         0.00000E+00        -0.29059E+04
 
   -0.11755E+05         0.18925E+04         0.00000E+00
    0.18925E+04         0.17285E+04         0.00000E+00
    0.00000E+00         0.00000E+00        -0.30079E+04
 
   -0.11935E+05         0.29037E+04         0.00000E+00
    0.29037E+04         0.17588E+04         0.00000E+00
    0.00000E+00         0.00000E+00        -0.30528E+04
 
   -0.11739E+05         0.38985E+04         0.00000E+00
    0.38985E+04         0.16113E+04         0.00000E+00
    0.00000E+00         0.00000E+00        -0.30382E+04
 
   -0.11225E+05         0.47926E+04         0.00000E+00
    0.47926E+04         0.13232E+04         0.00000E+00
    0.00000E+00         0.00000E+00        -0.29704E+04
 
   -0.10483E+05         0.55369E+04         0.00000E+00
    0.55369E+04         0.93389E+03         0.00000E+00
    0.00000E+00         0.00000E+00        -0.28648E+04
 
   -0.96062E+04         0.61179E+04         0.00000E+00
    0.61179E+04         0.48187E+03         0.00000E+00
    0.00000E+00         0.00000E+00        -0.27373E+04
 
   -0.86687E+04         0.65429E+04         0.00000E+00
    0.65429E+04        -0.89134E+01         0.00000E+00
    0.00000E+00         0.00000E+00        -0.26033E+04
 
   -0.77245E+04         0.68253E+04         0.00000E+00
    0.68253E+04        -0.51613E+03         0.00000E+00
    0.00000E+00         0.00000E+00        -0.24722E+04
 
   -0.68116E+04         0.69849E+04         0.00000E+00
    0.69849E+04        -0.10211E+04         0.00000E+00
    0.00000E+00         0.00000E+00        -0.23498E+04
 
   -0.59506E+04         0.70419E+04         0.00000E+00
    0.70419E+04        -0.15080E+04         0.00000E+00
    0.00000E+00         0.00000E+00        -0.22376E+04
 
   -0.51575E+04         0.70105E+04         0.00000E+00
    0.70105E+04        -0.19638E+04         0.00000E+00
    0.00000E+00         0.00000E+00        -0.21364E+04
 
   -0.44502E+04         0.69081E+04         0.00000E+00
    0.69081E+04        -0.23707E+04         0.00000E+00
    0.00000E+00         0.00000E+00        -0.20463E+04
 
   -0.38427E+04         0.67608E+04         0.00000E+00
    0.67608E+04        -0.27164E+04         0.00000E+00
    0.00000E+00         0.00000E+00        -0.19677E+04
 
   -0.33384E+04         0.65973E+04         0.00000E+00
    0.65973E+04        -0.29966E+04         0.00000E+00
    0.00000E+00         0.00000E+00        -0.19005E+04
 
   -0.29312E+04         0.64448E+04         0.00000E+00
    0.64448E+04        -0.32141E+04         0.00000E+00
    0.00000E+00         0.00000E+00        -0.18436E+04
 
   -0.26077E+04         0.63272E+04         0.00000E+00
    0.63272E+04        -0.33764E+04         0.00000E+00
    0.00000E+00         0.00000E+00        -0.17952E+04
 
   -0.23490E+04         0.62640E+04         0.00000E+00
    0.62640E+04        -0.34952E+04         0.00000E+00
    0.00000E+00         0.00000E+00        -0.17533E+04
 
   -0.21329E+04         0.62706E+04         0.00000E+00
    0.62706E+04        -0.35846E+04         0.00000E+00
    0.00000E+00         0.00000E+00        -0.17153E+04
 
   -0.19350E+04         0.63581E+04         0.00000E+00
    0.63581E+04        -0.36602E+04         0.00000E+00
    0.00000E+00         0.00000E+00        -0.16786E+04
 
   -0.17289E+04         0.65340E+04         0.00000E+00
    0.65340E+04        -0.37387E+04         0.00000E+00
    0.00000E+00         0.00000E+00        -0.16403E+04
 
   -0.84460E+04        -0.28509E+02         0.00000E+00
   -0.28509E+02         0.17382E+03         0.00000E+00
    0.00000E+00         0.00000E+00        -0.24817E+04
 
   -0.91107E+04         0.73330E+02         0.00000E+00
    0.73330E+02         0.57198E+03         0.00000E+00
    0.00000E+00         0.00000E+00        -0.25616E+04
 
   -0.98366E+04         0.42085E+03         0.00000E+00
    0.42085E+03         0.98905E+03         0.00000E+00
    0.00000E+00         0.00000E+00        -0.26543E+04
 
   -0.10468E+05         0.10019E+04         0.00000E+00
    0.10019E+04         0.13398E+04         0.00000E+00
    0.00000E+00         0.00000E+00        -0.27384E+04
 
   -0.10886E+05         0.17562E+04         0.00000E+00
    0.17562E+04         0.15635E+04         0.00000E+00
    0.00000E+00         0.00000E+00        -0.27968E+04
 
   -0.11028E+05         0.25999E+04         0.00000E+00
    0.25999E+04         0.16315E+04         0.00000E+00
    0.00000E+00         0.00000E+00        -0.28190E+04
 
   -0.10882E+05         0.34481E+04         0.00000E+00
    0.34481E+04         0.15453E+04         0.00000E+00
    0.00000E+00         0.00000E+00        -0.28011E+04
 
   -0.10482E+05         0.42315E+04         0.00000E+00
    0.42315E+04         0.13266E+04         0.00000E+00
    0.00000E+00         0.00000E+00        -0.27466E+04
 
   -0.98848E+04         0.49047E+04         0.00000E+00
    0.49047E+04         0.10086E+04         0.00000E+00
    0.00000E+00         0.00000E+00        -0.26629E+04
 
   -0.91582E+04         0.54477E+04         0.00000E+00
    0.54477E+04         0.62428E+03         0.00000E+00
    0.00000E+00         0.00000E+00        -0.25602E+04
 
   -0.83621E+04         0.58595E+04         0.00000E+00
    0.58595E+04         0.20241E+03         0.00000E+00
    0.00000E+00         0.00000E+00        -0.24479E+04
 
   -0.75442E+04         0.61498E+04         0.00000E+00
    0.61498E+04        -0.23500E+03         0.00000E+00
    0.00000E+00         0.00000E+00        -0.23338E+04
 
   -0.67387E+04         0.63339E+04         0.00000E+00
    0.63339E+04        -0.67034E+03         0.00000E+00
    0.00000E+00         0.00000E+00        -0.22227E+04
 
   -0.59685E+04         0.64281E+04         0.00000E+00
    0.64281E+04        -0.10905E+04         0.00000E+00
    0.00000E+00         0.00000E+00        -0.21177E+04
 
   -0.52503E+04         0.64479E+04         0.00000E+00
    0.64479E+04        -0.14837E+04         0.00000E+00
    0.00000E+00         0.00000E+00        -0.20202E+04
 
   -0.45978E+04         0.64102E+04         0.00000E+00
    0.64102E+04        -0.18390E+04         0.00000E+00
    0.00000E+00         0.00000E+00        -0.19310E+04
 
   -0.40202E+04         0.63352E+04         0.00000E+00
    0.63352E+04        -0.21480E+04         0.00000E+00
    0.00000E+00         0.00000E+00        -0.18505E+04
 
   -0.35205E+04         0.62452E+04         0.00000E+00
    0.62452E+04        -0.24072E+04         0.00000E+00
    0.00000E+00         0.00000E+00        -0.17783E+04
 
   -0.30944E+04         0.61619E+04         0.00000E+00
    0.61619E+04        -0.26181E+04         0.00000E+00
    0.00000E+00         0.00000E+00        -0.17138E+04
 
   -0.27318E+04         0.61050E+04         0.00000E+00
    0.61050E+04        -0.27867E+04         0.00000E+00
    0.00000E+00         0.00000E+00        -0.16556E+04
 
   -0.24177E+04         0.60910E+04         0.00000E+00
    0.60910E+04        -0.29222E+04         0.00000E+00
    0.00000E+00         0.00000E+00        -0.16020E+04
 
   -0.21338E+04         0.61332E+04         0.00000E+00
    0.61332E+04        -0.30363E+04         0.00000E+00
    0.00000E+00         0.00000E+00        -0.15510E+04
 
   -0.18591E+04         0.62414E+04         0.00000E+00
    0.62414E+04        -0.31421E+04         0.00000E+00
    0.00000E+00         0.00000E+00        -0.15003E+04
 
   -0.15707E+04         0.64219E+04         0.00000E+00
    0.64219E+04        -0.32541E+04         0.00000E+00
    0.00000E+00         0.00000E+00        -0.14474E+04
 
   -0.84053E+04         0.26174E+02         0.00000E+00
    0.26174E+02         0.16107E+03         0.00000E+00
    0.00000E+00         0.00000E+00        -0.24733E+04
 
   -0.88873E+04         0.18359E+03         0.00000E+00
    0.18359E+03         0.51533E+03         0.00000E+00
    0.00000E+00         0.00000E+00        -0.25116E+04
 
   -0.94092E+04         0.51107E+03         0.00000E+00
    0.51107E+03         0.87933E+03         0.00000E+00
    0.00000E+00         0.00000E+00        -0.25590E+04
 
   -0.98648E+04         0.10080E+04         0.00000E+00
    0.10080E+04         0.11924E+04         0.00000E+00
    0.00000E+00         0.00000E+00        -0.26017E+04
 
   -0.10169E+05         0.16380E+04         0.00000E+00
    0.16380E+04         0.14072E+04         0.00000E+00
    0.00000E+00         0.00000E+00        -0.26285E+04
 
   -0.10269E+05         0.23442E+04         0.00000E+00
    0.23442E+04         0.14978E+04         0.00000E+00
    0.00000E+00         0.00000E+00        -0.26314E+04
 
   -0.10150E+05         0.30650E+04         0.00000E+00
    0.30650E+04         0.14595E+04         0.00000E+00
    0.00000E+00         0.00000E+00        -0.26073E+04
 
   -0.98289E+04         0.37461E+04         0.00000E+00
    0.37461E+04         0.13053E+04         0.00000E+00
    0.00000E+00         0.00000E+00        -0.25571E+04
 
   -0.93420E+04         0.43487E+04         0.00000E+00
    0.43487E+04         0.10587E+04         0.00000E+00
    0.00000E+00         0.00000E+00        -0.24850E+04
 
   -0.87369E+04         0.48516E+04         0.00000E+00
    0.48516E+04         0.74687E+03         0.00000E+00
    0.00000E+00         0.00000E+00        -0.23970E+04
 
   -0.80597E+04         0.52486E+04         0.00000E+00
    0.52486E+04         0.39517E+03         0.00000E+00
    0.00000E+00         0.00000E+00        -0.22994E+04
 
   -0.73499E+04         0.55444E+04         0.00000E+00
    0.55444E+04         0.24776E+02         0.00000E+00
    0.00000E+00         0.00000E+00        -0.21976E+04
 
   -0.66382E+04         0.57492E+04         0.00000E+00
    0.57492E+04        -0.34784E+03         0.00000E+00
    0.00000E+00         0.00000E+00        -0.20958E+04
 
   -0.59467E+04         0.58763E+04         0.00000E+00
    0.58763E+04        -0.70990E+03         0.00000E+00
    0.00000E+00         0.00000E+00        -0.19970E+04
 
   -0.52917E+04         0.59398E+04         0.00000E+00
    0.59398E+04        -0.10512E+04         0.00000E+00
    0.00000E+00         0.00000E+00        -0.19029E+04
 
   -0.46849E+04         0.59549E+04         0.00000E+00
    0.59549E+04        -0.13635E+04         0.00000E+00
    0.00000E+00         0.00000E+00        -0.18145E+04
 
   -0.41334E+04         0.59382E+04         0.00000E+00
    0.59382E+04        -0.16409E+04         0.00000E+00
    0.00000E+00         0.00000E+00        -0.17323E+04
 
   -0.36397E+04         0.59077E+04         0.00000E+00
    0.59077E+04        -0.18808E+04         0.00000E+00
    0.00000E+00         0.00000E+00        -0.16562E+04
 
   -0.32005E+04         0.58808E+04         0.00000E+00
    0.58808E+04        -0.20845E+04         0.00000E+00
    0.00000E+00         0.00000E+00        -0.15855E+04
 
   -0.28080E+04         0.58737E+04         0.00000E+00
    0.58737E+04        -0.22565E+04         0.00000E+00
    0.00000E+00         0.00000E+00        -0.15194E+04
 
   -0.24501E+04         0.59001E+04         0.00000E+00
    0.59001E+04        -0.24044E+04         0.00000E+00
    0.00000E+00         0.00000E+00        -0.14563E+04
 
   -0.21115E+04         0.59714E+04         0.00000E+00
    0.59714E+04        -0.25377E+04         0.00000E+00
    0.00000E+00         0.00000E+00        -0.13948E+04
 
   -0.17744E+04         0.60958E+04         0.00000E+00
    0.60958E+04        -0.26678E+04         0.00000E+00
    0.00000E+00         0.00000E+00        -0.13327E+04
 
   -0.14192E+04         0.62786E+04         0.00000E+00
    0.62786E+04        -0.28071E+04         0.00000E+00
    0.00000E+00         0.00000E+00        -0.12679E+04
 
   -0.82914E+04         0.59926E+02         0.00000E+00
    0.59926E+02         0.15109E+03         0.00000E+00
    0.00000E+00         0.00000E+00        -0.24421E+04
 
   -0.86510E+04         0.25103E+03         0.00000E+00
    0.25103E+03         0.47131E+03         0.00000E+00
    0.00000E+00         0.00000E+00        -0.24539E+04
 
   -0.90297E+04         0.56105E+03         0.00000E+00
    0.56105E+03         0.79252E+03         0.00000E+00
    0.00000E+00         0.00000E+00        -0.24712E+04
 
   -0.93566E+04         0.99382E+03         0.00000E+00
    0.99382E+03         0.10722E+04         0.00000E+00
    0.00000E+00         0.00000E+00        -0.24853E+04
 
   -0.95709E+04         0.15275E+04         0.00000E+00
    0.15275E+04         0.12749E+04         0.00000E+00
    0.00000E+00         0.00000E+00        -0.24888E+04
 
   -0.96327E+04         0.21237E+04         0.00000E+00
    0.21237E+04         0.13787E+04         0.00000E+00
    0.00000E+00         0.00000E+00        -0.24762E+04
 
   -0.95264E+04         0.27382E+04         0.00000E+00
    0.27382E+04         0.13771E+04         0.00000E+00
    0.00000E+00         0.00000E+00        -0.24448E+04
 
   -0.92591E+04         0.33299E+04         0.00000E+00
    0.33299E+04         0.12768E+04         0.00000E+00
    0.00000E+00         0.00000E+00        -0.23947E+04
 
   -0.88542E+04         0.38667E+04         0.00000E+00
    0.38667E+04         0.10941E+04         0.00000E+00
    0.00000E+00         0.00000E+00        -0.23280E+04
 
   -0.83445E+04         0.43289E+04         0.00000E+00
    0.43289E+04         0.84953E+03         0.00000E+00
    0.00000E+00         0.00000E+00        -0.22485E+04
 
   -0.77645E+04         0.47079E+04         0.00000E+00
    0.47079E+04         0.56408E+03         0.00000E+00
    0.00000E+00         0.00000E+00        -0.21601E+04
 
   -0.71458E+04         0.50043E+04         0.00000E+00
    0.50043E+04         0.25626E+03         0.00000E+00
    0.00000E+00         0.00000E+00        -0.20669E+04
 
   -0.65147E+04         0.52246E+04         0.00000E+00
    0.52246E+04        -0.58716E+02         0.00000E+00
    0.00000E+00         0.00000E+00        -0.19720E+04
 
   -0.58913E+04         0.53786E+04         0.00000E+00
    0.53786E+04        -0.36891E+03         0.00000E+00
    0.00000E+00         0.00000E+00        -0.18781E+04
 
   -0.52906E+04         0.54782E+04         0.00000E+00
    0.54782E+04        -0.66507E+03         0.00000E+00
    0.00000E+00         0.00000E+00        -0.17867E+04
 
   -0.47230E+04         0.55362E+04         0.00000E+00
    0.55362E+04        -0.94027E+03         0.00000E+00
    0.00000E+00         0.00000E+00        -0.16990E+04
 
   -0.41948E+04         0.55668E+04         0.00000E+00
    0.55668E+04        -0.11899E+04         0.00000E+00
    0.00000E+00         0.00000E+00        -0.16154E+04
 
   -0.37080E+04         0.55844E+04         0.00000E+00
    0.55844E+04        -0.14122E+04         0.00000E+00
    0.00000E+00         0.00000E+00        -0.15361E+04
 
   -0.32602E+04         0.56032E+04         0.00000E+00
    0.56032E+04        -0.16081E+04         0.00000E+00
    0.00000E+00         0.00000E+00        -0.14605E+04
 
   -0.28451E+04         0.56366E+04         0.00000E+00
    0.56366E+04        -0.17813E+04         0.00000E+00
    0.00000E+00         0.00000E+00        -0.13879E+04
 
   -0.24529E+04         0.56959E+04         0.00000E+00
    0.56959E+04        -0.19380E+04         0.00000E+00
    0.00000E+00         0.00000E+00        -0.13173E+04
 
   -0.20708E+04         0.57904E+04         0.00000E+00
    0.57904E+04        -0.20862E+04         0.00000E+00
    0.00000E+00         0.00000E+00        -0.12471E+04
 
   -0.16839E+04         0.59272E+04         0.00000E+00
    0.59272E+04        -0.22354E+04         0.00000E+00
    0.00000E+00         0.00000E+00        -0.11758E+04
 
   -0.12753E+04         0.61104E+04         0.00000E+00
    0.61104E+04        -0.23963E+04         0.00000E+00
    0.00000E+00         0.00000E+00        -0.11015E+04
 
   -0.81345E+04         0.78823E+02         0.00000E+00
    0.78823E+02         0.14328E+03         0.00000E+00
    0.00000E+00         0.00000E+00        -0.23974E+04
 
   -0.84105E+04         0.28680E+03         0.00000E+00
    0.28680E+03         0.43760E+03         0.00000E+00
    0.00000E+00         0.00000E+00        -0.23919E+04
 
   -0.86884E+04         0.57956E+03         0.00000E+00
    0.57956E+03         0.72576E+03         0.00000E+00
    0.00000E+00         0.00000E+00        -0.23888E+04
 
   -0.89213E+04         0.96188E+03         0.00000E+00
    0.96188E+03         0.97836E+03         0.00000E+00
    0.00000E+00         0.00000E+00        -0.23829E+04
 
   -0.90670E+04         0.14204E+04         0.00000E+00
    0.14204E+04         0.11694E+04         0.00000E+00
    0.00000E+00         0.00000E+00        -0.23693E+04
 
   -0.90957E+04         0.19293E+04         0.00000E+00
    0.19293E+04         0.12813E+04         0.00000E+00
    0.00000E+00         0.00000E+00        -0.23443E+04
 
   -0.89936E+04         0.24570E+04         0.00000E+00
    0.24570E+04         0.13073E+04         0.00000E+00
    0.00000E+00         0.00000E+00        -0.23059E+04
 
   -0.87630E+04         0.29725E+04         0.00000E+00
    0.29725E+04         0.12506E+04         0.00000E+00
    0.00000E+00         0.00000E+00        -0.22537E+04
 
   -0.84183E+04         0.34505E+04         0.00000E+00
    0.34505E+04         0.11218E+04         0.00000E+00
    0.00000E+00         0.00000E+00        -0.21890E+04
 
   -0.79823E+04         0.38734E+04         0.00000E+00
    0.38734E+04         0.93606E+03         0.00000E+00
    0.00000E+00         0.00000E+00        -0.21139E+04
 
   -0.74802E+04         0.42321E+04         0.00000E+00
    0.42321E+04         0.70992E+03         0.00000E+00
    0.00000E+00         0.00000E+00        -0.20311E+04
 
   -0.69369E+04         0.45248E+04         0.00000E+00
    0.45248E+04         0.45883E+03         0.00000E+00
    0.00000E+00         0.00000E+00        -0.19434E+04
 
   -0.63739E+04         0.47549E+04         0.00000E+00
    0.47549E+04         0.19612E+03         0.00000E+00
    0.00000E+00         0.00000E+00        -0.18533E+04
 
   -0.58088E+04         0.49294E+04         0.00000E+00
    0.49294E+04        -0.67400E+02         0.00000E+00
    0.00000E+00         0.00000E+00        -0.17629E+04
 
   -0.52550E+04         0.50576E+04         0.00000E+00
    0.50576E+04        -0.32337E+03         0.00000E+00
    0.00000E+00         0.00000E+00        -0.16735E+04
 
   -0.47217E+04         0.51501E+04         0.00000E+00
    0.51501E+04        -0.56571E+03         0.00000E+00
    0.00000E+00         0.00000E+00        -0.15862E+04
 
   -0.42145E+04         0.52186E+04         0.00000E+00
    0.52186E+04        -0.79058E+03         0.00000E+00
    0.00000E+00         0.00000E+00        -0.15015E+04
 
   -0.37353E+04         0.52749E+04         0.00000E+00
    0.52749E+04        -0.99648E+03         0.00000E+00
    0.00000E+00         0.00000E+00        -0.14195E+04
 
   -0.32824E+04         0.53306E+04         0.00000E+00
    0.53306E+04        -0.11842E+04         0.00000E+00
    0.00000E+00         0.00000E+00        -0.13400E+04
 
   -0.28507E+04         0.53964E+04         0.00000E+00
    0.53964E+04        -0.13568E+04         0.00000E+00
    0.00000E+00         0.00000E+00        -0.12623E+04
 
   -0.24321E+04         0.54820E+04         0.00000E+00
    0.54820E+04        -0.15194E+04         0.00000E+00
    0.00000E+00         0.00000E+00        -0.11855E+04
 
   -0.20161E+04         0.55948E+04         0.00000E+00
    0.55948E+04        -0.16787E+04         0.00000E+00
    0.00000E+00         0.00000E+00        -0.11084E+04
 
   -0.15899E+04         0.57405E+04         0.00000E+00
    0.57405E+04        -0.18427E+04         0.00000E+00
    0.00000E+00         0.00000E+00        -0.10298E+04
 
   -0.11393E+04         0.59225E+04         0.00000E+00
    0.59225E+04        -0.20206E+04         0.00000E+00
    0.00000E+00         0.00000E+00        -0.94799E+03
 
   -0.79558E+04         0.87526E+02         0.00000E+00
    0.87526E+02         0.13708E+03         0.00000E+00
    0.00000E+00         0.00000E+00        -0.23456E+04
 
   -0.81731E+04         0.30014E+03         0.00000E+00
    0.30014E+03         0.41185E+03         0.00000E+00
    0.00000E+00         0.00000E+00        -0.23284E+04
 
   -0.83792E+04         0.57507E+03         0.00000E+00
    0.57507E+03         0.67522E+03         0.00000E+00
    0.00000E+00         0.00000E+00        -0.23112E+04
 
   -0.85436E+04         0.91636E+03         0.00000E+00
    0.91636E+03         0.90696E+03         0.00000E+00
    0.00000E+00         0.00000E+00        -0.22910E+04
 
   -0.86372E+04         0.13156E+04         0.00000E+00
    0.13156E+04         0.10883E+04         0.00000E+00
    0.00000E+00         0.00000E+00        -0.22647E+04
 
   -0.86386E+04         0.17551E+04         0.00000E+00
    0.17551E+04         0.12056E+04         0.00000E+00
    0.00000E+00         0.00000E+00        -0.22299E+04
 
   -0.85363E+04         0.22123E+04         0.00000E+00
    0.22123E+04         0.12527E+04         0.00000E+00
    0.00000E+00         0.00000E+00        -0.21851E+04
 
   -0.83304E+04         0.26641E+04         0.00000E+00
    0.26641E+04         0.12305E+04         0.00000E+00
    0.00000E+00         0.00000E+00        -0.21300E+04
 
   -0.80298E+04         0.30905E+04         0.00000E+00
    0.30905E+04         0.11461E+04         0.00000E+00
    0.00000E+00         0.00000E+00        -0.20651E+04
 
   -0.76500E+04         0.34769E+04         0.00000E+00
    0.34769E+04         0.10102E+04         0.00000E+00
    0.00000E+00         0.00000E+00        -0.19919E+04
 
   -0.72096E+04         0.38145E+04         0.00000E+00
    0.38145E+04         0.83550E+03         0.00000E+00
    0.00000E+00         0.00000E+00        -0.19122E+04
 
   -0.67276E+04         0.41000E+04         0.00000E+00
    0.41000E+04         0.63447E+03         0.00000E+00
    0.00000E+00         0.00000E+00        -0.18279E+04
 
   -0.62214E+04         0.43349E+04         0.00000E+00
    0.43349E+04         0.41835E+03         0.00000E+00
    0.00000E+00         0.00000E+00        -0.17409E+04
 
   -0.57058E+04         0.45239E+04         0.00000E+00
    0.45239E+04         0.19658E+03         0.00000E+00
    0.00000E+00         0.00000E+00        -0.16528E+04
 
   -0.51923E+04         0.46739E+04         0.00000E+00
    0.46739E+04        -0.23438E+02         0.00000E+00
    0.00000E+00         0.00000E+00        -0.15647E+04
 
   -0.46890E+04         0.47935E+04         0.00000E+00
    0.47935E+04        -0.23632E+03         0.00000E+00
    0.00000E+00         0.00000E+00        -0.14776E+04
 
   -0.42009E+04         0.48919E+04         0.00000E+00
    0.48919E+04        -0.43871E+03         0.00000E+00
    0.00000E+00         0.00000E+00        -0.13919E+04
 
   -0.37299E+04         0.49788E+04         0.00000E+00
    0.49788E+04        -0.62926E+03         0.00000E+00
    0.00000E+00         0.00000E+00        -0.13078E+04
 
   -0.32747E+04         0.50638E+04         0.00000E+00
    0.50638E+04        -0.80860E+03         0.00000E+00
    0.00000E+00         0.00000E+00        -0.12250E+04
 
   -0.28313E+04         0.51554E+04         0.00000E+00
    0.51554E+04        -0.97923E+03         0.00000E+00
    0.00000E+00         0.00000E+00        -0.11432E+04
 
   -0.23930E+04         0.52615E+04         0.00000E+00
    0.52615E+04        -0.11453E+04         0.00000E+00
    0.00000E+00         0.00000E+00        -0.10615E+04
 
   -0.19510E+04         0.53883E+04         0.00000E+00
    0.53883E+04        -0.13126E+04         0.00000E+00
    0.00000E+00         0.00000E+00        -0.97905E+03
 
   -0.14946E+04         0.55400E+04         0.00000E+00
    0.55400E+04        -0.14877E+04         0.00000E+00
    0.00000E+00         0.00000E+00        -0.89469E+03
 
   -0.10119E+04         0.57193E+04         0.00000E+00
    0.57193E+04        -0.16784E+04         0.00000E+00
    0.00000E+00         0.00000E+00        -0.80709E+03
 
   -0.77700E+04         0.89479E+02         0.00000E+00
    0.89479E+02         0.13204E+03         0.00000E+00
    0.00000E+00         0.00000E+00        -0.22914E+04
 
   -0.79442E+04         0.29831E+03         0.00000E+00
    0.29831E+03         0.39202E+03         0.00000E+00
    0.00000E+00         0.00000E+00        -0.22657E+04
 
   -0.80981E+04         0.55478E+03         0.00000E+00
    0.55478E+03         0.63709E+03         0.00000E+00
    0.00000E+00         0.00000E+00        -0.22383E+04
 
   -0.82121E+04         0.86165E+03         0.00000E+00
    0.86165E+03         0.85336E+03         0.00000E+00
    0.00000E+00         0.00000E+00        -0.22076E+04
 
   -0.82663E+04         0.12132E+04         0.00000E+00
    0.12132E+04         0.10273E+04         0.00000E+00
    0.00000E+00         0.00000E+00        -0.21717E+04
 
   -0.82456E+04         0.15971E+04         0.00000E+00
    0.15971E+04         0.11487E+04         0.00000E+00
    0.00000E+00         0.00000E+00        -0.21291E+04
 
   -0.81411E+04         0.19970E+04         0.00000E+00
    0.19970E+04         0.12122E+04         0.00000E+00
    0.00000E+00         0.00000E+00        -0.20787E+04
 
   -0.79518E+04         0.23958E+04         0.00000E+00
    0.23958E+04         0.12175E+04         0.00000E+00
    0.00000E+00         0.00000E+00        -0.20203E+04
 
   -0.76832E+04         0.27779E+04         0.00000E+00
    0.27779E+04         0.11691E+04         0.00000E+00
    0.00000E+00         0.00000E+00        -0.19542E+04
 
   -0.73462E+04         0.31311E+04         0.00000E+00
    0.31311E+04         0.10747E+04         0.00000E+00
    0.00000E+00         0.00000E+00        -0.18814E+04
 
   -0.69541E+04         0.34476E+04         0.00000E+00
    0.34476E+04         0.94377E+03         0.00000E+00
    0.00000E+00         0.00000E+00        -0.18031E+04
 
   -0.65215E+04         0.37237E+04         0.00000E+00
    0.37237E+04         0.78605E+03         0.00000E+00
    0.00000E+00         0.00000E+00        -0.17206E+04
 
   -0.60622E+04         0.39594E+04         0.00000E+00
    0.39594E+04         0.61079E+03         0.00000E+00
    0.00000E+00         0.00000E+00        -0.16354E+04
 
   -0.55881E+04         0.41577E+04         0.00000E+00
    0.41577E+04         0.42598E+03         0.00000E+00
    0.00000E+00         0.00000E+00        -0.15486E+04
 
   -0.51090E+04         0.43235E+04         0.00000E+00
    0.43235E+04         0.23801E+03         0.00000E+00
    0.00000E+00         0.00000E+00        -0.14613E+04
 
   -0.46319E+04         0.44635E+04         0.00000E+00
    0.44635E+04         0.51595E+02         0.00000E+00
    0.00000E+00         0.00000E+00        -0.13741E+04
 
   -0.41612E+04         0.45851E+04         0.00000E+00
    0.45851E+04        -0.13029E+03         0.00000E+00
    0.00000E+00         0.00000E+00        -0.12875E+04
 
   -0.36987E+04         0.46960E+04         0.00000E+00
    0.46960E+04        -0.30641E+03         0.00000E+00
    0.00000E+00         0.00000E+00        -0.12015E+04
 
   -0.32435E+04         0.48037E+04         0.00000E+00
    0.48037E+04        -0.47721E+03         0.00000E+00
    0.00000E+00         0.00000E+00        -0.11162E+04
 
   -0.27923E+04         0.49154E+04         0.00000E+00
    0.49154E+04        -0.64471E+03         0.00000E+00
    0.00000E+00         0.00000E+00        -0.10311E+04
 
   -0.23398E+04         0.50372E+04         0.00000E+00
    0.50372E+04        -0.81238E+03         0.00000E+00
    0.00000E+00         0.00000E+00        -0.94564E+03
 
   -0.18785E+04         0.51740E+04         0.00000E+00
    0.51740E+04        -0.98492E+03         0.00000E+00
    0.00000E+00         0.00000E+00        -0.85902E+03
 
   -0.13996E+04         0.53293E+04         0.00000E+00
    0.53293E+04        -0.11680E+04         0.00000E+00
    0.00000E+00         0.00000E+00        -0.77030E+03
 
   -0.89302E+03         0.55048E+04         0.00000E+00
    0.55048E+04        -0.13682E+04         0.00000E+00
    0.00000E+00         0.00000E+00        -0.67837E+03
 
   -0.75867E+04         0.87155E+02         0.00000E+00
    0.87155E+02         0.12782E+03         0.00000E+00
    0.00000E+00         0.00000E+00        -0.22377E+04
 
   -0.77276E+04         0.28672E+03         0.00000E+00
    0.28672E+03         0.37645E+03         0.00000E+00
    0.00000E+00         0.00000E+00        -0.22054E+04
 
   -0.78425E+04         0.52442E+03         0.00000E+00
    0.52442E+03         0.60813E+03         0.00000E+00
    0.00000E+00         0.00000E+00        -0.21703E+04
 
   -0.79186E+04         0.80161E+03         0.00000E+00
    0.80161E+03         0.81324E+03         0.00000E+00
    0.00000E+00         0.00000E+00        -0.21316E+04
 
   -0.79429E+04         0.11141E+04         0.00000E+00
    0.11141E+04         0.98208E+03         0.00000E+00
    0.00000E+00         0.00000E+00        -0.20882E+04
 
   -0.79044E+04         0.14529E+04         0.00000E+00
    0.14529E+04         0.11069E+04         0.00000E+00
    0.00000E+00         0.00000E+00        -0.20392E+04
 
   -0.77967E+04         0.18060E+04         0.00000E+00
    0.18060E+04         0.11834E+04         0.00000E+00
    0.00000E+00         0.00000E+00        -0.19840E+04
 
   -0.76186E+04         0.21607E+04         0.00000E+00
    0.21607E+04         0.12107E+04         0.00000E+00
    0.00000E+00         0.00000E+00        -0.19224E+04
 
   -0.73735E+04         0.25048E+04         0.00000E+00
    0.25048E+04         0.11916E+04         0.00000E+00
    0.00000E+00         0.00000E+00        -0.18546E+04
 
   -0.70688E+04         0.28284E+04         0.00000E+00
    0.28284E+04         0.11315E+04         0.00000E+00
    0.00000E+00         0.00000E+00        -0.17812E+04
 
   -0.67145E+04         0.31247E+04         0.00000E+00
    0.31247E+04         0.10372E+04         0.00000E+00
    0.00000E+00         0.00000E+00        -0.17032E+04
 
   -0.63213E+04         0.33900E+04         0.00000E+00
    0.33900E+04         0.91646E+03         0.00000E+00
    0.00000E+00         0.00000E+00        -0.16215E+04
 
   -0.59002E+04         0.36234E+04         0.00000E+00
    0.36234E+04         0.77657E+03         0.00000E+00
    0.00000E+00         0.00000E+00        -0.15371E+04
 
   -0.54606E+04         0.38266E+04         0.00000E+00
    0.38266E+04         0.62412E+03         0.00000E+00
    0.00000E+00         0.00000E+00        -0.14510E+04
 
   -0.50107E+04         0.40032E+04         0.00000E+00
    0.40032E+04         0.46452E+03         0.00000E+00
    0.00000E+00         0.00000E+00        -0.13639E+04
 
   -0.45564E+04         0.41581E+04         0.00000E+00
    0.41581E+04         0.30182E+03         0.00000E+00
    0.00000E+00         0.00000E+00        -0.12764E+04
 
   -0.41015E+04         0.42969E+04         0.00000E+00
    0.42969E+04         0.13861E+03         0.00000E+00
    0.00000E+00         0.00000E+00        -0.11889E+04
 
   -0.36476E+04         0.44258E+04         0.00000E+00
    0.44258E+04        -0.23972E+02         0.00000E+00
    0.00000E+00         0.00000E+00        -0.11015E+04
 
   -0.31941E+04         0.45509E+04         0.00000E+00
    0.45509E+04        -0.18620E+03         0.00000E+00
    0.00000E+00         0.00000E+00        -0.10141E+04
 
   -0.27384E+04         0.46776E+04         0.00000E+00
    0.46776E+04        -0.34972E+03         0.00000E+00
    0.00000E+00         0.00000E+00        -0.92645E+03
 
   -0.22762E+04         0.48110E+04         0.00000E+00
    0.48110E+04        -0.51737E+03         0.00000E+00
    0.00000E+00         0.00000E+00        -0.83806E+03
 
   -0.18013E+04         0.49548E+04         0.00000E+00
    0.49548E+04        -0.69305E+03         0.00000E+00
    0.00000E+00         0.00000E+00        -0.74830E+03
 
   -0.13063E+04         0.51115E+04         0.00000E+00
    0.51115E+04        -0.88153E+03         0.00000E+00
    0.00000E+00         0.00000E+00        -0.65636E+03
 
   -0.78289E+03         0.52822E+04         0.00000E+00
    0.52822E+04        -0.10882E+04         0.00000E+00
    0.00000E+00         0.00000E+00        -0.56134E+03
 
   -0.74119E+04         0.82282E+02         0.00000E+00
    0.82282E+02         0.12416E+03         0.00000E+00
    0.00000E+00         0.00000E+00        -0.21863E+04
 
   -0.75257E+04         0.26931E+03         0.00000E+00
    0.26931E+03         0.36389E+03         0.00000E+00
    0.00000E+00         0.00000E+00        -0.21485E+04
 
   -0.76102E+04         0.48829E+03         0.00000E+00
    0.48829E+03         0.58574E+03         0.00000E+00
    0.00000E+00         0.00000E+00        -0.21073E+04
 
   -0.76574E+04         0.73939E+03         0.00000E+00
    0.73939E+03         0.78294E+03         0.00000E+00
    0.00000E+00         0.00000E+00        -0.20623E+04
 
   -0.76583E+04         0.10191E+04         0.00000E+00
    0.10191E+04         0.94850E+03         0.00000E+00
    0.00000E+00         0.00000E+00        -0.20129E+04
 
   -0.76055E+04         0.13208E+04         0.00000E+00
    0.13208E+04         0.10766E+04         0.00000E+00
    0.00000E+00         0.00000E+00        -0.19587E+04
 
   -0.74944E+04         0.16354E+04         0.00000E+00
    0.16354E+04         0.11637E+04         0.00000E+00
    0.00000E+00         0.00000E+00        -0.18992E+04
 
   -0.73237E+04         0.19531E+04         0.00000E+00
    0.19531E+04         0.12088E+04         0.00000E+00
    0.00000E+00         0.00000E+00        -0.18345E+04
 
   -0.70957E+04         0.22647E+04         0.00000E+00
    0.22647E+04         0.12134E+04         0.00000E+00
    0.00000E+00         0.00000E+00        -0.17647E+04
 
   -0.68155E+04         0.25620E+04         0.00000E+00
    0.25620E+04         0.11814E+04         0.00000E+00
    0.00000E+00         0.00000E+00        -0.16902E+04
 
   -0.64904E+04         0.28393E+04         0.00000E+00
    0.28393E+04         0.11178E+04         0.00000E+00
    0.00000E+00         0.00000E+00        -0.16118E+04
 
   -0.61286E+04         0.30931E+04         0.00000E+00
    0.30931E+04         0.10283E+04         0.00000E+00
    0.00000E+00         0.00000E+00        -0.15301E+04
 
   -0.57384E+04         0.33220E+04         0.00000E+00
    0.33220E+04         0.91871E+03         0.00000E+00
    0.00000E+00         0.00000E+00        -0.14459E+04
 
   -0.53274E+04         0.35268E+04         0.00000E+00
    0.35268E+04         0.79435E+03         0.00000E+00
    0.00000E+00         0.00000E+00        -0.13599E+04
 
   -0.49022E+04         0.37099E+04         0.00000E+00
    0.37099E+04         0.65967E+03         0.00000E+00
    0.00000E+00         0.00000E+00        -0.12728E+04
 
   -0.44676E+04         0.38749E+04         0.00000E+00
    0.38749E+04         0.51807E+03         0.00000E+00
    0.00000E+00         0.00000E+00        -0.11849E+04
 
   -0.40269E+04         0.40260E+04         0.00000E+00
    0.40260E+04         0.37179E+03         0.00000E+00
    0.00000E+00         0.00000E+00        -0.10965E+04
 
   -0.35816E+04         0.41681E+04         0.00000E+00
    0.41681E+04         0.22185E+03         0.00000E+00
    0.00000E+00         0.00000E+00        -0.10079E+04
 
   -0.31311E+04         0.43057E+04         0.00000E+00
    0.43057E+04         0.68080E+02         0.00000E+00
    0.00000E+00         0.00000E+00        -0.91892E+03
 
   -0.26736E+04         0.44434E+04         0.00000E+00
    0.44434E+04        -0.90822E+02         0.00000E+00
    0.00000E+00         0.00000E+00        -0.82933E+03
 
   -0.22054E+04         0.45847E+04         0.00000E+00
    0.45847E+04        -0.25719E+03         0.00000E+00
    0.00000E+00         0.00000E+00        -0.73877E+03
 
   -0.17215E+04         0.47327E+04         0.00000E+00
    0.47327E+04        -0.43423E+03         0.00000E+00
    0.00000E+00         0.00000E+00        -0.64672E+03
 
   -0.12158E+04         0.48890E+04         0.00000E+00
    0.48890E+04        -0.62591E+03         0.00000E+00
    0.00000E+00         0.00000E+00        -0.55252E+03
 
   -0.68140E+03         0.50543E+04         0.00000E+00
    0.50543E+04        -0.83673E+03         0.00000E+00
    0.00000E+00         0.00000E+00        -0.45544E+03
 
   -0.72490E+04         0.76040E+02         0.00000E+00
    0.76040E+02         0.12090E+03         0.00000E+00
    0.00000E+00         0.00000E+00        -0.21384E+04
 
   -0.73395E+04         0.24884E+03         0.00000E+00
    0.24884E+03         0.35339E+03         0.00000E+00
    0.00000E+00         0.00000E+00        -0.20958E+04
 
   -0.73995E+04         0.44953E+03         0.00000E+00
    0.44953E+03         0.56793E+03         0.00000E+00
    0.00000E+00         0.00000E+00        -0.20495E+04
 
   -0.74237E+04         0.67735E+03         0.00000E+00
    0.67735E+03         0.75960E+03         0.00000E+00
    0.00000E+00         0.00000E+00        -0.19992E+04
 
   -0.74061E+04         0.92917E+03         0.00000E+00
    0.92917E+03         0.92325E+03         0.00000E+00
    0.00000E+00         0.00000E+00        -0.19449E+04
 
   -0.73417E+04         0.11997E+04         0.00000E+00
    0.11997E+04         0.10545E+04         0.00000E+00
    0.00000E+00         0.00000E+00        -0.18862E+04
 
   -0.72270E+04         0.14821E+04         0.00000E+00
    0.14821E+04         0.11504E+04         0.00000E+00
    0.00000E+00         0.00000E+00        -0.18230E+04
 
   -0.70611E+04         0.17687E+04         0.00000E+00
    0.17687E+04         0.12100E+04         0.00000E+00
    0.00000E+00         0.00000E+00        -0.17554E+04
 
   -0.68455E+04         0.20523E+04         0.00000E+00
    0.20523E+04         0.12341E+04         0.00000E+00
    0.00000E+00         0.00000E+00        -0.16834E+04
 
   -0.65839E+04         0.23264E+04         0.00000E+00
    0.23264E+04         0.12252E+04         0.00000E+00
    0.00000E+00         0.00000E+00        -0.16076E+04
 
   -0.62815E+04         0.25860E+04         0.00000E+00
    0.25860E+04         0.11870E+04         0.00000E+00
    0.00000E+00         0.00000E+00        -0.15284E+04
 
   -0.59445E+04         0.28279E+04         0.00000E+00
    0.28279E+04         0.11237E+04         0.00000E+00
    0.00000E+00         0.00000E+00        -0.14462E+04
 
   -0.55792E+04         0.30507E+04         0.00000E+00
    0.30507E+04         0.10399E+04         0.00000E+00
    0.00000E+00         0.00000E+00        -0.13618E+04
 
   -0.51917E+04         0.32544E+04         0.00000E+00
    0.32544E+04         0.93977E+03         0.00000E+00
    0.00000E+00         0.00000E+00        -0.12756E+04
 
   -0.47872E+04         0.34406E+04         0.00000E+00
    0.34406E+04         0.82682E+03         0.00000E+00
    0.00000E+00         0.00000E+00        -0.11881E+04
 
   -0.43696E+04         0.36118E+04         0.00000E+00
    0.36118E+04         0.70390E+03         0.00000E+00
    0.00000E+00         0.00000E+00        -0.10997E+04
 
   -0.39417E+04         0.37712E+04         0.00000E+00
    0.37712E+04         0.57288E+03         0.00000E+00
    0.00000E+00         0.00000E+00        -0.10107E+04
 
   -0.35047E+04         0.39222E+04         0.00000E+00
    0.39222E+04         0.43466E+03         0.00000E+00
    0.00000E+00         0.00000E+00        -0.92102E+03
 
   -0.30584E+04         0.40685E+04         0.00000E+00
    0.40685E+04         0.28913E+03         0.00000E+00
    0.00000E+00         0.00000E+00        -0.83078E+03
 
   -0.26011E+04         0.42134E+04         0.00000E+00
    0.42134E+04         0.13526E+03         0.00000E+00
    0.00000E+00         0.00000E+00        -0.73976E+03
 
   -0.21300E+04         0.43598E+04         0.00000E+00
    0.43598E+04        -0.28842E+02         0.00000E+00
    0.00000E+00         0.00000E+00        -0.64764E+03
 
   -0.16409E+04         0.45096E+04         0.00000E+00
    0.45096E+04        -0.20582E+03         0.00000E+00
    0.00000E+00         0.00000E+00        -0.55402E+03
 
   -0.11290E+04         0.46641E+04         0.00000E+00
    0.46641E+04        -0.39893E+03         0.00000E+00
    0.00000E+00         0.00000E+00        -0.45837E+03
 
   -0.58839E+03         0.48233E+04         0.00000E+00
    0.48233E+04        -0.61187E+03         0.00000E+00
    0.00000E+00         0.00000E+00        -0.36008E+03
 
   -0.70996E+04         0.69218E+02         0.00000E+00
    0.69218E+02         0.11790E+03         0.00000E+00
    0.00000E+00         0.00000E+00        -0.20945E+04
 
   -0.71693E+04         0.22720E+03         0.00000E+00
    0.22720E+03         0.34430E+03         0.00000E+00
    0.00000E+00         0.00000E+00        -0.20475E+04
 
   -0.72087E+04         0.41032E+03         0.00000E+00
    0.41032E+03         0.55325E+03         0.00000E+00
    0.00000E+00         0.00000E+00        -0.19966E+04
 
   -0.72140E+04         0.61716E+03         0.00000E+00
    0.61716E+03         0.74104E+03         0.00000E+00
    0.00000E+00         0.00000E+00        -0.19419E+04
 
   -0.71814E+04         0.84478E+03         0.00000E+00
    0.84478E+03         0.90374E+03         0.00000E+00
    0.00000E+00         0.00000E+00        -0.18833E+04
 
   -0.71071E+04         0.10888E+04         0.00000E+00
    0.10888E+04         0.10380E+04         0.00000E+00
    0.00000E+00         0.00000E+00        -0.18208E+04
 
   -0.69889E+04         0.13439E+04         0.00000E+00
    0.13439E+04         0.11413E+04         0.00000E+00
    0.00000E+00         0.00000E+00        -0.17543E+04
 
   -0.68260E+04         0.16041E+04         0.00000E+00
    0.16041E+04         0.12128E+04         0.00000E+00
    0.00000E+00         0.00000E+00        -0.16840E+04
 
   -0.66194E+04         0.18634E+04         0.00000E+00
    0.18634E+04         0.12529E+04         0.00000E+00
    0.00000E+00         0.00000E+00        -0.16100E+04
 
   -0.63718E+04         0.21168E+04         0.00000E+00
    0.21168E+04         0.12630E+04         0.00000E+00
    0.00000E+00         0.00000E+00        -0.15326E+04
 
   -0.60869E+04         0.23599E+04         0.00000E+00
    0.23599E+04         0.12459E+04         0.00000E+00
    0.00000E+00         0.00000E+00        -0.14523E+04
 
   -0.57694E+04         0.25900E+04         0.00000E+00
    0.25900E+04         0.12047E+04         0.00000E+00
    0.00000E+00         0.00000E+00        -0.13694E+04
 
   -0.54242E+04         0.28056E+04         0.00000E+00
    0.28056E+04         0.11427E+04         0.00000E+00
    0.00000E+00         0.00000E+00        -0.12845E+04
 
   -0.50560E+04         0.30062E+04         0.00000E+00
    0.30062E+04         0.10632E+04         0.00000E+00
    0.00000E+00         0.00000E+00        -0.11978E+04
 
   -0.46688E+04         0.31928E+04         0.00000E+00
    0.31928E+04         0.96913E+03         0.00000E+00
    0.00000E+00         0.00000E+00        -0.11099E+04
 
   -0.42659E+04         0.33669E+04         0.00000E+00
    0.33669E+04         0.86264E+03         0.00000E+00
    0.00000E+00         0.00000E+00        -0.10210E+04
 
   -0.38495E+04         0.35310E+04         0.00000E+00
    0.35310E+04         0.74530E+03         0.00000E+00
    0.00000E+00         0.00000E+00        -0.93126E+03
 
   -0.34206E+04         0.36875E+04         0.00000E+00
    0.36875E+04         0.61785E+03         0.00000E+00
    0.00000E+00         0.00000E+00        -0.84083E+03
 
   -0.29791E+04         0.38392E+04         0.00000E+00
    0.38392E+04         0.48024E+03         0.00000E+00
    0.00000E+00         0.00000E+00        -0.74966E+03
 
   -0.25237E+04         0.39884E+04         0.00000E+00
    0.39884E+04         0.33165E+03         0.00000E+00
    0.00000E+00         0.00000E+00        -0.65762E+03
 
   -0.20521E+04         0.41372E+04         0.00000E+00
    0.41372E+04         0.17054E+03         0.00000E+00
    0.00000E+00         0.00000E+00        -0.56447E+03
 
   -0.15610E+04         0.42870E+04         0.00000E+00
    0.42870E+04        -0.52451E+01         0.00000E+00
    0.00000E+00         0.00000E+00        -0.46987E+03
 
   -0.10464E+04         0.44384E+04         0.00000E+00
    0.44384E+04        -0.19835E+03         0.00000E+00
    0.00000E+00         0.00000E+00        -0.37342E+03
 
   -0.50360E+03         0.45911E+04         0.00000E+00
    0.45911E+04        -0.41179E+03         0.00000E+00
    0.00000E+00         0.00000E+00        -0.27462E+03
 
   -0.69643E+04         0.62322E+02         0.00000E+00
    0.62322E+02         0.11508E+03         0.00000E+00
    0.00000E+00         0.00000E+00        -0.20548E+04
 
   -0.70150E+04         0.20561E+03         0.00000E+00
    0.20561E+03         0.33615E+03         0.00000E+00
    0.00000E+00         0.00000E+00        -0.20037E+04
 
   -0.70363E+04         0.37212E+03         0.00000E+00
    0.37212E+03         0.54066E+03         0.00000E+00
    0.00000E+00         0.00000E+00        -0.19487E+04
 
   -0.70257E+04         0.55994E+03         0.00000E+00
    0.55994E+03         0.72564E+03         0.00000E+00
    0.00000E+00         0.00000E+00        -0.18900E+04
 
   -0.69802E+04         0.76630E+03         0.00000E+00
    0.76630E+03         0.88800E+03         0.00000E+00
    0.00000E+00         0.00000E+00        -0.18277E+04
 
   -0.68975E+04         0.98749E+03         0.00000E+00
    0.98749E+03         0.10250E+04         0.00000E+00
    0.00000E+00         0.00000E+00        -0.17618E+04
 
   -0.67758E+04         0.12191E+04         0.00000E+00
    0.12191E+04         0.11347E+04         0.00000E+00
    0.00000E+00         0.00000E+00        -0.16923E+04
 
   -0.66145E+04         0.14563E+04         0.00000E+00
    0.14563E+04         0.12161E+04         0.00000E+00
    0.00000E+00         0.00000E+00        -0.16195E+04
 
   -0.64143E+04         0.16945E+04         0.00000E+00
    0.16945E+04         0.12693E+04         0.00000E+00
    0.00000E+00         0.00000E+00        -0.15435E+04
 
   -0.61771E+04         0.19293E+04         0.00000E+00
    0.19293E+04         0.12951E+04         0.00000E+00
    0.00000E+00         0.00000E+00        -0.14646E+04
 
   -0.59058E+04         0.21572E+04         0.00000E+00
    0.21572E+04         0.12955E+04         0.00000E+00
    0.00000E+00         0.00000E+00        -0.13831E+04
 
   -0.56037E+04         0.23756E+04         0.00000E+00
    0.23756E+04         0.12727E+04         0.00000E+00
    0.00000E+00         0.00000E+00        -0.12993E+04
 
   -0.52746E+04         0.25831E+04         0.00000E+00
    0.25831E+04         0.12291E+04         0.00000E+00
    0.00000E+00         0.00000E+00        -0.12137E+04
 
   -0.49222E+04         0.27791E+04         0.00000E+00
    0.27791E+04         0.11673E+04         0.00000E+00
    0.00000E+00         0.00000E+00        -0.11265E+04
 
   -0.45495E+04         0.29638E+04         0.00000E+00
    0.29638E+04         0.10895E+04         0.00000E+00
    0.00000E+00         0.00000E+00        -0.10380E+04
 
   -0.41593E+04         0.31384E+04         0.00000E+00
    0.31384E+04         0.99735E+03         0.00000E+00
    0.00000E+00         0.00000E+00        -0.94857E+03
 
   -0.37531E+04         0.33044E+04         0.00000E+00
    0.33044E+04         0.89219E+03         0.00000E+00
    0.00000E+00         0.00000E+00        -0.85828E+03
 
   -0.33320E+04         0.34635E+04         0.00000E+00
    0.34635E+04         0.77459E+03         0.00000E+00
    0.00000E+00         0.00000E+00        -0.76723E+03
 
   -0.28959E+04         0.36177E+04         0.00000E+00
    0.36177E+04         0.64452E+03         0.00000E+00
    0.00000E+00         0.00000E+00        -0.67540E+03
 
   -0.24436E+04         0.37687E+04         0.00000E+00
    0.37687E+04         0.50130E+03         0.00000E+00
    0.00000E+00         0.00000E+00        -0.58270E+03
 
   -0.19735E+04         0.39179E+04         0.00000E+00
    0.39179E+04         0.34370E+03         0.00000E+00
    0.00000E+00         0.00000E+00        -0.48894E+03
 
   -0.14829E+04         0.40660E+04         0.00000E+00
    0.40660E+04         0.16998E+03         0.00000E+00
    0.00000E+00         0.00000E+00        -0.39386E+03
 
   -0.96849E+03         0.42133E+04         0.00000E+00
    0.42133E+04        -0.21987E+02         0.00000E+00
    0.00000E+00         0.00000E+00        -0.29714E+03
 
   -0.42670E+03         0.43592E+04         0.00000E+00
    0.43592E+04        -0.23463E+03         0.00000E+00
    0.00000E+00         0.00000E+00        -0.19840E+03
 
   -0.68427E+04         0.55669E+02         0.00000E+00
    0.55669E+02         0.11238E+03         0.00000E+00
    0.00000E+00         0.00000E+00        -0.20191E+04
 
   -0.68757E+04         0.18488E+03         0.00000E+00
    0.18488E+03         0.32862E+03         0.00000E+00
    0.00000E+00         0.00000E+00        -0.19641E+04
 
   -0.68808E+04         0.33583E+03         0.00000E+00
    0.33583E+03         0.52943E+03         0.00000E+00
    0.00000E+00         0.00000E+00        -0.19054E+04
 
   -0.68562E+04         0.50637E+03         0.00000E+00
    0.50637E+03         0.71228E+03         0.00000E+00
    0.00000E+00         0.00000E+00        -0.18432E+04
 
   -0.67997E+04         0.69383E+03         0.00000E+00
    0.69383E+03         0.87462E+03         0.00000E+00
    0.00000E+00         0.00000E+00        -0.17775E+04
 
   -0.67094E+04         0.89498E+03         0.00000E+00
    0.89498E+03         0.10142E+04         0.00000E+00
    0.00000E+00         0.00000E+00        -0.17086E+04
 
   -0.65841E+04         0.11061E+04         0.00000E+00
    0.11061E+04         0.11293E+04         0.00000E+00
    0.00000E+00         0.00000E+00        -0.16364E+04
 
   -0.64233E+04         0.13233E+04         0.00000E+00
    0.13233E+04         0.12189E+04         0.00000E+00
    0.00000E+00         0.00000E+00        -0.15613E+04
 
   -0.62276E+04         0.15427E+04         0.00000E+00
    0.15427E+04         0.12828E+04         0.00000E+00
    0.00000E+00         0.00000E+00        -0.14834E+04
 
   -0.59982E+04         0.17607E+04         0.00000E+00
    0.17607E+04         0.13217E+04         0.00000E+00
    0.00000E+00         0.00000E+00        -0.14030E+04
 
   -0.57373E+04         0.19743E+04         0.00000E+00
    0.19743E+04         0.13366E+04         0.00000E+00
    0.00000E+00         0.00000E+00        -0.13202E+04
 
   -0.54474E+04         0.21814E+04         0.00000E+00
    0.21814E+04         0.13291E+04         0.00000E+00
    0.00000E+00         0.00000E+00        -0.12355E+04
 
   -0.51312E+04         0.23803E+04         0.00000E+00
    0.23803E+04         0.13010E+04         0.00000E+00
    0.00000E+00         0.00000E+00        -0.11491E+04
 
   -0.47917E+04         0.25704E+04         0.00000E+00
    0.25704E+04         0.12542E+04         0.00000E+00
    0.00000E+00         0.00000E+00        -0.10612E+04
 
   -0.44312E+04         0.27516E+04         0.00000E+00
    0.27516E+04         0.11904E+04         0.00000E+00
    0.00000E+00         0.00000E+00        -0.97225E+03
 
   -0.40519E+04         0.29245E+04         0.00000E+00
    0.29245E+04         0.11108E+04         0.00000E+00
    0.00000E+00         0.00000E+00        -0.88231E+03
 
   -0.36550E+04         0.30901E+04         0.00000E+00
    0.30901E+04         0.10165E+04         0.00000E+00
    0.00000E+00         0.00000E+00        -0.79155E+03
 
   -0.32413E+04         0.32495E+04         0.00000E+00
    0.32495E+04         0.90782E+03         0.00000E+00
    0.00000E+00         0.00000E+00        -0.70005E+03
 
   -0.28108E+04         0.34039E+04         0.00000E+00
    0.34039E+04         0.78483E+03         0.00000E+00
    0.00000E+00         0.00000E+00        -0.60780E+03
 
   -0.23627E+04         0.35546E+04         0.00000E+00
    0.35546E+04         0.64697E+03         0.00000E+00
    0.00000E+00         0.00000E+00        -0.51473E+03
 
   -0.18956E+04         0.37023E+04         0.00000E+00
    0.37023E+04         0.49323E+03         0.00000E+00
    0.00000E+00         0.00000E+00        -0.42071E+03
 
   -0.14074E+04         0.38475E+04         0.00000E+00
    0.38475E+04         0.32224E+03         0.00000E+00
    0.00000E+00         0.00000E+00        -0.32555E+03
 
   -0.89561E+03         0.39899E+04         0.00000E+00
    0.39899E+04         0.13228E+03         0.00000E+00
    0.00000E+00         0.00000E+00        -0.22900E+03
 
   -0.35733E+03         0.41287E+04         0.00000E+00
    0.41287E+04        -0.78552E+02         0.00000E+00
    0.00000E+00         0.00000E+00        -0.13076E+03
 
   -0.67343E+04         0.49441E+02         0.00000E+00
    0.49441E+02         0.10979E+03         0.00000E+00
    0.00000E+00         0.00000E+00        -0.19874E+04
 
   -0.67506E+04         0.16545E+03         0.00000E+00
    0.16545E+03         0.32152E+03         0.00000E+00
    0.00000E+00         0.00000E+00        -0.19287E+04
 
   -0.67409E+04         0.30198E+03         0.00000E+00
    0.30198E+03         0.51907E+03         0.00000E+00
    0.00000E+00         0.00000E+00        -0.18666E+04
 
   -0.67037E+04         0.45679E+03         0.00000E+00
    0.45679E+03         0.70016E+03         0.00000E+00
    0.00000E+00         0.00000E+00        -0.18011E+04
 
   -0.66372E+04         0.62731E+03         0.00000E+00
    0.62731E+03         0.86258E+03         0.00000E+00
    0.00000E+00         0.00000E+00        -0.17324E+04
 
   -0.65400E+04         0.81066E+03         0.00000E+00
    0.81066E+03         0.10044E+04         0.00000E+00
    0.00000E+00         0.00000E+00        -0.16607E+04
 
   -0.64111E+04         0.10037E+04         0.00000E+00
    0.10037E+04         0.11240E+04         0.00000E+00
    0.00000E+00         0.00000E+00        -0.15861E+04
 
   -0.62501E+04         0.12031E+04         0.00000E+00
    0.12031E+04         0.12204E+04         0.00000E+00
    0.00000E+00         0.00000E+00        -0.15089E+04
 
   -0.60573E+04         0.14056E+04         0.00000E+00
    0.14056E+04         0.12934E+04         0.00000E+00
    0.00000E+00         0.00000E+00        -0.14292E+04
 
   -0.58336E+04         0.16083E+04         0.00000E+00
    0.16083E+04         0.13429E+04         0.00000E+00
    0.00000E+00         0.00000E+00        -0.13472E+04
 
   -0.55807E+04         0.18086E+04         0.00000E+00
    0.18086E+04         0.13698E+04         0.00000E+00
    0.00000E+00         0.00000E+00        -0.12632E+04
 
   -0.53003E+04         0.20045E+04         0.00000E+00
    0.20045E+04         0.13752E+04         0.00000E+00
    0.00000E+00         0.00000E+00        -0.11775E+04
 
   -0.49945E+04         0.21945E+04         0.00000E+00
    0.21945E+04         0.13601E+04         0.00000E+00
    0.00000E+00         0.00000E+00        -0.10903E+04
 
   -0.46656E+04         0.23778E+04         0.00000E+00
    0.23778E+04         0.13261E+04         0.00000E+00
    0.00000E+00         0.00000E+00        -0.10019E+04
 
   -0.43154E+04         0.25541E+04         0.00000E+00
    0.25541E+04         0.12742E+04         0.00000E+00
    0.00000E+00         0.00000E+00        -0.91235E+03
 
   -0.39454E+04         0.27237E+04         0.00000E+00
    0.27237E+04         0.12055E+04         0.00000E+00
    0.00000E+00         0.00000E+00        -0.82197E+03
 
   -0.35569E+04         0.28870E+04         0.00000E+00
    0.28870E+04         0.11208E+04         0.00000E+00
    0.00000E+00         0.00000E+00        -0.73084E+03
 
   -0.31503E+04         0.30447E+04         0.00000E+00
    0.30447E+04         0.10202E+04         0.00000E+00
    0.00000E+00         0.00000E+00        -0.63903E+03
 
   -0.27257E+04         0.31975E+04         0.00000E+00
    0.31975E+04         0.90385E+03         0.00000E+00
    0.00000E+00         0.00000E+00        -0.54655E+03
 
   -0.22825E+04         0.33462E+04         0.00000E+00
    0.33462E+04         0.77123E+03         0.00000E+00
    0.00000E+00         0.00000E+00        -0.45337E+03
 
   -0.18195E+04         0.34911E+04         0.00000E+00
    0.34911E+04         0.62158E+03         0.00000E+00
    0.00000E+00         0.00000E+00        -0.35939E+03
 
   -0.13353E+04         0.36322E+04         0.00000E+00
    0.36322E+04         0.45378E+03         0.00000E+00
    0.00000E+00         0.00000E+00        -0.26446E+03
 
   -0.82788E+03         0.37691E+04         0.00000E+00
    0.37691E+04         0.26650E+03         0.00000E+00
    0.00000E+00         0.00000E+00        -0.16841E+03
 
   -0.29504E+03         0.39008E+04         0.00000E+00
    0.39008E+04         0.58255E+02         0.00000E+00
    0.00000E+00         0.00000E+00        -0.71036E+02
 
   -0.66380E+04         0.43730E+02         0.00000E+00
    0.43730E+02         0.10727E+03         0.00000E+00
    0.00000E+00         0.00000E+00        -0.19592E+04
 
   -0.66386E+04         0.14755E+03         0.00000E+00
    0.14755E+03         0.31471E+03         0.00000E+00
    0.00000E+00         0.00000E+00        -0.18972E+04
 
   -0.66152E+04         0.27082E+03         0.00000E+00
    0.27082E+03         0.50925E+03         0.00000E+00
    0.00000E+00         0.00000E+00        -0.18318E+04
 
   -0.65664E+04         0.41128E+03         0.00000E+00
    0.41128E+03         0.68876E+03         0.00000E+00
    0.00000E+00         0.00000E+00        -0.17633E+04
 
   -0.64908E+04         0.56651E+03         0.00000E+00
    0.56651E+03         0.85123E+03         0.00000E+00
    0.00000E+00         0.00000E+00        -0.16919E+04
 
   -0.63871E+04         0.73390E+03         0.00000E+00
    0.73390E+03         0.99488E+03         0.00000E+00
    0.00000E+00         0.00000E+00        -0.16177E+04
 
   -0.62545E+04         0.91071E+03         0.00000E+00
    0.91071E+03         0.11183E+04         0.00000E+00
    0.00000E+00         0.00000E+00        -0.15409E+04
 
   -0.60926E+04         0.10941E+04         0.00000E+00
    0.10941E+04         0.12204E+04         0.00000E+00
    0.00000E+00         0.00000E+00        -0.14617E+04
 
   -0.59016E+04         0.12814E+04         0.00000E+00
    0.12814E+04         0.13007E+04         0.00000E+00
    0.00000E+00         0.00000E+00        -0.13803E+04
 
   -0.56821E+04         0.14700E+04         0.00000E+00
    0.14700E+04         0.13591E+04         0.00000E+00
    0.00000E+00         0.00000E+00        -0.12969E+04
 
   -0.54352E+04         0.16576E+04         0.00000E+00
    0.16576E+04         0.13960E+04         0.00000E+00
    0.00000E+00         0.00000E+00        -0.12117E+04
 
   -0.51623E+04         0.18425E+04         0.00000E+00
    0.18425E+04         0.14120E+04         0.00000E+00
    0.00000E+00         0.00000E+00        -0.11251E+04
 
   -0.48649E+04         0.20234E+04         0.00000E+00
    0.20234E+04         0.14079E+04         0.00000E+00
    0.00000E+00         0.00000E+00        -0.10371E+04
 
   -0.45447E+04         0.21992E+04         0.00000E+00
    0.21992E+04         0.13847E+04         0.00000E+00
    0.00000E+00         0.00000E+00        -0.94801E+03
 
   -0.42031E+04         0.23697E+04         0.00000E+00
    0.23697E+04         0.13431E+04         0.00000E+00
    0.00000E+00         0.00000E+00        -0.85801E+03
 
   -0.38414E+04         0.25345E+04         0.00000E+00
    0.25345E+04         0.12838E+04         0.00000E+00
    0.00000E+00         0.00000E+00        -0.76726E+03
 
   -0.34603E+04         0.26940E+04         0.00000E+00
    0.26940E+04         0.12075E+04         0.00000E+00
    0.00000E+00         0.00000E+00        -0.67585E+03
 
   -0.30605E+04         0.28485E+04         0.00000E+00
    0.28485E+04         0.11142E+04         0.00000E+00
    0.00000E+00         0.00000E+00        -0.58387E+03
 
   -0.26418E+04         0.29982E+04         0.00000E+00
    0.29982E+04         0.10040E+04         0.00000E+00
    0.00000E+00         0.00000E+00        -0.49134E+03
 
   -0.22040E+04         0.31435E+04         0.00000E+00
    0.31435E+04         0.87649E+03         0.00000E+00
    0.00000E+00         0.00000E+00        -0.39825E+03
 
   -0.17461E+04         0.32843E+04         0.00000E+00
    0.32843E+04         0.73102E+03         0.00000E+00
    0.00000E+00         0.00000E+00        -0.30453E+03
 
   -0.12670E+04         0.34206E+04         0.00000E+00
    0.34206E+04         0.56673E+03         0.00000E+00
    0.00000E+00         0.00000E+00        -0.21009E+03
 
   -0.76534E+03         0.35515E+04         0.00000E+00
    0.35515E+04         0.38261E+03         0.00000E+00
    0.00000E+00         0.00000E+00        -0.11482E+03
 
   -0.23941E+03         0.36759E+04         0.00000E+00
    0.36759E+04         0.17753E+03         0.00000E+00
    0.00000E+00         0.00000E+00        -0.18563E+02
 
   -0.65528E+04         0.38568E+02         0.00000E+00
    0.38568E+02         0.10482E+03         0.00000E+00
    0.00000E+00         0.00000E+00        -0.19344E+04
 
   -0.65385E+04         0.13127E+03         0.00000E+00
    0.13127E+03         0.30811E+03         0.00000E+00
    0.00000E+00         0.00000E+00        -0.18691E+04
 
   -0.65024E+04         0.24240E+03         0.00000E+00
    0.24240E+03         0.49978E+03         0.00000E+00
    0.00000E+00         0.00000E+00        -0.18008E+04
 
   -0.64429E+04         0.36977E+03         0.00000E+00
    0.36977E+03         0.67775E+03         0.00000E+00
    0.00000E+00         0.00000E+00        -0.17295E+04
 
   -0.63587E+04         0.51110E+03         0.00000E+00
    0.51110E+03         0.84014E+03         0.00000E+00
    0.00000E+00         0.00000E+00        -0.16556E+04
 
   -0.62489E+04         0.66405E+03         0.00000E+00
    0.66405E+03         0.98525E+03         0.00000E+00
    0.00000E+00         0.00000E+00        -0.15791E+04
 
   -0.61125E+04         0.82619E+03         0.00000E+00
    0.82619E+03         0.11117E+04         0.00000E+00
    0.00000E+00         0.00000E+00        -0.15002E+04
 
   -0.59492E+04         0.99507E+03         0.00000E+00
    0.99507E+03         0.12185E+04         0.00000E+00
    0.00000E+00         0.00000E+00        -0.14192E+04
 
   -0.57591E+04         0.11683E+04         0.00000E+00
    0.11683E+04         0.13049E+04         0.00000E+00
    0.00000E+00         0.00000E+00        -0.13363E+04
 
   -0.55425E+04         0.13438E+04         0.00000E+00
    0.13438E+04         0.13706E+04         0.00000E+00
    0.00000E+00         0.00000E+00        -0.12516E+04
 
   -0.53002E+04         0.15194E+04         0.00000E+00
    0.15194E+04         0.14158E+04         0.00000E+00
    0.00000E+00         0.00000E+00        -0.11653E+04
 
   -0.50331E+04         0.16936E+04         0.00000E+00
    0.16936E+04         0.14407E+04         0.00000E+00
    0.00000E+00         0.00000E+00        -0.10777E+04
 
   -0.47425E+04         0.18651E+04         0.00000E+00
    0.18651E+04         0.14458E+04         0.00000E+00
    0.00000E+00         0.00000E+00        -0.98901E+03
 
   -0.44295E+04         0.20330E+04         0.00000E+00
    0.20330E+04         0.14317E+04         0.00000E+00
    0.00000E+00         0.00000E+00        -0.89936E+03
 
   -0.40953E+04         0.21967E+04         0.00000E+00
    0.21967E+04         0.13988E+04         0.00000E+00
    0.00000E+00         0.00000E+00        -0.80893E+03
 
   -0.37407E+04         0.23558E+04         0.00000E+00
    0.23558E+04         0.13478E+04         0.00000E+00
    0.00000E+00         0.00000E+00        -0.71787E+03
 
   -0.33665E+04         0.25103E+04         0.00000E+00
    0.25103E+04         0.12788E+04         0.00000E+00
    0.00000E+00         0.00000E+00        -0.62629E+03
 
   -0.29730E+04         0.26602E+04         0.00000E+00
    0.26602E+04         0.11922E+04         0.00000E+00
    0.00000E+00         0.00000E+00        -0.53425E+03
 
   -0.25603E+04         0.28056E+04         0.00000E+00
    0.28056E+04         0.10876E+04         0.00000E+00
    0.00000E+00         0.00000E+00        -0.44181E+03
 
   -0.21282E+04         0.29463E+04         0.00000E+00
    0.29463E+04         0.96495E+03         0.00000E+00
    0.00000E+00         0.00000E+00        -0.34897E+03
 
   -0.16760E+04         0.30823E+04         0.00000E+00
    0.30823E+04         0.82366E+03         0.00000E+00
    0.00000E+00         0.00000E+00        -0.25570E+03
 
   -0.12029E+04         0.32129E+04         0.00000E+00
    0.32129E+04         0.66309E+03         0.00000E+00
    0.00000E+00         0.00000E+00        -0.16195E+03
 
   -0.70794E+03         0.33375E+04         0.00000E+00
    0.33375E+04         0.48245E+03         0.00000E+00
    0.00000E+00         0.00000E+00        -0.67646E+02
 
   -0.18995E+03         0.34547E+04         0.00000E+00
    0.34547E+04         0.28094E+03         0.00000E+00
    0.00000E+00         0.00000E+00         0.27296E+02
 
   -0.64776E+04         0.33952E+02         0.00000E+00
    0.33952E+02         0.10244E+03         0.00000E+00
    0.00000E+00         0.00000E+00        -0.19125E+04
 
   -0.64494E+04         0.11658E+03         0.00000E+00
    0.11658E+03         0.30170E+03         0.00000E+00
    0.00000E+00         0.00000E+00        -0.18443E+04
 
   -0.64013E+04         0.21665E+03         0.00000E+00
    0.21665E+03         0.49055E+03         0.00000E+00
    0.00000E+00         0.00000E+00        -0.17732E+04
 
   -0.63318E+04         0.33206E+03         0.00000E+00
    0.33206E+03         0.66695E+03         0.00000E+00
    0.00000E+00         0.00000E+00        -0.16994E+04
 
   -0.62396E+04         0.46072E+03         0.00000E+00
    0.46072E+03         0.82907E+03         0.00000E+00
    0.00000E+00         0.00000E+00        -0.16232E+04
 
   -0.61239E+04         0.60049E+03         0.00000E+00
    0.60049E+03         0.97526E+03         0.00000E+00
    0.00000E+00         0.00000E+00        -0.15446E+04
 
   -0.59837E+04         0.74922E+03         0.00000E+00
    0.74922E+03         0.11041E+04         0.00000E+00
    0.00000E+00         0.00000E+00        -0.14639E+04
 
   -0.58186E+04         0.90475E+03         0.00000E+00
    0.90475E+03         0.12147E+04         0.00000E+00
    0.00000E+00         0.00000E+00        -0.13812E+04
 
   -0.56287E+04         0.10650E+04         0.00000E+00
    0.10650E+04         0.13060E+04         0.00000E+00
    0.00000E+00         0.00000E+00        -0.12968E+04
 
   -0.54140E+04         0.12281E+04         0.00000E+00
    0.12281E+04         0.13778E+04         0.00000E+00
    0.00000E+00         0.00000E+00        -0.12108E+04
 
   -0.51751E+04         0.13922E+04         0.00000E+00
    0.13922E+04         0.14299E+04         0.00000E+00
    0.00000E+00         0.00000E+00        -0.11236E+04
 
   -0.49126E+04         0.15559E+04         0.00000E+00
    0.15559E+04         0.14622E+04         0.00000E+00
    0.00000E+00         0.00000E+00        -0.10351E+04
 
   -0.46274E+04         0.17180E+04         0.00000E+00
    0.17180E+04         0.14750E+04         0.00000E+00
    0.00000E+00         0.00000E+00        -0.94574E+03
 
   -0.43204E+04         0.18775E+04         0.00000E+00
    0.18775E+04         0.14685E+04         0.00000E+00
    0.00000E+00         0.00000E+00        -0.85557E+03
 
   -0.39924E+04         0.20338E+04         0.00000E+00
    0.20338E+04         0.14432E+04         0.00000E+00
    0.00000E+00         0.00000E+00        -0.76477E+03
 
   -0.36442E+04         0.21864E+04         0.00000E+00
    0.21864E+04         0.13992E+04         0.00000E+00
    0.00000E+00         0.00000E+00        -0.67348E+03
 
   -0.32761E+04         0.23350E+04         0.00000E+00
    0.23350E+04         0.13368E+04         0.00000E+00
    0.00000E+00         0.00000E+00        -0.58180E+03
 
   -0.28887E+04         0.24793E+04         0.00000E+00
    0.24793E+04         0.12560E+04         0.00000E+00
    0.00000E+00         0.00000E+00        -0.48982E+03
 
   -0.24820E+04         0.26193E+04         0.00000E+00
    0.26193E+04         0.11567E+04         0.00000E+00
    0.00000E+00         0.00000E+00        -0.39758E+03
 
   -0.20557E+04         0.27547E+04         0.00000E+00
    0.27547E+04         0.10386E+04         0.00000E+00
    0.00000E+00         0.00000E+00        -0.30512E+03
 
   -0.16096E+04         0.28849E+04         0.00000E+00
    0.28849E+04         0.90147E+03         0.00000E+00
    0.00000E+00         0.00000E+00        -0.21244E+03
 
   -0.11431E+04         0.30095E+04         0.00000E+00
    0.30095E+04         0.74470E+03         0.00000E+00
    0.00000E+00         0.00000E+00        -0.11952E+03
 
   -0.65554E+03         0.31274E+04         0.00000E+00
    0.31274E+04         0.56775E+03         0.00000E+00
    0.00000E+00         0.00000E+00        -0.26337E+02
 
   -0.14621E+03         0.32374E+04         0.00000E+00
    0.32374E+04         0.37007E+03         0.00000E+00
    0.00000E+00         0.00000E+00         0.67159E+02
 
   -0.64113E+04         0.29852E+02         0.00000E+00
    0.29852E+02         0.10014E+03         0.00000E+00
    0.00000E+00         0.00000E+00        -0.18933E+04
 
   -0.63700E+04         0.10342E+03         0.00000E+00
    0.10342E+03         0.29546E+03         0.00000E+00
    0.00000E+00         0.00000E+00        -0.18224E+04
 
   -0.63107E+04         0.19341E+03         0.00000E+00
    0.19341E+03         0.48151E+03         0.00000E+00
    0.00000E+00         0.00000E+00        -0.17488E+04
 
   -0.62319E+04         0.29788E+03         0.00000E+00
    0.29788E+03         0.65627E+03         0.00000E+00
    0.00000E+00         0.00000E+00        -0.16727E+04
 
   -0.61322E+04         0.41493E+03         0.00000E+00
    0.41493E+03         0.81790E+03         0.00000E+00
    0.00000E+00         0.00000E+00        -0.15943E+04
 
   -0.60108E+04         0.54259E+03         0.00000E+00
    0.54259E+03         0.96479E+03         0.00000E+00
    0.00000E+00         0.00000E+00        -0.15138E+04
 
   -0.58667E+04         0.67896E+03         0.00000E+00
    0.67896E+03         0.10956E+04         0.00000E+00
    0.00000E+00         0.00000E+00        -0.14314E+04
 
   -0.56997E+04         0.82211E+03         0.00000E+00
    0.82211E+03         0.12091E+04         0.00000E+00
    0.00000E+00         0.00000E+00        -0.13472E+04
 
   -0.55093E+04         0.97023E+03         0.00000E+00
    0.97023E+03         0.13045E+04         0.00000E+00
    0.00000E+00         0.00000E+00        -0.12615E+04
 
   -0.52958E+04         0.11216E+04         0.00000E+00
    0.11216E+04         0.13812E+04         0.00000E+00
    0.00000E+00         0.00000E+00        -0.11744E+04
 
   -0.50594E+04         0.12747E+04         0.00000E+00
    0.12747E+04         0.14389E+04         0.00000E+00
    0.00000E+00         0.00000E+00        -0.10861E+04
 
   -0.48005E+04         0.14280E+04         0.00000E+00
    0.14280E+04         0.14774E+04         0.00000E+00
    0.00000E+00         0.00000E+00        -0.99694E+03
 
   -0.45197E+04         0.15806E+04         0.00000E+00
    0.15806E+04         0.14966E+04         0.00000E+00
    0.00000E+00         0.00000E+00        -0.90694E+03
 
   -0.42177E+04         0.17315E+04         0.00000E+00
    0.17315E+04         0.14967E+04         0.00000E+00
    0.00000E+00         0.00000E+00        -0.81631E+03
 
   -0.38951E+04         0.18799E+04         0.00000E+00
    0.18799E+04         0.14777E+04         0.00000E+00
    0.00000E+00         0.00000E+00        -0.72520E+03
 
   -0.35523E+04         0.20252E+04         0.00000E+00
    0.20252E+04         0.14399E+04         0.00000E+00
    0.00000E+00         0.00000E+00        -0.63375E+03
 
   -0.31900E+04         0.21671E+04         0.00000E+00
    0.21671E+04         0.13832E+04         0.00000E+00
    0.00000E+00         0.00000E+00        -0.54205E+03
 
   -0.28083E+04         0.23052E+04         0.00000E+00
    0.23052E+04         0.13076E+04         0.00000E+00
    0.00000E+00         0.00000E+00        -0.45020E+03
 
   -0.24073E+04         0.24390E+04         0.00000E+00
    0.24390E+04         0.12131E+04         0.00000E+00
    0.00000E+00         0.00000E+00        -0.35827E+03
 
   -0.19871E+04         0.25683E+04         0.00000E+00
    0.25683E+04         0.10994E+04         0.00000E+00
    0.00000E+00         0.00000E+00        -0.26630E+03
 
   -0.15473E+04         0.26923E+04         0.00000E+00
    0.26923E+04         0.96625E+03         0.00000E+00
    0.00000E+00         0.00000E+00        -0.17431E+03
 
   -0.10877E+04         0.28103E+04         0.00000E+00
    0.28103E+04         0.81329E+03         0.00000E+00
    0.00000E+00         0.00000E+00        -0.82329E+02
 
   -0.60798E+03         0.29214E+04         0.00000E+00
    0.29214E+04         0.64013E+03         0.00000E+00
    0.00000E+00         0.00000E+00         0.96470E+01
 
   -0.10771E+03         0.30243E+04         0.00000E+00
    0.30243E+04         0.44642E+03         0.00000E+00
    0.00000E+00         0.00000E+00         0.10161E+03
 
   -0.63529E+04         0.26228E+02         0.00000E+00
    0.26228E+02         0.97907E+02         0.00000E+00
    0.00000E+00         0.00000E+00        -0.18765E+04
 
   -0.62995E+04         0.91652E+02         0.00000E+00
    0.91652E+02         0.28940E+03         0.00000E+00
    0.00000E+00         0.00000E+00        -0.18030E+04
 
   -0.62298E+04         0.17248E+03         0.00000E+00
    0.17248E+03         0.47267E+03         0.00000E+00
    0.00000E+00         0.00000E+00        -0.17271E+04
 
   -0.61422E+04         0.26694E+03         0.00000E+00
    0.26694E+03         0.64568E+03         0.00000E+00
    0.00000E+00         0.00000E+00        -0.16490E+04
 
   -0.60354E+04         0.37329E+03         0.00000E+00
    0.37329E+03         0.80662E+03         0.00000E+00
    0.00000E+00         0.00000E+00        -0.15686E+04
 
   -0.59085E+04         0.48977E+03         0.00000E+00
    0.48977E+03         0.95387E+03         0.00000E+00
    0.00000E+00         0.00000E+00        -0.14864E+04
 
   -0.57607E+04         0.61465E+03         0.00000E+00
    0.61465E+03         0.10860E+04         0.00000E+00
    0.00000E+00         0.00000E+00        -0.14024E+04
 
   -0.55914E+04         0.74624E+03         0.00000E+00
    0.74624E+03         0.12019E+04         0.00000E+00
    0.00000E+00         0.00000E+00        -0.13168E+04
 
   -0.54003E+04         0.88290E+03         0.00000E+00
    0.88290E+03         0.13005E+04         0.00000E+00
    0.00000E+00         0.00000E+00        -0.12299E+04
 
   -0.51873E+04         0.10231E+04         0.00000E+00
    0.10231E+04         0.13813E+04         0.00000E+00
    0.00000E+00         0.00000E+00        -0.11418E+04
 
   -0.49526E+04         0.11655E+04         0.00000E+00
    0.11655E+04         0.14436E+04         0.00000E+00
    0.00000E+00         0.00000E+00        -0.10527E+04
 
   -0.46965E+04         0.13087E+04         0.00000E+00
    0.13087E+04         0.14871E+04         0.00000E+00
    0.00000E+00         0.00000E+00        -0.96281E+03
 
   -0.44193E+04         0.14518E+04         0.00000E+00
    0.14518E+04         0.15117E+04         0.00000E+00
    0.00000E+00         0.00000E+00        -0.87227E+03
 
   -0.41214E+04         0.15937E+04         0.00000E+00
    0.15937E+04         0.15173E+04         0.00000E+00
    0.00000E+00         0.00000E+00        -0.78124E+03
 
   -0.38034E+04         0.17339E+04         0.00000E+00
    0.17339E+04         0.15038E+04         0.00000E+00
    0.00000E+00         0.00000E+00        -0.68989E+03
 
   -0.34657E+04         0.18715E+04         0.00000E+00
    0.18715E+04         0.14712E+04         0.00000E+00
    0.00000E+00         0.00000E+00        -0.59833E+03
 
   -0.31085E+04         0.20061E+04         0.00000E+00
    0.20061E+04         0.14195E+04         0.00000E+00
    0.00000E+00         0.00000E+00        -0.50669E+03
 
   -0.27322E+04         0.21372E+04         0.00000E+00
    0.21372E+04         0.13487E+04         0.00000E+00
    0.00000E+00         0.00000E+00        -0.41505E+03
 
   -0.23368E+04         0.22643E+04         0.00000E+00
    0.22643E+04         0.12585E+04         0.00000E+00
    0.00000E+00         0.00000E+00        -0.32349E+03
 
   -0.19225E+04         0.23869E+04         0.00000E+00
    0.23869E+04         0.11489E+04         0.00000E+00
    0.00000E+00         0.00000E+00        -0.23208E+03
 
   -0.14892E+04         0.25042E+04         0.00000E+00
    0.25042E+04         0.10196E+04         0.00000E+00
    0.00000E+00         0.00000E+00        -0.14086E+03
 
   -0.10367E+04         0.26155E+04         0.00000E+00
    0.26155E+04         0.87045E+03         0.00000E+00
    0.00000E+00         0.00000E+00        -0.49885E+02
 
   -0.56502E+03         0.27197E+04         0.00000E+00
    0.27197E+04         0.70109E+03         0.00000E+00
    0.00000E+00         0.00000E+00         0.40821E+02
 
   -0.74004E+02         0.28155E+04         0.00000E+00
    0.28155E+04         0.51140E+03         0.00000E+00
    0.00000E+00         0.00000E+00         0.13122E+03
 
   -0.63015E+04         0.23031E+02         0.00000E+00
    0.23031E+02         0.95763E+02         0.00000E+00
    0.00000E+00         0.00000E+00        -0.18617E+04
 
   -0.62370E+04         0.81153E+02         0.00000E+00
    0.81153E+02         0.28354E+03         0.00000E+00
    0.00000E+00         0.00000E+00        -0.17860E+04
 
   -0.61576E+04         0.15364E+03         0.00000E+00
    0.15364E+03         0.46403E+03         0.00000E+00
    0.00000E+00         0.00000E+00        -0.17081E+04
 
   -0.60618E+04         0.23891E+03         0.00000E+00
    0.23891E+03         0.63523E+03         0.00000E+00
    0.00000E+00         0.00000E+00        -0.16280E+04
 
   -0.59483E+04         0.33538E+03         0.00000E+00
    0.33538E+03         0.79528E+03         0.00000E+00
    0.00000E+00         0.00000E+00        -0.15459E+04
 
   -0.58162E+04         0.44146E+03         0.00000E+00
    0.44146E+03         0.94257E+03         0.00000E+00
    0.00000E+00         0.00000E+00        -0.14621E+04
 
   -0.56646E+04         0.55561E+03         0.00000E+00
    0.55561E+03         0.10756E+04         0.00000E+00
    0.00000E+00         0.00000E+00        -0.13767E+04
 
   -0.54929E+04         0.67630E+03         0.00000E+00
    0.67630E+03         0.11933E+04         0.00000E+00
    0.00000E+00         0.00000E+00        -0.12899E+04
 
   -0.53007E+04         0.80209E+03         0.00000E+00
    0.80209E+03         0.12945E+04         0.00000E+00
    0.00000E+00         0.00000E+00        -0.12019E+04
 
   -0.50879E+04         0.93159E+03         0.00000E+00
    0.93159E+03         0.13785E+04         0.00000E+00
    0.00000E+00         0.00000E+00        -0.11128E+04
 
   -0.48544E+04         0.10635E+04         0.00000E+00
    0.10635E+04         0.14446E+04         0.00000E+00
    0.00000E+00         0.00000E+00        -0.10230E+04
 
   -0.46004E+04         0.11968E+04         0.00000E+00
    0.11968E+04         0.14923E+04         0.00000E+00
    0.00000E+00         0.00000E+00        -0.93243E+03
 
   -0.43261E+04         0.13303E+04         0.00000E+00
    0.13303E+04         0.15214E+04         0.00000E+00
    0.00000E+00         0.00000E+00        -0.84141E+03
 
   -0.40318E+04         0.14633E+04         0.00000E+00
    0.14633E+04         0.15316E+04         0.00000E+00
    0.00000E+00         0.00000E+00        -0.75005E+03
 
   -0.37178E+04         0.15949E+04         0.00000E+00
    0.15949E+04         0.15227E+04         0.00000E+00
    0.00000E+00         0.00000E+00        -0.65851E+03
 
   -0.33844E+04         0.17244E+04         0.00000E+00
    0.17244E+04         0.14947E+04         0.00000E+00
    0.00000E+00         0.00000E+00        -0.56691E+03
 
   -0.30320E+04         0.18513E+04         0.00000E+00
    0.18513E+04         0.14474E+04         0.00000E+00
    0.00000E+00         0.00000E+00        -0.47537E+03
 
   -0.26607E+04         0.19749E+04         0.00000E+00
    0.19749E+04         0.13808E+04         0.00000E+00
    0.00000E+00         0.00000E+00        -0.38399E+03
 
   -0.22708E+04         0.20948E+04         0.00000E+00
    0.20948E+04         0.12946E+04         0.00000E+00
    0.00000E+00         0.00000E+00        -0.29287E+03
 
   -0.18624E+04         0.22103E+04         0.00000E+00
    0.22103E+04         0.11888E+04         0.00000E+00
    0.00000E+00         0.00000E+00        -0.20207E+03
 
   -0.14354E+04         0.23205E+04         0.00000E+00
    0.23205E+04         0.10632E+04         0.00000E+00
    0.00000E+00         0.00000E+00        -0.11167E+03
 
   -0.99008E+03         0.24248E+04         0.00000E+00
    0.24248E+04         0.91763E+03         0.00000E+00
    0.00000E+00         0.00000E+00        -0.21737E+02
 
   -0.52644E+03         0.25221E+04         0.00000E+00
    0.25221E+04         0.75202E+03         0.00000E+00
    0.00000E+00         0.00000E+00         0.67676E+02
 
   -0.44643E+02         0.26110E+04         0.00000E+00
    0.26110E+04         0.56632E+03         0.00000E+00
    0.00000E+00         0.00000E+00         0.15650E+03
 
   -0.62564E+04         0.20212E+02         0.00000E+00
    0.20212E+02         0.93714E+02         0.00000E+00
    0.00000E+00         0.00000E+00        -0.18488E+04
 
   -0.61816E+04         0.71778E+02         0.00000E+00
    0.71778E+02         0.27790E+03         0.00000E+00
    0.00000E+00         0.00000E+00        -0.17711E+04
 
   -0.60932E+04         0.13667E+03         0.00000E+00
    0.13667E+03         0.45565E+03         0.00000E+00
    0.00000E+00         0.00000E+00        -0.16913E+04
 
   -0.59898E+04         0.21347E+03         0.00000E+00
    0.21347E+03         0.62496E+03         0.00000E+00
    0.00000E+00         0.00000E+00        -0.16094E+04
 
   -0.58701E+04         0.30077E+03         0.00000E+00
    0.30077E+03         0.78396E+03         0.00000E+00
    0.00000E+00         0.00000E+00        -0.15258E+04
 
   -0.57330E+04         0.39714E+03         0.00000E+00
    0.39714E+03         0.93102E+03         0.00000E+00
    0.00000E+00         0.00000E+00        -0.14406E+04
 
   -0.55777E+04         0.50119E+03         0.00000E+00
    0.50119E+03         0.10647E+04         0.00000E+00
    0.00000E+00         0.00000E+00        -0.13539E+04
 
   -0.54035E+04         0.61158E+03         0.00000E+00
    0.61158E+03         0.11836E+04         0.00000E+00
    0.00000E+00         0.00000E+00        -0.12660E+04
 
   -0.52101E+04         0.72698E+03         0.00000E+00
    0.72698E+03         0.12868E+04         0.00000E+00
    0.00000E+00         0.00000E+00        -0.11770E+04
 
   -0.49971E+04         0.84617E+03         0.00000E+00
    0.84617E+03         0.13733E+04         0.00000E+00
    0.00000E+00         0.00000E+00        -0.10871E+04
 
   -0.47644E+04         0.96800E+03         0.00000E+00
    0.96800E+03         0.14425E+04         0.00000E+00
    0.00000E+00         0.00000E+00        -0.99656E+03
 
   -0.45120E+04         0.10914E+04         0.00000E+00
    0.10914E+04         0.14937E+04         0.00000E+00
    0.00000E+00         0.00000E+00        -0.90548E+03
 
   -0.42400E+04         0.12154E+04         0.00000E+00
    0.12154E+04         0.15265E+04         0.00000E+00
    0.00000E+00         0.00000E+00        -0.81405E+03
 
   -0.39487E+04         0.13392E+04         0.00000E+00
    0.13392E+04         0.15406E+04         0.00000E+00
    0.00000E+00         0.00000E+00        -0.72243E+03
 
   -0.36382E+04         0.14620E+04         0.00000E+00
    0.14620E+04         0.15357E+04         0.00000E+00
    0.00000E+00         0.00000E+00        -0.63075E+03
 
   -0.33088E+04         0.15832E+04         0.00000E+00
    0.15832E+04         0.15116E+04         0.00000E+00
    0.00000E+00         0.00000E+00        -0.53916E+03
 
   -0.29607E+04         0.17020E+04         0.00000E+00
    0.17020E+04         0.14681E+04         0.00000E+00
    0.00000E+00         0.00000E+00        -0.44777E+03
 
   -0.25942E+04         0.18178E+04         0.00000E+00
    0.18178E+04         0.14052E+04         0.00000E+00
    0.00000E+00         0.00000E+00        -0.35670E+03
 
   -0.22094E+04         0.19301E+04         0.00000E+00
    0.19301E+04         0.13226E+04         0.00000E+00
    0.00000E+00         0.00000E+00        -0.26604E+03
 
   -0.18066E+04         0.20381E+04         0.00000E+00
    0.20381E+04         0.12203E+04         0.00000E+00
    0.00000E+00         0.00000E+00        -0.17589E+03
 
   -0.13860E+04         0.21412E+04         0.00000E+00
    0.21412E+04         0.10982E+04         0.00000E+00
    0.00000E+00         0.00000E+00        -0.86332E+02
 
   -0.94766E+03         0.22383E+04         0.00000E+00
    0.22383E+04         0.95616E+03         0.00000E+00
    0.00000E+00         0.00000E+00         0.25504E+01
 
   -0.49195E+03         0.23285E+04         0.00000E+00
    0.23285E+04         0.79420E+03         0.00000E+00
    0.00000E+00         0.00000E+00         0.90675E+02
 
   -0.19207E+02         0.24107E+04         0.00000E+00
    0.24107E+04         0.61239E+03         0.00000E+00
    0.00000E+00         0.00000E+00         0.17795E+03
 
   -0.62168E+04         0.17720E+02         0.00000E+00
    0.17720E+02         0.91768E+02         0.00000E+00
    0.00000E+00         0.00000E+00        -0.18375E+04
 
   -0.61325E+04         0.63389E+02         0.00000E+00
    0.63389E+02         0.27251E+03         0.00000E+00
    0.00000E+00         0.00000E+00        -0.17580E+04
 
   -0.60359E+04         0.12134E+03         0.00000E+00
    0.12134E+03         0.44758E+03         0.00000E+00
    0.00000E+00         0.00000E+00        -0.16765E+04
 
   -0.59255E+04         0.19032E+03         0.00000E+00
    0.19032E+03         0.61495E+03         0.00000E+00
    0.00000E+00         0.00000E+00        -0.15932E+04
 
   -0.57999E+04         0.26906E+03         0.00000E+00
    0.26906E+03         0.77277E+03         0.00000E+00
    0.00000E+00         0.00000E+00        -0.15081E+04
 
   -0.56581E+04         0.35631E+03         0.00000E+00
    0.35631E+03         0.91937E+03         0.00000E+00
    0.00000E+00         0.00000E+00        -0.14216E+04
 
   -0.54993E+04         0.45083E+03         0.00000E+00
    0.45083E+03         0.10533E+04         0.00000E+00
    0.00000E+00         0.00000E+00        -0.13338E+04
 
   -0.53227E+04         0.55139E+03         0.00000E+00
    0.55139E+03         0.11731E+04         0.00000E+00
    0.00000E+00         0.00000E+00        -0.12449E+04
 
   -0.51279E+04         0.65684E+03         0.00000E+00
    0.65684E+03         0.12778E+04         0.00000E+00
    0.00000E+00         0.00000E+00        -0.11550E+04
 
   -0.49144E+04         0.76606E+03         0.00000E+00
    0.76606E+03         0.13664E+04         0.00000E+00
    0.00000E+00         0.00000E+00        -0.10644E+04
 
   -0.46821E+04         0.87799E+03         0.00000E+00
    0.87799E+03         0.14380E+04         0.00000E+00
    0.00000E+00         0.00000E+00        -0.97324E+03
 
   -0.44309E+04         0.99168E+03         0.00000E+00
    0.99168E+03         0.14920E+04         0.00000E+00
    0.00000E+00         0.00000E+00        -0.88169E+03
 
   -0.41609E+04         0.11062E+04         0.00000E+00
    0.11062E+04         0.15279E+04         0.00000E+00
    0.00000E+00         0.00000E+00        -0.78991E+03
 
   -0.38721E+04         0.12208E+04         0.00000E+00
    0.12208E+04         0.15452E+04         0.00000E+00
    0.00000E+00         0.00000E+00        -0.69807E+03
 
   -0.35646E+04         0.13347E+04         0.00000E+00
    0.13347E+04         0.15436E+04         0.00000E+00
    0.00000E+00         0.00000E+00        -0.60630E+03
 
   -0.32388E+04         0.14472E+04         0.00000E+00
    0.14472E+04         0.15229E+04         0.00000E+00
    0.00000E+00         0.00000E+00        -0.51476E+03
 
   -0.28947E+04         0.15576E+04         0.00000E+00
    0.15576E+04         0.14828E+04         0.00000E+00
    0.00000E+00         0.00000E+00        -0.42356E+03
 
   -0.25326E+04         0.16654E+04         0.00000E+00
    0.16654E+04         0.14232E+04         0.00000E+00
    0.00000E+00         0.00000E+00        -0.33282E+03
 
   -0.21528E+04         0.17698E+04         0.00000E+00
    0.17698E+04         0.13439E+04         0.00000E+00
    0.00000E+00         0.00000E+00        -0.24265E+03
 
   -0.17554E+04         0.18702E+04         0.00000E+00
    0.18702E+04         0.12449E+04         0.00000E+00
    0.00000E+00         0.00000E+00        -0.15316E+03
 
   -0.13408E+04         0.19658E+04         0.00000E+00
    0.19658E+04         0.11260E+04         0.00000E+00
    0.00000E+00         0.00000E+00        -0.64452E+02
 
   -0.90931E+03         0.20557E+04         0.00000E+00
    0.20557E+04         0.98727E+03         0.00000E+00
    0.00000E+00         0.00000E+00         0.23387E+02
 
   -0.46130E+03         0.21390E+04         0.00000E+00
    0.21390E+04         0.82879E+03         0.00000E+00
    0.00000E+00         0.00000E+00         0.11025E+03
 
    0.27075E+01         0.22144E+04         0.00000E+00
    0.22144E+04         0.65072E+03         0.00000E+00
    0.00000E+00         0.00000E+00         0.19603E+03
 
   -0.61821E+04         0.15511E+02         0.00000E+00
    0.15511E+02         0.89935E+02         0.00000E+00
    0.00000E+00         0.00000E+00        -0.18276E+04
 
   -0.60893E+04         0.55853E+02         0.00000E+00
    0.55853E+02         0.26740E+03         0.00000E+00
    0.00000E+00         0.00000E+00        -0.17466E+04
 
   -0.59852E+04         0.10743E+03         0.00000E+00
    0.10743E+03         0.43986E+03         0.00000E+00
    0.00000E+00         0.00000E+00        -0.16636E+04
 
   -0.58683E+04         0.16914E+03         0.00000E+00
    0.16914E+03         0.60529E+03         0.00000E+00
    0.00000E+00         0.00000E+00        -0.15789E+04
 
   -0.57373E+04         0.23988E+03         0.00000E+00
    0.23988E+03         0.76184E+03         0.00000E+00
    0.00000E+00         0.00000E+00        -0.14926E+04
 
   -0.55911E+04         0.31853E+03         0.00000E+00
    0.31853E+03         0.90781E+03         0.00000E+00
    0.00000E+00         0.00000E+00        -0.14050E+04
 
   -0.54289E+04         0.40399E+03         0.00000E+00
    0.40399E+03         0.10417E+04         0.00000E+00
    0.00000E+00         0.00000E+00        -0.13162E+04
 
   -0.52499E+04         0.49517E+03         0.00000E+00
    0.49517E+03         0.11621E+04         0.00000E+00
    0.00000E+00         0.00000E+00        -0.12263E+04
 
   -0.50536E+04         0.59102E+03         0.00000E+00
    0.59102E+03         0.12679E+04         0.00000E+00
    0.00000E+00         0.00000E+00        -0.11357E+04
 
   -0.48395E+04         0.69055E+03         0.00000E+00
    0.69055E+03         0.13580E+04         0.00000E+00
    0.00000E+00         0.00000E+00        -0.10444E+04
 
   -0.46074E+04         0.79280E+03         0.00000E+00
    0.79280E+03         0.14316E+04         0.00000E+00
    0.00000E+00         0.00000E+00        -0.95275E+03
 
   -0.43571E+04         0.89689E+03         0.00000E+00
    0.89689E+03         0.14879E+04         0.00000E+00
    0.00000E+00         0.00000E+00        -0.86078E+03
 
   -0.40886E+04         0.10020E+04         0.00000E+00
    0.10020E+04         0.15263E+04         0.00000E+00
    0.00000E+00         0.00000E+00        -0.76871E+03
 
   -0.38020E+04         0.11073E+04         0.00000E+00
    0.11073E+04         0.15463E+04         0.00000E+00
    0.00000E+00         0.00000E+00        -0.67669E+03
 
   -0.34972E+04         0.12122E+04         0.00000E+00
    0.12122E+04         0.15476E+04         0.00000E+00
    0.00000E+00         0.00000E+00        -0.58488E+03
 
   -0.31745E+04         0.13159E+04         0.00000E+00
    0.13159E+04         0.15298E+04         0.00000E+00
    0.00000E+00         0.00000E+00        -0.49342E+03
 
   -0.28341E+04         0.14178E+04         0.00000E+00
    0.14178E+04         0.14926E+04         0.00000E+00
    0.00000E+00         0.00000E+00        -0.40243E+03
 
   -0.24761E+04         0.15173E+04         0.00000E+00
    0.15173E+04         0.14359E+04         0.00000E+00
    0.00000E+00         0.00000E+00        -0.31205E+03
 
   -0.21009E+04         0.16137E+04         0.00000E+00
    0.16137E+04         0.13596E+04         0.00000E+00
    0.00000E+00         0.00000E+00        -0.22238E+03
 
   -0.17087E+04         0.17062E+04         0.00000E+00
    0.17062E+04         0.12635E+04         0.00000E+00
    0.00000E+00         0.00000E+00        -0.13355E+03
 
   -0.12999E+04         0.17942E+04         0.00000E+00
    0.17942E+04         0.11476E+04         0.00000E+00
    0.00000E+00         0.00000E+00        -0.45669E+02
 
   -0.87486E+03         0.18768E+04         0.00000E+00
    0.18768E+04         0.10120E+04         0.00000E+00
    0.00000E+00         0.00000E+00         0.41153E+02
 
   -0.43420E+03         0.19531E+04         0.00000E+00
    0.19531E+04         0.85686E+03         0.00000E+00
    0.00000E+00         0.00000E+00         0.12680E+03
 
    0.21475E+02         0.20221E+04         0.00000E+00
    0.20221E+04         0.68234E+03         0.00000E+00
    0.00000E+00         0.00000E+00         0.21115E+03
 
   -0.61517E+04         0.13542E+02         0.00000E+00
    0.13542E+02         0.88223E+02         0.00000E+00
    0.00000E+00         0.00000E+00        -0.18191E+04
 
   -0.60512E+04         0.49048E+02         0.00000E+00
    0.49048E+02         0.26260E+03         0.00000E+00
    0.00000E+00         0.00000E+00        -0.17366E+04
 
   -0.59403E+04         0.94748E+02         0.00000E+00
    0.94748E+02         0.43256E+03         0.00000E+00
    0.00000E+00         0.00000E+00        -0.16523E+04
 
   -0.58175E+04         0.14969E+03         0.00000E+00
    0.14969E+03         0.59608E+03         0.00000E+00
    0.00000E+00         0.00000E+00        -0.15664E+04
 
   -0.56815E+04         0.21290E+03         0.00000E+00
    0.21290E+03         0.75130E+03         0.00000E+00
    0.00000E+00         0.00000E+00        -0.14791E+04
 
   -0.55313E+04         0.28340E+03         0.00000E+00
    0.28340E+03         0.89650E+03         0.00000E+00
    0.00000E+00         0.00000E+00        -0.13904E+04
 
   -0.53659E+04         0.36021E+03         0.00000E+00
    0.36021E+03         0.10302E+04         0.00000E+00
    0.00000E+00         0.00000E+00        -0.13007E+04
 
   -0.51846E+04         0.44237E+03         0.00000E+00
    0.44237E+03         0.11509E+04         0.00000E+00
    0.00000E+00         0.00000E+00        -0.12101E+04
 
   -0.49868E+04         0.52894E+03         0.00000E+00
    0.52894E+03         0.12574E+04         0.00000E+00
    0.00000E+00         0.00000E+00        -0.11188E+04
 
   -0.47720E+04         0.61903E+03         0.00000E+00
    0.61903E+03         0.13487E+04         0.00000E+00
    0.00000E+00         0.00000E+00        -0.10270E+04
 
   -0.45399E+04         0.71179E+03         0.00000E+00
    0.71179E+03         0.14238E+04         0.00000E+00
    0.00000E+00         0.00000E+00        -0.93482E+03
 
   -0.42903E+04         0.80639E+03         0.00000E+00
    0.80639E+03         0.14820E+04         0.00000E+00
    0.00000E+00         0.00000E+00        -0.84250E+03
 
   -0.40231E+04         0.90209E+03         0.00000E+00
    0.90209E+03         0.15225E+04         0.00000E+00
    0.00000E+00         0.00000E+00        -0.75019E+03
 
   -0.37382E+04         0.99816E+03         0.00000E+00
    0.99816E+03         0.15448E+04         0.00000E+00
    0.00000E+00         0.00000E+00        -0.65804E+03
 
   -0.34358E+04         0.10939E+04         0.00000E+00
    0.10939E+04         0.15484E+04         0.00000E+00
    0.00000E+00         0.00000E+00        -0.56622E+03
 
   -0.31160E+04         0.11887E+04         0.00000E+00
    0.11887E+04         0.15331E+04         0.00000E+00
    0.00000E+00         0.00000E+00        -0.47486E+03
 
   -0.27788E+04         0.12820E+04         0.00000E+00
    0.12820E+04         0.14985E+04         0.00000E+00
    0.00000E+00         0.00000E+00        -0.38410E+03
 
   -0.24246E+04         0.13730E+04         0.00000E+00
    0.13730E+04         0.14444E+04         0.00000E+00
    0.00000E+00         0.00000E+00        -0.29408E+03
 
   -0.20537E+04         0.14612E+04         0.00000E+00
    0.14612E+04         0.13707E+04         0.00000E+00
    0.00000E+00         0.00000E+00        -0.20491E+03
 
   -0.16663E+04         0.15458E+04         0.00000E+00
    0.15458E+04         0.12773E+04         0.00000E+00
    0.00000E+00         0.00000E+00        -0.11673E+03
 
   -0.12630E+04         0.16262E+04         0.00000E+00
    0.16262E+04         0.11642E+04         0.00000E+00
    0.00000E+00         0.00000E+00        -0.29646E+02
 
   -0.84413E+03         0.17015E+04         0.00000E+00
    0.17015E+04         0.10315E+04         0.00000E+00
    0.00000E+00         0.00000E+00         0.56204E+02
 
   -0.41040E+03         0.17709E+04         0.00000E+00
    0.17709E+04         0.87938E+03         0.00000E+00
    0.00000E+00         0.00000E+00         0.14069E+03
 
    0.37446E+02         0.18334E+04         0.00000E+00
    0.18334E+04         0.70819E+03         0.00000E+00
    0.00000E+00         0.00000E+00         0.22369E+03
 
   -0.61253E+04         0.11773E+02         0.00000E+00
    0.11773E+02         0.86640E+02         0.00000E+00
    0.00000E+00         0.00000E+00        -0.18116E+04
 
   -0.60179E+04         0.42862E+02         0.00000E+00
    0.42862E+02         0.25814E+03         0.00000E+00
    0.00000E+00         0.00000E+00        -0.17279E+04
 
   -0.59009E+04         0.83113E+02         0.00000E+00
    0.83113E+02         0.42573E+03         0.00000E+00
    0.00000E+00         0.00000E+00        -0.16426E+04
 
   -0.57728E+04         0.13171E+03         0.00000E+00
    0.13171E+03         0.58739E+03         0.00000E+00
    0.00000E+00         0.00000E+00        -0.15556E+04
 
   -0.56323E+04         0.18780E+03         0.00000E+00
    0.18780E+03         0.74126E+03         0.00000E+00
    0.00000E+00         0.00000E+00        -0.14673E+04
 
   -0.54783E+04         0.25054E+03         0.00000E+00
    0.25054E+03         0.88563E+03         0.00000E+00
    0.00000E+00         0.00000E+00        -0.13778E+04
 
   -0.53100E+04         0.31906E+03         0.00000E+00
    0.31906E+03         0.10189E+04         0.00000E+00
    0.00000E+00         0.00000E+00        -0.12873E+04
 
   -0.51264E+04         0.39252E+03         0.00000E+00
    0.39252E+03         0.11397E+04         0.00000E+00
    0.00000E+00         0.00000E+00        -0.11960E+04
 
   -0.49271E+04         0.47009E+03         0.00000E+00
    0.47009E+03         0.12467E+04         0.00000E+00
    0.00000E+00         0.00000E+00        -0.11041E+04
 
   -0.47116E+04         0.55097E+03         0.00000E+00
    0.55097E+03         0.13389E+04         0.00000E+00
    0.00000E+00         0.00000E+00        -0.10118E+04
 
   -0.44794E+04         0.63440E+03         0.00000E+00
    0.63440E+03         0.14152E+04         0.00000E+00
    0.00000E+00         0.00000E+00        -0.91924E+03
 
   -0.42302E+04         0.71963E+03         0.00000E+00
    0.71963E+03         0.14748E+04         0.00000E+00
    0.00000E+00         0.00000E+00        -0.82663E+03
 
   -0.39641E+04         0.80598E+03         0.00000E+00
    0.80598E+03         0.15170E+04         0.00000E+00
    0.00000E+00         0.00000E+00        -0.73412E+03
 
   -0.36808E+04         0.89279E+03         0.00000E+00
    0.89279E+03         0.15412E+04         0.00000E+00
    0.00000E+00         0.00000E+00        -0.64188E+03
 
   -0.33804E+04         0.97942E+03         0.00000E+00
    0.97942E+03         0.15469E+04         0.00000E+00
    0.00000E+00         0.00000E+00        -0.55007E+03
 
   -0.30631E+04         0.10653E+04         0.00000E+00
    0.10653E+04         0.15337E+04         0.00000E+00
    0.00000E+00         0.00000E+00        -0.45883E+03
 
   -0.27290E+04         0.11497E+04         0.00000E+00
    0.11497E+04         0.15013E+04         0.00000E+00
    0.00000E+00         0.00000E+00        -0.36831E+03
 
   -0.23782E+04         0.12322E+04         0.00000E+00
    0.12322E+04         0.14494E+04         0.00000E+00
    0.00000E+00         0.00000E+00        -0.27864E+03
 
   -0.20112E+04         0.13121E+04         0.00000E+00
    0.13121E+04         0.13780E+04         0.00000E+00
    0.00000E+00         0.00000E+00        -0.18995E+03
 
   -0.16283E+04         0.13887E+04         0.00000E+00
    0.13887E+04         0.12870E+04         0.00000E+00
    0.00000E+00         0.00000E+00        -0.10239E+03
 
   -0.12300E+04         0.14614E+04         0.00000E+00
    0.14614E+04         0.11765E+04         0.00000E+00
    0.00000E+00         0.00000E+00        -0.16071E+02
 
   -0.81692E+03         0.15294E+04         0.00000E+00
    0.15294E+04         0.10465E+04         0.00000E+00
    0.00000E+00         0.00000E+00         0.68862E+02
 
   -0.38964E+03         0.15919E+04         0.00000E+00
    0.15919E+04         0.89722E+03         0.00000E+00
    0.00000E+00         0.00000E+00         0.15227E+03
 
    0.50942E+02         0.16481E+04         0.00000E+00
    0.16481E+04         0.72910E+03         0.00000E+00
    0.00000E+00         0.00000E+00         0.23401E+03
 
   -0.61023E+04         0.10171E+02         0.00000E+00
    0.10171E+02         0.85194E+02         0.00000E+00
    0.00000E+00         0.00000E+00        -0.18051E+04
 
   -0.59889E+04         0.37195E+02         0.00000E+00
    0.37195E+02         0.25405E+03         0.00000E+00
    0.00000E+00         0.00000E+00        -0.17205E+04
 
   -0.58665E+04         0.72361E+02         0.00000E+00
    0.72361E+02         0.41942E+03         0.00000E+00
    0.00000E+00         0.00000E+00        -0.16341E+04
 
   -0.57336E+04         0.11497E+03         0.00000E+00
    0.11497E+03         0.57932E+03         0.00000E+00
    0.00000E+00         0.00000E+00        -0.15463E+04
 
   -0.55890E+04         0.16431E+03         0.00000E+00
    0.16431E+03         0.73187E+03         0.00000E+00
    0.00000E+00         0.00000E+00        -0.14571E+04
 
   -0.54317E+04         0.21962E+03         0.00000E+00
    0.21962E+03         0.87534E+03         0.00000E+00
    0.00000E+00         0.00000E+00        -0.13669E+04
 
   -0.52606E+04         0.28017E+03         0.00000E+00
    0.28017E+03         0.10082E+04         0.00000E+00
    0.00000E+00         0.00000E+00        -0.12757E+04
 
   -0.50750E+04         0.34521E+03         0.00000E+00
    0.34521E+03         0.11289E+04         0.00000E+00
    0.00000E+00         0.00000E+00        -0.11838E+04
 
   -0.48743E+04         0.41401E+03         0.00000E+00
    0.41401E+03         0.12362E+04         0.00000E+00
    0.00000E+00         0.00000E+00        -0.10914E+04
 
   -0.46580E+04         0.48587E+03         0.00000E+00
    0.48587E+03         0.13290E+04         0.00000E+00
    0.00000E+00         0.00000E+00        -0.99870E+03
 
   -0.44256E+04         0.56011E+03         0.00000E+00
    0.56011E+03         0.14062E+04         0.00000E+00
    0.00000E+00         0.00000E+00        -0.90581E+03
 
   -0.41768E+04         0.63608E+03         0.00000E+00
    0.63608E+03         0.14670E+04         0.00000E+00
    0.00000E+00         0.00000E+00        -0.81294E+03
 
   -0.39115E+04         0.71314E+03         0.00000E+00
    0.71314E+03         0.15105E+04         0.00000E+00
    0.00000E+00         0.00000E+00        -0.72027E+03
 
   -0.36295E+04         0.79070E+03         0.00000E+00
    0.79070E+03         0.15363E+04         0.00000E+00
    0.00000E+00         0.00000E+00        -0.62797E+03
 
   -0.33310E+04         0.86817E+03         0.00000E+00
    0.86817E+03         0.15436E+04         0.00000E+00
    0.00000E+00         0.00000E+00        -0.53619E+03
 
   -0.30159E+04         0.94499E+03         0.00000E+00
    0.94499E+03         0.15322E+04         0.00000E+00
    0.00000E+00         0.00000E+00        -0.44509E+03
 
   -0.26844E+04         0.10206E+04         0.00000E+00
    0.10206E+04         0.15017E+04         0.00000E+00
    0.00000E+00         0.00000E+00        -0.35480E+03
 
   -0.23368E+04         0.10945E+04         0.00000E+00
    0.10945E+04         0.14518E+04         0.00000E+00
    0.00000E+00         0.00000E+00        -0.26548E+03
 
   -0.19734E+04         0.11660E+04         0.00000E+00
    0.11660E+04         0.13825E+04         0.00000E+00
    0.00000E+00         0.00000E+00        -0.17725E+03
 
   -0.15946E+04         0.12345E+04         0.00000E+00
    0.12345E+04         0.12937E+04         0.00000E+00
    0.00000E+00         0.00000E+00        -0.90268E+02
 
   -0.12009E+04         0.12995E+04         0.00000E+00
    0.12995E+04         0.11854E+04         0.00000E+00
    0.00000E+00         0.00000E+00        -0.46619E+01
 
   -0.79304E+03         0.13603E+04         0.00000E+00
    0.13603E+04         0.10578E+04         0.00000E+00
    0.00000E+00         0.00000E+00         0.79422E+02
 
   -0.37168E+03         0.14160E+04         0.00000E+00
    0.14160E+04         0.91114E+03         0.00000E+00
    0.00000E+00         0.00000E+00         0.16184E+03
 
    0.62255E+02         0.14660E+04         0.00000E+00
    0.14660E+04         0.74583E+03         0.00000E+00
    0.00000E+00         0.00000E+00         0.24243E+03
 
   -0.60826E+04         0.87072E+01         0.00000E+00
    0.87072E+01         0.83891E+02         0.00000E+00
    0.00000E+00         0.00000E+00        -0.17996E+04
 
   -0.59639E+04         0.31959E+02         0.00000E+00
    0.31959E+02         0.25035E+03         0.00000E+00
    0.00000E+00         0.00000E+00        -0.17141E+04
 
   -0.58367E+04         0.62348E+02         0.00000E+00
    0.62348E+02         0.41369E+03         0.00000E+00
    0.00000E+00         0.00000E+00        -0.16269E+04
 
   -0.56996E+04         0.99289E+02         0.00000E+00
    0.99289E+02         0.57194E+03         0.00000E+00
    0.00000E+00         0.00000E+00        -0.15383E+04
 
   -0.55514E+04         0.14217E+03         0.00000E+00
    0.14217E+03         0.72322E+03         0.00000E+00
    0.00000E+00         0.00000E+00        -0.14485E+04
 
   -0.53910E+04         0.19034E+03         0.00000E+00
    0.19034E+03         0.86581E+03         0.00000E+00
    0.00000E+00         0.00000E+00        -0.13576E+04
 
   -0.52175E+04         0.24318E+03         0.00000E+00
    0.24318E+03         0.99810E+03         0.00000E+00
    0.00000E+00         0.00000E+00        -0.12658E+04
 
   -0.50301E+04         0.30004E+03         0.00000E+00
    0.30004E+03         0.11186E+04         0.00000E+00
    0.00000E+00         0.00000E+00        -0.11734E+04
 
   -0.48281E+04         0.36028E+03         0.00000E+00
    0.36028E+03         0.12261E+04         0.00000E+00
    0.00000E+00         0.00000E+00        -0.10806E+04
 
   -0.46110E+04         0.42330E+03         0.00000E+00
    0.42330E+03         0.13193E+04         0.00000E+00
    0.00000E+00         0.00000E+00        -0.98750E+03
 
   -0.43783E+04         0.48849E+03         0.00000E+00
    0.48849E+03         0.13972E+04         0.00000E+00
    0.00000E+00         0.00000E+00        -0.89433E+03
 
   -0.41297E+04         0.55528E+03         0.00000E+00
    0.55528E+03         0.14589E+04         0.00000E+00
    0.00000E+00         0.00000E+00        -0.80126E+03
 
   -0.38651E+04         0.62311E+03         0.00000E+00
    0.62311E+03         0.15035E+04         0.00000E+00
    0.00000E+00         0.00000E+00        -0.70847E+03
 
   -0.35843E+04         0.69144E+03         0.00000E+00
    0.69144E+03         0.15305E+04         0.00000E+00
    0.00000E+00         0.00000E+00        -0.61613E+03
 
   -0.32873E+04         0.75975E+03         0.00000E+00
    0.75975E+03         0.15393E+04         0.00000E+00
    0.00000E+00         0.00000E+00        -0.52439E+03
 
   -0.29741E+04         0.82753E+03         0.00000E+00
    0.82753E+03         0.15294E+04         0.00000E+00
    0.00000E+00         0.00000E+00        -0.43342E+03
 
   -0.26450E+04         0.89427E+03         0.00000E+00
    0.89427E+03         0.15005E+04         0.00000E+00
    0.00000E+00         0.00000E+00        -0.34336E+03
 
   -0.23002E+04         0.95946E+03         0.00000E+00
    0.95946E+03         0.14523E+04         0.00000E+00
    0.00000E+00         0.00000E+00        -0.25436E+03
 
   -0.19400E+04         0.10226E+04         0.00000E+00
    0.10226E+04         0.13848E+04         0.00000E+00
    0.00000E+00         0.00000E+00        -0.16656E+03
 
   -0.15649E+04         0.10831E+04         0.00000E+00
    0.10831E+04         0.12979E+04         0.00000E+00
    0.00000E+00         0.00000E+00        -0.80116E+02
 
   -0.11755E+04         0.11403E+04         0.00000E+00
    0.11403E+04         0.11916E+04         0.00000E+00
    0.00000E+00         0.00000E+00         0.48379E+01
 
   -0.77233E+03         0.11938E+04         0.00000E+00
    0.11938E+04         0.10662E+04         0.00000E+00
    0.00000E+00         0.00000E+00         0.88149E+02
 
   -0.35630E+03         0.12428E+04         0.00000E+00
    0.12428E+04         0.92184E+03         0.00000E+00
    0.00000E+00         0.00000E+00         0.16966E+03
 
    0.71649E+02         0.12867E+04         0.00000E+00
    0.12867E+04         0.75906E+03         0.00000E+00
    0.00000E+00         0.00000E+00         0.24921E+03
 
   -0.60658E+04         0.73544E+01         0.00000E+00
    0.73544E+01         0.82738E+02         0.00000E+00
    0.00000E+00         0.00000E+00        -0.17949E+04
 
   -0.59426E+04         0.27077E+02         0.00000E+00
    0.27077E+02         0.24706E+03         0.00000E+00
    0.00000E+00         0.00000E+00        -0.17087E+04
 
   -0.58113E+04         0.52946E+02         0.00000E+00
    0.52946E+02         0.40858E+03         0.00000E+00
    0.00000E+00         0.00000E+00        -0.16208E+04
 
   -0.56705E+04         0.84476E+02         0.00000E+00
    0.84476E+02         0.56532E+03         0.00000E+00
    0.00000E+00         0.00000E+00        -0.15316E+04
 
   -0.55192E+04         0.12115E+03         0.00000E+00
    0.12115E+03         0.71543E+03         0.00000E+00
    0.00000E+00         0.00000E+00        -0.14411E+04
 
   -0.53561E+04         0.16244E+03         0.00000E+00
    0.16244E+03         0.85715E+03         0.00000E+00
    0.00000E+00         0.00000E+00        -0.13497E+04
 
   -0.51804E+04         0.20780E+03         0.00000E+00
    0.20780E+03         0.98890E+03         0.00000E+00
    0.00000E+00         0.00000E+00        -0.12575E+04
 
   -0.49914E+04         0.25668E+03         0.00000E+00
    0.25668E+03         0.11092E+04         0.00000E+00
    0.00000E+00         0.00000E+00        -0.11647E+04
 
   -0.47882E+04         0.30854E+03         0.00000E+00
    0.30854E+03         0.12167E+04         0.00000E+00
    0.00000E+00         0.00000E+00        -0.10714E+04
 
   -0.45703E+04         0.36286E+03         0.00000E+00
    0.36286E+03         0.13101E+04         0.00000E+00
    0.00000E+00         0.00000E+00        -0.97805E+03
 
   -0.43373E+04         0.41912E+03         0.00000E+00
    0.41912E+03         0.13885E+04         0.00000E+00
    0.00000E+00         0.00000E+00        -0.88464E+03
 
   -0.40889E+04         0.47682E+03         0.00000E+00
    0.47682E+03         0.14509E+04         0.00000E+00
    0.00000E+00         0.00000E+00        -0.79140E+03
 
   -0.38249E+04         0.53548E+03         0.00000E+00
    0.53548E+03         0.14965E+04         0.00000E+00
    0.00000E+00         0.00000E+00        -0.69852E+03
 
   -0.35450E+04         0.59461E+03         0.00000E+00
    0.59461E+03         0.15245E+04         0.00000E+00
    0.00000E+00         0.00000E+00        -0.60616E+03
 
   -0.32493E+04         0.65376E+03         0.00000E+00
    0.65376E+03         0.15344E+04         0.00000E+00
    0.00000E+00         0.00000E+00        -0.51447E+03
 
   -0.29379E+04         0.71249E+03         0.00000E+00
    0.71249E+03         0.15257E+04         0.00000E+00
    0.00000E+00         0.00000E+00        -0.42363E+03
 
   -0.26108E+04         0.77033E+03         0.00000E+00
    0.77033E+03         0.14982E+04         0.00000E+00
    0.00000E+00         0.00000E+00        -0.33379E+03
 
   -0.22685E+04         0.82682E+03         0.00000E+00
    0.82682E+03         0.14515E+04         0.00000E+00
    0.00000E+00         0.00000E+00        -0.24509E+03
 
   -0.19111E+04         0.88152E+03         0.00000E+00
    0.88152E+03         0.13855E+04         0.00000E+00
    0.00000E+00         0.00000E+00        -0.15768E+03
 
   -0.15393E+04         0.93391E+03         0.00000E+00
    0.93391E+03         0.13002E+04         0.00000E+00
    0.00000E+00         0.00000E+00        -0.71715E+02
 
   -0.11535E+04         0.98351E+03         0.00000E+00
    0.98351E+03         0.11957E+04         0.00000E+00
    0.00000E+00         0.00000E+00         0.12655E+02
 
   -0.75460E+03         0.10298E+04         0.00000E+00
    0.10298E+04         0.10722E+04         0.00000E+00
    0.00000E+00         0.00000E+00         0.95276E+02
 
   -0.34330E+03         0.10721E+04         0.00000E+00
    0.10721E+04         0.92992E+03         0.00000E+00
    0.00000E+00         0.00000E+00         0.17599E+03
 
    0.79358E+02         0.11099E+04         0.00000E+00
    0.11099E+04         0.76937E+03         0.00000E+00
    0.00000E+00         0.00000E+00         0.25462E+03
 
   -0.60518E+04         0.60908E+01         0.00000E+00
    0.60908E+01         0.81740E+02         0.00000E+00
    0.00000E+00         0.00000E+00        -0.17910E+04
 
   -0.59247E+04         0.22480E+02         0.00000E+00
    0.22480E+02         0.24420E+03         0.00000E+00
    0.00000E+00         0.00000E+00        -0.17042E+04
 
   -0.57899E+04         0.44040E+02         0.00000E+00
    0.44040E+02         0.40412E+03         0.00000E+00
    0.00000E+00         0.00000E+00        -0.16157E+04
 
   -0.56461E+04         0.70377E+02         0.00000E+00
    0.70377E+02         0.55953E+03         0.00000E+00
    0.00000E+00         0.00000E+00        -0.15260E+04
 
   -0.54920E+04         0.10107E+03         0.00000E+00
    0.10107E+03         0.70857E+03         0.00000E+00
    0.00000E+00         0.00000E+00        -0.14350E+04
 
   -0.53267E+04         0.13567E+03         0.00000E+00
    0.13567E+03         0.84951E+03         0.00000E+00
    0.00000E+00         0.00000E+00        -0.13431E+04
 
   -0.51491E+04         0.17374E+03         0.00000E+00
    0.17374E+03         0.98072E+03         0.00000E+00
    0.00000E+00         0.00000E+00        -0.12505E+04
 
   -0.49586E+04         0.21482E+03         0.00000E+00
    0.21482E+03         0.11007E+04         0.00000E+00
    0.00000E+00         0.00000E+00        -0.11573E+04
 
   -0.47543E+04         0.25845E+03         0.00000E+00
    0.25845E+03         0.12082E+04         0.00000E+00
    0.00000E+00         0.00000E+00        -0.10638E+04
 
   -0.45358E+04         0.30421E+03         0.00000E+00
    0.30421E+03         0.13018E+04         0.00000E+00
    0.00000E+00         0.00000E+00        -0.97020E+03
 
   -0.43025E+04         0.35164E+03         0.00000E+00
    0.35164E+03         0.13805E+04         0.00000E+00
    0.00000E+00         0.00000E+00        -0.87660E+03
 
   -0.40542E+04         0.40032E+03         0.00000E+00
    0.40032E+03         0.14435E+04         0.00000E+00
    0.00000E+00         0.00000E+00        -0.78323E+03
 
   -0.37906E+04         0.44985E+03         0.00000E+00
    0.44985E+03         0.14897E+04         0.00000E+00
    0.00000E+00         0.00000E+00        -0.69028E+03
 
   -0.35115E+04         0.49982E+03         0.00000E+00
    0.49982E+03         0.15185E+04         0.00000E+00
    0.00000E+00         0.00000E+00        -0.59791E+03
 
   -0.32170E+04         0.54983E+03         0.00000E+00
    0.54983E+03         0.15294E+04         0.00000E+00
    0.00000E+00         0.00000E+00        -0.50628E+03
 
   -0.29070E+04         0.59950E+03         0.00000E+00
    0.59950E+03         0.15217E+04         0.00000E+00
    0.00000E+00         0.00000E+00        -0.41556E+03
 
   -0.25817E+04         0.64843E+03         0.00000E+00
    0.64843E+03         0.14953E+04         0.00000E+00
    0.00000E+00         0.00000E+00        -0.32591E+03
 
   -0.22414E+04         0.69623E+03         0.00000E+00
    0.69623E+03         0.14499E+04         0.00000E+00
    0.00000E+00         0.00000E+00        -0.23747E+03
 
   -0.18866E+04         0.74249E+03         0.00000E+00
    0.74249E+03         0.13852E+04         0.00000E+00
    0.00000E+00         0.00000E+00        -0.15041E+03
 
   -0.15175E+04         0.78680E+03         0.00000E+00
    0.78680E+03         0.13013E+04         0.00000E+00
    0.00000E+00         0.00000E+00        -0.64871E+02
 
   -0.11350E+04         0.82872E+03         0.00000E+00
    0.82872E+03         0.11983E+04         0.00000E+00
    0.00000E+00         0.00000E+00         0.18988E+02
 
   -0.73971E+03         0.86778E+03         0.00000E+00
    0.86778E+03         0.10764E+04         0.00000E+00
    0.00000E+00         0.00000E+00         0.10101E+03
 
   -0.33250E+03         0.90350E+03         0.00000E+00
    0.90350E+03         0.93590E+03         0.00000E+00
    0.00000E+00         0.00000E+00         0.18102E+03
 
    0.85588E+02         0.93537E+03         0.00000E+00
    0.93537E+03         0.77728E+03         0.00000E+00
    0.00000E+00         0.00000E+00         0.25886E+03
 
   -0.60403E+04         0.48973E+01         0.00000E+00
    0.48973E+01         0.80902E+02         0.00000E+00
    0.00000E+00         0.00000E+00        -0.17878E+04
 
   -0.59101E+04         0.18110E+02         0.00000E+00
    0.18110E+02         0.24180E+03         0.00000E+00
    0.00000E+00         0.00000E+00        -0.17005E+04
 
   -0.57724E+04         0.35532E+02         0.00000E+00
    0.35532E+02         0.40036E+03         0.00000E+00
    0.00000E+00         0.00000E+00        -0.16116E+04
 
   -0.56260E+04         0.56852E+02         0.00000E+00
    0.56852E+02         0.55462E+03         0.00000E+00
    0.00000E+00         0.00000E+00        -0.15214E+04
 
   -0.54697E+04         0.81734E+02         0.00000E+00
    0.81734E+02         0.70274E+03         0.00000E+00
    0.00000E+00         0.00000E+00        -0.14301E+04
 
   -0.53024E+04         0.10982E+03         0.00000E+00
    0.10982E+03         0.84297E+03         0.00000E+00
    0.00000E+00         0.00000E+00        -0.13378E+04
 
   -0.51233E+04         0.14076E+03         0.00000E+00
    0.14076E+03         0.97370E+03         0.00000E+00
    0.00000E+00         0.00000E+00        -0.12449E+04
 
   -0.49315E+04         0.17418E+03         0.00000E+00
    0.17418E+03         0.10934E+04         0.00000E+00
    0.00000E+00         0.00000E+00        -0.11514E+04
 
   -0.47264E+04         0.20971E+03         0.00000E+00
    0.20971E+03         0.12008E+04         0.00000E+00
    0.00000E+00         0.00000E+00        -0.10577E+04
 
   -0.45073E+04         0.24700E+03         0.00000E+00
    0.24700E+03         0.12945E+04         0.00000E+00
    0.00000E+00         0.00000E+00        -0.96384E+03
 
   -0.42738E+04         0.28569E+03         0.00000E+00
    0.28569E+03         0.13735E+04         0.00000E+00
    0.00000E+00         0.00000E+00        -0.87009E+03
 
   -0.40255E+04         0.32543E+03         0.00000E+00
    0.32543E+03         0.14368E+04         0.00000E+00
    0.00000E+00         0.00000E+00        -0.77662E+03
 
   -0.37622E+04         0.36588E+03         0.00000E+00
    0.36588E+03         0.14835E+04         0.00000E+00
    0.00000E+00         0.00000E+00        -0.68361E+03
 
   -0.34838E+04         0.40671E+03         0.00000E+00
    0.40671E+03         0.15130E+04         0.00000E+00
    0.00000E+00         0.00000E+00        -0.59124E+03
 
   -0.31901E+04         0.44760E+03         0.00000E+00
    0.44760E+03         0.15246E+04         0.00000E+00
    0.00000E+00         0.00000E+00        -0.49967E+03
 
   -0.28813E+04         0.48822E+03         0.00000E+00
    0.48822E+03         0.15178E+04         0.00000E+00
    0.00000E+00         0.00000E+00        -0.40906E+03
 
   -0.25576E+04         0.52824E+03         0.00000E+00
    0.52824E+03         0.14923E+04         0.00000E+00
    0.00000E+00         0.00000E+00        -0.31957E+03
 
   -0.22191E+04         0.56734E+03         0.00000E+00
    0.56734E+03         0.14478E+04         0.00000E+00
    0.00000E+00         0.00000E+00        -0.23137E+03
 
   -0.18662E+04         0.60518E+03         0.00000E+00
    0.60518E+03         0.13842E+04         0.00000E+00
    0.00000E+00         0.00000E+00        -0.14460E+03
 
   -0.14996E+04         0.64141E+03         0.00000E+00
    0.64141E+03         0.13015E+04         0.00000E+00
    0.00000E+00         0.00000E+00        -0.59419E+02
 
   -0.11198E+04         0.67567E+03         0.00000E+00
    0.67567E+03         0.11998E+04         0.00000E+00
    0.00000E+00         0.00000E+00         0.24007E+02
 
   -0.72752E+03         0.70758E+03         0.00000E+00
    0.70758E+03         0.10792E+04         0.00000E+00
    0.00000E+00         0.00000E+00         0.10552E+03
 
   -0.32374E+03         0.73673E+03         0.00000E+00
    0.73673E+03         0.94023E+03         0.00000E+00
    0.00000E+00         0.00000E+00         0.18495E+03
 
    0.90513E+02         0.76271E+03         0.00000E+00
    0.76271E+03         0.78321E+03         0.00000E+00
    0.00000E+00         0.00000E+00         0.26212E+03
 
   -0.60313E+04         0.37575E+01         0.00000E+00
    0.37575E+01         0.80227E+02         0.00000E+00
    0.00000E+00         0.00000E+00        -0.17853E+04
 
   -0.58986E+04         0.13915E+02         0.00000E+00
    0.13915E+02         0.23986E+03         0.00000E+00
    0.00000E+00         0.00000E+00        -0.16976E+04
 
   -0.57586E+04         0.27333E+02         0.00000E+00
    0.27333E+02         0.39731E+03         0.00000E+00
    0.00000E+00         0.00000E+00        -0.16084E+04
 
   -0.56101E+04         0.43776E+02         0.00000E+00
    0.43776E+02         0.55064E+03         0.00000E+00
    0.00000E+00         0.00000E+00        -0.15178E+04
 
   -0.54520E+04         0.62988E+02         0.00000E+00
    0.62988E+02         0.69800E+03         0.00000E+00
    0.00000E+00         0.00000E+00        -0.14262E+04
 
   -0.52832E+04         0.84700E+02         0.00000E+00
    0.84700E+02         0.83764E+03         0.00000E+00
    0.00000E+00         0.00000E+00        -0.13337E+04
 
   -0.51028E+04         0.10863E+03         0.00000E+00
    0.10863E+03         0.96795E+03         0.00000E+00
    0.00000E+00         0.00000E+00        -0.12405E+04
 
   -0.49101E+04         0.13451E+03         0.00000E+00
    0.13451E+03         0.10874E+04         0.00000E+00
    0.00000E+00         0.00000E+00        -0.11468E+04
 
   -0.47042E+04         0.16204E+03         0.00000E+00
    0.16204E+03         0.11946E+04         0.00000E+00
    0.00000E+00         0.00000E+00        -0.10529E+04
 
   -0.44846E+04         0.19095E+03         0.00000E+00
    0.19095E+03         0.12884E+04         0.00000E+00
    0.00000E+00         0.00000E+00        -0.95887E+03
 
   -0.42509E+04         0.22097E+03         0.00000E+00
    0.22097E+03         0.13676E+04         0.00000E+00
    0.00000E+00         0.00000E+00        -0.86500E+03
 
   -0.40027E+04         0.25182E+03         0.00000E+00
    0.25182E+03         0.14312E+04         0.00000E+00
    0.00000E+00         0.00000E+00        -0.77146E+03
 
   -0.37397E+04         0.28323E+03         0.00000E+00
    0.28323E+03         0.14783E+04         0.00000E+00
    0.00000E+00         0.00000E+00        -0.67841E+03
 
   -0.34617E+04         0.31496E+03         0.00000E+00
    0.31496E+03         0.15083E+04         0.00000E+00
    0.00000E+00         0.00000E+00        -0.58604E+03
 
   -0.31688E+04         0.34674E+03         0.00000E+00
    0.34674E+03         0.15204E+04         0.00000E+00
    0.00000E+00         0.00000E+00        -0.49452E+03
 
   -0.28609E+04         0.37832E+03         0.00000E+00
    0.37832E+03         0.15143E+04         0.00000E+00
    0.00000E+00         0.00000E+00        -0.40400E+03
 
   -0.25383E+04         0.40944E+03         0.00000E+00
    0.40944E+03         0.14895E+04         0.00000E+00
    0.00000E+00         0.00000E+00        -0.31465E+03
 
   -0.22012E+04         0.43984E+03         0.00000E+00
    0.43984E+03         0.14458E+04         0.00000E+00
    0.00000E+00         0.00000E+00        -0.22664E+03
 
   -0.18501E+04         0.46926E+03         0.00000E+00
    0.46926E+03         0.13831E+04         0.00000E+00
    0.00000E+00         0.00000E+00        -0.14011E+03
 
   -0.14853E+04         0.49742E+03         0.00000E+00
    0.49742E+03         0.13013E+04         0.00000E+00
    0.00000E+00         0.00000E+00        -0.55222E+02
 
   -0.11077E+04         0.52404E+03         0.00000E+00
    0.52404E+03         0.12005E+04         0.00000E+00
    0.00000E+00         0.00000E+00         0.27853E+02
 
   -0.71790E+03         0.54883E+03         0.00000E+00
    0.54883E+03         0.10811E+04         0.00000E+00
    0.00000E+00         0.00000E+00         0.10895E+03
 
   -0.31689E+03         0.57146E+03         0.00000E+00
    0.57146E+03         0.94326E+03         0.00000E+00
    0.00000E+00         0.00000E+00         0.18791E+03
 
    0.94279E+02         0.59161E+03         0.00000E+00
    0.59161E+03         0.78753E+03         0.00000E+00
    0.00000E+00         0.00000E+00         0.26454E+03
 
   -0.60246E+04         0.26572E+01         0.00000E+00
    0.26572E+01         0.79718E+02         0.00000E+00
    0.00000E+00         0.00000E+00        -0.17835E+04
 
   -0.58901E+04         0.98508E+01         0.00000E+00
    0.98508E+01         0.23840E+03         0.00000E+00
    0.00000E+00         0.00000E+00        -0.16955E+04
 
   -0.57484E+04         0.19365E+02         0.00000E+00
    0.19365E+02         0.39501E+03         0.00000E+00
    0.00000E+00         0.00000E+00        -0.16060E+04
 
   -0.55984E+04         0.31037E+02         0.00000E+00
    0.31037E+02         0.54763E+03         0.00000E+00
    0.00000E+00         0.00000E+00        -0.15152E+04
 
   -0.54389E+04         0.44685E+02         0.00000E+00
    0.44685E+02         0.69440E+03         0.00000E+00
    0.00000E+00         0.00000E+00        -0.14234E+04
 
   -0.52690E+04         0.60121E+02         0.00000E+00
    0.60121E+02         0.83358E+03         0.00000E+00
    0.00000E+00         0.00000E+00        -0.13306E+04
 
   -0.50876E+04         0.77148E+02         0.00000E+00
    0.77148E+02         0.96355E+03         0.00000E+00
    0.00000E+00         0.00000E+00        -0.12372E+04
 
   -0.48941E+04         0.95567E+02         0.00000E+00
    0.95567E+02         0.10828E+04         0.00000E+00
    0.00000E+00         0.00000E+00        -0.11434E+04
 
   -0.46877E+04         0.11518E+03         0.00000E+00
    0.11518E+03         0.11899E+04         0.00000E+00
    0.00000E+00         0.00000E+00        -0.10493E+04
 
   -0.44677E+04         0.13578E+03         0.00000E+00
    0.13578E+03         0.12837E+04         0.00000E+00
    0.00000E+00         0.00000E+00        -0.95521E+03
 
   -0.42339E+04         0.15718E+03         0.00000E+00
    0.15718E+03         0.13630E+04         0.00000E+00
    0.00000E+00         0.00000E+00        -0.86126E+03
 
   -0.39856E+04         0.17918E+03         0.00000E+00
    0.17918E+03         0.14268E+04         0.00000E+00
    0.00000E+00         0.00000E+00        -0.76766E+03
 
   -0.37228E+04         0.20160E+03         0.00000E+00
    0.20160E+03         0.14742E+04         0.00000E+00
    0.00000E+00         0.00000E+00        -0.67459E+03
 
   -0.34452E+04         0.22424E+03         0.00000E+00
    0.22424E+03         0.15045E+04         0.00000E+00
    0.00000E+00         0.00000E+00        -0.58222E+03
 
   -0.31528E+04         0.24693E+03         0.00000E+00
    0.24693E+03         0.15171E+04         0.00000E+00
    0.00000E+00         0.00000E+00        -0.49074E+03
 
   -0.28457E+04         0.26948E+03         0.00000E+00
    0.26948E+03         0.15114E+04         0.00000E+00
    0.00000E+00         0.00000E+00        -0.40029E+03
 
   -0.25240E+04         0.29170E+03         0.00000E+00
    0.29170E+03         0.14871E+04         0.00000E+00
    0.00000E+00         0.00000E+00        -0.31105E+03
 
   -0.21879E+04         0.31341E+03         0.00000E+00
    0.31341E+03         0.14440E+04         0.00000E+00
    0.00000E+00         0.00000E+00        -0.22318E+03
 
   -0.18380E+04         0.33441E+03         0.00000E+00
    0.33441E+03         0.13819E+04         0.00000E+00
    0.00000E+00         0.00000E+00        -0.13683E+03
 
   -0.14747E+04         0.35452E+03         0.00000E+00
    0.35452E+03         0.13008E+04         0.00000E+00
    0.00000E+00         0.00000E+00        -0.52171E+02
 
   -0.10987E+04         0.37352E+03         0.00000E+00
    0.37352E+03         0.12008E+04         0.00000E+00
    0.00000E+00         0.00000E+00         0.30639E+02
 
   -0.71078E+03         0.39121E+03         0.00000E+00
    0.39121E+03         0.10822E+04         0.00000E+00
    0.00000E+00         0.00000E+00         0.11143E+03
 
   -0.31184E+03         0.40735E+03         0.00000E+00
    0.40735E+03         0.94528E+03         0.00000E+00
    0.00000E+00         0.00000E+00         0.19003E+03
 
    0.97001E+02         0.42171E+03         0.00000E+00
    0.42171E+03         0.79053E+03         0.00000E+00
    0.00000E+00         0.00000E+00         0.26626E+03
 
   -0.60202E+04         0.15839E+01         0.00000E+00
    0.15839E+01         0.79377E+02         0.00000E+00
    0.00000E+00         0.00000E+00        -0.17823E+04
 
   -0.58844E+04         0.58756E+01         0.00000E+00
    0.58756E+01         0.23742E+03         0.00000E+00
    0.00000E+00         0.00000E+00        -0.16941E+04
 
   -0.57416E+04         0.11557E+02         0.00000E+00
    0.11557E+02         0.39347E+03         0.00000E+00
    0.00000E+00         0.00000E+00        -0.16044E+04
 
   -0.55906E+04         0.18530E+02         0.00000E+00
    0.18530E+02         0.54560E+03         0.00000E+00
    0.00000E+00         0.00000E+00        -0.15135E+04
 
   -0.54302E+04         0.26690E+02         0.00000E+00
    0.26690E+02         0.69197E+03         0.00000E+00
    0.00000E+00         0.00000E+00        -0.14215E+04
 
   -0.52595E+04         0.35923E+02         0.00000E+00
    0.35923E+02         0.83085E+03         0.00000E+00
    0.00000E+00         0.00000E+00        -0.13286E+04
 
   -0.50775E+04         0.46112E+02         0.00000E+00
    0.46112E+02         0.96059E+03         0.00000E+00
    0.00000E+00         0.00000E+00        -0.12351E+04
 
   -0.48835E+04         0.57139E+02         0.00000E+00
    0.57139E+02         0.10797E+04         0.00000E+00
    0.00000E+00         0.00000E+00        -0.11411E+04
 
   -0.46767E+04         0.68883E+02         0.00000E+00
    0.68883E+02         0.11868E+04         0.00000E+00
    0.00000E+00         0.00000E+00        -0.10470E+04
 
   -0.44565E+04         0.81225E+02         0.00000E+00
    0.81225E+02         0.12805E+04         0.00000E+00
    0.00000E+00         0.00000E+00        -0.95280E+03
 
   -0.42225E+04         0.94049E+02         0.00000E+00
    0.94049E+02         0.13599E+04         0.00000E+00
    0.00000E+00         0.00000E+00        -0.85880E+03
 
   -0.39743E+04         0.10724E+03         0.00000E+00
    0.10724E+03         0.14238E+04         0.00000E+00
    0.00000E+00         0.00000E+00        -0.76516E+03
 
   -0.37116E+04         0.12068E+03         0.00000E+00
    0.12068E+03         0.14714E+04         0.00000E+00
    0.00000E+00         0.00000E+00        -0.67207E+03
 
   -0.34343E+04         0.13426E+03         0.00000E+00
    0.13426E+03         0.15019E+04         0.00000E+00
    0.00000E+00         0.00000E+00        -0.57972E+03
 
   -0.31422E+04         0.14786E+03         0.00000E+00
    0.14786E+03         0.15147E+04         0.00000E+00
    0.00000E+00         0.00000E+00        -0.48825E+03
 
   -0.28356E+04         0.16139E+03         0.00000E+00
    0.16139E+03         0.15094E+04         0.00000E+00
    0.00000E+00         0.00000E+00        -0.39786E+03
 
   -0.25144E+04         0.17472E+03         0.00000E+00
    0.17472E+03         0.14855E+04         0.00000E+00
    0.00000E+00         0.00000E+00        -0.30869E+03
 
   -0.21791E+04         0.18774E+03         0.00000E+00
    0.18774E+03         0.14427E+04         0.00000E+00
    0.00000E+00         0.00000E+00        -0.22092E+03
 
   -0.18300E+04         0.20034E+03         0.00000E+00
    0.20034E+03         0.13810E+04         0.00000E+00
    0.00000E+00         0.00000E+00        -0.13469E+03
 
   -0.14677E+04         0.21240E+03         0.00000E+00
    0.21240E+03         0.13004E+04         0.00000E+00
    0.00000E+00         0.00000E+00        -0.50182E+02
 
   -0.10928E+04         0.22380E+03         0.00000E+00
    0.22380E+03         0.12009E+04         0.00000E+00
    0.00000E+00         0.00000E+00         0.32449E+02
 
   -0.70607E+03         0.23440E+03         0.00000E+00
    0.23440E+03         0.10828E+04         0.00000E+00
    0.00000E+00         0.00000E+00         0.11303E+03
 
   -0.30853E+03         0.24407E+03         0.00000E+00
    0.24407E+03         0.94650E+03         0.00000E+00
    0.00000E+00         0.00000E+00         0.19139E+03
 
    0.98768E+02         0.25268E+03         0.00000E+00
    0.25268E+03         0.79240E+03         0.00000E+00
    0.00000E+00         0.00000E+00         0.26735E+03
 
   -0.60180E+04         0.52624E+00         0.00000E+00
    0.52624E+00         0.79207E+02         0.00000E+00
    0.00000E+00         0.00000E+00        -0.17816E+04
 
   -0.58816E+04         0.19528E+01         0.00000E+00
    0.19528E+01         0.23692E+03         0.00000E+00
    0.00000E+00         0.00000E+00        -0.16934E+04
 
   -0.57382E+04         0.38420E+01         0.00000E+00
    0.38420E+01         0.39269E+03         0.00000E+00
    0.00000E+00         0.00000E+00        -0.16037E+04
 
   -0.55867E+04         0.61617E+01         0.00000E+00
    0.61617E+01         0.54458E+03         0.00000E+00
    0.00000E+00         0.00000E+00        -0.15126E+04
 
   -0.54259E+04         0.88767E+01         0.00000E+00
    0.88767E+01         0.69075E+03         0.00000E+00
    0.00000E+00         0.00000E+00        -0.14205E+04
 
   -0.52548E+04         0.11950E+02         0.00000E+00
    0.11950E+02         0.82947E+03         0.00000E+00
    0.00000E+00         0.00000E+00        -0.13276E+04
 
   -0.50725E+04         0.15341E+02         0.00000E+00
    0.15341E+02         0.95910E+03         0.00000E+00
    0.00000E+00         0.00000E+00        -0.12340E+04
 
   -0.48782E+04         0.19013E+02         0.00000E+00
    0.19013E+02         0.10781E+04         0.00000E+00
    0.00000E+00         0.00000E+00        -0.11400E+04
 
   -0.46712E+04         0.22924E+02         0.00000E+00
    0.22924E+02         0.11852E+04         0.00000E+00
    0.00000E+00         0.00000E+00        -0.10458E+04
 
   -0.44509E+04         0.27035E+02         0.00000E+00
    0.27035E+02         0.12789E+04         0.00000E+00
    0.00000E+00         0.00000E+00        -0.95160E+03
 
   -0.42169E+04         0.31307E+02         0.00000E+00
    0.31307E+02         0.13583E+04         0.00000E+00
    0.00000E+00         0.00000E+00        -0.85758E+03
 
   -0.39687E+04         0.35701E+02         0.00000E+00
    0.35701E+02         0.14223E+04         0.00000E+00
    0.00000E+00         0.00000E+00        -0.76392E+03
 
   -0.37060E+04         0.40179E+02         0.00000E+00
    0.40179E+02         0.14699E+04         0.00000E+00
    0.00000E+00         0.00000E+00        -0.67083E+03
 
   -0.34288E+04         0.44704E+02         0.00000E+00
    0.44704E+02         0.15006E+04         0.00000E+00
    0.00000E+00         0.00000E+00        -0.57847E+03
 
   -0.31369E+04         0.49239E+02         0.00000E+00
    0.49239E+02         0.15135E+04         0.00000E+00
    0.00000E+00         0.00000E+00        -0.48703E+03
 
   -0.28305E+04         0.53746E+02         0.00000E+00
    0.53746E+02         0.15083E+04         0.00000E+00
    0.00000E+00         0.00000E+00        -0.39666E+03
 
   -0.25097E+04         0.58189E+02         0.00000E+00
    0.58189E+02         0.14846E+04         0.00000E+00
    0.00000E+00         0.00000E+00        -0.30753E+03
 
   -0.21747E+04         0.62530E+02         0.00000E+00
    0.62530E+02         0.14420E+04         0.00000E+00
    0.00000E+00         0.00000E+00        -0.21980E+03
 
   -0.18260E+04         0.66729E+02         0.00000E+00
    0.66729E+02         0.13806E+04         0.00000E+00
    0.00000E+00         0.00000E+00        -0.13364E+03
 
   -0.14642E+04         0.70749E+02         0.00000E+00
    0.70749E+02         0.13002E+04         0.00000E+00
    0.00000E+00         0.00000E+00        -0.49202E+02
 
   -0.10898E+04         0.74546E+02         0.00000E+00
    0.74546E+02         0.12009E+04         0.00000E+00
    0.00000E+00         0.00000E+00         0.33340E+02
 
   -0.70373E+03         0.78079E+02         0.00000E+00
    0.78079E+02         0.10831E+04         0.00000E+00
    0.00000E+00         0.00000E+00         0.11382E+03
 
   -0.30688E+03         0.81302E+02         0.00000E+00
    0.81302E+02         0.94708E+03         0.00000E+00
    0.00000E+00         0.00000E+00         0.19206E+03
 
    0.99637E+02         0.84168E+02         0.00000E+00
    0.84168E+02         0.79331E+03         0.00000E+00
    0.00000E+00         0.00000E+00         0.26788E+03
 
TENSORS stresstot double 
   -0.49939E+05         0.36664E+03         0.00000E+00
    0.36664E+03        -0.10022E+06         0.00000E+00
    0.00000E+00         0.00000E+00        -0.56469E+05
 
   -0.40332E+05         0.26455E+04         0.00000E+00
    0.26455E+04        -0.96903E+05         0.00000E+00
    0.00000E+00         0.00000E+00        -0.66139E+05
 
   -0.34896E+05         0.38016E+04         0.00000E+00
    0.38016E+04        -0.88964E+05         0.00000E+00
    0.00000E+00         0.00000E+00        -0.63709E+05
 
   -0.29871E+05         0.40459E+04         0.00000E+00
    0.40459E+04        -0.80531E+05         0.00000E+00
    0.00000E+00         0.00000E+00        -0.58154E+05
 
   -0.25192E+05         0.38878E+04         0.00000E+00
    0.38878E+04        -0.72725E+05         0.00000E+00
    0.00000E+00         0.00000E+00        -0.52104E+05
 
   -0.20959E+05         0.35868E+04         0.00000E+00
    0.35868E+04        -0.65612E+05         0.00000E+00
    0.00000E+00         0.00000E+00        -0.46207E+05
 
   -0.17167E+05         0.32007E+04         0.00000E+00
    0.32007E+04        -0.59210E+05         0.00000E+00
    0.00000E+00         0.00000E+00        -0.40713E+05
 
   -0.14261E+05         0.27799E+04         0.00000E+00
    0.27799E+04        -0.53486E+05         0.00000E+00
    0.00000E+00         0.00000E+00        -0.35919E+05
 
   -0.11832E+05         0.24122E+04         0.00000E+00
    0.24122E+04        -0.48448E+05         0.00000E+00
    0.00000E+00         0.00000E+00        -0.31764E+05
 
   -0.97252E+04         0.20829E+04         0.00000E+00
    0.20829E+04        -0.44064E+05         0.00000E+00
    0.00000E+00         0.00000E+00        -0.28197E+05
 
   -0.80087E+04         0.18067E+04         0.00000E+00
    0.18067E+04        -0.40206E+05         0.00000E+00
    0.00000E+00         0.00000E+00        -0.25170E+05
 
   -0.65180E+04         0.16184E+04         0.00000E+00
    0.16184E+04        -0.36811E+05         0.00000E+00
    0.00000E+00         0.00000E+00        -0.22511E+05
 
   -0.51650E+04         0.14543E+04         0.00000E+00
    0.14543E+04        -0.33801E+05         0.00000E+00
    0.00000E+00         0.00000E+00        -0.20098E+05
 
   -0.39299E+04         0.13099E+04         0.00000E+00
    0.13099E+04        -0.31084E+05         0.00000E+00
    0.00000E+00         0.00000E+00        -0.17864E+05
 
   -0.27894E+04         0.11694E+04         0.00000E+00
    0.11694E+04        -0.28643E+05         0.00000E+00
    0.00000E+00         0.00000E+00        -0.15761E+05
 
   -0.17245E+04         0.10629E+04         0.00000E+00
    0.10629E+04        -0.26443E+05         0.00000E+00
    0.00000E+00         0.00000E+00        -0.13742E+05
 
   -0.77570E+03         0.91478E+03         0.00000E+00
    0.91478E+03        -0.24509E+05         0.00000E+00
    0.00000E+00         0.00000E+00        -0.11824E+05
 
   -0.76766E+02         0.80320E+03         0.00000E+00
    0.80320E+03        -0.22831E+05         0.00000E+00
    0.00000E+00         0.00000E+00        -0.10180E+05
 
    0.49498E+03         0.70817E+03         0.00000E+00
    0.70817E+03        -0.21350E+05         0.00000E+00
    0.00000E+00         0.00000E+00        -0.86611E+04
 
    0.25181E+03         0.61432E+03         0.00000E+00
    0.61432E+03        -0.20034E+05         0.00000E+00
    0.00000E+00         0.00000E+00        -0.77847E+04
 
   -0.19426E+04         0.53296E+03         0.00000E+00
    0.53296E+03        -0.18894E+05         0.00000E+00
    0.00000E+00         0.00000E+00        -0.81308E+04
 
   -0.40320E+04         0.48611E+03         0.00000E+00
    0.48611E+03        -0.17881E+05         0.00000E+00
    0.00000E+00         0.00000E+00        -0.84758E+04
 
   -0.61212E+04         0.46585E+03         0.00000E+00
    0.46585E+03        -0.16934E+05         0.00000E+00
    0.00000E+00         0.00000E+00        -0.88333E+04
 
   -0.82938E+04         0.46873E+03         0.00000E+00
    0.46873E+03        -0.16004E+05         0.00000E+00
    0.00000E+00         0.00000E+00        -0.92136E+04
 
   -0.46458E+05         0.27371E+04         0.00000E+00
    0.27371E+04        -0.99614E+05         0.00000E+00
    0.00000E+00         0.00000E+00        -0.59225E+05
 
   -0.36973E+05         0.97057E+04         0.00000E+00
    0.97057E+04        -0.88870E+05         0.00000E+00
    0.00000E+00         0.00000E+00        -0.64062E+05
 
   -0.33496E+05         0.11683E+05         0.00000E+00
    0.11683E+05        -0.80372E+05         0.00000E+00
    0.00000E+00         0.00000E+00        -0.59911E+05
 
   -0.29876E+05         0.11856E+05         0.00000E+00
    0.11856E+05        -0.73346E+05         0.00000E+00
    0.00000E+00         0.00000E+00        -0.54966E+05
 
   -0.25778E+05         0.11168E+05         0.00000E+00
    0.11168E+05        -0.66682E+05         0.00000E+00
    0.00000E+00         0.00000E+00        -0.49528E+05
 
   -0.21733E+05         0.10161E+05         0.00000E+00
    0.10161E+05        -0.60648E+05         0.00000E+00
    0.00000E+00         0.00000E+00        -0.44200E+05
 
   -0.18114E+05         0.90220E+04         0.00000E+00
    0.90220E+04        -0.55268E+05         0.00000E+00
    0.00000E+00         0.00000E+00        -0.39282E+05
 
   -0.15051E+05         0.79154E+04         0.00000E+00
    0.79154E+04        -0.50523E+05         0.00000E+00
    0.00000E+00         0.00000E+00        -0.34908E+05
 
   -0.12539E+05         0.69028E+04         0.00000E+00
    0.69028E+04        -0.46229E+05         0.00000E+00
    0.00000E+00         0.00000E+00        -0.31060E+05
 
   -0.10329E+05         0.60293E+04         0.00000E+00
    0.60293E+04        -0.42310E+05         0.00000E+00
    0.00000E+00         0.00000E+00        -0.27635E+05
 
   -0.84368E+04         0.53179E+04         0.00000E+00
    0.53179E+04        -0.38845E+05         0.00000E+00
    0.00000E+00         0.00000E+00        -0.24643E+05
 
   -0.68476E+04         0.47534E+04         0.00000E+00
    0.47534E+04        -0.35690E+05         0.00000E+00
    0.00000E+00         0.00000E+00        -0.22027E+05
 
   -0.54787E+04         0.42692E+04         0.00000E+00
    0.42692E+04        -0.32817E+05         0.00000E+00
    0.00000E+00         0.00000E+00        -0.19674E+05
 
   -0.42070E+04         0.38506E+04         0.00000E+00
    0.38506E+04        -0.30271E+05         0.00000E+00
    0.00000E+00         0.00000E+00        -0.17485E+05
 
   -0.30441E+04         0.34547E+04         0.00000E+00
    0.34547E+04        -0.27984E+05         0.00000E+00
    0.00000E+00         0.00000E+00        -0.15446E+05
 
   -0.19780E+04         0.30746E+04         0.00000E+00
    0.30746E+04        -0.25961E+05         0.00000E+00
    0.00000E+00         0.00000E+00        -0.13524E+05
 
   -0.10335E+04         0.27052E+04         0.00000E+00
    0.27052E+04        -0.24166E+05         0.00000E+00
    0.00000E+00         0.00000E+00        -0.11670E+05
 
   -0.28346E+03         0.23672E+04         0.00000E+00
    0.23672E+04        -0.22550E+05         0.00000E+00
    0.00000E+00         0.00000E+00        -0.10058E+05
 
    0.32772E+03         0.20999E+04         0.00000E+00
    0.20999E+04        -0.21126E+05         0.00000E+00
    0.00000E+00         0.00000E+00        -0.85862E+04
 
    0.46223E+02         0.18295E+04         0.00000E+00
    0.18295E+04        -0.19846E+05         0.00000E+00
    0.00000E+00         0.00000E+00        -0.77881E+04
 
   -0.20670E+04         0.15899E+04         0.00000E+00
    0.15899E+04        -0.18729E+05         0.00000E+00
    0.00000E+00         0.00000E+00        -0.81166E+04
 
   -0.40977E+04         0.14508E+04         0.00000E+00
    0.14508E+04        -0.17732E+05         0.00000E+00
    0.00000E+00         0.00000E+00        -0.84490E+04
 
   -0.61382E+04         0.13897E+04         0.00000E+00
    0.13897E+04        -0.16800E+05         0.00000E+00
    0.00000E+00         0.00000E+00        -0.87966E+04
 
   -0.82663E+04         0.13977E+04         0.00000E+00
    0.13977E+04        -0.15887E+05         0.00000E+00
    0.00000E+00         0.00000E+00        -0.91684E+04
 
   -0.33872E+05         0.16156E+05         0.00000E+00
    0.16156E+05        -0.75385E+05         0.00000E+00
    0.00000E+00         0.00000E+00        -0.55786E+05
 
   -0.33182E+05         0.18364E+05         0.00000E+00
    0.18364E+05        -0.64374E+05         0.00000E+00
    0.00000E+00         0.00000E+00        -0.53109E+05
 
   -0.33553E+05         0.18895E+05         0.00000E+00
    0.18895E+05        -0.61975E+05         0.00000E+00
    0.00000E+00         0.00000E+00        -0.51973E+05
 
   -0.30809E+05         0.17918E+05         0.00000E+00
    0.17918E+05        -0.58448E+05         0.00000E+00
    0.00000E+00         0.00000E+00        -0.48546E+05
 
   -0.27195E+05         0.16538E+05         0.00000E+00
    0.16538E+05        -0.55044E+05         0.00000E+00
    0.00000E+00         0.00000E+00        -0.44696E+05
 
   -0.23273E+05         0.14942E+05         0.00000E+00
    0.14942E+05        -0.51538E+05         0.00000E+00
    0.00000E+00         0.00000E+00        -0.40601E+05
 
   -0.19615E+05         0.13334E+05         0.00000E+00
    0.13334E+05        -0.48105E+05         0.00000E+00
    0.00000E+00         0.00000E+00        -0.36621E+05
 
   -0.16442E+05         0.11842E+05         0.00000E+00
    0.11842E+05        -0.44799E+05         0.00000E+00
    0.00000E+00         0.00000E+00        -0.32897E+05
 
   -0.13705E+05         0.10581E+05         0.00000E+00
    0.10581E+05        -0.41686E+05         0.00000E+00
    0.00000E+00         0.00000E+00        -0.29481E+05
 
   -0.11310E+05         0.94214E+04         0.00000E+00
    0.94214E+04        -0.38699E+05         0.00000E+00
    0.00000E+00         0.00000E+00        -0.26381E+05
 
   -0.92631E+04         0.83948E+04         0.00000E+00
    0.83948E+04        -0.35817E+05         0.00000E+00
    0.00000E+00         0.00000E+00        -0.23552E+05
 
   -0.75232E+04         0.75197E+04         0.00000E+00
    0.75197E+04        -0.33251E+05         0.00000E+00
    0.00000E+00         0.00000E+00        -0.21035E+05
 
   -0.60437E+04         0.67807E+04         0.00000E+00
    0.67807E+04        -0.30953E+05         0.00000E+00
    0.00000E+00         0.00000E+00        -0.18798E+05
 
   -0.47452E+04         0.61041E+04         0.00000E+00
    0.61041E+04        -0.28825E+05         0.00000E+00
    0.00000E+00         0.00000E+00        -0.16758E+05
 
   -0.35473E+04         0.55035E+04         0.00000E+00
    0.55035E+04        -0.26877E+05         0.00000E+00
    0.00000E+00         0.00000E+00        -0.14823E+05
 
   -0.24551E+04         0.49109E+04         0.00000E+00
    0.49109E+04        -0.25105E+05         0.00000E+00
    0.00000E+00         0.00000E+00        -0.12982E+05
 
   -0.14985E+04         0.43369E+04         0.00000E+00
    0.43369E+04        -0.23485E+05         0.00000E+00
    0.00000E+00         0.00000E+00        -0.11315E+05
 
   -0.67732E+03         0.38326E+04         0.00000E+00
    0.38326E+04        -0.22010E+05         0.00000E+00
    0.00000E+00         0.00000E+00        -0.98054E+04
 
    0.21862E+02         0.34219E+04         0.00000E+00
    0.34219E+04        -0.20664E+05         0.00000E+00
    0.00000E+00         0.00000E+00        -0.84258E+04
 
   -0.35006E+03         0.30015E+04         0.00000E+00
    0.30015E+04        -0.19461E+05         0.00000E+00
    0.00000E+00         0.00000E+00        -0.77875E+04
 
   -0.23098E+04         0.26191E+04         0.00000E+00
    0.26191E+04        -0.18390E+05         0.00000E+00
    0.00000E+00         0.00000E+00        -0.80838E+04
 
   -0.42284E+04         0.23919E+04         0.00000E+00
    0.23919E+04        -0.17427E+05         0.00000E+00
    0.00000E+00         0.00000E+00        -0.83930E+04
 
   -0.61736E+04         0.22889E+04         0.00000E+00
    0.22889E+04        -0.16529E+05         0.00000E+00
    0.00000E+00         0.00000E+00        -0.87218E+04
 
   -0.82117E+04         0.23004E+04         0.00000E+00
    0.23004E+04        -0.15651E+05         0.00000E+00
    0.00000E+00         0.00000E+00        -0.90772E+04
 
   -0.13244E+05         0.14257E+05         0.00000E+00
    0.14257E+05        -0.27520E+05         0.00000E+00
    0.00000E+00         0.00000E+00        -0.24671E+05
 
   -0.33115E+05         0.19972E+05         0.00000E+00
    0.19972E+05        -0.37880E+05         0.00000E+00
    0.00000E+00         0.00000E+00        -0.41308E+05
 
   -0.33856E+05         0.19604E+05         0.00000E+00
    0.19604E+05        -0.37804E+05         0.00000E+00
    0.00000E+00         0.00000E+00        -0.40982E+05
 
   -0.32078E+05         0.19124E+05         0.00000E+00
    0.19124E+05        -0.38823E+05         0.00000E+00
    0.00000E+00         0.00000E+00        -0.40151E+05
 
   -0.28707E+05         0.18184E+05         0.00000E+00
    0.18184E+05        -0.38992E+05         0.00000E+00
    0.00000E+00         0.00000E+00        -0.38068E+05
 
   -0.24942E+05         0.17004E+05         0.00000E+00
    0.17004E+05        -0.38625E+05         0.00000E+00
    0.00000E+00         0.00000E+00        -0.35494E+05
 
   -0.21262E+05         0.15661E+05         0.00000E+00
    0.15661E+05        -0.37700E+05         0.00000E+00
    0.00000E+00         0.00000E+00        -0.32652E+05
 
   -0.17935E+05         0.14289E+05         0.00000E+00
    0.14289E+05        -0.36385E+05         0.00000E+00
    0.00000E+00         0.00000E+00        -0.29766E+05
 
   -0.15074E+05         0.12986E+05         0.00000E+00
    0.12986E+05        -0.34875E+05         0.00000E+00
    0.00000E+00         0.00000E+00        -0.26964E+05
 
   -0.12502E+05         0.11822E+05         0.00000E+00
    0.11822E+05        -0.33318E+05         0.00000E+00
    0.00000E+00         0.00000E+00        -0.24275E+05
 
   -0.10313E+05         0.10711E+05         0.00000E+00
    0.10711E+05        -0.31682E+05         0.00000E+00
    0.00000E+00         0.00000E+00        -0.21811E+05
 
   -0.84515E+04         0.96440E+04         0.00000E+00
    0.96440E+04        -0.29946E+05         0.00000E+00
    0.00000E+00         0.00000E+00        -0.19569E+05
 
   -0.68470E+04         0.87169E+04         0.00000E+00
    0.87169E+04        -0.28259E+05         0.00000E+00
    0.00000E+00         0.00000E+00        -0.17544E+05
 
   -0.54586E+04         0.79045E+04         0.00000E+00
    0.79045E+04        -0.26678E+05         0.00000E+00
    0.00000E+00         0.00000E+00        -0.15712E+05
 
   -0.42152E+04         0.71470E+04         0.00000E+00
    0.71470E+04        -0.25209E+05         0.00000E+00
    0.00000E+00         0.00000E+00        -0.13991E+05
 
   -0.31154E+04         0.64306E+04         0.00000E+00
    0.64306E+04        -0.23844E+05         0.00000E+00
    0.00000E+00         0.00000E+00        -0.12390E+05
 
   -0.21170E+04         0.57815E+04         0.00000E+00
    0.57815E+04        -0.22494E+05         0.00000E+00
    0.00000E+00         0.00000E+00        -0.10900E+05
 
   -0.11904E+04         0.51673E+04         0.00000E+00
    0.51673E+04        -0.21200E+05         0.00000E+00
    0.00000E+00         0.00000E+00        -0.94826E+04
 
   -0.39674E+03         0.46436E+04         0.00000E+00
    0.46436E+04        -0.19987E+05         0.00000E+00
    0.00000E+00         0.00000E+00        -0.81998E+04
 
   -0.90702E+03         0.41036E+04         0.00000E+00
    0.41036E+04        -0.18858E+05         0.00000E+00
    0.00000E+00         0.00000E+00        -0.77682E+04
 
   -0.26607E+04         0.35993E+04         0.00000E+00
    0.35993E+04        -0.17859E+05         0.00000E+00
    0.00000E+00         0.00000E+00        -0.80243E+04
 
   -0.44228E+04         0.32896E+04         0.00000E+00
    0.32896E+04        -0.16955E+05         0.00000E+00
    0.00000E+00         0.00000E+00        -0.83038E+04
 
   -0.62295E+04         0.31438E+04         0.00000E+00
    0.31438E+04        -0.16112E+05         0.00000E+00
    0.00000E+00         0.00000E+00        -0.86079E+04
 
   -0.81304E+04         0.31569E+04         0.00000E+00
    0.31569E+04        -0.15291E+05         0.00000E+00
    0.00000E+00         0.00000E+00        -0.89390E+04
 
   -0.49364E+04         0.32274E+04         0.00000E+00
    0.32274E+04         0.36708E+04         0.00000E+00
    0.00000E+00         0.00000E+00         0.27291E+03
 
   -0.26917E+05         0.11065E+05         0.00000E+00
    0.11065E+05        -0.97105E+04         0.00000E+00
    0.00000E+00         0.00000E+00        -0.19991E+05
 
   -0.32154E+05         0.14144E+05         0.00000E+00
    0.14144E+05        -0.17702E+05         0.00000E+00
    0.00000E+00         0.00000E+00        -0.28066E+05
 
   -0.31204E+05         0.15521E+05         0.00000E+00
    0.15521E+05        -0.21999E+05         0.00000E+00
    0.00000E+00         0.00000E+00        -0.29792E+05
 
   -0.28787E+05         0.16116E+05         0.00000E+00
    0.16116E+05        -0.24991E+05         0.00000E+00
    0.00000E+00         0.00000E+00        -0.29882E+05
 
   -0.25603E+05         0.16052E+05         0.00000E+00
    0.16052E+05        -0.26848E+05         0.00000E+00
    0.00000E+00         0.00000E+00        -0.28880E+05
 
   -0.22260E+05         0.15535E+05         0.00000E+00
    0.15535E+05        -0.27896E+05         0.00000E+00
    0.00000E+00         0.00000E+00        -0.27315E+05
 
   -0.19070E+05         0.14732E+05         0.00000E+00
    0.14732E+05        -0.28306E+05         0.00000E+00
    0.00000E+00         0.00000E+00        -0.25459E+05
 
   -0.16197E+05         0.13794E+05         0.00000E+00
    0.13794E+05        -0.28221E+05         0.00000E+00
    0.00000E+00         0.00000E+00        -0.23489E+05
 
   -0.13628E+05         0.12812E+05         0.00000E+00
    0.12812E+05        -0.27797E+05         0.00000E+00
    0.00000E+00         0.00000E+00        -0.21498E+05
 
   -0.11379E+05         0.11853E+05         0.00000E+00
    0.11853E+05        -0.27197E+05         0.00000E+00
    0.00000E+00         0.00000E+00        -0.19572E+05
 
   -0.94243E+04         0.10932E+05         0.00000E+00
    0.10932E+05        -0.26418E+05         0.00000E+00
    0.00000E+00         0.00000E+00        -0.17755E+05
 
   -0.77220E+04         0.10040E+05         0.00000E+00
    0.10040E+05        -0.25430E+05         0.00000E+00
    0.00000E+00         0.00000E+00        -0.16061E+05
 
   -0.62845E+04         0.91828E+04         0.00000E+00
    0.91828E+04        -0.24384E+05         0.00000E+00
    0.00000E+00         0.00000E+00        -0.14507E+05
 
   -0.49736E+04         0.83648E+04         0.00000E+00
    0.83648E+04        -0.23342E+05         0.00000E+00
    0.00000E+00         0.00000E+00        -0.13053E+05
 
   -0.38210E+04         0.76449E+04         0.00000E+00
    0.76449E+04        -0.22238E+05         0.00000E+00
    0.00000E+00         0.00000E+00        -0.11703E+05
 
   -0.27747E+04         0.69721E+04         0.00000E+00
    0.69721E+04        -0.21162E+05         0.00000E+00
    0.00000E+00         0.00000E+00        -0.10412E+05
 
   -0.18085E+04         0.63281E+04         0.00000E+00
    0.63281E+04        -0.20105E+05         0.00000E+00
    0.00000E+00         0.00000E+00        -0.91290E+04
 
   -0.88406E+03         0.57576E+04         0.00000E+00
    0.57576E+04        -0.19027E+05         0.00000E+00
    0.00000E+00         0.00000E+00        -0.79176E+04
 
   -0.15958E+04         0.51042E+04         0.00000E+00
    0.51042E+04        -0.18006E+05         0.00000E+00
    0.00000E+00         0.00000E+00        -0.77117E+04
 
   -0.31053E+04         0.45019E+04         0.00000E+00
    0.45019E+04        -0.17116E+05         0.00000E+00
    0.00000E+00         0.00000E+00        -0.79272E+04
 
   -0.46791E+04         0.41159E+04         0.00000E+00
    0.41159E+04        -0.16308E+05         0.00000E+00
    0.00000E+00         0.00000E+00        -0.81790E+04
 
   -0.63060E+04         0.39306E+04         0.00000E+00
    0.39306E+04        -0.15551E+05         0.00000E+00
    0.00000E+00         0.00000E+00        -0.84547E+04
 
   -0.80239E+04         0.39451E+04         0.00000E+00
    0.39451E+04        -0.14809E+05         0.00000E+00
    0.00000E+00         0.00000E+00        -0.87549E+04
 
    0.73165E+03        -0.11973E+04         0.00000E+00
   -0.11973E+04        -0.16843E+04         0.00000E+00
    0.00000E+00         0.00000E+00        -0.12071E+03
 
   -0.24088E+05         0.57862E+04         0.00000E+00
    0.57862E+04        -0.31146E+04         0.00000E+00
    0.00000E+00         0.00000E+00        -0.10196E+05
 
   -0.28904E+05         0.95324E+04         0.00000E+00
    0.95324E+04        -0.92164E+04         0.00000E+00
    0.00000E+00         0.00000E+00        -0.18691E+05
 
   -0.29402E+05         0.11835E+05         0.00000E+00
    0.11835E+05        -0.13490E+05         0.00000E+00
    0.00000E+00         0.00000E+00        -0.22337E+05
 
   -0.27723E+05         0.13266E+05         0.00000E+00
    0.13266E+05        -0.16603E+05         0.00000E+00
    0.00000E+00         0.00000E+00        -0.23547E+05
 
   -0.25281E+05         0.14010E+05         0.00000E+00
    0.14010E+05        -0.18934E+05         0.00000E+00
    0.00000E+00         0.00000E+00        -0.23525E+05
 
   -0.22465E+05         0.14220E+05         0.00000E+00
    0.14220E+05        -0.20616E+05         0.00000E+00
    0.00000E+00         0.00000E+00        -0.22816E+05
 
   -0.19619E+05         0.14028E+05         0.00000E+00
    0.14028E+05        -0.21735E+05         0.00000E+00
    0.00000E+00         0.00000E+00        -0.21696E+05
 
   -0.16934E+05         0.13571E+05         0.00000E+00
    0.13571E+05        -0.22393E+05         0.00000E+00
    0.00000E+00         0.00000E+00        -0.20363E+05
 
   -0.14469E+05         0.12946E+05         0.00000E+00
    0.12946E+05        -0.22675E+05         0.00000E+00
    0.00000E+00         0.00000E+00        -0.18921E+05
 
   -0.12248E+05         0.12216E+05         0.00000E+00
    0.12216E+05        -0.22657E+05         0.00000E+00
    0.00000E+00         0.00000E+00        -0.17447E+05
 
   -0.10260E+05         0.11500E+05         0.00000E+00
    0.11500E+05        -0.22421E+05         0.00000E+00
    0.00000E+00         0.00000E+00        -0.15979E+05
 
   -0.85573E+04         0.10745E+05         0.00000E+00
    0.10745E+05        -0.22074E+05         0.00000E+00
    0.00000E+00         0.00000E+00        -0.14614E+05
 
   -0.70721E+04         0.99926E+04         0.00000E+00
    0.99926E+04        -0.21558E+05         0.00000E+00
    0.00000E+00         0.00000E+00        -0.13332E+05
 
   -0.57443E+04         0.92746E+04         0.00000E+00
    0.92746E+04        -0.20846E+05         0.00000E+00
    0.00000E+00         0.00000E+00        -0.12126E+05
 
   -0.45171E+04         0.85628E+04         0.00000E+00
    0.85628E+04        -0.20074E+05         0.00000E+00
    0.00000E+00         0.00000E+00        -0.10946E+05
 
   -0.34455E+04         0.78800E+04         0.00000E+00
    0.78800E+04        -0.19291E+05         0.00000E+00
    0.00000E+00         0.00000E+00        -0.98061E+04
 
   -0.23880E+04         0.72861E+04         0.00000E+00
    0.72861E+04        -0.18486E+05         0.00000E+00
    0.00000E+00         0.00000E+00        -0.86329E+04
 
   -0.15057E+04         0.67232E+04         0.00000E+00
    0.67232E+04        -0.17641E+05         0.00000E+00
    0.00000E+00         0.00000E+00        -0.76257E+04
 
   -0.23402E+04         0.59449E+04         0.00000E+00
    0.59449E+04        -0.16871E+05         0.00000E+00
    0.00000E+00         0.00000E+00        -0.75853E+04
 
   -0.36333E+04         0.52736E+04         0.00000E+00
    0.52736E+04        -0.16167E+05         0.00000E+00
    0.00000E+00         0.00000E+00        -0.77912E+04
 
   -0.49852E+04         0.48334E+04         0.00000E+00
    0.48334E+04        -0.15502E+05         0.00000E+00
    0.00000E+00         0.00000E+00        -0.80194E+04
 
   -0.63979E+04         0.46233E+04         0.00000E+00
    0.46233E+04        -0.14859E+05         0.00000E+00
    0.00000E+00         0.00000E+00        -0.82652E+04
 
   -0.78936E+04         0.46434E+04         0.00000E+00
    0.46434E+04        -0.14218E+05         0.00000E+00
    0.00000E+00         0.00000E+00        -0.85291E+04
 
    0.13264E+04        -0.17140E+04         0.00000E+00
   -0.17140E+04         0.48657E+02         0.00000E+00
    0.00000E+00         0.00000E+00         0.39260E+03
 
   -0.18474E+05         0.77843E+03         0.00000E+00
    0.77843E+03        -0.13759E+04         0.00000E+00
    0.00000E+00         0.00000E+00        -0.61665E+04
 
   -0.26704E+05         0.60949E+04         0.00000E+00
    0.60949E+04        -0.49932E+04         0.00000E+00
    0.00000E+00         0.00000E+00        -0.12527E+05
 
   -0.27123E+05         0.88402E+04         0.00000E+00
    0.88402E+04        -0.83172E+04         0.00000E+00
    0.00000E+00         0.00000E+00        -0.16280E+05
 
   -0.26276E+05         0.10697E+05         0.00000E+00
    0.10697E+05        -0.11214E+05         0.00000E+00
    0.00000E+00         0.00000E+00        -0.18175E+05
 
   -0.24392E+05         0.11947E+05         0.00000E+00
    0.11947E+05        -0.13552E+05         0.00000E+00
    0.00000E+00         0.00000E+00        -0.18846E+05
 
   -0.22109E+05         0.12624E+05         0.00000E+00
    0.12624E+05        -0.15336E+05         0.00000E+00
    0.00000E+00         0.00000E+00        -0.18769E+05
 
   -0.19653E+05         0.12880E+05         0.00000E+00
    0.12880E+05        -0.16701E+05         0.00000E+00
    0.00000E+00         0.00000E+00        -0.18216E+05
 
   -0.17246E+05         0.12815E+05         0.00000E+00
    0.12815E+05        -0.17689E+05         0.00000E+00
    0.00000E+00         0.00000E+00        -0.17388E+05
 
   -0.14975E+05         0.12527E+05         0.00000E+00
    0.12527E+05        -0.18365E+05         0.00000E+00
    0.00000E+00         0.00000E+00        -0.16390E+05
 
   -0.12842E+05         0.12114E+05         0.00000E+00
    0.12114E+05        -0.18760E+05         0.00000E+00
    0.00000E+00         0.00000E+00        -0.15274E+05
 
   -0.10916E+05         0.11585E+05         0.00000E+00
    0.11585E+05        -0.18929E+05         0.00000E+00
    0.00000E+00         0.00000E+00        -0.14134E+05
 
   -0.92396E+04         0.11015E+05         0.00000E+00
    0.11015E+05        -0.18867E+05         0.00000E+00
    0.00000E+00         0.00000E+00        -0.13049E+05
 
   -0.77465E+04         0.10414E+05         0.00000E+00
    0.10414E+05        -0.18628E+05         0.00000E+00
    0.00000E+00         0.00000E+00        -0.12012E+05
 
   -0.64090E+04         0.98030E+04         0.00000E+00
    0.98030E+04        -0.18307E+05         0.00000E+00
    0.00000E+00         0.00000E+00        -0.11026E+05
 
   -0.51806E+04         0.91872E+04         0.00000E+00
    0.91872E+04        -0.17888E+05         0.00000E+00
    0.00000E+00         0.00000E+00        -0.10023E+05
 
   -0.40444E+04         0.85855E+04         0.00000E+00
    0.85855E+04        -0.17346E+05         0.00000E+00
    0.00000E+00         0.00000E+00        -0.90143E+04
 
   -0.29640E+04         0.80278E+04         0.00000E+00
    0.80278E+04        -0.16700E+05         0.00000E+00
    0.00000E+00         0.00000E+00        -0.80800E+04
 
   -0.22428E+04         0.74260E+04         0.00000E+00
    0.74260E+04        -0.16051E+05         0.00000E+00
    0.00000E+00         0.00000E+00        -0.72998E+04
 
   -0.31278E+04         0.65475E+04         0.00000E+00
    0.65475E+04        -0.15557E+05         0.00000E+00
    0.00000E+00         0.00000E+00        -0.74159E+04
 
   -0.42005E+04         0.58587E+04         0.00000E+00
    0.58587E+04        -0.15077E+05         0.00000E+00
    0.00000E+00         0.00000E+00        -0.76232E+04
 
   -0.53136E+04         0.54113E+04         0.00000E+00
    0.54113E+04        -0.14581E+05         0.00000E+00
    0.00000E+00         0.00000E+00        -0.78303E+04
 
   -0.64918E+04         0.52017E+04         0.00000E+00
    0.52017E+04        -0.14070E+05         0.00000E+00
    0.00000E+00         0.00000E+00        -0.80453E+04
 
   -0.77409E+04         0.52354E+04         0.00000E+00
    0.52354E+04        -0.13544E+05         0.00000E+00
    0.00000E+00         0.00000E+00        -0.82695E+04
 
   -0.50082E+03        -0.17798E+04         0.00000E+00
   -0.17798E+04        -0.28351E+02         0.00000E+00
    0.00000E+00         0.00000E+00        -0.22745E+03
 
   -0.13891E+05        -0.11746E+04         0.00000E+00
   -0.11746E+04        -0.33031E+03         0.00000E+00
    0.00000E+00         0.00000E+00        -0.44711E+04
 
   -0.23272E+05         0.29399E+04         0.00000E+00
    0.29399E+04        -0.14849E+04         0.00000E+00
    0.00000E+00         0.00000E+00        -0.79950E+04
 
   -0.25046E+05         0.62238E+04         0.00000E+00
    0.62238E+04        -0.47051E+04         0.00000E+00
    0.00000E+00         0.00000E+00        -0.11918E+05
 
   -0.24553E+05         0.83874E+04         0.00000E+00
    0.83874E+04        -0.71182E+04         0.00000E+00
    0.00000E+00         0.00000E+00        -0.13942E+05
 
   -0.23177E+05         0.99552E+04         0.00000E+00
    0.99552E+04        -0.93031E+04         0.00000E+00
    0.00000E+00         0.00000E+00        -0.14843E+05
 
   -0.21397E+05         0.11007E+05         0.00000E+00
    0.11007E+05        -0.11200E+05         0.00000E+00
    0.00000E+00         0.00000E+00        -0.15189E+05
 
   -0.19330E+05         0.11604E+05         0.00000E+00
    0.11604E+05        -0.12690E+05         0.00000E+00
    0.00000E+00         0.00000E+00        -0.15031E+05
 
   -0.17229E+05         0.11854E+05         0.00000E+00
    0.11854E+05        -0.13838E+05         0.00000E+00
    0.00000E+00         0.00000E+00        -0.14593E+05
 
   -0.15158E+05         0.11854E+05         0.00000E+00
    0.11854E+05        -0.14683E+05         0.00000E+00
    0.00000E+00         0.00000E+00        -0.13941E+05
 
   -0.13180E+05         0.11684E+05         0.00000E+00
    0.11684E+05        -0.15270E+05         0.00000E+00
    0.00000E+00         0.00000E+00        -0.13151E+05
 
   -0.11363E+05         0.11391E+05         0.00000E+00
    0.11391E+05        -0.15627E+05         0.00000E+00
    0.00000E+00         0.00000E+00        -0.12297E+05
 
   -0.97451E+04         0.10995E+05         0.00000E+00
    0.10995E+05        -0.15826E+05         0.00000E+00
    0.00000E+00         0.00000E+00        -0.11466E+05
 
   -0.82868E+04         0.10546E+05         0.00000E+00
    0.10546E+05        -0.15883E+05         0.00000E+00
    0.00000E+00         0.00000E+00        -0.10652E+05
 
   -0.69564E+04         0.10063E+05         0.00000E+00
    0.10063E+05        -0.15774E+05         0.00000E+00
    0.00000E+00         0.00000E+00        -0.98456E+04
 
   -0.57423E+04         0.95659E+04         0.00000E+00
    0.95659E+04        -0.15530E+05         0.00000E+00
    0.00000E+00         0.00000E+00        -0.90674E+04
 
   -0.45791E+04         0.90667E+04         0.00000E+00
    0.90667E+04        -0.15195E+05         0.00000E+00
    0.00000E+00         0.00000E+00        -0.82667E+04
 
   -0.34913E+04         0.85674E+04         0.00000E+00
    0.85674E+04        -0.14773E+05         0.00000E+00
    0.00000E+00         0.00000E+00        -0.74644E+04
 
   -0.31353E+04         0.78355E+04         0.00000E+00
    0.78355E+04        -0.14432E+05         0.00000E+00
    0.00000E+00         0.00000E+00        -0.70312E+04
 
   -0.39336E+04         0.69033E+04         0.00000E+00
    0.69033E+04        -0.14228E+05         0.00000E+00
    0.00000E+00         0.00000E+00        -0.72459E+04
 
   -0.47495E+04         0.62541E+04         0.00000E+00
    0.62541E+04        -0.13947E+05         0.00000E+00
    0.00000E+00         0.00000E+00        -0.74356E+04
 
   -0.56288E+04         0.58418E+04         0.00000E+00
    0.58418E+04        -0.13609E+05         0.00000E+00
    0.00000E+00         0.00000E+00        -0.76201E+04
 
   -0.65706E+04         0.56583E+04         0.00000E+00
    0.56583E+04        -0.13229E+05         0.00000E+00
    0.00000E+00         0.00000E+00        -0.78031E+04
 
   -0.75675E+04         0.57133E+04         0.00000E+00
    0.57133E+04        -0.12819E+05         0.00000E+00
    0.00000E+00         0.00000E+00        -0.79865E+04
 
   -0.25563E+04        -0.15317E+04         0.00000E+00
   -0.15317E+04         0.15824E+03         0.00000E+00
    0.00000E+00         0.00000E+00        -0.78628E+03
 
   -0.11808E+05        -0.16736E+04         0.00000E+00
   -0.16736E+04         0.28648E+03         0.00000E+00
    0.00000E+00         0.00000E+00        -0.36561E+04
 
   -0.19313E+05         0.73717E+03         0.00000E+00
    0.73717E+03        -0.67151E+03         0.00000E+00
    0.00000E+00         0.00000E+00        -0.63251E+04
 
   -0.22729E+05         0.40758E+04         0.00000E+00
    0.40758E+04        -0.20360E+04         0.00000E+00
    0.00000E+00         0.00000E+00        -0.85680E+04
 
   -0.22743E+05         0.64333E+04         0.00000E+00
    0.64333E+04        -0.41245E+04         0.00000E+00
    0.00000E+00         0.00000E+00        -0.10629E+05
 
   -0.21790E+05         0.81270E+04         0.00000E+00
    0.81270E+04        -0.59153E+04         0.00000E+00
    0.00000E+00         0.00000E+00        -0.11746E+05
 
   -0.20420E+05         0.93807E+04         0.00000E+00
    0.93807E+04        -0.75807E+04         0.00000E+00
    0.00000E+00         0.00000E+00        -0.12225E+05
 
   -0.18729E+05         0.10271E+05         0.00000E+00
    0.10271E+05        -0.90765E+04         0.00000E+00
    0.00000E+00         0.00000E+00        -0.12324E+05
 
   -0.16954E+05         0.10791E+05         0.00000E+00
    0.10791E+05        -0.10321E+05         0.00000E+00
    0.00000E+00         0.00000E+00        -0.12146E+05
 
   -0.15095E+05         0.11042E+05         0.00000E+00
    0.11042E+05        -0.11296E+05         0.00000E+00
    0.00000E+00         0.00000E+00        -0.11751E+05
 
   -0.13288E+05         0.11101E+05         0.00000E+00
    0.11101E+05        -0.12046E+05         0.00000E+00
    0.00000E+00         0.00000E+00        -0.11210E+05
 
   -0.11611E+05         0.10998E+05         0.00000E+00
    0.10998E+05        -0.12601E+05         0.00000E+00
    0.00000E+00         0.00000E+00        -0.10601E+05
 
   -0.10088E+05         0.10775E+05         0.00000E+00
    0.10775E+05        -0.12967E+05         0.00000E+00
    0.00000E+00         0.00000E+00        -0.99869E+04
 
   -0.86808E+04         0.10481E+05         0.00000E+00
    0.10481E+05        -0.13158E+05         0.00000E+00
    0.00000E+00         0.00000E+00        -0.93654E+04
 
   -0.73800E+04         0.10131E+05         0.00000E+00
    0.10131E+05        -0.13241E+05         0.00000E+00
    0.00000E+00         0.00000E+00        -0.87330E+04
 
   -0.61906E+04         0.97385E+04         0.00000E+00
    0.97385E+04        -0.13225E+05         0.00000E+00
    0.00000E+00         0.00000E+00        -0.81140E+04
 
   -0.50360E+04         0.93283E+04         0.00000E+00
    0.93283E+04        -0.13063E+05         0.00000E+00
    0.00000E+00         0.00000E+00        -0.74472E+04
 
   -0.40464E+04         0.88704E+04         0.00000E+00
    0.88704E+04        -0.12900E+05         0.00000E+00
    0.00000E+00         0.00000E+00        -0.68300E+04
 
   -0.41927E+04         0.78544E+04         0.00000E+00
    0.78544E+04        -0.12991E+05         0.00000E+00
    0.00000E+00         0.00000E+00        -0.69016E+04
 
   -0.46601E+04         0.70544E+04         0.00000E+00
    0.70544E+04        -0.12978E+05         0.00000E+00
    0.00000E+00         0.00000E+00        -0.70743E+04
 
   -0.52434E+04         0.64918E+04         0.00000E+00
    0.64918E+04        -0.12850E+05         0.00000E+00
    0.00000E+00         0.00000E+00        -0.72399E+04
 
   -0.59020E+04         0.61403E+04         0.00000E+00
    0.61403E+04        -0.12641E+05         0.00000E+00
    0.00000E+00         0.00000E+00        -0.73965E+04
 
   -0.66204E+04         0.59989E+04         0.00000E+00
    0.59989E+04        -0.12375E+05         0.00000E+00
    0.00000E+00         0.00000E+00        -0.75469E+04
 
   -0.73762E+04         0.60792E+04         0.00000E+00
    0.60792E+04        -0.12073E+05         0.00000E+00
    0.00000E+00         0.00000E+00        -0.76905E+04
 
   -0.44121E+04        -0.11982E+04         0.00000E+00
   -0.11982E+04         0.14225E+03         0.00000E+00
    0.00000E+00         0.00000E+00        -0.13463E+04
 
   -0.10938E+05        -0.16893E+04         0.00000E+00
   -0.16893E+04         0.43049E+03         0.00000E+00
    0.00000E+00         0.00000E+00        -0.33476E+04
 
   -0.16384E+05        -0.14494E+03         0.00000E+00
   -0.14494E+03         0.33812E+03         0.00000E+00
    0.00000E+00         0.00000E+00        -0.51367E+04
 
   -0.20005E+05         0.23870E+04         0.00000E+00
    0.23870E+04        -0.41350E+03         0.00000E+00
    0.00000E+00         0.00000E+00        -0.65731E+04
 
   -0.20895E+05         0.48049E+04         0.00000E+00
    0.48049E+04        -0.18451E+04         0.00000E+00
    0.00000E+00         0.00000E+00        -0.79981E+04
 
   -0.20346E+05         0.66091E+04         0.00000E+00
    0.66091E+04        -0.34151E+04         0.00000E+00
    0.00000E+00         0.00000E+00        -0.91546E+04
 
   -0.19295E+05         0.79556E+04         0.00000E+00
    0.79556E+04        -0.48158E+04         0.00000E+00
    0.00000E+00         0.00000E+00        -0.97900E+04
 
   -0.17928E+05         0.89654E+04         0.00000E+00
    0.89654E+04        -0.61133E+04         0.00000E+00
    0.00000E+00         0.00000E+00        -0.10049E+05
 
   -0.16445E+05         0.96932E+04         0.00000E+00
    0.96932E+04        -0.72890E+04         0.00000E+00
    0.00000E+00         0.00000E+00        -0.10043E+05
 
   -0.14826E+05         0.10151E+05         0.00000E+00
    0.10151E+05        -0.83102E+04         0.00000E+00
    0.00000E+00         0.00000E+00        -0.98521E+04
 
   -0.13210E+05         0.10397E+05         0.00000E+00
    0.10397E+05        -0.91279E+04         0.00000E+00
    0.00000E+00         0.00000E+00        -0.95078E+04
 
   -0.11687E+05         0.10464E+05         0.00000E+00
    0.10464E+05        -0.97749E+04         0.00000E+00
    0.00000E+00         0.00000E+00        -0.90842E+04
 
   -0.10265E+05         0.10403E+05         0.00000E+00
    0.10403E+05        -0.10283E+05         0.00000E+00
    0.00000E+00         0.00000E+00        -0.86090E+04
 
   -0.89328E+04         0.10251E+05         0.00000E+00
    0.10251E+05        -0.10683E+05         0.00000E+00
    0.00000E+00         0.00000E+00        -0.81469E+04
 
   -0.76841E+04         0.10028E+05         0.00000E+00
    0.10028E+05        -0.10900E+05         0.00000E+00
    0.00000E+00         0.00000E+00        -0.76513E+04
 
   -0.65483E+04         0.97310E+04         0.00000E+00
    0.97310E+04        -0.10982E+05         0.00000E+00
    0.00000E+00         0.00000E+00        -0.71596E+04
 
   -0.54029E+04         0.94271E+04         0.00000E+00
    0.94271E+04        -0.11080E+05         0.00000E+00
    0.00000E+00         0.00000E+00        -0.66252E+04
 
   -0.50110E+04         0.85659E+04         0.00000E+00
    0.85659E+04        -0.11449E+05         0.00000E+00
    0.00000E+00         0.00000E+00        -0.66253E+04
 
   -0.50271E+04         0.77265E+04         0.00000E+00
    0.77265E+04        -0.11748E+05         0.00000E+00
    0.00000E+00         0.00000E+00        -0.67630E+04
 
   -0.52785E+04         0.70758E+04         0.00000E+00
    0.70758E+04        -0.11845E+05         0.00000E+00
    0.00000E+00         0.00000E+00        -0.69037E+04
 
   -0.56574E+04         0.66116E+04         0.00000E+00
    0.66116E+04        -0.11819E+05         0.00000E+00
    0.00000E+00         0.00000E+00        -0.70385E+04
 
   -0.61201E+04         0.63306E+04         0.00000E+00
    0.63306E+04        -0.11709E+05         0.00000E+00
    0.00000E+00         0.00000E+00        -0.71659E+04
 
   -0.66348E+04         0.62368E+04         0.00000E+00
    0.62368E+04        -0.11539E+05         0.00000E+00
    0.00000E+00         0.00000E+00        -0.72838E+04
 
   -0.71709E+04         0.63419E+04         0.00000E+00
    0.63419E+04        -0.11333E+05         0.00000E+00
    0.00000E+00         0.00000E+00        -0.73902E+04
 
   -0.59379E+04        -0.89007E+03         0.00000E+00
   -0.89007E+03         0.12279E+03         0.00000E+00
    0.00000E+00         0.00000E+00        -0.18086E+04
 
   -0.10483E+05        -0.13663E+04         0.00000E+00
   -0.13663E+04         0.49396E+03         0.00000E+00
    0.00000E+00         0.00000E+00        -0.31882E+04
 
   -0.14599E+05        -0.39188E+03         0.00000E+00
   -0.39188E+03         0.66060E+03         0.00000E+00
    0.00000E+00         0.00000E+00        -0.44985E+04
 
   -0.17474E+05         0.14521E+04         0.00000E+00
    0.14521E+04         0.31093E+03         0.00000E+00
    0.00000E+00         0.00000E+00        -0.55886E+04
 
   -0.18942E+05         0.35372E+04         0.00000E+00
    0.35372E+04        -0.28121E+03         0.00000E+00
    0.00000E+00         0.00000E+00        -0.63259E+04
 
   -0.18866E+05         0.53091E+04         0.00000E+00
    0.53091E+04        -0.14060E+04         0.00000E+00
    0.00000E+00         0.00000E+00        -0.71157E+04
 
   -0.18120E+05         0.67345E+04         0.00000E+00
    0.67345E+04        -0.26713E+04         0.00000E+00
    0.00000E+00         0.00000E+00        -0.77491E+04
 
   -0.17031E+05         0.78309E+04         0.00000E+00
    0.78309E+04        -0.38142E+04         0.00000E+00
    0.00000E+00         0.00000E+00        -0.80976E+04
 
   -0.15776E+05         0.86315E+04         0.00000E+00
    0.86315E+04        -0.48850E+04         0.00000E+00
    0.00000E+00         0.00000E+00        -0.82413E+04
 
   -0.14395E+05         0.92507E+04         0.00000E+00
    0.92507E+04        -0.58205E+04         0.00000E+00
    0.00000E+00         0.00000E+00        -0.81449E+04
 
   -0.12973E+05         0.96386E+04         0.00000E+00
    0.96386E+04        -0.66639E+04         0.00000E+00
    0.00000E+00         0.00000E+00        -0.79475E+04
 
   -0.11606E+05         0.98631E+04         0.00000E+00
    0.98631E+04        -0.73865E+04         0.00000E+00
    0.00000E+00         0.00000E+00        -0.76689E+04
 
   -0.10308E+05         0.99253E+04         0.00000E+00
    0.99253E+04        -0.79418E+04         0.00000E+00
    0.00000E+00         0.00000E+00        -0.73465E+04
 
   -0.90492E+04         0.98939E+04         0.00000E+00
    0.98939E+04        -0.83289E+04         0.00000E+00
    0.00000E+00         0.00000E+00        -0.69832E+04
 
   -0.79117E+04         0.97859E+04         0.00000E+00
    0.97859E+04        -0.87087E+04         0.00000E+00
    0.00000E+00         0.00000E+00        -0.66265E+04
 
   -0.68342E+04         0.95244E+04         0.00000E+00
    0.95244E+04        -0.91436E+04         0.00000E+00
    0.00000E+00         0.00000E+00        -0.63571E+04
 
   -0.61388E+04         0.88476E+04         0.00000E+00
    0.88476E+04        -0.97897E+04         0.00000E+00
    0.00000E+00         0.00000E+00        -0.63987E+04
 
   -0.57916E+04         0.81529E+04         0.00000E+00
    0.81529E+04        -0.10338E+05         0.00000E+00
    0.00000E+00         0.00000E+00        -0.65088E+04
 
   -0.56880E+04         0.75199E+04         0.00000E+00
    0.75199E+04        -0.10655E+05         0.00000E+00
    0.00000E+00         0.00000E+00        -0.66158E+04
 
   -0.57757E+04         0.70101E+04         0.00000E+00
    0.70101E+04        -0.10816E+05         0.00000E+00
    0.00000E+00         0.00000E+00        -0.67262E+04
 
   -0.59880E+04         0.66453E+04         0.00000E+00
    0.66453E+04        -0.10864E+05         0.00000E+00
    0.00000E+00         0.00000E+00        -0.68329E+04
 
   -0.62792E+04         0.64345E+04         0.00000E+00
    0.64345E+04        -0.10829E+05         0.00000E+00
    0.00000E+00         0.00000E+00        -0.69314E+04
 
   -0.66135E+04         0.63870E+04         0.00000E+00
    0.63870E+04        -0.10738E+05         0.00000E+00
    0.00000E+00         0.00000E+00        -0.70189E+04
 
   -0.69557E+04         0.65139E+04         0.00000E+00
    0.65139E+04        -0.10615E+05         0.00000E+00
    0.00000E+00         0.00000E+00        -0.70918E+04
 
   -0.70606E+04        -0.61622E+03         0.00000E+00
   -0.61622E+03         0.10343E+03         0.00000E+00
    0.00000E+00         0.00000E+00        -0.21501E+04
 
   -0.10255E+05        -0.98484E+03         0.00000E+00
   -0.98484E+03         0.43883E+03         0.00000E+00
    0.00000E+00         0.00000E+00        -0.31329E+04
 
   -0.13332E+05        -0.31636E+03         0.00000E+00
   -0.31636E+03         0.72086E+03         0.00000E+00
    0.00000E+00         0.00000E+00        -0.40945E+04
 
   -0.15667E+05         0.10757E+04         0.00000E+00
    0.10757E+04         0.69425E+03         0.00000E+00
    0.00000E+00         0.00000E+00        -0.49240E+04
 
   -0.17003E+05         0.27494E+04         0.00000E+00
    0.27494E+04         0.25509E+03         0.00000E+00
    0.00000E+00         0.00000E+00        -0.55744E+04
 
   -0.17347E+05         0.43655E+04         0.00000E+00
    0.43655E+04        -0.26975E+03         0.00000E+00
    0.00000E+00         0.00000E+00        -0.59494E+04
 
   -0.16944E+05         0.57408E+04         0.00000E+00
    0.57408E+04        -0.95505E+03         0.00000E+00
    0.00000E+00         0.00000E+00        -0.62195E+04
 
   -0.16100E+05         0.68156E+04         0.00000E+00
    0.68156E+04        -0.19298E+04         0.00000E+00
    0.00000E+00         0.00000E+00        -0.65376E+04
 
   -0.15033E+05         0.77155E+04         0.00000E+00
    0.77155E+04        -0.28605E+04         0.00000E+00
    0.00000E+00         0.00000E+00        -0.66950E+04
 
   -0.13844E+05         0.83963E+04         0.00000E+00
    0.83963E+04        -0.37341E+04         0.00000E+00
    0.00000E+00         0.00000E+00        -0.66959E+04
 
   -0.12612E+05         0.88803E+04         0.00000E+00
    0.88803E+04        -0.45067E+04         0.00000E+00
    0.00000E+00         0.00000E+00        -0.65976E+04
 
   -0.11402E+05         0.92008E+04         0.00000E+00
    0.92008E+04        -0.51943E+04         0.00000E+00
    0.00000E+00         0.00000E+00        -0.64191E+04
 
   -0.10236E+05         0.94121E+04         0.00000E+00
    0.94121E+04        -0.58454E+04         0.00000E+00
    0.00000E+00         0.00000E+00        -0.62118E+04
 
   -0.91318E+04         0.93804E+04         0.00000E+00
    0.93804E+04        -0.65814E+04         0.00000E+00
    0.00000E+00         0.00000E+00        -0.61294E+04
 
   -0.81353E+04         0.91419E+04         0.00000E+00
    0.91419E+04        -0.73735E+04         0.00000E+00
    0.00000E+00         0.00000E+00        -0.61359E+04
 
   -0.73452E+04         0.87461E+04         0.00000E+00
    0.87461E+04        -0.82094E+04         0.00000E+00
    0.00000E+00         0.00000E+00        -0.62122E+04
 
   -0.67544E+04         0.82613E+04         0.00000E+00
    0.82613E+04        -0.88737E+04         0.00000E+00
    0.00000E+00         0.00000E+00        -0.62903E+04
 
   -0.63705E+04         0.77425E+04         0.00000E+00
    0.77425E+04        -0.93499E+04         0.00000E+00
    0.00000E+00         0.00000E+00        -0.63674E+04
 
   -0.61912E+04         0.72726E+04         0.00000E+00
    0.72726E+04        -0.96808E+04         0.00000E+00
    0.00000E+00         0.00000E+00        -0.64554E+04
 
   -0.61602E+04         0.68873E+04         0.00000E+00
    0.68873E+04        -0.98807E+04         0.00000E+00
    0.00000E+00         0.00000E+00        -0.65416E+04
 
   -0.62374E+04         0.66141E+04         0.00000E+00
    0.66141E+04        -0.99800E+04         0.00000E+00
    0.00000E+00         0.00000E+00        -0.66231E+04
 
   -0.63825E+04         0.64688E+04         0.00000E+00
    0.64688E+04        -0.10005E+05         0.00000E+00
    0.00000E+00         0.00000E+00        -0.66957E+04
 
   -0.65600E+04         0.64632E+04         0.00000E+00
    0.64632E+04        -0.99798E+04         0.00000E+00
    0.00000E+00         0.00000E+00        -0.67556E+04
 
   -0.67344E+04         0.66078E+04         0.00000E+00
    0.66078E+04        -0.99267E+04         0.00000E+00
    0.00000E+00         0.00000E+00        -0.67991E+04
 
   -0.78222E+04        -0.39753E+03         0.00000E+00
   -0.39753E+03         0.78950E+02         0.00000E+00
    0.00000E+00         0.00000E+00        -0.23848E+04
 
   -0.10097E+05        -0.62388E+03         0.00000E+00
   -0.62388E+03         0.35830E+03         0.00000E+00
    0.00000E+00         0.00000E+00        -0.31063E+04
 
   -0.12391E+05        -0.11636E+03         0.00000E+00
   -0.11636E+03         0.64532E+03         0.00000E+00
    0.00000E+00         0.00000E+00        -0.38294E+04
 
   -0.14260E+05         0.95399E+03         0.00000E+00
    0.95399E+03         0.73147E+03         0.00000E+00
    0.00000E+00         0.00000E+00        -0.44832E+04
 
   -0.15440E+05         0.23340E+04         0.00000E+00
    0.23340E+04         0.55059E+03         0.00000E+00
    0.00000E+00         0.00000E+00        -0.50079E+04
 
   -0.15884E+05         0.37526E+04         0.00000E+00
    0.37526E+04         0.96686E+02         0.00000E+00
    0.00000E+00         0.00000E+00        -0.53901E+04
 
   -0.15738E+05         0.49977E+04         0.00000E+00
    0.49977E+04        -0.51330E+03         0.00000E+00
    0.00000E+00         0.00000E+00        -0.56385E+04
 
   -0.15133E+05         0.60653E+04         0.00000E+00
    0.60653E+04        -0.10639E+04         0.00000E+00
    0.00000E+00         0.00000E+00        -0.57274E+04
 
   -0.14262E+05         0.69448E+04         0.00000E+00
    0.69448E+04        -0.17050E+04         0.00000E+00
    0.00000E+00         0.00000E+00        -0.57591E+04
 
   -0.13265E+05         0.76222E+04         0.00000E+00
    0.76222E+04        -0.24476E+04         0.00000E+00
    0.00000E+00         0.00000E+00        -0.57789E+04
 
   -0.12214E+05         0.81204E+04         0.00000E+00
    0.81204E+04        -0.32636E+04         0.00000E+00
    0.00000E+00         0.00000E+00        -0.57994E+04
 
   -0.11151E+05         0.84284E+04         0.00000E+00
    0.84284E+04        -0.41332E+04         0.00000E+00
    0.00000E+00         0.00000E+00        -0.58271E+04
 
   -0.10176E+05         0.85420E+04         0.00000E+00
    0.85420E+04        -0.50636E+04         0.00000E+00
    0.00000E+00         0.00000E+00        -0.58940E+04
 
   -0.92679E+04         0.85219E+04         0.00000E+00
    0.85219E+04        -0.59454E+04         0.00000E+00
    0.00000E+00         0.00000E+00        -0.59605E+04
 
   -0.84272E+04         0.83492E+04         0.00000E+00
    0.83492E+04        -0.67470E+04         0.00000E+00
    0.00000E+00         0.00000E+00        -0.60170E+04
 
   -0.77244E+04         0.80595E+04         0.00000E+00
    0.80595E+04        -0.74357E+04         0.00000E+00
    0.00000E+00         0.00000E+00        -0.60748E+04
 
   -0.71860E+04         0.77151E+04         0.00000E+00
    0.77151E+04        -0.80168E+04         0.00000E+00
    0.00000E+00         0.00000E+00        -0.61431E+04
 
   -0.68011E+04         0.73478E+04         0.00000E+00
    0.73478E+04        -0.84733E+04         0.00000E+00
    0.00000E+00         0.00000E+00        -0.62136E+04
 
   -0.65625E+04         0.70049E+04         0.00000E+00
    0.70049E+04        -0.88031E+04         0.00000E+00
    0.00000E+00         0.00000E+00        -0.62831E+04
 
   -0.64445E+04         0.67252E+04         0.00000E+00
    0.67252E+04        -0.90273E+04         0.00000E+00
    0.00000E+00         0.00000E+00        -0.63503E+04
 
   -0.64129E+04         0.65332E+04         0.00000E+00
    0.65332E+04        -0.91652E+04         0.00000E+00
    0.00000E+00         0.00000E+00        -0.64105E+04
 
   -0.64351E+04         0.64463E+04         0.00000E+00
    0.64463E+04        -0.92381E+04         0.00000E+00
    0.00000E+00         0.00000E+00        -0.64603E+04
 
   -0.64787E+04         0.64773E+04         0.00000E+00
    0.64773E+04        -0.92669E+04         0.00000E+00
    0.00000E+00         0.00000E+00        -0.64962E+04
 
   -0.65103E+04         0.66356E+04         0.00000E+00
    0.66356E+04        -0.92727E+04         0.00000E+00
    0.00000E+00         0.00000E+00        -0.65145E+04
 
   -0.82864E+04        -0.23172E+03         0.00000E+00
   -0.23172E+03         0.58204E+02         0.00000E+00
    0.00000E+00         0.00000E+00        -0.25291E+04
 
   -0.99393E+04        -0.32268E+03         0.00000E+00
   -0.32268E+03         0.27360E+03         0.00000E+00
    0.00000E+00         0.00000E+00        -0.30811E+04
 
   -0.11662E+05         0.98845E+02         0.00000E+00
    0.98845E+02         0.51707E+03         0.00000E+00
    0.00000E+00         0.00000E+00        -0.36439E+04
 
   -0.13130E+05         0.95116E+03         0.00000E+00
    0.95116E+03         0.63378E+03         0.00000E+00
    0.00000E+00         0.00000E+00        -0.41663E+04
 
   -0.14138E+05         0.20706E+04         0.00000E+00
    0.20706E+04         0.53515E+03         0.00000E+00
    0.00000E+00         0.00000E+00        -0.46129E+04
 
   -0.14619E+05         0.32732E+04         0.00000E+00
    0.32732E+04         0.21612E+03         0.00000E+00
    0.00000E+00         0.00000E+00        -0.49641E+04
 
   -0.14604E+05         0.44212E+04         0.00000E+00
    0.44212E+04        -0.26668E+03         0.00000E+00
    0.00000E+00         0.00000E+00        -0.52123E+04
 
   -0.14195E+05         0.54236E+04         0.00000E+00
    0.54236E+04        -0.87709E+03         0.00000E+00
    0.00000E+00         0.00000E+00        -0.53766E+04
 
   -0.13520E+05         0.62312E+04         0.00000E+00
    0.62312E+04        -0.15585E+04         0.00000E+00
    0.00000E+00         0.00000E+00        -0.54782E+04
 
   -0.12707E+05         0.68511E+04         0.00000E+00
    0.68511E+04        -0.22917E+04         0.00000E+00
    0.00000E+00         0.00000E+00        -0.55493E+04
 
   -0.11831E+05         0.72988E+04         0.00000E+00
    0.72988E+04        -0.30650E+04         0.00000E+00
    0.00000E+00         0.00000E+00        -0.56085E+04
 
   -0.10952E+05         0.75780E+04         0.00000E+00
    0.75780E+04        -0.38637E+04         0.00000E+00
    0.00000E+00         0.00000E+00        -0.56693E+04
 
   -0.10114E+05         0.77116E+04         0.00000E+00
    0.77116E+04        -0.46469E+04         0.00000E+00
    0.00000E+00         0.00000E+00        -0.57323E+04
 
   -0.93328E+04         0.77316E+04         0.00000E+00
    0.77316E+04        -0.54029E+04         0.00000E+00
    0.00000E+00         0.00000E+00        -0.57983E+04
 
   -0.86149E+04         0.76401E+04         0.00000E+00
    0.76401E+04        -0.61075E+04         0.00000E+00
    0.00000E+00         0.00000E+00        -0.58620E+04
 
   -0.79934E+04         0.74558E+04         0.00000E+00
    0.74558E+04        -0.67308E+04         0.00000E+00
    0.00000E+00         0.00000E+00        -0.59239E+04
 
   -0.74894E+04         0.72184E+04         0.00000E+00
    0.72184E+04        -0.72557E+04         0.00000E+00
    0.00000E+00         0.00000E+00        -0.59852E+04
 
   -0.71043E+04         0.69646E+04         0.00000E+00
    0.69646E+04        -0.76812E+04         0.00000E+00
    0.00000E+00         0.00000E+00        -0.60458E+04
 
   -0.68279E+04         0.67272E+04         0.00000E+00
    0.67272E+04        -0.80087E+04         0.00000E+00
    0.00000E+00         0.00000E+00        -0.61029E+04
 
   -0.66424E+04         0.65358E+04         0.00000E+00
    0.65358E+04        -0.82480E+04         0.00000E+00
    0.00000E+00         0.00000E+00        -0.61540E+04
 
   -0.65234E+04         0.64137E+04         0.00000E+00
    0.64137E+04        -0.84147E+04         0.00000E+00
    0.00000E+00         0.00000E+00        -0.61964E+04
 
   -0.64436E+04         0.63774E+04         0.00000E+00
    0.63774E+04        -0.85258E+04         0.00000E+00
    0.00000E+00         0.00000E+00        -0.62269E+04
 
   -0.63744E+04         0.64393E+04         0.00000E+00
    0.64393E+04        -0.85995E+04         0.00000E+00
    0.00000E+00         0.00000E+00        -0.62423E+04
 
   -0.62857E+04         0.66079E+04         0.00000E+00
    0.66079E+04        -0.86545E+04         0.00000E+00
    0.00000E+00         0.00000E+00        -0.62392E+04
 
   -0.85221E+04        -0.11160E+03         0.00000E+00
   -0.11160E+03         0.41039E+02         0.00000E+00
    0.00000E+00         0.00000E+00        -0.26039E+04
 
   -0.97575E+04        -0.91893E+02         0.00000E+00
   -0.91893E+02         0.19741E+03         0.00000E+00
    0.00000E+00         0.00000E+00        -0.30461E+04
 
   -0.11066E+05         0.28358E+03         0.00000E+00
    0.28358E+03         0.38351E+03         0.00000E+00
    0.00000E+00         0.00000E+00        -0.34999E+04
 
   -0.12220E+05         0.97837E+03         0.00000E+00
    0.97837E+03         0.48241E+03         0.00000E+00
    0.00000E+00         0.00000E+00        -0.39317E+04
 
   -0.13062E+05         0.18925E+04         0.00000E+00
    0.18925E+04         0.42116E+03         0.00000E+00
    0.00000E+00         0.00000E+00        -0.43152E+04
 
   -0.13516E+05         0.29037E+04         0.00000E+00
    0.29037E+04         0.17723E+03         0.00000E+00
    0.00000E+00         0.00000E+00        -0.46343E+04
 
   -0.13586E+05         0.38985E+04         0.00000E+00
    0.38985E+04        -0.23599E+03         0.00000E+00
    0.00000E+00         0.00000E+00        -0.48855E+04
 
   -0.13328E+05         0.47926E+04         0.00000E+00
    0.47926E+04        -0.78048E+03         0.00000E+00
    0.00000E+00         0.00000E+00        -0.50740E+04
 
   -0.12833E+05         0.55369E+04         0.00000E+00
    0.55369E+04        -0.14157E+04         0.00000E+00
    0.00000E+00         0.00000E+00        -0.52143E+04
 
   -0.12190E+05         0.61179E+04         0.00000E+00
    0.61179E+04        -0.21023E+04         0.00000E+00
    0.00000E+00         0.00000E+00        -0.53215E+04
 
   -0.11475E+05         0.65429E+04         0.00000E+00
    0.65429E+04        -0.28157E+04         0.00000E+00
    0.00000E+00         0.00000E+00        -0.54100E+04
 
   -0.10741E+05         0.68253E+04         0.00000E+00
    0.68253E+04        -0.35326E+04         0.00000E+00
    0.00000E+00         0.00000E+00        -0.54887E+04
 
   -0.10024E+05         0.69849E+04         0.00000E+00
    0.69849E+04        -0.42338E+04         0.00000E+00
    0.00000E+00         0.00000E+00        -0.55625E+04
 
   -0.93452E+04         0.70419E+04         0.00000E+00
    0.70419E+04        -0.49027E+04         0.00000E+00
    0.00000E+00         0.00000E+00        -0.56323E+04
 
   -0.87194E+04         0.70105E+04         0.00000E+00
    0.70105E+04        -0.55257E+04         0.00000E+00
    0.00000E+00         0.00000E+00        -0.56983E+04
 
   -0.81640E+04         0.69081E+04         0.00000E+00
    0.69081E+04        -0.60845E+04         0.00000E+00
    0.00000E+00         0.00000E+00        -0.57601E+04
 
   -0.76927E+04         0.67608E+04         0.00000E+00
    0.67608E+04        -0.65664E+04         0.00000E+00
    0.00000E+00         0.00000E+00        -0.58177E+04
 
   -0.73084E+04         0.65973E+04         0.00000E+00
    0.65973E+04        -0.69666E+04         0.00000E+00
    0.00000E+00         0.00000E+00        -0.58705E+04
 
   -0.70046E+04         0.64448E+04         0.00000E+00
    0.64448E+04        -0.72874E+04         0.00000E+00
    0.00000E+00         0.00000E+00        -0.59170E+04
 
   -0.67676E+04         0.63272E+04         0.00000E+00
    0.63272E+04        -0.75363E+04         0.00000E+00
    0.00000E+00         0.00000E+00        -0.59551E+04
 
   -0.65783E+04         0.62640E+04         0.00000E+00
    0.62640E+04        -0.77246E+04         0.00000E+00
    0.00000E+00         0.00000E+00        -0.59826E+04
 
   -0.64145E+04         0.62706E+04         0.00000E+00
    0.62706E+04        -0.78662E+04         0.00000E+00
    0.00000E+00         0.00000E+00        -0.59968E+04
 
   -0.62514E+04         0.63581E+04         0.00000E+00
    0.63581E+04        -0.79766E+04         0.00000E+00
    0.00000E+00         0.00000E+00        -0.59950E+04
 
   -0.60627E+04         0.65340E+04         0.00000E+00
    0.65340E+04        -0.80725E+04         0.00000E+00
    0.00000E+00         0.00000E+00        -0.59741E+04
 
   -0.85922E+04        -0.28509E+02         0.00000E+00
   -0.28509E+02         0.27649E+02         0.00000E+00
    0.00000E+00         0.00000E+00        -0.26278E+04
 
   -0.95478E+04         0.73330E+02         0.00000E+00
    0.73330E+02         0.13486E+03         0.00000E+00
    0.00000E+00         0.00000E+00        -0.29987E+04
 
   -0.10561E+05         0.42085E+03         0.00000E+00
    0.42085E+03         0.26440E+03         0.00000E+00
    0.00000E+00         0.00000E+00        -0.33789E+04
 
   -0.11475E+05         0.10019E+04         0.00000E+00
    0.10019E+04         0.33224E+03         0.00000E+00
    0.00000E+00         0.00000E+00        -0.37459E+04
 
   -0.12171E+05         0.17562E+04         0.00000E+00
    0.17562E+04         0.27894E+03         0.00000E+00
    0.00000E+00         0.00000E+00        -0.40813E+04
 
   -0.12583E+05         0.25999E+04         0.00000E+00
    0.25999E+04         0.77047E+02         0.00000E+00
    0.00000E+00         0.00000E+00        -0.43734E+04
 
   -0.12699E+05         0.34481E+04         0.00000E+00
    0.34481E+04        -0.27095E+03         0.00000E+00
    0.00000E+00         0.00000E+00        -0.46174E+04
 
   -0.12551E+05         0.42315E+04         0.00000E+00
    0.42315E+04        -0.74231E+03         0.00000E+00
    0.00000E+00         0.00000E+00        -0.48155E+04
 
   -0.12196E+05         0.49047E+04         0.00000E+00
    0.49047E+04        -0.13029E+04         0.00000E+00
    0.00000E+00         0.00000E+00        -0.49744E+04
 
   -0.11701E+05         0.54477E+04         0.00000E+00
    0.54477E+04        -0.19188E+04         0.00000E+00
    0.00000E+00         0.00000E+00        -0.51032E+04
 
   -0.11125E+05         0.58595E+04         0.00000E+00
    0.58595E+04        -0.25603E+04         0.00000E+00
    0.00000E+00         0.00000E+00        -0.52107E+04
 
   -0.10514E+05         0.61498E+04         0.00000E+00
    0.61498E+04        -0.32049E+04         0.00000E+00
    0.00000E+00         0.00000E+00        -0.53036E+04
 
   -0.99023E+04         0.63339E+04         0.00000E+00
    0.63339E+04        -0.38340E+04         0.00000E+00
    0.00000E+00         0.00000E+00        -0.53863E+04
 
   -0.93120E+04         0.64281E+04         0.00000E+00
    0.64281E+04        -0.44340E+04         0.00000E+00
    0.00000E+00         0.00000E+00        -0.54612E+04
 
   -0.87591E+04         0.64479E+04         0.00000E+00
    0.64479E+04        -0.49924E+04         0.00000E+00
    0.00000E+00         0.00000E+00        -0.55290E+04
 
   -0.82567E+04         0.64102E+04         0.00000E+00
    0.64102E+04        -0.54979E+04         0.00000E+00
    0.00000E+00         0.00000E+00        -0.55900E+04
 
   -0.78137E+04         0.63352E+04         0.00000E+00
    0.63352E+04        -0.59415E+04         0.00000E+00
    0.00000E+00         0.00000E+00        -0.56440E+04
 
   -0.74326E+04         0.62452E+04         0.00000E+00
    0.62452E+04        -0.63193E+04         0.00000E+00
    0.00000E+00         0.00000E+00        -0.56904E+04
 
   -0.71088E+04         0.61619E+04         0.00000E+00
    0.61619E+04        -0.66325E+04         0.00000E+00
    0.00000E+00         0.00000E+00        -0.57281E+04
 
   -0.68318E+04         0.61050E+04         0.00000E+00
    0.61050E+04        -0.68867E+04         0.00000E+00
    0.00000E+00         0.00000E+00        -0.57555E+04
 
   -0.65864E+04         0.60910E+04         0.00000E+00
    0.60910E+04        -0.70909E+04         0.00000E+00
    0.00000E+00         0.00000E+00        -0.57707E+04
 
   -0.63541E+04         0.61332E+04         0.00000E+00
    0.61332E+04        -0.72566E+04         0.00000E+00
    0.00000E+00         0.00000E+00        -0.57713E+04
 
   -0.61138E+04         0.62414E+04         0.00000E+00
    0.62414E+04        -0.73969E+04         0.00000E+00
    0.00000E+00         0.00000E+00        -0.57551E+04
 
   -0.58427E+04         0.64219E+04         0.00000E+00
    0.64219E+04        -0.75261E+04         0.00000E+00
    0.00000E+00         0.00000E+00        -0.57195E+04
 
   -0.85487E+04         0.26174E+02         0.00000E+00
    0.26174E+02         0.17664E+02         0.00000E+00
    0.00000E+00         0.00000E+00        -0.26167E+04
 
   -0.93162E+04         0.18359E+03         0.00000E+00
    0.18359E+03         0.86405E+02         0.00000E+00
    0.00000E+00         0.00000E+00        -0.29405E+04
 
   -0.10120E+05         0.51107E+03         0.00000E+00
    0.51107E+03         0.16807E+03         0.00000E+00
    0.00000E+00         0.00000E+00        -0.32702E+04
 
   -0.10854E+05         0.10080E+04         0.00000E+00
    0.10080E+04         0.20320E+03         0.00000E+00
    0.00000E+00         0.00000E+00        -0.35909E+04
 
   -0.11430E+05         0.16380E+04         0.00000E+00
    0.16380E+04         0.14578E+03         0.00000E+00
    0.00000E+00         0.00000E+00        -0.38899E+04
 
   -0.11796E+05         0.23442E+04         0.00000E+00
    0.23442E+04        -0.29208E+02         0.00000E+00
    0.00000E+00         0.00000E+00        -0.41584E+04
 
   -0.11935E+05         0.30650E+04         0.00000E+00
    0.30650E+04        -0.32523E+03         0.00000E+00
    0.00000E+00         0.00000E+00        -0.43920E+04
 
   -0.11862E+05         0.37461E+04         0.00000E+00
    0.37461E+04        -0.72827E+03         0.00000E+00
    0.00000E+00         0.00000E+00        -0.45906E+04
 
   -0.11615E+05         0.43487E+04         0.00000E+00
    0.43487E+04        -0.12139E+04         0.00000E+00
    0.00000E+00         0.00000E+00        -0.47576E+04
 
   -0.11238E+05         0.48516E+04         0.00000E+00
    0.48516E+04        -0.17539E+04         0.00000E+00
    0.00000E+00         0.00000E+00        -0.48978E+04
 
   -0.10777E+05         0.52486E+04         0.00000E+00
    0.52486E+04        -0.23223E+04         0.00000E+00
    0.00000E+00         0.00000E+00        -0.50169E+04
 
   -0.10272E+05         0.55444E+04         0.00000E+00
    0.55444E+04        -0.28970E+04         0.00000E+00
    0.00000E+00         0.00000E+00        -0.51194E+04
 
   -0.97512E+04         0.57492E+04         0.00000E+00
    0.57492E+04        -0.34609E+04         0.00000E+00
    0.00000E+00         0.00000E+00        -0.52089E+04
 
   -0.92373E+04         0.58763E+04         0.00000E+00
    0.58763E+04        -0.40005E+04         0.00000E+00
    0.00000E+00         0.00000E+00        -0.52876E+04
 
   -0.87455E+04         0.59398E+04         0.00000E+00
    0.59398E+04        -0.45050E+04         0.00000E+00
    0.00000E+00         0.00000E+00        -0.53566E+04
 
   -0.82869E+04         0.59549E+04         0.00000E+00
    0.59549E+04        -0.49656E+04         0.00000E+00
    0.00000E+00         0.00000E+00        -0.54166E+04
 
   -0.78685E+04         0.59382E+04         0.00000E+00
    0.59382E+04        -0.53759E+04         0.00000E+00
    0.00000E+00         0.00000E+00        -0.54673E+04
 
   -0.74919E+04         0.59077E+04         0.00000E+00
    0.59077E+04        -0.57330E+04         0.00000E+00
    0.00000E+00         0.00000E+00        -0.55083E+04
 
   -0.71537E+04         0.58808E+04         0.00000E+00
    0.58808E+04        -0.60377E+04         0.00000E+00
    0.00000E+00         0.00000E+00        -0.55387E+04
 
   -0.68458E+04         0.58737E+04         0.00000E+00
    0.58737E+04        -0.62943E+04         0.00000E+00
    0.00000E+00         0.00000E+00        -0.55572E+04
 
   -0.65558E+04         0.59001E+04         0.00000E+00
    0.59001E+04        -0.65101E+04         0.00000E+00
    0.00000E+00         0.00000E+00        -0.55620E+04
 
   -0.62682E+04         0.59714E+04         0.00000E+00
    0.59714E+04        -0.66945E+04         0.00000E+00
    0.00000E+00         0.00000E+00        -0.55515E+04
 
   -0.59652E+04         0.60958E+04         0.00000E+00
    0.60958E+04        -0.68586E+04         0.00000E+00
    0.00000E+00         0.00000E+00        -0.55235E+04
 
   -0.56271E+04         0.62786E+04         0.00000E+00
    0.62786E+04        -0.70149E+04         0.00000E+00
    0.00000E+00         0.00000E+00        -0.54757E+04
 
   -0.84320E+04         0.59926E+02         0.00000E+00
    0.59926E+02         0.10477E+02         0.00000E+00
    0.00000E+00         0.00000E+00        -0.25827E+04
 
   -0.90716E+04         0.25103E+03         0.00000E+00
    0.25103E+03         0.50653E+02         0.00000E+00
    0.00000E+00         0.00000E+00        -0.28746E+04
 
   -0.97274E+04         0.56105E+03         0.00000E+00
    0.56105E+03         0.94791E+02         0.00000E+00
    0.00000E+00         0.00000E+00        -0.31689E+04
 
   -0.10327E+05         0.99382E+03         0.00000E+00
    0.99382E+03         0.10159E+03         0.00000E+00
    0.00000E+00         0.00000E+00        -0.34559E+04
 
   -0.10809E+05         0.15275E+04         0.00000E+00
    0.15275E+04         0.36799E+02         0.00000E+00
    0.00000E+00         0.00000E+00        -0.37269E+04
 
   -0.11132E+05         0.21237E+04         0.00000E+00
    0.21237E+04        -0.12041E+03         0.00000E+00
    0.00000E+00         0.00000E+00        -0.39753E+04
 
   -0.11279E+05         0.27382E+04         0.00000E+00
    0.27382E+04        -0.37555E+03         0.00000E+00
    0.00000E+00         0.00000E+00        -0.41974E+04
 
   -0.11257E+05         0.33299E+04         0.00000E+00
    0.33299E+04        -0.72071E+03         0.00000E+00
    0.00000E+00         0.00000E+00        -0.43922E+04
 
   -0.11087E+05         0.38667E+04         0.00000E+00
    0.38667E+04        -0.11387E+04         0.00000E+00
    0.00000E+00         0.00000E+00        -0.45608E+04
 
   -0.10802E+05         0.43289E+04         0.00000E+00
    0.43289E+04        -0.16081E+04         0.00000E+00
    0.00000E+00         0.00000E+00        -0.47061E+04
 
   -0.10436E+05         0.47079E+04         0.00000E+00
    0.47079E+04        -0.21071E+04         0.00000E+00
    0.00000E+00         0.00000E+00        -0.48313E+04
 
   -0.10018E+05         0.50043E+04         0.00000E+00
    0.50043E+04        -0.26163E+04         0.00000E+00
    0.00000E+00         0.00000E+00        -0.49394E+04
 
   -0.95758E+04         0.52246E+04         0.00000E+00
    0.52246E+04        -0.31198E+04         0.00000E+00
    0.00000E+00         0.00000E+00        -0.50331E+04
 
   -0.91275E+04         0.53786E+04         0.00000E+00
    0.53786E+04        -0.36051E+04         0.00000E+00
    0.00000E+00         0.00000E+00        -0.51142E+04
 
   -0.86877E+04         0.54782E+04         0.00000E+00
    0.54782E+04        -0.40622E+04         0.00000E+00
    0.00000E+00         0.00000E+00        -0.51839E+04
 
   -0.82665E+04         0.55362E+04         0.00000E+00
    0.55362E+04        -0.44838E+04         0.00000E+00
    0.00000E+00         0.00000E+00        -0.52425E+04
 
   -0.78695E+04         0.55668E+04         0.00000E+00
    0.55668E+04        -0.48646E+04         0.00000E+00
    0.00000E+00         0.00000E+00        -0.52901E+04
 
   -0.74984E+04         0.55844E+04         0.00000E+00
    0.55844E+04        -0.52026E+04         0.00000E+00
    0.00000E+00         0.00000E+00        -0.53264E+04
 
   -0.71503E+04         0.56032E+04         0.00000E+00
    0.56032E+04        -0.54982E+04         0.00000E+00
    0.00000E+00         0.00000E+00        -0.53506E+04
 
   -0.68188E+04         0.56366E+04         0.00000E+00
    0.56366E+04        -0.57549E+04         0.00000E+00
    0.00000E+00         0.00000E+00        -0.53616E+04
 
   -0.64936E+04         0.56959E+04         0.00000E+00
    0.56959E+04        -0.59787E+04         0.00000E+00
    0.00000E+00         0.00000E+00        -0.53580E+04
 
   -0.61619E+04         0.57904E+04         0.00000E+00
    0.57904E+04        -0.61773E+04         0.00000E+00
    0.00000E+00         0.00000E+00        -0.53382E+04
 
   -0.58086E+04         0.59272E+04         0.00000E+00
    0.59272E+04        -0.63602E+04         0.00000E+00
    0.00000E+00         0.00000E+00        -0.53006E+04
 
   -0.54169E+04         0.61104E+04         0.00000E+00
    0.61104E+04        -0.65380E+04         0.00000E+00
    0.00000E+00         0.00000E+00        -0.52431E+04
 
   -0.82723E+04         0.78823E+02         0.00000E+00
    0.78823E+02         0.54820E+01         0.00000E+00
    0.00000E+00         0.00000E+00        -0.25352E+04
 
   -0.88228E+04         0.28680E+03         0.00000E+00
    0.28680E+03         0.25291E+02         0.00000E+00
    0.00000E+00         0.00000E+00        -0.28042E+04
 
   -0.93724E+04         0.57956E+03         0.00000E+00
    0.57956E+03         0.41715E+02         0.00000E+00
    0.00000E+00         0.00000E+00        -0.30728E+04
 
   -0.98732E+04         0.96188E+03         0.00000E+00
    0.96188E+03         0.26530E+02         0.00000E+00
    0.00000E+00         0.00000E+00        -0.33347E+04
 
   -0.10282E+05         0.14204E+04         0.00000E+00
    0.14204E+04        -0.45118E+02         0.00000E+00
    0.00000E+00         0.00000E+00        -0.35838E+04
 
   -0.10567E+05         0.19293E+04         0.00000E+00
    0.19293E+04        -0.18960E+03         0.00000E+00
    0.00000E+00         0.00000E+00        -0.38152E+04
 
   -0.10714E+05         0.24570E+04         0.00000E+00
    0.24570E+04        -0.41272E+03         0.00000E+00
    0.00000E+00         0.00000E+00        -0.40259E+04
 
   -0.10724E+05         0.29725E+04         0.00000E+00
    0.29725E+04        -0.71030E+03         0.00000E+00
    0.00000E+00         0.00000E+00        -0.42146E+04
 
   -0.10611E+05         0.34505E+04         0.00000E+00
    0.34505E+04        -0.10706E+04         0.00000E+00
    0.00000E+00         0.00000E+00        -0.43813E+04
 
   -0.10396E+05         0.38734E+04         0.00000E+00
    0.38734E+04        -0.14776E+04         0.00000E+00
    0.00000E+00         0.00000E+00        -0.45275E+04
 
   -0.10104E+05         0.42321E+04         0.00000E+00
    0.42321E+04        -0.19139E+04         0.00000E+00
    0.00000E+00         0.00000E+00        -0.46549E+04
 
   -0.97591E+04         0.45248E+04         0.00000E+00
    0.45248E+04        -0.23634E+04         0.00000E+00
    0.00000E+00         0.00000E+00        -0.47656E+04
 
   -0.93819E+04         0.47549E+04         0.00000E+00
    0.47549E+04        -0.28119E+04         0.00000E+00
    0.00000E+00         0.00000E+00        -0.48613E+04
 
   -0.89894E+04         0.49294E+04         0.00000E+00
    0.49294E+04        -0.32479E+04         0.00000E+00
    0.00000E+00         0.00000E+00        -0.49434E+04
 
   -0.85942E+04         0.50576E+04         0.00000E+00
    0.50576E+04        -0.36626E+04         0.00000E+00
    0.00000E+00         0.00000E+00        -0.50127E+04
 
   -0.82052E+04         0.51501E+04         0.00000E+00
    0.51501E+04        -0.40492E+04         0.00000E+00
    0.00000E+00         0.00000E+00        -0.50697E+04
 
   -0.78274E+04         0.52186E+04         0.00000E+00
    0.52186E+04        -0.44035E+04         0.00000E+00
    0.00000E+00         0.00000E+00        -0.51144E+04
 
   -0.74623E+04         0.52749E+04         0.00000E+00
    0.52749E+04        -0.47234E+04         0.00000E+00
    0.00000E+00         0.00000E+00        -0.51465E+04
 
   -0.71078E+04         0.53306E+04         0.00000E+00
    0.53306E+04        -0.50096E+04         0.00000E+00
    0.00000E+00         0.00000E+00        -0.51653E+04
 
   -0.67585E+04         0.53964E+04         0.00000E+00
    0.53964E+04        -0.52646E+04         0.00000E+00
    0.00000E+00         0.00000E+00        -0.51700E+04
 
   -0.64061E+04         0.54820E+04         0.00000E+00
    0.54820E+04        -0.54934E+04         0.00000E+00
    0.00000E+00         0.00000E+00        -0.51594E+04
 
   -0.60398E+04         0.55948E+04         0.00000E+00
    0.55948E+04        -0.57024E+04         0.00000E+00
    0.00000E+00         0.00000E+00        -0.51322E+04
 
   -0.56469E+04         0.57405E+04         0.00000E+00
    0.57405E+04        -0.58997E+04         0.00000E+00
    0.00000E+00         0.00000E+00        -0.50868E+04
 
   -0.52129E+04         0.59225E+04         0.00000E+00
    0.59225E+04        -0.60942E+04         0.00000E+00
    0.00000E+00         0.00000E+00        -0.50216E+04
 
   -0.80907E+04         0.87526E+02         0.00000E+00
    0.87526E+02         0.21229E+01         0.00000E+00
    0.00000E+00         0.00000E+00        -0.24806E+04
 
   -0.85769E+04         0.30014E+03         0.00000E+00
    0.30014E+03         0.79733E+01         0.00000E+00
    0.00000E+00         0.00000E+00        -0.27322E+04
 
   -0.90494E+04         0.57507E+03         0.00000E+00
    0.57507E+03         0.49783E+01         0.00000E+00
    0.00000E+00         0.00000E+00        -0.29814E+04
 
   -0.94764E+04         0.91636E+03         0.00000E+00
    0.91636E+03        -0.25907E+02         0.00000E+00
    0.00000E+00         0.00000E+00        -0.32238E+04
 
   -0.98279E+04         0.13156E+04         0.00000E+00
    0.13156E+04        -0.10235E+03         0.00000E+00
    0.00000E+00         0.00000E+00        -0.34553E+04
 
   -0.10081E+05         0.17551E+04         0.00000E+00
    0.17551E+04        -0.23677E+03         0.00000E+00
    0.00000E+00         0.00000E+00        -0.36723E+04
 
   -0.10223E+05         0.22123E+04         0.00000E+00
    0.22123E+04        -0.43440E+03         0.00000E+00
    0.00000E+00         0.00000E+00        -0.38722E+04
 
   -0.10254E+05         0.26641E+04         0.00000E+00
    0.26641E+04        -0.69320E+03         0.00000E+00
    0.00000E+00         0.00000E+00        -0.40537E+04
 
   -0.10181E+05         0.30905E+04         0.00000E+00
    0.30905E+04        -0.10052E+04         0.00000E+00
    0.00000E+00         0.00000E+00        -0.42164E+04
 
   -0.10019E+05         0.34769E+04         0.00000E+00
    0.34769E+04        -0.13587E+04         0.00000E+00
    0.00000E+00         0.00000E+00        -0.43609E+04
 
   -0.97853E+04         0.38145E+04         0.00000E+00
    0.38145E+04        -0.17403E+04         0.00000E+00
    0.00000E+00         0.00000E+00        -0.44880E+04
 
   -0.94986E+04         0.41000E+04         0.00000E+00
    0.41000E+04        -0.21365E+04         0.00000E+00
    0.00000E+00         0.00000E+00        -0.45989E+04
 
   -0.91753E+04         0.43349E+04         0.00000E+00
    0.43349E+04        -0.25356E+04         0.00000E+00
    0.00000E+00         0.00000E+00        -0.46948E+04
 
   -0.88297E+04         0.45239E+04         0.00000E+00
    0.45239E+04        -0.29272E+04         0.00000E+00
    0.00000E+00         0.00000E+00        -0.47766E+04
 
   -0.84724E+04         0.46739E+04         0.00000E+00
    0.46739E+04        -0.33036E+04         0.00000E+00
    0.00000E+00         0.00000E+00        -0.48448E+04
 
   -0.81113E+04         0.47935E+04         0.00000E+00
    0.47935E+04        -0.36586E+04         0.00000E+00
    0.00000E+00         0.00000E+00        -0.48999E+04
 
   -0.77507E+04         0.48919E+04         0.00000E+00
    0.48919E+04        -0.39885E+04         0.00000E+00
    0.00000E+00         0.00000E+00        -0.49417E+04
 
   -0.73922E+04         0.49788E+04         0.00000E+00
    0.49788E+04        -0.42915E+04         0.00000E+00
    0.00000E+00         0.00000E+00        -0.49700E+04
 
   -0.70340E+04         0.50638E+04         0.00000E+00
    0.50638E+04        -0.45678E+04         0.00000E+00
    0.00000E+00         0.00000E+00        -0.49842E+04
 
   -0.66718E+04         0.51554E+04         0.00000E+00
    0.51554E+04        -0.48197E+04         0.00000E+00
    0.00000E+00         0.00000E+00        -0.49837E+04
 
   -0.62988E+04         0.52615E+04         0.00000E+00
    0.52615E+04        -0.50511E+04         0.00000E+00
    0.00000E+00         0.00000E+00        -0.49673E+04
 
   -0.59059E+04         0.53883E+04         0.00000E+00
    0.53883E+04        -0.52675E+04         0.00000E+00
    0.00000E+00         0.00000E+00        -0.49340E+04
 
   -0.54823E+04         0.55400E+04         0.00000E+00
    0.55400E+04        -0.54754E+04         0.00000E+00
    0.00000E+00         0.00000E+00        -0.48824E+04
 
   -0.50160E+04         0.57193E+04         0.00000E+00
    0.57193E+04        -0.56825E+04         0.00000E+00
    0.00000E+00         0.00000E+00        -0.48112E+04
 
   -0.79021E+04         0.89479E+02         0.00000E+00
    0.89479E+02        -0.51991E-01         0.00000E+00
    0.00000E+00         0.00000E+00        -0.24235E+04
 
   -0.83396E+04         0.29831E+03         0.00000E+00
    0.29831E+03        -0.33618E+01         0.00000E+00
    0.00000E+00         0.00000E+00        -0.26610E+04
 
   -0.87544E+04         0.55478E+03         0.00000E+00
    0.55478E+03        -0.19229E+02         0.00000E+00
    0.00000E+00         0.00000E+00        -0.28946E+04
 
   -0.91258E+04         0.86165E+03         0.00000E+00
    0.86165E+03        -0.60382E+02         0.00000E+00
    0.00000E+00         0.00000E+00        -0.31214E+04
 
   -0.94329E+04         0.12132E+04         0.00000E+00
    0.12132E+04        -0.13919E+03         0.00000E+00
    0.00000E+00         0.00000E+00        -0.33382E+04
 
   -0.96591E+04         0.15971E+04         0.00000E+00
    0.15971E+04        -0.26483E+03         0.00000E+00
    0.00000E+00         0.00000E+00        -0.35426E+04
 
   -0.97948E+04         0.19970E+04         0.00000E+00
    0.19970E+04        -0.44162E+03         0.00000E+00
    0.00000E+00         0.00000E+00        -0.37324E+04
 
   -0.98379E+04         0.23958E+04         0.00000E+00
    0.23958E+04        -0.66869E+03         0.00000E+00
    0.00000E+00         0.00000E+00        -0.39065E+04
 
   -0.97930E+04         0.27779E+04         0.00000E+00
    0.27779E+04        -0.94067E+03         0.00000E+00
    0.00000E+00         0.00000E+00        -0.40640E+04
 
   -0.96699E+04         0.31311E+04         0.00000E+00
    0.31311E+04        -0.12490E+04         0.00000E+00
    0.00000E+00         0.00000E+00        -0.42051E+04
 
   -0.94812E+04         0.34476E+04         0.00000E+00
    0.34476E+04        -0.15833E+04         0.00000E+00
    0.00000E+00         0.00000E+00        -0.43302E+04
 
   -0.92407E+04         0.37237E+04         0.00000E+00
    0.37237E+04        -0.19331E+04         0.00000E+00
    0.00000E+00         0.00000E+00        -0.44398E+04
 
   -0.89613E+04         0.39594E+04         0.00000E+00
    0.39594E+04        -0.22883E+04         0.00000E+00
    0.00000E+00         0.00000E+00        -0.45345E+04
 
   -0.86544E+04         0.41577E+04         0.00000E+00
    0.41577E+04        -0.26403E+04         0.00000E+00
    0.00000E+00         0.00000E+00        -0.46149E+04
 
   -0.83291E+04         0.43235E+04         0.00000E+00
    0.43235E+04        -0.29821E+04         0.00000E+00
    0.00000E+00         0.00000E+00        -0.46814E+04
 
   -0.79920E+04         0.44635E+04         0.00000E+00
    0.44635E+04        -0.33085E+04         0.00000E+00
    0.00000E+00         0.00000E+00        -0.47342E+04
 
   -0.76469E+04         0.45851E+04         0.00000E+00
    0.45851E+04        -0.36160E+04         0.00000E+00
    0.00000E+00         0.00000E+00        -0.47732E+04
 
   -0.72952E+04         0.46960E+04         0.00000E+00
    0.46960E+04        -0.39029E+04         0.00000E+00
    0.00000E+00         0.00000E+00        -0.47980E+04
 
   -0.69355E+04         0.48037E+04         0.00000E+00
    0.48037E+04        -0.41693E+04         0.00000E+00
    0.00000E+00         0.00000E+00        -0.48083E+04
 
   -0.65645E+04         0.49154E+04         0.00000E+00
    0.49154E+04        -0.44168E+04         0.00000E+00
    0.00000E+00         0.00000E+00        -0.48032E+04
 
   -0.61762E+04         0.50372E+04         0.00000E+00
    0.50372E+04        -0.46489E+04         0.00000E+00
    0.00000E+00         0.00000E+00        -0.47821E+04
 
   -0.57634E+04         0.51740E+04         0.00000E+00
    0.51740E+04        -0.48698E+04         0.00000E+00
    0.00000E+00         0.00000E+00        -0.47439E+04
 
   -0.53169E+04         0.53293E+04         0.00000E+00
    0.53293E+04        -0.50853E+04         0.00000E+00
    0.00000E+00         0.00000E+00        -0.46875E+04
 
   -0.48265E+04         0.55048E+04         0.00000E+00
    0.55048E+04        -0.53017E+04         0.00000E+00
    0.00000E+00         0.00000E+00        -0.46118E+04
 
   -0.77159E+04         0.87155E+02         0.00000E+00
    0.87155E+02        -0.13918E+01         0.00000E+00
    0.00000E+00         0.00000E+00        -0.23669E+04
 
   -0.81145E+04         0.28672E+03         0.00000E+00
    0.28672E+03        -0.10386E+02         0.00000E+00
    0.00000E+00         0.00000E+00        -0.25922E+04
 
   -0.84848E+04         0.52442E+03         0.00000E+00
    0.52442E+03        -0.34192E+02         0.00000E+00
    0.00000E+00         0.00000E+00        -0.28126E+04
 
   -0.88132E+04         0.80161E+03         0.00000E+00
    0.80161E+03        -0.81274E+02         0.00000E+00
    0.00000E+00         0.00000E+00        -0.30261E+04
 
   -0.90852E+04         0.11141E+04         0.00000E+00
    0.11141E+04        -0.16020E+03         0.00000E+00
    0.00000E+00         0.00000E+00        -0.32305E+04
 
   -0.92889E+04         0.14529E+04         0.00000E+00
    0.14529E+04        -0.27759E+03         0.00000E+00
    0.00000E+00         0.00000E+00        -0.34238E+04
 
   -0.94170E+04         0.18060E+04         0.00000E+00
    0.18060E+04        -0.43683E+03         0.00000E+00
    0.00000E+00         0.00000E+00        -0.36042E+04
 
   -0.94669E+04         0.21607E+04         0.00000E+00
    0.21607E+04        -0.63763E+03         0.00000E+00
    0.00000E+00         0.00000E+00        -0.37707E+04
 
   -0.94414E+04         0.25048E+04         0.00000E+00
    0.25048E+04        -0.87632E+03         0.00000E+00
    0.00000E+00         0.00000E+00        -0.39225E+04
 
   -0.93469E+04         0.28284E+04         0.00000E+00
    0.28284E+04        -0.11466E+04         0.00000E+00
    0.00000E+00         0.00000E+00        -0.40593E+04
 
   -0.91924E+04         0.31247E+04         0.00000E+00
    0.31247E+04        -0.14407E+04         0.00000E+00
    0.00000E+00         0.00000E+00        -0.41811E+04
 
   -0.89881E+04         0.33900E+04         0.00000E+00
    0.33900E+04        -0.17503E+04         0.00000E+00
    0.00000E+00         0.00000E+00        -0.42882E+04
 
   -0.87438E+04         0.36234E+04         0.00000E+00
    0.36234E+04        -0.20671E+04         0.00000E+00
    0.00000E+00         0.00000E+00        -0.43808E+04
 
   -0.84688E+04         0.38266E+04         0.00000E+00
    0.38266E+04        -0.23840E+04         0.00000E+00
    0.00000E+00         0.00000E+00        -0.44591E+04
 
   -0.81703E+04         0.40032E+04         0.00000E+00
    0.40032E+04        -0.26950E+04         0.00000E+00
    0.00000E+00         0.00000E+00        -0.45234E+04
 
   -0.78537E+04         0.41581E+04         0.00000E+00
    0.41581E+04        -0.29955E+04         0.00000E+00
    0.00000E+00         0.00000E+00        -0.45737E+04
 
   -0.75224E+04         0.42969E+04         0.00000E+00
    0.42969E+04        -0.32823E+04         0.00000E+00
    0.00000E+00         0.00000E+00        -0.46098E+04
 
   -0.71775E+04         0.44258E+04         0.00000E+00
    0.44258E+04        -0.35539E+04         0.00000E+00
    0.00000E+00         0.00000E+00        -0.46314E+04
 
   -0.68182E+04         0.45509E+04         0.00000E+00
    0.45509E+04        -0.38103E+04         0.00000E+00
    0.00000E+00         0.00000E+00        -0.46382E+04
 
   -0.64414E+04         0.46776E+04         0.00000E+00
    0.46776E+04        -0.40527E+04         0.00000E+00
    0.00000E+00         0.00000E+00        -0.46294E+04
 
   -0.60425E+04         0.48110E+04         0.00000E+00
    0.48110E+04        -0.42837E+04         0.00000E+00
    0.00000E+00         0.00000E+00        -0.46044E+04
 
   -0.56154E+04         0.49548E+04         0.00000E+00
    0.49548E+04        -0.45071E+04         0.00000E+00
    0.00000E+00         0.00000E+00        -0.45624E+04
 
   -0.51523E+04         0.51115E+04         0.00000E+00
    0.51115E+04        -0.47275E+04         0.00000E+00
    0.00000E+00         0.00000E+00        -0.45023E+04
 
   -0.46448E+04         0.52822E+04         0.00000E+00
    0.52822E+04        -0.49502E+04         0.00000E+00
    0.00000E+00         0.00000E+00        -0.44233E+04
 
   -0.75383E+04         0.82282E+02         0.00000E+00
    0.82282E+02        -0.21563E+01         0.00000E+00
    0.00000E+00         0.00000E+00        -0.23126E+04
 
   -0.79040E+04         0.26931E+03         0.00000E+00
    0.26931E+03        -0.14386E+02         0.00000E+00
    0.00000E+00         0.00000E+00        -0.25268E+04
 
   -0.82385E+04         0.48829E+03         0.00000E+00
    0.48829E+03        -0.42549E+02         0.00000E+00
    0.00000E+00         0.00000E+00        -0.27356E+04
 
   -0.85326E+04         0.73939E+03         0.00000E+00
    0.73939E+03        -0.92278E+02         0.00000E+00
    0.00000E+00         0.00000E+00        -0.29375E+04
 
   -0.87763E+04         0.10191E+04         0.00000E+00
    0.10191E+04        -0.16947E+03         0.00000E+00
    0.00000E+00         0.00000E+00        -0.31309E+04
 
   -0.89610E+04         0.13208E+04         0.00000E+00
    0.13208E+04        -0.27882E+03         0.00000E+00
    0.00000E+00         0.00000E+00        -0.33141E+04
 
   -0.90810E+04         0.16354E+04         0.00000E+00
    0.16354E+04        -0.42290E+03         0.00000E+00
    0.00000E+00         0.00000E+00        -0.34858E+04
 
   -0.91341E+04         0.19531E+04         0.00000E+00
    0.19531E+04        -0.60163E+03         0.00000E+00
    0.00000E+00         0.00000E+00        -0.36449E+04
 
   -0.91216E+04         0.22647E+04         0.00000E+00
    0.22647E+04        -0.81247E+03         0.00000E+00
    0.00000E+00         0.00000E+00        -0.37906E+04
 
   -0.90478E+04         0.25620E+04         0.00000E+00
    0.25620E+04        -0.10508E+04         0.00000E+00
    0.00000E+00         0.00000E+00        -0.39225E+04
 
   -0.89190E+04         0.28393E+04         0.00000E+00
    0.28393E+04        -0.13108E+04         0.00000E+00
    0.00000E+00         0.00000E+00        -0.40404E+04
 
   -0.87427E+04         0.30931E+04         0.00000E+00
    0.30931E+04        -0.15858E+04         0.00000E+00
    0.00000E+00         0.00000E+00        -0.41441E+04
 
   -0.85264E+04         0.33220E+04         0.00000E+00
    0.33220E+04        -0.18693E+04         0.00000E+00
    0.00000E+00         0.00000E+00        -0.42339E+04
 
   -0.82771E+04         0.35268E+04         0.00000E+00
    0.35268E+04        -0.21553E+04         0.00000E+00
    0.00000E+00         0.00000E+00        -0.43096E+04
 
   -0.80007E+04         0.37099E+04         0.00000E+00
    0.37099E+04        -0.24389E+04         0.00000E+00
    0.00000E+00         0.00000E+00        -0.43713E+04
 
   -0.77016E+04         0.38749E+04         0.00000E+00
    0.38749E+04        -0.27159E+04         0.00000E+00
    0.00000E+00         0.00000E+00        -0.44189E+04
 
   -0.73826E+04         0.40260E+04         0.00000E+00
    0.40260E+04        -0.29838E+04         0.00000E+00
    0.00000E+00         0.00000E+00        -0.44522E+04
 
   -0.70445E+04         0.41681E+04         0.00000E+00
    0.41681E+04        -0.32411E+04         0.00000E+00
    0.00000E+00         0.00000E+00        -0.44709E+04
 
   -0.66867E+04         0.43057E+04         0.00000E+00
    0.43057E+04        -0.34875E+04         0.00000E+00
    0.00000E+00         0.00000E+00        -0.44745E+04
 
   -0.63069E+04         0.44434E+04         0.00000E+00
    0.44434E+04        -0.37241E+04         0.00000E+00
    0.00000E+00         0.00000E+00        -0.44626E+04
 
   -0.59011E+04         0.45847E+04         0.00000E+00
    0.45847E+04        -0.39529E+04         0.00000E+00
    0.00000E+00         0.00000E+00        -0.44345E+04
 
   -0.54642E+04         0.47327E+04         0.00000E+00
    0.47327E+04        -0.41770E+04         0.00000E+00
    0.00000E+00         0.00000E+00        -0.43894E+04
 
   -0.49900E+04         0.48890E+04         0.00000E+00
    0.48890E+04        -0.44001E+04         0.00000E+00
    0.00000E+00         0.00000E+00        -0.43267E+04
 
   -0.44713E+04         0.50543E+04         0.00000E+00
    0.50543E+04        -0.46266E+04         0.00000E+00
    0.00000E+00         0.00000E+00        -0.42453E+04
 
   -0.73724E+04         0.76040E+02         0.00000E+00
    0.76040E+02        -0.25338E+01         0.00000E+00
    0.00000E+00         0.00000E+00        -0.22619E+04
 
   -0.77092E+04         0.24884E+03         0.00000E+00
    0.24884E+03        -0.16319E+02         0.00000E+00
    0.00000E+00         0.00000E+00        -0.24655E+04
 
   -0.80137E+04         0.44953E+03         0.00000E+00
    0.44953E+03        -0.46324E+02         0.00000E+00
    0.00000E+00         0.00000E+00        -0.26637E+04
 
   -0.82796E+04         0.67735E+03         0.00000E+00
    0.67735E+03        -0.96334E+02         0.00000E+00
    0.00000E+00         0.00000E+00        -0.28552E+04
 
   -0.84998E+04         0.92917E+03         0.00000E+00
    0.92917E+03        -0.17040E+03         0.00000E+00
    0.00000E+00         0.00000E+00        -0.30385E+04
 
   -0.86680E+04         0.11997E+04         0.00000E+00
    0.11997E+04        -0.27184E+03         0.00000E+00
    0.00000E+00         0.00000E+00        -0.32125E+04
 
   -0.87799E+04         0.14821E+04         0.00000E+00
    0.14821E+04        -0.40251E+03         0.00000E+00
    0.00000E+00         0.00000E+00        -0.33759E+04
 
   -0.88335E+04         0.17687E+04         0.00000E+00
    0.17687E+04        -0.56244E+03         0.00000E+00
    0.00000E+00         0.00000E+00        -0.35278E+04
 
   -0.88294E+04         0.20523E+04         0.00000E+00
    0.20523E+04        -0.74979E+03         0.00000E+00
    0.00000E+00         0.00000E+00        -0.36673E+04
 
   -0.87703E+04         0.23264E+04         0.00000E+00
    0.23264E+04        -0.96120E+03         0.00000E+00
    0.00000E+00         0.00000E+00        -0.37940E+04
 
   -0.86606E+04         0.25860E+04         0.00000E+00
    0.25860E+04        -0.11921E+04         0.00000E+00
    0.00000E+00         0.00000E+00        -0.39075E+04
 
   -0.85058E+04         0.28279E+04         0.00000E+00
    0.28279E+04        -0.14375E+04         0.00000E+00
    0.00000E+00         0.00000E+00        -0.40075E+04
 
   -0.83114E+04         0.30507E+04         0.00000E+00
    0.30507E+04        -0.16922E+04         0.00000E+00
    0.00000E+00         0.00000E+00        -0.40939E+04
 
   -0.80828E+04         0.32544E+04         0.00000E+00
    0.32544E+04        -0.19513E+04         0.00000E+00
    0.00000E+00         0.00000E+00        -0.41666E+04
 
   -0.78246E+04         0.34406E+04         0.00000E+00
    0.34406E+04        -0.22106E+04         0.00000E+00
    0.00000E+00         0.00000E+00        -0.42255E+04
 
   -0.75402E+04         0.36118E+04         0.00000E+00
    0.36118E+04        -0.24667E+04         0.00000E+00
    0.00000E+00         0.00000E+00        -0.42703E+04
 
   -0.72319E+04         0.37712E+04         0.00000E+00
    0.37712E+04        -0.27173E+04         0.00000E+00
    0.00000E+00         0.00000E+00        -0.43009E+04
 
   -0.69005E+04         0.39222E+04         0.00000E+00
    0.39222E+04        -0.29611E+04         0.00000E+00
    0.00000E+00         0.00000E+00        -0.43168E+04
 
   -0.65454E+04         0.40685E+04         0.00000E+00
    0.40685E+04        -0.31978E+04         0.00000E+00
    0.00000E+00         0.00000E+00        -0.43177E+04
 
   -0.61645E+04         0.42134E+04         0.00000E+00
    0.42134E+04        -0.34281E+04         0.00000E+00
    0.00000E+00         0.00000E+00        -0.43032E+04
 
   -0.57548E+04         0.43598E+04         0.00000E+00
    0.43598E+04        -0.36537E+04         0.00000E+00
    0.00000E+00         0.00000E+00        -0.42725E+04
 
   -0.53121E+04         0.45096E+04         0.00000E+00
    0.45096E+04        -0.38770E+04         0.00000E+00
    0.00000E+00         0.00000E+00        -0.42252E+04
 
   -0.48310E+04         0.46641E+04         0.00000E+00
    0.46641E+04        -0.41010E+04         0.00000E+00
    0.00000E+00         0.00000E+00        -0.41604E+04
 
   -0.43060E+04         0.48233E+04         0.00000E+00
    0.48233E+04        -0.43294E+04         0.00000E+00
    0.00000E+00         0.00000E+00        -0.40777E+04
 
   -0.72202E+04         0.69218E+02         0.00000E+00
    0.69218E+02        -0.26575E+01         0.00000E+00
    0.00000E+00         0.00000E+00        -0.22151E+04
 
   -0.75305E+04         0.22720E+03         0.00000E+00
    0.22720E+03        -0.16880E+02         0.00000E+00
    0.00000E+00         0.00000E+00        -0.24087E+04
 
   -0.78089E+04         0.41032E+03         0.00000E+00
    0.41032E+03        -0.47022E+02         0.00000E+00
    0.00000E+00         0.00000E+00        -0.25969E+04
 
   -0.80508E+04         0.61716E+03         0.00000E+00
    0.61716E+03        -0.95690E+02         0.00000E+00
    0.00000E+00         0.00000E+00        -0.27786E+04
 
   -0.82508E+04         0.84478E+03         0.00000E+00
    0.84478E+03        -0.16569E+03         0.00000E+00
    0.00000E+00         0.00000E+00        -0.29527E+04
 
   -0.84045E+04         0.10888E+04         0.00000E+00
    0.10888E+04        -0.25936E+03         0.00000E+00
    0.00000E+00         0.00000E+00        -0.31181E+04
 
   -0.85083E+04         0.13439E+04         0.00000E+00
    0.13439E+04        -0.37802E+03         0.00000E+00
    0.00000E+00         0.00000E+00        -0.32736E+04
 
   -0.85606E+04         0.16041E+04         0.00000E+00
    0.16041E+04        -0.52170E+03         0.00000E+00
    0.00000E+00         0.00000E+00        -0.34185E+04
 
   -0.85614E+04         0.18634E+04         0.00000E+00
    0.18634E+04        -0.68907E+03         0.00000E+00
    0.00000E+00         0.00000E+00        -0.35519E+04
 
   -0.85124E+04         0.21168E+04         0.00000E+00
    0.21168E+04        -0.87761E+03         0.00000E+00
    0.00000E+00         0.00000E+00        -0.36732E+04
 
   -0.84167E+04         0.23599E+04         0.00000E+00
    0.23599E+04        -0.10839E+04         0.00000E+00
    0.00000E+00         0.00000E+00        -0.37821E+04
 
   -0.82781E+04         0.25900E+04         0.00000E+00
    0.25900E+04        -0.13040E+04         0.00000E+00
    0.00000E+00         0.00000E+00        -0.38781E+04
 
   -0.81007E+04         0.28056E+04         0.00000E+00
    0.28056E+04        -0.15338E+04         0.00000E+00
    0.00000E+00         0.00000E+00        -0.39609E+04
 
   -0.78886E+04         0.30062E+04         0.00000E+00
    0.30062E+04        -0.17693E+04         0.00000E+00
    0.00000E+00         0.00000E+00        -0.40304E+04
 
   -0.76452E+04         0.31928E+04         0.00000E+00
    0.31928E+04        -0.20072E+04         0.00000E+00
    0.00000E+00         0.00000E+00        -0.40863E+04
 
   -0.73732E+04         0.33669E+04         0.00000E+00
    0.33669E+04        -0.22446E+04         0.00000E+00
    0.00000E+00         0.00000E+00        -0.41283E+04
 
   -0.70744E+04         0.35310E+04         0.00000E+00
    0.35310E+04        -0.24796E+04         0.00000E+00
    0.00000E+00         0.00000E+00        -0.41561E+04
 
   -0.67493E+04         0.36875E+04         0.00000E+00
    0.36875E+04        -0.27109E+04         0.00000E+00
    0.00000E+00         0.00000E+00        -0.41695E+04
 
   -0.63975E+04         0.38392E+04         0.00000E+00
    0.38392E+04        -0.29381E+04         0.00000E+00
    0.00000E+00         0.00000E+00        -0.41680E+04
 
   -0.60173E+04         0.39884E+04         0.00000E+00
    0.39884E+04        -0.31619E+04         0.00000E+00
    0.00000E+00         0.00000E+00        -0.41512E+04
 
   -0.56062E+04         0.41372E+04         0.00000E+00
    0.41372E+04        -0.33836E+04         0.00000E+00
    0.00000E+00         0.00000E+00        -0.41186E+04
 
   -0.51606E+04         0.42870E+04         0.00000E+00
    0.42870E+04        -0.36049E+04         0.00000E+00
    0.00000E+00         0.00000E+00        -0.40695E+04
 
   -0.46765E+04         0.44384E+04         0.00000E+00
    0.44384E+04        -0.38285E+04         0.00000E+00
    0.00000E+00         0.00000E+00        -0.40035E+04
 
   -0.41490E+04         0.45911E+04         0.00000E+00
    0.45911E+04        -0.40572E+04         0.00000E+00
    0.00000E+00         0.00000E+00        -0.39200E+04
 
   -0.70820E+04         0.62322E+02         0.00000E+00
    0.62322E+02        -0.26208E+01         0.00000E+00
    0.00000E+00         0.00000E+00        -0.21725E+04
 
   -0.73677E+04         0.20561E+03         0.00000E+00
    0.20561E+03        -0.16563E+02         0.00000E+00
    0.00000E+00         0.00000E+00        -0.23564E+04
 
   -0.76227E+04         0.37212E+03         0.00000E+00
    0.37212E+03        -0.45738E+02         0.00000E+00
    0.00000E+00         0.00000E+00        -0.25351E+04
 
   -0.78433E+04         0.55994E+03         0.00000E+00
    0.55994E+03        -0.92016E+02         0.00000E+00
    0.00000E+00         0.00000E+00        -0.27077E+04
 
   -0.80256E+04         0.76630E+03         0.00000E+00
    0.76630E+03        -0.15739E+03         0.00000E+00
    0.00000E+00         0.00000E+00        -0.28731E+04
 
   -0.81661E+04         0.98749E+03         0.00000E+00
    0.98749E+03        -0.24350E+03         0.00000E+00
    0.00000E+00         0.00000E+00        -0.30303E+04
 
   -0.82618E+04         0.12191E+04         0.00000E+00
    0.12191E+04        -0.35130E+03         0.00000E+00
    0.00000E+00         0.00000E+00        -0.31784E+04
 
   -0.83114E+04         0.14563E+04         0.00000E+00
    0.14563E+04        -0.48080E+03         0.00000E+00
    0.00000E+00         0.00000E+00        -0.33164E+04
 
   -0.83146E+04         0.16945E+04         0.00000E+00
    0.16945E+04        -0.63102E+03         0.00000E+00
    0.00000E+00         0.00000E+00        -0.34438E+04
 
   -0.82723E+04         0.19293E+04         0.00000E+00
    0.19293E+04        -0.80005E+03         0.00000E+00
    0.00000E+00         0.00000E+00        -0.35598E+04
 
   -0.81866E+04         0.21572E+04         0.00000E+00
    0.21572E+04        -0.98529E+03         0.00000E+00
    0.00000E+00         0.00000E+00        -0.36639E+04
 
   -0.80601E+04         0.23756E+04         0.00000E+00
    0.23756E+04        -0.11837E+04         0.00000E+00
    0.00000E+00         0.00000E+00        -0.37557E+04
 
   -0.78958E+04         0.25831E+04         0.00000E+00
    0.25831E+04        -0.13920E+04         0.00000E+00
    0.00000E+00         0.00000E+00        -0.38348E+04
 
   -0.76966E+04         0.27791E+04         0.00000E+00
    0.27791E+04        -0.16071E+04         0.00000E+00
    0.00000E+00         0.00000E+00        -0.39009E+04
 
   -0.74652E+04         0.29638E+04         0.00000E+00
    0.29638E+04        -0.18262E+04         0.00000E+00
    0.00000E+00         0.00000E+00        -0.39537E+04
 
   -0.72036E+04         0.31384E+04         0.00000E+00
    0.31384E+04        -0.20470E+04         0.00000E+00
    0.00000E+00         0.00000E+00        -0.39929E+04
 
   -0.69131E+04         0.33044E+04         0.00000E+00
    0.33044E+04        -0.22678E+04         0.00000E+00
    0.00000E+00         0.00000E+00        -0.40182E+04
 
   -0.65940E+04         0.34635E+04         0.00000E+00
    0.34635E+04        -0.24874E+04         0.00000E+00
    0.00000E+00         0.00000E+00        -0.40292E+04
 
   -0.62461E+04         0.36177E+04         0.00000E+00
    0.36177E+04        -0.27057E+04         0.00000E+00
    0.00000E+00         0.00000E+00        -0.40256E+04
 
   -0.58678E+04         0.37687E+04         0.00000E+00
    0.37687E+04        -0.29229E+04         0.00000E+00
    0.00000E+00         0.00000E+00        -0.40069E+04
 
   -0.54572E+04         0.39179E+04         0.00000E+00
    0.39179E+04        -0.31400E+04         0.00000E+00
    0.00000E+00         0.00000E+00        -0.39727E+04
 
   -0.50114E+04         0.40660E+04         0.00000E+00
    0.40660E+04        -0.33586E+04         0.00000E+00
    0.00000E+00         0.00000E+00        -0.39224E+04
 
   -0.45270E+04         0.42133E+04         0.00000E+00
    0.42133E+04        -0.35805E+04         0.00000E+00
    0.00000E+00         0.00000E+00        -0.38557E+04
 
   -0.40003E+04         0.43592E+04         0.00000E+00
    0.43592E+04        -0.38082E+04         0.00000E+00
    0.00000E+00         0.00000E+00        -0.37720E+04
 
   -0.69576E+04         0.55669E+02         0.00000E+00
    0.55669E+02        -0.24878E+01         0.00000E+00
    0.00000E+00         0.00000E+00        -0.21340E+04
 
   -0.72200E+04         0.18488E+03         0.00000E+00
    0.18488E+03        -0.15715E+02         0.00000E+00
    0.00000E+00         0.00000E+00        -0.23085E+04
 
   -0.74535E+04         0.33583E+03         0.00000E+00
    0.33583E+03        -0.43252E+02         0.00000E+00
    0.00000E+00         0.00000E+00        -0.24781E+04
 
   -0.76550E+04         0.50637E+03         0.00000E+00
    0.50637E+03        -0.86526E+02         0.00000E+00
    0.00000E+00         0.00000E+00        -0.26420E+04
 
   -0.78213E+04         0.69383E+03         0.00000E+00
    0.69383E+03        -0.14700E+03         0.00000E+00
    0.00000E+00         0.00000E+00        -0.27991E+04
 
   -0.79494E+04         0.89498E+03         0.00000E+00
    0.89498E+03        -0.22587E+03         0.00000E+00
    0.00000E+00         0.00000E+00        -0.29486E+04
 
   -0.80372E+04         0.11061E+04         0.00000E+00
    0.11061E+04        -0.32382E+03         0.00000E+00
    0.00000E+00         0.00000E+00        -0.30895E+04
 
   -0.80831E+04         0.13233E+04         0.00000E+00
    0.13233E+04        -0.44085E+03         0.00000E+00
    0.00000E+00         0.00000E+00        -0.32211E+04
 
   -0.80867E+04         0.15427E+04         0.00000E+00
    0.15427E+04        -0.57623E+03         0.00000E+00
    0.00000E+00         0.00000E+00        -0.33425E+04
 
   -0.80484E+04         0.17607E+04         0.00000E+00
    0.17607E+04        -0.72853E+03         0.00000E+00
    0.00000E+00         0.00000E+00        -0.34532E+04
 
   -0.79696E+04         0.19743E+04         0.00000E+00
    0.19743E+04        -0.89574E+03         0.00000E+00
    0.00000E+00         0.00000E+00        -0.35525E+04
 
   -0.78519E+04         0.21814E+04         0.00000E+00
    0.21814E+04        -0.10755E+04         0.00000E+00
    0.00000E+00         0.00000E+00        -0.36401E+04
 
   -0.76976E+04         0.23803E+04         0.00000E+00
    0.23803E+04        -0.12653E+04         0.00000E+00
    0.00000E+00         0.00000E+00        -0.37154E+04
 
   -0.75086E+04         0.25704E+04         0.00000E+00
    0.25704E+04        -0.14627E+04         0.00000E+00
    0.00000E+00         0.00000E+00        -0.37781E+04
 
   -0.72869E+04         0.27516E+04         0.00000E+00
    0.27516E+04        -0.16653E+04         0.00000E+00
    0.00000E+00         0.00000E+00        -0.38279E+04
 
   -0.70339E+04         0.29245E+04         0.00000E+00
    0.29245E+04        -0.18713E+04         0.00000E+00
    0.00000E+00         0.00000E+00        -0.38644E+04
 
   -0.67506E+04         0.30901E+04         0.00000E+00
    0.30901E+04        -0.20792E+04         0.00000E+00
    0.00000E+00         0.00000E+00        -0.38872E+04
 
   -0.64373E+04         0.32495E+04         0.00000E+00
    0.32495E+04        -0.22882E+04         0.00000E+00
    0.00000E+00         0.00000E+00        -0.38960E+04
 
   -0.60935E+04         0.34039E+04         0.00000E+00
    0.34039E+04        -0.24979E+04         0.00000E+00
    0.00000E+00         0.00000E+00        -0.38905E+04
 
   -0.57182E+04         0.35546E+04         0.00000E+00
    0.35546E+04        -0.27085E+04         0.00000E+00
    0.00000E+00         0.00000E+00        -0.38702E+04
 
   -0.53096E+04         0.37023E+04         0.00000E+00
    0.37023E+04        -0.29208E+04         0.00000E+00
    0.00000E+00         0.00000E+00        -0.38347E+04
 
   -0.48656E+04         0.38475E+04         0.00000E+00
    0.38475E+04        -0.31359E+04         0.00000E+00
    0.00000E+00         0.00000E+00        -0.37837E+04
 
   -0.43833E+04         0.39899E+04         0.00000E+00
    0.39899E+04        -0.33554E+04         0.00000E+00
    0.00000E+00         0.00000E+00        -0.37166E+04
 
   -0.38598E+04         0.41287E+04         0.00000E+00
    0.41287E+04        -0.35810E+04         0.00000E+00
    0.00000E+00         0.00000E+00        -0.36332E+04
 
   -0.68464E+04         0.49441E+02         0.00000E+00
    0.49441E+02        -0.23020E+01         0.00000E+00
    0.00000E+00         0.00000E+00        -0.20994E+04
 
   -0.70867E+04         0.16545E+03         0.00000E+00
    0.16545E+03        -0.14574E+02         0.00000E+00
    0.00000E+00         0.00000E+00        -0.22648E+04
 
   -0.73001E+04         0.30198E+03         0.00000E+00
    0.30198E+03        -0.40110E+02         0.00000E+00
    0.00000E+00         0.00000E+00        -0.24257E+04
 
   -0.74839E+04         0.45679E+03         0.00000E+00
    0.45679E+03        -0.80080E+02         0.00000E+00
    0.00000E+00         0.00000E+00        -0.25813E+04
 
   -0.76354E+04         0.62731E+03         0.00000E+00
    0.62731E+03        -0.13562E+03         0.00000E+00
    0.00000E+00         0.00000E+00        -0.27306E+04
 
   -0.77520E+04         0.81066E+03         0.00000E+00
    0.81066E+03        -0.20764E+03         0.00000E+00
    0.00000E+00         0.00000E+00        -0.28727E+04
 
   -0.78317E+04         0.10037E+04         0.00000E+00
    0.10037E+04        -0.29665E+03         0.00000E+00
    0.00000E+00         0.00000E+00        -0.30068E+04
 
   -0.78732E+04         0.12031E+04         0.00000E+00
    0.12031E+04        -0.40267E+03         0.00000E+00
    0.00000E+00         0.00000E+00        -0.31320E+04
 
   -0.78758E+04         0.14056E+04         0.00000E+00
    0.14056E+04        -0.52515E+03         0.00000E+00
    0.00000E+00         0.00000E+00        -0.32477E+04
 
   -0.78395E+04         0.16083E+04         0.00000E+00
    0.16083E+04        -0.66300E+03         0.00000E+00
    0.00000E+00         0.00000E+00        -0.33531E+04
 
   -0.77652E+04         0.18086E+04         0.00000E+00
    0.18086E+04        -0.81470E+03         0.00000E+00
    0.00000E+00         0.00000E+00        -0.34478E+04
 
   -0.76539E+04         0.20045E+04         0.00000E+00
    0.20045E+04        -0.97844E+03         0.00000E+00
    0.00000E+00         0.00000E+00        -0.35311E+04
 
   -0.75069E+04         0.21945E+04         0.00000E+00
    0.21945E+04        -0.11522E+04         0.00000E+00
    0.00000E+00         0.00000E+00        -0.36027E+04
 
   -0.73258E+04         0.23778E+04         0.00000E+00
    0.23778E+04        -0.13341E+04         0.00000E+00
    0.00000E+00         0.00000E+00        -0.36620E+04
 
   -0.71119E+04         0.25541E+04         0.00000E+00
    0.25541E+04        -0.15222E+04         0.00000E+00
    0.00000E+00         0.00000E+00        -0.37088E+04
 
   -0.68661E+04         0.27237E+04         0.00000E+00
    0.27237E+04        -0.17151E+04         0.00000E+00
    0.00000E+00         0.00000E+00        -0.37426E+04
 
   -0.65892E+04         0.28870E+04         0.00000E+00
    0.28870E+04        -0.19115E+04         0.00000E+00
    0.00000E+00         0.00000E+00        -0.37631E+04
 
   -0.62812E+04         0.30447E+04         0.00000E+00
    0.30447E+04        -0.21107E+04         0.00000E+00
    0.00000E+00         0.00000E+00        -0.37699E+04
 
   -0.59418E+04         0.31975E+04         0.00000E+00
    0.31975E+04        -0.23123E+04         0.00000E+00
    0.00000E+00         0.00000E+00        -0.37627E+04
 
   -0.55702E+04         0.33462E+04         0.00000E+00
    0.33462E+04        -0.25165E+04         0.00000E+00
    0.00000E+00         0.00000E+00        -0.37411E+04
 
   -0.51648E+04         0.34911E+04         0.00000E+00
    0.34911E+04        -0.27237E+04         0.00000E+00
    0.00000E+00         0.00000E+00        -0.37047E+04
 
   -0.47240E+04         0.36322E+04         0.00000E+00
    0.36322E+04        -0.29349E+04         0.00000E+00
    0.00000E+00         0.00000E+00        -0.36532E+04
 
   -0.42456E+04         0.37691E+04         0.00000E+00
    0.37691E+04        -0.31513E+04         0.00000E+00
    0.00000E+00         0.00000E+00        -0.35862E+04
 
   -0.37274E+04         0.39008E+04         0.00000E+00
    0.39008E+04        -0.33741E+04         0.00000E+00
    0.00000E+00         0.00000E+00        -0.35034E+04
 
   -0.67474E+04         0.43730E+02         0.00000E+00
    0.43730E+02        -0.20926E+01         0.00000E+00
    0.00000E+00         0.00000E+00        -0.20686E+04
 
   -0.69666E+04         0.14755E+03         0.00000E+00
    0.14755E+03        -0.13301E+02         0.00000E+00
    0.00000E+00         0.00000E+00        -0.22252E+04
 
   -0.71611E+04         0.27082E+03         0.00000E+00
    0.27082E+03        -0.36685E+02         0.00000E+00
    0.00000E+00         0.00000E+00        -0.23777E+04
 
   -0.73285E+04         0.41128E+03         0.00000E+00
    0.41128E+03        -0.73274E+02         0.00000E+00
    0.00000E+00         0.00000E+00        -0.25253E+04
 
   -0.74660E+04         0.56651E+03         0.00000E+00
    0.56651E+03        -0.12401E+03         0.00000E+00
    0.00000E+00         0.00000E+00        -0.26671E+04
 
   -0.75716E+04         0.73390E+03         0.00000E+00
    0.73390E+03        -0.18963E+03         0.00000E+00
    0.00000E+00         0.00000E+00        -0.28022E+04
 
   -0.76433E+04         0.91071E+03         0.00000E+00
    0.91071E+03        -0.27056E+03         0.00000E+00
    0.00000E+00         0.00000E+00        -0.29297E+04
 
   -0.76798E+04         0.10941E+04         0.00000E+00
    0.10941E+04        -0.36682E+03         0.00000E+00
    0.00000E+00         0.00000E+00        -0.30488E+04
 
   -0.76803E+04         0.12814E+04         0.00000E+00
    0.12814E+04        -0.47803E+03         0.00000E+00
    0.00000E+00         0.00000E+00        -0.31590E+04
 
   -0.76445E+04         0.14700E+04         0.00000E+00
    0.14700E+04        -0.60336E+03         0.00000E+00
    0.00000E+00         0.00000E+00        -0.32594E+04
 
   -0.75729E+04         0.16576E+04         0.00000E+00
    0.16576E+04        -0.74167E+03         0.00000E+00
    0.00000E+00         0.00000E+00        -0.33494E+04
 
   -0.74658E+04         0.18425E+04         0.00000E+00
    0.18425E+04        -0.89155E+03         0.00000E+00
    0.00000E+00         0.00000E+00        -0.34286E+04
 
   -0.73243E+04         0.20234E+04         0.00000E+00
    0.20234E+04        -0.10515E+04         0.00000E+00
    0.00000E+00         0.00000E+00        -0.34965E+04
 
   -0.71493E+04         0.21992E+04         0.00000E+00
    0.21992E+04        -0.12199E+04         0.00000E+00
    0.00000E+00         0.00000E+00        -0.35526E+04
 
   -0.69415E+04         0.23697E+04         0.00000E+00
    0.23697E+04        -0.13953E+04         0.00000E+00
    0.00000E+00         0.00000E+00        -0.35964E+04
 
   -0.67018E+04         0.25345E+04         0.00000E+00
    0.25345E+04        -0.15766E+04         0.00000E+00
    0.00000E+00         0.00000E+00        -0.36277E+04
 
   -0.64304E+04         0.26940E+04         0.00000E+00
    0.26940E+04        -0.17626E+04         0.00000E+00
    0.00000E+00         0.00000E+00        -0.36459E+04
 
   -0.61275E+04         0.28485E+04         0.00000E+00
    0.28485E+04        -0.19528E+04         0.00000E+00
    0.00000E+00         0.00000E+00        -0.36509E+04
 
   -0.57927E+04         0.29982E+04         0.00000E+00
    0.29982E+04        -0.21468E+04         0.00000E+00
    0.00000E+00         0.00000E+00        -0.36422E+04
 
   -0.54252E+04         0.31435E+04         0.00000E+00
    0.31435E+04        -0.23447E+04         0.00000E+00
    0.00000E+00         0.00000E+00        -0.36195E+04
 
   -0.50240E+04         0.32843E+04         0.00000E+00
    0.32843E+04        -0.25468E+04         0.00000E+00
    0.00000E+00         0.00000E+00        -0.35824E+04
 
   -0.45876E+04         0.34206E+04         0.00000E+00
    0.34206E+04        -0.27538E+04         0.00000E+00
    0.00000E+00         0.00000E+00        -0.35307E+04
 
   -0.41145E+04         0.35515E+04         0.00000E+00
    0.35515E+04        -0.29665E+04         0.00000E+00
    0.00000E+00         0.00000E+00        -0.34640E+04
 
   -0.36029E+04         0.36759E+04         0.00000E+00
    0.36759E+04        -0.31860E+04         0.00000E+00
    0.00000E+00         0.00000E+00        -0.33821E+04
 
   -0.66595E+04         0.38568E+02         0.00000E+00
    0.38568E+02        -0.18784E+01         0.00000E+00
    0.00000E+00         0.00000E+00        -0.20411E+04
 
   -0.68586E+04         0.13127E+03         0.00000E+00
    0.13127E+03        -0.12002E+02         0.00000E+00
    0.00000E+00         0.00000E+00        -0.21892E+04
 
   -0.70354E+04         0.24240E+03         0.00000E+00
    0.24240E+03        -0.33225E+02         0.00000E+00
    0.00000E+00         0.00000E+00        -0.23338E+04
 
   -0.71871E+04         0.36977E+03         0.00000E+00
    0.36977E+03        -0.66507E+02         0.00000E+00
    0.00000E+00         0.00000E+00        -0.24738E+04
 
   -0.73116E+04         0.51110E+03         0.00000E+00
    0.51110E+03        -0.11269E+03         0.00000E+00
    0.00000E+00         0.00000E+00        -0.26084E+04
 
   -0.74065E+04         0.66405E+03         0.00000E+00
    0.66405E+03        -0.17240E+03         0.00000E+00
    0.00000E+00         0.00000E+00        -0.27367E+04
 
   -0.74702E+04         0.82619E+03         0.00000E+00
    0.82619E+03        -0.24604E+03         0.00000E+00
    0.00000E+00         0.00000E+00        -0.28580E+04
 
   -0.75013E+04         0.99507E+03         0.00000E+00
    0.99507E+03        -0.33365E+03         0.00000E+00
    0.00000E+00         0.00000E+00        -0.29713E+04
 
   -0.74989E+04         0.11683E+04         0.00000E+00
    0.11683E+04        -0.43498E+03         0.00000E+00
    0.00000E+00         0.00000E+00        -0.30761E+04
 
   -0.74625E+04         0.13438E+04         0.00000E+00
    0.13438E+04        -0.54943E+03         0.00000E+00
    0.00000E+00         0.00000E+00        -0.31716E+04
 
   -0.73921E+04         0.15194E+04         0.00000E+00
    0.15194E+04        -0.67613E+03         0.00000E+00
    0.00000E+00         0.00000E+00        -0.32572E+04
 
   -0.72878E+04         0.16936E+04         0.00000E+00
    0.16936E+04        -0.81401E+03         0.00000E+00
    0.00000E+00         0.00000E+00        -0.33324E+04
 
   -0.71502E+04         0.18651E+04         0.00000E+00
    0.18651E+04        -0.96189E+03         0.00000E+00
    0.00000E+00         0.00000E+00        -0.33967E+04
 
   -0.69797E+04         0.20330E+04         0.00000E+00
    0.20330E+04        -0.11185E+04         0.00000E+00
    0.00000E+00         0.00000E+00        -0.34496E+04
 
   -0.67769E+04         0.21967E+04         0.00000E+00
    0.21967E+04        -0.12828E+04         0.00000E+00
    0.00000E+00         0.00000E+00        -0.34906E+04
 
   -0.65422E+04         0.23558E+04         0.00000E+00
    0.23558E+04        -0.14537E+04         0.00000E+00
    0.00000E+00         0.00000E+00        -0.35194E+04
 
   -0.62758E+04         0.25103E+04         0.00000E+00
    0.25103E+04        -0.16305E+04         0.00000E+00
    0.00000E+00         0.00000E+00        -0.35356E+04
 
   -0.59776E+04         0.26602E+04         0.00000E+00
    0.26602E+04        -0.18125E+04         0.00000E+00
    0.00000E+00         0.00000E+00        -0.35389E+04
 
   -0.56473E+04         0.28056E+04         0.00000E+00
    0.28056E+04        -0.19994E+04         0.00000E+00
    0.00000E+00         0.00000E+00        -0.35288E+04
 
   -0.52844E+04         0.29463E+04         0.00000E+00
    0.29463E+04        -0.21913E+04         0.00000E+00
    0.00000E+00         0.00000E+00        -0.35052E+04
 
   -0.48879E+04         0.30823E+04         0.00000E+00
    0.30823E+04        -0.23883E+04         0.00000E+00
    0.00000E+00         0.00000E+00        -0.34676E+04
 
   -0.44569E+04         0.32129E+04         0.00000E+00
    0.32129E+04        -0.25909E+04         0.00000E+00
    0.00000E+00         0.00000E+00        -0.34159E+04
 
   -0.39901E+04         0.33375E+04         0.00000E+00
    0.33375E+04        -0.27997E+04         0.00000E+00
    0.00000E+00         0.00000E+00        -0.33498E+04
 
   -0.34862E+04         0.34547E+04         0.00000E+00
    0.34547E+04        -0.30153E+04         0.00000E+00
    0.00000E+00         0.00000E+00        -0.32689E+04
 
   -0.65817E+04         0.33952E+02         0.00000E+00
    0.33952E+02        -0.16711E+01         0.00000E+00
    0.00000E+00         0.00000E+00        -0.20167E+04
 
   -0.67618E+04         0.11658E+03         0.00000E+00
    0.11658E+03        -0.10746E+02         0.00000E+00
    0.00000E+00         0.00000E+00        -0.21567E+04
 
   -0.69217E+04         0.21665E+03         0.00000E+00
    0.21665E+03        -0.29889E+02         0.00000E+00
    0.00000E+00         0.00000E+00        -0.22936E+04
 
   -0.70588E+04         0.33206E+03         0.00000E+00
    0.33206E+03        -0.60038E+02         0.00000E+00
    0.00000E+00         0.00000E+00        -0.24264E+04
 
   -0.71707E+04         0.46072E+03         0.00000E+00
    0.46072E+03        -0.10198E+03         0.00000E+00
    0.00000E+00         0.00000E+00        -0.25542E+04
 
   -0.72554E+04         0.60049E+03         0.00000E+00
    0.60049E+03        -0.15631E+03         0.00000E+00
    0.00000E+00         0.00000E+00        -0.26761E+04
 
   -0.73112E+04         0.74922E+03         0.00000E+00
    0.74922E+03        -0.22339E+03         0.00000E+00
    0.00000E+00         0.00000E+00        -0.27914E+04
 
   -0.73366E+04         0.90475E+03         0.00000E+00
    0.90475E+03        -0.30335E+03         0.00000E+00
    0.00000E+00         0.00000E+00        -0.28992E+04
 
   -0.73307E+04         0.10650E+04         0.00000E+00
    0.10650E+04        -0.39601E+03         0.00000E+00
    0.00000E+00         0.00000E+00        -0.29988E+04
 
   -0.72928E+04         0.12281E+04         0.00000E+00
    0.12281E+04        -0.50097E+03         0.00000E+00
    0.00000E+00         0.00000E+00        -0.30897E+04
 
   -0.72225E+04         0.13922E+04         0.00000E+00
    0.13922E+04        -0.61759E+03         0.00000E+00
    0.00000E+00         0.00000E+00        -0.31710E+04
 
   -0.71198E+04         0.15559E+04         0.00000E+00
    0.15559E+04        -0.74505E+03         0.00000E+00
    0.00000E+00         0.00000E+00        -0.32424E+04
 
   -0.69848E+04         0.17180E+04         0.00000E+00
    0.17180E+04        -0.88245E+03         0.00000E+00
    0.00000E+00         0.00000E+00        -0.33032E+04
 
   -0.68178E+04         0.18775E+04         0.00000E+00
    0.18775E+04        -0.10288E+04         0.00000E+00
    0.00000E+00         0.00000E+00        -0.33529E+04
 
   -0.66190E+04         0.20338E+04         0.00000E+00
    0.20338E+04        -0.11833E+04         0.00000E+00
    0.00000E+00         0.00000E+00        -0.33913E+04
 
   -0.63885E+04         0.21864E+04         0.00000E+00
    0.21864E+04        -0.13451E+04         0.00000E+00
    0.00000E+00         0.00000E+00        -0.34178E+04
 
   -0.61264E+04         0.23350E+04         0.00000E+00
    0.23350E+04        -0.15134E+04         0.00000E+00
    0.00000E+00         0.00000E+00        -0.34320E+04
 
   -0.58326E+04         0.24793E+04         0.00000E+00
    0.24793E+04        -0.16879E+04         0.00000E+00
    0.00000E+00         0.00000E+00        -0.34337E+04
 
   -0.55069E+04         0.26193E+04         0.00000E+00
    0.26193E+04        -0.18683E+04         0.00000E+00
    0.00000E+00         0.00000E+00        -0.34225E+04
 
   -0.51487E+04         0.27547E+04         0.00000E+00
    0.27547E+04        -0.20544E+04         0.00000E+00
    0.00000E+00         0.00000E+00        -0.33982E+04
 
   -0.47575E+04         0.28849E+04         0.00000E+00
    0.28849E+04        -0.22464E+04         0.00000E+00
    0.00000E+00         0.00000E+00        -0.33603E+04
 
   -0.43323E+04         0.30095E+04         0.00000E+00
    0.30095E+04        -0.24445E+04         0.00000E+00
    0.00000E+00         0.00000E+00        -0.33087E+04
 
   -0.38725E+04         0.31274E+04         0.00000E+00
    0.31274E+04        -0.26492E+04         0.00000E+00
    0.00000E+00         0.00000E+00        -0.32433E+04
 
   -0.33770E+04         0.32374E+04         0.00000E+00
    0.32374E+04        -0.28607E+04         0.00000E+00
    0.00000E+00         0.00000E+00        -0.31637E+04
 
   -0.65129E+04         0.29852E+02         0.00000E+00
    0.29852E+02        -0.14779E+01         0.00000E+00
    0.00000E+00         0.00000E+00        -0.19950E+04
 
   -0.66751E+04         0.10342E+03         0.00000E+00
    0.10342E+03        -0.95715E+01         0.00000E+00
    0.00000E+00         0.00000E+00        -0.21274E+04
 
   -0.68190E+04         0.19341E+03         0.00000E+00
    0.19341E+03        -0.26775E+02         0.00000E+00
    0.00000E+00         0.00000E+00        -0.22571E+04
 
   -0.69422E+04         0.29788E+03         0.00000E+00
    0.29788E+03        -0.54022E+02         0.00000E+00
    0.00000E+00         0.00000E+00        -0.23830E+04
 
   -0.70422E+04         0.41493E+03         0.00000E+00
    0.41493E+03        -0.92081E+02         0.00000E+00
    0.00000E+00         0.00000E+00        -0.25043E+04
 
   -0.71171E+04         0.54259E+03         0.00000E+00
    0.54259E+03        -0.14154E+03         0.00000E+00
    0.00000E+00         0.00000E+00        -0.26201E+04
 
   -0.71651E+04         0.67896E+03         0.00000E+00
    0.67896E+03        -0.20277E+03         0.00000E+00
    0.00000E+00         0.00000E+00        -0.27297E+04
 
   -0.71847E+04         0.82211E+03         0.00000E+00
    0.82211E+03        -0.27595E+03         0.00000E+00
    0.00000E+00         0.00000E+00        -0.28322E+04
 
   -0.71749E+04         0.97023E+03         0.00000E+00
    0.97023E+03        -0.36102E+03         0.00000E+00
    0.00000E+00         0.00000E+00        -0.29270E+04
 
   -0.71347E+04         0.11216E+04         0.00000E+00
    0.11216E+04        -0.45769E+03         0.00000E+00
    0.00000E+00         0.00000E+00        -0.30133E+04
 
   -0.70638E+04         0.12747E+04         0.00000E+00
    0.12747E+04        -0.56553E+03         0.00000E+00
    0.00000E+00         0.00000E+00        -0.30906E+04
 
   -0.69618E+04         0.14280E+04         0.00000E+00
    0.14280E+04        -0.68393E+03         0.00000E+00
    0.00000E+00         0.00000E+00        -0.31582E+04
 
   -0.68285E+04         0.15806E+04         0.00000E+00
    0.15806E+04        -0.81219E+03         0.00000E+00
    0.00000E+00         0.00000E+00        -0.32157E+04
 
   -0.66640E+04         0.17315E+04         0.00000E+00
    0.17315E+04        -0.94960E+03         0.00000E+00
    0.00000E+00         0.00000E+00        -0.32626E+04
 
   -0.64682E+04         0.18799E+04         0.00000E+00
    0.18799E+04        -0.10954E+04         0.00000E+00
    0.00000E+00         0.00000E+00        -0.32984E+04
 
   -0.62413E+04         0.20252E+04         0.00000E+00
    0.20252E+04        -0.12491E+04         0.00000E+00
    0.00000E+00         0.00000E+00        -0.33227E+04
 
   -0.59831E+04         0.21671E+04         0.00000E+00
    0.21671E+04        -0.14099E+04         0.00000E+00
    0.00000E+00         0.00000E+00        -0.33351E+04
 
   -0.56935E+04         0.23052E+04         0.00000E+00
    0.23052E+04        -0.15776E+04         0.00000E+00
    0.00000E+00         0.00000E+00        -0.33354E+04
 
   -0.53722E+04         0.24390E+04         0.00000E+00
    0.24390E+04        -0.17518E+04         0.00000E+00
    0.00000E+00         0.00000E+00        -0.33232E+04
 
   -0.50189E+04         0.25683E+04         0.00000E+00
    0.25683E+04        -0.19325E+04         0.00000E+00
    0.00000E+00         0.00000E+00        -0.32982E+04
 
   -0.46331E+04         0.26923E+04         0.00000E+00
    0.26923E+04        -0.21196E+04         0.00000E+00
    0.00000E+00         0.00000E+00        -0.32602E+04
 
   -0.42143E+04         0.28103E+04         0.00000E+00
    0.28103E+04        -0.23133E+04         0.00000E+00
    0.00000E+00         0.00000E+00        -0.32089E+04
 
   -0.37618E+04         0.29214E+04         0.00000E+00
    0.29214E+04        -0.25137E+04         0.00000E+00
    0.00000E+00         0.00000E+00        -0.31442E+04
 
   -0.32752E+04         0.30243E+04         0.00000E+00
    0.30243E+04        -0.27211E+04         0.00000E+00
    0.00000E+00         0.00000E+00        -0.30659E+04
 
   -0.64521E+04         0.26228E+02         0.00000E+00
    0.26228E+02        -0.13025E+01         0.00000E+00
    0.00000E+00         0.00000E+00        -0.19757E+04
 
   -0.65974E+04         0.91652E+02         0.00000E+00
    0.91652E+02        -0.85017E+01         0.00000E+00
    0.00000E+00         0.00000E+00        -0.21009E+04
 
   -0.67264E+04         0.17248E+03         0.00000E+00
    0.17248E+03        -0.23935E+02         0.00000E+00
    0.00000E+00         0.00000E+00        -0.22237E+04
 
   -0.68364E+04         0.26694E+03         0.00000E+00
    0.26694E+03        -0.48544E+02         0.00000E+00
    0.00000E+00         0.00000E+00        -0.23432E+04
 
   -0.69252E+04         0.37329E+03         0.00000E+00
    0.37329E+03        -0.83097E+02         0.00000E+00
    0.00000E+00         0.00000E+00        -0.24584E+04
 
   -0.69906E+04         0.48977E+03         0.00000E+00
    0.48977E+03        -0.12819E+03         0.00000E+00
    0.00000E+00         0.00000E+00        -0.25685E+04
 
   -0.70309E+04         0.61465E+03         0.00000E+00
    0.61465E+03        -0.18423E+03         0.00000E+00
    0.00000E+00         0.00000E+00        -0.26726E+04
 
   -0.70447E+04         0.74624E+03         0.00000E+00
    0.74624E+03        -0.25143E+03         0.00000E+00
    0.00000E+00         0.00000E+00        -0.27702E+04
 
   -0.70306E+04         0.88290E+03         0.00000E+00
    0.88290E+03        -0.32983E+03         0.00000E+00
    0.00000E+00         0.00000E+00        -0.28603E+04
 
   -0.69879E+04         0.10231E+04         0.00000E+00
    0.10231E+04        -0.41927E+03         0.00000E+00
    0.00000E+00         0.00000E+00        -0.29424E+04
 
   -0.69157E+04         0.11655E+04         0.00000E+00
    0.11655E+04        -0.51945E+03         0.00000E+00
    0.00000E+00         0.00000E+00        -0.30158E+04
 
   -0.68136E+04         0.13087E+04         0.00000E+00
    0.13087E+04        -0.62995E+03         0.00000E+00
    0.00000E+00         0.00000E+00        -0.30799E+04
 
   -0.66813E+04         0.14518E+04         0.00000E+00
    0.14518E+04        -0.75024E+03         0.00000E+00
    0.00000E+00         0.00000E+00        -0.31342E+04
 
   -0.65185E+04         0.15937E+04         0.00000E+00
    0.15937E+04        -0.87978E+03         0.00000E+00
    0.00000E+00         0.00000E+00        -0.31783E+04
 
   -0.63253E+04         0.17339E+04         0.00000E+00
    0.17339E+04        -0.10180E+04         0.00000E+00
    0.00000E+00         0.00000E+00        -0.32117E+04
 
   -0.61013E+04         0.18715E+04         0.00000E+00
    0.18715E+04        -0.11644E+04         0.00000E+00
    0.00000E+00         0.00000E+00        -0.32340E+04
 
   -0.58466E+04         0.20061E+04         0.00000E+00
    0.20061E+04        -0.13185E+04         0.00000E+00
    0.00000E+00         0.00000E+00        -0.32448E+04
 
   -0.55609E+04         0.21372E+04         0.00000E+00
    0.21372E+04        -0.14800E+04         0.00000E+00
    0.00000E+00         0.00000E+00        -0.32437E+04
 
   -0.52440E+04         0.22643E+04         0.00000E+00
    0.22643E+04        -0.16486E+04         0.00000E+00
    0.00000E+00         0.00000E+00        -0.32306E+04
 
   -0.48956E+04         0.23869E+04         0.00000E+00
    0.23869E+04        -0.18241E+04         0.00000E+00
    0.00000E+00         0.00000E+00        -0.32051E+04
 
   -0.45153E+04         0.25042E+04         0.00000E+00
    0.25042E+04        -0.20065E+04         0.00000E+00
    0.00000E+00         0.00000E+00        -0.31670E+04
 
   -0.41030E+04         0.26155E+04         0.00000E+00
    0.26155E+04        -0.21958E+04         0.00000E+00
    0.00000E+00         0.00000E+00        -0.31161E+04
 
   -0.36581E+04         0.27197E+04         0.00000E+00
    0.27197E+04        -0.23920E+04         0.00000E+00
    0.00000E+00         0.00000E+00        -0.30523E+04
 
   -0.31806E+04         0.28155E+04         0.00000E+00
    0.28155E+04        -0.25952E+04         0.00000E+00
    0.00000E+00         0.00000E+00        -0.29754E+04
 
   -0.63985E+04         0.23031E+02         0.00000E+00
    0.23031E+02        -0.11464E+01         0.00000E+00
    0.00000E+00         0.00000E+00        -0.19586E+04
 
   -0.65281E+04         0.81153E+02         0.00000E+00
    0.81153E+02        -0.75460E+01         0.00000E+00
    0.00000E+00         0.00000E+00        -0.20771E+04
 
   -0.66430E+04         0.15364E+03         0.00000E+00
    0.15364E+03        -0.21393E+02         0.00000E+00
    0.00000E+00         0.00000E+00        -0.21935E+04
 
   -0.67406E+04         0.23891E+03         0.00000E+00
    0.23891E+03        -0.43637E+02         0.00000E+00
    0.00000E+00         0.00000E+00        -0.23068E+04
 
   -0.68187E+04         0.33538E+03         0.00000E+00
    0.33538E+03        -0.75060E+02         0.00000E+00
    0.00000E+00         0.00000E+00        -0.24163E+04
 
   -0.68750E+04         0.44146E+03         0.00000E+00
    0.44146E+03        -0.11627E+03         0.00000E+00
    0.00000E+00         0.00000E+00        -0.25209E+04
 
   -0.69079E+04         0.55561E+03         0.00000E+00
    0.55561E+03        -0.16772E+03         0.00000E+00
    0.00000E+00         0.00000E+00        -0.26200E+04
 
   -0.69158E+04         0.67630E+03         0.00000E+00
    0.67630E+03        -0.22966E+03         0.00000E+00
    0.00000E+00         0.00000E+00        -0.27128E+04
 
   -0.68975E+04         0.80209E+03         0.00000E+00
    0.80209E+03        -0.30223E+03         0.00000E+00
    0.00000E+00         0.00000E+00        -0.27986E+04
 
   -0.68517E+04         0.93159E+03         0.00000E+00
    0.93159E+03        -0.38535E+03         0.00000E+00
    0.00000E+00         0.00000E+00        -0.28767E+04
 
   -0.67778E+04         0.10635E+04         0.00000E+00
    0.10635E+04        -0.47886E+03         0.00000E+00
    0.00000E+00         0.00000E+00        -0.29464E+04
 
   -0.66752E+04         0.11968E+04         0.00000E+00
    0.11968E+04        -0.58247E+03         0.00000E+00
    0.00000E+00         0.00000E+00        -0.30072E+04
 
   -0.65433E+04         0.13303E+04         0.00000E+00
    0.13303E+04        -0.69580E+03         0.00000E+00
    0.00000E+00         0.00000E+00        -0.30586E+04
 
   -0.63818E+04         0.14633E+04         0.00000E+00
    0.14633E+04        -0.81844E+03         0.00000E+00
    0.00000E+00         0.00000E+00        -0.31001E+04
 
   -0.61905E+04         0.15949E+04         0.00000E+00
    0.15949E+04        -0.94995E+03         0.00000E+00
    0.00000E+00         0.00000E+00        -0.31312E+04
 
   -0.59691E+04         0.17244E+04         0.00000E+00
    0.17244E+04        -0.10899E+04         0.00000E+00
    0.00000E+00         0.00000E+00        -0.31516E+04
 
   -0.57174E+04         0.18513E+04         0.00000E+00
    0.18513E+04        -0.12380E+04         0.00000E+00
    0.00000E+00         0.00000E+00        -0.31608E+04
 
   -0.54354E+04         0.19749E+04         0.00000E+00
    0.19749E+04        -0.13938E+04         0.00000E+00
    0.00000E+00         0.00000E+00        -0.31586E+04
 
   -0.51226E+04         0.20948E+04         0.00000E+00
    0.20948E+04        -0.15572E+04         0.00000E+00
    0.00000E+00         0.00000E+00        -0.31447E+04
 
   -0.47791E+04         0.22103E+04         0.00000E+00
    0.22103E+04        -0.17279E+04         0.00000E+00
    0.00000E+00         0.00000E+00        -0.31188E+04
 
   -0.44044E+04         0.23205E+04         0.00000E+00
    0.23205E+04        -0.19058E+04         0.00000E+00
    0.00000E+00         0.00000E+00        -0.30807E+04
 
   -0.39986E+04         0.24248E+04         0.00000E+00
    0.24248E+04        -0.20909E+04         0.00000E+00
    0.00000E+00         0.00000E+00        -0.30302E+04
 
   -0.35614E+04         0.25221E+04         0.00000E+00
    0.25221E+04        -0.22829E+04         0.00000E+00
    0.00000E+00         0.00000E+00        -0.29673E+04
 
   -0.30929E+04         0.26110E+04         0.00000E+00
    0.26110E+04        -0.24819E+04         0.00000E+00
    0.00000E+00         0.00000E+00        -0.28917E+04
 
   -0.63511E+04         0.20212E+02         0.00000E+00
    0.20212E+02        -0.10097E+01         0.00000E+00
    0.00000E+00         0.00000E+00        -0.19435E+04
 
   -0.64662E+04         0.71778E+02         0.00000E+00
    0.71778E+02        -0.67055E+01         0.00000E+00
    0.00000E+00         0.00000E+00        -0.20557E+04
 
   -0.65680E+04         0.13667E+03         0.00000E+00
    0.13667E+03        -0.19150E+02         0.00000E+00
    0.00000E+00         0.00000E+00        -0.21661E+04
 
   -0.66540E+04         0.21347E+03         0.00000E+00
    0.21347E+03        -0.39302E+02         0.00000E+00
    0.00000E+00         0.00000E+00        -0.22737E+04
 
   -0.67220E+04         0.30077E+03         0.00000E+00
    0.30077E+03        -0.67956E+02         0.00000E+00
    0.00000E+00         0.00000E+00        -0.23777E+04
 
   -0.67697E+04         0.39714E+03         0.00000E+00
    0.39714E+03        -0.10575E+03         0.00000E+00
    0.00000E+00         0.00000E+00        -0.24774E+04
 
   -0.67955E+04         0.50119E+03         0.00000E+00
    0.50119E+03        -0.15315E+03         0.00000E+00
    0.00000E+00         0.00000E+00        -0.25717E+04
 
   -0.67976E+04         0.61158E+03         0.00000E+00
    0.61158E+03        -0.21050E+03         0.00000E+00
    0.00000E+00         0.00000E+00        -0.26601E+04
 
   -0.67749E+04         0.72698E+03         0.00000E+00
    0.72698E+03        -0.27796E+03         0.00000E+00
    0.00000E+00         0.00000E+00        -0.27418E+04
 
   -0.67260E+04         0.84617E+03         0.00000E+00
    0.84617E+03        -0.35558E+03         0.00000E+00
    0.00000E+00         0.00000E+00        -0.28160E+04
 
   -0.66501E+04         0.96800E+03         0.00000E+00
    0.96800E+03        -0.44327E+03         0.00000E+00
    0.00000E+00         0.00000E+00        -0.28823E+04
 
   -0.65465E+04         0.10914E+04         0.00000E+00
    0.10914E+04        -0.54087E+03         0.00000E+00
    0.00000E+00         0.00000E+00        -0.29400E+04
 
   -0.64146E+04         0.12154E+04         0.00000E+00
    0.12154E+04        -0.64811E+03         0.00000E+00
    0.00000E+00         0.00000E+00        -0.29887E+04
 
   -0.62539E+04         0.13392E+04         0.00000E+00
    0.13392E+04        -0.76470E+03         0.00000E+00
    0.00000E+00         0.00000E+00        -0.30277E+04
 
   -0.60641E+04         0.14620E+04         0.00000E+00
    0.14620E+04        -0.89030E+03         0.00000E+00
    0.00000E+00         0.00000E+00        -0.30567E+04
 
   -0.58449E+04         0.15832E+04         0.00000E+00
    0.15832E+04        -0.10246E+04         0.00000E+00
    0.00000E+00         0.00000E+00        -0.30753E+04
 
   -0.55960E+04         0.17020E+04         0.00000E+00
    0.17020E+04        -0.11672E+04         0.00000E+00
    0.00000E+00         0.00000E+00        -0.30831E+04
 
   -0.53173E+04         0.18178E+04         0.00000E+00
    0.18178E+04        -0.13180E+04         0.00000E+00
    0.00000E+00         0.00000E+00        -0.30799E+04
 
   -0.50086E+04         0.19301E+04         0.00000E+00
    0.19301E+04        -0.14766E+04         0.00000E+00
    0.00000E+00         0.00000E+00        -0.30652E+04
 
   -0.46698E+04         0.20381E+04         0.00000E+00
    0.20381E+04        -0.16428E+04         0.00000E+00
    0.00000E+00         0.00000E+00        -0.30390E+04
 
   -0.43006E+04         0.21412E+04         0.00000E+00
    0.21412E+04        -0.18165E+04         0.00000E+00
    0.00000E+00         0.00000E+00        -0.30010E+04
 
   -0.39012E+04         0.22383E+04         0.00000E+00
    0.22383E+04        -0.19974E+04         0.00000E+00
    0.00000E+00         0.00000E+00        -0.29510E+04
 
   -0.34716E+04         0.23285E+04         0.00000E+00
    0.23285E+04        -0.21855E+04         0.00000E+00
    0.00000E+00         0.00000E+00        -0.28890E+04
 
   -0.30120E+04         0.24107E+04         0.00000E+00
    0.24107E+04        -0.23804E+04         0.00000E+00
    0.00000E+00         0.00000E+00        -0.28148E+04
 
   -0.63095E+04         0.17720E+02         0.00000E+00
    0.17720E+02        -0.89175E+00         0.00000E+00
    0.00000E+00         0.00000E+00        -0.19302E+04
 
   -0.64110E+04         0.63389E+02         0.00000E+00
    0.63389E+02        -0.59762E+01         0.00000E+00
    0.00000E+00         0.00000E+00        -0.20365E+04
 
   -0.65007E+04         0.12134E+03         0.00000E+00
    0.12134E+03        -0.17196E+02         0.00000E+00
    0.00000E+00         0.00000E+00        -0.21413E+04
 
   -0.65760E+04         0.19032E+03         0.00000E+00
    0.19032E+03        -0.35516E+02         0.00000E+00
    0.00000E+00         0.00000E+00        -0.22436E+04
 
   -0.66344E+04         0.26906E+03         0.00000E+00
    0.26906E+03        -0.61746E+02         0.00000E+00
    0.00000E+00         0.00000E+00        -0.23427E+04
 
   -0.66741E+04         0.35631E+03         0.00000E+00
    0.35631E+03        -0.96544E+02         0.00000E+00
    0.00000E+00         0.00000E+00        -0.24375E+04
 
   -0.66930E+04         0.45083E+03         0.00000E+00
    0.45083E+03        -0.14042E+03         0.00000E+00
    0.00000E+00         0.00000E+00        -0.25275E+04
 
   -0.66896E+04         0.55139E+03         0.00000E+00
    0.55139E+03        -0.19375E+03         0.00000E+00
    0.00000E+00         0.00000E+00        -0.26117E+04
 
   -0.66624E+04         0.65684E+03         0.00000E+00
    0.65684E+03        -0.25677E+03         0.00000E+00
    0.00000E+00         0.00000E+00        -0.26896E+04
 
   -0.66103E+04         0.76606E+03         0.00000E+00
    0.76606E+03        -0.32959E+03         0.00000E+00
    0.00000E+00         0.00000E+00        -0.27604E+04
 
   -0.65323E+04         0.87799E+03         0.00000E+00
    0.87799E+03        -0.41222E+03         0.00000E+00
    0.00000E+00         0.00000E+00        -0.28234E+04
 
   -0.64275E+04         0.99168E+03         0.00000E+00
    0.99168E+03        -0.50458E+03         0.00000E+00
    0.00000E+00         0.00000E+00        -0.28783E+04
 
   -0.62953E+04         0.11062E+04         0.00000E+00
    0.11062E+04        -0.60651E+03         0.00000E+00
    0.00000E+00         0.00000E+00        -0.29243E+04
 
   -0.61351E+04         0.12208E+04         0.00000E+00
    0.12208E+04        -0.71779E+03         0.00000E+00
    0.00000E+00         0.00000E+00        -0.29610E+04
 
   -0.59464E+04         0.13347E+04         0.00000E+00
    0.13347E+04        -0.83817E+03         0.00000E+00
    0.00000E+00         0.00000E+00        -0.29881E+04
 
   -0.57291E+04         0.14472E+04         0.00000E+00
    0.14472E+04        -0.96740E+03         0.00000E+00
    0.00000E+00         0.00000E+00        -0.30051E+04
 
   -0.54827E+04         0.15576E+04         0.00000E+00
    0.15576E+04        -0.11052E+04         0.00000E+00
    0.00000E+00         0.00000E+00        -0.30116E+04
 
   -0.52072E+04         0.16654E+04         0.00000E+00
    0.16654E+04        -0.12513E+04         0.00000E+00
    0.00000E+00         0.00000E+00        -0.30074E+04
 
   -0.49022E+04         0.17698E+04         0.00000E+00
    0.17698E+04        -0.14056E+04         0.00000E+00
    0.00000E+00         0.00000E+00        -0.29921E+04
 
   -0.45679E+04         0.18702E+04         0.00000E+00
    0.18702E+04        -0.15676E+04         0.00000E+00
    0.00000E+00         0.00000E+00        -0.29657E+04
 
   -0.42041E+04         0.19658E+04         0.00000E+00
    0.19658E+04        -0.17373E+04         0.00000E+00
    0.00000E+00         0.00000E+00        -0.29278E+04
 
   -0.38110E+04         0.20557E+04         0.00000E+00
    0.20557E+04        -0.19144E+04         0.00000E+00
    0.00000E+00         0.00000E+00        -0.28783E+04
 
   -0.33887E+04         0.21390E+04         0.00000E+00
    0.21390E+04        -0.20986E+04         0.00000E+00
    0.00000E+00         0.00000E+00        -0.28171E+04
 
   -0.29376E+04         0.22144E+04         0.00000E+00
    0.22144E+04        -0.22896E+04         0.00000E+00
    0.00000E+00         0.00000E+00        -0.27443E+04
 
   -0.62728E+04         0.15511E+02         0.00000E+00
    0.15511E+02        -0.79115E+00         0.00000E+00
    0.00000E+00         0.00000E+00        -0.19184E+04
 
   -0.63620E+04         0.55853E+02         0.00000E+00
    0.55853E+02        -0.53507E+01         0.00000E+00
    0.00000E+00         0.00000E+00        -0.20193E+04
 
   -0.64405E+04         0.10743E+03         0.00000E+00
    0.10743E+03        -0.15513E+02         0.00000E+00
    0.00000E+00         0.00000E+00        -0.21190E+04
 
   -0.65058E+04         0.16914E+03         0.00000E+00
    0.16914E+03        -0.32246E+02         0.00000E+00
    0.00000E+00         0.00000E+00        -0.22164E+04
 
   -0.65555E+04         0.23988E+03         0.00000E+00
    0.23988E+03        -0.56370E+02         0.00000E+00
    0.00000E+00         0.00000E+00        -0.23108E+04
 
   -0.65875E+04         0.31853E+03         0.00000E+00
    0.31853E+03        -0.88566E+02         0.00000E+00
    0.00000E+00         0.00000E+00        -0.24014E+04
 
   -0.65999E+04         0.40399E+03         0.00000E+00
    0.40399E+03        -0.12938E+03         0.00000E+00
    0.00000E+00         0.00000E+00        -0.24872E+04
 
   -0.65912E+04         0.49517E+03         0.00000E+00
    0.49517E+03        -0.17922E+03         0.00000E+00
    0.00000E+00         0.00000E+00        -0.25677E+04
 
   -0.65598E+04         0.59102E+03         0.00000E+00
    0.59102E+03        -0.23838E+03         0.00000E+00
    0.00000E+00         0.00000E+00        -0.26420E+04
 
   -0.65045E+04         0.69055E+03         0.00000E+00
    0.69055E+03        -0.30704E+03         0.00000E+00
    0.00000E+00         0.00000E+00        -0.27095E+04
 
   -0.64242E+04         0.79280E+03         0.00000E+00
    0.79280E+03        -0.38527E+03         0.00000E+00
    0.00000E+00         0.00000E+00        -0.27696E+04
 
   -0.63181E+04         0.89689E+03         0.00000E+00
    0.89689E+03        -0.47308E+03         0.00000E+00
    0.00000E+00         0.00000E+00        -0.28217E+04
 
   -0.61853E+04         0.10020E+04         0.00000E+00
    0.10020E+04        -0.57037E+03         0.00000E+00
    0.00000E+00         0.00000E+00        -0.28654E+04
 
   -0.60253E+04         0.11073E+04         0.00000E+00
    0.11073E+04        -0.67700E+03         0.00000E+00
    0.00000E+00         0.00000E+00        -0.29000E+04
 
   -0.58376E+04         0.12122E+04         0.00000E+00
    0.12122E+04        -0.79280E+03         0.00000E+00
    0.00000E+00         0.00000E+00        -0.29253E+04
 
   -0.56219E+04         0.13159E+04         0.00000E+00
    0.13159E+04        -0.91755E+03         0.00000E+00
    0.00000E+00         0.00000E+00        -0.29408E+04
 
   -0.53777E+04         0.14178E+04         0.00000E+00
    0.14178E+04        -0.10510E+04         0.00000E+00
    0.00000E+00         0.00000E+00        -0.29461E+04
 
   -0.51051E+04         0.15173E+04         0.00000E+00
    0.15173E+04        -0.11930E+04         0.00000E+00
    0.00000E+00         0.00000E+00        -0.29410E+04
 
   -0.48037E+04         0.16137E+04         0.00000E+00
    0.16137E+04        -0.13433E+04         0.00000E+00
    0.00000E+00         0.00000E+00        -0.29252E+04
 
   -0.44737E+04         0.17062E+04         0.00000E+00
    0.17062E+04        -0.15015E+04         0.00000E+00
    0.00000E+00         0.00000E+00        -0.28986E+04
 
   -0.41150E+04         0.17942E+04         0.00000E+00
    0.17942E+04        -0.16675E+04         0.00000E+00
    0.00000E+00         0.00000E+00        -0.28608E+04
 
   -0.37278E+04         0.18768E+04         0.00000E+00
    0.18768E+04        -0.18409E+04         0.00000E+00
    0.00000E+00         0.00000E+00        -0.28118E+04
 
   -0.33126E+04         0.19531E+04         0.00000E+00
    0.19531E+04        -0.20215E+04         0.00000E+00
    0.00000E+00         0.00000E+00        -0.27516E+04
 
   -0.28697E+04         0.20221E+04         0.00000E+00
    0.20221E+04        -0.22088E+04         0.00000E+00
    0.00000E+00         0.00000E+00        -0.26800E+04
 
   -0.62407E+04         0.13542E+02         0.00000E+00
    0.13542E+02        -0.70633E+00         0.00000E+00
    0.00000E+00         0.00000E+00        -0.19080E+04
 
   -0.63187E+04         0.49048E+02         0.00000E+00
    0.49048E+02        -0.48202E+01         0.00000E+00
    0.00000E+00         0.00000E+00        -0.20040E+04
 
   -0.63870E+04         0.94748E+02         0.00000E+00
    0.94748E+02        -0.14079E+02         0.00000E+00
    0.00000E+00         0.00000E+00        -0.20990E+04
 
   -0.64431E+04         0.14969E+03         0.00000E+00
    0.14969E+03        -0.29448E+02         0.00000E+00
    0.00000E+00         0.00000E+00        -0.21920E+04
 
   -0.64846E+04         0.21290E+03         0.00000E+00
    0.21290E+03        -0.51759E+02         0.00000E+00
    0.00000E+00         0.00000E+00        -0.22821E+04
 
   -0.65095E+04         0.28340E+03         0.00000E+00
    0.28340E+03        -0.81709E+02         0.00000E+00
    0.00000E+00         0.00000E+00        -0.23687E+04
 
   -0.65159E+04         0.36021E+03         0.00000E+00
    0.36021E+03        -0.11987E+03         0.00000E+00
    0.00000E+00         0.00000E+00        -0.24508E+04
 
   -0.65022E+04         0.44237E+03         0.00000E+00
    0.44237E+03        -0.16670E+03         0.00000E+00
    0.00000E+00         0.00000E+00        -0.25277E+04
 
   -0.64667E+04         0.52894E+03         0.00000E+00
    0.52894E+03        -0.22252E+03         0.00000E+00
    0.00000E+00         0.00000E+00        -0.25987E+04
 
   -0.64083E+04         0.61903E+03         0.00000E+00
    0.61903E+03        -0.28758E+03         0.00000E+00
    0.00000E+00         0.00000E+00        -0.26633E+04
 
   -0.63257E+04         0.71179E+03         0.00000E+00
    0.71179E+03        -0.36201E+03         0.00000E+00
    0.00000E+00         0.00000E+00        -0.27206E+04
 
   -0.62181E+04         0.80639E+03         0.00000E+00
    0.80639E+03        -0.44587E+03         0.00000E+00
    0.00000E+00         0.00000E+00        -0.27703E+04
 
   -0.60847E+04         0.90209E+03         0.00000E+00
    0.90209E+03        -0.53912E+03         0.00000E+00
    0.00000E+00         0.00000E+00        -0.28118E+04
 
   -0.59247E+04         0.99816E+03         0.00000E+00
    0.99816E+03        -0.64170E+03         0.00000E+00
    0.00000E+00         0.00000E+00        -0.28445E+04
 
   -0.57378E+04         0.10939E+04         0.00000E+00
    0.10939E+04        -0.75348E+03         0.00000E+00
    0.00000E+00         0.00000E+00        -0.28681E+04
 
   -0.55234E+04         0.11887E+04         0.00000E+00
    0.11887E+04        -0.87428E+03         0.00000E+00
    0.00000E+00         0.00000E+00        -0.28822E+04
 
   -0.52813E+04         0.12820E+04         0.00000E+00
    0.12820E+04        -0.10039E+04         0.00000E+00
    0.00000E+00         0.00000E+00        -0.28865E+04
 
   -0.50112E+04         0.13730E+04         0.00000E+00
    0.13730E+04        -0.11422E+04         0.00000E+00
    0.00000E+00         0.00000E+00        -0.28807E+04
 
   -0.47132E+04         0.14612E+04         0.00000E+00
    0.14612E+04        -0.12888E+04         0.00000E+00
    0.00000E+00         0.00000E+00        -0.28644E+04
 
   -0.43872E+04         0.15458E+04         0.00000E+00
    0.15458E+04        -0.14436E+04         0.00000E+00
    0.00000E+00         0.00000E+00        -0.28376E+04
 
   -0.40333E+04         0.16262E+04         0.00000E+00
    0.16262E+04        -0.16062E+04         0.00000E+00
    0.00000E+00         0.00000E+00        -0.28000E+04
 
   -0.36518E+04         0.17015E+04         0.00000E+00
    0.17015E+04        -0.17762E+04         0.00000E+00
    0.00000E+00         0.00000E+00        -0.27515E+04
 
   -0.32432E+04         0.17709E+04         0.00000E+00
    0.17709E+04        -0.19534E+04         0.00000E+00
    0.00000E+00         0.00000E+00        -0.26921E+04
 
   -0.28079E+04         0.18334E+04         0.00000E+00
    0.18334E+04        -0.21372E+04         0.00000E+00
    0.00000E+00         0.00000E+00        -0.26217E+04
 
   -0.62125E+04         0.11773E+02         0.00000E+00
    0.11773E+02        -0.63558E+00         0.00000E+00
    0.00000E+00         0.00000E+00        -0.18989E+04
 
   -0.62804E+04         0.42862E+02         0.00000E+00
    0.42862E+02        -0.43749E+01         0.00000E+00
    0.00000E+00         0.00000E+00        -0.19905E+04
 
   -0.63395E+04         0.83113E+02         0.00000E+00
    0.83113E+02        -0.12868E+02         0.00000E+00
    0.00000E+00         0.00000E+00        -0.20812E+04
 
   -0.63873E+04         0.13171E+03         0.00000E+00
    0.13171E+03        -0.27078E+02         0.00000E+00
    0.00000E+00         0.00000E+00        -0.21701E+04
 
   -0.64214E+04         0.18780E+03         0.00000E+00
    0.18780E+03        -0.47839E+02         0.00000E+00
    0.00000E+00         0.00000E+00        -0.22564E+04
 
   -0.64398E+04         0.25054E+03         0.00000E+00
    0.25054E+03        -0.75867E+02         0.00000E+00
    0.00000E+00         0.00000E+00        -0.23393E+04
 
   -0.64406E+04         0.31906E+03         0.00000E+00
    0.31906E+03        -0.11176E+03         0.00000E+00
    0.00000E+00         0.00000E+00        -0.24180E+04
 
   -0.64221E+04         0.39252E+03         0.00000E+00
    0.39252E+03        -0.15599E+03         0.00000E+00
    0.00000E+00         0.00000E+00        -0.24917E+04
 
   -0.63828E+04         0.47009E+03         0.00000E+00
    0.47009E+03        -0.20895E+03         0.00000E+00
    0.00000E+00         0.00000E+00        -0.25598E+04
 
   -0.63214E+04         0.55097E+03         0.00000E+00
    0.55097E+03        -0.27092E+03         0.00000E+00
    0.00000E+00         0.00000E+00        -0.26216E+04
 
   -0.62366E+04         0.63440E+03         0.00000E+00
    0.63440E+03        -0.34206E+03         0.00000E+00
    0.00000E+00         0.00000E+00        -0.26765E+04
 
   -0.61276E+04         0.71963E+03         0.00000E+00
    0.71963E+03        -0.42250E+03         0.00000E+00
    0.00000E+00         0.00000E+00        -0.27239E+04
 
   -0.59934E+04         0.80598E+03         0.00000E+00
    0.80598E+03        -0.51227E+03         0.00000E+00
    0.00000E+00         0.00000E+00        -0.27634E+04
 
   -0.58333E+04         0.89279E+03         0.00000E+00
    0.89279E+03        -0.61132E+03         0.00000E+00
    0.00000E+00         0.00000E+00        -0.27944E+04
 
   -0.56469E+04         0.97942E+03         0.00000E+00
    0.97942E+03        -0.71958E+03         0.00000E+00
    0.00000E+00         0.00000E+00        -0.28165E+04
 
   -0.54337E+04         0.10653E+04         0.00000E+00
    0.10653E+04        -0.83692E+03         0.00000E+00
    0.00000E+00         0.00000E+00        -0.28294E+04
 
   -0.51934E+04         0.11497E+04         0.00000E+00
    0.11497E+04        -0.96316E+03         0.00000E+00
    0.00000E+00         0.00000E+00        -0.28327E+04
 
   -0.49258E+04         0.12322E+04         0.00000E+00
    0.12322E+04        -0.10981E+04         0.00000E+00
    0.00000E+00         0.00000E+00        -0.28262E+04
 
   -0.46308E+04         0.13121E+04         0.00000E+00
    0.13121E+04        -0.12415E+04         0.00000E+00
    0.00000E+00         0.00000E+00        -0.28095E+04
 
   -0.43085E+04         0.13887E+04         0.00000E+00
    0.13887E+04        -0.13931E+04         0.00000E+00
    0.00000E+00         0.00000E+00        -0.27826E+04
 
   -0.39591E+04         0.14614E+04         0.00000E+00
    0.14614E+04        -0.15526E+04         0.00000E+00
    0.00000E+00         0.00000E+00        -0.27451E+04
 
   -0.35829E+04         0.15294E+04         0.00000E+00
    0.15294E+04        -0.17195E+04         0.00000E+00
    0.00000E+00         0.00000E+00        -0.26971E+04
 
   -0.31804E+04         0.15919E+04         0.00000E+00
    0.15919E+04        -0.18936E+04         0.00000E+00
    0.00000E+00         0.00000E+00        -0.26385E+04
 
   -0.27523E+04         0.16481E+04         0.00000E+00
    0.16481E+04        -0.20741E+04         0.00000E+00
    0.00000E+00         0.00000E+00        -0.25692E+04
 
   -0.61881E+04         0.10171E+02         0.00000E+00
    0.10171E+02        -0.57721E+00         0.00000E+00
    0.00000E+00         0.00000E+00        -0.18909E+04
 
   -0.62470E+04         0.37195E+02         0.00000E+00
    0.37195E+02        -0.40051E+01         0.00000E+00
    0.00000E+00         0.00000E+00        -0.19785E+04
 
   -0.62978E+04         0.72361E+02         0.00000E+00
    0.72361E+02        -0.11858E+02         0.00000E+00
    0.00000E+00         0.00000E+00        -0.20654E+04
 
   -0.63380E+04         0.11497E+03         0.00000E+00
    0.11497E+03        -0.25090E+02         0.00000E+00
    0.00000E+00         0.00000E+00        -0.21507E+04
 
   -0.63654E+04         0.16431E+03         0.00000E+00
    0.16431E+03        -0.44540E+02         0.00000E+00
    0.00000E+00         0.00000E+00        -0.22336E+04
 
   -0.63779E+04         0.21962E+03         0.00000E+00
    0.21962E+03        -0.70935E+02         0.00000E+00
    0.00000E+00         0.00000E+00        -0.23132E+04
 
   -0.63737E+04         0.28017E+03         0.00000E+00
    0.28017E+03        -0.10489E+03         0.00000E+00
    0.00000E+00         0.00000E+00        -0.23888E+04
 
   -0.63508E+04         0.34521E+03         0.00000E+00
    0.34521E+03        -0.14692E+03         0.00000E+00
    0.00000E+00         0.00000E+00        -0.24597E+04
 
   -0.63080E+04         0.41401E+03         0.00000E+00
    0.41401E+03        -0.19743E+03         0.00000E+00
    0.00000E+00         0.00000E+00        -0.25251E+04
 
   -0.62437E+04         0.48587E+03         0.00000E+00
    0.48587E+03        -0.25675E+03         0.00000E+00
    0.00000E+00         0.00000E+00        -0.25844E+04
 
   -0.61568E+04         0.56011E+03         0.00000E+00
    0.56011E+03        -0.32508E+03         0.00000E+00
    0.00000E+00         0.00000E+00        -0.26371E+04
 
   -0.60463E+04         0.63608E+03         0.00000E+00
    0.63608E+03        -0.40259E+03         0.00000E+00
    0.00000E+00         0.00000E+00        -0.26825E+04
 
   -0.59113E+04         0.71314E+03         0.00000E+00
    0.71314E+03        -0.48934E+03         0.00000E+00
    0.00000E+00         0.00000E+00        -0.27202E+04
 
   -0.57511E+04         0.79070E+03         0.00000E+00
    0.79070E+03        -0.58535E+03         0.00000E+00
    0.00000E+00         0.00000E+00        -0.27496E+04
 
   -0.55652E+04         0.86817E+03         0.00000E+00
    0.86817E+03        -0.69056E+03         0.00000E+00
    0.00000E+00         0.00000E+00        -0.27704E+04
 
   -0.53529E+04         0.94499E+03         0.00000E+00
    0.94499E+03        -0.80487E+03         0.00000E+00
    0.00000E+00         0.00000E+00        -0.27822E+04
 
   -0.51142E+04         0.10206E+04         0.00000E+00
    0.10206E+04        -0.92813E+03         0.00000E+00
    0.00000E+00         0.00000E+00        -0.27846E+04
 
   -0.48488E+04         0.10945E+04         0.00000E+00
    0.10945E+04        -0.10601E+04         0.00000E+00
    0.00000E+00         0.00000E+00        -0.27775E+04
 
   -0.45566E+04         0.11660E+04         0.00000E+00
    0.11660E+04        -0.12007E+04         0.00000E+00
    0.00000E+00         0.00000E+00        -0.27605E+04
 
   -0.42377E+04         0.12345E+04         0.00000E+00
    0.12345E+04        -0.13494E+04         0.00000E+00
    0.00000E+00         0.00000E+00        -0.27334E+04
 
   -0.38924E+04         0.12995E+04         0.00000E+00
    0.12995E+04        -0.15061E+04         0.00000E+00
    0.00000E+00         0.00000E+00        -0.26961E+04
 
   -0.35211E+04         0.13603E+04         0.00000E+00
    0.13603E+04        -0.16702E+04         0.00000E+00
    0.00000E+00         0.00000E+00        -0.26486E+04
 
   -0.31242E+04         0.14160E+04         0.00000E+00
    0.14160E+04        -0.18414E+04         0.00000E+00
    0.00000E+00         0.00000E+00        -0.25907E+04
 
   -0.27026E+04         0.14660E+04         0.00000E+00
    0.14660E+04        -0.20190E+04         0.00000E+00
    0.00000E+00         0.00000E+00        -0.25224E+04
 
   -0.61670E+04         0.87072E+01         0.00000E+00
    0.87072E+01        -0.52960E+00         0.00000E+00
    0.00000E+00         0.00000E+00        -0.18840E+04
 
   -0.62180E+04         0.31959E+02         0.00000E+00
    0.31959E+02        -0.37013E+01         0.00000E+00
    0.00000E+00         0.00000E+00        -0.19681E+04
 
   -0.62614E+04         0.62348E+02         0.00000E+00
    0.62348E+02        -0.11023E+02         0.00000E+00
    0.00000E+00         0.00000E+00        -0.20516E+04
 
   -0.62950E+04         0.99289E+02         0.00000E+00
    0.99289E+02        -0.23439E+02         0.00000E+00
    0.00000E+00         0.00000E+00        -0.21337E+04
 
   -0.63164E+04         0.14217E+03         0.00000E+00
    0.14217E+03        -0.41791E+02         0.00000E+00
    0.00000E+00         0.00000E+00        -0.22135E+04
 
   -0.63237E+04         0.19034E+03         0.00000E+00
    0.19034E+03        -0.66814E+02         0.00000E+00
    0.00000E+00         0.00000E+00        -0.22902E+04
 
   -0.63148E+04         0.24318E+03         0.00000E+00
    0.24318E+03        -0.99142E+02         0.00000E+00
    0.00000E+00         0.00000E+00        -0.23631E+04
 
   -0.62880E+04         0.30004E+03         0.00000E+00
    0.30004E+03        -0.13931E+03         0.00000E+00
    0.00000E+00         0.00000E+00        -0.24314E+04
 
   -0.62419E+04         0.36028E+03         0.00000E+00
    0.36028E+03        -0.18775E+03         0.00000E+00
    0.00000E+00         0.00000E+00        -0.24944E+04
 
   -0.61751E+04         0.42330E+03         0.00000E+00
    0.42330E+03        -0.24481E+03         0.00000E+00
    0.00000E+00         0.00000E+00        -0.25516E+04
 
   -0.60862E+04         0.48849E+03         0.00000E+00
    0.48849E+03        -0.31076E+03         0.00000E+00
    0.00000E+00         0.00000E+00        -0.26023E+04
 
   -0.59744E+04         0.55528E+03         0.00000E+00
    0.55528E+03        -0.38577E+03         0.00000E+00
    0.00000E+00         0.00000E+00        -0.26459E+04
 
   -0.58386E+04         0.62311E+03         0.00000E+00
    0.62311E+03        -0.46995E+03         0.00000E+00
    0.00000E+00         0.00000E+00        -0.26820E+04
 
   -0.56782E+04         0.69144E+03         0.00000E+00
    0.69144E+03        -0.56334E+03         0.00000E+00
    0.00000E+00         0.00000E+00        -0.27100E+04
 
   -0.54925E+04         0.75975E+03         0.00000E+00
    0.75975E+03        -0.66592E+03         0.00000E+00
    0.00000E+00         0.00000E+00        -0.27296E+04
 
   -0.52811E+04         0.82753E+03         0.00000E+00
    0.82753E+03        -0.77761E+03         0.00000E+00
    0.00000E+00         0.00000E+00        -0.27404E+04
 
   -0.50438E+04         0.89427E+03         0.00000E+00
    0.89427E+03        -0.89828E+03         0.00000E+00
    0.00000E+00         0.00000E+00        -0.27421E+04
 
   -0.47803E+04         0.95946E+03         0.00000E+00
    0.95946E+03        -0.10277E+04         0.00000E+00
    0.00000E+00         0.00000E+00        -0.27344E+04
 
   -0.44906E+04         0.10226E+04         0.00000E+00
    0.10226E+04        -0.11657E+04         0.00000E+00
    0.00000E+00         0.00000E+00        -0.27171E+04
 
   -0.41748E+04         0.10831E+04         0.00000E+00
    0.10831E+04        -0.13120E+04         0.00000E+00
    0.00000E+00         0.00000E+00        -0.26900E+04
 
   -0.38332E+04         0.11403E+04         0.00000E+00
    0.11403E+04        -0.14661E+04         0.00000E+00
    0.00000E+00         0.00000E+00        -0.26529E+04
 
   -0.34663E+04         0.11938E+04         0.00000E+00
    0.11938E+04        -0.16278E+04         0.00000E+00
    0.00000E+00         0.00000E+00        -0.26058E+04
 
   -0.30745E+04         0.12428E+04         0.00000E+00
    0.12428E+04        -0.17964E+04         0.00000E+00
    0.00000E+00         0.00000E+00        -0.25485E+04
 
   -0.26588E+04         0.12867E+04         0.00000E+00
    0.12867E+04        -0.19714E+04         0.00000E+00
    0.00000E+00         0.00000E+00        -0.24812E+04
 
   -0.61491E+04         0.73544E+01         0.00000E+00
    0.73544E+01        -0.49128E+00         0.00000E+00
    0.00000E+00         0.00000E+00        -0.18782E+04
 
   -0.61931E+04         0.27077E+02         0.00000E+00
    0.27077E+02        -0.34550E+01         0.00000E+00
    0.00000E+00         0.00000E+00        -0.19592E+04
 
   -0.62302E+04         0.52946E+02         0.00000E+00
    0.52946E+02        -0.10342E+02         0.00000E+00
    0.00000E+00         0.00000E+00        -0.20397E+04
 
   -0.62580E+04         0.84476E+02         0.00000E+00
    0.84476E+02        -0.22087E+02         0.00000E+00
    0.00000E+00         0.00000E+00        -0.21190E+04
 
   -0.62741E+04         0.12115E+03         0.00000E+00
    0.12115E+03        -0.39530E+02         0.00000E+00
    0.00000E+00         0.00000E+00        -0.21961E+04
 
   -0.62767E+04         0.16244E+03         0.00000E+00
    0.16244E+03        -0.63414E+02         0.00000E+00
    0.00000E+00         0.00000E+00        -0.22703E+04
 
   -0.62637E+04         0.20780E+03         0.00000E+00
    0.20780E+03        -0.94384E+02         0.00000E+00
    0.00000E+00         0.00000E+00        -0.23407E+04
 
   -0.62335E+04         0.25668E+03         0.00000E+00
    0.25668E+03        -0.13299E+03         0.00000E+00
    0.00000E+00         0.00000E+00        -0.24068E+04
 
   -0.61845E+04         0.30854E+03         0.00000E+00
    0.30854E+03        -0.17970E+03         0.00000E+00
    0.00000E+00         0.00000E+00        -0.24678E+04
 
   -0.61153E+04         0.36286E+03         0.00000E+00
    0.36286E+03        -0.23488E+03         0.00000E+00
    0.00000E+00         0.00000E+00        -0.25231E+04
 
   -0.60247E+04         0.41912E+03         0.00000E+00
    0.41912E+03        -0.29881E+03         0.00000E+00
    0.00000E+00         0.00000E+00        -0.25720E+04
 
   -0.59116E+04         0.47682E+03         0.00000E+00
    0.47682E+03        -0.37172E+03         0.00000E+00
    0.00000E+00         0.00000E+00        -0.26140E+04
 
   -0.57750E+04         0.53548E+03         0.00000E+00
    0.53548E+03        -0.45373E+03         0.00000E+00
    0.00000E+00         0.00000E+00        -0.26487E+04
 
   -0.56144E+04         0.59461E+03         0.00000E+00
    0.59461E+03        -0.54491E+03         0.00000E+00
    0.00000E+00         0.00000E+00        -0.26755E+04
 
   -0.54289E+04         0.65376E+03         0.00000E+00
    0.65376E+03        -0.64526E+03         0.00000E+00
    0.00000E+00         0.00000E+00        -0.26941E+04
 
   -0.52183E+04         0.71249E+03         0.00000E+00
    0.71249E+03        -0.75471E+03         0.00000E+00
    0.00000E+00         0.00000E+00        -0.27041E+04
 
   -0.49822E+04         0.77033E+03         0.00000E+00
    0.77033E+03        -0.87315E+03         0.00000E+00
    0.00000E+00         0.00000E+00        -0.27051E+04
 
   -0.47203E+04         0.82682E+03         0.00000E+00
    0.82682E+03        -0.10004E+04         0.00000E+00
    0.00000E+00         0.00000E+00        -0.26970E+04
 
   -0.44328E+04         0.88152E+03         0.00000E+00
    0.88152E+03        -0.11362E+04         0.00000E+00
    0.00000E+00         0.00000E+00        -0.26794E+04
 
   -0.41198E+04         0.93391E+03         0.00000E+00
    0.93391E+03        -0.12803E+04         0.00000E+00
    0.00000E+00         0.00000E+00        -0.26522E+04
 
   -0.37815E+04         0.98351E+03         0.00000E+00
    0.98351E+03        -0.14322E+04         0.00000E+00
    0.00000E+00         0.00000E+00        -0.26153E+04
 
   -0.34184E+04         0.10298E+04         0.00000E+00
    0.10298E+04        -0.15916E+04         0.00000E+00
    0.00000E+00         0.00000E+00        -0.25685E+04
 
   -0.30312E+04         0.10721E+04         0.00000E+00
    0.10721E+04        -0.17580E+04         0.00000E+00
    0.00000E+00         0.00000E+00        -0.25119E+04
 
   -0.26206E+04         0.11099E+04         0.00000E+00
    0.11099E+04        -0.19306E+04         0.00000E+00
    0.00000E+00         0.00000E+00        -0.24454E+04
 
   -0.61340E+04         0.60908E+01         0.00000E+00
    0.60908E+01        -0.46091E+00         0.00000E+00
    0.00000E+00         0.00000E+00        -0.18732E+04
 
   -0.61722E+04         0.22480E+02         0.00000E+00
    0.22480E+02        -0.32585E+01         0.00000E+00
    0.00000E+00         0.00000E+00        -0.19516E+04
 
   -0.62038E+04         0.44040E+02         0.00000E+00
    0.44040E+02        -0.97953E+01         0.00000E+00
    0.00000E+00         0.00000E+00        -0.20297E+04
 
   -0.62266E+04         0.70377E+02         0.00000E+00
    0.70377E+02        -0.20997E+02         0.00000E+00
    0.00000E+00         0.00000E+00        -0.21065E+04
 
   -0.62383E+04         0.10107E+03         0.00000E+00
    0.10107E+03        -0.37700E+02         0.00000E+00
    0.00000E+00         0.00000E+00        -0.21813E+04
 
   -0.62368E+04         0.13567E+03         0.00000E+00
    0.13567E+03        -0.60652E+02         0.00000E+00
    0.00000E+00         0.00000E+00        -0.22533E+04
 
   -0.62203E+04         0.17374E+03         0.00000E+00
    0.17374E+03        -0.90509E+02         0.00000E+00
    0.00000E+00         0.00000E+00        -0.23217E+04
 
   -0.61871E+04         0.21482E+03         0.00000E+00
    0.21482E+03        -0.12784E+03         0.00000E+00
    0.00000E+00         0.00000E+00        -0.23859E+04
 
   -0.61356E+04         0.25845E+03         0.00000E+00
    0.25845E+03        -0.17312E+03         0.00000E+00
    0.00000E+00         0.00000E+00        -0.24451E+04
 
   -0.60643E+04         0.30421E+03         0.00000E+00
    0.30421E+03        -0.22674E+03         0.00000E+00
    0.00000E+00         0.00000E+00        -0.24987E+04
 
   -0.59721E+04         0.35164E+03         0.00000E+00
    0.35164E+03        -0.28902E+03         0.00000E+00
    0.00000E+00         0.00000E+00        -0.25462E+04
 
   -0.58579E+04         0.40032E+03         0.00000E+00
    0.40032E+03        -0.36018E+03         0.00000E+00
    0.00000E+00         0.00000E+00        -0.25869E+04
 
   -0.57207E+04         0.44985E+03         0.00000E+00
    0.44985E+03        -0.44038E+03         0.00000E+00
    0.00000E+00         0.00000E+00        -0.26203E+04
 
   -0.55598E+04         0.49982E+03         0.00000E+00
    0.49982E+03        -0.52971E+03         0.00000E+00
    0.00000E+00         0.00000E+00        -0.26461E+04
 
   -0.53745E+04         0.54983E+03         0.00000E+00
    0.54983E+03        -0.62819E+03         0.00000E+00
    0.00000E+00         0.00000E+00        -0.26638E+04
 
   -0.51645E+04         0.59950E+03         0.00000E+00
    0.59950E+03        -0.73577E+03         0.00000E+00
    0.00000E+00         0.00000E+00        -0.26731E+04
 
   -0.49293E+04         0.64843E+03         0.00000E+00
    0.64843E+03        -0.85233E+03         0.00000E+00
    0.00000E+00         0.00000E+00        -0.26736E+04
 
   -0.46690E+04         0.69623E+03         0.00000E+00
    0.69623E+03        -0.97769E+03         0.00000E+00
    0.00000E+00         0.00000E+00        -0.26650E+04
 
   -0.43834E+04         0.74249E+03         0.00000E+00
    0.74249E+03        -0.11116E+04         0.00000E+00
    0.00000E+00         0.00000E+00        -0.26472E+04
 
   -0.40727E+04         0.78680E+03         0.00000E+00
    0.78680E+03        -0.12538E+04         0.00000E+00
    0.00000E+00         0.00000E+00        -0.26200E+04
 
   -0.37372E+04         0.82872E+03         0.00000E+00
    0.82872E+03        -0.14039E+04         0.00000E+00
    0.00000E+00         0.00000E+00        -0.25832E+04
 
   -0.33775E+04         0.86778E+03         0.00000E+00
    0.86778E+03        -0.15614E+04         0.00000E+00
    0.00000E+00         0.00000E+00        -0.25368E+04
 
   -0.29942E+04         0.90350E+03         0.00000E+00
    0.90350E+03        -0.17258E+04         0.00000E+00
    0.00000E+00         0.00000E+00        -0.24807E+04
 
   -0.25881E+04         0.93537E+03         0.00000E+00
    0.93537E+03        -0.18964E+04         0.00000E+00
    0.00000E+00         0.00000E+00        -0.24148E+04
 
   -0.61217E+04         0.48973E+01         0.00000E+00
    0.48973E+01        -0.43736E+00         0.00000E+00
    0.00000E+00         0.00000E+00        -0.18692E+04
 
   -0.61550E+04         0.18110E+02         0.00000E+00
    0.18110E+02        -0.31050E+01         0.00000E+00
    0.00000E+00         0.00000E+00        -0.19454E+04
 
   -0.61822E+04         0.35532E+02         0.00000E+00
    0.35532E+02        -0.93662E+01         0.00000E+00
    0.00000E+00         0.00000E+00        -0.20213E+04
 
   -0.62008E+04         0.56852E+02         0.00000E+00
    0.56852E+02        -0.20137E+02         0.00000E+00
    0.00000E+00         0.00000E+00        -0.20962E+04
 
   -0.62087E+04         0.81734E+02         0.00000E+00
    0.81734E+02        -0.36251E+02         0.00000E+00
    0.00000E+00         0.00000E+00        -0.21691E+04
 
   -0.62038E+04         0.10982E+03         0.00000E+00
    0.10982E+03        -0.58459E+02         0.00000E+00
    0.00000E+00         0.00000E+00        -0.22393E+04
 
   -0.61844E+04         0.14076E+03         0.00000E+00
    0.14076E+03        -0.87425E+02         0.00000E+00
    0.00000E+00         0.00000E+00        -0.23060E+04
 
   -0.61487E+04         0.17418E+03         0.00000E+00
    0.17418E+03        -0.12373E+03         0.00000E+00
    0.00000E+00         0.00000E+00        -0.23686E+04
 
   -0.60950E+04         0.20971E+03         0.00000E+00
    0.20971E+03        -0.16786E+03         0.00000E+00
    0.00000E+00         0.00000E+00        -0.24263E+04
 
   -0.60220E+04         0.24700E+03         0.00000E+00
    0.24700E+03        -0.22022E+03         0.00000E+00
    0.00000E+00         0.00000E+00        -0.24786E+04
 
   -0.59284E+04         0.28569E+03         0.00000E+00
    0.28569E+03        -0.28116E+03         0.00000E+00
    0.00000E+00         0.00000E+00        -0.25247E+04
 
   -0.58132E+04         0.32543E+03         0.00000E+00
    0.32543E+03        -0.35091E+03         0.00000E+00
    0.00000E+00         0.00000E+00        -0.25643E+04
 
   -0.56754E+04         0.36588E+03         0.00000E+00
    0.36588E+03        -0.42964E+03         0.00000E+00
    0.00000E+00         0.00000E+00        -0.25968E+04
 
   -0.55143E+04         0.40671E+03         0.00000E+00
    0.40671E+03        -0.51747E+03         0.00000E+00
    0.00000E+00         0.00000E+00        -0.26217E+04
 
   -0.53292E+04         0.44760E+03         0.00000E+00
    0.44760E+03        -0.61443E+03         0.00000E+00
    0.00000E+00         0.00000E+00        -0.26387E+04
 
   -0.51196E+04         0.48822E+03         0.00000E+00
    0.48822E+03        -0.72046E+03         0.00000E+00
    0.00000E+00         0.00000E+00        -0.26473E+04
 
   -0.48853E+04         0.52824E+03         0.00000E+00
    0.52824E+03        -0.83548E+03         0.00000E+00
    0.00000E+00         0.00000E+00        -0.26474E+04
 
   -0.46262E+04         0.56734E+03         0.00000E+00
    0.56734E+03        -0.95930E+03         0.00000E+00
    0.00000E+00         0.00000E+00        -0.26385E+04
 
   -0.43422E+04         0.60518E+03         0.00000E+00
    0.60518E+03        -0.10917E+04         0.00000E+00
    0.00000E+00         0.00000E+00        -0.26205E+04
 
   -0.40335E+04         0.64141E+03         0.00000E+00
    0.64141E+03        -0.12323E+04         0.00000E+00
    0.00000E+00         0.00000E+00        -0.25933E+04
 
   -0.37004E+04         0.67567E+03         0.00000E+00
    0.67567E+03        -0.13808E+04         0.00000E+00
    0.00000E+00         0.00000E+00        -0.25566E+04
 
   -0.33435E+04         0.70758E+03         0.00000E+00
    0.70758E+03        -0.15367E+04         0.00000E+00
    0.00000E+00         0.00000E+00        -0.25105E+04
 
   -0.29634E+04         0.73673E+03         0.00000E+00
    0.73673E+03        -0.16995E+04         0.00000E+00
    0.00000E+00         0.00000E+00        -0.24548E+04
 
   -0.25611E+04         0.76271E+03         0.00000E+00
    0.76271E+03        -0.18684E+04         0.00000E+00
    0.00000E+00         0.00000E+00        -0.23895E+04
 
   -0.61120E+04         0.37575E+01         0.00000E+00
    0.37575E+01        -0.41967E+00         0.00000E+00
    0.00000E+00         0.00000E+00        -0.18660E+04
 
   -0.61414E+04         0.13915E+02         0.00000E+00
    0.13915E+02        -0.29890E+01         0.00000E+00
    0.00000E+00         0.00000E+00        -0.19405E+04
 
   -0.61650E+04         0.27333E+02         0.00000E+00
    0.27333E+02        -0.90401E+01         0.00000E+00
    0.00000E+00         0.00000E+00        -0.20147E+04
 
   -0.61803E+04         0.43776E+02         0.00000E+00
    0.43776E+02        -0.19481E+02         0.00000E+00
    0.00000E+00         0.00000E+00        -0.20880E+04
 
   -0.61852E+04         0.62988E+02         0.00000E+00
    0.62988E+02        -0.35142E+02         0.00000E+00
    0.00000E+00         0.00000E+00        -0.21593E+04
 
   -0.61776E+04         0.84700E+02         0.00000E+00
    0.84700E+02        -0.56776E+02         0.00000E+00
    0.00000E+00         0.00000E+00        -0.22281E+04
 
   -0.61558E+04         0.10863E+03         0.00000E+00
    0.10863E+03        -0.85053E+02         0.00000E+00
    0.00000E+00         0.00000E+00        -0.22935E+04
 
   -0.61180E+04         0.13451E+03         0.00000E+00
    0.13451E+03        -0.12056E+03         0.00000E+00
    0.00000E+00         0.00000E+00        -0.23548E+04
 
   -0.60626E+04         0.16204E+03         0.00000E+00
    0.16204E+03        -0.16379E+03         0.00000E+00
    0.00000E+00         0.00000E+00        -0.24113E+04
 
   -0.59882E+04         0.19095E+03         0.00000E+00
    0.19095E+03        -0.21519E+03         0.00000E+00
    0.00000E+00         0.00000E+00        -0.24625E+04
 
   -0.58936E+04         0.22097E+03         0.00000E+00
    0.22097E+03        -0.27507E+03         0.00000E+00
    0.00000E+00         0.00000E+00        -0.25077E+04
 
   -0.57776E+04         0.25182E+03         0.00000E+00
    0.25182E+03        -0.34372E+03         0.00000E+00
    0.00000E+00         0.00000E+00        -0.25463E+04
 
   -0.56393E+04         0.28323E+03         0.00000E+00
    0.28323E+03        -0.42131E+03         0.00000E+00
    0.00000E+00         0.00000E+00        -0.25780E+04
 
   -0.54779E+04         0.31496E+03         0.00000E+00
    0.31496E+03        -0.50796E+03         0.00000E+00
    0.00000E+00         0.00000E+00        -0.26023E+04
 
   -0.52929E+04         0.34674E+03         0.00000E+00
    0.34674E+03        -0.60371E+03         0.00000E+00
    0.00000E+00         0.00000E+00        -0.26186E+04
 
   -0.50838E+04         0.37832E+03         0.00000E+00
    0.37832E+03        -0.70853E+03         0.00000E+00
    0.00000E+00         0.00000E+00        -0.26268E+04
 
   -0.48501E+04         0.40944E+03         0.00000E+00
    0.40944E+03        -0.82233E+03         0.00000E+00
    0.00000E+00         0.00000E+00        -0.26265E+04
 
   -0.45920E+04         0.43984E+03         0.00000E+00
    0.43984E+03        -0.94492E+03         0.00000E+00
    0.00000E+00         0.00000E+00        -0.26174E+04
 
   -0.43092E+04         0.46926E+03         0.00000E+00
    0.46926E+03        -0.10761E+04         0.00000E+00
    0.00000E+00         0.00000E+00        -0.25992E+04
 
   -0.40021E+04         0.49742E+03         0.00000E+00
    0.49742E+03        -0.12155E+04         0.00000E+00
    0.00000E+00         0.00000E+00        -0.25720E+04
 
   -0.36710E+04         0.52404E+03         0.00000E+00
    0.52404E+03        -0.13627E+04         0.00000E+00
    0.00000E+00         0.00000E+00        -0.25354E+04
 
   -0.33163E+04         0.54883E+03         0.00000E+00
    0.54883E+03        -0.15173E+04         0.00000E+00
    0.00000E+00         0.00000E+00        -0.24895E+04
 
   -0.29389E+04         0.57146E+03         0.00000E+00
    0.57146E+03        -0.16788E+04         0.00000E+00
    0.00000E+00         0.00000E+00        -0.24341E+04
 
   -0.25396E+04         0.59161E+03         0.00000E+00
    0.59161E+03        -0.18464E+04         0.00000E+00
    0.00000E+00         0.00000E+00        -0.23694E+04
 
   -0.61048E+04         0.26572E+01         0.00000E+00
    0.26572E+01        -0.40707E+00         0.00000E+00
    0.00000E+00         0.00000E+00        -0.18636E+04
 
   -0.61314E+04         0.98508E+01         0.00000E+00
    0.98508E+01        -0.29059E+01         0.00000E+00
    0.00000E+00         0.00000E+00        -0.19368E+04
 
   -0.61522E+04         0.19365E+02         0.00000E+00
    0.19365E+02        -0.88056E+01         0.00000E+00
    0.00000E+00         0.00000E+00        -0.20098E+04
 
   -0.61650E+04         0.31037E+02         0.00000E+00
    0.31037E+02        -0.19007E+02         0.00000E+00
    0.00000E+00         0.00000E+00        -0.20819E+04
 
   -0.61676E+04         0.44685E+02         0.00000E+00
    0.44685E+02        -0.34339E+02         0.00000E+00
    0.00000E+00         0.00000E+00        -0.21521E+04
 
   -0.61581E+04         0.60121E+02         0.00000E+00
    0.60121E+02        -0.55555E+02         0.00000E+00
    0.00000E+00         0.00000E+00        -0.22198E+04
 
   -0.61345E+04         0.77148E+02         0.00000E+00
    0.77148E+02        -0.83328E+02         0.00000E+00
    0.00000E+00         0.00000E+00        -0.22841E+04
 
   -0.60951E+04         0.95567E+02         0.00000E+00
    0.95567E+02        -0.11825E+03         0.00000E+00
    0.00000E+00         0.00000E+00        -0.23444E+04
 
   -0.60384E+04         0.11518E+03         0.00000E+00
    0.11518E+03        -0.16083E+03         0.00000E+00
    0.00000E+00         0.00000E+00        -0.24001E+04
 
   -0.59630E+04         0.13578E+03         0.00000E+00
    0.13578E+03        -0.21151E+03         0.00000E+00
    0.00000E+00         0.00000E+00        -0.24504E+04
 
   -0.58675E+04         0.15718E+03         0.00000E+00
    0.15718E+03        -0.27062E+03         0.00000E+00
    0.00000E+00         0.00000E+00        -0.24949E+04
 
   -0.57509E+04         0.17918E+03         0.00000E+00
    0.17918E+03        -0.33846E+03         0.00000E+00
    0.00000E+00         0.00000E+00        -0.25329E+04
 
   -0.56122E+04         0.20160E+03         0.00000E+00
    0.20160E+03        -0.41520E+03         0.00000E+00
    0.00000E+00         0.00000E+00        -0.25640E+04
 
   -0.54507E+04         0.22424E+03         0.00000E+00
    0.22424E+03        -0.50098E+03         0.00000E+00
    0.00000E+00         0.00000E+00        -0.25877E+04
 
   -0.52657E+04         0.24693E+03         0.00000E+00
    0.24693E+03        -0.59584E+03         0.00000E+00
    0.00000E+00         0.00000E+00        -0.26036E+04
 
   -0.50569E+04         0.26948E+03         0.00000E+00
    0.26948E+03        -0.69976E+03         0.00000E+00
    0.00000E+00         0.00000E+00        -0.26115E+04
 
   -0.48238E+04         0.29170E+03         0.00000E+00
    0.29170E+03        -0.81265E+03         0.00000E+00
    0.00000E+00         0.00000E+00        -0.26108E+04
 
   -0.45663E+04         0.31341E+03         0.00000E+00
    0.31341E+03        -0.93433E+03         0.00000E+00
    0.00000E+00         0.00000E+00        -0.26015E+04
 
   -0.42845E+04         0.33441E+03         0.00000E+00
    0.33441E+03        -0.10646E+04         0.00000E+00
    0.00000E+00         0.00000E+00        -0.25833E+04
 
   -0.39786E+04         0.35452E+03         0.00000E+00
    0.35452E+03        -0.12030E+04         0.00000E+00
    0.00000E+00         0.00000E+00        -0.25560E+04
 
   -0.36489E+04         0.37352E+03         0.00000E+00
    0.37352E+03        -0.13493E+04         0.00000E+00
    0.00000E+00         0.00000E+00        -0.25196E+04
 
   -0.32960E+04         0.39121E+03         0.00000E+00
    0.39121E+03        -0.15030E+04         0.00000E+00
    0.00000E+00         0.00000E+00        -0.24738E+04
 
   -0.29206E+04         0.40735E+03         0.00000E+00
    0.40735E+03        -0.16635E+04         0.00000E+00
    0.00000E+00         0.00000E+00        -0.24187E+04
 
   -0.25236E+04         0.42171E+03         0.00000E+00
    0.42171E+03        -0.18300E+04         0.00000E+00
    0.00000E+00         0.00000E+00        -0.23543E+04
 
   -0.61000E+04         0.15839E+01         0.00000E+00
    0.15839E+01        -0.39899E+00         0.00000E+00
    0.00000E+00         0.00000E+00        -0.18620E+04
 
   -0.61247E+04         0.58756E+01         0.00000E+00
    0.58756E+01        -0.28524E+01         0.00000E+00
    0.00000E+00         0.00000E+00        -0.19344E+04
 
   -0.61437E+04         0.11557E+02         0.00000E+00
    0.11557E+02        -0.86541E+01         0.00000E+00
    0.00000E+00         0.00000E+00        -0.20066E+04
 
   -0.61549E+04         0.18530E+02         0.00000E+00
    0.18530E+02        -0.18700E+02         0.00000E+00
    0.00000E+00         0.00000E+00        -0.20778E+04
 
   -0.61560E+04         0.26690E+02         0.00000E+00
    0.26690E+02        -0.33818E+02         0.00000E+00
    0.00000E+00         0.00000E+00        -0.21473E+04
 
   -0.61451E+04         0.35923E+02         0.00000E+00
    0.35923E+02        -0.54761E+02         0.00000E+00
    0.00000E+00         0.00000E+00        -0.22142E+04
 
   -0.61203E+04         0.46112E+02         0.00000E+00
    0.46112E+02        -0.82205E+02         0.00000E+00
    0.00000E+00         0.00000E+00        -0.22779E+04
 
   -0.60799E+04         0.57139E+02         0.00000E+00
    0.57139E+02        -0.11675E+03         0.00000E+00
    0.00000E+00         0.00000E+00        -0.23376E+04
 
   -0.60224E+04         0.68883E+02         0.00000E+00
    0.68883E+02        -0.15890E+03         0.00000E+00
    0.00000E+00         0.00000E+00        -0.23926E+04
 
   -0.59462E+04         0.81225E+02         0.00000E+00
    0.81225E+02        -0.20910E+03         0.00000E+00
    0.00000E+00         0.00000E+00        -0.24424E+04
 
   -0.58501E+04         0.94049E+02         0.00000E+00
    0.94049E+02        -0.26771E+03         0.00000E+00
    0.00000E+00         0.00000E+00        -0.24864E+04
 
   -0.57331E+04         0.10724E+03         0.00000E+00
    0.10724E+03        -0.33501E+03         0.00000E+00
    0.00000E+00         0.00000E+00        -0.25240E+04
 
   -0.55942E+04         0.12068E+03         0.00000E+00
    0.12068E+03        -0.41120E+03         0.00000E+00
    0.00000E+00         0.00000E+00        -0.25546E+04
 
   -0.54326E+04         0.13426E+03         0.00000E+00
    0.13426E+03        -0.49640E+03         0.00000E+00
    0.00000E+00         0.00000E+00        -0.25780E+04
 
   -0.52476E+04         0.14786E+03         0.00000E+00
    0.14786E+03        -0.59068E+03         0.00000E+00
    0.00000E+00         0.00000E+00        -0.25937E+04
 
   -0.50389E+04         0.16139E+03         0.00000E+00
    0.16139E+03        -0.69400E+03         0.00000E+00
    0.00000E+00         0.00000E+00        -0.26012E+04
 
   -0.48062E+04         0.17472E+03         0.00000E+00
    0.17472E+03        -0.80629E+03         0.00000E+00
    0.00000E+00         0.00000E+00        -0.26004E+04
 
   -0.45492E+04         0.18774E+03         0.00000E+00
    0.18774E+03        -0.92736E+03         0.00000E+00
    0.00000E+00         0.00000E+00        -0.25910E+04
 
   -0.42681E+04         0.20034E+03         0.00000E+00
    0.20034E+03        -0.10570E+04         0.00000E+00
    0.00000E+00         0.00000E+00        -0.25727E+04
 
   -0.39629E+04         0.21240E+03         0.00000E+00
    0.21240E+03        -0.11948E+04         0.00000E+00
    0.00000E+00         0.00000E+00        -0.25454E+04
 
   -0.36342E+04         0.22380E+03         0.00000E+00
    0.22380E+03        -0.13405E+04         0.00000E+00
    0.00000E+00         0.00000E+00        -0.25090E+04
 
   -0.32824E+04         0.23440E+03         0.00000E+00
    0.23440E+03        -0.14935E+04         0.00000E+00
    0.00000E+00         0.00000E+00        -0.24633E+04
 
   -0.29084E+04         0.24407E+03         0.00000E+00
    0.24407E+03        -0.16533E+04         0.00000E+00
    0.00000E+00         0.00000E+00        -0.24084E+04
 
   -0.25129E+04         0.25268E+03         0.00000E+00
    0.25268E+03        -0.18192E+04         0.00000E+00
    0.00000E+00         0.00000E+00        -0.23443E+04
 
   -0.60976E+04         0.52624E+00         0.00000E+00
    0.52624E+00        -0.39504E+00         0.00000E+00
    0.00000E+00         0.00000E+00        -0.18612E+04
 
   -0.61213E+04         0.19528E+01         0.00000E+00
    0.19528E+01        -0.28262E+01         0.00000E+00
    0.00000E+00         0.00000E+00        -0.19332E+04
 
   -0.61395E+04         0.38420E+01         0.00000E+00
    0.38420E+01        -0.85797E+01         0.00000E+00
    0.00000E+00         0.00000E+00        -0.20049E+04
 
   -0.61498E+04         0.61617E+01         0.00000E+00
    0.61617E+01        -0.18550E+02         0.00000E+00
    0.00000E+00         0.00000E+00        -0.20758E+04
 
   -0.61502E+04         0.88767E+01         0.00000E+00
    0.88767E+01        -0.33562E+02         0.00000E+00
    0.00000E+00         0.00000E+00        -0.21449E+04
 
   -0.61386E+04         0.11950E+02         0.00000E+00
    0.11950E+02        -0.54370E+02         0.00000E+00
    0.00000E+00         0.00000E+00        -0.22114E+04
 
   -0.61132E+04         0.15341E+02         0.00000E+00
    0.15341E+02        -0.81651E+02         0.00000E+00
    0.00000E+00         0.00000E+00        -0.22748E+04
 
   -0.60723E+04         0.19013E+02         0.00000E+00
    0.19013E+02        -0.11600E+03         0.00000E+00
    0.00000E+00         0.00000E+00        -0.23342E+04
 
   -0.60143E+04         0.22924E+02         0.00000E+00
    0.22924E+02        -0.15794E+03         0.00000E+00
    0.00000E+00         0.00000E+00        -0.23889E+04
 
   -0.59378E+04         0.27035E+02         0.00000E+00
    0.27035E+02        -0.20792E+03         0.00000E+00
    0.00000E+00         0.00000E+00        -0.24384E+04
 
   -0.58414E+04         0.31307E+02         0.00000E+00
    0.31307E+02        -0.26628E+03         0.00000E+00
    0.00000E+00         0.00000E+00        -0.24821E+04
 
   -0.57242E+04         0.35701E+02         0.00000E+00
    0.35701E+02        -0.33331E+03         0.00000E+00
    0.00000E+00         0.00000E+00        -0.25195E+04
 
   -0.55852E+04         0.40179E+02         0.00000E+00
    0.40179E+02        -0.40922E+03         0.00000E+00
    0.00000E+00         0.00000E+00        -0.25500E+04
 
   -0.54235E+04         0.44704E+02         0.00000E+00
    0.44704E+02        -0.49414E+03         0.00000E+00
    0.00000E+00         0.00000E+00        -0.25732E+04
 
   -0.52386E+04         0.49239E+02         0.00000E+00
    0.49239E+02        -0.58812E+03         0.00000E+00
    0.00000E+00         0.00000E+00        -0.25887E+04
 
   -0.50300E+04         0.53746E+02         0.00000E+00
    0.53746E+02        -0.69115E+03         0.00000E+00
    0.00000E+00         0.00000E+00        -0.25961E+04
 
   -0.47974E+04         0.58189E+02         0.00000E+00
    0.58189E+02        -0.80313E+03         0.00000E+00
    0.00000E+00         0.00000E+00        -0.25952E+04
 
   -0.45406E+04         0.62530E+02         0.00000E+00
    0.62530E+02        -0.92391E+03         0.00000E+00
    0.00000E+00         0.00000E+00        -0.25857E+04
 
   -0.42598E+04         0.66729E+02         0.00000E+00
    0.66729E+02        -0.10532E+04         0.00000E+00
    0.00000E+00         0.00000E+00        -0.25674E+04
 
   -0.39551E+04         0.70749E+02         0.00000E+00
    0.70749E+02        -0.11908E+04         0.00000E+00
    0.00000E+00         0.00000E+00        -0.25401E+04
 
   -0.36269E+04         0.74546E+02         0.00000E+00
    0.74546E+02        -0.13361E+04         0.00000E+00
    0.00000E+00         0.00000E+00        -0.25037E+04
 
   -0.32757E+04         0.78079E+02         0.00000E+00
    0.78079E+02        -0.14888E+04         0.00000E+00
    0.00000E+00         0.00000E+00        -0.24581E+04
 
   -0.29023E+04         0.81302E+02         0.00000E+00
    0.81302E+02        -0.16483E+04         0.00000E+00
    0.00000E+00         0.00000E+00        -0.24033E+04
 
   -0.25075E+04         0.84168E+02         0.00000E+00
    0.84168E+02        -0.18139E+04         0.00000E+00
    0.00000E+00         0.00000E+00        -0.23393E+04
 
SCALARS stresss double 
LOOKUP_TABLE default
  -68876.7797265279     
  -67791.4286399132     
  -62522.9841964994     
  -56185.0140418653     
  -50006.7055432062     
  -44259.1860130052     
  -39029.8642079742     
  -34555.2899119001     
  -30681.0555359583     
  -27328.5868491413     
  -24461.5677674912     
  -21946.7303689763     
  -19687.9731307913     
  -17625.9926332929     
  -15730.9910882105     
  -13969.9938818988     
  -12369.4788545711     
  -11029.0103205153     
  -9838.66425108119     
  -9189.04013693427     
  -9655.92923761232     
  -10129.5694778980     
  -10629.3721588597     
  -11170.3193368445     
  -68432.3434393661     
  -63301.5862885300     
  -57926.2058262918     
  -52729.2066810658     
  -47329.4299767934     
  -42193.7021344121     
  -37554.4107092249     
  -33493.9663689278     
  -29942.8349912235     
  -26758.1313422950     
  -23974.9201942338     
  -21521.4533522780     
  -19323.4134491382     
  -17321.0898340423     
  -15491.1770487981     
  -13820.8455144436     
  -12289.6687025740     
  -10963.7123336734     
  -9794.74216796701     
  -9196.03601802319     
  -9637.64204112819     
  -10092.9322755724     
  -10578.4048387254     
  -11107.2810880421     
  -55014.3914017082     
  -50221.5908279217     
  -49166.6313314777     
  -45934.3974050128     
  -42311.8738042456     
  -38470.4288931487     
  -34780.5112588396     
  -31379.1283131750     
  -28290.7528283482     
  -25463.1816823764     
  -22877.3746623291     
  -20603.0816841716     
  -18598.1409921781     
  -16775.8762244138     
  -15082.4965895932     
  -13514.0370722936     
  -12099.6194727293     
  -10830.9033088551     
  -9689.34040140329     
  -9199.42562913083     
  -9594.42261563314     
  -10016.2508479953     
  -10474.7571906193     
  -10979.8132484148     
  -21811.7722794150     
  -37434.0498809059     
  -37547.3948265932     
  -37017.5610292539     
  -35255.4973448448     
  -33020.2782666946     
  -30538.1893085024     
  -28028.7492502483     
  -25638.0174372068     
  -23364.8911090744     
  -21268.4696941401     
  -19322.1546568735     
  -17549.9356378625     
  -15949.5918806678     
  -14471.8156178976     
  -13116.5764846050     
  -11836.6778542917     
  -10624.2861744103     
  -9527.75232103954     
  -9177.72833825261     
  -9514.75933626506     
  -9893.83956387441     
  -10316.5381306768     
  -10786.6619993522     
  -330.903683110584     
  -18872.6978740799     
  -25973.8089165851     
  -27665.1773522318     
  -27886.7204617686     
  -27110.0698541970     
  -25823.7003332400     
  -24278.1249863814     
  -22635.2762673116     
  -20974.4333755597     
  -19382.4679228086     
  -17865.8939443268     
  -16404.2109762356     
  -15058.6081940869     
  -13789.5496923005     
  -12587.3390526703     
  -11449.6179710505     
  -10347.4022385521     
  -9276.14012187069     
  -9104.39522519994     
  -9382.94637665202     
  -9722.10068107377     
  -10103.7985211253     
  -10529.2294172939     
  -357.781208429893     
  -12466.1927132902     
  -18937.0305629935     
  -21742.7275053559     
  -22624.3774432291     
  -22580.1385399934     
  -21965.6168089698     
  -21016.4896782986     
  -19896.7669506375     
  -18688.0888426301     
  -17450.8098554736     
  -16219.8341480949     
  -15081.6958926657     
  -13987.3688309227     
  -12905.3951445357     
  -11845.9143004238     
  -10847.5766529621     
  -9835.68674271244     
  -8924.04795790745     
  -8932.26579708876     
  -9197.07130725745     
  -9502.05811099543     
  -9840.70753525222     
  -10213.7094753949     
   589.214232775791     
  -8672.05692135196     
  -14741.3839479038     
  -17240.0506638706     
  -18555.0055896420     
  -18929.9443066026     
  -18738.3621359462     
  -18189.5962530018     
  -17441.2169179208     
  -16576.5733235884     
  -15624.9727718114     
  -14659.4652738699     
  -13718.4408073842     
  -12795.5417449171     
  -11914.0868016271     
  -11030.5885814989     
  -10134.8099045238     
  -9247.95516195727     
  -8531.16658496188     
  -8700.17191528727     
  -8966.98652833322     
  -9241.60317367304     
  -9535.84285202940     
  -9851.54623582054     
  -252.205438172076     
  -6230.83238000684     
  -10917.3752376318     
  -13889.7227473712     
  -15204.4488104823     
  -15774.3301383795     
  -15928.6564984592     
  -15683.6456136791     
  -15219.9756434998     
  -14593.8953496517     
  -13867.0751676563     
  -13095.6713626442     
  -12345.5087660653     
  -11607.5105420925     
  -10858.6394650279     
  -10113.1293607157     
  -9347.02683917357     
  -8576.10634655146     
  -8199.43893828324     
  -8469.07442512931     
  -8710.58755399838     
  -8952.62091722705     
  -9200.74707103115     
  -9457.55040237987     
  -1061.43308192130     
  -5059.34070494302     
  -8770.01603965099     
  -11110.9854396802     
  -12498.8146568176     
  -13150.2290888216     
  -13408.7635526133     
  -13376.4381877186     
  -13140.3565050163     
  -12713.8834339414     
  -12181.2177716240     
  -11604.0787742432     
  -11013.9656676807     
  -10401.4779203582     
  -9784.52679980668     
  -9176.41809139185     
  -8515.57456012317     
  -7925.37289310244     
  -8028.31022082592     
  -8237.46121297304     
  -8444.42975472339     
  -8646.36600925999     
  -8847.39779840512     
  -9046.71059647940     
  -1872.05240804007     
  -4618.52122749646     
  -7060.91602020110     
  -8997.32104638218     
  -10246.1025022069     
  -10971.8266867490     
  -11300.1056749521     
  -11363.5447077728     
  -11259.1244846577     
  -10995.9915972727     
  -10615.1211365829     
  -10182.1696929517     
  -9718.87913168971     
  -9254.10419151599     
  -8745.00022659364     
  -8230.09558098135     
  -7702.84004746885     
  -7695.11390531381     
  -7846.11765976725     
  -8009.20151272784     
  -8171.77391921221     
  -8331.60022699967     
  -8485.83770788151     
  -8631.51955513249     
  -2541.25409395651     
  -4392.45529226445     
  -6145.70030037160     
  -7583.92251405117     
  -8516.23068868710     
  -9129.25801605693     
  -9513.48842712858     
  -9647.70223894370     
  -9634.08112186697     
  -9453.51590979480     
  -9194.65632472146     
  -8887.28065993711     
  -8532.09012058707     
  -8120.44620164878     
  -7748.96288764797     
  -7444.94104233350     
  -7442.39624581260     
  -7546.07374145437     
  -7653.03264611737     
  -7772.74417728407     
  -7894.80890757373     
  -8013.17094243438     
  -8123.46455871059     
  -8220.80231276132     
  -3035.74930851833     
  -4316.40123488743     
  -5568.48017537269     
  -6632.40906756625     
  -7440.89426476890     
  -7855.39973484826     
  -8039.48505045498     
  -8189.20597787633     
  -8196.00954820270     
  -8091.41083862612     
  -7905.38850204251     
  -7671.72087307159     
  -7431.07069859370     
  -7280.86876728554     
  -7214.88346989982     
  -7255.57516182571     
  -7306.13356569941     
  -7362.58950302893     
  -7442.45229487931     
  -7527.48761109855     
  -7613.51427249431     
  -7694.46568220705     
  -7765.10133233146     
  -7820.07842784406     
  -3376.01859230020     
  -4281.69392220426     
  -5191.59952786355     
  -6003.77159334941     
  -6632.56730347043     
  -7059.16874848146     
  -7296.55528645293     
  -7308.05609405514     
  -7241.88988886643     
  -7163.77395764561     
  -7092.18297687621     
  -7036.96167453032     
  -7044.57033622602     
  -7057.92121705395     
  -7063.75767613820     
  -7078.27669512989     
  -7115.29457993605     
  -7162.68783676428     
  -7216.24785242213     
  -7274.04290131653     
  -7329.51866521456     
  -7377.84654183396     
  -7413.91892657162     
  -7432.50195580916     
  -3585.77957119767     
  -4248.91713858735     
  -4929.50638651808     
  -5554.12857924056     
  -6072.04627895170     
  -6455.63120547129     
  -6694.30446806236     
  -6816.09885555008     
  -6852.18187971199     
  -6849.31320547477     
  -6834.78044698364     
  -6828.29688790123     
  -6831.17452962655     
  -6844.68376027094     
  -6861.47738926062     
  -6882.68893239667     
  -6910.11841508095     
  -6943.75196721934     
  -6979.87307577231     
  -7014.82626933202     
  -7044.86929566186     
  -7065.45020867768     
  -7072.03608739339     
  -7059.83324454165     
  -3694.97891232511     
  -4202.08896926271     
  -4727.48708312317     
  -5223.18387762855     
  -5651.98184421494     
  -5991.12973309431     
  -6235.82070783939     
  -6394.22461231594     
  -6487.56408268080     
  -6538.08028545819     
  -6567.05865851332     
  -6587.44111391457     
  -6606.84530170459     
  -6626.74282104550     
  -6647.79599290566     
  -6669.56539191598     
  -6692.26861296654     
  -6715.13483091697     
  -6736.33266230755     
  -6753.00998745865     
  -6761.84171697487     
  -6759.17188405248     
  -6740.98966649125     
  -6703.06285689996     
  -3730.78648958815     
  -4137.22343956236     
  -4558.59399933214     
  -4962.96344333354     
  -5324.38607613319     
  -5626.31530737086     
  -5862.38206361861     
  -6036.21669114583     
  -6157.88404721247     
  -6241.08185944083     
  -6298.62179327892     
  -6340.85611337872     
  -6374.21628646427     
  -6402.37417952867     
  -6426.82066330030     
  -6448.20741594328     
  -6466.42199089539     
  -6480.77890222195     
  -6489.80443394031     
  -6491.33973611949     
  -6482.67020688406     
  -6460.67871563547     
  -6421.93883879792     
  -6362.76301281758     
  -3715.88476556058     
  -4056.77741273311     
  -4407.52804562936     
  -4747.23506620968     
  -5058.12668705374     
  -5327.88810299681     
  -5550.76689675594     
  -5727.09726830394     
  -5862.00851872412     
  -5963.15349980262     
  -6038.79162037703     
  -6096.05612003833     
  -6140.33681937305     
  -6175.10298196373     
  -6202.36926676188     
  -6223.03358012949     
  -6237.22909967181     
  -6244.40095511440     
  -6243.38097967775     
  -6232.42452713673     
  -6209.30246471356     
  -6171.39355107095     
  -6115.76660443872     
  -6039.24741588585     
  -3668.08248892801     
  -3965.18569400200     
  -4267.17419383803     
  -4560.49621626539     
  -4833.04174298199     
  -5075.86452102257     
  -5284.00437278810     
  -5456.48359896559     
  -5595.53064582395     
  -5705.44601890793     
  -5791.31702000222     
  -5858.02640541047     
  -5909.58783805319     
  -5948.93502640131     
  -5977.93822843341     
  -5997.58031884743     
  -6008.10109959217     
  -6009.11876754212     
  -5999.69653320531     
  -5978.40825593547     
  -5943.40230328674     
  -5892.47247035284     
  -5823.12537587924     
  -5732.64167070876     
  -3600.64361279484     
  -3867.22513053377     
  -4134.52144783871     
  -4393.78574633634     
  -4636.81442234246     
  -4857.15571101992     
  -5050.78701432518     
  -5216.22846273198     
  -5354.20191435545     
  -5466.97657141531     
  -5557.62824953017     
  -5629.36178351772     
  -5685.03598672871     
  -5726.89457203477     
  -5756.48589780049     
  -5774.68200468193     
  -5781.74698037719     
  -5777.40395587277     
  -5760.89749740073     
  -5731.04814094410     
  -5686.30807080058     
  -5624.81719265309     
  -5544.45920175776     
  -5442.91543348701     
  -3523.06444187791     
  -3767.06985073460     
  -4008.62053838342     
  -4242.06438901671     
  -4461.83951197804     
  -4663.31910580992     
  -4843.33032353037     
  -5000.32529236532     
  -5134.24346540179     
  -5246.16378117751     
  -5337.85697942906     
  -5411.35159391342     
  -5468.58331876216     
  -5511.16474295353     
  -5540.26418073460     
  -5556.56814909094     
  -5560.29038412572     
  -5551.20395651283     
  -5528.68046298073     
  -5491.73257446391     
  -5439.05815264066     
  -5369.08618686179     
  -5280.02342915951     
  -5169.90083154535     
  -3441.88107428981     
  -3667.99206412725     
  -3889.43292652879     
  -4102.51052442398     
  -4303.42375392317     
  -4488.84331381903     
  -4656.30037011258     
  -4804.35647849723     
  -4932.57318147191     
  -5041.33098570262     
  -5131.56614414319     
  -5204.49022958475     
  -5261.34419613098     
  -5303.21355574876     
  -5330.91113398851     
  -5344.91674272737     
  -5345.35812428415     
  -5332.01711451965     
  -5304.35035509244     
  -5261.51790181249     
  -5202.41675672299     
  -5125.71752448178     
  -5029.90309573218     
  -4913.30834536573     
  -3361.40904231870     
  -3572.35200866755     
  -3777.21497513238     
  -3973.52198700091     
  -4158.62503528171     
  -4330.09666305942     
  -4486.01258836707     
  -4625.09968062758     
  -4746.75307162976     
  -4850.94881457931     
  -4938.09056565059     
  -5008.83112875252     
  -5063.90236061933     
  -5103.97539767116     
  -5129.56000326593     
  -5140.94212646093     
  -5138.15272480147     
  -5120.95952914843     
  -5088.87427178493     
  -5041.17010089531     
  -4976.90568857075     
  -4894.95388972644     
  -4794.03347937555     
  -4672.74291706245     
  -3284.35208498643     
  -3481.71579164563     
  -3672.22201879298     
  -3854.13395570299     
  -4025.54454815737     
  -4184.63850329265     
  -4329.89317759423     
  -4460.19747371501     
  -4574.88635539396     
  -4673.70346448561     
  -4756.71370350694     
  -4824.19051647386     
  -4876.50015694236     
  -4913.99905627440     
  -4936.95321857663     
  -4945.48207484833     
  -4939.52490893883     
  -4918.82578440574     
  -4882.93257188663     
  -4831.20625517721     
  -4762.83763225941     
  -4676.86933119491     
  -4572.22167020511     
  -4447.72129021990     
  -3212.27652317770     
  -3397.01397935321     
  -3574.58702178299     
  -3743.69459946437     
  -3902.89522289747     
  -4050.77925766117     
  -4186.10869383223     
  -4307.90786728858     
  -4415.50028155754     
  -4508.49668664412     
  -4586.74634383667     
  -4650.26642818919     
  -4699.16404510528     
  -4733.56244432921     
  -4753.53894070076     
  -4759.07807344473     
  -4750.04040746419     
  -4726.14546766061     
  -4686.96645169958     
  -4631.93429161362     
  -4560.34893762751     
  -4471.39616716741     
  -4364.16861843014     
  -4237.69007663858     
  -3145.96709241211     
  -3318.69742890116     
  -3484.29046757944     
  -3641.69169586232     
  -3789.74422366700     
  -3927.30023331253     
  -4053.31628256992     
  -4166.91986324309     
  -4267.44196227918     
  -4354.41699500131     
  -4427.55635077431     
  -4486.70441011550     
  -4531.78634248003     
  -4562.75575966643     
  -4579.54811787362     
  -4582.04333830160     
  -4570.03900781687     
  -4543.23400196882     
  -4501.22149512627     
  -4443.48996168026     
  -4369.43075465749     
  -4278.35100443916     
  -4169.49080114749     
  -4042.04384976063     
  -3085.68671366595     
  -3246.87220759334     
  -3401.17314523957     
  -3547.66615830765     
  -3685.36226600799     
  -3813.27758508362     
  -3930.49698342514     
  -4036.22134791636     
  -4129.79370411395     
  -4210.70378194715     
  -4278.57405006135     
  -4333.13235830982     
  -4374.17708378644     
  -4401.54030339959     
  -4415.05340419303     
  -4414.51812044288     
  -4399.68460619233     
  -4370.23703986178     
  -4325.78649839321     
  -4265.87041400600     
  -4189.95775862752     
  -4097.45910019458     
  -3987.74076579181     
  -3860.14248093382     
  -3031.36225596789     
  -3181.40841991803     
  -3324.96571082661     
  -3461.17370663014     
  -3589.13784032308     
  -3707.97319215566     
  -3816.84605981110     
  -3915.00654128424     
  -4001.80817802457     
  -4076.71354492029     
  -4139.28705404590     
  -4189.17786557412     
  -4226.09658520933     
  -4249.78946261368     
  -4260.01329638175     
  -4256.51344643089     
  -4239.00648170256     
  -4207.16821307268     
  -4160.62726574985     
  -4098.96395190583     
  -4021.71398887330     
  -3928.37652690419     
  -3818.42595884909     
  -3691.32704737311     
  -2982.71506085064     
  -3122.02401313422     
  -3255.32162399735     
  -3381.77199283083     
  -3500.53010877149     
  -3610.76813159629     
  -3711.70184821519     
  -3802.61247947048     
  -3882.86072477679     
  -3951.89176706955     
  -4009.23159165840     
  -4054.47618245708     
  -4087.27585548621     
  -4107.31719435168     
  -4114.30486839283     
  -4107.94518380104     
  -4087.93268342855     
  -4053.94058646585     
  -4005.61541735363     
  -3942.57584628021     
  -3864.41555218847     
  -3770.70980609622     
  -3661.02543384867     
  -3534.93383074585     
  -2939.35110493599     
  -3068.34709674489     
  -3191.84723990249     
  -3309.02018820943     
  -3419.04432855319     
  -3521.12289251033     
  -3614.50028332860     
  -3698.47622336182     
  -3772.41535649629     
  -3835.75111591673     
  -3887.98377317127     
  -3928.67346318077     
  -3957.42955005347     
  -3973.89795108352     
  -3977.74801785670     
  -3968.66036290381     
  -3946.31670517606     
  -3910.39246464732     
  -3860.55252126328     
  -3796.45029792804     
  -3717.73014222574     
  -3624.03286370539     
  -3515.00422177720     
  -3390.30614015412     
  -2900.82210611867     
  -3019.96090234307     
  -3134.12667845733     
  -3242.48383784638     
  -3344.21998610426     
  -3438.55410994773     
  -3524.74628296825     
  -3602.10653853520     
  -3670.00115879140     
  -3727.85537545998     
  -3775.15222034353     
  -3811.42789022095     
  -3836.26443599009     
  -3849.28082865353     
  -3850.12351221608     
  -3838.45746764462     
  -3813.95863498998     
  -3776.30832294936     
  -3725.19001686787     
  -3660.28880419151     
  -3581.29348422926     
  -3487.90131984623     
  -3379.82531861836     
  -3256.80389265915     
  -2866.66595050387     
  -2976.43524735897     
  -3081.74104120032     
  -3181.74117760112     
  -3275.62578050428     
  -3362.62129965452     
  -3441.99602895623     
  -3513.06547476017     
  -3575.19630513817     
  -3627.80808089192     
  -3670.37246290261     
  -3702.41003135344     
  -3723.48518905611     
  -3733.19983075284     
  -3731.18654526610     
  -3717.10209835143     
  -3690.62185139242     
  -3651.43563676484     
  -3599.24546285359     
  -3533.76528110753     
  -3454.72292683635     
  -3361.86425014903     
  -3254.95938350570     
  -3133.81104420262     
  -2836.43254879893     
  -2937.34778805121     
  -3034.28244535247     
  -3126.38904786069     
  -3212.85803249109     
  -3292.91949076893     
  -3365.84616352956     
  -3430.95658550312     
  -3487.61747733492     
  -3535.24477476370     
  -3573.30301067293     
  -3601.30307244539     
  -3618.79860610796     
  -3625.38150932358     
  -3620.67704316984     
  -3604.33910664153     
  -3576.04617476887     
  -3535.49832105941     
  -3482.41564655954     
  -3416.53833648995     
  -3337.62847165868     
  -3245.47364145131     
  -3139.89233984452     
  -3020.74107422430     
  -2809.69953078525     
  -2902.29771157559     
  -2991.36368758295     
  -3076.04761556012     
  -3155.54058101865     
  -3229.07521471343     
  -3295.92728230419     
  -3355.41751100308     
  -3406.91302291763     
  -3449.82792424745     
  -3483.62281308084     
  -3507.80318000637     
  -3521.91685701798     
  -3525.55080385189     
  -3518.32760037301     
  -3499.90204142438     
  -3469.95821543295     
  -3428.20740196347     
  -3374.38705870452     
  -3308.26109588278     
  -3229.62156398993     
  -3138.29181409836     
  -3034.13113121725     
  -2917.04078999784     
  -2786.08093712449     
  -2870.91393592239     
  -2952.62441247245     
  -3030.36369028929     
  -3103.32512073987     
  -3170.74430732560     
  -3231.90002719085     
  -3286.11536512536     
  -3332.75862811918     
  -3371.24371714571     
  -3401.02977186958     
  -3421.62004879818     
  -3432.56012378333     
  -3433.43561191032     
  -3423.86966482040     
  -3403.52053676611     
  -3372.07951024892     
  -3329.26944679286     
  -3274.84418612318     
  -3208.58896516608     
  -3130.32197290112     
  -3039.89710238549     
  -2937.20790951727     
  -2822.19273987831     
  -2765.23116045501     
  -2842.85939802445     
  -2917.73459379963     
  -2989.01270649285     
  -3055.89145844463     
  -3117.61061297440     
  -3173.45270000787     
  -3222.74387722747     
  -3264.85463699857     
  -3299.20013402094     
  -3325.23999869229     
  -3342.47759993393     
  -3350.45881429212     
  -3348.77043484986     
  -3337.03840764111     
  -3314.92611284576     
  -3282.13291446802     
  -3238.39318915995     
  -3183.47601716752     
  -3117.18568099325     
  -3039.36307461066     
  -2949.88808120930     
  -2848.68293255321     
  -2735.71651898056     
  -2746.84573357079     
  -2817.83261830538     
  -2886.39602026513     
  -2951.69956906334     
  -3012.94746702310     
  -3069.38507355051     
  -3120.29972566446     
  -3165.02159809448     
  -3202.92441353707     
  -3233.42585159845     
  -3255.98756316821     
  -3270.11476427010     
  -3275.35544961563     
  -3271.29932310971     
  -3257.57658517002     
  -3233.85674248901     
  -3199.84761478860     
  -3155.29470698240     
  -3099.98109680544     
  -3033.72796060214     
  -2956.39582660141     
  -2867.88660813400     
  -2768.14643061534     
  -2657.16922672401     
  -2730.66009289827     
  -2795.56742414784     
  -2858.34235119023     
  -2918.15859826204     
  -2974.22868086646     
  -3025.80492693556     
  -3072.18056005950     
  -3112.69072546047     
  -3146.71333893403     
  -3173.66966101664     
  -3193.02453645740     
  -3204.28628513937     
  -3207.00627771539     
  -3200.77827140954     
  -3185.23761442486     
  -3160.06044879700     
  -3124.96305066147     
  -3079.70144443554     
  -3024.07141492820     
  -2957.90902090536     
  -2881.09168722512     
  -2793.53992216841     
  -2695.21967347615     
  -2586.14530187395     
  -2716.44710938444     
  -2775.83148068485     
  -2833.33819062865     
  -2888.15280450663     
  -2939.49756173257     
  -2986.63288441101     
  -3028.85880893989     
  -3065.51627169310     
  -3095.98817642622     
  -3119.70018397814     
  -3136.12118980697     
  -3144.76348681884     
  -3145.18264475670     
  -3136.97716868075     
  -3119.78802442110     
  -3093.29813616932     
  -3057.23196964845     
  -3011.35531362131     
  -2955.47536365785     
  -2889.44119632374     
  -2813.14470067872     
  -2726.52200855457     
  -2629.55543671157     
  -2522.27592360914     
  -2704.01393889882     
  -2758.42410049184     
  -2811.17752743581     
  -2861.47269811812     
  -2908.54250267502     
  -2951.65624045657     
  -2990.12143186540     
  -3023.28540755700     
  -3050.53663421224     
  -3071.30574410500     
  -3085.06625273661     
  -3091.33497144633     
  -3089.67214655602     
  -3079.68137999541     
  -3061.00940584962     
  -3033.34581104248     
  -2996.42279541721     
  -2950.01506654491     
  -2893.93995801293     
  -2828.05784745233     
  -2752.27293310655     
  -2666.53440634015     
  -2570.83803311588     
  -2465.22813102078     
  -2693.19857327977     
  -2743.17367153498     
  -2791.68180567892     
  -2837.93480667916     
  -2881.17665010110     
  -2920.68591466771     
  -2955.77797181993     
  -2985.80688874714     
  -3010.16702450799     
  -3028.29430449348     
  -3039.66717080629     
  -3043.80722278981     
  -3040.27958038724     
  -3028.69302082543     
  -3008.69995425948     
  -2979.99631496242     
  -2942.32145045999     
  -2895.45809129858     
  -2839.23247896649     
  -2773.51471927968     
  -2698.21941394105     
  -2613.30660475268     
  -2518.78304391470     
  -2414.70378079023     
  -2683.86635177153     
  -2729.93494471269     
  -2774.69782322136     
  -2817.38004001154     
  -2857.23662261819     
  -2893.55544887022     
  -2925.65979046602     
  -2952.91051831555     
  -2974.70796196267     
  -2990.49342013260     
  -2999.75032908258     
  -3002.00510832970     
  -2996.82771765304     
  -2983.83197321323     
  -2962.67568261701     
  -2933.06066753637     
  -2894.73274723462     
  -2847.48175662258     
  -2791.14166819830     
  -2725.59087864080     
  -2650.75270837854     
  -2566.59614672766     
  -2473.13685687318     
  -2370.43843477717     
  -2675.90660683828     
  -2718.58635026852     
  -2760.09560420411     
  -2799.67201314995     
  -2836.58119723667     
  -2870.11999228070     
  -2899.61931127420     
  -2924.44662679272     
  -2944.00807410415     
  -2957.75017941960     
  -2965.16122593770     
  -2965.77228093314     
  -2959.15791877901     
  -2944.93668610649     
  -2922.77136505805     
  -2892.36909777189     
  -2853.48143912218     
  -2805.90440491285     
  -2749.47857904771     
  -2684.08933579564     
  -2609.66722245366     
  -2526.18853395278     
  -2433.67609483050     
  -2332.20024616466     
  -2669.22955820118     
  -2709.02745985516     
  -2747.76635105767     
  -2784.69541233111     
  -2819.09002283179     
  -2850.25530959571     
  -2877.52928418308     
  -2900.28556868628     
  -2917.93571492828     
  -2929.93112567460     
  -2935.76459423758     
  -2934.97148810382     
  -2927.13061215122     
  -2911.86479658472     
  -2888.84126293425     
  -2857.77182749691     
  -2818.41300485269     
  -2770.56607415361     
  -2714.07716762504     
  -2648.83743418154     
  -2574.78332148710     
  -2491.89700756579     
  -2400.20699869697     
  -2299.78889439976     
  -2663.76352723458     
  -2701.17667319145     
  -2737.62055131880     
  -2772.35446814294     
  -2804.66240977215     
  -2833.85684479229     
  -2859.28209024971     
  -2880.31724321584     
  -2896.37868365508     
  -2906.92215981987     
  -2911.44447473142     
  -2909.48480081211     
  -2900.62565862033     
  -2884.49360406785     
  -2860.75967568082     
  -2829.13965871592     
  -2789.39422573804     
  -2741.32901325912     
  -2684.79469107618     
  -2619.68707505417     
  -2545.94732546701     
  -2463.56226196497     
  -2372.56481322488     
  -2273.03460489923     
  -2659.45251540798     
  -2694.96918134789     
  -2729.58629189105     
  -2762.57158328112     
  -2793.21623443828     
  -2820.83886934730     
  -2844.78910563718     
  -2864.45065138364     
  -2879.24395650509     
  -2888.62843114235     
  -2892.10425075300     
  -2889.21377577593     
  -2879.54262198460     
  -2862.72042536387     
  -2838.42135185477     
  -2806.36440703981     
  -2766.31360333083     
  -2718.07804216947     
  -2661.51196600883     
  -2596.51482942629     
  -2523.03143078152     
  -2441.05213567033     
  -2350.61321143863     
  -2251.79727870517     
  -2656.25417153939     
  -2690.35523990287     
  -2723.60781677911     
  -2755.28614930177     
  -2784.68698846522     
  -2811.13373879274     
  -2833.98014296714     
  -2852.61350264166     
  -2866.45744182520     
  -2874.97422569808     
  -2877.66665515016     
  -2874.07956528339     
  -2863.80096403210     
  -2846.46285434211     
  -2821.74178944266     
  -2789.35921514197     
  -2749.08165537548     
  -2700.72079716109     
  -2644.13352853393     
  -2579.22197794889     
  -2505.93359619679     
  -2424.26131234415     
  -2334.24378395179     
  -2235.96574931661     
  -2654.13816052170     
  -2687.29877239049     
  -2719.64435235057     
  -2750.45357673200     
  -2779.02699506276     
  -2804.69127669847     
  -2826.80298559734     
  -2844.75188371242     
  -2857.96376920447     
  -2865.90286245769     
  -2868.07376041896     
  -2864.02298766306     
  -2853.34018031501     
  -2835.65894600984     
  -2810.65744892530     
  -2778.05877312765     
  -2737.63111965940     
  -2689.18789271516     
  -2632.58772777446     
  -2567.73450969103     
  -2494.57742161191     
  -2413.11105646643     
  -2323.37561198055     
  -2225.45717817897     
  -2653.08493891730     
  -2685.77631598486     
  -2717.66921569143     
  -2748.04455529899     
  -2776.20480860166     
  -2801.47830064723     
  -2823.22302739285     
  -2840.83000033598     
  -2853.72612216931     
  -2861.37660645184     
  -2863.28696188866     
  -2859.00456967321     
  -2848.11988999814     
  -2830.26734078441     
  -2805.12589742551     
  -2772.41946646232     
  -2731.91708824186     
  -2683.43302353012     
  -2626.82677662308     
  -2562.00310273639     
  -2488.91204048219     
  -2407.54900130506     
  -2317.95493719472     
  -2220.21659625254     
SCALARS 2waySource double 
LOOKUP_TABLE default
  1.004818919597866E-006
  4.588435141876294E-007
 -1.386073341995515E-007
 -7.506177124379852E-007
 -1.367806104760273E-006
 -1.980076054699457E-006
 -2.581456997561102E-006
 -3.168152057143038E-006
 -3.737588529429864E-006
 -4.288022987265037E-006
 -4.818435864411492E-006
 -5.328657572044777E-006
 -5.819631997753709E-006
 -6.293842398335653E-006
 -6.746476127785028E-006
 -7.208506101271503E-006
 -7.437639209654549E-006
 -7.016099162988748E-006
 -7.120949277124834E-006
 -8.382977152813502E-006
 -8.538634754113785E-006
 -8.675195550717040E-006
 -8.794920558940034E-006
 -8.894344076752496E-006
  1.138837789374709E-006
  5.609006790275759E-007
 -7.437268933492564E-008
 -7.151304835267168E-007
 -1.346441084279459E-006
 -1.965683480571602E-006
 -2.570327158906076E-006
 -3.158141822189172E-006
 -3.727266822729963E-006
 -4.276205539674051E-006
 -4.803894796692053E-006
 -5.309889462834832E-006
 -5.795000260274374E-006
 -6.262480667058248E-006
 -6.725246546546592E-006
 -7.123963743228636E-006
 -7.282334169904753E-006
 -7.122292903925847E-006
 -7.209250970159074E-006
 -8.360904169273321E-006
 -8.504959917229392E-006
 -8.643452514681617E-006
 -8.765032118476737E-006
 -8.865841646095959E-006
  1.591417805325440E-006
  7.081533649501778E-007
 -2.469481935186384E-009
 -6.739040643562647E-007
 -1.320519085087169E-006
 -1.947428303980917E-006
 -2.555453113711142E-006
 -3.144045741406007E-006
 -3.712099582723851E-006
 -4.258365845181991E-006
 -4.781611808665630E-006
 -5.280735821833105E-006
 -5.754773279228747E-006
 -6.203578909080991E-006
 -6.628503669052850E-006
 -7.016957882249938E-006
 -7.248499278759651E-006
 -7.312532136461774E-006
 -7.307169450717192E-006
 -8.284201298869028E-006
 -8.438503857124259E-006
 -8.583095335628757E-006
 -8.712092500570277E-006
 -8.815268685855389E-006
  1.548054262862396E-006
  7.865318967692686E-007
  4.429349889701966E-008
 -6.410460214701014E-007
 -1.297272132479643E-006
 -1.929214822771517E-006
 -2.539227035597923E-006
 -3.127566495654687E-006
 -3.693623497181294E-006
 -4.236310220970960E-006
 -4.754245745916609E-006
 -5.245713206970614E-006
 -5.708456693611707E-006
 -6.138439024586069E-006
 -6.530559944132118E-006
 -6.843829733616497E-006
 -7.071790272842445E-006
 -7.314345564552803E-006
 -7.385291889998672E-006
 -8.173298764716921E-006
 -8.332248582352857E-006
 -8.503523196219658E-006
 -8.640951584483794E-006
 -8.746783828089834E-006
  1.512297512353012E-006
  7.744160359740418E-007
  6.498357872306404E-008
 -6.229778849794566E-007
 -1.280861677500653E-006
 -1.913981626353063E-006
 -2.523654872662073E-006
 -3.110243156461859E-006
 -3.673246760574656E-006
 -4.211654657243411E-006
 -4.724053386332365E-006
 -5.208620761926356E-006
 -5.662877875410675E-006
 -6.083771554489662E-006
 -6.463949847742406E-006
 -6.794062371615335E-006
 -7.062291219878813E-006
 -7.286894552899757E-006
 -7.508219031962612E-006
 -7.956536231820928E-006
 -8.224969352313216E-006
 -8.412743465879991E-006
 -8.558091978946102E-006
 -8.665201769372004E-006
  1.476712456142055E-006
  7.569935535380463E-007
  5.824497423424360E-008
 -6.183272495508473E-007
 -1.272733686794618E-006
 -1.903114894410073E-006
 -2.509982460361458E-006
 -3.093129108123521E-006
 -3.651938599828621E-006
 -4.185394995237947E-006
 -4.692157090559446E-006
 -5.170555050168165E-006
 -5.618597785601245E-006
 -6.033447294470370E-006
 -6.411364021461104E-006
 -6.746667715231362E-006
 -7.039599806331029E-006
 -7.302091658860535E-006
 -7.551133403599387E-006
 -7.842131883792312E-006
 -8.123065049841122E-006
 -8.319563077158496E-006
 -8.467293247129584E-006
 -8.574583357570186E-006
  1.435640732255429E-006
  7.307823451893861E-007
  4.303826636357116E-008
 -6.249433331643687E-007
 -1.271887945521331E-006
 -1.896804662502837E-006
 -2.498639272855659E-006
 -3.076706259432991E-006
 -3.630135988813771E-006
 -4.157866007607315E-006
 -4.658631409385853E-006
 -5.130980843564077E-006
 -5.573206933958081E-006
 -5.983300789159987E-006
 -6.358761508681284E-006
 -6.697919179847825E-006
 -7.002325432381152E-006
 -7.278009603185921E-006
 -7.538036130316410E-006
 -7.792855840501688E-006
 -8.029878174598003E-006
 -8.223320832427434E-006
 -8.370268882199830E-006
 -8.476857206257052E-006
  1.389679635026135E-006
  6.973248253017663E-007
  2.051093638585686E-008
 -6.381254018581040E-007
 -1.276877128711627E-006
 -1.894386617958472E-006
 -2.489458961514360E-006
 -3.060965778306164E-006
 -3.607836140232940E-006
 -4.128938799880740E-006
 -4.623063350233183E-006
 -5.088906170914414E-006
 -5.525067398866882E-006
 -5.930041719218975E-006
 -6.302488218904782E-006
 -6.641904776858724E-006
 -6.949606860023469E-006
 -7.229682385899363E-006
 -7.487699048300323E-006
 -7.727018179367712E-006
 -7.942139452921132E-006
 -8.123585224391774E-006
 -8.266890899377648E-006
 -8.372158352035402E-006
  1.338549201833915E-006
  6.579019711461788E-007
 -7.912380260864972E-009
 -6.565272279788452E-007
 -1.286068799424465E-006
 -1.894994909310843E-006
 -2.481925683381128E-006
 -3.045585262748144E-006
 -3.584757817564443E-006
 -4.098260977738278E-006
 -4.584915532351520E-006
 -5.043540018317572E-006
 -5.472960448532247E-006
 -5.872088691240996E-006
 -6.240129373960785E-006
 -6.576965844312446E-006
 -6.883632579885692E-006
 -7.162350104490732E-006
 -7.415748983024125E-006
 -7.644743182839066E-006
 -7.847040726947035E-006
 -8.018508098085111E-006
 -8.156251769372363E-006
 -8.259442329550097E-006
  1.282115181221660E-006
  6.132008296018957E-007
 -4.126258860443918E-008
 -6.791288254653296E-007
 -1.298517292733661E-006
 -1.897779501732839E-006
 -2.475430288176098E-006
 -3.030096758008398E-006
 -3.560494745198005E-006
 -4.065411450779239E-006
 -4.543696608634552E-006
 -4.994263298316987E-006
 -5.416115186281710E-006
 -5.808419414483860E-006
 -6.170650766334790E-006
 -6.502797088635410E-006
 -6.805507007512391E-006
 -7.079995473208074E-006
 -7.327466652919173E-006
 -7.548256239852694E-006
 -7.741301168674742E-006
 -7.904718851551978E-006
 -8.036936005091392E-006
 -8.137324074754876E-006
  1.220314215638554E-006
  5.636341381138060E-007
 -7.886359019998871E-008
 -7.051870152808771E-007
 -1.313486209211772E-006
 -1.902070434378903E-006
 -2.469389815311083E-006
 -3.014014417732867E-006
 -3.534620912363045E-006
 -4.029987112107736E-006
 -4.498991830719749E-006
 -4.940624816339255E-006
 -5.354014346236910E-006
 -5.738483116898383E-006
 -6.093634520361654E-006
 -6.419443286285497E-006
 -6.716286473543221E-006
 -6.984815556089148E-006
 -7.225639559391650E-006
 -7.438925950984948E-006
 -7.624221710120650E-006
 -7.780686661117096E-006
 -7.907586594078276E-006
 -8.004680449943702E-006
  1.153133888098380E-006
  5.094881588454487E-007
 -1.202317937908327E-007
 -7.341328132920877E-007
 -1.330397089787134E-006
 -1.907317323509945E-006
 -2.463307040058881E-006
 -2.996900750214515E-006
 -3.506753730640853E-006
 -3.991644334988566E-006
 -4.450480318190052E-006
 -4.882311524321948E-006
 -5.286353198838523E-006
 -5.662022483450044E-006
 -6.008982940104607E-006
 -6.327177317776961E-006
 -6.616811489580008E-006
 -6.878255771334130E-006
 -7.111864259867004E-006
 -7.317787735134379E-006
 -7.495897768788381E-006
 -7.645896351887651E-006
 -7.767549076394546E-006
 -7.860912955545216E-006
  1.080606743468108E-006
  4.509916341566116E-007
 -1.649975332044067E-007
 -7.655240535905976E-007
 -1.348789454695469E-006
 -1.913076711818895E-006
 -2.456775655210811E-006
 -2.978397632525818E-006
 -3.476585495713868E-006
 -3.950122545671635E-006
 -4.397942422492764E-006
 -4.819141794691891E-006
 -5.212997348988584E-006
 -5.578986502881032E-006
 -5.916806173324926E-006
 -6.226376605005734E-006
 -6.507813098181291E-006
 -6.761354172068054E-006
 -6.987257269023015E-006
 -7.185701616075738E-006
 -7.356751995836808E-006
 -7.500410847752830E-006
 -7.616736280095708E-006
 -7.705971693839206E-006
  1.002815493038990E-006
  3.883538675672239E-007
 -2.128589322380696E-007
 -7.990085382037652E-007
 -1.368298981174586E-006
 -1.919000077868736E-006
 -2.449481378259439E-006
 -2.958235993396291E-006
 -3.443897968407098E-006
 -3.905255974682955E-006
 -4.341265190897045E-006
 -4.751058580457213E-006
 -5.133957945063339E-006
 -5.489483373522066E-006
 -5.817356821182202E-006
 -6.117492695779528E-006
 -6.389967987337851E-006
 -6.634970006876958E-006
 -6.852731171466019E-006
 -7.043472746087998E-006
 -7.207382288391107E-006
 -7.344637122274858E-006
 -7.455464040905182E-006
 -7.540210228433164E-006
  9.199011933727285E-007
  3.217875904404412E-007
 -2.635526836985394E-007
 -8.342988897723322E-007
 -1.388639933712818E-006
 -1.924824230910526E-006
 -2.441198622521143E-006
 -2.936237919069520E-006
 -3.408567142173269E-006
 -3.856978335753173E-006
 -4.280443319593700E-006
 -4.678123178878312E-006
 -5.049374498035328E-006
 -5.393751181679104E-006
 -5.710999301231984E-006
 -6.001041503279855E-006
 -6.263948423332228E-006
 -6.499898201223216E-006
 -6.709131105337935E-006
 -6.891911368773278E-006
 -7.048508643503397E-006
 -7.179204890252642E-006
 -7.284322182036911E-006
 -7.364258687694079E-006
  8.320702769996830E-007
  2.515237095777930E-007
 -3.168351745152144E-007
 -8.711545159059800E-007
 -1.409591128948488E-006
 -1.930361789576529E-006
 -2.431785049678421E-006
 -2.912314222923750E-006
 -3.370562624175262E-006
 -3.805322189172351E-006
 -4.215576382016515E-006
 -4.600507915680270E-006
 -4.959501284209382E-006
 -5.292139457144373E-006
 -5.598193507124418E-006
 -5.877603875198289E-006
 -6.130452962482696E-006
 -6.356931014382794E-006
 -6.557300223557132E-006
 -6.731864121109811E-006
 -6.880948895614771E-006
 -7.004899731774748E-006
 -7.104089959013883E-006
 -7.178936319378729E-006
  7.395986173407493E-007
  1.778205544336631E-007
 -3.724698915202605E-007
 -9.093684359011790E-007
 -1.430984240400166E-006
 -1.935491831529447E-006
 -2.421174479946624E-006
 -2.886459121853868E-006
 -3.329943262934404E-006
 -3.750414452817058E-006
 -4.146862877940560E-006
 -4.518487445152396E-006
 -4.864695464082324E-006
 -5.185095756785425E-006
 -5.479484879328918E-006
 -5.747826362051127E-006
 -5.990223672555150E-006
 -6.206888958537263E-006
 -6.398111123579318E-006
 -6.564227653022992E-006
 -6.705604107608648E-006
 -6.822623178737059E-006
 -6.915682349851096E-006
 -6.985196715907925E-006
  6.428320873193592E-007
  1.009689936269544E-007
 -4.302190541346442E-007
 -9.487573821135601E-007
 -1.452693832027240E-006
 -1.940150675733321E-006
 -2.409368646057292E-006
 -2.858742772069568E-006
 -3.286850023479782E-006
 -3.692468971955215E-006
 -4.074591762966086E-006
 -4.432428684840932E-006
 -4.765405565303913E-006
 -5.073154185232863E-006
 -5.355495971971853E-006
 -5.612419532080392E-006
 -5.844053168826684E-006
 -6.050634331464984E-006
 -6.232478700035014E-006
 -6.389951935246166E-006
 -6.523446697503212E-006
 -6.633366342982336E-006
 -6.720115103979707E-006
 -6.784093160065876E-006
  5.421837718421053E-007
  2.129427676511873E-008
 -4.898382733915918E-007
 -9.891542266037265E-007
 -1.474628665311039E-006
 -1.944322823186199E-006
 -2.396428124277829E-006
 -2.829302232592809E-006
 -3.241496803788332E-006
 -3.631776876773836E-006
 -3.999132020478571E-006
 -4.342779471016336E-006
 -4.662159586049662E-006
 -4.956924050352361E-006
 -5.226917444699837E-006
 -5.472153087559239E-006
 -5.692784483752216E-006
 -5.889074197864686E-006
 -6.061362358882104E-006
 -6.210037101641222E-006
 -6.335508923085753E-006
 -6.438190195709537E-006
 -6.518480144528851E-006
 -6.576754781503684E-006
  4.381283330957944E-007
 -6.084471809595561E-008
 -5.510734779916161E-007
 -1.030402130089339E-006
 -1.496723996179199E-006
 -1.948032094643409E-006
 -2.382462739956489E-006
 -2.798331330466966E-006
 -3.194159780483566E-006
 -3.568695336503352E-006
 -3.920920763857989E-006
 -4.250056101814958E-006
 -4.555552377527876E-006
 -4.837077866824222E-006
 -5.094497719657798E-006
 -5.327848047152847E-006
 -5.537305885268838E-006
 -5.723156756501643E-006
 -5.885761757072100E-006
 -6.025526105727303E-006
 -6.142870844463061E-006
 -6.238208908572662E-006
 -6.311926205604427E-006
 -6.364367840566684E-006
  3.311941573280789E-007
 -1.450582426550968E-007
 -6.136595698505470E-007
 -1.072350022640072E-006
 -1.518934695224330E-006
 -1.951333039108670E-006
 -2.367621725568319E-006
 -2.766069857938145E-006
 -3.145165805602636E-006
 -3.503635248573739E-006
 -3.840450320645554E-006
 -4.154830016414082E-006
 -4.446232288029946E-006
 -4.714338511322230E-006
 -4.959031257879410E-006
 -5.180366571965247E-006
 -5.378542204611045E-006
 -5.553863467419909E-006
 -5.706708485710355E-006
 -5.837494606770383E-006
 -5.946647533168173E-006
 -6.034574428486955E-006
 -6.101641857946148E-006
 -6.148159082034774E-006
  2.219539241081158E-007
 -2.309299221078358E-007
 -6.773204005305689E-007
 -1.114849152290527E-006
 -1.541229106621098E-006
 -1.954302715087769E-006
 -2.352083899296898E-006
 -2.732792496503354E-006
 -3.094880326937647E-006
 -3.437048352532762E-006
 -3.758254735992605E-006
 -4.057713933717744E-006
 -4.334887263407649E-006
 -4.589465677345837E-006
 -4.821345745776423E-006
 -5.030600106553776E-006
 -5.217443854392147E-006
 -5.382198502914637E-006
 -5.525255227762719E-006
 -5.647039066740211E-006
 -5.747975607781984E-006
 -5.828461458499877E-006
 -5.888839508396951E-006
 -5.929379726729458E-006
  1.110141929754926E-007
 -3.180220300192811E-007
 -7.417697442220192E-007
 -1.157750516672757E-006
 -1.563583612442532E-006
 -1.957032963076980E-006
 -2.336048118276956E-006
 -2.698797828260690E-006
 -3.043695259806110E-006
 -3.369414218795842E-006
 -3.674896122336687E-006
 -3.959347822589441E-006
 -4.222230724621931E-006
 -4.463241956015400E-006
 -4.682288631087629E-006
 -4.879456500085041E-006
 -5.054974472160948E-006
 -5.209176636026214E-006
 -5.342463458669966E-006
 -5.455263810739476E-006
 -5.547999348424551E-006
 -5.621052592279126E-006
 -5.674739813400928E-006
 -5.709289602791632E-006
 -9.954674414815031E-010
 -4.058814037081605E-007
 -8.067130041235156E-007
 -1.200903042843403E-006
 -1.585977897609205E-006
 -1.959623290522891E-006
 -2.319724239912381E-006
 -2.664397757240811E-006
 -2.992017192638456E-006
 -3.301227522115132E-006
 -3.590951263578516E-006
 -3.860385093557471E-006
 -4.108987600684713E-006
 -4.336458945785740E-006
 -4.542713493504283E-006
 -4.727846727785574E-006
 -4.892097954119003E-006
 -5.035810415430195E-006
 -5.159390498006730E-006
 -5.263267675383045E-006
 -5.347856735726187E-006
 -5.413523674767433E-006
 -5.460556431896378E-006
 -5.489141424476936E-006
 -1.134333590119188E-007
 -4.940456694269059E-007
 -8.718494360487040E-007
 -1.244152411828529E-006
 -1.608390922758722E-006
 -1.962174481222802E-006
 -2.303324796175065E-006
 -2.629907620866308E-006
 -2.940256260115898E-006
 -3.232985964378573E-006
 -3.506998850215151E-006
 -3.761479391000193E-006
 -3.995880903853869E-006
 -4.209903806875964E-006
 -4.403466724509580E-006
 -4.576671769051861E-006
 -4.729765514951110E-006
 -4.863097302831799E-006
 -4.977076558147142E-006
 -5.072130784610174E-006
 -5.148665800041241E-006
 -5.207029632262604E-006
 -5.247481299505524E-006
 -5.270165478995658E-006
 -2.256561674559393E-007
 -5.820495009789353E-007
 -9.368747097025454E-007
 -1.287340443438469E-006
 -1.630797612474769E-006
 -1.964783022767764E-006
 -2.287057550975272E-006
 -2.595637224757624E-006
 -2.888815964379035E-006
 -3.165179158912543E-006
 -3.423607676954499E-006
 -3.663272330732556E-006
 -3.883619208487614E-006
 -4.084346649510940E-006
 -4.265374947850556E-006
 -4.426810125054268E-006
 -4.568903302187570E-006
 -4.692007321798677E-006
 -4.796532319353175E-006
 -4.882901922259203E-006
 -4.951511667892968E-006
 -5.002691088641767E-006
 -5.036670722803785E-006
 -5.053555086738790E-006
 -3.370288039686968E-007
 -6.694306840654094E-007
 -1.001483657519980E-006
 -1.330304967494589E-006
 -1.653166258800306E-006
 -1.967536420962563E-006
 -2.271119071177664E-006
 -2.561882983489735E-006
 -2.838084168008096E-006
 -3.098278730352118E-006
 -3.341326078823847E-006
 -3.566382477082785E-006
 -3.772885346870243E-006
 -3.960529094069333E-006
 -4.129233550031508E-006
 -4.279106379196160E-006
 -4.410400996671285E-006
 -4.523471661790581E-006
 -4.618727464474336E-006
 -4.696586902572173E-006
 -4.757434665144287E-006
 -4.801582096167043E-006
 -4.829232624550516E-006
 -4.840453218887175E-006
 -4.469333340683162E-007
 -7.557358021436948E-007
 -1.065373084556756E-006
 -1.372880112755849E-006
 -1.675456627606308E-006
 -1.970509441907393E-006
 -2.255689400174105E-006
 -2.528921297764283E-006
 -2.788425423374859E-006
 -3.032729821826730E-006
 -3.260672819282482E-006
 -3.471395791837737E-006
 -3.664326573541195E-006
 -3.839154276175874E-006
 -3.995796617883638E-006
 -4.134361121471944E-006
 -4.255101739323417E-006
 -4.358372586745685E-006
 -4.444580518773345E-006
 -4.514138269086720E-006
 -4.567419788607342E-006
 -4.604719282105658E-006
 -4.626215251742809E-006
 -4.631940625041023E-006
 -5.547768125122743E-007
 -8.405253988957454E-007
 -1.128244533060070E-006
 -1.414896946802906E-006
 -1.697618740806304E-006
 -1.973761293111874E-006
 -2.240927880853969E-006
 -2.497003246481169E-006
 -2.740174743983213E-006
 -2.968944137832136E-006
 -3.182129578133984E-006
 -3.378857720542925E-006
 -3.558546381046400E-006
 -3.720878497957955E-006
 -3.865768503456212E-006
 -3.993322475076105E-006
 -4.103793637067549E-006
 -4.197534909273746E-006
 -4.274950256709071E-006
 -4.336446578677731E-006
 -4.382387796645758E-006
 -4.413052661370639E-006
 -4.428597609313458E-006
 -4.429025763730502E-006
 -6.599978989352070E-007
 -9.233785083963849E-007
 -1.189806912860660E-006
 -1.456184400887670E-006
 -1.719592292732237E-006
 -1.977333726568493E-006
 -2.226970134769973E-006
 -2.466350622603050E-006
 -2.693632866594577E-006
 -2.907294589313555E-006
 -3.106135121718397E-006
 -3.289267013682582E-006
 -3.456098079661571E-006
 -3.606304653342565E-006
 -3.739797159476379E-006
 -3.856679382876030E-006
 -3.957203017375552E-006
 -4.041719207923506E-006
 -4.110628856798105E-006
 -4.164333452406366E-006
 -4.203188100724516E-006
 -4.227458301085093E-006
 -4.237281816768263E-006
 -4.232636753980464E-006
 -7.620721804656659E-007
 -1.003896477126924E-006
 -1.249778924908319E-006
 -1.496570414291409E-006
 -1.741306645495312E-006
 -1.981250020811023E-006
 -2.213926167604072E-006
 -2.437153296145722E-006
 -2.649063000317647E-006
 -2.848111549452821E-006
 -3.033081175873190E-006
 -3.203071315126891E-006
 -3.357480185562316E-006
 -3.495977484344288E-006
 -3.618469314791940E-006
 -3.725056734924739E-006
 -3.815989522720469E-006
 -3.891616886487736E-006
 -3.952336908676761E-006
 -3.998546500618873E-006
 -4.030593568443290E-006
 -4.048732952626710E-006
 -4.053087512029510E-006
 -4.043615485236987E-006
 -8.605161749707718E-007
 -1.081706032725712E-006
 -1.307891220681715E-006
 -1.535883234286577E-006
 -1.762681337153766E-006
 -1.985514776779172E-006
 -2.201879539166680E-006
 -2.409567847568227E-006
 -2.606689012101882E-006
 -2.791680676558263E-006
 -2.963309965697923E-006
 -3.120664490294788E-006
 -3.263133599071873E-006
 -3.390380659648685E-006
 -3.502307491040074E-006
 -3.599012347856844E-006
 -3.680743064403018E-006
 -3.747847101972048E-006
 -3.800720304530794E-006
 -3.839756158743553E-006
 -3.865297278333771E-006
 -3.877590695704973E-006
 -3.876748352440063E-006
 -3.862713941957557E-006
 -9.548900311337180E-007
 -1.156461582390971E-006
 -1.363888255110503E-006
 -1.573952810685634E-006
 -1.783627028472486E-006
 -1.990114444575529E-006
 -2.190887509864796E-006
 -2.383717381222617E-006
 -2.566694958259622E-006
 -2.738242215572650E-006
 -2.897113337129145E-006
 -3.042385613894128E-006
 -3.173440498879499E-006
 -3.289935608437726E-006
 -3.391768801027728E-006
 -3.479035744238153E-006
 -3.551982590974487E-006
 -3.610955522736182E-006
 -3.656348981555286E-006
 -3.688554404553090E-006
 -3.707911200418720E-006
 -3.714661571110624E-006
 -3.708910591533274E-006
 -3.690592722130187E-006
 -1.044798979042744E-006
 -1.227846749424276E-006
 -1.417529805180054E-006
 -1.610612228374207E-006
 -1.804046809306734E-006
 -1.995018485171320E-006
 -2.180982055261422E-006
 -2.359692401765476E-006
 -2.529225839443811E-006
 -2.687991652773495E-006
 -2.834733334389386E-006
 -2.968519492810269E-006
 -3.088724830959212E-006
 -3.195001992571755E-006
 -3.287245417233601E-006
 -3.365548625967650E-006
 -3.430156570925632E-006
 -3.481414821496492E-006
 -3.519717424357609E-006
 -3.545455268942985E-006
 -3.558966716561598E-006
 -3.560492116718299E-006
 -3.550133644827819E-006
 -3.527821658863719E-006
 -1.129893616938999E-006
 -1.295575179018266E-006
 -1.468592140319864E-006
 -1.645699127179975E-006
 -1.823837784233752E-006
 -2.000181062942750E-006
 -2.172171626025418E-006
 -2.337552616774966E-006
 -2.494389432022309E-006
 -2.641081569697684E-006
 -2.776364075244845E-006
 -2.899298564358719E-006
 -3.009254232751543E-006
 -3.105879659634055E-006
 -3.189066555995927E-006
 -3.258906891008270E-006
 -3.315645042794535E-006
 -3.359626759963157E-006
 -3.391246786952633E-006
 -3.410897001705436E-006
 -3.418916842415555E-006
 -3.415547666926548E-006
 -3.400892500529235E-006
 -3.374882392913611E-006
 -1.209869145979726E-006
 -1.359390663945353E-006
 -1.516868843960719E-006
 -1.679057065587777E-006
 -1.842892858485547E-006
 -2.005543161133811E-006
 -2.164443522034084E-006
 -2.317329515844722E-006
 -2.462259031969276E-006
 -2.597624521884650E-006
 -2.722154742394328E-006
 -2.834905983767241E-006
 -2.935243204223008E-006
 -3.022811888076763E-006
 -3.097501789583087E-006
 -3.159404007445012E-006
 -3.208763048866560E-006
 -3.245925683276940E-006
 -3.271288453884537E-006
 -3.285245712056537E-006
 -3.288139969307731E-006
 -3.280216230132892E-006
 -3.261581782868577E-006
 -3.232172692758349E-006
 -1.284463685372752E-006
 -1.419066657213371E-006
 -1.562171297731928E-006
 -1.710536792873025E-006
 -1.861102649343604E-006
 -2.011035012574231E-006
 -2.157766745964858E-006
 -2.299029569664376E-006
 -2.432876937434595E-006
 -2.557696755300587E-006
 -2.672213493957226E-006
 -2.775479696857977E-006
 -2.866857317340501E-006
 -2.945989713489761E-006
 -3.012765474155296E-006
 -3.067275532850931E-006
 -3.109765240845885E-006
 -3.140583212993387E-006
 -3.160128829005459E-006
 -3.168800271076666E-006
 -3.166944910071679E-006
 -3.154813722638750E-006
 -3.132521237483711E-006
 -3.100012278208782E-006
 -1.353455815062875E-006
 -1.474405251700736E-006
 -1.604328850692566E-006
 -1.739997402705903E-006
 -1.878357454158701E-006
 -2.016578741540873E-006
 -2.152095202843949E-006
 -2.282637891342039E-006
 -2.406258492658717E-006
 -2.521342567515650E-006
 -2.626612088120514E-006
 -2.721117284048267E-006
 -2.804218243614097E-006
 -2.875557111280754E-006
 -2.935022066111372E-006
 -2.982704549693117E-006
 -3.018851427036597E-006
 -3.043813906931563E-006
 -3.057995118442240E-006
 -3.061798239675840E-006
 -3.055577007736608E-006
 -3.039590310654290E-006
 -3.013962379902278E-006
 -2.978649873575191E-006
 -1.416661502648750E-006
 -1.525235716481253E-006
 -1.643188705231550E-006
 -1.767307349805897E-006
 -1.894549213643393E-006
 -2.022091118871814E-006
 -2.147371116842646E-006
 -2.268122205543635E-006
 -2.382396517652065E-006
 -2.488579120963755E-006
 -2.585391015676741E-006
 -2.671881358834622E-006
 -2.747409374903393E-006
 -2.811616805053327E-006
 -2.864392091730108E-006
 -2.905827778422837E-006
 -2.936172819949444E-006
 -2.955781642124481E-006
 -2.965061860794811E-006
 -2.964422570819072E-006
 -2.954225049756877E-006
 -2.934737594584661E-006
 -2.906096029529265E-006
 -2.868271196823739E-006
 -1.473930575659772E-006
 -1.571412685917226E-006
 -1.678615558837817E-006
 -1.792345319368195E-006
 -1.909573417384527E-006
 -2.027486340548913E-006
 -2.143528544298481E-006
 -2.255436978098953E-006
 -2.361265954350341E-006
 -2.459401520939623E-006
 -2.548564938490813E-006
 -2.627805307123455E-006
 -2.696481814637832E-006
 -2.754236470635296E-006
 -2.800958534460561E-006
 -2.836742128028574E-006
 -2.861838740108412E-006
 -2.876606472692270E-006
 -2.881457951955656E-006
 -2.876808827936996E-006
 -2.863028722590004E-006
 -2.840396360980448E-006
 -2.809060442055352E-006
 -2.769007581299722E-006
 -1.525142900375392E-006
 -1.612814100825753E-006
 -1.710491046578738E-006
 -1.815000946386858E-006
 -1.923330907148878E-006
 -2.032678749409922E-006
 -2.140496871763739E-006
 -2.244527568655726E-006
 -2.342828569736983E-006
 -2.433787980417200E-006
 -2.516128240799222E-006
 -2.588899161945809E-006
 -2.651460524004161E-006
 -2.703455112231358E-006
 -2.744773409696305E-006
 -2.775511448291435E-006
 -2.795923535259684E-006
 -2.806371716869605E-006
 -2.807273913375629E-006
 -2.799052661976621E-006
 -2.782086341200486E-006
 -2.756664626734922E-006
 -2.722949752122504E-006
 -2.680944925655642E-006
 -1.570204424310104E-006
 -1.649339001376107E-006
 -1.738713032893392E-006
 -1.835175388426040E-006
 -1.935729542049133E-006
 -2.037585429665378E-006
 -2.138204199075703E-006
 -2.235334280893689E-006
 -2.327037568793649E-006
 -2.411704906323399E-006
 -2.488060512761383E-006
 -2.555155420354479E-006
 -2.612350419441258E-006
 -2.659289398409861E-006
 -2.695864307485502E-006
 -2.722173257868835E-006
 -2.738473483294590E-006
 -2.745131035756596E-006
 -2.742569160226001E-006
 -2.731217296564061E-006
 -2.711462594623931E-006
 -2.683605706459139E-006
 -2.647822444540030E-006
 -2.604132674635676E-006
 -1.609043232122823E-006
 -1.680905268968721E-006
 -1.763194803070228E-006
 -1.852781760605505E-006
 -1.946685697633039E-006
 -2.042128614127757E-006
 -2.136580519371828E-006
 -2.227796198096416E-006
 -2.313841984399164E-006
 -2.393111756793004E-006
 -2.464331800919141E-006
 -2.526554624651988E-006
 -2.579142233129963E-006
 -2.621739760726681E-006
 -2.654240698354270E-006
 -2.676745236645434E-006
 -2.689513461050782E-006
 -2.692915279759457E-006
 -2.687379038879589E-006
 -2.673340783408198E-006
 -2.651196061238201E-006
 -2.621256046559147E-006
 -2.583709585383376E-006
 -2.538592547320230E-006
 -1.641605754317770E-006
 -1.707447409612485E-006
 -1.783864204746226E-006
 -1.867745445464991E-006
 -1.956125578137279E-006
 -2.046237853977813E-006
 -2.135560620139611E-006
 -2.221854705794168E-006
 -2.303190726609100E-006
 -2.377965535307228E-006
 -2.444907477386576E-006
 -2.503070547813191E-006
 -2.551817966111777E-006
 -2.590796075877921E-006
 -2.619899815507002E-006
 -2.639231288725298E-006
 -2.649053178919640E-006
 -2.649738896269562E-006
 -2.641721420595153E-006
 -2.625442807503312E-006
 -2.601306264960674E-006
 -2.569632587517893E-006
 -2.530622563005097E-006
 -2.484326749291466E-006
 -1.667853255396800E-006
 -1.728914464436936E-006
 -1.800662787965992E-006
 -1.880004292906512E-006
 -1.963986327413537E-006
 -2.049851910272650E-006
 -2.135086641398140E-006
 -2.217456617416076E-006
 -2.295036189731793E-006
 -2.366224805027985E-006
 -2.429752598077286E-006
 -2.484674842234936E-006
 -2.530355783591572E-006
 -2.566442772605374E-006
 -2.592831947251209E-006
 -2.609627003232752E-006
 -2.617092802085425E-006
 -2.615605713128984E-006
 -2.605602659428075E-006
 -2.587530843085665E-006
 -2.561800065394260E-006
 -2.528739438322479E-006
 -2.488560112395462E-006
 -2.441325429967103E-006
 -1.687758713412612E-006
 -1.745268124320048E-006
 -1.813544988933788E-006
 -1.889508726642156E-006
 -1.970216929223636E-006
 -2.052920335034124E-006
 -2.135110238661856E-006
 -2.214556832887235E-006
 -2.289337331713483E-006
 -2.357853124438352E-006
 -2.418835639503813E-006
 -2.471341031340560E-006
 -2.514734223244794E-006
 -2.548663226534002E-006
 -2.573024996011385E-006
 -2.587924363020652E-006
 -2.593627802560984E-006
 -2.590513936146814E-006
 -2.579022746524783E-006
 -2.559605485921454E-006
 -2.532677200223918E-006
 -2.498573673120394E-006
 -2.457514423610010E-006
 -2.409573175139884E-006
 -1.701304186662449E-006
 -1.756481115432428E-006
 -1.822477397804501E-006
 -1.896221773499775E-006
 -1.974778891719079E-006
 -2.055404717522821E-006
 -2.135594309291078E-006
 -2.213120473811203E-006
 -2.286062156361437E-006
 -2.352821823394824E-006
 -2.412131523309769E-006
 -2.463047744546005E-006
 -2.504935609462847E-006
 -2.537443329199346E-006
 -2.560468184181059E-006
 -2.574115575980054E-006
 -2.578652911377775E-006
 -2.574460224735410E-006
 -2.561979519394046E-006
 -2.541664814674730E-006
 -2.513934826184888E-006
 -2.479130089259883E-006
 -2.437476165355743E-006
 -2.389054356733937E-006
 -1.708478745854404E-006
 -1.762535911097268E-006
 -1.827438144869643E-006
 -1.900119030830455E-006
 -1.977646714112016E-006
 -2.057279578294793E-006
 -2.136514251133197E-006
 -2.213124452068177E-006
 -2.285189544647617E-006
 -2.351112056575917E-006
 -2.409623857440412E-006
 -2.459781117427399E-006
 -2.500948589178277E-006
 -2.532774141373610E-006
 -2.555154811900528E-006
 -2.568195929372208E-006
 -2.572165066876371E-006
 -2.567442737135155E-006
 -2.554471812999992E-006
 -2.533707663254249E-006
 -2.505570935108197E-006
 -2.470404797235408E-006
 -2.428438287589194E-006
 -2.379757196214712E-006
SCALARS elementIsPlast double 
LOOKUP_TABLE default
  0.000000000000000E+000
  0.000000000000000E+000
  0.000000000000000E+000
  0.000000000000000E+000
  0.000000000000000E+000
  0.000000000000000E+000
  0.000000000000000E+000
  0.000000000000000E+000
  0.000000000000000E+000
  0.000000000000000E+000
  0.000000000000000E+000
  0.000000000000000E+000
  0.000000000000000E+000
  0.000000000000000E+000
  0.000000000000000E+000
  0.000000000000000E+000
   1.00000000000000     
   1.00000000000000     
   1.00000000000000     
  0.000000000000000E+000
  0.000000000000000E+000
  0.000000000000000E+000
  0.000000000000000E+000
  0.000000000000000E+000
  0.000000000000000E+000
  0.000000000000000E+000
  0.000000000000000E+000
  0.000000000000000E+000
  0.000000000000000E+000
  0.000000000000000E+000
  0.000000000000000E+000
  0.000000000000000E+000
  0.000000000000000E+000
  0.000000000000000E+000
  0.000000000000000E+000
  0.000000000000000E+000
  0.000000000000000E+000
  0.000000000000000E+000
  0.000000000000000E+000
  0.000000000000000E+000
   1.00000000000000     
   1.00000000000000     
   1.00000000000000     
  0.000000000000000E+000
  0.000000000000000E+000
  0.000000000000000E+000
  0.000000000000000E+000
  0.000000000000000E+000
  0.000000000000000E+000
  0.000000000000000E+000
  0.000000000000000E+000
  0.000000000000000E+000
  0.000000000000000E+000
  0.000000000000000E+000
  0.000000000000000E+000
  0.000000000000000E+000
  0.000000000000000E+000
  0.000000000000000E+000
  0.000000000000000E+000
  0.000000000000000E+000
  0.000000000000000E+000
  0.000000000000000E+000
  0.000000000000000E+000
   1.00000000000000     
   1.00000000000000     
   1.00000000000000     
   1.00000000000000     
  0.000000000000000E+000
  0.000000000000000E+000
  0.000000000000000E+000
  0.000000000000000E+000
  0.000000000000000E+000
  0.000000000000000E+000
  0.000000000000000E+000
  0.000000000000000E+000
  0.000000000000000E+000
  0.000000000000000E+000
  0.000000000000000E+000
  0.000000000000000E+000
  0.000000000000000E+000
  0.000000000000000E+000
  0.000000000000000E+000
  0.000000000000000E+000
  0.000000000000000E+000
  0.000000000000000E+000
  0.000000000000000E+000
  0.000000000000000E+000
  0.000000000000000E+000
   1.00000000000000     
   1.00000000000000     
   1.00000000000000     
  0.000000000000000E+000
  0.000000000000000E+000
  0.000000000000000E+000
  0.000000000000000E+000
  0.000000000000000E+000
  0.000000000000000E+000
  0.000000000000000E+000
  0.000000000000000E+000
  0.000000000000000E+000
  0.000000000000000E+000
  0.000000000000000E+000
  0.000000000000000E+000
  0.000000000000000E+000
  0.000000000000000E+000
  0.000000000000000E+000
  0.000000000000000E+000
  0.000000000000000E+000
  0.000000000000000E+000
  0.000000000000000E+000
  0.000000000000000E+000
  0.000000000000000E+000
  0.000000000000000E+000
  0.000000000000000E+000
   1.00000000000000     
  0.000000000000000E+000
  0.000000000000000E+000
  0.000000000000000E+000
  0.000000000000000E+000
  0.000000000000000E+000
  0.000000000000000E+000
  0.000000000000000E+000
  0.000000000000000E+000
  0.000000000000000E+000
  0.000000000000000E+000
  0.000000000000000E+000
  0.000000000000000E+000
  0.000000000000000E+000
  0.000000000000000E+000
  0.000000000000000E+000
  0.000000000000000E+000
  0.000000000000000E+000
  0.000000000000000E+000
  0.000000000000000E+000
  0.000000000000000E+000
  0.000000000000000E+000
  0.000000000000000E+000
  0.000000000000000E+000
  0.000000000000000E+000
  0.000000000000000E+000
  0.000000000000000E+000
  0.000000000000000E+000
  0.000000000000000E+000
  0.000000000000000E+000
  0.000000000000000E+000
  0.000000000000000E+000
  0.000000000000000E+000
  0.000000000000000E+000
  0.000000000000000E+000
  0.000000000000000E+000
  0.000000000000000E+000
  0.000000000000000E+000
  0.000000000000000E+000
  0.000000000000000E+000
  0.000000000000000E+000
  0.000000000000000E+000
  0.000000000000000E+000
  0.000000000000000E+000
  0.000000000000000E+000
  0.000000000000000E+000
  0.000000000000000E+000
  0.000000000000000E+000
  0.000000000000000E+000
  0.000000000000000E+000
  0.000000000000000E+000
  0.000000000000000E+000
  0.000000000000000E+000
  0.000000000000000E+000
  0.000000000000000E+000
  0.000000000000000E+000
  0.000000000000000E+000
  0.000000000000000E+000
  0.000000000000000E+000
  0.000000000000000E+000
  0.000000000000000E+000
  0.000000000000000E+000
  0.000000000000000E+000
  0.000000000000000E+000
  0.000000000000000E+000
  0.000000000000000E+000
  0.000000000000000E+000
  0.000000000000000E+000
  0.000000000000000E+000
  0.000000000000000E+000
  0.000000000000000E+000
  0.000000000000000E+000
  0.000000000000000E+000
  0.000000000000000E+000
  0.000000000000000E+000
  0.000000000000000E+000
  0.000000000000000E+000
  0.000000000000000E+000
  0.000000000000000E+000
  0.000000000000000E+000
  0.000000000000000E+000
  0.000000000000000E+000
  0.000000000000000E+000
  0.000000000000000E+000
  0.000000000000000E+000
  0.000000000000000E+000
  0.000000000000000E+000
  0.000000000000000E+000
  0.000000000000000E+000
  0.000000000000000E+000
  0.000000000000000E+000
  0.000000000000000E+000
  0.000000000000000E+000
  0.000000000000000E+000
  0.000000000000000E+000
  0.000000000000000E+000
  0.000000000000000E+000
  0.000000000000000E+000
  0.000000000000000E+000
  0.000000000000000E+000
  0.000000000000000E+000
  0.000000000000000E+000
  0.000000000000000E+000
  0.000000000000000E+000
  0.000000000000000E+000
  0.000000000000000E+000
  0.000000000000000E+000
  0.000000000000000E+000
  0.000000000000000E+000
  0.000000000000000E+000
  0.000000000000000E+000
  0.000000000000000E+000
  0.000000000000000E+000
  0.000000000000000E+000
  0.000000000000000E+000
  0.000000000000000E+000
  0.000000000000000E+000
  0.000000000000000E+000
  0.000000000000000E+000
  0.000000000000000E+000
  0.000000000000000E+000
  0.000000000000000E+000
  0.000000000000000E+000
  0.000000000000000E+000
  0.000000000000000E+000
  0.000000000000000E+000
  0.000000000000000E+000
  0.000000000000000E+000
  0.000000000000000E+000
  0.000000000000000E+000
  0.000000000000000E+000
  0.000000000000000E+000
  0.000000000000000E+000
  0.000000000000000E+000
  0.000000000000000E+000
  0.000000000000000E+000
  0.000000000000000E+000
  0.000000000000000E+000
  0.000000000000000E+000
  0.000000000000000E+000
  0.000000000000000E+000
  0.000000000000000E+000
  0.000000000000000E+000
  0.000000000000000E+000
  0.000000000000000E+000
  0.000000000000000E+000
  0.000000000000000E+000
  0.000000000000000E+000
  0.000000000000000E+000
  0.000000000000000E+000
  0.000000000000000E+000
  0.000000000000000E+000
  0.000000000000000E+000
  0.000000000000000E+000
  0.000000000000000E+000
  0.000000000000000E+000
  0.000000000000000E+000
  0.000000000000000E+000
  0.000000000000000E+000
  0.000000000000000E+000
  0.000000000000000E+000
  0.000000000000000E+000
  0.000000000000000E+000
  0.000000000000000E+000
  0.000000000000000E+000
  0.000000000000000E+000
  0.000000000000000E+000
  0.000000000000000E+000
  0.000000000000000E+000
  0.000000000000000E+000
  0.000000000000000E+000
  0.000000000000000E+000
  0.000000000000000E+000
  0.000000000000000E+000
  0.000000000000000E+000
  0.000000000000000E+000
  0.000000000000000E+000
  0.000000000000000E+000
  0.000000000000000E+000
  0.000000000000000E+000
  0.000000000000000E+000
  0.000000000000000E+000
  0.000000000000000E+000
  0.000000000000000E+000
  0.000000000000000E+000
  0.000000000000000E+000
  0.000000000000000E+000
  0.000000000000000E+000
  0.000000000000000E+000
  0.000000000000000E+000
  0.000000000000000E+000
  0.000000000000000E+000
  0.000000000000000E+000
  0.000000000000000E+000
  0.000000000000000E+000
  0.000000000000000E+000
  0.000000000000000E+000
  0.000000000000000E+000
  0.000000000000000E+000
  0.000000000000000E+000
  0.000000000000000E+000
  0.000000000000000E+000
  0.000000000000000E+000
  0.000000000000000E+000
  0.000000000000000E+000
  0.000000000000000E+000
  0.000000000000000E+000
  0.000000000000000E+000
  0.000000000000000E+000
  0.000000000000000E+000
  0.000000000000000E+000
  0.000000000000000E+000
  0.000000000000000E+000
  0.000000000000000E+000
  0.000000000000000E+000
  0.000000000000000E+000
  0.000000000000000E+000
  0.000000000000000E+000
  0.000000000000000E+000
  0.000000000000000E+000
  0.000000000000000E+000
  0.000000000000000E+000
  0.000000000000000E+000
  0.000000000000000E+000
  0.000000000000000E+000
  0.000000000000000E+000
  0.000000000000000E+000
  0.000000000000000E+000
  0.000000000000000E+000
  0.000000000000000E+000
  0.000000000000000E+000
  0.000000000000000E+000
  0.000000000000000E+000
  0.000000000000000E+000
  0.000000000000000E+000
  0.000000000000000E+000
  0.000000000000000E+000
  0.000000000000000E+000
  0.000000000000000E+000
  0.000000000000000E+000
  0.000000000000000E+000
  0.000000000000000E+000
  0.000000000000000E+000
  0.000000000000000E+000
  0.000000000000000E+000
  0.000000000000000E+000
  0.000000000000000E+000
  0.000000000000000E+000
  0.000000000000000E+000
  0.000000000000000E+000
  0.000000000000000E+000
  0.000000000000000E+000
  0.000000000000000E+000
  0.000000000000000E+000
  0.000000000000000E+000
  0.000000000000000E+000
  0.000000000000000E+000
  0.000000000000000E+000
  0.000000000000000E+000
  0.000000000000000E+000
  0.000000000000000E+000
  0.000000000000000E+000
  0.000000000000000E+000
  0.000000000000000E+000
  0.000000000000000E+000
  0.000000000000000E+000
  0.000000000000000E+000
  0.000000000000000E+000
  0.000000000000000E+000
  0.000000000000000E+000
  0.000000000000000E+000
  0.000000000000000E+000
  0.000000000000000E+000
  0.000000000000000E+000
  0.000000000000000E+000
  0.000000000000000E+000
  0.000000000000000E+000
  0.000000000000000E+000
  0.000000000000000E+000
  0.000000000000000E+000
  0.000000000000000E+000
  0.000000000000000E+000
  0.000000000000000E+000
  0.000000000000000E+000
  0.000000000000000E+000
  0.000000000000000E+000
  0.000000000000000E+000
  0.000000000000000E+000
  0.000000000000000E+000
  0.000000000000000E+000
  0.000000000000000E+000
  0.000000000000000E+000
  0.000000000000000E+000
  0.000000000000000E+000
  0.000000000000000E+000
  0.000000000000000E+000
  0.000000000000000E+000
  0.000000000000000E+000
  0.000000000000000E+000
  0.000000000000000E+000
  0.000000000000000E+000
  0.000000000000000E+000
  0.000000000000000E+000
  0.000000000000000E+000
  0.000000000000000E+000
  0.000000000000000E+000
  0.000000000000000E+000
  0.000000000000000E+000
  0.000000000000000E+000
  0.000000000000000E+000
  0.000000000000000E+000
  0.000000000000000E+000
  0.000000000000000E+000
  0.000000000000000E+000
  0.000000000000000E+000
  0.000000000000000E+000
  0.000000000000000E+000
  0.000000000000000E+000
  0.000000000000000E+000
  0.000000000000000E+000
  0.000000000000000E+000
  0.000000000000000E+000
  0.000000000000000E+000
  0.000000000000000E+000
  0.000000000000000E+000
  0.000000000000000E+000
  0.000000000000000E+000
  0.000000000000000E+000
  0.000000000000000E+000
  0.000000000000000E+000
  0.000000000000000E+000
  0.000000000000000E+000
  0.000000000000000E+000
  0.000000000000000E+000
  0.000000000000000E+000
  0.000000000000000E+000
  0.000000000000000E+000
  0.000000000000000E+000
  0.000000000000000E+000
  0.000000000000000E+000
  0.000000000000000E+000
  0.000000000000000E+000
  0.000000000000000E+000
  0.000000000000000E+000
  0.000000000000000E+000
  0.000000000000000E+000
  0.000000000000000E+000
  0.000000000000000E+000
  0.000000000000000E+000
  0.000000000000000E+000
  0.000000000000000E+000
  0.000000000000000E+000
  0.000000000000000E+000
  0.000000000000000E+000
  0.000000000000000E+000
  0.000000000000000E+000
  0.000000000000000E+000
  0.000000000000000E+000
  0.000000000000000E+000
  0.000000000000000E+000
  0.000000000000000E+000
  0.000000000000000E+000
  0.000000000000000E+000
  0.000000000000000E+000
  0.000000000000000E+000
  0.000000000000000E+000
  0.000000000000000E+000
  0.000000000000000E+000
  0.000000000000000E+000
  0.000000000000000E+000
  0.000000000000000E+000
  0.000000000000000E+000
  0.000000000000000E+000
  0.000000000000000E+000
  0.000000000000000E+000
  0.000000000000000E+000
  0.000000000000000E+000
  0.000000000000000E+000
  0.000000000000000E+000
  0.000000000000000E+000
  0.000000000000000E+000
  0.000000000000000E+000
  0.000000000000000E+000
  0.000000000000000E+000
  0.000000000000000E+000
  0.000000000000000E+000
  0.000000000000000E+000
  0.000000000000000E+000
  0.000000000000000E+000
  0.000000000000000E+000
  0.000000000000000E+000
  0.000000000000000E+000
  0.000000000000000E+000
  0.000000000000000E+000
  0.000000000000000E+000
  0.000000000000000E+000
  0.000000000000000E+000
  0.000000000000000E+000
  0.000000000000000E+000
  0.000000000000000E+000
  0.000000000000000E+000
  0.000000000000000E+000
  0.000000000000000E+000
  0.000000000000000E+000
  0.000000000000000E+000
  0.000000000000000E+000
  0.000000000000000E+000
  0.000000000000000E+000
  0.000000000000000E+000
  0.000000000000000E+000
  0.000000000000000E+000
  0.000000000000000E+000
  0.000000000000000E+000
  0.000000000000000E+000
  0.000000000000000E+000
  0.000000000000000E+000
  0.000000000000000E+000
  0.000000000000000E+000
  0.000000000000000E+000
  0.000000000000000E+000
  0.000000000000000E+000
  0.000000000000000E+000
  0.000000000000000E+000
  0.000000000000000E+000
  0.000000000000000E+000
  0.000000000000000E+000
  0.000000000000000E+000
  0.000000000000000E+000
  0.000000000000000E+000
  0.000000000000000E+000
  0.000000000000000E+000
  0.000000000000000E+000
  0.000000000000000E+000
  0.000000000000000E+000
  0.000000000000000E+000
  0.000000000000000E+000
  0.000000000000000E+000
  0.000000000000000E+000
  0.000000000000000E+000
  0.000000000000000E+000
  0.000000000000000E+000
  0.000000000000000E+000
  0.000000000000000E+000
  0.000000000000000E+000
  0.000000000000000E+000
  0.000000000000000E+000
  0.000000000000000E+000
  0.000000000000000E+000
  0.000000000000000E+000
  0.000000000000000E+000
  0.000000000000000E+000
  0.000000000000000E+000
  0.000000000000000E+000
  0.000000000000000E+000
  0.000000000000000E+000
  0.000000000000000E+000
  0.000000000000000E+000
  0.000000000000000E+000
  0.000000000000000E+000
  0.000000000000000E+000
  0.000000000000000E+000
  0.000000000000000E+000
  0.000000000000000E+000
  0.000000000000000E+000
  0.000000000000000E+000
  0.000000000000000E+000
  0.000000000000000E+000
  0.000000000000000E+000
  0.000000000000000E+000
  0.000000000000000E+000
  0.000000000000000E+000
  0.000000000000000E+000
  0.000000000000000E+000
  0.000000000000000E+000
  0.000000000000000E+000
  0.000000000000000E+000
  0.000000000000000E+000
  0.000000000000000E+000
  0.000000000000000E+000
  0.000000000000000E+000
  0.000000000000000E+000
  0.000000000000000E+000
  0.000000000000000E+000
  0.000000000000000E+000
  0.000000000000000E+000
  0.000000000000000E+000
  0.000000000000000E+000
  0.000000000000000E+000
  0.000000000000000E+000
  0.000000000000000E+000
  0.000000000000000E+000
  0.000000000000000E+000
  0.000000000000000E+000
  0.000000000000000E+000
  0.000000000000000E+000
  0.000000000000000E+000
  0.000000000000000E+000
  0.000000000000000E+000
  0.000000000000000E+000
  0.000000000000000E+000
  0.000000000000000E+000
  0.000000000000000E+000
  0.000000000000000E+000
  0.000000000000000E+000
  0.000000000000000E+000
  0.000000000000000E+000
  0.000000000000000E+000
  0.000000000000000E+000
  0.000000000000000E+000
  0.000000000000000E+000
  0.000000000000000E+000
  0.000000000000000E+000
  0.000000000000000E+000
  0.000000000000000E+000
  0.000000000000000E+000
  0.000000000000000E+000
  0.000000000000000E+000
  0.000000000000000E+000
  0.000000000000000E+000
  0.000000000000000E+000
  0.000000000000000E+000
  0.000000000000000E+000
  0.000000000000000E+000
  0.000000000000000E+000
  0.000000000000000E+000
  0.000000000000000E+000
  0.000000000000000E+000
  0.000000000000000E+000
  0.000000000000000E+000
  0.000000000000000E+000
  0.000000000000000E+000
  0.000000000000000E+000
  0.000000000000000E+000
  0.000000000000000E+000
  0.000000000000000E+000
  0.000000000000000E+000
  0.000000000000000E+000
  0.000000000000000E+000
  0.000000000000000E+000
  0.000000000000000E+000
  0.000000000000000E+000
  0.000000000000000E+000
  0.000000000000000E+000
  0.000000000000000E+000
  0.000000000000000E+000
  0.000000000000000E+000
  0.000000000000000E+000
  0.000000000000000E+000
  0.000000000000000E+000
  0.000000000000000E+000
  0.000000000000000E+000
  0.000000000000000E+000
  0.000000000000000E+000
  0.000000000000000E+000
  0.000000000000000E+000
  0.000000000000000E+000
  0.000000000000000E+000
  0.000000000000000E+000
  0.000000000000000E+000
  0.000000000000000E+000
  0.000000000000000E+000
  0.000000000000000E+000
  0.000000000000000E+000
  0.000000000000000E+000
  0.000000000000000E+000
  0.000000000000000E+000
  0.000000000000000E+000
  0.000000000000000E+000
  0.000000000000000E+000
  0.000000000000000E+000
  0.000000000000000E+000
  0.000000000000000E+000
  0.000000000000000E+000
  0.000000000000000E+000
  0.000000000000000E+000
  0.000000000000000E+000
  0.000000000000000E+000
  0.000000000000000E+000
  0.000000000000000E+000
  0.000000000000000E+000
  0.000000000000000E+000
  0.000000000000000E+000
  0.000000000000000E+000
  0.000000000000000E+000
  0.000000000000000E+000
  0.000000000000000E+000
  0.000000000000000E+000
  0.000000000000000E+000
  0.000000000000000E+000
  0.000000000000000E+000
  0.000000000000000E+000
  0.000000000000000E+000
  0.000000000000000E+000
  0.000000000000000E+000
  0.000000000000000E+000
  0.000000000000000E+000
  0.000000000000000E+000
  0.000000000000000E+000
  0.000000000000000E+000
  0.000000000000000E+000
  0.000000000000000E+000
  0.000000000000000E+000
  0.000000000000000E+000
  0.000000000000000E+000
  0.000000000000000E+000
  0.000000000000000E+000
  0.000000000000000E+000
  0.000000000000000E+000
  0.000000000000000E+000
  0.000000000000000E+000
  0.000000000000000E+000
  0.000000000000000E+000
  0.000000000000000E+000
  0.000000000000000E+000
  0.000000000000000E+000
  0.000000000000000E+000
  0.000000000000000E+000
  0.000000000000000E+000
  0.000000000000000E+000
  0.000000000000000E+000
  0.000000000000000E+000
  0.000000000000000E+000
  0.000000000000000E+000
  0.000000000000000E+000
  0.000000000000000E+000
  0.000000000000000E+000
  0.000000000000000E+000
  0.000000000000000E+000
  0.000000000000000E+000
  0.000000000000000E+000
  0.000000000000000E+000
  0.000000000000000E+000
  0.000000000000000E+000
  0.000000000000000E+000
  0.000000000000000E+000
  0.000000000000000E+000
  0.000000000000000E+000
  0.000000000000000E+000
  0.000000000000000E+000
  0.000000000000000E+000
  0.000000000000000E+000
  0.000000000000000E+000
  0.000000000000000E+000
  0.000000000000000E+000
  0.000000000000000E+000
  0.000000000000000E+000
  0.000000000000000E+000
  0.000000000000000E+000
  0.000000000000000E+000
  0.000000000000000E+000
  0.000000000000000E+000
  0.000000000000000E+000
  0.000000000000000E+000
  0.000000000000000E+000
  0.000000000000000E+000
  0.000000000000000E+000
  0.000000000000000E+000
  0.000000000000000E+000
  0.000000000000000E+000
  0.000000000000000E+000
  0.000000000000000E+000
  0.000000000000000E+000
  0.000000000000000E+000
  0.000000000000000E+000
  0.000000000000000E+000
  0.000000000000000E+000
  0.000000000000000E+000
  0.000000000000000E+000
  0.000000000000000E+000
  0.000000000000000E+000
  0.000000000000000E+000
  0.000000000000000E+000
  0.000000000000000E+000
  0.000000000000000E+000
  0.000000000000000E+000
  0.000000000000000E+000
  0.000000000000000E+000
  0.000000000000000E+000
  0.000000000000000E+000
  0.000000000000000E+000
  0.000000000000000E+000
  0.000000000000000E+000
  0.000000000000000E+000
  0.000000000000000E+000
  0.000000000000000E+000
  0.000000000000000E+000
  0.000000000000000E+000
  0.000000000000000E+000
  0.000000000000000E+000
  0.000000000000000E+000
  0.000000000000000E+000
  0.000000000000000E+000
  0.000000000000000E+000
  0.000000000000000E+000
  0.000000000000000E+000
  0.000000000000000E+000
  0.000000000000000E+000
  0.000000000000000E+000
  0.000000000000000E+000
  0.000000000000000E+000
  0.000000000000000E+000
  0.000000000000000E+000
  0.000000000000000E+000
  0.000000000000000E+000
  0.000000000000000E+000
  0.000000000000000E+000
  0.000000000000000E+000
  0.000000000000000E+000
  0.000000000000000E+000
  0.000000000000000E+000
  0.000000000000000E+000
  0.000000000000000E+000
  0.000000000000000E+000
  0.000000000000000E+000
  0.000000000000000E+000
  0.000000000000000E+000
  0.000000000000000E+000
  0.000000000000000E+000
  0.000000000000000E+000
  0.000000000000000E+000
  0.000000000000000E+000
  0.000000000000000E+000
  0.000000000000000E+000
  0.000000000000000E+000
  0.000000000000000E+000
  0.000000000000000E+000
  0.000000000000000E+000
  0.000000000000000E+000
  0.000000000000000E+000
  0.000000000000000E+000
  0.000000000000000E+000
  0.000000000000000E+000
  0.000000000000000E+000
  0.000000000000000E+000
  0.000000000000000E+000
  0.000000000000000E+000
  0.000000000000000E+000
  0.000000000000000E+000
  0.000000000000000E+000
  0.000000000000000E+000
  0.000000000000000E+000
  0.000000000000000E+000
  0.000000000000000E+000
  0.000000000000000E+000
  0.000000000000000E+000
  0.000000000000000E+000
  0.000000000000000E+000
  0.000000000000000E+000
  0.000000000000000E+000
  0.000000000000000E+000
  0.000000000000000E+000
  0.000000000000000E+000
  0.000000000000000E+000
  0.000000000000000E+000
  0.000000000000000E+000
  0.000000000000000E+000
  0.000000000000000E+000
  0.000000000000000E+000
  0.000000000000000E+000
  0.000000000000000E+000
  0.000000000000000E+000
  0.000000000000000E+000
  0.000000000000000E+000
  0.000000000000000E+000
  0.000000000000000E+000
  0.000000000000000E+000
  0.000000000000000E+000
  0.000000000000000E+000
  0.000000000000000E+000
  0.000000000000000E+000
  0.000000000000000E+000
  0.000000000000000E+000
  0.000000000000000E+000
  0.000000000000000E+000
  0.000000000000000E+000
  0.000000000000000E+000
  0.000000000000000E+000
  0.000000000000000E+000
  0.000000000000000E+000
  0.000000000000000E+000
  0.000000000000000E+000
  0.000000000000000E+000
  0.000000000000000E+000
  0.000000000000000E+000
  0.000000000000000E+000
  0.000000000000000E+000
  0.000000000000000E+000
  0.000000000000000E+000
  0.000000000000000E+000
  0.000000000000000E+000
  0.000000000000000E+000
  0.000000000000000E+000
  0.000000000000000E+000
  0.000000000000000E+000
  0.000000000000000E+000
  0.000000000000000E+000
  0.000000000000000E+000
  0.000000000000000E+000
  0.000000000000000E+000
  0.000000000000000E+000
  0.000000000000000E+000
  0.000000000000000E+000
  0.000000000000000E+000
  0.000000000000000E+000
  0.000000000000000E+000
  0.000000000000000E+000
  0.000000000000000E+000
  0.000000000000000E+000
  0.000000000000000E+000
  0.000000000000000E+000
  0.000000000000000E+000
  0.000000000000000E+000
  0.000000000000000E+000
  0.000000000000000E+000
  0.000000000000000E+000
  0.000000000000000E+000
  0.000000000000000E+000
  0.000000000000000E+000
  0.000000000000000E+000
  0.000000000000000E+000
  0.000000000000000E+000
  0.000000000000000E+000
  0.000000000000000E+000
  0.000000000000000E+000
  0.000000000000000E+000
  0.000000000000000E+000
  0.000000000000000E+000
  0.000000000000000E+000
  0.000000000000000E+000
  0.000000000000000E+000
  0.000000000000000E+000
  0.000000000000000E+000
  0.000000000000000E+000
  0.000000000000000E+000
  0.000000000000000E+000
  0.000000000000000E+000
  0.000000000000000E+000
  0.000000000000000E+000
  0.000000000000000E+000
  0.000000000000000E+000
  0.000000000000000E+000
  0.000000000000000E+000
  0.000000000000000E+000
  0.000000000000000E+000
  0.000000000000000E+000
  0.000000000000000E+000
  0.000000000000000E+000
  0.000000000000000E+000
  0.000000000000000E+000
  0.000000000000000E+000
  0.000000000000000E+000
  0.000000000000000E+000
  0.000000000000000E+000
  0.000000000000000E+000
  0.000000000000000E+000
  0.000000000000000E+000
  0.000000000000000E+000
  0.000000000000000E+000
  0.000000000000000E+000
  0.000000000000000E+000
  0.000000000000000E+000
  0.000000000000000E+000
  0.000000000000000E+000
  0.000000000000000E+000
  0.000000000000000E+000
  0.000000000000000E+000
  0.000000000000000E+000
  0.000000000000000E+000
  0.000000000000000E+000
  0.000000000000000E+000
  0.000000000000000E+000
  0.000000000000000E+000
  0.000000000000000E+000
  0.000000000000000E+000
  0.000000000000000E+000
  0.000000000000000E+000
  0.000000000000000E+000
  0.000000000000000E+000
  0.000000000000000E+000
  0.000000000000000E+000
  0.000000000000000E+000
  0.000000000000000E+000
  0.000000000000000E+000
  0.000000000000000E+000
  0.000000000000000E+000
  0.000000000000000E+000
  0.000000000000000E+000
  0.000000000000000E+000
  0.000000000000000E+000
  0.000000000000000E+000
  0.000000000000000E+000
  0.000000000000000E+000
  0.000000000000000E+000
  0.000000000000000E+000
  0.000000000000000E+000
  0.000000000000000E+000
  0.000000000000000E+000
  0.000000000000000E+000
  0.000000000000000E+000
  0.000000000000000E+000
  0.000000000000000E+000
  0.000000000000000E+000
  0.000000000000000E+000
  0.000000000000000E+000
  0.000000000000000E+000
  0.000000000000000E+000
  0.000000000000000E+000
  0.000000000000000E+000
  0.000000000000000E+000
  0.000000000000000E+000
  0.000000000000000E+000
  0.000000000000000E+000
  0.000000000000000E+000
  0.000000000000000E+000
  0.000000000000000E+000
  0.000000000000000E+000
  0.000000000000000E+000
  0.000000000000000E+000
  0.000000000000000E+000
  0.000000000000000E+000
  0.000000000000000E+000
  0.000000000000000E+000
  0.000000000000000E+000
  0.000000000000000E+000
  0.000000000000000E+000
  0.000000000000000E+000
  0.000000000000000E+000
  0.000000000000000E+000
  0.000000000000000E+000
  0.000000000000000E+000
  0.000000000000000E+000
  0.000000000000000E+000
  0.000000000000000E+000
  0.000000000000000E+000
  0.000000000000000E+000
  0.000000000000000E+000
  0.000000000000000E+000
  0.000000000000000E+000
  0.000000000000000E+000
  0.000000000000000E+000
  0.000000000000000E+000
  0.000000000000000E+000
  0.000000000000000E+000
  0.000000000000000E+000
  0.000000000000000E+000
  0.000000000000000E+000
  0.000000000000000E+000
  0.000000000000000E+000
  0.000000000000000E+000
  0.000000000000000E+000
  0.000000000000000E+000
  0.000000000000000E+000
  0.000000000000000E+000
  0.000000000000000E+000
  0.000000000000000E+000
  0.000000000000000E+000
  0.000000000000000E+000
  0.000000000000000E+000
  0.000000000000000E+000
  0.000000000000000E+000
  0.000000000000000E+000
  0.000000000000000E+000
  0.000000000000000E+000
  0.000000000000000E+000
  0.000000000000000E+000
  0.000000000000000E+000
  0.000000000000000E+000
  0.000000000000000E+000
  0.000000000000000E+000
  0.000000000000000E+000
  0.000000000000000E+000
  0.000000000000000E+000
  0.000000000000000E+000
  0.000000000000000E+000
  0.000000000000000E+000
  0.000000000000000E+000
  0.000000000000000E+000
  0.000000000000000E+000
  0.000000000000000E+000
  0.000000000000000E+000
  0.000000000000000E+000
  0.000000000000000E+000
  0.000000000000000E+000
  0.000000000000000E+000
  0.000000000000000E+000
  0.000000000000000E+000
  0.000000000000000E+000
  0.000000000000000E+000
  0.000000000000000E+000
  0.000000000000000E+000
  0.000000000000000E+000
  0.000000000000000E+000
  0.000000000000000E+000
  0.000000000000000E+000
  0.000000000000000E+000
  0.000000000000000E+000
  0.000000000000000E+000
  0.000000000000000E+000
  0.000000000000000E+000
  0.000000000000000E+000
  0.000000000000000E+000
  0.000000000000000E+000
  0.000000000000000E+000
  0.000000000000000E+000
  0.000000000000000E+000
  0.000000000000000E+000
  0.000000000000000E+000
  0.000000000000000E+000
  0.000000000000000E+000
  0.000000000000000E+000
  0.000000000000000E+000
  0.000000000000000E+000
  0.000000000000000E+000
  0.000000000000000E+000
  0.000000000000000E+000
  0.000000000000000E+000
  0.000000000000000E+000
  0.000000000000000E+000
  0.000000000000000E+000
  0.000000000000000E+000
  0.000000000000000E+000
  0.000000000000000E+000
  0.000000000000000E+000
  0.000000000000000E+000
  0.000000000000000E+000
  0.000000000000000E+000
  0.000000000000000E+000
  0.000000000000000E+000
  0.000000000000000E+000
  0.000000000000000E+000
  0.000000000000000E+000
  0.000000000000000E+000
  0.000000000000000E+000
  0.000000000000000E+000
  0.000000000000000E+000
  0.000000000000000E+000
  0.000000000000000E+000
  0.000000000000000E+000
