# vtk DataFile Version 3.0
vtk output
ASCII
DATASET UNSTRUCTURED_GRID
POINTS      1225 double 
  0.00000000E+00  2.40000000E+01  0.00000000E+00
  0.00000000E+00  2.30000000E+01  0.00000000E+00
  0.00000000E+00  2.20000000E+01  0.00000000E+00
  0.00000000E+00  2.10000000E+01  0.00000000E+00
  0.00000000E+00  2.00000000E+01  0.00000000E+00
  0.00000000E+00  1.90000000E+01  0.00000000E+00
  0.00000000E+00  1.80000000E+01  0.00000000E+00
  0.00000000E+00  1.70000000E+01  0.00000000E+00
  0.00000000E+00  1.60000000E+01  0.00000000E+00
  0.00000000E+00  1.50000000E+01  0.00000000E+00
  0.00000000E+00  1.40000000E+01  0.00000000E+00
  0.00000000E+00  1.30000000E+01  0.00000000E+00
  0.00000000E+00  1.20000000E+01  0.00000000E+00
  0.00000000E+00  1.10000000E+01  0.00000000E+00
  0.00000000E+00  1.00000000E+01  0.00000000E+00
  0.00000000E+00  9.00000000E+00  0.00000000E+00
  0.00000000E+00  8.00000000E+00  0.00000000E+00
  0.00000000E+00  7.00000000E+00  0.00000000E+00
  0.00000000E+00  6.00000000E+00  0.00000000E+00
  0.00000000E+00  5.00000000E+00  0.00000000E+00
  0.00000000E+00  4.00000000E+00  0.00000000E+00
  0.00000000E+00  3.00000000E+00  0.00000000E+00
  0.00000000E+00  2.00000000E+00  0.00000000E+00
  0.00000000E+00  1.00000000E+00  0.00000000E+00
  0.00000000E+00 -2.66453526E-15  0.00000000E+00
  1.00000000E+00  2.40000000E+01  0.00000000E+00
  1.00000000E+00  2.30000000E+01  0.00000000E+00
  1.00000000E+00  2.20000000E+01  0.00000000E+00
  1.00000000E+00  2.10000000E+01  0.00000000E+00
  1.00000000E+00  2.00000000E+01  0.00000000E+00
  1.00000000E+00  1.90000000E+01  0.00000000E+00
  1.00000000E+00  1.80000000E+01  0.00000000E+00
  1.00000000E+00  1.70000000E+01  0.00000000E+00
  1.00000000E+00  1.60000000E+01  0.00000000E+00
  1.00000000E+00  1.50000000E+01  0.00000000E+00
  1.00000000E+00  1.40000000E+01  0.00000000E+00
  1.00000000E+00  1.30000000E+01  0.00000000E+00
  1.00000000E+00  1.20000000E+01  0.00000000E+00
  1.00000000E+00  1.10000000E+01  0.00000000E+00
  1.00000000E+00  1.00000000E+01  0.00000000E+00
  1.00000000E+00  9.00000000E+00  0.00000000E+00
  1.00000000E+00  8.00000000E+00  0.00000000E+00
  1.00000000E+00  7.00000000E+00  0.00000000E+00
  1.00000000E+00  6.00000000E+00  0.00000000E+00
  1.00000000E+00  5.00000000E+00  0.00000000E+00
  1.00000000E+00  4.00000000E+00  0.00000000E+00
  1.00000000E+00  3.00000000E+00  0.00000000E+00
  1.00000000E+00  2.00000000E+00  0.00000000E+00
  1.00000000E+00  1.00000000E+00  0.00000000E+00
  1.00000000E+00 -2.66453526E-15  0.00000000E+00
  2.00000000E+00  2.40000000E+01  0.00000000E+00
  2.00000000E+00  2.30000000E+01  0.00000000E+00
  2.00000000E+00  2.20000000E+01  0.00000000E+00
  2.00000000E+00  2.10000000E+01  0.00000000E+00
  2.00000000E+00  2.00000000E+01  0.00000000E+00
  2.00000000E+00  1.90000000E+01  0.00000000E+00
  2.00000000E+00  1.80000000E+01  0.00000000E+00
  2.00000000E+00  1.70000000E+01  0.00000000E+00
  2.00000000E+00  1.60000000E+01  0.00000000E+00
  2.00000000E+00  1.50000000E+01  0.00000000E+00
  2.00000000E+00  1.40000000E+01  0.00000000E+00
  2.00000000E+00  1.30000000E+01  0.00000000E+00
  2.00000000E+00  1.20000000E+01  0.00000000E+00
  2.00000000E+00  1.10000000E+01  0.00000000E+00
  2.00000000E+00  1.00000000E+01  0.00000000E+00
  2.00000000E+00  9.00000000E+00  0.00000000E+00
  2.00000000E+00  8.00000000E+00  0.00000000E+00
  2.00000000E+00  7.00000000E+00  0.00000000E+00
  2.00000000E+00  6.00000000E+00  0.00000000E+00
  2.00000000E+00  5.00000000E+00  0.00000000E+00
  2.00000000E+00  4.00000000E+00  0.00000000E+00
  2.00000000E+00  3.00000000E+00  0.00000000E+00
  2.00000000E+00  2.00000000E+00  0.00000000E+00
  2.00000000E+00  1.00000000E+00  0.00000000E+00
  2.00000000E+00 -2.66453526E-15  0.00000000E+00
  3.00000000E+00  2.40000000E+01  0.00000000E+00
  3.00000000E+00  2.30000000E+01  0.00000000E+00
  3.00000000E+00  2.20000000E+01  0.00000000E+00
  3.00000000E+00  2.10000000E+01  0.00000000E+00
  3.00000000E+00  2.00000000E+01  0.00000000E+00
  3.00000000E+00  1.90000000E+01  0.00000000E+00
  3.00000000E+00  1.80000000E+01  0.00000000E+00
  3.00000000E+00  1.70000000E+01  0.00000000E+00
  3.00000000E+00  1.60000000E+01  0.00000000E+00
  3.00000000E+00  1.50000000E+01  0.00000000E+00
  3.00000000E+00  1.40000000E+01  0.00000000E+00
  3.00000000E+00  1.30000000E+01  0.00000000E+00
  3.00000000E+00  1.20000000E+01  0.00000000E+00
  3.00000000E+00  1.10000000E+01  0.00000000E+00
  3.00000000E+00  1.00000000E+01  0.00000000E+00
  3.00000000E+00  9.00000000E+00  0.00000000E+00
  3.00000000E+00  8.00000000E+00  0.00000000E+00
  3.00000000E+00  7.00000000E+00  0.00000000E+00
  3.00000000E+00  6.00000000E+00  0.00000000E+00
  3.00000000E+00  5.00000000E+00  0.00000000E+00
  3.00000000E+00  4.00000000E+00  0.00000000E+00
  3.00000000E+00  3.00000000E+00  0.00000000E+00
  3.00000000E+00  2.00000000E+00  0.00000000E+00
  3.00000000E+00  1.00000000E+00  0.00000000E+00
  3.00000000E+00 -2.66453526E-15  0.00000000E+00
  4.00000000E+00  2.40000000E+01  0.00000000E+00
  4.00000000E+00  2.30000000E+01  0.00000000E+00
  4.00000000E+00  2.20000000E+01  0.00000000E+00
  4.00000000E+00  2.10000000E+01  0.00000000E+00
  4.00000000E+00  2.00000000E+01  0.00000000E+00
  4.00000000E+00  1.90000000E+01  0.00000000E+00
  4.00000000E+00  1.80000000E+01  0.00000000E+00
  4.00000000E+00  1.70000000E+01  0.00000000E+00
  4.00000000E+00  1.60000000E+01  0.00000000E+00
  4.00000000E+00  1.50000000E+01  0.00000000E+00
  4.00000000E+00  1.40000000E+01  0.00000000E+00
  4.00000000E+00  1.30000000E+01  0.00000000E+00
  4.00000000E+00  1.20000000E+01  0.00000000E+00
  4.00000000E+00  1.10000000E+01  0.00000000E+00
  4.00000000E+00  1.00000000E+01  0.00000000E+00
  4.00000000E+00  9.00000000E+00  0.00000000E+00
  4.00000000E+00  8.00000000E+00  0.00000000E+00
  4.00000000E+00  7.00000000E+00  0.00000000E+00
  4.00000000E+00  6.00000000E+00  0.00000000E+00
  4.00000000E+00  5.00000000E+00  0.00000000E+00
  4.00000000E+00  4.00000000E+00  0.00000000E+00
  4.00000000E+00  3.00000000E+00  0.00000000E+00
  4.00000000E+00  2.00000000E+00  0.00000000E+00
  4.00000000E+00  1.00000000E+00  0.00000000E+00
  4.00000000E+00 -2.66453526E-15  0.00000000E+00
  5.00000000E+00  2.40000000E+01  0.00000000E+00
  5.00000000E+00  2.30000000E+01  0.00000000E+00
  5.00000000E+00  2.20000000E+01  0.00000000E+00
  5.00000000E+00  2.10000000E+01  0.00000000E+00
  5.00000000E+00  2.00000000E+01  0.00000000E+00
  5.00000000E+00  1.90000000E+01  0.00000000E+00
  5.00000000E+00  1.80000000E+01  0.00000000E+00
  5.00000000E+00  1.70000000E+01  0.00000000E+00
  5.00000000E+00  1.60000000E+01  0.00000000E+00
  5.00000000E+00  1.50000000E+01  0.00000000E+00
  5.00000000E+00  1.40000000E+01  0.00000000E+00
  5.00000000E+00  1.30000000E+01  0.00000000E+00
  5.00000000E+00  1.20000000E+01  0.00000000E+00
  5.00000000E+00  1.10000000E+01  0.00000000E+00
  5.00000000E+00  1.00000000E+01  0.00000000E+00
  5.00000000E+00  9.00000000E+00  0.00000000E+00
  5.00000000E+00  8.00000000E+00  0.00000000E+00
  5.00000000E+00  7.00000000E+00  0.00000000E+00
  5.00000000E+00  6.00000000E+00  0.00000000E+00
  5.00000000E+00  5.00000000E+00  0.00000000E+00
  5.00000000E+00  4.00000000E+00  0.00000000E+00
  5.00000000E+00  3.00000000E+00  0.00000000E+00
  5.00000000E+00  2.00000000E+00  0.00000000E+00
  5.00000000E+00  1.00000000E+00  0.00000000E+00
  5.00000000E+00 -2.66453526E-15  0.00000000E+00
  6.00000000E+00  2.40000000E+01  0.00000000E+00
  6.00000000E+00  2.30000000E+01  0.00000000E+00
  6.00000000E+00  2.20000000E+01  0.00000000E+00
  6.00000000E+00  2.10000000E+01  0.00000000E+00
  6.00000000E+00  2.00000000E+01  0.00000000E+00
  6.00000000E+00  1.90000000E+01  0.00000000E+00
  6.00000000E+00  1.80000000E+01  0.00000000E+00
  6.00000000E+00  1.70000000E+01  0.00000000E+00
  6.00000000E+00  1.60000000E+01  0.00000000E+00
  6.00000000E+00  1.50000000E+01  0.00000000E+00
  6.00000000E+00  1.40000000E+01  0.00000000E+00
  6.00000000E+00  1.30000000E+01  0.00000000E+00
  6.00000000E+00  1.20000000E+01  0.00000000E+00
  6.00000000E+00  1.10000000E+01  0.00000000E+00
  6.00000000E+00  1.00000000E+01  0.00000000E+00
  6.00000000E+00  9.00000000E+00  0.00000000E+00
  6.00000000E+00  8.00000000E+00  0.00000000E+00
  6.00000000E+00  7.00000000E+00  0.00000000E+00
  6.00000000E+00  6.00000000E+00  0.00000000E+00
  6.00000000E+00  5.00000000E+00  0.00000000E+00
  6.00000000E+00  4.00000000E+00  0.00000000E+00
  6.00000000E+00  3.00000000E+00  0.00000000E+00
  6.00000000E+00  2.00000000E+00  0.00000000E+00
  6.00000000E+00  1.00000000E+00  0.00000000E+00
  6.00000000E+00 -2.66453526E-15  0.00000000E+00
  7.00000000E+00  2.40000000E+01  0.00000000E+00
  7.00000000E+00  2.30000000E+01  0.00000000E+00
  7.00000000E+00  2.20000000E+01  0.00000000E+00
  7.00000000E+00  2.10000000E+01  0.00000000E+00
  7.00000000E+00  2.00000000E+01  0.00000000E+00
  7.00000000E+00  1.90000000E+01  0.00000000E+00
  7.00000000E+00  1.80000000E+01  0.00000000E+00
  7.00000000E+00  1.70000000E+01  0.00000000E+00
  7.00000000E+00  1.60000000E+01  0.00000000E+00
  7.00000000E+00  1.50000000E+01  0.00000000E+00
  7.00000000E+00  1.40000000E+01  0.00000000E+00
  7.00000000E+00  1.30000000E+01  0.00000000E+00
  7.00000000E+00  1.20000000E+01  0.00000000E+00
  7.00000000E+00  1.10000000E+01  0.00000000E+00
  7.00000000E+00  1.00000000E+01  0.00000000E+00
  7.00000000E+00  9.00000000E+00  0.00000000E+00
  7.00000000E+00  8.00000000E+00  0.00000000E+00
  7.00000000E+00  7.00000000E+00  0.00000000E+00
  7.00000000E+00  6.00000000E+00  0.00000000E+00
  7.00000000E+00  5.00000000E+00  0.00000000E+00
  7.00000000E+00  4.00000000E+00  0.00000000E+00
  7.00000000E+00  3.00000000E+00  0.00000000E+00
  7.00000000E+00  2.00000000E+00  0.00000000E+00
  7.00000000E+00  1.00000000E+00  0.00000000E+00
  7.00000000E+00 -2.66453526E-15  0.00000000E+00
  8.00000000E+00  2.40000000E+01  0.00000000E+00
  8.00000000E+00  2.30000000E+01  0.00000000E+00
  8.00000000E+00  2.20000000E+01  0.00000000E+00
  8.00000000E+00  2.10000000E+01  0.00000000E+00
  8.00000000E+00  2.00000000E+01  0.00000000E+00
  8.00000000E+00  1.90000000E+01  0.00000000E+00
  8.00000000E+00  1.80000000E+01  0.00000000E+00
  8.00000000E+00  1.70000000E+01  0.00000000E+00
  8.00000000E+00  1.60000000E+01  0.00000000E+00
  8.00000000E+00  1.50000000E+01  0.00000000E+00
  8.00000000E+00  1.40000000E+01  0.00000000E+00
  8.00000000E+00  1.30000000E+01  0.00000000E+00
  8.00000000E+00  1.20000000E+01  0.00000000E+00
  8.00000000E+00  1.10000000E+01  0.00000000E+00
  8.00000000E+00  1.00000000E+01  0.00000000E+00
  8.00000000E+00  9.00000000E+00  0.00000000E+00
  8.00000000E+00  8.00000000E+00  0.00000000E+00
  8.00000000E+00  7.00000000E+00  0.00000000E+00
  8.00000000E+00  6.00000000E+00  0.00000000E+00
  8.00000000E+00  5.00000000E+00  0.00000000E+00
  8.00000000E+00  4.00000000E+00  0.00000000E+00
  8.00000000E+00  3.00000000E+00  0.00000000E+00
  8.00000000E+00  2.00000000E+00  0.00000000E+00
  8.00000000E+00  1.00000000E+00  0.00000000E+00
  8.00000000E+00 -2.66453526E-15  0.00000000E+00
  9.00000000E+00  2.40000000E+01  0.00000000E+00
  9.00000000E+00  2.30000000E+01  0.00000000E+00
  9.00000000E+00  2.20000000E+01  0.00000000E+00
  9.00000000E+00  2.10000000E+01  0.00000000E+00
  9.00000000E+00  2.00000000E+01  0.00000000E+00
  9.00000000E+00  1.90000000E+01  0.00000000E+00
  9.00000000E+00  1.80000000E+01  0.00000000E+00
  9.00000000E+00  1.70000000E+01  0.00000000E+00
  9.00000000E+00  1.60000000E+01  0.00000000E+00
  9.00000000E+00  1.50000000E+01  0.00000000E+00
  9.00000000E+00  1.40000000E+01  0.00000000E+00
  9.00000000E+00  1.30000000E+01  0.00000000E+00
  9.00000000E+00  1.20000000E+01  0.00000000E+00
  9.00000000E+00  1.10000000E+01  0.00000000E+00
  9.00000000E+00  1.00000000E+01  0.00000000E+00
  9.00000000E+00  9.00000000E+00  0.00000000E+00
  9.00000000E+00  8.00000000E+00  0.00000000E+00
  9.00000000E+00  7.00000000E+00  0.00000000E+00
  9.00000000E+00  6.00000000E+00  0.00000000E+00
  9.00000000E+00  5.00000000E+00  0.00000000E+00
  9.00000000E+00  4.00000000E+00  0.00000000E+00
  9.00000000E+00  3.00000000E+00  0.00000000E+00
  9.00000000E+00  2.00000000E+00  0.00000000E+00
  9.00000000E+00  1.00000000E+00  0.00000000E+00
  9.00000000E+00 -2.66453526E-15  0.00000000E+00
  1.00000000E+01  2.40000000E+01  0.00000000E+00
  1.00000000E+01  2.30000000E+01  0.00000000E+00
  1.00000000E+01  2.20000000E+01  0.00000000E+00
  1.00000000E+01  2.10000000E+01  0.00000000E+00
  1.00000000E+01  2.00000000E+01  0.00000000E+00
  1.00000000E+01  1.90000000E+01  0.00000000E+00
  1.00000000E+01  1.80000000E+01  0.00000000E+00
  1.00000000E+01  1.70000000E+01  0.00000000E+00
  1.00000000E+01  1.60000000E+01  0.00000000E+00
  1.00000000E+01  1.50000000E+01  0.00000000E+00
  1.00000000E+01  1.40000000E+01  0.00000000E+00
  1.00000000E+01  1.30000000E+01  0.00000000E+00
  1.00000000E+01  1.20000000E+01  0.00000000E+00
  1.00000000E+01  1.10000000E+01  0.00000000E+00
  1.00000000E+01  1.00000000E+01  0.00000000E+00
  1.00000000E+01  9.00000000E+00  0.00000000E+00
  1.00000000E+01  8.00000000E+00  0.00000000E+00
  1.00000000E+01  7.00000000E+00  0.00000000E+00
  1.00000000E+01  6.00000000E+00  0.00000000E+00
  1.00000000E+01  5.00000000E+00  0.00000000E+00
  1.00000000E+01  4.00000000E+00  0.00000000E+00
  1.00000000E+01  3.00000000E+00  0.00000000E+00
  1.00000000E+01  2.00000000E+00  0.00000000E+00
  1.00000000E+01  1.00000000E+00  0.00000000E+00
  1.00000000E+01 -2.66453526E-15  0.00000000E+00
  1.10000000E+01  2.40000000E+01  0.00000000E+00
  1.10000000E+01  2.30000000E+01  0.00000000E+00
  1.10000000E+01  2.20000000E+01  0.00000000E+00
  1.10000000E+01  2.10000000E+01  0.00000000E+00
  1.10000000E+01  2.00000000E+01  0.00000000E+00
  1.10000000E+01  1.90000000E+01  0.00000000E+00
  1.10000000E+01  1.80000000E+01  0.00000000E+00
  1.10000000E+01  1.70000000E+01  0.00000000E+00
  1.10000000E+01  1.60000000E+01  0.00000000E+00
  1.10000000E+01  1.50000000E+01  0.00000000E+00
  1.10000000E+01  1.40000000E+01  0.00000000E+00
  1.10000000E+01  1.30000000E+01  0.00000000E+00
  1.10000000E+01  1.20000000E+01  0.00000000E+00
  1.10000000E+01  1.10000000E+01  0.00000000E+00
  1.10000000E+01  1.00000000E+01  0.00000000E+00
  1.10000000E+01  9.00000000E+00  0.00000000E+00
  1.10000000E+01  8.00000000E+00  0.00000000E+00
  1.10000000E+01  7.00000000E+00  0.00000000E+00
  1.10000000E+01  6.00000000E+00  0.00000000E+00
  1.10000000E+01  5.00000000E+00  0.00000000E+00
  1.10000000E+01  4.00000000E+00  0.00000000E+00
  1.10000000E+01  3.00000000E+00  0.00000000E+00
  1.10000000E+01  2.00000000E+00  0.00000000E+00
  1.10000000E+01  1.00000000E+00  0.00000000E+00
  1.10000000E+01 -2.66453526E-15  0.00000000E+00
  1.20000000E+01  2.40000000E+01  0.00000000E+00
  1.20000000E+01  2.30000000E+01  0.00000000E+00
  1.20000000E+01  2.20000000E+01  0.00000000E+00
  1.20000000E+01  2.10000000E+01  0.00000000E+00
  1.20000000E+01  2.00000000E+01  0.00000000E+00
  1.20000000E+01  1.90000000E+01  0.00000000E+00
  1.20000000E+01  1.80000000E+01  0.00000000E+00
  1.20000000E+01  1.70000000E+01  0.00000000E+00
  1.20000000E+01  1.60000000E+01  0.00000000E+00
  1.20000000E+01  1.50000000E+01  0.00000000E+00
  1.20000000E+01  1.40000000E+01  0.00000000E+00
  1.20000000E+01  1.30000000E+01  0.00000000E+00
  1.20000000E+01  1.20000000E+01  0.00000000E+00
  1.20000000E+01  1.10000000E+01  0.00000000E+00
  1.20000000E+01  1.00000000E+01  0.00000000E+00
  1.20000000E+01  9.00000000E+00  0.00000000E+00
  1.20000000E+01  8.00000000E+00  0.00000000E+00
  1.20000000E+01  7.00000000E+00  0.00000000E+00
  1.20000000E+01  6.00000000E+00  0.00000000E+00
  1.20000000E+01  5.00000000E+00  0.00000000E+00
  1.20000000E+01  4.00000000E+00  0.00000000E+00
  1.20000000E+01  3.00000000E+00  0.00000000E+00
  1.20000000E+01  2.00000000E+00  0.00000000E+00
  1.20000000E+01  1.00000000E+00  0.00000000E+00
  1.20000000E+01 -2.66453526E-15  0.00000000E+00
  1.30000000E+01  2.40000000E+01  0.00000000E+00
  1.30000000E+01  2.30000000E+01  0.00000000E+00
  1.30000000E+01  2.20000000E+01  0.00000000E+00
  1.30000000E+01  2.10000000E+01  0.00000000E+00
  1.30000000E+01  2.00000000E+01  0.00000000E+00
  1.30000000E+01  1.90000000E+01  0.00000000E+00
  1.30000000E+01  1.80000000E+01  0.00000000E+00
  1.30000000E+01  1.70000000E+01  0.00000000E+00
  1.30000000E+01  1.60000000E+01  0.00000000E+00
  1.30000000E+01  1.50000000E+01  0.00000000E+00
  1.30000000E+01  1.40000000E+01  0.00000000E+00
  1.30000000E+01  1.30000000E+01  0.00000000E+00
  1.30000000E+01  1.20000000E+01  0.00000000E+00
  1.30000000E+01  1.10000000E+01  0.00000000E+00
  1.30000000E+01  1.00000000E+01  0.00000000E+00
  1.30000000E+01  9.00000000E+00  0.00000000E+00
  1.30000000E+01  8.00000000E+00  0.00000000E+00
  1.30000000E+01  7.00000000E+00  0.00000000E+00
  1.30000000E+01  6.00000000E+00  0.00000000E+00
  1.30000000E+01  5.00000000E+00  0.00000000E+00
  1.30000000E+01  4.00000000E+00  0.00000000E+00
  1.30000000E+01  3.00000000E+00  0.00000000E+00
  1.30000000E+01  2.00000000E+00  0.00000000E+00
  1.30000000E+01  1.00000000E+00  0.00000000E+00
  1.30000000E+01 -2.66453526E-15  0.00000000E+00
  1.40000000E+01  2.40000000E+01  0.00000000E+00
  1.40000000E+01  2.30000000E+01  0.00000000E+00
  1.40000000E+01  2.20000000E+01  0.00000000E+00
  1.40000000E+01  2.10000000E+01  0.00000000E+00
  1.40000000E+01  2.00000000E+01  0.00000000E+00
  1.40000000E+01  1.90000000E+01  0.00000000E+00
  1.40000000E+01  1.80000000E+01  0.00000000E+00
  1.40000000E+01  1.70000000E+01  0.00000000E+00
  1.40000000E+01  1.60000000E+01  0.00000000E+00
  1.40000000E+01  1.50000000E+01  0.00000000E+00
  1.40000000E+01  1.40000000E+01  0.00000000E+00
  1.40000000E+01  1.30000000E+01  0.00000000E+00
  1.40000000E+01  1.20000000E+01  0.00000000E+00
  1.40000000E+01  1.10000000E+01  0.00000000E+00
  1.40000000E+01  1.00000000E+01  0.00000000E+00
  1.40000000E+01  9.00000000E+00  0.00000000E+00
  1.40000000E+01  8.00000000E+00  0.00000000E+00
  1.40000000E+01  7.00000000E+00  0.00000000E+00
  1.40000000E+01  6.00000000E+00  0.00000000E+00
  1.40000000E+01  5.00000000E+00  0.00000000E+00
  1.40000000E+01  4.00000000E+00  0.00000000E+00
  1.40000000E+01  3.00000000E+00  0.00000000E+00
  1.40000000E+01  2.00000000E+00  0.00000000E+00
  1.40000000E+01  1.00000000E+00  0.00000000E+00
  1.40000000E+01 -2.66453526E-15  0.00000000E+00
  1.50000000E+01  2.40000000E+01  0.00000000E+00
  1.50000000E+01  2.30000000E+01  0.00000000E+00
  1.50000000E+01  2.20000000E+01  0.00000000E+00
  1.50000000E+01  2.10000000E+01  0.00000000E+00
  1.50000000E+01  2.00000000E+01  0.00000000E+00
  1.50000000E+01  1.90000000E+01  0.00000000E+00
  1.50000000E+01  1.80000000E+01  0.00000000E+00
  1.50000000E+01  1.70000000E+01  0.00000000E+00
  1.50000000E+01  1.60000000E+01  0.00000000E+00
  1.50000000E+01  1.50000000E+01  0.00000000E+00
  1.50000000E+01  1.40000000E+01  0.00000000E+00
  1.50000000E+01  1.30000000E+01  0.00000000E+00
  1.50000000E+01  1.20000000E+01  0.00000000E+00
  1.50000000E+01  1.10000000E+01  0.00000000E+00
  1.50000000E+01  1.00000000E+01  0.00000000E+00
  1.50000000E+01  9.00000000E+00  0.00000000E+00
  1.50000000E+01  8.00000000E+00  0.00000000E+00
  1.50000000E+01  7.00000000E+00  0.00000000E+00
  1.50000000E+01  6.00000000E+00  0.00000000E+00
  1.50000000E+01  5.00000000E+00  0.00000000E+00
  1.50000000E+01  4.00000000E+00  0.00000000E+00
  1.50000000E+01  3.00000000E+00  0.00000000E+00
  1.50000000E+01  2.00000000E+00  0.00000000E+00
  1.50000000E+01  1.00000000E+00  0.00000000E+00
  1.50000000E+01 -2.66453526E-15  0.00000000E+00
  1.60000000E+01  2.40000000E+01  0.00000000E+00
  1.60000000E+01  2.30000000E+01  0.00000000E+00
  1.60000000E+01  2.20000000E+01  0.00000000E+00
  1.60000000E+01  2.10000000E+01  0.00000000E+00
  1.60000000E+01  2.00000000E+01  0.00000000E+00
  1.60000000E+01  1.90000000E+01  0.00000000E+00
  1.60000000E+01  1.80000000E+01  0.00000000E+00
  1.60000000E+01  1.70000000E+01  0.00000000E+00
  1.60000000E+01  1.60000000E+01  0.00000000E+00
  1.60000000E+01  1.50000000E+01  0.00000000E+00
  1.60000000E+01  1.40000000E+01  0.00000000E+00
  1.60000000E+01  1.30000000E+01  0.00000000E+00
  1.60000000E+01  1.20000000E+01  0.00000000E+00
  1.60000000E+01  1.10000000E+01  0.00000000E+00
  1.60000000E+01  1.00000000E+01  0.00000000E+00
  1.60000000E+01  9.00000000E+00  0.00000000E+00
  1.60000000E+01  8.00000000E+00  0.00000000E+00
  1.60000000E+01  7.00000000E+00  0.00000000E+00
  1.60000000E+01  6.00000000E+00  0.00000000E+00
  1.60000000E+01  5.00000000E+00  0.00000000E+00
  1.60000000E+01  4.00000000E+00  0.00000000E+00
  1.60000000E+01  3.00000000E+00  0.00000000E+00
  1.60000000E+01  2.00000000E+00  0.00000000E+00
  1.60000000E+01  1.00000000E+00  0.00000000E+00
  1.60000000E+01 -2.66453526E-15  0.00000000E+00
  1.70000000E+01  2.40000000E+01  0.00000000E+00
  1.70000000E+01  2.30000000E+01  0.00000000E+00
  1.70000000E+01  2.20000000E+01  0.00000000E+00
  1.70000000E+01  2.10000000E+01  0.00000000E+00
  1.70000000E+01  2.00000000E+01  0.00000000E+00
  1.70000000E+01  1.90000000E+01  0.00000000E+00
  1.70000000E+01  1.80000000E+01  0.00000000E+00
  1.70000000E+01  1.70000000E+01  0.00000000E+00
  1.70000000E+01  1.60000000E+01  0.00000000E+00
  1.70000000E+01  1.50000000E+01  0.00000000E+00
  1.70000000E+01  1.40000000E+01  0.00000000E+00
  1.70000000E+01  1.30000000E+01  0.00000000E+00
  1.70000000E+01  1.20000000E+01  0.00000000E+00
  1.70000000E+01  1.10000000E+01  0.00000000E+00
  1.70000000E+01  1.00000000E+01  0.00000000E+00
  1.70000000E+01  9.00000000E+00  0.00000000E+00
  1.70000000E+01  8.00000000E+00  0.00000000E+00
  1.70000000E+01  7.00000000E+00  0.00000000E+00
  1.70000000E+01  6.00000000E+00  0.00000000E+00
  1.70000000E+01  5.00000000E+00  0.00000000E+00
  1.70000000E+01  4.00000000E+00  0.00000000E+00
  1.70000000E+01  3.00000000E+00  0.00000000E+00
  1.70000000E+01  2.00000000E+00  0.00000000E+00
  1.70000000E+01  1.00000000E+00  0.00000000E+00
  1.70000000E+01 -2.66453526E-15  0.00000000E+00
  1.80000000E+01  2.40000000E+01  0.00000000E+00
  1.80000000E+01  2.30000000E+01  0.00000000E+00
  1.80000000E+01  2.20000000E+01  0.00000000E+00
  1.80000000E+01  2.10000000E+01  0.00000000E+00
  1.80000000E+01  2.00000000E+01  0.00000000E+00
  1.80000000E+01  1.90000000E+01  0.00000000E+00
  1.80000000E+01  1.80000000E+01  0.00000000E+00
  1.80000000E+01  1.70000000E+01  0.00000000E+00
  1.80000000E+01  1.60000000E+01  0.00000000E+00
  1.80000000E+01  1.50000000E+01  0.00000000E+00
  1.80000000E+01  1.40000000E+01  0.00000000E+00
  1.80000000E+01  1.30000000E+01  0.00000000E+00
  1.80000000E+01  1.20000000E+01  0.00000000E+00
  1.80000000E+01  1.10000000E+01  0.00000000E+00
  1.80000000E+01  1.00000000E+01  0.00000000E+00
  1.80000000E+01  9.00000000E+00  0.00000000E+00
  1.80000000E+01  8.00000000E+00  0.00000000E+00
  1.80000000E+01  7.00000000E+00  0.00000000E+00
  1.80000000E+01  6.00000000E+00  0.00000000E+00
  1.80000000E+01  5.00000000E+00  0.00000000E+00
  1.80000000E+01  4.00000000E+00  0.00000000E+00
  1.80000000E+01  3.00000000E+00  0.00000000E+00
  1.80000000E+01  2.00000000E+00  0.00000000E+00
  1.80000000E+01  1.00000000E+00  0.00000000E+00
  1.80000000E+01 -2.66453526E-15  0.00000000E+00
  1.90000000E+01  2.40000000E+01  0.00000000E+00
  1.90000000E+01  2.30000000E+01  0.00000000E+00
  1.90000000E+01  2.20000000E+01  0.00000000E+00
  1.90000000E+01  2.10000000E+01  0.00000000E+00
  1.90000000E+01  2.00000000E+01  0.00000000E+00
  1.90000000E+01  1.90000000E+01  0.00000000E+00
  1.90000000E+01  1.80000000E+01  0.00000000E+00
  1.90000000E+01  1.70000000E+01  0.00000000E+00
  1.90000000E+01  1.60000000E+01  0.00000000E+00
  1.90000000E+01  1.50000000E+01  0.00000000E+00
  1.90000000E+01  1.40000000E+01  0.00000000E+00
  1.90000000E+01  1.30000000E+01  0.00000000E+00
  1.90000000E+01  1.20000000E+01  0.00000000E+00
  1.90000000E+01  1.10000000E+01  0.00000000E+00
  1.90000000E+01  1.00000000E+01  0.00000000E+00
  1.90000000E+01  9.00000000E+00  0.00000000E+00
  1.90000000E+01  8.00000000E+00  0.00000000E+00
  1.90000000E+01  7.00000000E+00  0.00000000E+00
  1.90000000E+01  6.00000000E+00  0.00000000E+00
  1.90000000E+01  5.00000000E+00  0.00000000E+00
  1.90000000E+01  4.00000000E+00  0.00000000E+00
  1.90000000E+01  3.00000000E+00  0.00000000E+00
  1.90000000E+01  2.00000000E+00  0.00000000E+00
  1.90000000E+01  1.00000000E+00  0.00000000E+00
  1.90000000E+01 -2.66453526E-15  0.00000000E+00
  2.00000000E+01  2.40000000E+01  0.00000000E+00
  2.00000000E+01  2.30000000E+01  0.00000000E+00
  2.00000000E+01  2.20000000E+01  0.00000000E+00
  2.00000000E+01  2.10000000E+01  0.00000000E+00
  2.00000000E+01  2.00000000E+01  0.00000000E+00
  2.00000000E+01  1.90000000E+01  0.00000000E+00
  2.00000000E+01  1.80000000E+01  0.00000000E+00
  2.00000000E+01  1.70000000E+01  0.00000000E+00
  2.00000000E+01  1.60000000E+01  0.00000000E+00
  2.00000000E+01  1.50000000E+01  0.00000000E+00
  2.00000000E+01  1.40000000E+01  0.00000000E+00
  2.00000000E+01  1.30000000E+01  0.00000000E+00
  2.00000000E+01  1.20000000E+01  0.00000000E+00
  2.00000000E+01  1.10000000E+01  0.00000000E+00
  2.00000000E+01  1.00000000E+01  0.00000000E+00
  2.00000000E+01  9.00000000E+00  0.00000000E+00
  2.00000000E+01  8.00000000E+00  0.00000000E+00
  2.00000000E+01  7.00000000E+00  0.00000000E+00
  2.00000000E+01  6.00000000E+00  0.00000000E+00
  2.00000000E+01  5.00000000E+00  0.00000000E+00
  2.00000000E+01  4.00000000E+00  0.00000000E+00
  2.00000000E+01  3.00000000E+00  0.00000000E+00
  2.00000000E+01  2.00000000E+00  0.00000000E+00
  2.00000000E+01  1.00000000E+00  0.00000000E+00
  2.00000000E+01 -2.66453526E-15  0.00000000E+00
  2.10000000E+01  2.40000000E+01  0.00000000E+00
  2.10000000E+01  2.30000000E+01  0.00000000E+00
  2.10000000E+01  2.20000000E+01  0.00000000E+00
  2.10000000E+01  2.10000000E+01  0.00000000E+00
  2.10000000E+01  2.00000000E+01  0.00000000E+00
  2.10000000E+01  1.90000000E+01  0.00000000E+00
  2.10000000E+01  1.80000000E+01  0.00000000E+00
  2.10000000E+01  1.70000000E+01  0.00000000E+00
  2.10000000E+01  1.60000000E+01  0.00000000E+00
  2.10000000E+01  1.50000000E+01  0.00000000E+00
  2.10000000E+01  1.40000000E+01  0.00000000E+00
  2.10000000E+01  1.30000000E+01  0.00000000E+00
  2.10000000E+01  1.20000000E+01  0.00000000E+00
  2.10000000E+01  1.10000000E+01  0.00000000E+00
  2.10000000E+01  1.00000000E+01  0.00000000E+00
  2.10000000E+01  9.00000000E+00  0.00000000E+00
  2.10000000E+01  8.00000000E+00  0.00000000E+00
  2.10000000E+01  7.00000000E+00  0.00000000E+00
  2.10000000E+01  6.00000000E+00  0.00000000E+00
  2.10000000E+01  5.00000000E+00  0.00000000E+00
  2.10000000E+01  4.00000000E+00  0.00000000E+00
  2.10000000E+01  3.00000000E+00  0.00000000E+00
  2.10000000E+01  2.00000000E+00  0.00000000E+00
  2.10000000E+01  1.00000000E+00  0.00000000E+00
  2.10000000E+01 -2.66453526E-15  0.00000000E+00
  2.20000000E+01  2.40000000E+01  0.00000000E+00
  2.20000000E+01  2.30000000E+01  0.00000000E+00
  2.20000000E+01  2.20000000E+01  0.00000000E+00
  2.20000000E+01  2.10000000E+01  0.00000000E+00
  2.20000000E+01  2.00000000E+01  0.00000000E+00
  2.20000000E+01  1.90000000E+01  0.00000000E+00
  2.20000000E+01  1.80000000E+01  0.00000000E+00
  2.20000000E+01  1.70000000E+01  0.00000000E+00
  2.20000000E+01  1.60000000E+01  0.00000000E+00
  2.20000000E+01  1.50000000E+01  0.00000000E+00
  2.20000000E+01  1.40000000E+01  0.00000000E+00
  2.20000000E+01  1.30000000E+01  0.00000000E+00
  2.20000000E+01  1.20000000E+01  0.00000000E+00
  2.20000000E+01  1.10000000E+01  0.00000000E+00
  2.20000000E+01  1.00000000E+01  0.00000000E+00
  2.20000000E+01  9.00000000E+00  0.00000000E+00
  2.20000000E+01  8.00000000E+00  0.00000000E+00
  2.20000000E+01  7.00000000E+00  0.00000000E+00
  2.20000000E+01  6.00000000E+00  0.00000000E+00
  2.20000000E+01  5.00000000E+00  0.00000000E+00
  2.20000000E+01  4.00000000E+00  0.00000000E+00
  2.20000000E+01  3.00000000E+00  0.00000000E+00
  2.20000000E+01  2.00000000E+00  0.00000000E+00
  2.20000000E+01  1.00000000E+00  0.00000000E+00
  2.20000000E+01 -2.66453526E-15  0.00000000E+00
  2.30000000E+01  2.40000000E+01  0.00000000E+00
  2.30000000E+01  2.30000000E+01  0.00000000E+00
  2.30000000E+01  2.20000000E+01  0.00000000E+00
  2.30000000E+01  2.10000000E+01  0.00000000E+00
  2.30000000E+01  2.00000000E+01  0.00000000E+00
  2.30000000E+01  1.90000000E+01  0.00000000E+00
  2.30000000E+01  1.80000000E+01  0.00000000E+00
  2.30000000E+01  1.70000000E+01  0.00000000E+00
  2.30000000E+01  1.60000000E+01  0.00000000E+00
  2.30000000E+01  1.50000000E+01  0.00000000E+00
  2.30000000E+01  1.40000000E+01  0.00000000E+00
  2.30000000E+01  1.30000000E+01  0.00000000E+00
  2.30000000E+01  1.20000000E+01  0.00000000E+00
  2.30000000E+01  1.10000000E+01  0.00000000E+00
  2.30000000E+01  1.00000000E+01  0.00000000E+00
  2.30000000E+01  9.00000000E+00  0.00000000E+00
  2.30000000E+01  8.00000000E+00  0.00000000E+00
  2.30000000E+01  7.00000000E+00  0.00000000E+00
  2.30000000E+01  6.00000000E+00  0.00000000E+00
  2.30000000E+01  5.00000000E+00  0.00000000E+00
  2.30000000E+01  4.00000000E+00  0.00000000E+00
  2.30000000E+01  3.00000000E+00  0.00000000E+00
  2.30000000E+01  2.00000000E+00  0.00000000E+00
  2.30000000E+01  1.00000000E+00  0.00000000E+00
  2.30000000E+01 -2.66453526E-15  0.00000000E+00
  2.40000000E+01  2.40000000E+01  0.00000000E+00
  2.40000000E+01  2.30000000E+01  0.00000000E+00
  2.40000000E+01  2.20000000E+01  0.00000000E+00
  2.40000000E+01  2.10000000E+01  0.00000000E+00
  2.40000000E+01  2.00000000E+01  0.00000000E+00
  2.40000000E+01  1.90000000E+01  0.00000000E+00
  2.40000000E+01  1.80000000E+01  0.00000000E+00
  2.40000000E+01  1.70000000E+01  0.00000000E+00
  2.40000000E+01  1.60000000E+01  0.00000000E+00
  2.40000000E+01  1.50000000E+01  0.00000000E+00
  2.40000000E+01  1.40000000E+01  0.00000000E+00
  2.40000000E+01  1.30000000E+01  0.00000000E+00
  2.40000000E+01  1.20000000E+01  0.00000000E+00
  2.40000000E+01  1.10000000E+01  0.00000000E+00
  2.40000000E+01  1.00000000E+01  0.00000000E+00
  2.40000000E+01  9.00000000E+00  0.00000000E+00
  2.40000000E+01  8.00000000E+00  0.00000000E+00
  2.40000000E+01  7.00000000E+00  0.00000000E+00
  2.40000000E+01  6.00000000E+00  0.00000000E+00
  2.40000000E+01  5.00000000E+00  0.00000000E+00
  2.40000000E+01  4.00000000E+00  0.00000000E+00
  2.40000000E+01  3.00000000E+00  0.00000000E+00
  2.40000000E+01  2.00000000E+00  0.00000000E+00
  2.40000000E+01  1.00000000E+00  0.00000000E+00
  2.40000000E+01 -2.66453526E-15  0.00000000E+00
  2.50000000E+01  2.40000000E+01  0.00000000E+00
  2.50000000E+01  2.30000000E+01  0.00000000E+00
  2.50000000E+01  2.20000000E+01  0.00000000E+00
  2.50000000E+01  2.10000000E+01  0.00000000E+00
  2.50000000E+01  2.00000000E+01  0.00000000E+00
  2.50000000E+01  1.90000000E+01  0.00000000E+00
  2.50000000E+01  1.80000000E+01  0.00000000E+00
  2.50000000E+01  1.70000000E+01  0.00000000E+00
  2.50000000E+01  1.60000000E+01  0.00000000E+00
  2.50000000E+01  1.50000000E+01  0.00000000E+00
  2.50000000E+01  1.40000000E+01  0.00000000E+00
  2.50000000E+01  1.30000000E+01  0.00000000E+00
  2.50000000E+01  1.20000000E+01  0.00000000E+00
  2.50000000E+01  1.10000000E+01  0.00000000E+00
  2.50000000E+01  1.00000000E+01  0.00000000E+00
  2.50000000E+01  9.00000000E+00  0.00000000E+00
  2.50000000E+01  8.00000000E+00  0.00000000E+00
  2.50000000E+01  7.00000000E+00  0.00000000E+00
  2.50000000E+01  6.00000000E+00  0.00000000E+00
  2.50000000E+01  5.00000000E+00  0.00000000E+00
  2.50000000E+01  4.00000000E+00  0.00000000E+00
  2.50000000E+01  3.00000000E+00  0.00000000E+00
  2.50000000E+01  2.00000000E+00  0.00000000E+00
  2.50000000E+01  1.00000000E+00  0.00000000E+00
  2.50000000E+01 -2.66453526E-15  0.00000000E+00
  2.60000000E+01  2.40000000E+01  0.00000000E+00
  2.60000000E+01  2.30000000E+01  0.00000000E+00
  2.60000000E+01  2.20000000E+01  0.00000000E+00
  2.60000000E+01  2.10000000E+01  0.00000000E+00
  2.60000000E+01  2.00000000E+01  0.00000000E+00
  2.60000000E+01  1.90000000E+01  0.00000000E+00
  2.60000000E+01  1.80000000E+01  0.00000000E+00
  2.60000000E+01  1.70000000E+01  0.00000000E+00
  2.60000000E+01  1.60000000E+01  0.00000000E+00
  2.60000000E+01  1.50000000E+01  0.00000000E+00
  2.60000000E+01  1.40000000E+01  0.00000000E+00
  2.60000000E+01  1.30000000E+01  0.00000000E+00
  2.60000000E+01  1.20000000E+01  0.00000000E+00
  2.60000000E+01  1.10000000E+01  0.00000000E+00
  2.60000000E+01  1.00000000E+01  0.00000000E+00
  2.60000000E+01  9.00000000E+00  0.00000000E+00
  2.60000000E+01  8.00000000E+00  0.00000000E+00
  2.60000000E+01  7.00000000E+00  0.00000000E+00
  2.60000000E+01  6.00000000E+00  0.00000000E+00
  2.60000000E+01  5.00000000E+00  0.00000000E+00
  2.60000000E+01  4.00000000E+00  0.00000000E+00
  2.60000000E+01  3.00000000E+00  0.00000000E+00
  2.60000000E+01  2.00000000E+00  0.00000000E+00
  2.60000000E+01  1.00000000E+00  0.00000000E+00
  2.60000000E+01 -2.66453526E-15  0.00000000E+00
  2.70000000E+01  2.40000000E+01  0.00000000E+00
  2.70000000E+01  2.30000000E+01  0.00000000E+00
  2.70000000E+01  2.20000000E+01  0.00000000E+00
  2.70000000E+01  2.10000000E+01  0.00000000E+00
  2.70000000E+01  2.00000000E+01  0.00000000E+00
  2.70000000E+01  1.90000000E+01  0.00000000E+00
  2.70000000E+01  1.80000000E+01  0.00000000E+00
  2.70000000E+01  1.70000000E+01  0.00000000E+00
  2.70000000E+01  1.60000000E+01  0.00000000E+00
  2.70000000E+01  1.50000000E+01  0.00000000E+00
  2.70000000E+01  1.40000000E+01  0.00000000E+00
  2.70000000E+01  1.30000000E+01  0.00000000E+00
  2.70000000E+01  1.20000000E+01  0.00000000E+00
  2.70000000E+01  1.10000000E+01  0.00000000E+00
  2.70000000E+01  1.00000000E+01  0.00000000E+00
  2.70000000E+01  9.00000000E+00  0.00000000E+00
  2.70000000E+01  8.00000000E+00  0.00000000E+00
  2.70000000E+01  7.00000000E+00  0.00000000E+00
  2.70000000E+01  6.00000000E+00  0.00000000E+00
  2.70000000E+01  5.00000000E+00  0.00000000E+00
  2.70000000E+01  4.00000000E+00  0.00000000E+00
  2.70000000E+01  3.00000000E+00  0.00000000E+00
  2.70000000E+01  2.00000000E+00  0.00000000E+00
  2.70000000E+01  1.00000000E+00  0.00000000E+00
  2.70000000E+01 -2.66453526E-15  0.00000000E+00
  2.80000000E+01  2.40000000E+01  0.00000000E+00
  2.80000000E+01  2.30000000E+01  0.00000000E+00
  2.80000000E+01  2.20000000E+01  0.00000000E+00
  2.80000000E+01  2.10000000E+01  0.00000000E+00
  2.80000000E+01  2.00000000E+01  0.00000000E+00
  2.80000000E+01  1.90000000E+01  0.00000000E+00
  2.80000000E+01  1.80000000E+01  0.00000000E+00
  2.80000000E+01  1.70000000E+01  0.00000000E+00
  2.80000000E+01  1.60000000E+01  0.00000000E+00
  2.80000000E+01  1.50000000E+01  0.00000000E+00
  2.80000000E+01  1.40000000E+01  0.00000000E+00
  2.80000000E+01  1.30000000E+01  0.00000000E+00
  2.80000000E+01  1.20000000E+01  0.00000000E+00
  2.80000000E+01  1.10000000E+01  0.00000000E+00
  2.80000000E+01  1.00000000E+01  0.00000000E+00
  2.80000000E+01  9.00000000E+00  0.00000000E+00
  2.80000000E+01  8.00000000E+00  0.00000000E+00
  2.80000000E+01  7.00000000E+00  0.00000000E+00
  2.80000000E+01  6.00000000E+00  0.00000000E+00
  2.80000000E+01  5.00000000E+00  0.00000000E+00
  2.80000000E+01  4.00000000E+00  0.00000000E+00
  2.80000000E+01  3.00000000E+00  0.00000000E+00
  2.80000000E+01  2.00000000E+00  0.00000000E+00
  2.80000000E+01  1.00000000E+00  0.00000000E+00
  2.80000000E+01 -2.66453526E-15  0.00000000E+00
  2.90000000E+01  2.40000000E+01  0.00000000E+00
  2.90000000E+01  2.30000000E+01  0.00000000E+00
  2.90000000E+01  2.20000000E+01  0.00000000E+00
  2.90000000E+01  2.10000000E+01  0.00000000E+00
  2.90000000E+01  2.00000000E+01  0.00000000E+00
  2.90000000E+01  1.90000000E+01  0.00000000E+00
  2.90000000E+01  1.80000000E+01  0.00000000E+00
  2.90000000E+01  1.70000000E+01  0.00000000E+00
  2.90000000E+01  1.60000000E+01  0.00000000E+00
  2.90000000E+01  1.50000000E+01  0.00000000E+00
  2.90000000E+01  1.40000000E+01  0.00000000E+00
  2.90000000E+01  1.30000000E+01  0.00000000E+00
  2.90000000E+01  1.20000000E+01  0.00000000E+00
  2.90000000E+01  1.10000000E+01  0.00000000E+00
  2.90000000E+01  1.00000000E+01  0.00000000E+00
  2.90000000E+01  9.00000000E+00  0.00000000E+00
  2.90000000E+01  8.00000000E+00  0.00000000E+00
  2.90000000E+01  7.00000000E+00  0.00000000E+00
  2.90000000E+01  6.00000000E+00  0.00000000E+00
  2.90000000E+01  5.00000000E+00  0.00000000E+00
  2.90000000E+01  4.00000000E+00  0.00000000E+00
  2.90000000E+01  3.00000000E+00  0.00000000E+00
  2.90000000E+01  2.00000000E+00  0.00000000E+00
  2.90000000E+01  1.00000000E+00  0.00000000E+00
  2.90000000E+01 -2.66453526E-15  0.00000000E+00
  3.00000000E+01  2.40000000E+01  0.00000000E+00
  3.00000000E+01  2.30000000E+01  0.00000000E+00
  3.00000000E+01  2.20000000E+01  0.00000000E+00
  3.00000000E+01  2.10000000E+01  0.00000000E+00
  3.00000000E+01  2.00000000E+01  0.00000000E+00
  3.00000000E+01  1.90000000E+01  0.00000000E+00
  3.00000000E+01  1.80000000E+01  0.00000000E+00
  3.00000000E+01  1.70000000E+01  0.00000000E+00
  3.00000000E+01  1.60000000E+01  0.00000000E+00
  3.00000000E+01  1.50000000E+01  0.00000000E+00
  3.00000000E+01  1.40000000E+01  0.00000000E+00
  3.00000000E+01  1.30000000E+01  0.00000000E+00
  3.00000000E+01  1.20000000E+01  0.00000000E+00
  3.00000000E+01  1.10000000E+01  0.00000000E+00
  3.00000000E+01  1.00000000E+01  0.00000000E+00
  3.00000000E+01  9.00000000E+00  0.00000000E+00
  3.00000000E+01  8.00000000E+00  0.00000000E+00
  3.00000000E+01  7.00000000E+00  0.00000000E+00
  3.00000000E+01  6.00000000E+00  0.00000000E+00
  3.00000000E+01  5.00000000E+00  0.00000000E+00
  3.00000000E+01  4.00000000E+00  0.00000000E+00
  3.00000000E+01  3.00000000E+00  0.00000000E+00
  3.00000000E+01  2.00000000E+00  0.00000000E+00
  3.00000000E+01  1.00000000E+00  0.00000000E+00
  3.00000000E+01 -2.66453526E-15  0.00000000E+00
  3.10000000E+01  2.40000000E+01  0.00000000E+00
  3.10000000E+01  2.30000000E+01  0.00000000E+00
  3.10000000E+01  2.20000000E+01  0.00000000E+00
  3.10000000E+01  2.10000000E+01  0.00000000E+00
  3.10000000E+01  2.00000000E+01  0.00000000E+00
  3.10000000E+01  1.90000000E+01  0.00000000E+00
  3.10000000E+01  1.80000000E+01  0.00000000E+00
  3.10000000E+01  1.70000000E+01  0.00000000E+00
  3.10000000E+01  1.60000000E+01  0.00000000E+00
  3.10000000E+01  1.50000000E+01  0.00000000E+00
  3.10000000E+01  1.40000000E+01  0.00000000E+00
  3.10000000E+01  1.30000000E+01  0.00000000E+00
  3.10000000E+01  1.20000000E+01  0.00000000E+00
  3.10000000E+01  1.10000000E+01  0.00000000E+00
  3.10000000E+01  1.00000000E+01  0.00000000E+00
  3.10000000E+01  9.00000000E+00  0.00000000E+00
  3.10000000E+01  8.00000000E+00  0.00000000E+00
  3.10000000E+01  7.00000000E+00  0.00000000E+00
  3.10000000E+01  6.00000000E+00  0.00000000E+00
  3.10000000E+01  5.00000000E+00  0.00000000E+00
  3.10000000E+01  4.00000000E+00  0.00000000E+00
  3.10000000E+01  3.00000000E+00  0.00000000E+00
  3.10000000E+01  2.00000000E+00  0.00000000E+00
  3.10000000E+01  1.00000000E+00  0.00000000E+00
  3.10000000E+01 -2.66453526E-15  0.00000000E+00
  3.20000000E+01  2.40000000E+01  0.00000000E+00
  3.20000000E+01  2.30000000E+01  0.00000000E+00
  3.20000000E+01  2.20000000E+01  0.00000000E+00
  3.20000000E+01  2.10000000E+01  0.00000000E+00
  3.20000000E+01  2.00000000E+01  0.00000000E+00
  3.20000000E+01  1.90000000E+01  0.00000000E+00
  3.20000000E+01  1.80000000E+01  0.00000000E+00
  3.20000000E+01  1.70000000E+01  0.00000000E+00
  3.20000000E+01  1.60000000E+01  0.00000000E+00
  3.20000000E+01  1.50000000E+01  0.00000000E+00
  3.20000000E+01  1.40000000E+01  0.00000000E+00
  3.20000000E+01  1.30000000E+01  0.00000000E+00
  3.20000000E+01  1.20000000E+01  0.00000000E+00
  3.20000000E+01  1.10000000E+01  0.00000000E+00
  3.20000000E+01  1.00000000E+01  0.00000000E+00
  3.20000000E+01  9.00000000E+00  0.00000000E+00
  3.20000000E+01  8.00000000E+00  0.00000000E+00
  3.20000000E+01  7.00000000E+00  0.00000000E+00
  3.20000000E+01  6.00000000E+00  0.00000000E+00
  3.20000000E+01  5.00000000E+00  0.00000000E+00
  3.20000000E+01  4.00000000E+00  0.00000000E+00
  3.20000000E+01  3.00000000E+00  0.00000000E+00
  3.20000000E+01  2.00000000E+00  0.00000000E+00
  3.20000000E+01  1.00000000E+00  0.00000000E+00
  3.20000000E+01 -2.66453526E-15  0.00000000E+00
  3.30000000E+01  2.40000000E+01  0.00000000E+00
  3.30000000E+01  2.30000000E+01  0.00000000E+00
  3.30000000E+01  2.20000000E+01  0.00000000E+00
  3.30000000E+01  2.10000000E+01  0.00000000E+00
  3.30000000E+01  2.00000000E+01  0.00000000E+00
  3.30000000E+01  1.90000000E+01  0.00000000E+00
  3.30000000E+01  1.80000000E+01  0.00000000E+00
  3.30000000E+01  1.70000000E+01  0.00000000E+00
  3.30000000E+01  1.60000000E+01  0.00000000E+00
  3.30000000E+01  1.50000000E+01  0.00000000E+00
  3.30000000E+01  1.40000000E+01  0.00000000E+00
  3.30000000E+01  1.30000000E+01  0.00000000E+00
  3.30000000E+01  1.20000000E+01  0.00000000E+00
  3.30000000E+01  1.10000000E+01  0.00000000E+00
  3.30000000E+01  1.00000000E+01  0.00000000E+00
  3.30000000E+01  9.00000000E+00  0.00000000E+00
  3.30000000E+01  8.00000000E+00  0.00000000E+00
  3.30000000E+01  7.00000000E+00  0.00000000E+00
  3.30000000E+01  6.00000000E+00  0.00000000E+00
  3.30000000E+01  5.00000000E+00  0.00000000E+00
  3.30000000E+01  4.00000000E+00  0.00000000E+00
  3.30000000E+01  3.00000000E+00  0.00000000E+00
  3.30000000E+01  2.00000000E+00  0.00000000E+00
  3.30000000E+01  1.00000000E+00  0.00000000E+00
  3.30000000E+01 -2.66453526E-15  0.00000000E+00
  3.40000000E+01  2.40000000E+01  0.00000000E+00
  3.40000000E+01  2.30000000E+01  0.00000000E+00
  3.40000000E+01  2.20000000E+01  0.00000000E+00
  3.40000000E+01  2.10000000E+01  0.00000000E+00
  3.40000000E+01  2.00000000E+01  0.00000000E+00
  3.40000000E+01  1.90000000E+01  0.00000000E+00
  3.40000000E+01  1.80000000E+01  0.00000000E+00
  3.40000000E+01  1.70000000E+01  0.00000000E+00
  3.40000000E+01  1.60000000E+01  0.00000000E+00
  3.40000000E+01  1.50000000E+01  0.00000000E+00
  3.40000000E+01  1.40000000E+01  0.00000000E+00
  3.40000000E+01  1.30000000E+01  0.00000000E+00
  3.40000000E+01  1.20000000E+01  0.00000000E+00
  3.40000000E+01  1.10000000E+01  0.00000000E+00
  3.40000000E+01  1.00000000E+01  0.00000000E+00
  3.40000000E+01  9.00000000E+00  0.00000000E+00
  3.40000000E+01  8.00000000E+00  0.00000000E+00
  3.40000000E+01  7.00000000E+00  0.00000000E+00
  3.40000000E+01  6.00000000E+00  0.00000000E+00
  3.40000000E+01  5.00000000E+00  0.00000000E+00
  3.40000000E+01  4.00000000E+00  0.00000000E+00
  3.40000000E+01  3.00000000E+00  0.00000000E+00
  3.40000000E+01  2.00000000E+00  0.00000000E+00
  3.40000000E+01  1.00000000E+00  0.00000000E+00
  3.40000000E+01 -2.66453526E-15  0.00000000E+00
  3.50000000E+01  2.40000000E+01  0.00000000E+00
  3.50000000E+01  2.30000000E+01  0.00000000E+00
  3.50000000E+01  2.20000000E+01  0.00000000E+00
  3.50000000E+01  2.10000000E+01  0.00000000E+00
  3.50000000E+01  2.00000000E+01  0.00000000E+00
  3.50000000E+01  1.90000000E+01  0.00000000E+00
  3.50000000E+01  1.80000000E+01  0.00000000E+00
  3.50000000E+01  1.70000000E+01  0.00000000E+00
  3.50000000E+01  1.60000000E+01  0.00000000E+00
  3.50000000E+01  1.50000000E+01  0.00000000E+00
  3.50000000E+01  1.40000000E+01  0.00000000E+00
  3.50000000E+01  1.30000000E+01  0.00000000E+00
  3.50000000E+01  1.20000000E+01  0.00000000E+00
  3.50000000E+01  1.10000000E+01  0.00000000E+00
  3.50000000E+01  1.00000000E+01  0.00000000E+00
  3.50000000E+01  9.00000000E+00  0.00000000E+00
  3.50000000E+01  8.00000000E+00  0.00000000E+00
  3.50000000E+01  7.00000000E+00  0.00000000E+00
  3.50000000E+01  6.00000000E+00  0.00000000E+00
  3.50000000E+01  5.00000000E+00  0.00000000E+00
  3.50000000E+01  4.00000000E+00  0.00000000E+00
  3.50000000E+01  3.00000000E+00  0.00000000E+00
  3.50000000E+01  2.00000000E+00  0.00000000E+00
  3.50000000E+01  1.00000000E+00  0.00000000E+00
  3.50000000E+01 -2.66453526E-15  0.00000000E+00
  3.60000000E+01  2.40000000E+01  0.00000000E+00
  3.60000000E+01  2.30000000E+01  0.00000000E+00
  3.60000000E+01  2.20000000E+01  0.00000000E+00
  3.60000000E+01  2.10000000E+01  0.00000000E+00
  3.60000000E+01  2.00000000E+01  0.00000000E+00
  3.60000000E+01  1.90000000E+01  0.00000000E+00
  3.60000000E+01  1.80000000E+01  0.00000000E+00
  3.60000000E+01  1.70000000E+01  0.00000000E+00
  3.60000000E+01  1.60000000E+01  0.00000000E+00
  3.60000000E+01  1.50000000E+01  0.00000000E+00
  3.60000000E+01  1.40000000E+01  0.00000000E+00
  3.60000000E+01  1.30000000E+01  0.00000000E+00
  3.60000000E+01  1.20000000E+01  0.00000000E+00
  3.60000000E+01  1.10000000E+01  0.00000000E+00
  3.60000000E+01  1.00000000E+01  0.00000000E+00
  3.60000000E+01  9.00000000E+00  0.00000000E+00
  3.60000000E+01  8.00000000E+00  0.00000000E+00
  3.60000000E+01  7.00000000E+00  0.00000000E+00
  3.60000000E+01  6.00000000E+00  0.00000000E+00
  3.60000000E+01  5.00000000E+00  0.00000000E+00
  3.60000000E+01  4.00000000E+00  0.00000000E+00
  3.60000000E+01  3.00000000E+00  0.00000000E+00
  3.60000000E+01  2.00000000E+00  0.00000000E+00
  3.60000000E+01  1.00000000E+00  0.00000000E+00
  3.60000000E+01 -2.66453526E-15  0.00000000E+00
  3.70000000E+01  2.40000000E+01  0.00000000E+00
  3.70000000E+01  2.30000000E+01  0.00000000E+00
  3.70000000E+01  2.20000000E+01  0.00000000E+00
  3.70000000E+01  2.10000000E+01  0.00000000E+00
  3.70000000E+01  2.00000000E+01  0.00000000E+00
  3.70000000E+01  1.90000000E+01  0.00000000E+00
  3.70000000E+01  1.80000000E+01  0.00000000E+00
  3.70000000E+01  1.70000000E+01  0.00000000E+00
  3.70000000E+01  1.60000000E+01  0.00000000E+00
  3.70000000E+01  1.50000000E+01  0.00000000E+00
  3.70000000E+01  1.40000000E+01  0.00000000E+00
  3.70000000E+01  1.30000000E+01  0.00000000E+00
  3.70000000E+01  1.20000000E+01  0.00000000E+00
  3.70000000E+01  1.10000000E+01  0.00000000E+00
  3.70000000E+01  1.00000000E+01  0.00000000E+00
  3.70000000E+01  9.00000000E+00  0.00000000E+00
  3.70000000E+01  8.00000000E+00  0.00000000E+00
  3.70000000E+01  7.00000000E+00  0.00000000E+00
  3.70000000E+01  6.00000000E+00  0.00000000E+00
  3.70000000E+01  5.00000000E+00  0.00000000E+00
  3.70000000E+01  4.00000000E+00  0.00000000E+00
  3.70000000E+01  3.00000000E+00  0.00000000E+00
  3.70000000E+01  2.00000000E+00  0.00000000E+00
  3.70000000E+01  1.00000000E+00  0.00000000E+00
  3.70000000E+01 -2.66453526E-15  0.00000000E+00
  3.80000000E+01  2.40000000E+01  0.00000000E+00
  3.80000000E+01  2.30000000E+01  0.00000000E+00
  3.80000000E+01  2.20000000E+01  0.00000000E+00
  3.80000000E+01  2.10000000E+01  0.00000000E+00
  3.80000000E+01  2.00000000E+01  0.00000000E+00
  3.80000000E+01  1.90000000E+01  0.00000000E+00
  3.80000000E+01  1.80000000E+01  0.00000000E+00
  3.80000000E+01  1.70000000E+01  0.00000000E+00
  3.80000000E+01  1.60000000E+01  0.00000000E+00
  3.80000000E+01  1.50000000E+01  0.00000000E+00
  3.80000000E+01  1.40000000E+01  0.00000000E+00
  3.80000000E+01  1.30000000E+01  0.00000000E+00
  3.80000000E+01  1.20000000E+01  0.00000000E+00
  3.80000000E+01  1.10000000E+01  0.00000000E+00
  3.80000000E+01  1.00000000E+01  0.00000000E+00
  3.80000000E+01  9.00000000E+00  0.00000000E+00
  3.80000000E+01  8.00000000E+00  0.00000000E+00
  3.80000000E+01  7.00000000E+00  0.00000000E+00
  3.80000000E+01  6.00000000E+00  0.00000000E+00
  3.80000000E+01  5.00000000E+00  0.00000000E+00
  3.80000000E+01  4.00000000E+00  0.00000000E+00
  3.80000000E+01  3.00000000E+00  0.00000000E+00
  3.80000000E+01  2.00000000E+00  0.00000000E+00
  3.80000000E+01  1.00000000E+00  0.00000000E+00
  3.80000000E+01 -2.66453526E-15  0.00000000E+00
  3.90000000E+01  2.40000000E+01  0.00000000E+00
  3.90000000E+01  2.30000000E+01  0.00000000E+00
  3.90000000E+01  2.20000000E+01  0.00000000E+00
  3.90000000E+01  2.10000000E+01  0.00000000E+00
  3.90000000E+01  2.00000000E+01  0.00000000E+00
  3.90000000E+01  1.90000000E+01  0.00000000E+00
  3.90000000E+01  1.80000000E+01  0.00000000E+00
  3.90000000E+01  1.70000000E+01  0.00000000E+00
  3.90000000E+01  1.60000000E+01  0.00000000E+00
  3.90000000E+01  1.50000000E+01  0.00000000E+00
  3.90000000E+01  1.40000000E+01  0.00000000E+00
  3.90000000E+01  1.30000000E+01  0.00000000E+00
  3.90000000E+01  1.20000000E+01  0.00000000E+00
  3.90000000E+01  1.10000000E+01  0.00000000E+00
  3.90000000E+01  1.00000000E+01  0.00000000E+00
  3.90000000E+01  9.00000000E+00  0.00000000E+00
  3.90000000E+01  8.00000000E+00  0.00000000E+00
  3.90000000E+01  7.00000000E+00  0.00000000E+00
  3.90000000E+01  6.00000000E+00  0.00000000E+00
  3.90000000E+01  5.00000000E+00  0.00000000E+00
  3.90000000E+01  4.00000000E+00  0.00000000E+00
  3.90000000E+01  3.00000000E+00  0.00000000E+00
  3.90000000E+01  2.00000000E+00  0.00000000E+00
  3.90000000E+01  1.00000000E+00  0.00000000E+00
  3.90000000E+01 -2.66453526E-15  0.00000000E+00
  4.00000000E+01  2.40000000E+01  0.00000000E+00
  4.00000000E+01  2.30000000E+01  0.00000000E+00
  4.00000000E+01  2.20000000E+01  0.00000000E+00
  4.00000000E+01  2.10000000E+01  0.00000000E+00
  4.00000000E+01  2.00000000E+01  0.00000000E+00
  4.00000000E+01  1.90000000E+01  0.00000000E+00
  4.00000000E+01  1.80000000E+01  0.00000000E+00
  4.00000000E+01  1.70000000E+01  0.00000000E+00
  4.00000000E+01  1.60000000E+01  0.00000000E+00
  4.00000000E+01  1.50000000E+01  0.00000000E+00
  4.00000000E+01  1.40000000E+01  0.00000000E+00
  4.00000000E+01  1.30000000E+01  0.00000000E+00
  4.00000000E+01  1.20000000E+01  0.00000000E+00
  4.00000000E+01  1.10000000E+01  0.00000000E+00
  4.00000000E+01  1.00000000E+01  0.00000000E+00
  4.00000000E+01  9.00000000E+00  0.00000000E+00
  4.00000000E+01  8.00000000E+00  0.00000000E+00
  4.00000000E+01  7.00000000E+00  0.00000000E+00
  4.00000000E+01  6.00000000E+00  0.00000000E+00
  4.00000000E+01  5.00000000E+00  0.00000000E+00
  4.00000000E+01  4.00000000E+00  0.00000000E+00
  4.00000000E+01  3.00000000E+00  0.00000000E+00
  4.00000000E+01  2.00000000E+00  0.00000000E+00
  4.00000000E+01  1.00000000E+00  0.00000000E+00
  4.00000000E+01 -2.66453526E-15  0.00000000E+00
  4.10000000E+01  2.40000000E+01  0.00000000E+00
  4.10000000E+01  2.30000000E+01  0.00000000E+00
  4.10000000E+01  2.20000000E+01  0.00000000E+00
  4.10000000E+01  2.10000000E+01  0.00000000E+00
  4.10000000E+01  2.00000000E+01  0.00000000E+00
  4.10000000E+01  1.90000000E+01  0.00000000E+00
  4.10000000E+01  1.80000000E+01  0.00000000E+00
  4.10000000E+01  1.70000000E+01  0.00000000E+00
  4.10000000E+01  1.60000000E+01  0.00000000E+00
  4.10000000E+01  1.50000000E+01  0.00000000E+00
  4.10000000E+01  1.40000000E+01  0.00000000E+00
  4.10000000E+01  1.30000000E+01  0.00000000E+00
  4.10000000E+01  1.20000000E+01  0.00000000E+00
  4.10000000E+01  1.10000000E+01  0.00000000E+00
  4.10000000E+01  1.00000000E+01  0.00000000E+00
  4.10000000E+01  9.00000000E+00  0.00000000E+00
  4.10000000E+01  8.00000000E+00  0.00000000E+00
  4.10000000E+01  7.00000000E+00  0.00000000E+00
  4.10000000E+01  6.00000000E+00  0.00000000E+00
  4.10000000E+01  5.00000000E+00  0.00000000E+00
  4.10000000E+01  4.00000000E+00  0.00000000E+00
  4.10000000E+01  3.00000000E+00  0.00000000E+00
  4.10000000E+01  2.00000000E+00  0.00000000E+00
  4.10000000E+01  1.00000000E+00  0.00000000E+00
  4.10000000E+01 -2.66453526E-15  0.00000000E+00
  4.20000000E+01  2.40000000E+01  0.00000000E+00
  4.20000000E+01  2.30000000E+01  0.00000000E+00
  4.20000000E+01  2.20000000E+01  0.00000000E+00
  4.20000000E+01  2.10000000E+01  0.00000000E+00
  4.20000000E+01  2.00000000E+01  0.00000000E+00
  4.20000000E+01  1.90000000E+01  0.00000000E+00
  4.20000000E+01  1.80000000E+01  0.00000000E+00
  4.20000000E+01  1.70000000E+01  0.00000000E+00
  4.20000000E+01  1.60000000E+01  0.00000000E+00
  4.20000000E+01  1.50000000E+01  0.00000000E+00
  4.20000000E+01  1.40000000E+01  0.00000000E+00
  4.20000000E+01  1.30000000E+01  0.00000000E+00
  4.20000000E+01  1.20000000E+01  0.00000000E+00
  4.20000000E+01  1.10000000E+01  0.00000000E+00
  4.20000000E+01  1.00000000E+01  0.00000000E+00
  4.20000000E+01  9.00000000E+00  0.00000000E+00
  4.20000000E+01  8.00000000E+00  0.00000000E+00
  4.20000000E+01  7.00000000E+00  0.00000000E+00
  4.20000000E+01  6.00000000E+00  0.00000000E+00
  4.20000000E+01  5.00000000E+00  0.00000000E+00
  4.20000000E+01  4.00000000E+00  0.00000000E+00
  4.20000000E+01  3.00000000E+00  0.00000000E+00
  4.20000000E+01  2.00000000E+00  0.00000000E+00
  4.20000000E+01  1.00000000E+00  0.00000000E+00
  4.20000000E+01 -2.66453526E-15  0.00000000E+00
  4.30000000E+01  2.40000000E+01  0.00000000E+00
  4.30000000E+01  2.30000000E+01  0.00000000E+00
  4.30000000E+01  2.20000000E+01  0.00000000E+00
  4.30000000E+01  2.10000000E+01  0.00000000E+00
  4.30000000E+01  2.00000000E+01  0.00000000E+00
  4.30000000E+01  1.90000000E+01  0.00000000E+00
  4.30000000E+01  1.80000000E+01  0.00000000E+00
  4.30000000E+01  1.70000000E+01  0.00000000E+00
  4.30000000E+01  1.60000000E+01  0.00000000E+00
  4.30000000E+01  1.50000000E+01  0.00000000E+00
  4.30000000E+01  1.40000000E+01  0.00000000E+00
  4.30000000E+01  1.30000000E+01  0.00000000E+00
  4.30000000E+01  1.20000000E+01  0.00000000E+00
  4.30000000E+01  1.10000000E+01  0.00000000E+00
  4.30000000E+01  1.00000000E+01  0.00000000E+00
  4.30000000E+01  9.00000000E+00  0.00000000E+00
  4.30000000E+01  8.00000000E+00  0.00000000E+00
  4.30000000E+01  7.00000000E+00  0.00000000E+00
  4.30000000E+01  6.00000000E+00  0.00000000E+00
  4.30000000E+01  5.00000000E+00  0.00000000E+00
  4.30000000E+01  4.00000000E+00  0.00000000E+00
  4.30000000E+01  3.00000000E+00  0.00000000E+00
  4.30000000E+01  2.00000000E+00  0.00000000E+00
  4.30000000E+01  1.00000000E+00  0.00000000E+00
  4.30000000E+01 -2.66453526E-15  0.00000000E+00
  4.40000000E+01  2.40000000E+01  0.00000000E+00
  4.40000000E+01  2.30000000E+01  0.00000000E+00
  4.40000000E+01  2.20000000E+01  0.00000000E+00
  4.40000000E+01  2.10000000E+01  0.00000000E+00
  4.40000000E+01  2.00000000E+01  0.00000000E+00
  4.40000000E+01  1.90000000E+01  0.00000000E+00
  4.40000000E+01  1.80000000E+01  0.00000000E+00
  4.40000000E+01  1.70000000E+01  0.00000000E+00
  4.40000000E+01  1.60000000E+01  0.00000000E+00
  4.40000000E+01  1.50000000E+01  0.00000000E+00
  4.40000000E+01  1.40000000E+01  0.00000000E+00
  4.40000000E+01  1.30000000E+01  0.00000000E+00
  4.40000000E+01  1.20000000E+01  0.00000000E+00
  4.40000000E+01  1.10000000E+01  0.00000000E+00
  4.40000000E+01  1.00000000E+01  0.00000000E+00
  4.40000000E+01  9.00000000E+00  0.00000000E+00
  4.40000000E+01  8.00000000E+00  0.00000000E+00
  4.40000000E+01  7.00000000E+00  0.00000000E+00
  4.40000000E+01  6.00000000E+00  0.00000000E+00
  4.40000000E+01  5.00000000E+00  0.00000000E+00
  4.40000000E+01  4.00000000E+00  0.00000000E+00
  4.40000000E+01  3.00000000E+00  0.00000000E+00
  4.40000000E+01  2.00000000E+00  0.00000000E+00
  4.40000000E+01  1.00000000E+00  0.00000000E+00
  4.40000000E+01 -2.66453526E-15  0.00000000E+00
  4.50000000E+01  2.40000000E+01  0.00000000E+00
  4.50000000E+01  2.30000000E+01  0.00000000E+00
  4.50000000E+01  2.20000000E+01  0.00000000E+00
  4.50000000E+01  2.10000000E+01  0.00000000E+00
  4.50000000E+01  2.00000000E+01  0.00000000E+00
  4.50000000E+01  1.90000000E+01  0.00000000E+00
  4.50000000E+01  1.80000000E+01  0.00000000E+00
  4.50000000E+01  1.70000000E+01  0.00000000E+00
  4.50000000E+01  1.60000000E+01  0.00000000E+00
  4.50000000E+01  1.50000000E+01  0.00000000E+00
  4.50000000E+01  1.40000000E+01  0.00000000E+00
  4.50000000E+01  1.30000000E+01  0.00000000E+00
  4.50000000E+01  1.20000000E+01  0.00000000E+00
  4.50000000E+01  1.10000000E+01  0.00000000E+00
  4.50000000E+01  1.00000000E+01  0.00000000E+00
  4.50000000E+01  9.00000000E+00  0.00000000E+00
  4.50000000E+01  8.00000000E+00  0.00000000E+00
  4.50000000E+01  7.00000000E+00  0.00000000E+00
  4.50000000E+01  6.00000000E+00  0.00000000E+00
  4.50000000E+01  5.00000000E+00  0.00000000E+00
  4.50000000E+01  4.00000000E+00  0.00000000E+00
  4.50000000E+01  3.00000000E+00  0.00000000E+00
  4.50000000E+01  2.00000000E+00  0.00000000E+00
  4.50000000E+01  1.00000000E+00  0.00000000E+00
  4.50000000E+01 -2.66453526E-15  0.00000000E+00
  4.60000000E+01  2.40000000E+01  0.00000000E+00
  4.60000000E+01  2.30000000E+01  0.00000000E+00
  4.60000000E+01  2.20000000E+01  0.00000000E+00
  4.60000000E+01  2.10000000E+01  0.00000000E+00
  4.60000000E+01  2.00000000E+01  0.00000000E+00
  4.60000000E+01  1.90000000E+01  0.00000000E+00
  4.60000000E+01  1.80000000E+01  0.00000000E+00
  4.60000000E+01  1.70000000E+01  0.00000000E+00
  4.60000000E+01  1.60000000E+01  0.00000000E+00
  4.60000000E+01  1.50000000E+01  0.00000000E+00
  4.60000000E+01  1.40000000E+01  0.00000000E+00
  4.60000000E+01  1.30000000E+01  0.00000000E+00
  4.60000000E+01  1.20000000E+01  0.00000000E+00
  4.60000000E+01  1.10000000E+01  0.00000000E+00
  4.60000000E+01  1.00000000E+01  0.00000000E+00
  4.60000000E+01  9.00000000E+00  0.00000000E+00
  4.60000000E+01  8.00000000E+00  0.00000000E+00
  4.60000000E+01  7.00000000E+00  0.00000000E+00
  4.60000000E+01  6.00000000E+00  0.00000000E+00
  4.60000000E+01  5.00000000E+00  0.00000000E+00
  4.60000000E+01  4.00000000E+00  0.00000000E+00
  4.60000000E+01  3.00000000E+00  0.00000000E+00
  4.60000000E+01  2.00000000E+00  0.00000000E+00
  4.60000000E+01  1.00000000E+00  0.00000000E+00
  4.60000000E+01 -2.66453526E-15  0.00000000E+00
  4.70000000E+01  2.40000000E+01  0.00000000E+00
  4.70000000E+01  2.30000000E+01  0.00000000E+00
  4.70000000E+01  2.20000000E+01  0.00000000E+00
  4.70000000E+01  2.10000000E+01  0.00000000E+00
  4.70000000E+01  2.00000000E+01  0.00000000E+00
  4.70000000E+01  1.90000000E+01  0.00000000E+00
  4.70000000E+01  1.80000000E+01  0.00000000E+00
  4.70000000E+01  1.70000000E+01  0.00000000E+00
  4.70000000E+01  1.60000000E+01  0.00000000E+00
  4.70000000E+01  1.50000000E+01  0.00000000E+00
  4.70000000E+01  1.40000000E+01  0.00000000E+00
  4.70000000E+01  1.30000000E+01  0.00000000E+00
  4.70000000E+01  1.20000000E+01  0.00000000E+00
  4.70000000E+01  1.10000000E+01  0.00000000E+00
  4.70000000E+01  1.00000000E+01  0.00000000E+00
  4.70000000E+01  9.00000000E+00  0.00000000E+00
  4.70000000E+01  8.00000000E+00  0.00000000E+00
  4.70000000E+01  7.00000000E+00  0.00000000E+00
  4.70000000E+01  6.00000000E+00  0.00000000E+00
  4.70000000E+01  5.00000000E+00  0.00000000E+00
  4.70000000E+01  4.00000000E+00  0.00000000E+00
  4.70000000E+01  3.00000000E+00  0.00000000E+00
  4.70000000E+01  2.00000000E+00  0.00000000E+00
  4.70000000E+01  1.00000000E+00  0.00000000E+00
  4.70000000E+01 -2.66453526E-15  0.00000000E+00
  4.80000000E+01  2.40000000E+01  0.00000000E+00
  4.80000000E+01  2.30000000E+01  0.00000000E+00
  4.80000000E+01  2.20000000E+01  0.00000000E+00
  4.80000000E+01  2.10000000E+01  0.00000000E+00
  4.80000000E+01  2.00000000E+01  0.00000000E+00
  4.80000000E+01  1.90000000E+01  0.00000000E+00
  4.80000000E+01  1.80000000E+01  0.00000000E+00
  4.80000000E+01  1.70000000E+01  0.00000000E+00
  4.80000000E+01  1.60000000E+01  0.00000000E+00
  4.80000000E+01  1.50000000E+01  0.00000000E+00
  4.80000000E+01  1.40000000E+01  0.00000000E+00
  4.80000000E+01  1.30000000E+01  0.00000000E+00
  4.80000000E+01  1.20000000E+01  0.00000000E+00
  4.80000000E+01  1.10000000E+01  0.00000000E+00
  4.80000000E+01  1.00000000E+01  0.00000000E+00
  4.80000000E+01  9.00000000E+00  0.00000000E+00
  4.80000000E+01  8.00000000E+00  0.00000000E+00
  4.80000000E+01  7.00000000E+00  0.00000000E+00
  4.80000000E+01  6.00000000E+00  0.00000000E+00
  4.80000000E+01  5.00000000E+00  0.00000000E+00
  4.80000000E+01  4.00000000E+00  0.00000000E+00
  4.80000000E+01  3.00000000E+00  0.00000000E+00
  4.80000000E+01  2.00000000E+00  0.00000000E+00
  4.80000000E+01  1.00000000E+00  0.00000000E+00
  4.80000000E+01 -2.66453526E-15  0.00000000E+00
CELLS      1152      5760
         4           0           1          26          25
         4           1           2          27          26
         4           2           3          28          27
         4           3           4          29          28
         4           4           5          30          29
         4           5           6          31          30
         4           6           7          32          31
         4           7           8          33          32
         4           8           9          34          33
         4           9          10          35          34
         4          10          11          36          35
         4          11          12          37          36
         4          12          13          38          37
         4          13          14          39          38
         4          14          15          40          39
         4          15          16          41          40
         4          16          17          42          41
         4          17          18          43          42
         4          18          19          44          43
         4          19          20          45          44
         4          20          21          46          45
         4          21          22          47          46
         4          22          23          48          47
         4          23          24          49          48
         4          25          26          51          50
         4          26          27          52          51
         4          27          28          53          52
         4          28          29          54          53
         4          29          30          55          54
         4          30          31          56          55
         4          31          32          57          56
         4          32          33          58          57
         4          33          34          59          58
         4          34          35          60          59
         4          35          36          61          60
         4          36          37          62          61
         4          37          38          63          62
         4          38          39          64          63
         4          39          40          65          64
         4          40          41          66          65
         4          41          42          67          66
         4          42          43          68          67
         4          43          44          69          68
         4          44          45          70          69
         4          45          46          71          70
         4          46          47          72          71
         4          47          48          73          72
         4          48          49          74          73
         4          50          51          76          75
         4          51          52          77          76
         4          52          53          78          77
         4          53          54          79          78
         4          54          55          80          79
         4          55          56          81          80
         4          56          57          82          81
         4          57          58          83          82
         4          58          59          84          83
         4          59          60          85          84
         4          60          61          86          85
         4          61          62          87          86
         4          62          63          88          87
         4          63          64          89          88
         4          64          65          90          89
         4          65          66          91          90
         4          66          67          92          91
         4          67          68          93          92
         4          68          69          94          93
         4          69          70          95          94
         4          70          71          96          95
         4          71          72          97          96
         4          72          73          98          97
         4          73          74          99          98
         4          75          76         101         100
         4          76          77         102         101
         4          77          78         103         102
         4          78          79         104         103
         4          79          80         105         104
         4          80          81         106         105
         4          81          82         107         106
         4          82          83         108         107
         4          83          84         109         108
         4          84          85         110         109
         4          85          86         111         110
         4          86          87         112         111
         4          87          88         113         112
         4          88          89         114         113
         4          89          90         115         114
         4          90          91         116         115
         4          91          92         117         116
         4          92          93         118         117
         4          93          94         119         118
         4          94          95         120         119
         4          95          96         121         120
         4          96          97         122         121
         4          97          98         123         122
         4          98          99         124         123
         4         100         101         126         125
         4         101         102         127         126
         4         102         103         128         127
         4         103         104         129         128
         4         104         105         130         129
         4         105         106         131         130
         4         106         107         132         131
         4         107         108         133         132
         4         108         109         134         133
         4         109         110         135         134
         4         110         111         136         135
         4         111         112         137         136
         4         112         113         138         137
         4         113         114         139         138
         4         114         115         140         139
         4         115         116         141         140
         4         116         117         142         141
         4         117         118         143         142
         4         118         119         144         143
         4         119         120         145         144
         4         120         121         146         145
         4         121         122         147         146
         4         122         123         148         147
         4         123         124         149         148
         4         125         126         151         150
         4         126         127         152         151
         4         127         128         153         152
         4         128         129         154         153
         4         129         130         155         154
         4         130         131         156         155
         4         131         132         157         156
         4         132         133         158         157
         4         133         134         159         158
         4         134         135         160         159
         4         135         136         161         160
         4         136         137         162         161
         4         137         138         163         162
         4         138         139         164         163
         4         139         140         165         164
         4         140         141         166         165
         4         141         142         167         166
         4         142         143         168         167
         4         143         144         169         168
         4         144         145         170         169
         4         145         146         171         170
         4         146         147         172         171
         4         147         148         173         172
         4         148         149         174         173
         4         150         151         176         175
         4         151         152         177         176
         4         152         153         178         177
         4         153         154         179         178
         4         154         155         180         179
         4         155         156         181         180
         4         156         157         182         181
         4         157         158         183         182
         4         158         159         184         183
         4         159         160         185         184
         4         160         161         186         185
         4         161         162         187         186
         4         162         163         188         187
         4         163         164         189         188
         4         164         165         190         189
         4         165         166         191         190
         4         166         167         192         191
         4         167         168         193         192
         4         168         169         194         193
         4         169         170         195         194
         4         170         171         196         195
         4         171         172         197         196
         4         172         173         198         197
         4         173         174         199         198
         4         175         176         201         200
         4         176         177         202         201
         4         177         178         203         202
         4         178         179         204         203
         4         179         180         205         204
         4         180         181         206         205
         4         181         182         207         206
         4         182         183         208         207
         4         183         184         209         208
         4         184         185         210         209
         4         185         186         211         210
         4         186         187         212         211
         4         187         188         213         212
         4         188         189         214         213
         4         189         190         215         214
         4         190         191         216         215
         4         191         192         217         216
         4         192         193         218         217
         4         193         194         219         218
         4         194         195         220         219
         4         195         196         221         220
         4         196         197         222         221
         4         197         198         223         222
         4         198         199         224         223
         4         200         201         226         225
         4         201         202         227         226
         4         202         203         228         227
         4         203         204         229         228
         4         204         205         230         229
         4         205         206         231         230
         4         206         207         232         231
         4         207         208         233         232
         4         208         209         234         233
         4         209         210         235         234
         4         210         211         236         235
         4         211         212         237         236
         4         212         213         238         237
         4         213         214         239         238
         4         214         215         240         239
         4         215         216         241         240
         4         216         217         242         241
         4         217         218         243         242
         4         218         219         244         243
         4         219         220         245         244
         4         220         221         246         245
         4         221         222         247         246
         4         222         223         248         247
         4         223         224         249         248
         4         225         226         251         250
         4         226         227         252         251
         4         227         228         253         252
         4         228         229         254         253
         4         229         230         255         254
         4         230         231         256         255
         4         231         232         257         256
         4         232         233         258         257
         4         233         234         259         258
         4         234         235         260         259
         4         235         236         261         260
         4         236         237         262         261
         4         237         238         263         262
         4         238         239         264         263
         4         239         240         265         264
         4         240         241         266         265
         4         241         242         267         266
         4         242         243         268         267
         4         243         244         269         268
         4         244         245         270         269
         4         245         246         271         270
         4         246         247         272         271
         4         247         248         273         272
         4         248         249         274         273
         4         250         251         276         275
         4         251         252         277         276
         4         252         253         278         277
         4         253         254         279         278
         4         254         255         280         279
         4         255         256         281         280
         4         256         257         282         281
         4         257         258         283         282
         4         258         259         284         283
         4         259         260         285         284
         4         260         261         286         285
         4         261         262         287         286
         4         262         263         288         287
         4         263         264         289         288
         4         264         265         290         289
         4         265         266         291         290
         4         266         267         292         291
         4         267         268         293         292
         4         268         269         294         293
         4         269         270         295         294
         4         270         271         296         295
         4         271         272         297         296
         4         272         273         298         297
         4         273         274         299         298
         4         275         276         301         300
         4         276         277         302         301
         4         277         278         303         302
         4         278         279         304         303
         4         279         280         305         304
         4         280         281         306         305
         4         281         282         307         306
         4         282         283         308         307
         4         283         284         309         308
         4         284         285         310         309
         4         285         286         311         310
         4         286         287         312         311
         4         287         288         313         312
         4         288         289         314         313
         4         289         290         315         314
         4         290         291         316         315
         4         291         292         317         316
         4         292         293         318         317
         4         293         294         319         318
         4         294         295         320         319
         4         295         296         321         320
         4         296         297         322         321
         4         297         298         323         322
         4         298         299         324         323
         4         300         301         326         325
         4         301         302         327         326
         4         302         303         328         327
         4         303         304         329         328
         4         304         305         330         329
         4         305         306         331         330
         4         306         307         332         331
         4         307         308         333         332
         4         308         309         334         333
         4         309         310         335         334
         4         310         311         336         335
         4         311         312         337         336
         4         312         313         338         337
         4         313         314         339         338
         4         314         315         340         339
         4         315         316         341         340
         4         316         317         342         341
         4         317         318         343         342
         4         318         319         344         343
         4         319         320         345         344
         4         320         321         346         345
         4         321         322         347         346
         4         322         323         348         347
         4         323         324         349         348
         4         325         326         351         350
         4         326         327         352         351
         4         327         328         353         352
         4         328         329         354         353
         4         329         330         355         354
         4         330         331         356         355
         4         331         332         357         356
         4         332         333         358         357
         4         333         334         359         358
         4         334         335         360         359
         4         335         336         361         360
         4         336         337         362         361
         4         337         338         363         362
         4         338         339         364         363
         4         339         340         365         364
         4         340         341         366         365
         4         341         342         367         366
         4         342         343         368         367
         4         343         344         369         368
         4         344         345         370         369
         4         345         346         371         370
         4         346         347         372         371
         4         347         348         373         372
         4         348         349         374         373
         4         350         351         376         375
         4         351         352         377         376
         4         352         353         378         377
         4         353         354         379         378
         4         354         355         380         379
         4         355         356         381         380
         4         356         357         382         381
         4         357         358         383         382
         4         358         359         384         383
         4         359         360         385         384
         4         360         361         386         385
         4         361         362         387         386
         4         362         363         388         387
         4         363         364         389         388
         4         364         365         390         389
         4         365         366         391         390
         4         366         367         392         391
         4         367         368         393         392
         4         368         369         394         393
         4         369         370         395         394
         4         370         371         396         395
         4         371         372         397         396
         4         372         373         398         397
         4         373         374         399         398
         4         375         376         401         400
         4         376         377         402         401
         4         377         378         403         402
         4         378         379         404         403
         4         379         380         405         404
         4         380         381         406         405
         4         381         382         407         406
         4         382         383         408         407
         4         383         384         409         408
         4         384         385         410         409
         4         385         386         411         410
         4         386         387         412         411
         4         387         388         413         412
         4         388         389         414         413
         4         389         390         415         414
         4         390         391         416         415
         4         391         392         417         416
         4         392         393         418         417
         4         393         394         419         418
         4         394         395         420         419
         4         395         396         421         420
         4         396         397         422         421
         4         397         398         423         422
         4         398         399         424         423
         4         400         401         426         425
         4         401         402         427         426
         4         402         403         428         427
         4         403         404         429         428
         4         404         405         430         429
         4         405         406         431         430
         4         406         407         432         431
         4         407         408         433         432
         4         408         409         434         433
         4         409         410         435         434
         4         410         411         436         435
         4         411         412         437         436
         4         412         413         438         437
         4         413         414         439         438
         4         414         415         440         439
         4         415         416         441         440
         4         416         417         442         441
         4         417         418         443         442
         4         418         419         444         443
         4         419         420         445         444
         4         420         421         446         445
         4         421         422         447         446
         4         422         423         448         447
         4         423         424         449         448
         4         425         426         451         450
         4         426         427         452         451
         4         427         428         453         452
         4         428         429         454         453
         4         429         430         455         454
         4         430         431         456         455
         4         431         432         457         456
         4         432         433         458         457
         4         433         434         459         458
         4         434         435         460         459
         4         435         436         461         460
         4         436         437         462         461
         4         437         438         463         462
         4         438         439         464         463
         4         439         440         465         464
         4         440         441         466         465
         4         441         442         467         466
         4         442         443         468         467
         4         443         444         469         468
         4         444         445         470         469
         4         445         446         471         470
         4         446         447         472         471
         4         447         448         473         472
         4         448         449         474         473
         4         450         451         476         475
         4         451         452         477         476
         4         452         453         478         477
         4         453         454         479         478
         4         454         455         480         479
         4         455         456         481         480
         4         456         457         482         481
         4         457         458         483         482
         4         458         459         484         483
         4         459         460         485         484
         4         460         461         486         485
         4         461         462         487         486
         4         462         463         488         487
         4         463         464         489         488
         4         464         465         490         489
         4         465         466         491         490
         4         466         467         492         491
         4         467         468         493         492
         4         468         469         494         493
         4         469         470         495         494
         4         470         471         496         495
         4         471         472         497         496
         4         472         473         498         497
         4         473         474         499         498
         4         475         476         501         500
         4         476         477         502         501
         4         477         478         503         502
         4         478         479         504         503
         4         479         480         505         504
         4         480         481         506         505
         4         481         482         507         506
         4         482         483         508         507
         4         483         484         509         508
         4         484         485         510         509
         4         485         486         511         510
         4         486         487         512         511
         4         487         488         513         512
         4         488         489         514         513
         4         489         490         515         514
         4         490         491         516         515
         4         491         492         517         516
         4         492         493         518         517
         4         493         494         519         518
         4         494         495         520         519
         4         495         496         521         520
         4         496         497         522         521
         4         497         498         523         522
         4         498         499         524         523
         4         500         501         526         525
         4         501         502         527         526
         4         502         503         528         527
         4         503         504         529         528
         4         504         505         530         529
         4         505         506         531         530
         4         506         507         532         531
         4         507         508         533         532
         4         508         509         534         533
         4         509         510         535         534
         4         510         511         536         535
         4         511         512         537         536
         4         512         513         538         537
         4         513         514         539         538
         4         514         515         540         539
         4         515         516         541         540
         4         516         517         542         541
         4         517         518         543         542
         4         518         519         544         543
         4         519         520         545         544
         4         520         521         546         545
         4         521         522         547         546
         4         522         523         548         547
         4         523         524         549         548
         4         525         526         551         550
         4         526         527         552         551
         4         527         528         553         552
         4         528         529         554         553
         4         529         530         555         554
         4         530         531         556         555
         4         531         532         557         556
         4         532         533         558         557
         4         533         534         559         558
         4         534         535         560         559
         4         535         536         561         560
         4         536         537         562         561
         4         537         538         563         562
         4         538         539         564         563
         4         539         540         565         564
         4         540         541         566         565
         4         541         542         567         566
         4         542         543         568         567
         4         543         544         569         568
         4         544         545         570         569
         4         545         546         571         570
         4         546         547         572         571
         4         547         548         573         572
         4         548         549         574         573
         4         550         551         576         575
         4         551         552         577         576
         4         552         553         578         577
         4         553         554         579         578
         4         554         555         580         579
         4         555         556         581         580
         4         556         557         582         581
         4         557         558         583         582
         4         558         559         584         583
         4         559         560         585         584
         4         560         561         586         585
         4         561         562         587         586
         4         562         563         588         587
         4         563         564         589         588
         4         564         565         590         589
         4         565         566         591         590
         4         566         567         592         591
         4         567         568         593         592
         4         568         569         594         593
         4         569         570         595         594
         4         570         571         596         595
         4         571         572         597         596
         4         572         573         598         597
         4         573         574         599         598
         4         575         576         601         600
         4         576         577         602         601
         4         577         578         603         602
         4         578         579         604         603
         4         579         580         605         604
         4         580         581         606         605
         4         581         582         607         606
         4         582         583         608         607
         4         583         584         609         608
         4         584         585         610         609
         4         585         586         611         610
         4         586         587         612         611
         4         587         588         613         612
         4         588         589         614         613
         4         589         590         615         614
         4         590         591         616         615
         4         591         592         617         616
         4         592         593         618         617
         4         593         594         619         618
         4         594         595         620         619
         4         595         596         621         620
         4         596         597         622         621
         4         597         598         623         622
         4         598         599         624         623
         4         600         601         626         625
         4         601         602         627         626
         4         602         603         628         627
         4         603         604         629         628
         4         604         605         630         629
         4         605         606         631         630
         4         606         607         632         631
         4         607         608         633         632
         4         608         609         634         633
         4         609         610         635         634
         4         610         611         636         635
         4         611         612         637         636
         4         612         613         638         637
         4         613         614         639         638
         4         614         615         640         639
         4         615         616         641         640
         4         616         617         642         641
         4         617         618         643         642
         4         618         619         644         643
         4         619         620         645         644
         4         620         621         646         645
         4         621         622         647         646
         4         622         623         648         647
         4         623         624         649         648
         4         625         626         651         650
         4         626         627         652         651
         4         627         628         653         652
         4         628         629         654         653
         4         629         630         655         654
         4         630         631         656         655
         4         631         632         657         656
         4         632         633         658         657
         4         633         634         659         658
         4         634         635         660         659
         4         635         636         661         660
         4         636         637         662         661
         4         637         638         663         662
         4         638         639         664         663
         4         639         640         665         664
         4         640         641         666         665
         4         641         642         667         666
         4         642         643         668         667
         4         643         644         669         668
         4         644         645         670         669
         4         645         646         671         670
         4         646         647         672         671
         4         647         648         673         672
         4         648         649         674         673
         4         650         651         676         675
         4         651         652         677         676
         4         652         653         678         677
         4         653         654         679         678
         4         654         655         680         679
         4         655         656         681         680
         4         656         657         682         681
         4         657         658         683         682
         4         658         659         684         683
         4         659         660         685         684
         4         660         661         686         685
         4         661         662         687         686
         4         662         663         688         687
         4         663         664         689         688
         4         664         665         690         689
         4         665         666         691         690
         4         666         667         692         691
         4         667         668         693         692
         4         668         669         694         693
         4         669         670         695         694
         4         670         671         696         695
         4         671         672         697         696
         4         672         673         698         697
         4         673         674         699         698
         4         675         676         701         700
         4         676         677         702         701
         4         677         678         703         702
         4         678         679         704         703
         4         679         680         705         704
         4         680         681         706         705
         4         681         682         707         706
         4         682         683         708         707
         4         683         684         709         708
         4         684         685         710         709
         4         685         686         711         710
         4         686         687         712         711
         4         687         688         713         712
         4         688         689         714         713
         4         689         690         715         714
         4         690         691         716         715
         4         691         692         717         716
         4         692         693         718         717
         4         693         694         719         718
         4         694         695         720         719
         4         695         696         721         720
         4         696         697         722         721
         4         697         698         723         722
         4         698         699         724         723
         4         700         701         726         725
         4         701         702         727         726
         4         702         703         728         727
         4         703         704         729         728
         4         704         705         730         729
         4         705         706         731         730
         4         706         707         732         731
         4         707         708         733         732
         4         708         709         734         733
         4         709         710         735         734
         4         710         711         736         735
         4         711         712         737         736
         4         712         713         738         737
         4         713         714         739         738
         4         714         715         740         739
         4         715         716         741         740
         4         716         717         742         741
         4         717         718         743         742
         4         718         719         744         743
         4         719         720         745         744
         4         720         721         746         745
         4         721         722         747         746
         4         722         723         748         747
         4         723         724         749         748
         4         725         726         751         750
         4         726         727         752         751
         4         727         728         753         752
         4         728         729         754         753
         4         729         730         755         754
         4         730         731         756         755
         4         731         732         757         756
         4         732         733         758         757
         4         733         734         759         758
         4         734         735         760         759
         4         735         736         761         760
         4         736         737         762         761
         4         737         738         763         762
         4         738         739         764         763
         4         739         740         765         764
         4         740         741         766         765
         4         741         742         767         766
         4         742         743         768         767
         4         743         744         769         768
         4         744         745         770         769
         4         745         746         771         770
         4         746         747         772         771
         4         747         748         773         772
         4         748         749         774         773
         4         750         751         776         775
         4         751         752         777         776
         4         752         753         778         777
         4         753         754         779         778
         4         754         755         780         779
         4         755         756         781         780
         4         756         757         782         781
         4         757         758         783         782
         4         758         759         784         783
         4         759         760         785         784
         4         760         761         786         785
         4         761         762         787         786
         4         762         763         788         787
         4         763         764         789         788
         4         764         765         790         789
         4         765         766         791         790
         4         766         767         792         791
         4         767         768         793         792
         4         768         769         794         793
         4         769         770         795         794
         4         770         771         796         795
         4         771         772         797         796
         4         772         773         798         797
         4         773         774         799         798
         4         775         776         801         800
         4         776         777         802         801
         4         777         778         803         802
         4         778         779         804         803
         4         779         780         805         804
         4         780         781         806         805
         4         781         782         807         806
         4         782         783         808         807
         4         783         784         809         808
         4         784         785         810         809
         4         785         786         811         810
         4         786         787         812         811
         4         787         788         813         812
         4         788         789         814         813
         4         789         790         815         814
         4         790         791         816         815
         4         791         792         817         816
         4         792         793         818         817
         4         793         794         819         818
         4         794         795         820         819
         4         795         796         821         820
         4         796         797         822         821
         4         797         798         823         822
         4         798         799         824         823
         4         800         801         826         825
         4         801         802         827         826
         4         802         803         828         827
         4         803         804         829         828
         4         804         805         830         829
         4         805         806         831         830
         4         806         807         832         831
         4         807         808         833         832
         4         808         809         834         833
         4         809         810         835         834
         4         810         811         836         835
         4         811         812         837         836
         4         812         813         838         837
         4         813         814         839         838
         4         814         815         840         839
         4         815         816         841         840
         4         816         817         842         841
         4         817         818         843         842
         4         818         819         844         843
         4         819         820         845         844
         4         820         821         846         845
         4         821         822         847         846
         4         822         823         848         847
         4         823         824         849         848
         4         825         826         851         850
         4         826         827         852         851
         4         827         828         853         852
         4         828         829         854         853
         4         829         830         855         854
         4         830         831         856         855
         4         831         832         857         856
         4         832         833         858         857
         4         833         834         859         858
         4         834         835         860         859
         4         835         836         861         860
         4         836         837         862         861
         4         837         838         863         862
         4         838         839         864         863
         4         839         840         865         864
         4         840         841         866         865
         4         841         842         867         866
         4         842         843         868         867
         4         843         844         869         868
         4         844         845         870         869
         4         845         846         871         870
         4         846         847         872         871
         4         847         848         873         872
         4         848         849         874         873
         4         850         851         876         875
         4         851         852         877         876
         4         852         853         878         877
         4         853         854         879         878
         4         854         855         880         879
         4         855         856         881         880
         4         856         857         882         881
         4         857         858         883         882
         4         858         859         884         883
         4         859         860         885         884
         4         860         861         886         885
         4         861         862         887         886
         4         862         863         888         887
         4         863         864         889         888
         4         864         865         890         889
         4         865         866         891         890
         4         866         867         892         891
         4         867         868         893         892
         4         868         869         894         893
         4         869         870         895         894
         4         870         871         896         895
         4         871         872         897         896
         4         872         873         898         897
         4         873         874         899         898
         4         875         876         901         900
         4         876         877         902         901
         4         877         878         903         902
         4         878         879         904         903
         4         879         880         905         904
         4         880         881         906         905
         4         881         882         907         906
         4         882         883         908         907
         4         883         884         909         908
         4         884         885         910         909
         4         885         886         911         910
         4         886         887         912         911
         4         887         888         913         912
         4         888         889         914         913
         4         889         890         915         914
         4         890         891         916         915
         4         891         892         917         916
         4         892         893         918         917
         4         893         894         919         918
         4         894         895         920         919
         4         895         896         921         920
         4         896         897         922         921
         4         897         898         923         922
         4         898         899         924         923
         4         900         901         926         925
         4         901         902         927         926
         4         902         903         928         927
         4         903         904         929         928
         4         904         905         930         929
         4         905         906         931         930
         4         906         907         932         931
         4         907         908         933         932
         4         908         909         934         933
         4         909         910         935         934
         4         910         911         936         935
         4         911         912         937         936
         4         912         913         938         937
         4         913         914         939         938
         4         914         915         940         939
         4         915         916         941         940
         4         916         917         942         941
         4         917         918         943         942
         4         918         919         944         943
         4         919         920         945         944
         4         920         921         946         945
         4         921         922         947         946
         4         922         923         948         947
         4         923         924         949         948
         4         925         926         951         950
         4         926         927         952         951
         4         927         928         953         952
         4         928         929         954         953
         4         929         930         955         954
         4         930         931         956         955
         4         931         932         957         956
         4         932         933         958         957
         4         933         934         959         958
         4         934         935         960         959
         4         935         936         961         960
         4         936         937         962         961
         4         937         938         963         962
         4         938         939         964         963
         4         939         940         965         964
         4         940         941         966         965
         4         941         942         967         966
         4         942         943         968         967
         4         943         944         969         968
         4         944         945         970         969
         4         945         946         971         970
         4         946         947         972         971
         4         947         948         973         972
         4         948         949         974         973
         4         950         951         976         975
         4         951         952         977         976
         4         952         953         978         977
         4         953         954         979         978
         4         954         955         980         979
         4         955         956         981         980
         4         956         957         982         981
         4         957         958         983         982
         4         958         959         984         983
         4         959         960         985         984
         4         960         961         986         985
         4         961         962         987         986
         4         962         963         988         987
         4         963         964         989         988
         4         964         965         990         989
         4         965         966         991         990
         4         966         967         992         991
         4         967         968         993         992
         4         968         969         994         993
         4         969         970         995         994
         4         970         971         996         995
         4         971         972         997         996
         4         972         973         998         997
         4         973         974         999         998
         4         975         976        1001        1000
         4         976         977        1002        1001
         4         977         978        1003        1002
         4         978         979        1004        1003
         4         979         980        1005        1004
         4         980         981        1006        1005
         4         981         982        1007        1006
         4         982         983        1008        1007
         4         983         984        1009        1008
         4         984         985        1010        1009
         4         985         986        1011        1010
         4         986         987        1012        1011
         4         987         988        1013        1012
         4         988         989        1014        1013
         4         989         990        1015        1014
         4         990         991        1016        1015
         4         991         992        1017        1016
         4         992         993        1018        1017
         4         993         994        1019        1018
         4         994         995        1020        1019
         4         995         996        1021        1020
         4         996         997        1022        1021
         4         997         998        1023        1022
         4         998         999        1024        1023
         4        1000        1001        1026        1025
         4        1001        1002        1027        1026
         4        1002        1003        1028        1027
         4        1003        1004        1029        1028
         4        1004        1005        1030        1029
         4        1005        1006        1031        1030
         4        1006        1007        1032        1031
         4        1007        1008        1033        1032
         4        1008        1009        1034        1033
         4        1009        1010        1035        1034
         4        1010        1011        1036        1035
         4        1011        1012        1037        1036
         4        1012        1013        1038        1037
         4        1013        1014        1039        1038
         4        1014        1015        1040        1039
         4        1015        1016        1041        1040
         4        1016        1017        1042        1041
         4        1017        1018        1043        1042
         4        1018        1019        1044        1043
         4        1019        1020        1045        1044
         4        1020        1021        1046        1045
         4        1021        1022        1047        1046
         4        1022        1023        1048        1047
         4        1023        1024        1049        1048
         4        1025        1026        1051        1050
         4        1026        1027        1052        1051
         4        1027        1028        1053        1052
         4        1028        1029        1054        1053
         4        1029        1030        1055        1054
         4        1030        1031        1056        1055
         4        1031        1032        1057        1056
         4        1032        1033        1058        1057
         4        1033        1034        1059        1058
         4        1034        1035        1060        1059
         4        1035        1036        1061        1060
         4        1036        1037        1062        1061
         4        1037        1038        1063        1062
         4        1038        1039        1064        1063
         4        1039        1040        1065        1064
         4        1040        1041        1066        1065
         4        1041        1042        1067        1066
         4        1042        1043        1068        1067
         4        1043        1044        1069        1068
         4        1044        1045        1070        1069
         4        1045        1046        1071        1070
         4        1046        1047        1072        1071
         4        1047        1048        1073        1072
         4        1048        1049        1074        1073
         4        1050        1051        1076        1075
         4        1051        1052        1077        1076
         4        1052        1053        1078        1077
         4        1053        1054        1079        1078
         4        1054        1055        1080        1079
         4        1055        1056        1081        1080
         4        1056        1057        1082        1081
         4        1057        1058        1083        1082
         4        1058        1059        1084        1083
         4        1059        1060        1085        1084
         4        1060        1061        1086        1085
         4        1061        1062        1087        1086
         4        1062        1063        1088        1087
         4        1063        1064        1089        1088
         4        1064        1065        1090        1089
         4        1065        1066        1091        1090
         4        1066        1067        1092        1091
         4        1067        1068        1093        1092
         4        1068        1069        1094        1093
         4        1069        1070        1095        1094
         4        1070        1071        1096        1095
         4        1071        1072        1097        1096
         4        1072        1073        1098        1097
         4        1073        1074        1099        1098
         4        1075        1076        1101        1100
         4        1076        1077        1102        1101
         4        1077        1078        1103        1102
         4        1078        1079        1104        1103
         4        1079        1080        1105        1104
         4        1080        1081        1106        1105
         4        1081        1082        1107        1106
         4        1082        1083        1108        1107
         4        1083        1084        1109        1108
         4        1084        1085        1110        1109
         4        1085        1086        1111        1110
         4        1086        1087        1112        1111
         4        1087        1088        1113        1112
         4        1088        1089        1114        1113
         4        1089        1090        1115        1114
         4        1090        1091        1116        1115
         4        1091        1092        1117        1116
         4        1092        1093        1118        1117
         4        1093        1094        1119        1118
         4        1094        1095        1120        1119
         4        1095        1096        1121        1120
         4        1096        1097        1122        1121
         4        1097        1098        1123        1122
         4        1098        1099        1124        1123
         4        1100        1101        1126        1125
         4        1101        1102        1127        1126
         4        1102        1103        1128        1127
         4        1103        1104        1129        1128
         4        1104        1105        1130        1129
         4        1105        1106        1131        1130
         4        1106        1107        1132        1131
         4        1107        1108        1133        1132
         4        1108        1109        1134        1133
         4        1109        1110        1135        1134
         4        1110        1111        1136        1135
         4        1111        1112        1137        1136
         4        1112        1113        1138        1137
         4        1113        1114        1139        1138
         4        1114        1115        1140        1139
         4        1115        1116        1141        1140
         4        1116        1117        1142        1141
         4        1117        1118        1143        1142
         4        1118        1119        1144        1143
         4        1119        1120        1145        1144
         4        1120        1121        1146        1145
         4        1121        1122        1147        1146
         4        1122        1123        1148        1147
         4        1123        1124        1149        1148
         4        1125        1126        1151        1150
         4        1126        1127        1152        1151
         4        1127        1128        1153        1152
         4        1128        1129        1154        1153
         4        1129        1130        1155        1154
         4        1130        1131        1156        1155
         4        1131        1132        1157        1156
         4        1132        1133        1158        1157
         4        1133        1134        1159        1158
         4        1134        1135        1160        1159
         4        1135        1136        1161        1160
         4        1136        1137        1162        1161
         4        1137        1138        1163        1162
         4        1138        1139        1164        1163
         4        1139        1140        1165        1164
         4        1140        1141        1166        1165
         4        1141        1142        1167        1166
         4        1142        1143        1168        1167
         4        1143        1144        1169        1168
         4        1144        1145        1170        1169
         4        1145        1146        1171        1170
         4        1146        1147        1172        1171
         4        1147        1148        1173        1172
         4        1148        1149        1174        1173
         4        1150        1151        1176        1175
         4        1151        1152        1177        1176
         4        1152        1153        1178        1177
         4        1153        1154        1179        1178
         4        1154        1155        1180        1179
         4        1155        1156        1181        1180
         4        1156        1157        1182        1181
         4        1157        1158        1183        1182
         4        1158        1159        1184        1183
         4        1159        1160        1185        1184
         4        1160        1161        1186        1185
         4        1161        1162        1187        1186
         4        1162        1163        1188        1187
         4        1163        1164        1189        1188
         4        1164        1165        1190        1189
         4        1165        1166        1191        1190
         4        1166        1167        1192        1191
         4        1167        1168        1193        1192
         4        1168        1169        1194        1193
         4        1169        1170        1195        1194
         4        1170        1171        1196        1195
         4        1171        1172        1197        1196
         4        1172        1173        1198        1197
         4        1173        1174        1199        1198
         4        1175        1176        1201        1200
         4        1176        1177        1202        1201
         4        1177        1178        1203        1202
         4        1178        1179        1204        1203
         4        1179        1180        1205        1204
         4        1180        1181        1206        1205
         4        1181        1182        1207        1206
         4        1182        1183        1208        1207
         4        1183        1184        1209        1208
         4        1184        1185        1210        1209
         4        1185        1186        1211        1210
         4        1186        1187        1212        1211
         4        1187        1188        1213        1212
         4        1188        1189        1214        1213
         4        1189        1190        1215        1214
         4        1190        1191        1216        1215
         4        1191        1192        1217        1216
         4        1192        1193        1218        1217
         4        1193        1194        1219        1218
         4        1194        1195        1220        1219
         4        1195        1196        1221        1220
         4        1196        1197        1222        1221
         4        1197        1198        1223        1222
         4        1198        1199        1224        1223
CELL_TYPES       1152
9
9
9
9
9
9
9
9
9
9
9
9
9
9
9
9
9
9
9
9
9
9
9
9
9
9
9
9
9
9
9
9
9
9
9
9
9
9
9
9
9
9
9
9
9
9
9
9
9
9
9
9
9
9
9
9
9
9
9
9
9
9
9
9
9
9
9
9
9
9
9
9
9
9
9
9
9
9
9
9
9
9
9
9
9
9
9
9
9
9
9
9
9
9
9
9
9
9
9
9
9
9
9
9
9
9
9
9
9
9
9
9
9
9
9
9
9
9
9
9
9
9
9
9
9
9
9
9
9
9
9
9
9
9
9
9
9
9
9
9
9
9
9
9
9
9
9
9
9
9
9
9
9
9
9
9
9
9
9
9
9
9
9
9
9
9
9
9
9
9
9
9
9
9
9
9
9
9
9
9
9
9
9
9
9
9
9
9
9
9
9
9
9
9
9
9
9
9
9
9
9
9
9
9
9
9
9
9
9
9
9
9
9
9
9
9
9
9
9
9
9
9
9
9
9
9
9
9
9
9
9
9
9
9
9
9
9
9
9
9
9
9
9
9
9
9
9
9
9
9
9
9
9
9
9
9
9
9
9
9
9
9
9
9
9
9
9
9
9
9
9
9
9
9
9
9
9
9
9
9
9
9
9
9
9
9
9
9
9
9
9
9
9
9
9
9
9
9
9
9
9
9
9
9
9
9
9
9
9
9
9
9
9
9
9
9
9
9
9
9
9
9
9
9
9
9
9
9
9
9
9
9
9
9
9
9
9
9
9
9
9
9
9
9
9
9
9
9
9
9
9
9
9
9
9
9
9
9
9
9
9
9
9
9
9
9
9
9
9
9
9
9
9
9
9
9
9
9
9
9
9
9
9
9
9
9
9
9
9
9
9
9
9
9
9
9
9
9
9
9
9
9
9
9
9
9
9
9
9
9
9
9
9
9
9
9
9
9
9
9
9
9
9
9
9
9
9
9
9
9
9
9
9
9
9
9
9
9
9
9
9
9
9
9
9
9
9
9
9
9
9
9
9
9
9
9
9
9
9
9
9
9
9
9
9
9
9
9
9
9
9
9
9
9
9
9
9
9
9
9
9
9
9
9
9
9
9
9
9
9
9
9
9
9
9
9
9
9
9
9
9
9
9
9
9
9
9
9
9
9
9
9
9
9
9
9
9
9
9
9
9
9
9
9
9
9
9
9
9
9
9
9
9
9
9
9
9
9
9
9
9
9
9
9
9
9
9
9
9
9
9
9
9
9
9
9
9
9
9
9
9
9
9
9
9
9
9
9
9
9
9
9
9
9
9
9
9
9
9
9
9
9
9
9
9
9
9
9
9
9
9
9
9
9
9
9
9
9
9
9
9
9
9
9
9
9
9
9
9
9
9
9
9
9
9
9
9
9
9
9
9
9
9
9
9
9
9
9
9
9
9
9
9
9
9
9
9
9
9
9
9
9
9
9
9
9
9
9
9
9
9
9
9
9
9
9
9
9
9
9
9
9
9
9
9
9
9
9
9
9
9
9
9
9
9
9
9
9
9
9
9
9
9
9
9
9
9
9
9
9
9
9
9
9
9
9
9
9
9
9
9
9
9
9
9
9
9
9
9
9
9
9
9
9
9
9
9
9
9
9
9
9
9
9
9
9
9
9
9
9
9
9
9
9
9
9
9
9
9
9
9
9
9
9
9
9
9
9
9
9
9
9
9
9
9
9
9
9
9
9
9
9
9
9
9
9
9
9
9
9
9
9
9
9
9
9
9
9
9
9
9
9
9
9
9
9
9
9
9
9
9
9
9
9
9
9
9
9
9
9
9
9
9
9
9
9
9
9
9
9
9
9
9
9
9
9
9
9
9
9
9
9
9
9
9
9
9
9
9
9
9
9
9
9
9
9
9
9
9
9
9
9
9
9
9
9
9
9
9
9
9
9
9
9
9
9
9
9
9
9
9
9
9
9
9
9
9
9
9
9
9
9
9
9
9
9
9
9
9
9
9
9
9
9
9
9
9
9
9
9
9
9
9
9
9
9
9
9
9
9
9
9
9
9
9
9
9
9
9
9
9
9
9
9
9
9
9
9
9
9
9
9
9
9
9
9
9
9
9
9
9
9
9
9
9
9
9
9
9
9
9
9
9
9
9
9
9
9
9
9
9
9
9
9
9
9
9
9
9
9
9
9
9
9
9
9
9
9
9
9
9
9
9
9
9
9
9
9
9
9
9
9
9
9
9
9
9
9
9
9
9
9
9
9
9
9
9
9
9
9
9
9
9
9
9
9
9
9
9
9
9
9
9
9
9
9
9
9
9
9
9
9
9
9
9
9
9
9
9
9
9
9
9
9
9
9
9
9
9
9
9
9
9
9
9
9
9
9
9
9
9
9
9
9
9
9
9
9
9
9
9
9
9
9
9
9
9
9
9
9
9
9
9
9
9
9
9
9
9
9
9
9
9
9
9
9
9
9
9
9
9
9
9
9
9
9
9
9
9
9
9
9
9
9
9
9
9
9
9
9
9
9
9
9
9
9
9
9
9
9
9
9
9
9
9
9
9
9
9
9
9
9
9
9
9
9
9
9
9
9
9
9
9
9
9
9
9
9
9
9
9
9
POINT_DATA      1225
SCALARS p double 
LOOKUP_TABLE default
  1.807069608594308E-014
  1.492348412781891E-014
  1.455075207308991E-014
  2.275967559941884E-014
  3.124203902400522E-014
  3.420503065836776E-014
  3.535646646809958E-014
  3.780801772698135E-014
  3.917131077770373E-014
  3.900965489202982E-014
  3.867108017499443E-014
  3.999151726519389E-014
  4.133292987390681E-014
  4.289941423564425E-014
  4.496251847570037E-014
  4.587878045283569E-014
  4.599916053160643E-014
  4.684835827024469E-014
  4.743762486648553E-014
  4.765522165144915E-014
  4.779292172564854E-014
  4.783495775729591E-014
  4.786261489111876E-014
  4.789847331417048E-014
  4.795349444399041E-014
  1.349217012161801E-014
  1.415196016163850E-014
  1.571143366753316E-014
  2.092518130690567E-014
  2.966741966391966E-014
  3.489446372823397E-014
  3.471736361498995E-014
  3.597217291298358E-014
  3.836951755383976E-014
  3.906796353853299E-014
  3.888217276927470E-014
  3.976976702463049E-014
  4.146951451988118E-014
  4.278475561379924E-014
  4.455570976209907E-014
  4.549702264292204E-014
  4.570982765407999E-014
  4.645932687550492E-014
  4.735176972514805E-014
  4.760815612339836E-014
  4.766905227186562E-014
  4.773831947139499E-014
  4.780388219431297E-014
  4.787141840059522E-014
  4.790407295681652E-014
  7.404184124568493E-015
  1.126385413236010E-014
  1.558095692707387E-014
  1.840964726292003E-014
  2.614495536370150E-014
  3.118123010016614E-014
  3.294179846172464E-014
  3.470932503069058E-014
  3.783680943459565E-014
  3.949986261889811E-014
  3.903221744311660E-014
  3.950002751111030E-014
  4.112697786775153E-014
  4.251193126904068E-014
  4.401913414075354E-014
  4.522900670228889E-014
  4.553853448424044E-014
  4.601180085022753E-014
  4.684263309902851E-014
  4.726507338101814E-014
  4.748119670096205E-014
  4.746500184069972E-014
  4.752645514889990E-014
  4.771397325079647E-014
  4.780121290076097E-014
  0.000000000000000E+000
  7.719120890631071E-015
  1.349171220761768E-014
  1.743280145524903E-014
  2.177516574828646E-014
  2.663008466634128E-014
  2.998702454947937E-014
  3.222168077053371E-014
  3.532984511338015E-014
  3.799346654596949E-014
  3.829169335645064E-014
  3.956572751058466E-014
  4.089029310286624E-014
  4.227397083125207E-014
  4.381310896784874E-014
  4.413270439073943E-014
  4.476558874958086E-014
  4.584295418673068E-014
  4.637333552803229E-014
  4.676039401685317E-014
  4.706734938541625E-014
  4.711510493507879E-014
  4.723668088491217E-014
  4.744563135101560E-014
  4.753309222865398E-014
  0.000000000000000E+000
  5.457624936595683E-015
  1.012292393562047E-014
  1.435030881506000E-014
  1.914210138438619E-014
  2.376768294863312E-014
  2.742429839591101E-014
  3.013748034698719E-014
  3.242954377549252E-014
  3.510591674000194E-014
  3.658886942224525E-014
  3.801801273325417E-014
  3.986294788691665E-014
  4.163187100280933E-014
  4.260454144148554E-014
  4.306815553919584E-014
  4.397347342599239E-014
  4.513320457798235E-014
  4.558890185849703E-014
  4.612696005779374E-014
  4.655682348487227E-014
  4.666826820509913E-014
  4.686523124736135E-014
  4.706984699322629E-014
  4.715233794277233E-014
  0.000000000000000E+000
  5.093226161542851E-015
  8.916488747621364E-015
  1.311550795020497E-014
  1.858057552468376E-014
  2.279164389611968E-014
  2.572232215032913E-014
  2.801765209661595E-014
  3.085380454499022E-014
  3.301672318145345E-014
  3.492539432726707E-014
  3.693535832862620E-014
  3.875576788542979E-014
  4.022485707536741E-014
  4.134569499077637E-014
  4.243649657530258E-014
  4.342978230091821E-014
  4.414932452311969E-014
  4.469274777725514E-014
  4.519686864806313E-014
  4.567654101799033E-014
  4.606812806223730E-014
  4.637147622250841E-014
  4.660419393294983E-014
  4.670655881667710E-014
  0.000000000000000E+000
  3.682672134263900E-015
  7.378629754000668E-015
  1.159664491452468E-014
  1.605077097431037E-014
  1.985571311488237E-014
  2.333551112529353E-014
  2.588444762046603E-014
  2.941664496930665E-014
  3.200254773149918E-014
  3.391150573134727E-014
  3.569876583511505E-014
  3.789695141926936E-014
  3.900327988330050E-014
  4.036036185382397E-014
  4.171548375149776E-014
  4.248282914294029E-014
  4.315639789683548E-014
  4.390426150367953E-014
  4.459583735867107E-014
  4.495543833271819E-014
  4.534210279727873E-014
  4.573044230508785E-014
  4.601232644326424E-014
  4.611061594816218E-014
  0.000000000000000E+000
  3.441112952411757E-015
  6.961500381975627E-015
  1.019445041748614E-014
  1.346973264015698E-014
  1.719040481237574E-014
  2.164395429783500E-014
  2.513753591077293E-014
  2.824705538183916E-014
  3.116873551541582E-014
  3.370650944125215E-014
  3.526449405531051E-014
  3.690605824471439E-014
  3.826384584610575E-014
  3.976369253460764E-014
  4.065818599317624E-014
  4.088727693785724E-014
  4.185538762949668E-014
  4.307146863019443E-014
  4.381093027859370E-014
  4.431988424148748E-014
  4.469624242951884E-014
  4.506305392683969E-014
  4.528876415962795E-014
  4.535473529313244E-014
  0.000000000000000E+000
  3.618896504439983E-015
  6.961741954950503E-015
  1.021325700842078E-014
  1.334916762715117E-014
  1.668030056178373E-014
  2.081710865185963E-014
  2.496266733557544E-014
  2.825393729973381E-014
  3.117023027224937E-014
  3.341061392098125E-014
  3.501326840426203E-014
  3.590006645662241E-014
  3.756085381552190E-014
  3.884110592670202E-014
  3.912159165579098E-014
  3.972131362288438E-014
  4.085159745341401E-014
  4.200725014949751E-014
  4.291678677189100E-014
  4.356954850283157E-014
  4.400730111564848E-014
  4.431058332726623E-014
  4.446910329988439E-014
  4.452234969392926E-014
  0.000000000000000E+000
  3.304932407219983E-015
  6.322367593692442E-015
  9.712718050957972E-015
  1.283285320082686E-014
  1.590467558801262E-014
  1.918073561898042E-014
  2.302026369035490E-014
  2.721089199646690E-014
  3.036250902209811E-014
  3.253553484990881E-014
  3.352072948996165E-014
  3.456338387550437E-014
  3.617311438155422E-014
  3.756443359538730E-014
  3.843776102112048E-014
  3.910223268382723E-014
  4.015835887379225E-014
  4.111710888963712E-014
  4.199613040155425E-014
  4.273945979114155E-014
  4.321740947771156E-014
  4.344774430713104E-014
  4.358309198883369E-014
  4.368532513164392E-014
  0.000000000000000E+000
  3.130321273803644E-015
  5.777201585620141E-015
  9.055516046290681E-015
  1.199742337582653E-014
  1.476681407434761E-014
  1.769932861055728E-014
  2.163577660707275E-014
  2.536186327916909E-014
  2.837171579148081E-014
  3.099562962315149E-014
  3.228700065449498E-014
  3.372959625654087E-014
  3.491702869328529E-014
  3.627327641572251E-014
  3.739343850351420E-014
  3.835223776660467E-014
  3.934411090774626E-014
  4.016859812477923E-014
  4.109151060874465E-014
  4.182440778096670E-014
  4.227442524290209E-014
  4.260389874109480E-014
  4.274501218644867E-014
  4.275337237614562E-014
  0.000000000000000E+000
  2.828318163027082E-015
  5.868511798821129E-015
  8.651257004324705E-015
  1.141891523307995E-014
  1.460199603448976E-014
  1.765528389430482E-014
  2.054295397543725E-014
  2.410768767255666E-014
  2.713679653643656E-014
  2.983685574977174E-014
  3.201291127329717E-014
  3.303307975005120E-014
  3.411288363696102E-014
  3.506966679885356E-014
  3.616394936201402E-014
  3.725941490380447E-014
  3.819148934491000E-014
  3.898657714840663E-014
  3.989844189495143E-014
  4.054718757445444E-014
  4.115040488851123E-014
  4.155679961428102E-014
  4.160322474884059E-014
  4.160282798823867E-014
  0.000000000000000E+000
  2.717443244417284E-015
  5.341657824209255E-015
  8.340454776542952E-015
  1.109320008480134E-014
  1.437371908100854E-014
  1.702482260337780E-014
  1.936271130154099E-014
  2.259809350807787E-014
  2.605882849346851E-014
  2.833494765146642E-014
  3.048482021526153E-014
  3.192663951909977E-014
  3.298266839713425E-014
  3.386156460218831E-014
  3.514454628763148E-014
  3.616764195730677E-014
  3.685717474971201E-014
  3.767307504629873E-014
  3.845769446307685E-014
  3.903355756100650E-014
  3.967275464897244E-014
  4.010808428546472E-014
  4.021772283273544E-014
  4.026381564209038E-014
  0.000000000000000E+000
  2.949443429514679E-015
  5.610400350594092E-015
  8.210324765432486E-015
  1.056559445658835E-014
  1.316219024861337E-014
  1.584460914052243E-014
  1.844770864197749E-014
  2.145420687203526E-014
  2.450665566597633E-014
  2.636725599535938E-014
  2.820351498554665E-014
  2.988512914143684E-014
  3.161481614961891E-014
  3.261466229302782E-014
  3.366354230783292E-014
  3.474003655022236E-014
  3.550782540596021E-014
  3.626049676855250E-014
  3.695988721486540E-014
  3.759873161762981E-014
  3.804716967761889E-014
  3.848581636117949E-014
  3.874669151308795E-014
  3.881330890105723E-014
  0.000000000000000E+000
  2.925373861357792E-015
  5.424266966648423E-015
  7.535723878892933E-015
  9.692874649950910E-015
  1.200959076619029E-014
  1.468635582137133E-014
  1.751418325263836E-014
  2.036624600195381E-014
  2.264936995839970E-014
  2.478526682547240E-014
  2.705492301309111E-014
  2.865998273879749E-014
  3.005117394298959E-014
  3.111582615791149E-014
  3.226173453966142E-014
  3.326308848151672E-014
  3.414191742224103E-014
  3.488904138581772E-014
  3.562712916666841E-014
  3.629332636331220E-014
  3.667963264292282E-014
  3.696914260804689E-014
  3.718739497982584E-014
  3.726187768526726E-014
  0.000000000000000E+000
  2.593355395877222E-015
  4.994235084266790E-015
  7.305454031394312E-015
  9.595626018726657E-015
  1.170681132219912E-014
  1.439724990387121E-014
  1.698087650322748E-014
  1.938653576747953E-014
  2.133312288622011E-014
  2.411721971393779E-014
  2.637974591647588E-014
  2.782273548946300E-014
  2.906219929611525E-014
  2.998572685410897E-014
  3.079640466087418E-014
  3.190079833601070E-014
  3.286133117509543E-014
  3.349340774620551E-014
  3.409810910433692E-014
  3.476188748767222E-014
  3.520261051090630E-014
  3.545570684145574E-014
  3.561531656405304E-014
  3.566174270774788E-014
  0.000000000000000E+000
  2.747250594434226E-015
  5.243575615532259E-015
  7.572459633618724E-015
  9.765126074323574E-015
  1.207063417667289E-014
  1.424020002432334E-014
  1.659438282612652E-014
  1.863698826734348E-014
  2.092511883529875E-014
  2.321685612435983E-014
  2.482098474169528E-014
  2.615186814745126E-014
  2.749695901152413E-014
  2.861841915397772E-014
  2.962248436896711E-014
  3.067306619561776E-014
  3.148568175572474E-014
  3.192374597495813E-014
  3.260472449855280E-014
  3.315875183626117E-014
  3.357649394586017E-014
  3.389046009540218E-014
  3.405433741049201E-014
  3.410634683097522E-014
  0.000000000000000E+000
  3.314584937826222E-015
  5.710694530043587E-015
  7.435927981350038E-015
  9.461256910774440E-015
  1.146227865945767E-014
  1.340916170661926E-014
  1.545636776427966E-014
  1.786544627898360E-014
  2.003590142069520E-014
  2.154080506275039E-014
  2.307455552082896E-014
  2.444497001192342E-014
  2.566446043359603E-014
  2.704068045491674E-014
  2.843412614603481E-014
  2.934834259662151E-014
  3.019518203999293E-014
  3.076359197981349E-014
  3.116330342079659E-014
  3.161659366660733E-014
  3.196552023307142E-014
  3.233506236568358E-014
  3.253407119363835E-014
  3.258799113168602E-014
  0.000000000000000E+000
  3.177833916503662E-015
  5.702845658521016E-015
  7.552711097799095E-015
  9.192715076194283E-015
  1.090831886619506E-014
  1.311197128280240E-014
  1.516795653278025E-014
  1.682642774482170E-014
  1.841324387918380E-014
  1.992667682887074E-014
  2.142290875229553E-014
  2.284602134045652E-014
  2.424531211868102E-014
  2.546908849090365E-014
  2.680131404549298E-014
  2.821670312108027E-014
  2.899781498503518E-014
  2.941820108516961E-014
  2.973691166875182E-014
  3.015624332592432E-014
  3.053771749205443E-014
  3.087102828049739E-014
  3.103299809729722E-014
  3.108393303290293E-014
  0.000000000000000E+000
  2.781341995060463E-015
  5.445409198461535E-015
  7.362019933131071E-015
  8.821932225691013E-015
  1.034772485558915E-014
  1.254249723595534E-014
  1.436608076455258E-014
  1.560461704190139E-014
  1.692592592394255E-014
  1.824030223245886E-014
  1.982604606859778E-014
  2.140392095919462E-014
  2.300457598451721E-014
  2.423344374622918E-014
  2.544274743014813E-014
  2.668183345958617E-014
  2.745306855098212E-014
  2.808619803461371E-014
  2.855205560917249E-014
  2.893038282579469E-014
  2.924267038394502E-014
  2.947587906313400E-014
  2.958888600871322E-014
  2.965577646958731E-014
  0.000000000000000E+000
  1.915317907738218E-015
  4.370593337776794E-015
  6.180809922910150E-015
  8.109789225792107E-015
  9.920744790822298E-015
  1.150169595182045E-014
  1.287234293987497E-014
  1.433180892004704E-014
  1.542488376685698E-014
  1.688703295431651E-014
  1.848178200745444E-014
  1.990914301777351E-014
  2.129925183438786E-014
  2.277307705533026E-014
  2.409443090349610E-014
  2.489162312388180E-014
  2.578460317171951E-014
  2.671060842357492E-014
  2.724270169383699E-014
  2.768187621627798E-014
  2.793787302280505E-014
  2.810870618958814E-014
  2.823549728883994E-014
  2.827545685030246E-014
  0.000000000000000E+000
  1.414904642766331E-015
  3.488802160736509E-015
  5.508772911543353E-015
  7.542927243167315E-015
  9.316584574741708E-015
  1.060031107906384E-014
  1.201329605247412E-014
  1.325117480491890E-014
  1.462218665658253E-014
  1.606177229241461E-014
  1.748740106897743E-014
  1.879307242234484E-014
  2.024592911620734E-014
  2.148881987826438E-014
  2.253965322075420E-014
  2.352850691611165E-014
  2.431355379143426E-014
  2.509276114211320E-014
  2.565346146001195E-014
  2.618159111648761E-014
  2.658995605071037E-014
  2.676511121298756E-014
  2.685965404137323E-014
  2.691634878438571E-014
  0.000000000000000E+000
  1.447662931386590E-015
  3.588942526340189E-015
  5.549697093064508E-015
  7.251053531919921E-015
  8.783341134235856E-015
  1.003369672563589E-014
  1.120723475745235E-014
  1.265774200501870E-014
  1.406594792634281E-014
  1.517924384090624E-014
  1.626820010892042E-014
  1.776958573416413E-014
  1.910489960943946E-014
  2.015717677739698E-014
  2.121085693061948E-014
  2.219802374820854E-014
  2.295587156727794E-014
  2.353594652490934E-014
  2.416026616018103E-014
  2.472796079531908E-014
  2.512135708054009E-014
  2.535177234360199E-014
  2.549599927765713E-014
  2.553590939635430E-014
  0.000000000000000E+000
  1.237792099424212E-015
  3.165921465903866E-015
  4.975886577427411E-015
  6.646658954416500E-015
  8.050195376893507E-015
  9.586115023033822E-015
  1.074057575627039E-014
  1.203367351081189E-014
  1.305087185904128E-014
  1.400516045076107E-014
  1.526836639794076E-014
  1.665459582164708E-014
  1.777432328539270E-014
  1.888188607894234E-014
  1.986826670187256E-014
  2.085956920868169E-014
  2.167547686221965E-014
  2.220580375890913E-014
  2.282739881645687E-014
  2.337507015084226E-014
  2.370650376690101E-014
  2.395879329816602E-014
  2.413771949285009E-014
  2.418159270050035E-014
  0.000000000000000E+000
  1.473215260135608E-015
  2.908978196741279E-015
  4.561525485102212E-015
  5.968804717252865E-015
  7.541850432511965E-015
  8.876778433970220E-015
  1.016715214372255E-014
  1.117508402086207E-014
  1.207828586504651E-014
  1.334694294474578E-014
  1.458618252023038E-014
  1.561273526062650E-014
  1.673530811285786E-014
  1.777707007631889E-014
  1.886122353787240E-014
  1.968088216690618E-014
  2.042773160319836E-014
  2.104544416194254E-014
  2.167142641891293E-014
  2.207741595586718E-014
  2.239204632732925E-014
  2.262062632666819E-014
  2.275884223754953E-014
  2.281849335191568E-014
  0.000000000000000E+000
  1.476660109102511E-015
  2.973303212613129E-015
  4.383298742132880E-015
  5.809174266091098E-015
  7.078629566965421E-015
  8.219176080837881E-015
  9.401239602890619E-015
  1.046015226159471E-014
  1.149243490465515E-014
  1.267564009523518E-014
  1.369406372358099E-014
  1.476975032305101E-014
  1.591865254157681E-014
  1.701544330489819E-014
  1.792086869835479E-014
  1.844444685242456E-014
  1.902400869481844E-014
  1.974534125575994E-014
  2.039687493299169E-014
  2.080031465107242E-014
  2.110448174741245E-014
  2.132080512075665E-014
  2.144925205522316E-014
  2.149280390125276E-014
  0.000000000000000E+000
  1.444087663335643E-015
  2.763523555185325E-015
  4.150064191272652E-015
  5.600410210805232E-015
  6.695608771745859E-015
  7.888185537864546E-015
  8.826539763688682E-015
  9.804975904829700E-015
  1.082147530122607E-014
  1.177976379534297E-014
  1.277691843674196E-014
  1.409493693615596E-014
  1.505652274433220E-014
  1.602097668447129E-014
  1.669198996498141E-014
  1.731048434830113E-014
  1.793491822681362E-014
  1.872077429669842E-014
  1.921090516412615E-014
  1.954360518928520E-014
  1.986199917762403E-014
  2.009801650979371E-014
  2.021195018733765E-014
  2.024871399332159E-014
  0.000000000000000E+000
  1.318265653903907E-015
  2.449056726211489E-015
  4.079961371918149E-015
  5.230075137340031E-015
  6.414068525076562E-015
  7.555934568085655E-015
  8.419295271696468E-015
  9.298636859528718E-015
  1.015098020408118E-014
  1.110317418106397E-014
  1.211210014896975E-014
  1.320894925427661E-014
  1.414696927916564E-014
  1.489726802943501E-014
  1.571458638619950E-014
  1.630585412973739E-014
  1.702143362458787E-014
  1.766893463768298E-014
  1.809086215911710E-014
  1.842644243401706E-014
  1.870102131803904E-014
  1.892377412840647E-014
  1.905991332565961E-014
  1.909737624550357E-014
  0.000000000000000E+000
  1.146252124926756E-015
  2.403497478683258E-015
  3.710838326814758E-015
  4.698970714641691E-015
  5.974237279133529E-015
  7.094235438211140E-015
  8.071387257686694E-015
  8.820879782686117E-015
  9.618122169484509E-015
  1.041195362317473E-014
  1.125956394849630E-014
  1.221702571329340E-014
  1.320646847419200E-014
  1.406710062542981E-014
  1.474098633237126E-014
  1.531427793959378E-014
  1.596598786410678E-014
  1.654635818323931E-014
  1.699020353721708E-014
  1.737162631489668E-014
  1.760432839227784E-014
  1.779866200954652E-014
  1.792701906380638E-014
  1.797420034745938E-014
  0.000000000000000E+000
  1.114983647544170E-015
  2.217664055200091E-015
  3.263721412328804E-015
  4.454991416301279E-015
  5.586168121705655E-015
  6.601788360895444E-015
  7.424401970659358E-015
  8.271444494732968E-015
  9.055297282476772E-015
  9.905411042951105E-015
  1.066899193754461E-014
  1.148865169327039E-014
  1.237561639913221E-014
  1.344588624691660E-014
  1.398689129477485E-014
  1.449732024124103E-014
  1.495685009765881E-014
  1.550135885455496E-014
  1.594689852945315E-014
  1.627327783435730E-014
  1.652519186634559E-014
  1.671459255548905E-014
  1.681533313139095E-014
  1.686502480820639E-014
  0.000000000000000E+000
  1.035259775074049E-015
  1.980079113849097E-015
  2.858236403576592E-015
  4.028445707927368E-015
  5.007686767788474E-015
  5.987597916577514E-015
  6.974007259838558E-015
  7.714214165419424E-015
  8.566712382394247E-015
  9.560044040696803E-015
  1.029609783120226E-014
  1.101646070524071E-014
  1.171729731752480E-014
  1.248368756776315E-014
  1.324374662110559E-014
  1.375560911243147E-014
  1.418051260436443E-014
  1.459528183219428E-014
  1.496795026977426E-014
  1.527139754640390E-014
  1.551560354424067E-014
  1.570790914514493E-014
  1.582568881739838E-014
  1.585379492960312E-014
  0.000000000000000E+000
  9.284599423060135E-016
  1.899844265497429E-015
  2.783747194189291E-015
  3.584662798244012E-015
  4.520354063097565E-015
  5.407482402373989E-015
  6.315421618183644E-015
  7.160343125215233E-015
  8.019000840809176E-015
  8.909481003170895E-015
  9.640585373867237E-015
  1.034516379757405E-014
  1.107184958012695E-014
  1.157172925084626E-014
  1.226097379765441E-014
  1.285455966527580E-014
  1.334796576869457E-014
  1.373786428597043E-014
  1.405519619261075E-014
  1.433779713603002E-014
  1.457513285652178E-014
  1.475810240087122E-014
  1.487450061625663E-014
  1.491148691058326E-014
  0.000000000000000E+000
  8.003390149309946E-016
  1.907963770846420E-015
  2.729268947761165E-015
  3.391861381215910E-015
  4.346238163290805E-015
  5.222154897050641E-015
  5.851071848401322E-015
  6.720848246573471E-015
  7.503201772303784E-015
  8.256639037630574E-015
  9.006237352631004E-015
  9.706950747760118E-015
  1.034096979269790E-014
  1.090462555079340E-014
  1.148553185550537E-014
  1.203754384872433E-014
  1.250762525548917E-014
  1.288542389346938E-014
  1.320126798010075E-014
  1.346715367302336E-014
  1.369173424497989E-014
  1.387201822769473E-014
  1.396548952409805E-014
  1.399209920721420E-014
  0.000000000000000E+000
  7.525634678704485E-016
  1.779085513501131E-015
  2.555810672755377E-015
  3.375450920332973E-015
  4.131447762167847E-015
  4.885096061313999E-015
  5.674049470843400E-015
  6.458126067883973E-015
  7.065494221058322E-015
  7.715693046936154E-015
  8.420950584090357E-015
  9.099284504226354E-015
  9.805751057394083E-015
  1.038386124599335E-014
  1.087276976570345E-014
  1.134208491727982E-014
  1.175055796537425E-014
  1.209863140046485E-014
  1.239360248110443E-014
  1.264807794645560E-014
  1.285878157590501E-014
  1.301013424172059E-014
  1.311845961244122E-014
  1.314190283684396E-014
  0.000000000000000E+000
  5.842510512650298E-016
  1.519046006796415E-015
  2.510895681218353E-015
  3.323588942371814E-015
  3.985278866410345E-015
  4.492413960797998E-015
  5.312790674567010E-015
  5.997461314580991E-015
  6.579651548616863E-015
  7.223572784071925E-015
  7.928017104113904E-015
  8.587684907322453E-015
  9.221542246745004E-015
  9.802934587711985E-015
  1.037078763879791E-014
  1.069932749228886E-014
  1.104421050278275E-014
  1.137138788924076E-014
  1.164940016077020E-014
  1.188817028246552E-014
  1.210283886698982E-014
  1.225011860977243E-014
  1.233460136956805E-014
  1.236280875484871E-014
  0.000000000000000E+000
  5.820073998228900E-016
  1.229690841708527E-015
  2.194499712710179E-015
  2.969273656684986E-015
  3.617634899600206E-015
  4.240465280711236E-015
  4.781844103931587E-015
  5.336398822817978E-015
  5.948374979129627E-015
  6.682887396940547E-015
  7.332600461913957E-015
  8.035627568402586E-015
  8.615744517535224E-015
  9.194794388740496E-015
  9.753904337042289E-015
  1.006668596881584E-014
  1.035342012425645E-014
  1.069422689709843E-014
  1.095269504497653E-014
  1.119465488688759E-014
  1.139460667361958E-014
  1.154175126534824E-014
  1.162246715568000E-014
  1.163761923432905E-014
  0.000000000000000E+000
  5.194816165190230E-016
  1.146953330816952E-015
  1.830987747959699E-015
  2.548708628453834E-015
  3.133228514353961E-015
  3.810046826252937E-015
  4.361518127467519E-015
  4.756176063260095E-015
  5.395047947605675E-015
  6.125775577500148E-015
  6.775242407421291E-015
  7.429123918113180E-015
  8.042075178109597E-015
  8.659596753318706E-015
  9.121534832317170E-015
  9.489432015812924E-015
  9.806771586369836E-015
  1.010363035868773E-014
  1.035005419171615E-014
  1.057734052307618E-014
  1.073564130809726E-014
  1.086330642751733E-014
  1.094545472895392E-014
  1.097458238198082E-014
  0.000000000000000E+000
  4.532915815483775E-016
  9.976843063309508E-016
  1.462080265710707E-015
  2.101153529768459E-015
  2.767665878501706E-015
  3.385999640683527E-015
  3.964256458688780E-015
  4.402862406759171E-015
  5.051597377796396E-015
  5.715842370127378E-015
  6.324070462518551E-015
  6.904553585524743E-015
  7.529225294029047E-015
  8.148258557018349E-015
  8.592366094952981E-015
  8.925146868953132E-015
  9.293537308441280E-015
  9.557429232263587E-015
  9.796776270558963E-015
  9.959896005256380E-015
  1.012828028100241E-014
  1.025632010571466E-014
  1.033837021228261E-014
  1.036906188740168E-014
  0.000000000000000E+000
  3.158835503736520E-016
  7.110390078432227E-016
  1.275030480921169E-015
  1.949860901655753E-015
  2.484341843731521E-015
  3.026134664974936E-015
  3.598447300983229E-015
  4.165311971692730E-015
  4.756800213524378E-015
  5.359623122804662E-015
  5.947048394961447E-015
  6.548763457641779E-015
  7.123581099307482E-015
  7.695892132023857E-015
  8.092586034830836E-015
  8.421065092198018E-015
  8.728997241380960E-015
  9.035866997131987E-015
  9.267270940477211E-015
  9.421476262147257E-015
  9.591236064019641E-015
  9.728064381265034E-015
  9.799302410408790E-015
  9.820480043126101E-015
  0.000000000000000E+000
  2.975418351937782E-016
  7.101833354386272E-016
  1.320020402978473E-015
  1.887767417085489E-015
  2.387828863588493E-015
  2.899715681551008E-015
  3.346091926154953E-015
  3.952637462803452E-015
  4.505865059767931E-015
  5.056303929736660E-015
  5.626924777840522E-015
  6.222764467208362E-015
  6.741783264348032E-015
  7.211595044233747E-015
  7.619388037106467E-015
  8.000910019707652E-015
  8.232835735738093E-015
  8.484992907787871E-015
  8.762786026255972E-015
  8.978921375942552E-015
  9.134406057890583E-015
  9.244203783938346E-015
  9.312362441039024E-015
  9.335897866394446E-015
  0.000000000000000E+000
  4.074402185086454E-016
  8.680357908633903E-016
  1.250564878958126E-015
  1.822593350096297E-015
  2.384759524924970E-015
  2.833609345330516E-015
  3.282644675498902E-015
  3.807793952624115E-015
  4.289673985718666E-015
  4.781804606980332E-015
  5.336457680510417E-015
  5.861826985622712E-015
  6.331100826146267E-015
  6.831064239999899E-015
  7.245476118771604E-015
  7.524900715005018E-015
  7.797910920783512E-015
  7.999935891348385E-015
  8.289703894608658E-015
  8.545766820494645E-015
  8.722045996244521E-015
  8.815419235711481E-015
  8.877987802891721E-015
  8.905602319619780E-015
  0.000000000000000E+000
  4.615841548087592E-016
  9.195578870741728E-016
  1.312914814534660E-015
  1.932153745347569E-015
  2.444710982221341E-015
  2.871961813810760E-015
  3.340101488342904E-015
  3.796666396659591E-015
  4.186655195090311E-015
  4.627797805203265E-015
  5.067475324126803E-015
  5.592851402302021E-015
  6.051731879328849E-015
  6.501285535945025E-015
  6.851682864058932E-015
  7.097770045695730E-015
  7.362299288678431E-015
  7.656723484922043E-015
  7.906467356511646E-015
  8.144499848877162E-015
  8.328715077381922E-015
  8.438620983640516E-015
  8.499332207849042E-015
  8.525054501041036E-015
  0.000000000000000E+000
  4.854423371185150E-016
  9.603417192795842E-016
  1.474773179890382E-015
  1.988112091481689E-015
  2.463692993211049E-015
  2.876180135202754E-015
  3.341230752508852E-015
  3.746400279569857E-015
  4.184141451521495E-015
  4.560091572405255E-015
  4.951516167330535E-015
  5.396793164063969E-015
  5.826267551880307E-015
  6.234943118983659E-015
  6.528775443963508E-015
  6.778244936448205E-015
  7.037282206633412E-015
  7.342441175506584E-015
  7.585819041985475E-015
  7.775842814919780E-015
  7.968885514365329E-015
  8.095812935549699E-015
  8.172579246534289E-015
  8.199662196427482E-015
  0.000000000000000E+000
  5.136725665230818E-016
  1.008420984721738E-015
  1.546335103460840E-015
  2.059023556861801E-015
  2.496690287068291E-015
  2.913915775444325E-015
  3.270378088995516E-015
  3.687625313437732E-015
  4.151336337345793E-015
  4.527222886519155E-015
  4.908102951476890E-015
  5.269628069293060E-015
  5.638721900436451E-015
  5.970955529362662E-015
  6.281846939381650E-015
  6.533401064309186E-015
  6.805353927263173E-015
  7.097005217608222E-015
  7.344426800006757E-015
  7.521551200730085E-015
  7.698863277488574E-015
  7.829865346299684E-015
  7.909657383203939E-015
  7.932569934782749E-015
  0.000000000000000E+000
  5.334757387441399E-016
  1.072330067217352E-015
  1.567431922438014E-015
  2.033001366393942E-015
  2.522908573995992E-015
  2.891554005119169E-015
  3.247071570414590E-015
  3.655387384242061E-015
  4.046488589939091E-015
  4.468989043452356E-015
  4.827032746705316E-015
  5.168184534344768E-015
  5.482802935392873E-015
  5.792542035440497E-015
  6.089893444205507E-015
  6.363319347070563E-015
  6.622080224608042E-015
  6.907620324317422E-015
  7.151649651196211E-015
  7.343204755936485E-015
  7.502228790315783E-015
  7.623009648611632E-015
  7.694890137494549E-015
  7.716429218364373E-015
  0.000000000000000E+000
  5.535428620202283E-016
  1.071119688384966E-015
  1.549594999615168E-015
  2.008010406971990E-015
  2.474550614875228E-015
  2.874202913778914E-015
  3.237199337002520E-015
  3.591286006156997E-015
  3.975557740072617E-015
  4.346591009875981E-015
  4.706072558775571E-015
  5.072925979919640E-015
  5.413788708548947E-015
  5.708621616258425E-015
  5.994971263264266E-015
  6.268815751481289E-015
  6.525196498504725E-015
  6.776835709830170E-015
  7.001738008893281E-015
  7.197012831537949E-015
  7.358060291871218E-015
  7.464680300803916E-015
  7.530061845087883E-015
  7.550296392060071E-015
  0.000000000000000E+000
  4.970461157803633E-016
  1.011101111289990E-015
  1.545482466320443E-015
  2.027770324938499E-015
  2.460486509060544E-015
  2.884754507268874E-015
  3.211128908990693E-015
  3.549562781265262E-015
  3.907187591441069E-015
  4.269681962851754E-015
  4.638275501427219E-015
  5.021175883815043E-015
  5.354118517397395E-015
  5.663125364250643E-015
  5.930563632485668E-015
  6.210650212904434E-015
  6.468398147636220E-015
  6.708390591888623E-015
  6.911602929280004E-015
  7.092707116446059E-015
  7.238446625809583E-015
  7.348816750214327E-015
  7.412866982255330E-015
  7.430904740523612E-015
  0.000000000000000E+000
  4.681202410442769E-016
  9.989248425711251E-016
  1.533973685585116E-015
  2.005706152166642E-015
  2.466229641752452E-015
  2.861759447564881E-015
  3.168623653007701E-015
  3.495663861403396E-015
  3.866645151159106E-015
  4.229123964650963E-015
  4.598461216675047E-015
  4.956934677380463E-015
  5.297278252272898E-015
  5.606103169230556E-015
  5.918114267194709E-015
  6.199046797081626E-015
  6.443698558352810E-015
  6.670193791137776E-015
  6.867261158024552E-015
  7.029243163004688E-015
  7.171034622147140E-015
  7.281465425982757E-015
  7.342195573951315E-015
  7.355521716842142E-015
  0.000000000000000E+000
  4.754322825154529E-016
  1.012780252054054E-015
  1.524465893812260E-015
  1.978922655178055E-015
  2.458889975076400E-015
  2.820071561134110E-015
  3.116101379294159E-015
  3.480715627664447E-015
  3.843794680000259E-015
  4.193972104949500E-015
  4.576884146532075E-015
  4.926969971599963E-015
  5.265802528970010E-015
  5.606126736454573E-015
  5.911470391099374E-015
  6.198734570386733E-015
  6.434087522395151E-015
  6.655499144598872E-015
  6.865028332353073E-015
  7.018421613418030E-015
  7.147810042358091E-015
  7.260165642928322E-015
  7.320913774205986E-015
  7.329229567529648E-015
VECTORS u double 
    0.00000E+00        -0.74038E+00         0.00000E+00
    0.00000E+00        -0.69738E+00         0.00000E+00
    0.00000E+00        -0.63656E+00         0.00000E+00
    0.00000E+00        -0.56776E+00         0.00000E+00
    0.00000E+00        -0.49934E+00         0.00000E+00
    0.00000E+00        -0.43603E+00         0.00000E+00
    0.00000E+00        -0.37960E+00         0.00000E+00
    0.00000E+00        -0.33016E+00         0.00000E+00
    0.00000E+00        -0.28690E+00         0.00000E+00
    0.00000E+00        -0.24878E+00         0.00000E+00
    0.00000E+00        -0.21497E+00         0.00000E+00
    0.00000E+00        -0.18479E+00         0.00000E+00
    0.00000E+00        -0.15783E+00         0.00000E+00
    0.00000E+00        -0.13385E+00         0.00000E+00
    0.00000E+00        -0.11263E+00         0.00000E+00
    0.00000E+00        -0.93929E-01         0.00000E+00
    0.00000E+00        -0.77457E-01         0.00000E+00
    0.00000E+00        -0.63022E-01         0.00000E+00
    0.00000E+00        -0.50422E-01         0.00000E+00
    0.00000E+00        -0.39388E-01         0.00000E+00
    0.00000E+00        -0.29678E-01         0.00000E+00
    0.00000E+00        -0.20974E-01         0.00000E+00
    0.00000E+00        -0.13148E-01         0.00000E+00
    0.00000E+00        -0.61552E-02         0.00000E+00
    0.00000E+00         0.00000E+00         0.00000E+00
   -0.11925E-01        -0.71830E+00         0.00000E+00
    0.31925E-01        -0.67387E+00         0.00000E+00
    0.58397E-01        -0.61143E+00         0.00000E+00
    0.67910E-01        -0.54480E+00         0.00000E+00
    0.66625E-01        -0.48054E+00         0.00000E+00
    0.60326E-01        -0.42140E+00         0.00000E+00
    0.52458E-01        -0.36838E+00         0.00000E+00
    0.44965E-01        -0.32142E+00         0.00000E+00
    0.38755E-01        -0.27994E+00         0.00000E+00
    0.33730E-01        -0.24319E+00         0.00000E+00
    0.29590E-01        -0.21045E+00         0.00000E+00
    0.26019E-01        -0.18119E+00         0.00000E+00
    0.22680E-01        -0.15506E+00         0.00000E+00
    0.19545E-01        -0.13175E+00         0.00000E+00
    0.16625E-01        -0.11106E+00         0.00000E+00
    0.13959E-01        -0.92779E-01         0.00000E+00
    0.11635E-01        -0.76672E-01         0.00000E+00
    0.93747E-02        -0.62523E-01         0.00000E+00
    0.75053E-02        -0.50094E-01         0.00000E+00
    0.59269E-02        -0.39176E-01         0.00000E+00
    0.46030E-02        -0.29541E-01         0.00000E+00
    0.34224E-02        -0.20887E-01         0.00000E+00
    0.23010E-02        -0.13098E-01         0.00000E+00
    0.11759E-02        -0.61340E-02         0.00000E+00
    0.00000E+00         0.00000E+00         0.00000E+00
   -0.19420E-01        -0.64387E+00         0.00000E+00
    0.77748E-01        -0.59159E+00         0.00000E+00
    0.11874E+00        -0.53173E+00         0.00000E+00
    0.12992E+00        -0.47681E+00         0.00000E+00
    0.12565E+00        -0.42610E+00         0.00000E+00
    0.11398E+00        -0.37915E+00         0.00000E+00
    0.10005E+00        -0.33579E+00         0.00000E+00
    0.86582E-01        -0.29599E+00         0.00000E+00
    0.74844E-01        -0.25977E+00         0.00000E+00
    0.65246E-01        -0.22702E+00         0.00000E+00
    0.57157E-01        -0.19752E+00         0.00000E+00
    0.50083E-01        -0.17100E+00         0.00000E+00
    0.43691E-01        -0.14717E+00         0.00000E+00
    0.37702E-01        -0.12579E+00         0.00000E+00
    0.32110E-01        -0.10667E+00         0.00000E+00
    0.27036E-01        -0.89604E-01         0.00000E+00
    0.22388E-01        -0.74462E-01         0.00000E+00
    0.18250E-01        -0.61050E-01         0.00000E+00
    0.14683E-01        -0.49122E-01         0.00000E+00
    0.11650E-01        -0.38541E-01         0.00000E+00
    0.90841E-02        -0.29127E-01         0.00000E+00
    0.67691E-02        -0.20620E-01         0.00000E+00
    0.45566E-02        -0.12944E-01         0.00000E+00
    0.23305E-02        -0.60686E-02         0.00000E+00
    0.00000E+00         0.00000E+00         0.00000E+00
    0.38451E-02        -0.45364E+00         0.00000E+00
    0.13256E+00        -0.41413E+00         0.00000E+00
    0.16851E+00        -0.39158E+00         0.00000E+00
    0.17702E+00        -0.36797E+00         0.00000E+00
    0.17021E+00        -0.34200E+00         0.00000E+00
    0.15584E+00        -0.31394E+00         0.00000E+00
    0.13869E+00        -0.28493E+00         0.00000E+00
    0.12157E+00        -0.25608E+00         0.00000E+00
    0.10588E+00        -0.22830E+00         0.00000E+00
    0.92287E-01        -0.20216E+00         0.00000E+00
    0.80776E-01        -0.17797E+00         0.00000E+00
    0.70699E-01        -0.15580E+00         0.00000E+00
    0.61590E-01        -0.13554E+00         0.00000E+00
    0.53222E-01        -0.11704E+00         0.00000E+00
    0.45499E-01        -0.10019E+00         0.00000E+00
    0.38434E-01        -0.84907E-01         0.00000E+00
    0.31888E-01        -0.71146E-01         0.00000E+00
    0.26196E-01        -0.58743E-01         0.00000E+00
    0.21270E-01        -0.47557E-01         0.00000E+00
    0.16988E-01        -0.37488E-01         0.00000E+00
    0.13332E-01        -0.28409E-01         0.00000E+00
    0.99657E-02        -0.20152E-01         0.00000E+00
    0.67186E-02        -0.12675E-01         0.00000E+00
    0.34403E-02        -0.59546E-02         0.00000E+00
    0.00000E+00         0.00000E+00         0.00000E+00
    0.80675E-01        -0.18150E+00         0.00000E+00
    0.15826E+00        -0.18853E+00         0.00000E+00
    0.19402E+00        -0.21211E+00         0.00000E+00
    0.20258E+00        -0.22768E+00         0.00000E+00
    0.19717E+00        -0.23275E+00         0.00000E+00
    0.18316E+00        -0.22932E+00         0.00000E+00
    0.16538E+00        -0.21961E+00         0.00000E+00
    0.14675E+00        -0.20577E+00         0.00000E+00
    0.12892E+00        -0.18958E+00         0.00000E+00
    0.11277E+00        -0.17236E+00         0.00000E+00
    0.98696E-01        -0.15503E+00         0.00000E+00
    0.86483E-01        -0.13813E+00         0.00000E+00
    0.75575E-01        -0.12199E+00         0.00000E+00
    0.65577E-01        -0.10674E+00         0.00000E+00
    0.56311E-01        -0.92468E-01         0.00000E+00
    0.47708E-01        -0.79240E-01         0.00000E+00
    0.39858E-01        -0.67018E-01         0.00000E+00
    0.33027E-01        -0.55738E-01         0.00000E+00
    0.27073E-01        -0.45421E-01         0.00000E+00
    0.21866E-01        -0.35989E-01         0.00000E+00
    0.17250E-01        -0.27359E-01         0.00000E+00
    0.12936E-01        -0.19466E-01         0.00000E+00
    0.87351E-02        -0.12281E-01         0.00000E+00
    0.44784E-02        -0.57884E-02         0.00000E+00
    0.00000E+00         0.00000E+00         0.00000E+00
    0.92168E-01        -0.11804E+00         0.00000E+00
    0.14336E+00        -0.11560E+00         0.00000E+00
    0.17887E+00        -0.12419E+00         0.00000E+00
    0.19539E+00        -0.14062E+00         0.00000E+00
    0.19702E+00        -0.15455E+00         0.00000E+00
    0.18868E+00        -0.16273E+00         0.00000E+00
    0.17473E+00        -0.16463E+00         0.00000E+00
    0.15828E+00        -0.16125E+00         0.00000E+00
    0.14136E+00        -0.15395E+00         0.00000E+00
    0.12515E+00        -0.14405E+00         0.00000E+00
    0.11040E+00        -0.13261E+00         0.00000E+00
    0.97254E-01        -0.12045E+00         0.00000E+00
    0.85469E-01        -0.10811E+00         0.00000E+00
    0.74649E-01        -0.95945E-01         0.00000E+00
    0.64510E-01        -0.84178E-01         0.00000E+00
    0.55047E-01        -0.72917E-01         0.00000E+00
    0.46473E-01        -0.62194E-01         0.00000E+00
    0.38771E-01        -0.52101E-01         0.00000E+00
    0.32050E-01        -0.42700E-01         0.00000E+00
    0.26186E-01        -0.34009E-01         0.00000E+00
    0.20750E-01        -0.25976E-01         0.00000E+00
    0.15604E-01        -0.18564E-01         0.00000E+00
    0.10554E-01        -0.11764E-01         0.00000E+00
    0.54170E-02        -0.55710E-02         0.00000E+00
    0.00000E+00         0.00000E+00         0.00000E+00
    0.10367E+00        -0.77413E-01         0.00000E+00
    0.13560E+00        -0.77012E-01         0.00000E+00
    0.16290E+00        -0.80395E-01         0.00000E+00
    0.17968E+00        -0.89569E-01         0.00000E+00
    0.18584E+00        -0.10170E+00         0.00000E+00
    0.18286E+00        -0.11230E+00         0.00000E+00
    0.17371E+00        -0.11922E+00         0.00000E+00
    0.16086E+00        -0.12191E+00         0.00000E+00
    0.14639E+00        -0.12074E+00         0.00000E+00
    0.13158E+00        -0.11650E+00         0.00000E+00
    0.11741E+00        -0.11002E+00         0.00000E+00
    0.10434E+00        -0.10207E+00         0.00000E+00
    0.92347E-01        -0.93295E-01         0.00000E+00
    0.81176E-01        -0.84118E-01         0.00000E+00
    0.70727E-01        -0.74800E-01         0.00000E+00
    0.60978E-01        -0.65498E-01         0.00000E+00
    0.51972E-01        -0.56395E-01         0.00000E+00
    0.43709E-01        -0.47652E-01         0.00000E+00
    0.36306E-01        -0.39381E-01         0.00000E+00
    0.29829E-01        -0.31614E-01         0.00000E+00
    0.23750E-01        -0.24311E-01         0.00000E+00
    0.17904E-01        -0.17483E-01         0.00000E+00
    0.12130E-01        -0.11145E-01         0.00000E+00
    0.62316E-02        -0.53100E-02         0.00000E+00
    0.00000E+00         0.00000E+00         0.00000E+00
    0.10951E+00        -0.52917E-01         0.00000E+00
    0.13113E+00        -0.52779E-01         0.00000E+00
    0.15095E+00        -0.55413E-01         0.00000E+00
    0.16498E+00        -0.60333E-01         0.00000E+00
    0.17192E+00        -0.68624E-01         0.00000E+00
    0.17198E+00        -0.77865E-01         0.00000E+00
    0.16662E+00        -0.85533E-01         0.00000E+00
    0.15730E+00        -0.90603E-01         0.00000E+00
    0.14573E+00        -0.92726E-01         0.00000E+00
    0.13303E+00        -0.92141E-01         0.00000E+00
    0.12021E+00        -0.89287E-01         0.00000E+00
    0.10791E+00        -0.84685E-01         0.00000E+00
    0.96329E-01        -0.78855E-01         0.00000E+00
    0.85415E-01        -0.72222E-01         0.00000E+00
    0.75093E-01        -0.65091E-01         0.00000E+00
    0.65311E-01        -0.57712E-01         0.00000E+00
    0.56107E-01        -0.50280E-01         0.00000E+00
    0.47532E-01        -0.42970E-01         0.00000E+00
    0.39752E-01        -0.35843E-01         0.00000E+00
    0.32784E-01        -0.29006E-01         0.00000E+00
    0.26189E-01        -0.22485E-01         0.00000E+00
    0.19798E-01        -0.16291E-01         0.00000E+00
    0.13435E-01        -0.10458E-01         0.00000E+00
    0.69065E-02        -0.50191E-02         0.00000E+00
    0.00000E+00         0.00000E+00         0.00000E+00
    0.11247E+00        -0.36648E-01         0.00000E+00
    0.12741E+00        -0.37095E-01         0.00000E+00
    0.14203E+00        -0.39636E-01         0.00000E+00
    0.15296E+00        -0.43102E-01         0.00000E+00
    0.15898E+00        -0.48467E-01         0.00000E+00
    0.16021E+00        -0.55259E-01         0.00000E+00
    0.15707E+00        -0.62050E-01         0.00000E+00
    0.15043E+00        -0.67456E-01         0.00000E+00
    0.14143E+00        -0.70870E-01         0.00000E+00
    0.13092E+00        -0.72198E-01         0.00000E+00
    0.11979E+00        -0.71565E-01         0.00000E+00
    0.10870E+00        -0.69256E-01         0.00000E+00
    0.97973E-01        -0.65626E-01         0.00000E+00
    0.87621E-01        -0.61053E-01         0.00000E+00
    0.77652E-01        -0.55833E-01         0.00000E+00
    0.68081E-01        -0.50184E-01         0.00000E+00
    0.58901E-01        -0.44309E-01         0.00000E+00
    0.50296E-01        -0.38300E-01         0.00000E+00
    0.42348E-01        -0.32309E-01         0.00000E+00
    0.35028E-01        -0.26411E-01         0.00000E+00
    0.28076E-01        -0.20641E-01         0.00000E+00
    0.21280E-01        -0.15068E-01         0.00000E+00
    0.14463E-01        -0.97461E-02         0.00000E+00
    0.74375E-02        -0.47140E-02         0.00000E+00
    0.00000E+00         0.00000E+00         0.00000E+00
    0.11337E+00        -0.25751E-01         0.00000E+00
    0.12381E+00        -0.26576E-01         0.00000E+00
    0.13465E+00        -0.28952E-01         0.00000E+00
    0.14309E+00        -0.32380E-01         0.00000E+00
    0.14797E+00        -0.36150E-01         0.00000E+00
    0.14926E+00        -0.40940E-01         0.00000E+00
    0.14730E+00        -0.46136E-01         0.00000E+00
    0.14240E+00        -0.50946E-01         0.00000E+00
    0.13537E+00        -0.54565E-01         0.00000E+00
    0.12673E+00        -0.56695E-01         0.00000E+00
    0.11724E+00        -0.57293E-01         0.00000E+00
    0.10743E+00        -0.56458E-01         0.00000E+00
    0.97689E-01        -0.54403E-01         0.00000E+00
    0.88074E-01        -0.51396E-01         0.00000E+00
    0.78630E-01        -0.47688E-01         0.00000E+00
    0.69427E-01        -0.43471E-01         0.00000E+00
    0.60501E-01        -0.38875E-01         0.00000E+00
    0.52018E-01        -0.34060E-01         0.00000E+00
    0.44068E-01        -0.29079E-01         0.00000E+00
    0.36624E-01        -0.23964E-01         0.00000E+00
    0.29453E-01        -0.18868E-01         0.00000E+00
    0.22376E-01        -0.13875E-01         0.00000E+00
    0.15227E-01        -0.90416E-02         0.00000E+00
    0.78307E-02        -0.44081E-02         0.00000E+00
    0.00000E+00         0.00000E+00         0.00000E+00
    0.11269E+00        -0.18196E-01         0.00000E+00
    0.12013E+00        -0.19343E-01         0.00000E+00
    0.12811E+00        -0.21668E-01         0.00000E+00
    0.13468E+00        -0.24905E-01         0.00000E+00
    0.13860E+00        -0.28454E-01         0.00000E+00
    0.13966E+00        -0.32020E-01         0.00000E+00
    0.13812E+00        -0.35934E-01         0.00000E+00
    0.13431E+00        -0.39743E-01         0.00000E+00
    0.12866E+00        -0.42951E-01         0.00000E+00
    0.12147E+00        -0.45263E-01         0.00000E+00
    0.11339E+00        -0.46402E-01         0.00000E+00
    0.10479E+00        -0.46401E-01         0.00000E+00
    0.96025E-01        -0.45371E-01         0.00000E+00
    0.87189E-01        -0.43500E-01         0.00000E+00
    0.78334E-01        -0.40941E-01         0.00000E+00
    0.69630E-01        -0.37823E-01         0.00000E+00
    0.61046E-01        -0.34336E-01         0.00000E+00
    0.52867E-01        -0.30420E-01         0.00000E+00
    0.45105E-01        -0.26146E-01         0.00000E+00
    0.37655E-01        -0.21703E-01         0.00000E+00
    0.30378E-01        -0.17209E-01         0.00000E+00
    0.23126E-01        -0.12744E-01         0.00000E+00
    0.15752E-01        -0.83658E-02         0.00000E+00
    0.80995E-02        -0.41109E-02         0.00000E+00
    0.00000E+00         0.00000E+00         0.00000E+00
    0.11084E+00        -0.12782E-01         0.00000E+00
    0.11626E+00        -0.14176E-01         0.00000E+00
    0.12216E+00        -0.16425E-01         0.00000E+00
    0.12718E+00        -0.19444E-01         0.00000E+00
    0.13035E+00        -0.22881E-01         0.00000E+00
    0.13122E+00        -0.26265E-01         0.00000E+00
    0.12988E+00        -0.29440E-01         0.00000E+00
    0.12669E+00        -0.32434E-01         0.00000E+00
    0.12192E+00        -0.35121E-01         0.00000E+00
    0.11583E+00        -0.37241E-01         0.00000E+00
    0.10888E+00        -0.38531E-01         0.00000E+00
    0.10131E+00        -0.38960E-01         0.00000E+00
    0.93411E-01        -0.38548E-01         0.00000E+00
    0.85343E-01        -0.37414E-01         0.00000E+00
    0.77129E-01        -0.35696E-01         0.00000E+00
    0.68923E-01        -0.33416E-01         0.00000E+00
    0.60915E-01        -0.30522E-01         0.00000E+00
    0.53127E-01        -0.27165E-01         0.00000E+00
    0.45583E-01        -0.23499E-01         0.00000E+00
    0.38210E-01        -0.19637E-01         0.00000E+00
    0.30913E-01        -0.15676E-01         0.00000E+00
    0.23575E-01        -0.11690E-01         0.00000E+00
    0.16069E-01        -0.77289E-02         0.00000E+00
    0.82598E-02        -0.38272E-02         0.00000E+00
    0.00000E+00         0.00000E+00         0.00000E+00
    0.10817E+00        -0.87411E-02         0.00000E+00
    0.11223E+00        -0.10299E-01         0.00000E+00
    0.11663E+00        -0.12478E-01         0.00000E+00
    0.12041E+00        -0.15269E-01         0.00000E+00
    0.12287E+00        -0.18457E-01         0.00000E+00
    0.12358E+00        -0.21751E-01         0.00000E+00
    0.12246E+00        -0.24845E-01         0.00000E+00
    0.11970E+00        -0.27545E-01         0.00000E+00
    0.11553E+00        -0.29865E-01         0.00000E+00
    0.11026E+00        -0.31701E-01         0.00000E+00
    0.10416E+00        -0.32962E-01         0.00000E+00
    0.97441E-01        -0.33597E-01         0.00000E+00
    0.90307E-01        -0.33574E-01         0.00000E+00
    0.82947E-01        -0.32856E-01         0.00000E+00
    0.75411E-01        -0.31492E-01         0.00000E+00
    0.67836E-01        -0.29544E-01         0.00000E+00
    0.60329E-01        -0.27107E-01         0.00000E+00
    0.52918E-01        -0.24265E-01         0.00000E+00
    0.45611E-01        -0.21115E-01         0.00000E+00
    0.38368E-01        -0.17758E-01         0.00000E+00
    0.31116E-01        -0.14270E-01         0.00000E+00
    0.23765E-01        -0.10714E-01         0.00000E+00
    0.16207E-01        -0.71341E-02         0.00000E+00
    0.83274E-02        -0.35592E-02         0.00000E+00
    0.00000E+00         0.00000E+00         0.00000E+00
    0.10494E+00        -0.55856E-02         0.00000E+00
    0.10809E+00        -0.72447E-02         0.00000E+00
    0.11140E+00        -0.93504E-02         0.00000E+00
    0.11424E+00        -0.11927E-01         0.00000E+00
    0.11607E+00        -0.14844E-01         0.00000E+00
    0.11656E+00        -0.17884E-01         0.00000E+00
    0.11559E+00        -0.20819E-01         0.00000E+00
    0.11321E+00        -0.23475E-01         0.00000E+00
    0.10958E+00        -0.25715E-01         0.00000E+00
    0.10494E+00        -0.27462E-01         0.00000E+00
    0.99532E-01        -0.28666E-01         0.00000E+00
    0.93525E-01        -0.29296E-01         0.00000E+00
    0.87100E-01        -0.29333E-01         0.00000E+00
    0.80389E-01        -0.28797E-01         0.00000E+00
    0.73475E-01        -0.27712E-01         0.00000E+00
    0.66448E-01        -0.26116E-01         0.00000E+00
    0.59387E-01        -0.24076E-01         0.00000E+00
    0.52329E-01        -0.21668E-01         0.00000E+00
    0.45274E-01        -0.18969E-01         0.00000E+00
    0.38196E-01        -0.16053E-01         0.00000E+00
    0.31041E-01        -0.12984E-01         0.00000E+00
    0.23736E-01        -0.98146E-02         0.00000E+00
    0.16194E-01        -0.65816E-02         0.00000E+00
    0.83172E-02        -0.33076E-02         0.00000E+00
    0.00000E+00         0.00000E+00         0.00000E+00
    0.10138E+00        -0.30183E-02         0.00000E+00
    0.10389E+00        -0.47284E-02         0.00000E+00
    0.10642E+00        -0.67598E-02         0.00000E+00
    0.10855E+00        -0.91434E-02         0.00000E+00
    0.10988E+00        -0.11796E-01         0.00000E+00
    0.11015E+00        -0.14565E-01         0.00000E+00
    0.10923E+00        -0.17272E-01         0.00000E+00
    0.10714E+00        -0.19752E-01         0.00000E+00
    0.10397E+00        -0.21876E-01         0.00000E+00
    0.99895E-01        -0.23557E-01         0.00000E+00
    0.95082E-01        -0.24743E-01         0.00000E+00
    0.89695E-01        -0.25412E-01         0.00000E+00
    0.83875E-01        -0.25559E-01         0.00000E+00
    0.77733E-01        -0.25198E-01         0.00000E+00
    0.71355E-01        -0.24355E-01         0.00000E+00
    0.64813E-01        -0.23064E-01         0.00000E+00
    0.58163E-01        -0.21375E-01         0.00000E+00
    0.51437E-01        -0.19345E-01         0.00000E+00
    0.44641E-01        -0.17037E-01         0.00000E+00
    0.37753E-01        -0.14509E-01         0.00000E+00
    0.30734E-01        -0.11812E-01         0.00000E+00
    0.23525E-01        -0.89890E-02         0.00000E+00
    0.16054E-01        -0.60699E-02         0.00000E+00
    0.82419E-02        -0.30723E-02         0.00000E+00
    0.00000E+00         0.00000E+00         0.00000E+00
    0.97635E-01        -0.85768E-03         0.00000E+00
    0.99688E-01        -0.25826E-02         0.00000E+00
    0.10166E+00        -0.45393E-02         0.00000E+00
    0.10325E+00        -0.67546E-02         0.00000E+00
    0.10418E+00        -0.91738E-02         0.00000E+00
    0.10426E+00        -0.11686E-01         0.00000E+00
    0.10337E+00        -0.14153E-01         0.00000E+00
    0.10150E+00        -0.16439E-01         0.00000E+00
    0.98698E-01        -0.18428E-01         0.00000E+00
    0.95084E-01        -0.20037E-01         0.00000E+00
    0.90786E-01        -0.21213E-01         0.00000E+00
    0.85932E-01        -0.21933E-01         0.00000E+00
    0.80639E-01        -0.22190E-01         0.00000E+00
    0.75001E-01        -0.21997E-01         0.00000E+00
    0.69096E-01        -0.21373E-01         0.00000E+00
    0.62984E-01        -0.20350E-01         0.00000E+00
    0.56712E-01        -0.18966E-01         0.00000E+00
    0.50305E-01        -0.17266E-01         0.00000E+00
    0.43770E-01        -0.15300E-01         0.00000E+00
    0.37091E-01        -0.13112E-01         0.00000E+00
    0.30237E-01        -0.10746E-01         0.00000E+00
    0.23163E-01        -0.82326E-02         0.00000E+00
    0.15810E-01        -0.55974E-02         0.00000E+00
    0.81131E-02        -0.28528E-02         0.00000E+00
    0.00000E+00         0.00000E+00         0.00000E+00
    0.93813E-01         0.10054E-02         0.00000E+00
    0.95532E-01        -0.70911E-03         0.00000E+00
    0.97087E-01        -0.25926E-02         0.00000E+00
    0.98279E-01        -0.46636E-02         0.00000E+00
    0.98913E-01        -0.68835E-02         0.00000E+00
    0.98835E-01        -0.91705E-02         0.00000E+00
    0.97953E-01        -0.11419E-01         0.00000E+00
    0.96241E-01        -0.13519E-01         0.00000E+00
    0.93732E-01        -0.15374E-01         0.00000E+00
    0.90498E-01        -0.16909E-01         0.00000E+00
    0.86633E-01        -0.18072E-01         0.00000E+00
    0.82238E-01        -0.18837E-01         0.00000E+00
    0.77404E-01        -0.19195E-01         0.00000E+00
    0.72212E-01        -0.19152E-01         0.00000E+00
    0.66730E-01        -0.18725E-01         0.00000E+00
    0.61008E-01        -0.17936E-01         0.00000E+00
    0.55085E-01        -0.16818E-01         0.00000E+00
    0.48983E-01        -0.15407E-01         0.00000E+00
    0.42708E-01        -0.13739E-01         0.00000E+00
    0.36250E-01        -0.11852E-01         0.00000E+00
    0.29586E-01        -0.97770E-02         0.00000E+00
    0.22678E-01        -0.75410E-02         0.00000E+00
    0.15480E-01        -0.51618E-02         0.00000E+00
    0.79405E-02        -0.26486E-02         0.00000E+00
    0.00000E+00         0.00000E+00         0.00000E+00
    0.89988E-01         0.26364E-02         0.00000E+00
    0.91450E-01         0.94873E-03         0.00000E+00
    0.92696E-01        -0.86426E-03         0.00000E+00
    0.93589E-01        -0.28122E-02         0.00000E+00
    0.93992E-01        -0.48656E-02         0.00000E+00
    0.93791E-01        -0.69629E-02         0.00000E+00
    0.92911E-01        -0.90230E-02         0.00000E+00
    0.91324E-01        -0.10959E-01         0.00000E+00
    0.89046E-01        -0.12691E-01         0.00000E+00
    0.86123E-01        -0.14154E-01         0.00000E+00
    0.82623E-01        -0.15299E-01         0.00000E+00
    0.78619E-01        -0.16100E-01         0.00000E+00
    0.74186E-01        -0.16545E-01         0.00000E+00
    0.69390E-01        -0.16633E-01         0.00000E+00
    0.64286E-01        -0.16376E-01         0.00000E+00
    0.58919E-01        -0.15793E-01         0.00000E+00
    0.53320E-01        -0.14907E-01         0.00000E+00
    0.47511E-01        -0.13746E-01         0.00000E+00
    0.41495E-01        -0.12340E-01         0.00000E+00
    0.35268E-01        -0.10715E-01         0.00000E+00
    0.28810E-01        -0.88989E-02         0.00000E+00
    0.22094E-01        -0.69098E-02         0.00000E+00
    0.15082E-01        -0.47614E-02         0.00000E+00
    0.77328E-02        -0.24592E-02         0.00000E+00
    0.00000E+00         0.00000E+00         0.00000E+00
    0.86205E-01         0.40752E-02         0.00000E+00
    0.87461E-01         0.24243E-02         0.00000E+00
    0.88470E-01         0.67832E-03         0.00000E+00
    0.89137E-01        -0.11647E-02         0.00000E+00
    0.89366E-01        -0.30802E-02         0.00000E+00
    0.89070E-01        -0.50207E-02         0.00000E+00
    0.88192E-01        -0.69233E-02         0.00000E+00
    0.86705E-01        -0.87193E-02         0.00000E+00
    0.84613E-01        -0.10343E-01         0.00000E+00
    0.81946E-01        -0.11739E-01         0.00000E+00
    0.78751E-01        -0.12865E-01         0.00000E+00
    0.75083E-01        -0.13693E-01         0.00000E+00
    0.71000E-01        -0.14209E-01         0.00000E+00
    0.66553E-01        -0.14409E-01         0.00000E+00
    0.61790E-01        -0.14299E-01         0.00000E+00
    0.56748E-01        -0.13893E-01         0.00000E+00
    0.51454E-01        -0.13208E-01         0.00000E+00
    0.45924E-01        -0.12265E-01         0.00000E+00
    0.40166E-01        -0.11086E-01         0.00000E+00
    0.34175E-01        -0.96928E-02         0.00000E+00
    0.27937E-01        -0.81043E-02         0.00000E+00
    0.21432E-01        -0.63349E-02         0.00000E+00
    0.14629E-01        -0.43939E-02         0.00000E+00
    0.74974E-02        -0.22840E-02         0.00000E+00
    0.00000E+00         0.00000E+00         0.00000E+00
    0.82493E-01         0.53471E-02         0.00000E+00
    0.83577E-01         0.37381E-02         0.00000E+00
    0.84399E-01         0.20551E-02         0.00000E+00
    0.84893E-01         0.30217E-03         0.00000E+00
    0.84989E-01        -0.14992E-02         0.00000E+00
    0.84623E-01        -0.33109E-02         0.00000E+00
    0.83749E-01        -0.50835E-02         0.00000E+00
    0.82343E-01        -0.67624E-02         0.00000E+00
    0.80404E-01        -0.82939E-02         0.00000E+00
    0.77950E-01        -0.96313E-02         0.00000E+00
    0.75013E-01        -0.10737E-01         0.00000E+00
    0.71634E-01        -0.11584E-01         0.00000E+00
    0.67856E-01        -0.12158E-01         0.00000E+00
    0.63721E-01        -0.12452E-01         0.00000E+00
    0.59266E-01        -0.12467E-01         0.00000E+00
    0.54523E-01        -0.12213E-01         0.00000E+00
    0.49513E-01        -0.11701E-01         0.00000E+00
    0.44253E-01        -0.10946E-01         0.00000E+00
    0.38748E-01        -0.99655E-02         0.00000E+00
    0.32997E-01        -0.87744E-02         0.00000E+00
    0.26989E-01        -0.73866E-02         0.00000E+00
    0.20709E-01        -0.58124E-02         0.00000E+00
    0.14134E-01        -0.40576E-02         0.00000E+00
    0.72405E-02        -0.21222E-02         0.00000E+00
    0.00000E+00         0.00000E+00         0.00000E+00
    0.78867E-01         0.64691E-02         0.00000E+00
    0.79801E-01         0.49041E-02         0.00000E+00
    0.80473E-01         0.32799E-02         0.00000E+00
    0.80832E-01         0.16047E-02         0.00000E+00
    0.80827E-01        -0.10145E-03         0.00000E+00
    0.80409E-01        -0.18074E-02         0.00000E+00
    0.79542E-01        -0.34733E-02         0.00000E+00
    0.78205E-01        -0.50550E-02         0.00000E+00
    0.76395E-01        -0.65090E-02         0.00000E+00
    0.74120E-01        -0.77954E-02         0.00000E+00
    0.71403E-01        -0.88816E-02         0.00000E+00
    0.68274E-01        -0.97430E-02         0.00000E+00
    0.64764E-01        -0.10364E-01         0.00000E+00
    0.60907E-01        -0.10735E-01         0.00000E+00
    0.56732E-01        -0.10856E-01         0.00000E+00
    0.52264E-01        -0.10731E-01         0.00000E+00
    0.47523E-01        -0.10367E-01         0.00000E+00
    0.42522E-01        -0.97750E-02         0.00000E+00
    0.37267E-01        -0.89660E-02         0.00000E+00
    0.31757E-01        -0.79511E-02         0.00000E+00
    0.25985E-01        -0.67397E-02         0.00000E+00
    0.19941E-01        -0.53386E-02         0.00000E+00
    0.13608E-01        -0.37504E-02         0.00000E+00
    0.69675E-02        -0.19733E-02         0.00000E+00
    0.00000E+00         0.00000E+00         0.00000E+00
    0.75332E-01         0.74541E-02         0.00000E+00
    0.76135E-01         0.59330E-02         0.00000E+00
    0.76682E-01         0.43633E-02         0.00000E+00
    0.76933E-01         0.27560E-02         0.00000E+00
    0.76850E-01         0.11299E-02         0.00000E+00
    0.76395E-01        -0.48856E-03         0.00000E+00
    0.75538E-01        -0.20666E-02         0.00000E+00
    0.74262E-01        -0.35682E-02         0.00000E+00
    0.72561E-01        -0.49572E-02         0.00000E+00
    0.70440E-01        -0.62002E-02         0.00000E+00
    0.67914E-01        -0.72685E-02         0.00000E+00
    0.65002E-01        -0.81397E-02         0.00000E+00
    0.61730E-01        -0.87980E-02         0.00000E+00
    0.58122E-01        -0.92339E-02         0.00000E+00
    0.54203E-01        -0.94435E-02         0.00000E+00
    0.49991E-01        -0.94275E-02         0.00000E+00
    0.45503E-01        -0.91899E-02         0.00000E+00
    0.40751E-01        -0.87370E-02         0.00000E+00
    0.35741E-01        -0.80762E-02         0.00000E+00
    0.30472E-01        -0.72146E-02         0.00000E+00
    0.24941E-01        -0.61579E-02         0.00000E+00
    0.19140E-01        -0.49098E-02         0.00000E+00
    0.13059E-01        -0.34705E-02         0.00000E+00
    0.66832E-02        -0.18365E-02         0.00000E+00
    0.00000E+00         0.00000E+00         0.00000E+00
    0.71889E-01         0.83130E-02         0.00000E+00
    0.72575E-01         0.68342E-02         0.00000E+00
    0.73016E-01         0.53148E-02         0.00000E+00
    0.73180E-01         0.37672E-02         0.00000E+00
    0.73036E-01         0.22092E-02         0.00000E+00
    0.72554E-01         0.66386E-03         0.00000E+00
    0.71710E-01        -0.84133E-03         0.00000E+00
    0.70490E-01        -0.22764E-02         0.00000E+00
    0.68885E-01        -0.36112E-02         0.00000E+00
    0.66898E-01        -0.48171E-02         0.00000E+00
    0.64538E-01        -0.58692E-02         0.00000E+00
    0.61819E-01        -0.67472E-02         0.00000E+00
    0.58759E-01        -0.74356E-02         0.00000E+00
    0.55377E-01        -0.79243E-02         0.00000E+00
    0.51691E-01        -0.82075E-02         0.00000E+00
    0.47718E-01        -0.82833E-02         0.00000E+00
    0.43471E-01        -0.81529E-02         0.00000E+00
    0.38958E-01        -0.78191E-02         0.00000E+00
    0.34187E-01        -0.72859E-02         0.00000E+00
    0.29158E-01        -0.65571E-02         0.00000E+00
    0.23870E-01        -0.56356E-02         0.00000E+00
    0.18318E-01        -0.45224E-02         0.00000E+00
    0.12495E-01        -0.32159E-02         0.00000E+00
    0.63914E-02        -0.17113E-02         0.00000E+00
    0.00000E+00         0.00000E+00         0.00000E+00
    0.68537E-01         0.90554E-02         0.00000E+00
    0.69117E-01         0.76168E-02         0.00000E+00
    0.69467E-01         0.61435E-02         0.00000E+00
    0.69558E-01         0.46488E-02         0.00000E+00
    0.69366E-01         0.31495E-02         0.00000E+00
    0.68866E-01         0.16660E-02         0.00000E+00
    0.68038E-01         0.22179E-03         0.00000E+00
    0.66868E-01        -0.11577E-02         0.00000E+00
    0.65349E-01        -0.24468E-02         0.00000E+00
    0.63480E-01        -0.36210E-02         0.00000E+00
    0.61268E-01        -0.46585E-02         0.00000E+00
    0.58721E-01        -0.55407E-02         0.00000E+00
    0.55853E-01        -0.62529E-02         0.00000E+00
    0.52677E-01        -0.67846E-02         0.00000E+00
    0.49207E-01        -0.71287E-02         0.00000E+00
    0.45458E-01        -0.72814E-02         0.00000E+00
    0.41438E-01        -0.72414E-02         0.00000E+00
    0.37157E-01        -0.70090E-02         0.00000E+00
    0.32620E-01        -0.65852E-02         0.00000E+00
    0.27829E-01        -0.59713E-02         0.00000E+00
    0.22784E-01        -0.51677E-02         0.00000E+00
    0.17483E-01        -0.41733E-02         0.00000E+00
    0.11921E-01        -0.29849E-02         0.00000E+00
    0.60952E-02        -0.15968E-02         0.00000E+00
    0.00000E+00         0.00000E+00         0.00000E+00
    0.65269E-01         0.96906E-02         0.00000E+00
    0.65755E-01         0.82896E-02         0.00000E+00
    0.66024E-01         0.68585E-02         0.00000E+00
    0.66055E-01         0.54110E-02         0.00000E+00
    0.65825E-01         0.39628E-02         0.00000E+00
    0.65313E-01         0.25323E-02         0.00000E+00
    0.64502E-01         0.11399E-02         0.00000E+00
    0.63380E-01        -0.19244E-03         0.00000E+00
    0.61939E-01        -0.14427E-02         0.00000E+00
    0.60178E-01        -0.25895E-02         0.00000E+00
    0.58098E-01        -0.36135E-02         0.00000E+00
    0.55707E-01        -0.44979E-02         0.00000E+00
    0.53013E-01        -0.52287E-02         0.00000E+00
    0.50026E-01        -0.57951E-02         0.00000E+00
    0.46758E-01        -0.61894E-02         0.00000E+00
    0.43219E-01        -0.64061E-02         0.00000E+00
    0.39416E-01        -0.64421E-02         0.00000E+00
    0.35359E-01        -0.62955E-02         0.00000E+00
    0.31050E-01        -0.59652E-02         0.00000E+00
    0.26494E-01        -0.54503E-02         0.00000E+00
    0.21691E-01        -0.47492E-02         0.00000E+00
    0.16642E-01        -0.38591E-02         0.00000E+00
    0.11344E-01        -0.27757E-02         0.00000E+00
    0.57973E-02        -0.14923E-02         0.00000E+00
    0.00000E+00         0.00000E+00         0.00000E+00
    0.62081E-01         0.10228E-01         0.00000E+00
    0.62481E-01         0.88615E-02         0.00000E+00
    0.62681E-01         0.74691E-02         0.00000E+00
    0.62661E-01         0.60639E-02         0.00000E+00
    0.62400E-01         0.46607E-02         0.00000E+00
    0.61882E-01         0.32762E-02         0.00000E+00
    0.61089E-01         0.19284E-02         0.00000E+00
    0.60013E-01         0.63652E-03         0.00000E+00
    0.58644E-01        -0.58015E-03         0.00000E+00
    0.56980E-01        -0.17029E-02         0.00000E+00
    0.55022E-01        -0.27144E-02         0.00000E+00
    0.52773E-01        -0.35991E-02         0.00000E+00
    0.50240E-01        -0.43440E-02         0.00000E+00
    0.47429E-01        -0.49382E-02         0.00000E+00
    0.44349E-01        -0.53733E-02         0.00000E+00
    0.41009E-01        -0.56429E-02         0.00000E+00
    0.37414E-01        -0.57424E-02         0.00000E+00
    0.33572E-01        -0.56683E-02         0.00000E+00
    0.29487E-01        -0.54177E-02         0.00000E+00
    0.25162E-01        -0.49878E-02         0.00000E+00
    0.20600E-01        -0.43756E-02         0.00000E+00
    0.15802E-01        -0.35770E-02         0.00000E+00
    0.10768E-01        -0.25866E-02         0.00000E+00
    0.55000E-02        -0.13973E-02         0.00000E+00
    0.00000E+00         0.00000E+00         0.00000E+00
    0.58966E-01         0.10676E-01         0.00000E+00
    0.59289E-01         0.93415E-02         0.00000E+00
    0.59428E-01         0.79844E-02         0.00000E+00
    0.59365E-01         0.66173E-02         0.00000E+00
    0.59080E-01         0.52541E-02         0.00000E+00
    0.58559E-01         0.39100E-02         0.00000E+00
    0.57787E-01         0.26012E-02         0.00000E+00
    0.56754E-01         0.13446E-02         0.00000E+00
    0.55453E-01         0.15743E-03         0.00000E+00
    0.53880E-01        -0.94375E-03         0.00000E+00
    0.52034E-01        -0.19432E-02         0.00000E+00
    0.49916E-01        -0.28267E-02         0.00000E+00
    0.47532E-01        -0.35818E-02         0.00000E+00
    0.44886E-01        -0.41978E-02         0.00000E+00
    0.41984E-01        -0.46659E-02         0.00000E+00
    0.38833E-01        -0.49790E-02         0.00000E+00
    0.35438E-01        -0.51313E-02         0.00000E+00
    0.31805E-01        -0.51180E-02         0.00000E+00
    0.27937E-01        -0.49349E-02         0.00000E+00
    0.23840E-01        -0.45779E-02         0.00000E+00
    0.19516E-01        -0.40426E-02         0.00000E+00
    0.14966E-01        -0.33240E-02         0.00000E+00
    0.10195E-01        -0.24159E-02         0.00000E+00
    0.52049E-02        -0.13109E-02         0.00000E+00
    0.00000E+00         0.00000E+00         0.00000E+00
    0.55919E-01         0.11044E-01         0.00000E+00
    0.56172E-01         0.97384E-02         0.00000E+00
    0.56258E-01         0.84135E-02         0.00000E+00
    0.56158E-01         0.70809E-02         0.00000E+00
    0.55855E-01         0.57536E-02         0.00000E+00
    0.55335E-01         0.44455E-02         0.00000E+00
    0.54585E-01         0.31711E-02         0.00000E+00
    0.53595E-01         0.19458E-02         0.00000E+00
    0.52358E-01         0.78489E-03         0.00000E+00
    0.50869E-01        -0.29658E-03         0.00000E+00
    0.49128E-01        -0.12843E-02         0.00000E+00
    0.47134E-01        -0.21651E-02         0.00000E+00
    0.44890E-01        -0.29271E-02         0.00000E+00
    0.42399E-01        -0.35598E-02         0.00000E+00
    0.39666E-01        -0.40542E-02         0.00000E+00
    0.36695E-01        -0.44026E-02         0.00000E+00
    0.33492E-01        -0.45985E-02         0.00000E+00
    0.30062E-01        -0.46361E-02         0.00000E+00
    0.26407E-01        -0.45100E-02         0.00000E+00
    0.22533E-01        -0.42152E-02         0.00000E+00
    0.18443E-01        -0.37464E-02         0.00000E+00
    0.14140E-01        -0.30975E-02         0.00000E+00
    0.96288E-02        -0.22622E-02         0.00000E+00
    0.49134E-02        -0.12326E-02         0.00000E+00
    0.00000E+00         0.00000E+00         0.00000E+00
    0.52932E-01         0.11340E-01         0.00000E+00
    0.53125E-01         0.10061E-01         0.00000E+00
    0.53165E-01         0.87654E-02         0.00000E+00
    0.53034E-01         0.74642E-02         0.00000E+00
    0.52717E-01         0.61692E-02         0.00000E+00
    0.52201E-01         0.48933E-02         0.00000E+00
    0.51474E-01         0.36498E-02         0.00000E+00
    0.50526E-01         0.24526E-02         0.00000E+00
    0.49350E-01         0.13155E-02         0.00000E+00
    0.47942E-01         0.25237E-03         0.00000E+00
    0.46300E-01        -0.72375E-03         0.00000E+00
    0.44422E-01        -0.16005E-02         0.00000E+00
    0.42311E-01        -0.23665E-02         0.00000E+00
    0.39967E-01        -0.30115E-02         0.00000E+00
    0.37395E-01        -0.35265E-02         0.00000E+00
    0.34598E-01        -0.39034E-02         0.00000E+00
    0.31581E-01        -0.41350E-02         0.00000E+00
    0.28347E-01        -0.42148E-02         0.00000E+00
    0.24900E-01        -0.41367E-02         0.00000E+00
    0.21245E-01        -0.38948E-02         0.00000E+00
    0.17385E-01        -0.34831E-02         0.00000E+00
    0.13326E-01        -0.28951E-02         0.00000E+00
    0.90708E-02        -0.21239E-02         0.00000E+00
    0.46265E-02        -0.11617E-02         0.00000E+00
    0.00000E+00         0.00000E+00         0.00000E+00
    0.50001E-01         0.11572E-01         0.00000E+00
    0.50141E-01         0.10318E-01         0.00000E+00
    0.50141E-01         0.90487E-02         0.00000E+00
    0.49985E-01         0.77760E-02         0.00000E+00
    0.49659E-01         0.65103E-02         0.00000E+00
    0.49149E-01         0.52636E-02         0.00000E+00
    0.48446E-01         0.40481E-02         0.00000E+00
    0.47540E-01         0.28764E-02         0.00000E+00
    0.46424E-01         0.17613E-02         0.00000E+00
    0.45093E-01         0.71537E-03         0.00000E+00
    0.43545E-01        -0.24913E-03         0.00000E+00
    0.41778E-01        -0.11206E-02         0.00000E+00
    0.39793E-01        -0.18882E-02         0.00000E+00
    0.37591E-01        -0.25419E-02         0.00000E+00
    0.35173E-01        -0.30726E-02         0.00000E+00
    0.32544E-01        -0.34720E-02         0.00000E+00
    0.29706E-01        -0.37325E-02         0.00000E+00
    0.26663E-01        -0.38471E-02         0.00000E+00
    0.23419E-01        -0.38092E-02         0.00000E+00
    0.19979E-01        -0.36122E-02         0.00000E+00
    0.16346E-01        -0.32495E-02         0.00000E+00
    0.12525E-01        -0.27144E-02         0.00000E+00
    0.85228E-02        -0.19997E-02         0.00000E+00
    0.43450E-02        -0.10977E-02         0.00000E+00
    0.00000E+00         0.00000E+00         0.00000E+00
    0.47121E-01         0.11749E-01         0.00000E+00
    0.47214E-01         0.10516E-01         0.00000E+00
    0.47181E-01         0.92717E-02         0.00000E+00
    0.47005E-01         0.80249E-02         0.00000E+00
    0.46673E-01         0.67860E-02         0.00000E+00
    0.46173E-01         0.55659E-02         0.00000E+00
    0.45495E-01         0.43758E-02         0.00000E+00
    0.44630E-01         0.32276E-02         0.00000E+00
    0.43573E-01         0.21328E-02         0.00000E+00
    0.42317E-01         0.11034E-02         0.00000E+00
    0.40860E-01         0.15058E-03         0.00000E+00
    0.39199E-01        -0.71455E-03         0.00000E+00
    0.37335E-01        -0.14816E-02         0.00000E+00
    0.35268E-01        -0.21408E-02         0.00000E+00
    0.33000E-01        -0.26831E-02         0.00000E+00
    0.30532E-01        -0.31000E-02         0.00000E+00
    0.27869E-01        -0.33838E-02         0.00000E+00
    0.25012E-01        -0.35269E-02         0.00000E+00
    0.21967E-01        -0.35224E-02         0.00000E+00
    0.18737E-01        -0.33633E-02         0.00000E+00
    0.15326E-01        -0.30426E-02         0.00000E+00
    0.11740E-01        -0.25534E-02         0.00000E+00
    0.79857E-02        -0.18884E-02         0.00000E+00
    0.40693E-02        -0.10399E-02         0.00000E+00
    0.00000E+00         0.00000E+00         0.00000E+00
    0.44286E-01         0.11877E-01         0.00000E+00
    0.44340E-01         0.10665E-01         0.00000E+00
    0.44278E-01         0.94423E-02         0.00000E+00
    0.44087E-01         0.82191E-02         0.00000E+00
    0.43753E-01         0.70046E-02         0.00000E+00
    0.43265E-01         0.58088E-02         0.00000E+00
    0.42614E-01         0.46421E-02         0.00000E+00
    0.41791E-01         0.35155E-02         0.00000E+00
    0.40791E-01         0.24399E-02         0.00000E+00
    0.39608E-01         0.14262E-02         0.00000E+00
    0.38239E-01         0.48516E-03         0.00000E+00
    0.36681E-01        -0.37274E-03         0.00000E+00
    0.34934E-01        -0.11375E-02         0.00000E+00
    0.32998E-01        -0.17996E-02         0.00000E+00
    0.30874E-01        -0.23500E-02         0.00000E+00
    0.28564E-01        -0.27802E-02         0.00000E+00
    0.26070E-01        -0.30823E-02         0.00000E+00
    0.23396E-01        -0.32486E-02         0.00000E+00
    0.20544E-01        -0.32717E-02         0.00000E+00
    0.17520E-01        -0.31444E-02         0.00000E+00
    0.14327E-01        -0.28596E-02         0.00000E+00
    0.10972E-01        -0.24102E-02         0.00000E+00
    0.74601E-02        -0.17888E-02         0.00000E+00
    0.37998E-02        -0.98793E-03         0.00000E+00
    0.00000E+00         0.00000E+00         0.00000E+00
    0.41492E-01         0.11964E-01         0.00000E+00
    0.41513E-01         0.10770E-01         0.00000E+00
    0.41429E-01         0.95676E-02         0.00000E+00
    0.41227E-01         0.83660E-02         0.00000E+00
    0.40894E-01         0.71738E-02         0.00000E+00
    0.40421E-01         0.60003E-02         0.00000E+00
    0.39798E-01         0.48553E-02         0.00000E+00
    0.39018E-01         0.37488E-02         0.00000E+00
    0.38074E-01         0.26911E-02         0.00000E+00
    0.36962E-01         0.16926E-02         0.00000E+00
    0.35679E-01         0.76335E-03         0.00000E+00
    0.34221E-01        -0.86596E-04         0.00000E+00
    0.32587E-01        -0.84759E-03         0.00000E+00
    0.30779E-01        -0.15103E-02         0.00000E+00
    0.28795E-01        -0.20660E-02         0.00000E+00
    0.26638E-01        -0.25060E-02         0.00000E+00
    0.24310E-01        -0.28223E-02         0.00000E+00
    0.21813E-01        -0.30071E-02         0.00000E+00
    0.19151E-01        -0.30529E-02         0.00000E+00
    0.16328E-01        -0.29523E-02         0.00000E+00
    0.13350E-01        -0.26980E-02         0.00000E+00
    0.10220E-01        -0.22829E-02         0.00000E+00
    0.69465E-02        -0.16998E-02         0.00000E+00
    0.35368E-02        -0.94121E-03         0.00000E+00
    0.00000E+00         0.00000E+00         0.00000E+00
    0.38736E-01         0.12017E-01         0.00000E+00
    0.38730E-01         0.10838E-01         0.00000E+00
    0.38628E-01         0.96546E-02         0.00000E+00
    0.38419E-01         0.84727E-02         0.00000E+00
    0.38091E-01         0.73010E-02         0.00000E+00
    0.37634E-01         0.61479E-02         0.00000E+00
    0.37041E-01         0.50228E-02         0.00000E+00
    0.36304E-01         0.39351E-02         0.00000E+00
    0.35417E-01         0.28944E-02         0.00000E+00
    0.34375E-01         0.19104E-02         0.00000E+00
    0.33175E-01         0.99293E-03         0.00000E+00
    0.31815E-01         0.15148E-03         0.00000E+00
    0.30293E-01        -0.60461E-03         0.00000E+00
    0.28608E-01        -0.12663E-02         0.00000E+00
    0.26761E-01        -0.18247E-02         0.00000E+00
    0.24754E-01        -0.22715E-02         0.00000E+00
    0.22587E-01        -0.25986E-02         0.00000E+00
    0.20264E-01        -0.27981E-02         0.00000E+00
    0.17788E-01        -0.28623E-02         0.00000E+00
    0.15163E-01        -0.27840E-02         0.00000E+00
    0.12394E-01        -0.25556E-02         0.00000E+00
    0.94853E-02        -0.21701E-02         0.00000E+00
    0.64449E-02        -0.16204E-02         0.00000E+00
    0.32801E-02        -0.89934E-03         0.00000E+00
    0.00000E+00         0.00000E+00         0.00000E+00
    0.36014E-01         0.12040E-01         0.00000E+00
    0.35986E-01         0.10877E-01         0.00000E+00
    0.35871E-01         0.97095E-02         0.00000E+00
    0.35659E-01         0.85456E-02         0.00000E+00
    0.35338E-01         0.73925E-02         0.00000E+00
    0.34901E-01         0.62583E-02         0.00000E+00
    0.34339E-01         0.51516E-02         0.00000E+00
    0.33646E-01         0.40813E-02         0.00000E+00
    0.32815E-01         0.30566E-02         0.00000E+00
    0.31843E-01         0.20867E-02         0.00000E+00
    0.30726E-01         0.11808E-02         0.00000E+00
    0.29461E-01         0.34822E-03         0.00000E+00
    0.28047E-01        -0.40206E-03         0.00000E+00
    0.26484E-01        -0.10612E-02         0.00000E+00
    0.24771E-01        -0.16205E-02         0.00000E+00
    0.22909E-01        -0.20717E-02         0.00000E+00
    0.20901E-01        -0.24067E-02         0.00000E+00
    0.18749E-01        -0.26176E-02         0.00000E+00
    0.16455E-01        -0.26968E-02         0.00000E+00
    0.14023E-01        -0.26368E-02         0.00000E+00
    0.11459E-01        -0.24304E-02         0.00000E+00
    0.87675E-02        -0.20704E-02         0.00000E+00
    0.59551E-02        -0.15498E-02         0.00000E+00
    0.30297E-02        -0.86189E-03         0.00000E+00
    0.00000E+00         0.00000E+00         0.00000E+00
    0.33323E-01         0.12040E-01         0.00000E+00
    0.33278E-01         0.10890E-01         0.00000E+00
    0.33154E-01         0.97381E-02         0.00000E+00
    0.32942E-01         0.85906E-02         0.00000E+00
    0.32632E-01         0.74545E-02         0.00000E+00
    0.32216E-01         0.63376E-02         0.00000E+00
    0.31687E-01         0.52479E-02         0.00000E+00
    0.31038E-01         0.41938E-02         0.00000E+00
    0.30264E-01         0.31841E-02         0.00000E+00
    0.29361E-01         0.22276E-02         0.00000E+00
    0.28325E-01         0.13331E-02         0.00000E+00
    0.27155E-01         0.50959E-03         0.00000E+00
    0.25848E-01        -0.23425E-03         0.00000E+00
    0.24403E-01        -0.88975E-03         0.00000E+00
    0.22822E-01        -0.14484E-02         0.00000E+00
    0.21104E-01        -0.19021E-02         0.00000E+00
    0.19251E-01        -0.22426E-02         0.00000E+00
    0.17265E-01        -0.24622E-02         0.00000E+00
    0.15150E-01        -0.25533E-02         0.00000E+00
    0.12908E-01        -0.25085E-02         0.00000E+00
    0.10545E-01        -0.23205E-02         0.00000E+00
    0.80660E-02        -0.19823E-02         0.00000E+00
    0.54769E-02        -0.14872E-02         0.00000E+00
    0.27854E-02        -0.82850E-03         0.00000E+00
    0.00000E+00         0.00000E+00         0.00000E+00
    0.30659E-01         0.12021E-01         0.00000E+00
    0.30602E-01         0.10884E-01         0.00000E+00
    0.30473E-01         0.97456E-02         0.00000E+00
    0.30265E-01         0.86129E-02         0.00000E+00
    0.29968E-01         0.74924E-02         0.00000E+00
    0.29576E-01         0.63912E-02         0.00000E+00
    0.29081E-01         0.53172E-02         0.00000E+00
    0.28477E-01         0.42782E-02         0.00000E+00
    0.27760E-01         0.32826E-02         0.00000E+00
    0.26926E-01         0.23388E-02         0.00000E+00
    0.25971E-01         0.14554E-02         0.00000E+00
    0.24893E-01         0.64087E-03         0.00000E+00
    0.23691E-01        -0.96125E-04         0.00000E+00
    0.22364E-01        -0.74721E-03         0.00000E+00
    0.20911E-01        -0.13041E-02         0.00000E+00
    0.19334E-01        -0.17586E-02         0.00000E+00
    0.17634E-01        -0.21028E-02         0.00000E+00
    0.15812E-01        -0.23289E-02         0.00000E+00
    0.13872E-01        -0.24294E-02         0.00000E+00
    0.11817E-01        -0.23969E-02         0.00000E+00
    0.96514E-02        -0.22244E-02         0.00000E+00
    0.73804E-02        -0.19049E-02         0.00000E+00
    0.50098E-02        -0.14318E-02         0.00000E+00
    0.25470E-02        -0.79884E-03         0.00000E+00
    0.00000E+00         0.00000E+00         0.00000E+00
    0.28021E-01         0.11989E-01         0.00000E+00
    0.27955E-01         0.10863E-01         0.00000E+00
    0.27825E-01         0.97367E-02         0.00000E+00
    0.27624E-01         0.86174E-02         0.00000E+00
    0.27343E-01         0.75109E-02         0.00000E+00
    0.26975E-01         0.64242E-02         0.00000E+00
    0.26516E-01         0.53645E-02         0.00000E+00
    0.25959E-01         0.43394E-02         0.00000E+00
    0.25299E-01         0.33569E-02         0.00000E+00
    0.24534E-01         0.24251E-02         0.00000E+00
    0.23659E-01         0.15523E-02         0.00000E+00
    0.22673E-01         0.74672E-03         0.00000E+00
    0.21575E-01         0.16753E-04         0.00000E+00
    0.20363E-01        -0.62938E-03         0.00000E+00
    0.19037E-01        -0.11835E-02         0.00000E+00
    0.17599E-01        -0.16377E-02         0.00000E+00
    0.16048E-01        -0.19840E-02         0.00000E+00
    0.14388E-01        -0.22148E-02         0.00000E+00
    0.12620E-01        -0.23226E-02         0.00000E+00
    0.10748E-01        -0.23002E-02         0.00000E+00
    0.87766E-02        -0.21406E-02         0.00000E+00
    0.67097E-02        -0.18370E-02         0.00000E+00
    0.45533E-02        -0.13830E-02         0.00000E+00
    0.23142E-02        -0.77258E-03         0.00000E+00
    0.00000E+00         0.00000E+00         0.00000E+00
    0.25405E-01         0.11947E-01         0.00000E+00
    0.25334E-01         0.10830E-01         0.00000E+00
    0.25206E-01         0.97155E-02         0.00000E+00
    0.25014E-01         0.86083E-02         0.00000E+00
    0.24751E-01         0.75146E-02         0.00000E+00
    0.24411E-01         0.64409E-02         0.00000E+00
    0.23989E-01         0.53942E-02         0.00000E+00
    0.23479E-01         0.43819E-02         0.00000E+00
    0.22877E-01         0.34115E-02         0.00000E+00
    0.22180E-01         0.24909E-02         0.00000E+00
    0.21386E-01         0.16281E-02         0.00000E+00
    0.20491E-01         0.83121E-03         0.00000E+00
    0.19495E-01         0.10828E-03         0.00000E+00
    0.18397E-01        -0.53262E-03         0.00000E+00
    0.17197E-01        -0.10835E-02         0.00000E+00
    0.15895E-01        -0.15364E-02         0.00000E+00
    0.14492E-01        -0.18837E-02         0.00000E+00
    0.12991E-01        -0.21177E-02         0.00000E+00
    0.11393E-01        -0.22312E-02         0.00000E+00
    0.97010E-02        -0.22168E-02         0.00000E+00
    0.79196E-02        -0.20679E-02         0.00000E+00
    0.60530E-02        -0.17778E-02         0.00000E+00
    0.41066E-02        -0.13403E-02         0.00000E+00
    0.20866E-02        -0.74948E-03         0.00000E+00
    0.00000E+00         0.00000E+00         0.00000E+00
    0.22809E-01         0.11899E-01         0.00000E+00
    0.22736E-01         0.10791E-01         0.00000E+00
    0.22613E-01         0.96860E-02         0.00000E+00
    0.22434E-01         0.85895E-02         0.00000E+00
    0.22191E-01         0.75072E-02         0.00000E+00
    0.21880E-01         0.64452E-02         0.00000E+00
    0.21496E-01         0.54103E-02         0.00000E+00
    0.21034E-01         0.44095E-02         0.00000E+00
    0.20490E-01         0.34502E-02         0.00000E+00
    0.19863E-01         0.25400E-02         0.00000E+00
    0.19148E-01         0.16866E-02         0.00000E+00
    0.18344E-01         0.89793E-03         0.00000E+00
    0.17449E-01         0.18185E-03         0.00000E+00
    0.16464E-01        -0.45373E-03         0.00000E+00
    0.15388E-01        -0.10009E-02         0.00000E+00
    0.14221E-01        -0.14520E-02         0.00000E+00
    0.12964E-01        -0.17994E-02         0.00000E+00
    0.11619E-01        -0.20355E-02         0.00000E+00
    0.10187E-01        -0.21531E-02         0.00000E+00
    0.86731E-02        -0.21453E-02         0.00000E+00
    0.70791E-02        -0.20052E-02         0.00000E+00
    0.54094E-02        -0.17265E-02         0.00000E+00
    0.36691E-02        -0.13031E-02         0.00000E+00
    0.18638E-02        -0.72926E-03         0.00000E+00
    0.00000E+00         0.00000E+00         0.00000E+00
    0.20231E-01         0.11848E-01         0.00000E+00
    0.20159E-01         0.10747E-01         0.00000E+00
    0.20044E-01         0.96512E-02         0.00000E+00
    0.19878E-01         0.85643E-02         0.00000E+00
    0.19658E-01         0.74920E-02         0.00000E+00
    0.19378E-01         0.64405E-02         0.00000E+00
    0.19033E-01         0.54162E-02         0.00000E+00
    0.18620E-01         0.44258E-02         0.00000E+00
    0.18135E-01         0.34765E-02         0.00000E+00
    0.17576E-01         0.25757E-02         0.00000E+00
    0.16941E-01         0.17310E-02         0.00000E+00
    0.16227E-01         0.94998E-03         0.00000E+00
    0.15434E-01         0.24042E-03         0.00000E+00
    0.14560E-01        -0.38993E-03         0.00000E+00
    0.13607E-01        -0.93336E-03         0.00000E+00
    0.12573E-01        -0.13822E-02         0.00000E+00
    0.11460E-01        -0.17290E-02         0.00000E+00
    0.10269E-01        -0.19663E-02         0.00000E+00
    0.90028E-02        -0.20871E-02         0.00000E+00
    0.76632E-02        -0.20844E-02         0.00000E+00
    0.62536E-02        -0.19515E-02         0.00000E+00
    0.47777E-02        -0.16823E-02         0.00000E+00
    0.32399E-02        -0.12709E-02         0.00000E+00
    0.16454E-02        -0.71173E-03         0.00000E+00
    0.00000E+00         0.00000E+00         0.00000E+00
    0.17668E-01         0.11796E-01         0.00000E+00
    0.17601E-01         0.10703E-01         0.00000E+00
    0.17495E-01         0.96142E-02         0.00000E+00
    0.17346E-01         0.85356E-02         0.00000E+00
    0.17149E-01         0.74722E-02         0.00000E+00
    0.16901E-01         0.64298E-02         0.00000E+00
    0.16596E-01         0.54148E-02         0.00000E+00
    0.16233E-01         0.44336E-02         0.00000E+00
    0.15808E-01         0.34933E-02         0.00000E+00
    0.15318E-01         0.26010E-02         0.00000E+00
    0.14762E-01         0.17640E-02         0.00000E+00
    0.14138E-01         0.99005E-03         0.00000E+00
    0.13445E-01         0.28654E-03         0.00000E+00
    0.12683E-01        -0.33885E-03         0.00000E+00
    0.11850E-01        -0.87853E-03         0.00000E+00
    0.10949E-01        -0.13250E-02         0.00000E+00
    0.99780E-02        -0.16708E-02         0.00000E+00
    0.89401E-02        -0.19087E-02         0.00000E+00
    0.78365E-02        -0.20317E-02         0.00000E+00
    0.66694E-02        -0.20330E-02         0.00000E+00
    0.54417E-02        -0.19060E-02         0.00000E+00
    0.41567E-02        -0.16447E-02         0.00000E+00
    0.28182E-02        -0.12434E-02         0.00000E+00
    0.14309E-02        -0.69670E-03         0.00000E+00
    0.00000E+00         0.00000E+00         0.00000E+00
    0.15120E-01         0.11747E-01         0.00000E+00
    0.15058E-01         0.10659E-01         0.00000E+00
    0.14963E-01         0.95773E-02         0.00000E+00
    0.14832E-01         0.85058E-02         0.00000E+00
    0.14661E-01         0.74501E-02         0.00000E+00
    0.14446E-01         0.64157E-02         0.00000E+00
    0.14183E-01         0.54086E-02         0.00000E+00
    0.13870E-01         0.44355E-02         0.00000E+00
    0.13505E-01         0.35030E-02         0.00000E+00
    0.13085E-01         0.26181E-02         0.00000E+00
    0.12608E-01         0.17881E-02         0.00000E+00
    0.12074E-01         0.10204E-02         0.00000E+00
    0.11480E-01         0.32238E-03         0.00000E+00
    0.10828E-01        -0.29845E-03         0.00000E+00
    0.10116E-01        -0.83459E-03         0.00000E+00
    0.93453E-02        -0.12786E-02         0.00000E+00
    0.85159E-02        -0.16232E-02         0.00000E+00
    0.76291E-02        -0.18613E-02         0.00000E+00
    0.66865E-02        -0.19858E-02         0.00000E+00
    0.56899E-02        -0.19902E-02         0.00000E+00
    0.46418E-02        -0.18680E-02         0.00000E+00
    0.35451E-02        -0.16132E-02         0.00000E+00
    0.24031E-02        -0.12202E-02         0.00000E+00
    0.12199E-02        -0.68398E-03         0.00000E+00
    0.00000E+00         0.00000E+00         0.00000E+00
    0.12582E-01         0.11702E-01         0.00000E+00
    0.12528E-01         0.10619E-01         0.00000E+00
    0.12447E-01         0.95427E-02         0.00000E+00
    0.12335E-01         0.84773E-02         0.00000E+00
    0.12191E-01         0.74279E-02         0.00000E+00
    0.12010E-01         0.64002E-02         0.00000E+00
    0.11789E-01         0.54000E-02         0.00000E+00
    0.11528E-01         0.44336E-02         0.00000E+00
    0.11222E-01         0.35078E-02         0.00000E+00
    0.10872E-01         0.26293E-02         0.00000E+00
    0.10475E-01         0.18053E-02         0.00000E+00
    0.10030E-01         0.10430E-02         0.00000E+00
    0.95358E-02         0.34975E-03         0.00000E+00
    0.89930E-02        -0.26702E-03         0.00000E+00
    0.84010E-02        -0.79996E-03         0.00000E+00
    0.77600E-02        -0.12417E-02         0.00000E+00
    0.70706E-02        -0.15851E-02         0.00000E+00
    0.63336E-02        -0.18230E-02         0.00000E+00
    0.55504E-02        -0.19486E-02         0.00000E+00
    0.47226E-02        -0.19553E-02         0.00000E+00
    0.38522E-02        -0.18368E-02         0.00000E+00
    0.29416E-02        -0.15872E-02         0.00000E+00
    0.19938E-02        -0.12011E-02         0.00000E+00
    0.10120E-02        -0.67346E-03         0.00000E+00
    0.00000E+00         0.00000E+00         0.00000E+00
    0.10054E-01         0.11663E-01         0.00000E+00
    0.10009E-01         0.10584E-01         0.00000E+00
    0.99427E-02         0.95121E-02         0.00000E+00
    0.98522E-02         0.84515E-02         0.00000E+00
    0.97351E-02         0.74074E-02         0.00000E+00
    0.95891E-02         0.63852E-02         0.00000E+00
    0.94120E-02         0.53905E-02         0.00000E+00
    0.92020E-02         0.44298E-02         0.00000E+00
    0.89574E-02         0.35094E-02         0.00000E+00
    0.86767E-02         0.26362E-02         0.00000E+00
    0.83588E-02         0.18171E-02         0.00000E+00
    0.80029E-02         0.10594E-02         0.00000E+00
    0.76083E-02         0.37017E-03         0.00000E+00
    0.71746E-02        -0.24316E-03         0.00000E+00
    0.67017E-02        -0.77333E-03         0.00000E+00
    0.61898E-02        -0.12131E-02         0.00000E+00
    0.56394E-02        -0.15552E-02         0.00000E+00
    0.50512E-02        -0.17928E-02         0.00000E+00
    0.44261E-02        -0.19191E-02         0.00000E+00
    0.37656E-02        -0.19275E-02         0.00000E+00
    0.30713E-02        -0.18119E-02         0.00000E+00
    0.23451E-02        -0.15664E-02         0.00000E+00
    0.15893E-02        -0.11857E-02         0.00000E+00
    0.80655E-03        -0.66501E-03         0.00000E+00
    0.00000E+00         0.00000E+00         0.00000E+00
    0.75341E-02         0.11631E-01         0.00000E+00
    0.74992E-02         0.10555E-01         0.00000E+00
    0.74484E-02         0.94869E-02         0.00000E+00
    0.73797E-02         0.84301E-02         0.00000E+00
    0.72911E-02         0.73901E-02         0.00000E+00
    0.71810E-02         0.63720E-02         0.00000E+00
    0.70477E-02         0.53818E-02         0.00000E+00
    0.68898E-02         0.44254E-02         0.00000E+00
    0.67060E-02         0.35093E-02         0.00000E+00
    0.64954E-02         0.26402E-02         0.00000E+00
    0.62570E-02         0.18250E-02         0.00000E+00
    0.59901E-02         0.10708E-02         0.00000E+00
    0.56943E-02         0.38483E-03         0.00000E+00
    0.53693E-02        -0.22575E-03         0.00000E+00
    0.50151E-02        -0.75367E-03         0.00000E+00
    0.46318E-02        -0.11917E-02         0.00000E+00
    0.42196E-02        -0.15329E-02         0.00000E+00
    0.37792E-02        -0.17701E-02         0.00000E+00
    0.33113E-02        -0.18968E-02         0.00000E+00
    0.28169E-02        -0.19065E-02         0.00000E+00
    0.22973E-02        -0.17930E-02         0.00000E+00
    0.17540E-02        -0.15506E-02         0.00000E+00
    0.11886E-02        -0.11740E-02         0.00000E+00
    0.60314E-03        -0.65853E-03         0.00000E+00
    0.00000E+00         0.00000E+00         0.00000E+00
    0.50196E-02         0.11608E-01         0.00000E+00
    0.49959E-02         0.10534E-01         0.00000E+00
    0.49615E-02         0.94681E-02         0.00000E+00
    0.49153E-02         0.84140E-02         0.00000E+00
    0.48559E-02         0.73769E-02         0.00000E+00
    0.47822E-02         0.63619E-02         0.00000E+00
    0.46931E-02         0.53747E-02         0.00000E+00
    0.45876E-02         0.44214E-02         0.00000E+00
    0.44650E-02         0.35084E-02         0.00000E+00
    0.43245E-02         0.26423E-02         0.00000E+00
    0.41655E-02         0.18299E-02         0.00000E+00
    0.39876E-02         0.10783E-02         0.00000E+00
    0.37905E-02         0.39466E-03         0.00000E+00
    0.35740E-02        -0.21391E-03         0.00000E+00
    0.33381E-02        -0.74018E-03         0.00000E+00
    0.30828E-02        -0.11770E-02         0.00000E+00
    0.28083E-02        -0.15174E-02         0.00000E+00
    0.25151E-02        -0.17543E-02         0.00000E+00
    0.22036E-02        -0.18812E-02         0.00000E+00
    0.18745E-02        -0.18917E-02         0.00000E+00
    0.15286E-02        -0.17796E-02         0.00000E+00
    0.11670E-02        -0.15394E-02         0.00000E+00
    0.79076E-03        -0.11657E-02         0.00000E+00
    0.40125E-03        -0.65395E-03         0.00000E+00
    0.00000E+00         0.00000E+00         0.00000E+00
    0.25089E-02         0.11594E-01         0.00000E+00
    0.24968E-02         0.10521E-01         0.00000E+00
    0.24796E-02         0.94565E-02         0.00000E+00
    0.24563E-02         0.84041E-02         0.00000E+00
    0.24265E-02         0.73687E-02         0.00000E+00
    0.23896E-02         0.63555E-02         0.00000E+00
    0.23449E-02         0.53702E-02         0.00000E+00
    0.22921E-02         0.44188E-02         0.00000E+00
    0.22308E-02         0.35076E-02         0.00000E+00
    0.21605E-02         0.26433E-02         0.00000E+00
    0.20810E-02         0.18326E-02         0.00000E+00
    0.19921E-02         0.10826E-02         0.00000E+00
    0.18936E-02         0.40030E-03         0.00000E+00
    0.17854E-02        -0.20704E-03         0.00000E+00
    0.16675E-02        -0.73231E-03         0.00000E+00
    0.15399E-02        -0.11684E-02         0.00000E+00
    0.14027E-02        -0.15082E-02         0.00000E+00
    0.12562E-02        -0.17450E-02         0.00000E+00
    0.11006E-02        -0.18720E-02         0.00000E+00
    0.93620E-03        -0.18830E-02         0.00000E+00
    0.76344E-03        -0.17718E-02         0.00000E+00
    0.58281E-03        -0.15328E-02         0.00000E+00
    0.39489E-03        -0.11608E-02         0.00000E+00
    0.20037E-03        -0.65122E-03         0.00000E+00
    0.00000E+00         0.00000E+00         0.00000E+00
    0.00000E+00         0.11589E-01         0.00000E+00
    0.00000E+00         0.10517E-01         0.00000E+00
    0.00000E+00         0.94526E-02         0.00000E+00
    0.00000E+00         0.84007E-02         0.00000E+00
    0.00000E+00         0.73659E-02         0.00000E+00
    0.00000E+00         0.63533E-02         0.00000E+00
    0.00000E+00         0.53686E-02         0.00000E+00
    0.00000E+00         0.44178E-02         0.00000E+00
    0.00000E+00         0.35073E-02         0.00000E+00
    0.00000E+00         0.26435E-02         0.00000E+00
    0.00000E+00         0.18334E-02         0.00000E+00
    0.00000E+00         0.10839E-02         0.00000E+00
    0.00000E+00         0.40214E-03         0.00000E+00
    0.00000E+00        -0.20480E-03         0.00000E+00
    0.00000E+00        -0.72972E-03         0.00000E+00
    0.00000E+00        -0.11655E-02         0.00000E+00
    0.00000E+00        -0.15052E-02         0.00000E+00
    0.00000E+00        -0.17419E-02         0.00000E+00
    0.00000E+00        -0.18690E-02         0.00000E+00
    0.00000E+00        -0.18801E-02         0.00000E+00
    0.00000E+00        -0.17691E-02         0.00000E+00
    0.00000E+00        -0.15306E-02         0.00000E+00
    0.00000E+00        -0.11592E-02         0.00000E+00
    0.00000E+00        -0.65032E-03         0.00000E+00
    0.00000E+00         0.00000E+00         0.00000E+00
CELL_DATA       1152
VECTORS vDarcy double 
    0.26750E-19        -0.12437E-19         0.00000E+00
   -0.19458E-20         0.59337E-20         0.00000E+00
    0.33691E-20         0.67113E-19         0.00000E+00
    0.17046E-19         0.86123E-19         0.00000E+00
    0.44259E-20         0.40950E-19         0.00000E+00
   -0.25165E-21         0.48717E-20         0.00000E+00
    0.12375E-19         0.18532E-19         0.00000E+00
    0.13188E-19         0.18803E-19         0.00000E+00
    0.37174E-20         0.26840E-20         0.00000E+00
   -0.13470E-20        -0.26218E-20         0.00000E+00
    0.53288E-22         0.11040E-19         0.00000E+00
    0.42583E-21         0.15206E-19         0.00000E+00
   -0.10963E-21         0.14409E-19         0.00000E+00
    0.26073E-20         0.19170E-19         0.00000E+00
    0.39428E-20         0.92879E-20         0.00000E+00
    0.33555E-20         0.16659E-20         0.00000E+00
    0.33918E-20         0.79935E-20         0.00000E+00
    0.23744E-20         0.74085E-20         0.00000E+00
    0.66460E-21         0.23699E-20         0.00000E+00
    0.85467E-21         0.99298E-21         0.00000E+00
    0.11025E-20         0.55652E-21         0.00000E+00
    0.77685E-21         0.46610E-21         0.00000E+00
    0.42894E-21         0.51697E-21         0.00000E+00
    0.38238E-21         0.43838E-21         0.00000E+00
    0.44880E-19         0.22597E-19         0.00000E+00
    0.15093E-19         0.29383E-19         0.00000E+00
    0.13230E-19         0.40212E-19         0.00000E+00
    0.30190E-19         0.82388E-19         0.00000E+00
    0.36178E-19         0.51317E-19         0.00000E+00
    0.27444E-19         0.79173E-20         0.00000E+00
    0.15192E-19         0.15112E-19         0.00000E+00
    0.89778E-20         0.27624E-19         0.00000E+00
    0.50405E-21         0.11807E-19         0.00000E+00
   -0.29097E-20        -0.32672E-20         0.00000E+00
    0.59847E-21         0.67770E-20         0.00000E+00
    0.30614E-20         0.16633E-19         0.00000E+00
    0.30768E-20         0.13501E-19         0.00000E+00
    0.40470E-20         0.16391E-19         0.00000E+00
    0.40230E-20         0.10756E-19         0.00000E+00
    0.21965E-20         0.26117E-20         0.00000E+00
    0.30941E-20         0.61138E-20         0.00000E+00
    0.47833E-20         0.86164E-20         0.00000E+00
    0.42611E-20         0.33941E-20         0.00000E+00
    0.26547E-20         0.13851E-20         0.00000E+00
    0.23059E-20         0.26536E-21         0.00000E+00
    0.27537E-20         0.63508E-21         0.00000E+00
    0.21744E-20         0.12753E-20         0.00000E+00
    0.13015E-20         0.59947E-21         0.00000E+00
    0.54745E-19         0.57894E-19         0.00000E+00
    0.28170E-19         0.50448E-19         0.00000E+00
    0.15330E-19         0.33849E-19         0.00000E+00
    0.26733E-19         0.60388E-19         0.00000E+00
    0.44605E-19         0.49456E-19         0.00000E+00
    0.37530E-19         0.25588E-19         0.00000E+00
    0.27212E-19         0.20011E-19         0.00000E+00
    0.24973E-19         0.31178E-19         0.00000E+00
    0.20067E-19         0.21633E-19         0.00000E+00
    0.11235E-19        -0.84709E-21         0.00000E+00
    0.33741E-20         0.87092E-20         0.00000E+00
    0.85492E-21         0.14758E-19         0.00000E+00
    0.23732E-20         0.13843E-19         0.00000E+00
    0.22199E-20         0.15232E-19         0.00000E+00
    0.65116E-20         0.76473E-20         0.00000E+00
    0.93462E-20         0.47121E-20         0.00000E+00
    0.47090E-20         0.77532E-20         0.00000E+00
    0.31907E-20         0.68061E-20         0.00000E+00
    0.48699E-20         0.40475E-20         0.00000E+00
    0.45926E-20         0.26154E-20         0.00000E+00
    0.38187E-20         0.15780E-21         0.00000E+00
    0.31984E-20         0.91515E-21         0.00000E+00
    0.27906E-20         0.19823E-20         0.00000E+00
    0.26823E-20         0.87350E-21         0.00000E+00
    0.11307E-19         0.65884E-19         0.00000E+00
    0.28151E-19         0.52189E-19         0.00000E+00
    0.32256E-19         0.40842E-19         0.00000E+00
    0.28578E-19         0.45671E-19         0.00000E+00
    0.27477E-19         0.47403E-19         0.00000E+00
    0.27126E-19         0.35068E-19         0.00000E+00
    0.23235E-19         0.24739E-19         0.00000E+00
    0.24923E-19         0.27001E-19         0.00000E+00
    0.28939E-19         0.26700E-19         0.00000E+00
    0.22952E-19         0.89059E-20         0.00000E+00
    0.16253E-19         0.13516E-19         0.00000E+00
    0.12875E-19         0.15848E-19         0.00000E+00
    0.83472E-20         0.15763E-19         0.00000E+00
    0.92533E-20         0.12559E-19         0.00000E+00
    0.11366E-19         0.39160E-20         0.00000E+00
    0.92833E-20         0.76910E-20         0.00000E+00
    0.75093E-20         0.11185E-19         0.00000E+00
    0.74709E-20         0.49304E-20         0.00000E+00
    0.70893E-20         0.46256E-20         0.00000E+00
    0.57198E-20         0.36841E-20         0.00000E+00
    0.47868E-20         0.79600E-21         0.00000E+00
    0.40914E-20         0.15927E-20         0.00000E+00
    0.37362E-20         0.20678E-20         0.00000E+00
    0.37827E-20         0.84976E-21         0.00000E+00
    0.18220E-20         0.52754E-19         0.00000E+00
    0.78542E-20         0.42443E-19         0.00000E+00
    0.12206E-19         0.42132E-19         0.00000E+00
    0.89816E-20         0.51284E-19         0.00000E+00
    0.76878E-20         0.44183E-19         0.00000E+00
    0.13390E-19         0.32936E-19         0.00000E+00
    0.19109E-19         0.25043E-19         0.00000E+00
    0.18478E-19         0.25641E-19         0.00000E+00
    0.18325E-19         0.24196E-19         0.00000E+00
    0.18763E-19         0.16958E-19         0.00000E+00
    0.13731E-19         0.17196E-19         0.00000E+00
    0.10949E-19         0.18327E-19         0.00000E+00
    0.12571E-19         0.16190E-19         0.00000E+00
    0.13329E-19         0.10468E-19         0.00000E+00
    0.94525E-20         0.77721E-20         0.00000E+00
    0.58768E-20         0.94930E-20         0.00000E+00
    0.76379E-20         0.93964E-20         0.00000E+00
    0.94002E-20         0.49956E-20         0.00000E+00
    0.91312E-20         0.52109E-20         0.00000E+00
    0.90519E-20         0.45477E-20         0.00000E+00
    0.74021E-20         0.25152E-20         0.00000E+00
    0.54695E-20         0.25016E-20         0.00000E+00
    0.47970E-20         0.21867E-20         0.00000E+00
    0.45572E-20         0.92428E-21         0.00000E+00
    0.70528E-20         0.43879E-19         0.00000E+00
    0.14742E-19         0.37596E-19         0.00000E+00
    0.15284E-19         0.42085E-19         0.00000E+00
    0.20243E-19         0.49596E-19         0.00000E+00
    0.27329E-19         0.40080E-19         0.00000E+00
    0.26614E-19         0.32052E-19         0.00000E+00
    0.22600E-19         0.24221E-19         0.00000E+00
    0.17852E-19         0.31842E-19         0.00000E+00
    0.12257E-19         0.23744E-19         0.00000E+00
    0.10140E-19         0.19088E-19         0.00000E+00
    0.11252E-19         0.18986E-19         0.00000E+00
    0.10477E-19         0.20093E-19         0.00000E+00
    0.10402E-19         0.12877E-19         0.00000E+00
    0.11035E-19         0.12390E-19         0.00000E+00
    0.85317E-20         0.12230E-19         0.00000E+00
    0.83398E-20         0.88032E-20         0.00000E+00
    0.96994E-20         0.69656E-20         0.00000E+00
    0.89071E-20         0.64564E-20         0.00000E+00
    0.69476E-20         0.59785E-20         0.00000E+00
    0.66107E-20         0.41964E-20         0.00000E+00
    0.72356E-20         0.38913E-20         0.00000E+00
    0.68353E-20         0.34584E-20         0.00000E+00
    0.61645E-20         0.25730E-20         0.00000E+00
    0.59391E-20         0.10033E-20         0.00000E+00
    0.12078E-20         0.35619E-19         0.00000E+00
    0.32934E-20         0.36082E-19         0.00000E+00
    0.90966E-20         0.37255E-19         0.00000E+00
    0.19916E-19         0.38647E-19         0.00000E+00
    0.26232E-19         0.37628E-19         0.00000E+00
    0.21784E-19         0.39667E-19         0.00000E+00
    0.12192E-19         0.30213E-19         0.00000E+00
    0.95825E-20         0.33209E-19         0.00000E+00
    0.10017E-19         0.27538E-19         0.00000E+00
    0.51940E-20         0.22234E-19         0.00000E+00
    0.31963E-20         0.16726E-19         0.00000E+00
    0.71258E-20         0.19199E-19         0.00000E+00
    0.86516E-20         0.12321E-19         0.00000E+00
    0.66805E-20         0.14285E-19         0.00000E+00
    0.82698E-20         0.11248E-19         0.00000E+00
    0.13264E-19         0.49822E-20         0.00000E+00
    0.14483E-19         0.82084E-20         0.00000E+00
    0.10669E-19         0.98197E-20         0.00000E+00
    0.80885E-20         0.71552E-20         0.00000E+00
    0.71023E-20         0.43428E-20         0.00000E+00
    0.64071E-20         0.38151E-20         0.00000E+00
    0.65662E-20         0.37758E-20         0.00000E+00
    0.69548E-20         0.25380E-20         0.00000E+00
    0.73972E-20         0.82130E-21         0.00000E+00
   -0.88892E-21         0.35300E-19         0.00000E+00
   -0.89013E-21         0.34316E-19         0.00000E+00
   -0.95241E-22         0.32422E-19         0.00000E+00
    0.50879E-21         0.32056E-19         0.00000E+00
    0.31533E-20         0.35259E-19         0.00000E+00
    0.66847E-20         0.42952E-19         0.00000E+00
    0.50086E-20         0.38196E-19         0.00000E+00
    0.83993E-21         0.32004E-19         0.00000E+00
   -0.41883E-22         0.29190E-19         0.00000E+00
    0.14720E-20         0.23891E-19         0.00000E+00
    0.27356E-20         0.15803E-19         0.00000E+00
    0.62861E-20         0.12642E-19         0.00000E+00
    0.85449E-20         0.15093E-19         0.00000E+00
    0.81279E-20         0.13900E-19         0.00000E+00
    0.12296E-19         0.58749E-20         0.00000E+00
    0.13513E-19         0.41441E-20         0.00000E+00
    0.10849E-19         0.10492E-19         0.00000E+00
    0.10340E-19         0.11859E-19         0.00000E+00
    0.97918E-20         0.82450E-20         0.00000E+00
    0.82224E-20         0.58086E-20         0.00000E+00
    0.71964E-20         0.40706E-20         0.00000E+00
    0.72071E-20         0.33505E-20         0.00000E+00
    0.78607E-20         0.19212E-20         0.00000E+00
    0.82602E-20         0.59609E-21         0.00000E+00
    0.15698E-20         0.34619E-19         0.00000E+00
    0.47667E-20         0.31801E-19         0.00000E+00
    0.56996E-20         0.33209E-19         0.00000E+00
    0.50843E-20         0.31280E-19         0.00000E+00
    0.64597E-20         0.32015E-19         0.00000E+00
    0.12060E-19         0.37064E-19         0.00000E+00
    0.17894E-19         0.39925E-19         0.00000E+00
    0.14927E-19         0.37409E-19         0.00000E+00
    0.92538E-20         0.30340E-19         0.00000E+00
    0.84140E-20         0.22067E-19         0.00000E+00
    0.11838E-19         0.12939E-19         0.00000E+00
    0.14146E-19         0.96473E-20         0.00000E+00
    0.13622E-19         0.16353E-19         0.00000E+00
    0.13322E-19         0.13358E-19         0.00000E+00
    0.98025E-20         0.57691E-20         0.00000E+00
    0.65146E-20         0.63210E-20         0.00000E+00
    0.65616E-20         0.10932E-19         0.00000E+00
    0.79169E-20         0.10572E-19         0.00000E+00
    0.90540E-20         0.89428E-20         0.00000E+00
    0.87537E-20         0.69805E-20         0.00000E+00
    0.80999E-20         0.45785E-20         0.00000E+00
    0.82637E-20         0.26681E-20         0.00000E+00
    0.87443E-20         0.14693E-20         0.00000E+00
    0.86152E-20         0.77740E-21         0.00000E+00
    0.87306E-21         0.32176E-19         0.00000E+00
    0.35989E-20         0.28322E-19         0.00000E+00
    0.60118E-20         0.33343E-19         0.00000E+00
    0.74632E-20         0.30310E-19         0.00000E+00
    0.98665E-20         0.29206E-19         0.00000E+00
    0.13096E-19         0.31043E-19         0.00000E+00
    0.14329E-19         0.38880E-19         0.00000E+00
    0.16168E-19         0.39584E-19         0.00000E+00
    0.19199E-19         0.30807E-19         0.00000E+00
    0.17653E-19         0.23985E-19         0.00000E+00
    0.13868E-19         0.11383E-19         0.00000E+00
    0.10338E-19         0.12426E-19         0.00000E+00
    0.10449E-19         0.13986E-19         0.00000E+00
    0.12736E-19         0.13738E-19         0.00000E+00
    0.11677E-19         0.99674E-20         0.00000E+00
    0.89716E-20         0.81164E-20         0.00000E+00
    0.78212E-20         0.10240E-19         0.00000E+00
    0.88138E-20         0.89162E-20         0.00000E+00
    0.92657E-20         0.90097E-20         0.00000E+00
    0.90984E-20         0.73811E-20         0.00000E+00
    0.92902E-20         0.46398E-20         0.00000E+00
    0.89341E-20         0.27990E-20         0.00000E+00
    0.84096E-20         0.13823E-20         0.00000E+00
    0.88502E-20         0.55297E-21         0.00000E+00
    0.15100E-20         0.29793E-19         0.00000E+00
    0.10535E-20         0.28435E-19         0.00000E+00
    0.15647E-20         0.30305E-19         0.00000E+00
    0.49138E-20         0.28548E-19         0.00000E+00
    0.37166E-20         0.29762E-19         0.00000E+00
    0.10443E-20         0.29929E-19         0.00000E+00
    0.56843E-20         0.34121E-19         0.00000E+00
    0.11735E-19         0.36454E-19         0.00000E+00
    0.12445E-19         0.30195E-19         0.00000E+00
    0.11968E-19         0.26620E-19         0.00000E+00
    0.71643E-20         0.17337E-19         0.00000E+00
    0.48530E-20         0.12314E-19         0.00000E+00
    0.75033E-20         0.11336E-19         0.00000E+00
    0.10039E-19         0.11565E-19         0.00000E+00
    0.12165E-19         0.11072E-19         0.00000E+00
    0.11612E-19         0.10271E-19         0.00000E+00
    0.11227E-19         0.96197E-20         0.00000E+00
    0.11673E-19         0.80979E-20         0.00000E+00
    0.11875E-19         0.91739E-20         0.00000E+00
    0.12351E-19         0.69082E-20         0.00000E+00
    0.12006E-19         0.52662E-20         0.00000E+00
    0.10856E-19         0.36793E-20         0.00000E+00
    0.10944E-19         0.93769E-21         0.00000E+00
    0.11462E-19         0.39817E-22         0.00000E+00
    0.55437E-21         0.27729E-19         0.00000E+00
    0.31886E-20         0.28322E-19         0.00000E+00
    0.41883E-20         0.28908E-19         0.00000E+00
    0.31826E-20         0.27602E-19         0.00000E+00
    0.27700E-20         0.32318E-19         0.00000E+00
    0.42937E-20         0.28522E-19         0.00000E+00
    0.90535E-20         0.26128E-19         0.00000E+00
    0.13449E-19         0.34001E-19         0.00000E+00
    0.12938E-19         0.32449E-19         0.00000E+00
    0.12899E-19         0.24881E-19         0.00000E+00
    0.15150E-19         0.21630E-19         0.00000E+00
    0.13173E-19         0.12310E-19         0.00000E+00
    0.11183E-19         0.10679E-19         0.00000E+00
    0.11692E-19         0.91784E-20         0.00000E+00
    0.11138E-19         0.11886E-19         0.00000E+00
    0.10556E-19         0.10593E-19         0.00000E+00
    0.12130E-19         0.81080E-20         0.00000E+00
    0.13239E-19         0.80549E-20         0.00000E+00
    0.13771E-19         0.84824E-20         0.00000E+00
    0.14772E-19         0.61230E-20         0.00000E+00
    0.14956E-19         0.62121E-20         0.00000E+00
    0.14632E-19         0.42086E-20         0.00000E+00
    0.14171E-19         0.78032E-21         0.00000E+00
    0.13623E-19         0.22848E-21         0.00000E+00
   -0.11600E-20         0.28334E-19         0.00000E+00
   -0.25037E-20         0.26426E-19         0.00000E+00
   -0.69306E-21         0.27994E-19         0.00000E+00
    0.32887E-20         0.25540E-19         0.00000E+00
    0.86957E-20         0.29386E-19         0.00000E+00
    0.11959E-19         0.26668E-19         0.00000E+00
    0.10476E-19         0.24705E-19         0.00000E+00
    0.10294E-19         0.31209E-19         0.00000E+00
    0.13480E-19         0.32566E-19         0.00000E+00
    0.17599E-19         0.20684E-19         0.00000E+00
    0.21245E-19         0.19931E-19         0.00000E+00
    0.21614E-19         0.15617E-19         0.00000E+00
    0.17047E-19         0.13929E-19         0.00000E+00
    0.13074E-19         0.93937E-20         0.00000E+00
    0.13640E-19         0.11659E-19         0.00000E+00
    0.14543E-19         0.10498E-19         0.00000E+00
    0.13885E-19         0.72866E-20         0.00000E+00
    0.13810E-19         0.78429E-20         0.00000E+00
    0.14552E-19         0.74200E-20         0.00000E+00
    0.14663E-19         0.60735E-20         0.00000E+00
    0.15302E-19         0.54382E-20         0.00000E+00
    0.16239E-19         0.43699E-20         0.00000E+00
    0.15466E-19         0.18526E-20         0.00000E+00
    0.14608E-19         0.56355E-21         0.00000E+00
    0.12035E-21         0.29374E-19         0.00000E+00
    0.10510E-20         0.25799E-19         0.00000E+00
    0.43037E-20         0.23557E-19         0.00000E+00
    0.77366E-20         0.22562E-19         0.00000E+00
    0.10127E-19         0.24567E-19         0.00000E+00
    0.11554E-19         0.26796E-19         0.00000E+00
    0.10459E-19         0.27155E-19         0.00000E+00
    0.10107E-19         0.29293E-19         0.00000E+00
    0.14726E-19         0.26678E-19         0.00000E+00
    0.17196E-19         0.19982E-19         0.00000E+00
    0.13653E-19         0.20530E-19         0.00000E+00
    0.11869E-19         0.16433E-19         0.00000E+00
    0.13944E-19         0.15604E-19         0.00000E+00
    0.15312E-19         0.10322E-19         0.00000E+00
    0.14503E-19         0.10974E-19         0.00000E+00
    0.14394E-19         0.10389E-19         0.00000E+00
    0.14214E-19         0.82331E-20         0.00000E+00
    0.13687E-19         0.74990E-20         0.00000E+00
    0.13521E-19         0.71874E-20         0.00000E+00
    0.13191E-19         0.65252E-20         0.00000E+00
    0.13365E-19         0.41737E-20         0.00000E+00
    0.14421E-19         0.36408E-20         0.00000E+00
    0.15380E-19         0.23956E-20         0.00000E+00
    0.15554E-19         0.70550E-21         0.00000E+00
    0.16601E-20         0.27594E-19         0.00000E+00
    0.38103E-20         0.24499E-19         0.00000E+00
    0.33015E-20         0.22113E-19         0.00000E+00
    0.16376E-20         0.22237E-19         0.00000E+00
    0.20001E-20         0.22140E-19         0.00000E+00
    0.29594E-20         0.26836E-19         0.00000E+00
    0.41121E-20         0.27057E-19         0.00000E+00
    0.75651E-20         0.26289E-19         0.00000E+00
    0.11480E-19         0.21149E-19         0.00000E+00
    0.99215E-20         0.24600E-19         0.00000E+00
    0.67161E-20         0.22661E-19         0.00000E+00
    0.75621E-20         0.15240E-19         0.00000E+00
    0.91311E-20         0.13153E-19         0.00000E+00
    0.10595E-19         0.99409E-20         0.00000E+00
    0.12977E-19         0.97829E-20         0.00000E+00
    0.14138E-19         0.10529E-19         0.00000E+00
    0.13214E-19         0.91968E-20         0.00000E+00
    0.13381E-19         0.68960E-20         0.00000E+00
    0.14623E-19         0.67139E-20         0.00000E+00
    0.15302E-19         0.66499E-20         0.00000E+00
    0.15042E-19         0.41351E-20         0.00000E+00
    0.14952E-19         0.27130E-20         0.00000E+00
    0.15428E-19         0.18893E-20         0.00000E+00
    0.15861E-19         0.60454E-21         0.00000E+00
   -0.76948E-21         0.26703E-19         0.00000E+00
   -0.20162E-20         0.24486E-19         0.00000E+00
   -0.25817E-20         0.23201E-19         0.00000E+00
   -0.21825E-20         0.22414E-19         0.00000E+00
   -0.26666E-20         0.22083E-19         0.00000E+00
   -0.10339E-20         0.24300E-19         0.00000E+00
    0.27177E-20         0.24689E-19         0.00000E+00
    0.56802E-20         0.22241E-19         0.00000E+00
    0.57878E-20         0.21174E-19         0.00000E+00
    0.65418E-20         0.25379E-19         0.00000E+00
    0.12296E-19         0.19333E-19         0.00000E+00
    0.16148E-19         0.13869E-19         0.00000E+00
    0.16181E-19         0.12923E-19         0.00000E+00
    0.14663E-19         0.10225E-19         0.00000E+00
    0.12706E-19         0.90737E-20         0.00000E+00
    0.12008E-19         0.10775E-19         0.00000E+00
    0.13017E-19         0.88657E-20         0.00000E+00
    0.14727E-19         0.53507E-20         0.00000E+00
    0.15315E-19         0.64284E-20         0.00000E+00
    0.15483E-19         0.60890E-20         0.00000E+00
    0.16146E-19         0.42923E-20         0.00000E+00
    0.15957E-19         0.28353E-20         0.00000E+00
    0.15631E-19         0.16174E-20         0.00000E+00
    0.15582E-19         0.49218E-21         0.00000E+00
   -0.28367E-20         0.30309E-19         0.00000E+00
   -0.51723E-20         0.24462E-19         0.00000E+00
   -0.16529E-20         0.20271E-19         0.00000E+00
    0.22020E-20         0.21090E-19         0.00000E+00
    0.45611E-20         0.21533E-19         0.00000E+00
    0.71970E-20         0.20582E-19         0.00000E+00
    0.98453E-20         0.22007E-19         0.00000E+00
    0.95478E-20         0.22258E-19         0.00000E+00
    0.83038E-20         0.22293E-19         0.00000E+00
    0.12826E-19         0.18983E-19         0.00000E+00
    0.17112E-19         0.15689E-19         0.00000E+00
    0.17267E-19         0.13506E-19         0.00000E+00
    0.17697E-19         0.12823E-19         0.00000E+00
    0.17051E-19         0.12488E-19         0.00000E+00
    0.13830E-19         0.11988E-19         0.00000E+00
    0.12565E-19         0.98240E-20         0.00000E+00
    0.13076E-19         0.82973E-20         0.00000E+00
    0.12253E-19         0.50324E-20         0.00000E+00
    0.13008E-19         0.54034E-20         0.00000E+00
    0.14918E-19         0.50366E-20         0.00000E+00
    0.15766E-19         0.38333E-20         0.00000E+00
    0.15832E-19         0.34175E-20         0.00000E+00
    0.15378E-19         0.18144E-20         0.00000E+00
    0.15193E-19         0.52965E-21         0.00000E+00
    0.68376E-21         0.32462E-19         0.00000E+00
    0.72300E-21         0.24606E-19         0.00000E+00
   -0.54467E-21         0.17875E-19         0.00000E+00
    0.75879E-21         0.18327E-19         0.00000E+00
    0.41125E-20         0.18583E-19         0.00000E+00
    0.42558E-20         0.20753E-19         0.00000E+00
    0.29280E-20         0.20516E-19         0.00000E+00
    0.66371E-20         0.20338E-19         0.00000E+00
    0.13308E-19         0.18786E-19         0.00000E+00
    0.16184E-19         0.15092E-19         0.00000E+00
    0.16329E-19         0.15150E-19         0.00000E+00
    0.16253E-19         0.13968E-19         0.00000E+00
    0.15090E-19         0.13094E-19         0.00000E+00
    0.14954E-19         0.13000E-19         0.00000E+00
    0.16022E-19         0.13628E-19         0.00000E+00
    0.13822E-19         0.11648E-19         0.00000E+00
    0.11645E-19         0.81398E-20         0.00000E+00
    0.12714E-19         0.49440E-20         0.00000E+00
    0.13859E-19         0.35921E-20         0.00000E+00
    0.14434E-19         0.43631E-20         0.00000E+00
    0.14441E-19         0.36520E-20         0.00000E+00
    0.14459E-19         0.35143E-20         0.00000E+00
    0.14826E-19         0.18049E-20         0.00000E+00
    0.15026E-19         0.52427E-21         0.00000E+00
    0.19825E-20         0.29796E-19         0.00000E+00
    0.32696E-20         0.25945E-19         0.00000E+00
    0.22406E-20         0.18832E-19         0.00000E+00
    0.28074E-20         0.15500E-19         0.00000E+00
    0.46569E-20         0.16207E-19         0.00000E+00
    0.56503E-20         0.21992E-19         0.00000E+00
    0.68567E-20         0.19398E-19         0.00000E+00
    0.10118E-19         0.14485E-19         0.00000E+00
    0.13546E-19         0.14541E-19         0.00000E+00
    0.15868E-19         0.14139E-19         0.00000E+00
    0.16416E-19         0.15410E-19         0.00000E+00
    0.15195E-19         0.15005E-19         0.00000E+00
    0.13414E-19         0.15000E-19         0.00000E+00
    0.12382E-19         0.12263E-19         0.00000E+00
    0.12971E-19         0.12708E-19         0.00000E+00
    0.14467E-19         0.13272E-19         0.00000E+00
    0.15398E-19         0.77617E-20         0.00000E+00
    0.14384E-19         0.52676E-20         0.00000E+00
    0.12584E-19         0.39228E-20         0.00000E+00
    0.12054E-19         0.39883E-20         0.00000E+00
    0.12605E-19         0.34688E-20         0.00000E+00
    0.13451E-19         0.28326E-20         0.00000E+00
    0.14196E-19         0.13749E-20         0.00000E+00
    0.14361E-19         0.58913E-21         0.00000E+00
    0.43301E-20         0.23483E-19         0.00000E+00
    0.97042E-20         0.25597E-19         0.00000E+00
    0.11280E-19         0.18634E-19         0.00000E+00
    0.94668E-20         0.16944E-19         0.00000E+00
    0.56956E-20         0.16684E-19         0.00000E+00
    0.73389E-20         0.18879E-19         0.00000E+00
    0.12673E-19         0.15971E-19         0.00000E+00
    0.13833E-19         0.13490E-19         0.00000E+00
    0.13869E-19         0.12072E-19         0.00000E+00
    0.14272E-19         0.13883E-19         0.00000E+00
    0.13488E-19         0.15902E-19         0.00000E+00
    0.14195E-19         0.15026E-19         0.00000E+00
    0.16001E-19         0.14954E-19         0.00000E+00
    0.15828E-19         0.13513E-19         0.00000E+00
    0.14043E-19         0.12653E-19         0.00000E+00
    0.15693E-19         0.10181E-19         0.00000E+00
    0.17293E-19         0.83211E-20         0.00000E+00
    0.15220E-19         0.77957E-20         0.00000E+00
    0.13425E-19         0.49898E-20         0.00000E+00
    0.12789E-19         0.40875E-20         0.00000E+00
    0.12767E-19         0.28414E-20         0.00000E+00
    0.13360E-19         0.20202E-20         0.00000E+00
    0.13603E-19         0.11990E-20         0.00000E+00
    0.13669E-19         0.53425E-21         0.00000E+00
    0.25021E-20         0.16651E-19         0.00000E+00
    0.69110E-20         0.22646E-19         0.00000E+00
    0.77691E-20         0.19151E-19         0.00000E+00
    0.61945E-20         0.19816E-19         0.00000E+00
    0.58551E-20         0.17923E-19         0.00000E+00
    0.75277E-20         0.14323E-19         0.00000E+00
    0.88022E-20         0.13918E-19         0.00000E+00
    0.96984E-20         0.13487E-19         0.00000E+00
    0.94167E-20         0.12320E-19         0.00000E+00
    0.81398E-20         0.14509E-19         0.00000E+00
    0.90982E-20         0.15102E-19         0.00000E+00
    0.10552E-19         0.13665E-19         0.00000E+00
    0.10847E-19         0.14215E-19         0.00000E+00
    0.11688E-19         0.13584E-19         0.00000E+00
    0.14195E-19         0.11861E-19         0.00000E+00
    0.14589E-19         0.89302E-20         0.00000E+00
    0.14171E-19         0.83901E-20         0.00000E+00
    0.15444E-19         0.85261E-20         0.00000E+00
    0.16035E-19         0.54640E-20         0.00000E+00
    0.15448E-19         0.48365E-20         0.00000E+00
    0.14241E-19         0.33218E-20         0.00000E+00
    0.13458E-19         0.17299E-20         0.00000E+00
    0.13597E-19         0.11067E-20         0.00000E+00
    0.13675E-19         0.48327E-21         0.00000E+00
   -0.16379E-21         0.14313E-19         0.00000E+00
   -0.66449E-21         0.21076E-19         0.00000E+00
   -0.70532E-21         0.19904E-19         0.00000E+00
    0.12547E-20         0.18678E-19         0.00000E+00
    0.41256E-20         0.16530E-19         0.00000E+00
    0.54993E-20         0.12670E-19         0.00000E+00
    0.68634E-20         0.12933E-19         0.00000E+00
    0.69975E-20         0.13442E-19         0.00000E+00
    0.57484E-20         0.13896E-19         0.00000E+00
    0.71938E-20         0.12764E-19         0.00000E+00
    0.10509E-19         0.12573E-19         0.00000E+00
    0.11213E-19         0.14035E-19         0.00000E+00
    0.10823E-19         0.13941E-19         0.00000E+00
    0.12363E-19         0.11476E-19         0.00000E+00
    0.13302E-19         0.10523E-19         0.00000E+00
    0.13296E-19         0.98801E-20         0.00000E+00
    0.13441E-19         0.77145E-20         0.00000E+00
    0.14572E-19         0.67964E-20         0.00000E+00
    0.15250E-19         0.59251E-20         0.00000E+00
    0.14734E-19         0.54791E-20         0.00000E+00
    0.14611E-19         0.40088E-20         0.00000E+00
    0.14410E-19         0.20279E-20         0.00000E+00
    0.13885E-19         0.11938E-20         0.00000E+00
    0.13720E-19         0.48302E-21         0.00000E+00
    0.10494E-20         0.13427E-19         0.00000E+00
    0.31645E-20         0.20347E-19         0.00000E+00
    0.49842E-20         0.18854E-19         0.00000E+00
    0.58910E-20         0.16861E-19         0.00000E+00
    0.66877E-20         0.14679E-19         0.00000E+00
    0.59036E-20         0.13931E-19         0.00000E+00
    0.45712E-20         0.11640E-19         0.00000E+00
    0.54536E-20         0.13718E-19         0.00000E+00
    0.81957E-20         0.12127E-19         0.00000E+00
    0.10946E-19         0.10338E-19         0.00000E+00
    0.10870E-19         0.11761E-19         0.00000E+00
    0.10574E-19         0.14438E-19         0.00000E+00
    0.12228E-19         0.12275E-19         0.00000E+00
    0.13029E-19         0.10799E-19         0.00000E+00
    0.13089E-19         0.10200E-19         0.00000E+00
    0.13405E-19         0.98923E-20         0.00000E+00
    0.13094E-19         0.78688E-20         0.00000E+00
    0.13053E-19         0.55520E-20         0.00000E+00
    0.13315E-19         0.62296E-20         0.00000E+00
    0.13429E-19         0.55768E-20         0.00000E+00
    0.13839E-19         0.36241E-20         0.00000E+00
    0.14039E-19         0.24135E-20         0.00000E+00
    0.13756E-19         0.16158E-20         0.00000E+00
    0.13563E-19         0.41892E-21         0.00000E+00
   -0.11771E-20         0.13555E-19         0.00000E+00
    0.10760E-21         0.16819E-19         0.00000E+00
    0.33565E-20         0.17313E-19         0.00000E+00
    0.54611E-20         0.15390E-19         0.00000E+00
    0.59310E-20         0.14883E-19         0.00000E+00
    0.60884E-20         0.14354E-19         0.00000E+00
    0.64138E-20         0.12224E-19         0.00000E+00
    0.71601E-20         0.11505E-19         0.00000E+00
    0.91559E-20         0.96020E-20         0.00000E+00
    0.81540E-20         0.11115E-19         0.00000E+00
    0.67020E-20         0.12512E-19         0.00000E+00
    0.86202E-20         0.12064E-19         0.00000E+00
    0.10404E-19         0.11212E-19         0.00000E+00
    0.10719E-19         0.10747E-19         0.00000E+00
    0.10559E-19         0.10353E-19         0.00000E+00
    0.10929E-19         0.90548E-20         0.00000E+00
    0.12132E-19         0.78138E-20         0.00000E+00
    0.12041E-19         0.57402E-20         0.00000E+00
    0.11582E-19         0.62379E-20         0.00000E+00
    0.12268E-19         0.47683E-20         0.00000E+00
    0.13061E-19         0.32303E-20         0.00000E+00
    0.13263E-19         0.24043E-20         0.00000E+00
    0.13585E-19         0.15857E-20         0.00000E+00
    0.13710E-19         0.51762E-21         0.00000E+00
   -0.17224E-22         0.14749E-19         0.00000E+00
   -0.33885E-21         0.14662E-19         0.00000E+00
    0.56951E-21         0.15313E-19         0.00000E+00
    0.16893E-20         0.14166E-19         0.00000E+00
    0.31143E-20         0.14213E-19         0.00000E+00
    0.56041E-20         0.12377E-19         0.00000E+00
    0.71176E-20         0.12362E-19         0.00000E+00
    0.74042E-20         0.10334E-19         0.00000E+00
    0.65039E-20         0.96774E-20         0.00000E+00
    0.62858E-20         0.12259E-19         0.00000E+00
    0.78171E-20         0.11288E-19         0.00000E+00
    0.86755E-20         0.10511E-19         0.00000E+00
    0.82982E-20         0.11357E-19         0.00000E+00
    0.78914E-20         0.10693E-19         0.00000E+00
    0.85099E-20         0.99479E-20         0.00000E+00
    0.10884E-19         0.67162E-20         0.00000E+00
    0.13201E-19         0.66321E-20         0.00000E+00
    0.13519E-19         0.66952E-20         0.00000E+00
    0.12873E-19         0.63876E-20         0.00000E+00
    0.12758E-19         0.40471E-20         0.00000E+00
    0.12823E-19         0.30940E-20         0.00000E+00
    0.12937E-19         0.22245E-20         0.00000E+00
    0.13047E-19         0.13333E-20         0.00000E+00
    0.13176E-19         0.51601E-21         0.00000E+00
    0.16286E-21         0.14604E-19         0.00000E+00
    0.12118E-20         0.14080E-19         0.00000E+00
    0.22151E-20         0.13983E-19         0.00000E+00
    0.22100E-20         0.14381E-19         0.00000E+00
    0.29589E-20         0.11823E-19         0.00000E+00
    0.35701E-20         0.11666E-19         0.00000E+00
    0.45285E-20         0.10602E-19         0.00000E+00
    0.61494E-20         0.10187E-19         0.00000E+00
    0.66307E-20         0.10244E-19         0.00000E+00
    0.78342E-20         0.10707E-19         0.00000E+00
    0.90651E-20         0.10078E-19         0.00000E+00
    0.79598E-20         0.11969E-19         0.00000E+00
    0.76847E-20         0.10552E-19         0.00000E+00
    0.92830E-20         0.10306E-19         0.00000E+00
    0.11117E-19         0.78822E-20         0.00000E+00
    0.11814E-19         0.57104E-20         0.00000E+00
    0.11115E-19         0.60200E-20         0.00000E+00
    0.10568E-19         0.75359E-20         0.00000E+00
    0.11053E-19         0.57083E-20         0.00000E+00
    0.12213E-19         0.36807E-20         0.00000E+00
    0.12496E-19         0.31128E-20         0.00000E+00
    0.12326E-19         0.22617E-20         0.00000E+00
    0.12300E-19         0.12119E-20         0.00000E+00
    0.12407E-19         0.40158E-21         0.00000E+00
    0.62911E-21         0.13812E-19         0.00000E+00
    0.22014E-20         0.12251E-19         0.00000E+00
    0.19228E-20         0.15087E-19         0.00000E+00
    0.22022E-20         0.13002E-19         0.00000E+00
    0.32594E-20         0.11396E-19         0.00000E+00
    0.30690E-20         0.11672E-19         0.00000E+00
    0.36975E-20         0.90086E-20         0.00000E+00
    0.45679E-20         0.92889E-20         0.00000E+00
    0.58842E-20         0.93442E-20         0.00000E+00
    0.67354E-20         0.95524E-20         0.00000E+00
    0.67070E-20         0.10030E-19         0.00000E+00
    0.77540E-20         0.12074E-19         0.00000E+00
    0.89777E-20         0.94980E-20         0.00000E+00
    0.10166E-19         0.85738E-20         0.00000E+00
    0.10506E-19         0.74417E-20         0.00000E+00
    0.99102E-20         0.60488E-20         0.00000E+00
    0.95906E-20         0.67001E-20         0.00000E+00
    0.98266E-20         0.71668E-20         0.00000E+00
    0.10859E-19         0.45603E-20         0.00000E+00
    0.11186E-19         0.33414E-20         0.00000E+00
    0.11391E-19         0.29649E-20         0.00000E+00
    0.11676E-19         0.22939E-20         0.00000E+00
    0.11631E-19         0.12504E-20         0.00000E+00
    0.11517E-19         0.37113E-21         0.00000E+00
    0.86007E-21         0.12323E-19         0.00000E+00
    0.10879E-20         0.11940E-19         0.00000E+00
    0.20734E-20         0.14691E-19         0.00000E+00
    0.45011E-20         0.10691E-19         0.00000E+00
    0.48547E-20         0.12296E-19         0.00000E+00
    0.45077E-20         0.11309E-19         0.00000E+00
    0.40480E-20         0.92026E-20         0.00000E+00
    0.41283E-20         0.81442E-20         0.00000E+00
    0.50531E-20         0.82479E-20         0.00000E+00
    0.61204E-20         0.87301E-20         0.00000E+00
    0.77188E-20         0.92827E-20         0.00000E+00
    0.92223E-20         0.10272E-19         0.00000E+00
    0.96621E-20         0.96373E-20         0.00000E+00
    0.88533E-20         0.80547E-20         0.00000E+00
    0.90188E-20         0.74560E-20         0.00000E+00
    0.98259E-20         0.58228E-20         0.00000E+00
    0.10235E-19         0.68364E-20         0.00000E+00
    0.10890E-19         0.61394E-20         0.00000E+00
    0.11116E-19         0.43289E-20         0.00000E+00
    0.10777E-19         0.35850E-20         0.00000E+00
    0.10758E-19         0.25364E-20         0.00000E+00
    0.11109E-19         0.20854E-20         0.00000E+00
    0.11290E-19         0.13225E-20         0.00000E+00
    0.11280E-19         0.42322E-21         0.00000E+00
    0.15634E-21         0.11306E-19         0.00000E+00
    0.10855E-20         0.11800E-19         0.00000E+00
    0.31648E-20         0.11767E-19         0.00000E+00
    0.34555E-20         0.10897E-19         0.00000E+00
    0.31602E-20         0.12032E-19         0.00000E+00
    0.44026E-20         0.10678E-19         0.00000E+00
    0.56972E-20         0.89988E-20         0.00000E+00
    0.59821E-20         0.79827E-20         0.00000E+00
    0.55613E-20         0.79055E-20         0.00000E+00
    0.53468E-20         0.82197E-20         0.00000E+00
    0.54856E-20         0.80560E-20         0.00000E+00
    0.65947E-20         0.88856E-20         0.00000E+00
    0.77961E-20         0.93820E-20         0.00000E+00
    0.72603E-20         0.96545E-20         0.00000E+00
    0.68765E-20         0.60745E-20         0.00000E+00
    0.78553E-20         0.54186E-20         0.00000E+00
    0.91305E-20         0.55562E-20         0.00000E+00
    0.10271E-19         0.56244E-20         0.00000E+00
    0.10442E-19         0.44469E-20         0.00000E+00
    0.10708E-19         0.35390E-20         0.00000E+00
    0.10887E-19         0.24231E-20         0.00000E+00
    0.10816E-19         0.19187E-20         0.00000E+00
    0.10979E-19         0.11455E-20         0.00000E+00
    0.11104E-19         0.48436E-21         0.00000E+00
    0.39862E-21         0.10751E-19         0.00000E+00
    0.15865E-20         0.10237E-19         0.00000E+00
    0.32153E-20         0.96211E-20         0.00000E+00
    0.41602E-20         0.11807E-19         0.00000E+00
    0.50251E-20         0.10552E-19         0.00000E+00
    0.59634E-20         0.99777E-20         0.00000E+00
    0.53229E-20         0.90451E-20         0.00000E+00
    0.50381E-20         0.79362E-20         0.00000E+00
    0.52291E-20         0.81818E-20         0.00000E+00
    0.41698E-20         0.92172E-20         0.00000E+00
    0.35913E-20         0.74982E-20         0.00000E+00
    0.42254E-20         0.77001E-20         0.00000E+00
    0.56526E-20         0.79390E-20         0.00000E+00
    0.81026E-20         0.91833E-20         0.00000E+00
    0.85267E-20         0.65053E-20         0.00000E+00
    0.74243E-20         0.51115E-20         0.00000E+00
    0.75902E-20         0.44222E-20         0.00000E+00
    0.84121E-20         0.47964E-20         0.00000E+00
    0.94251E-20         0.40910E-20         0.00000E+00
    0.99041E-20         0.31491E-20         0.00000E+00
    0.10057E-19         0.24806E-20         0.00000E+00
    0.10081E-19         0.19085E-20         0.00000E+00
    0.99816E-20         0.10926E-20         0.00000E+00
    0.10004E-19         0.38899E-21         0.00000E+00
    0.53400E-21         0.98186E-20         0.00000E+00
    0.93517E-21         0.95810E-20         0.00000E+00
    0.77362E-21         0.88103E-20         0.00000E+00
    0.25914E-20         0.98556E-20         0.00000E+00
    0.46556E-20         0.95747E-20         0.00000E+00
    0.53372E-20         0.93352E-20         0.00000E+00
    0.61935E-20         0.94717E-20         0.00000E+00
    0.60623E-20         0.79256E-20         0.00000E+00
    0.55079E-20         0.85558E-20         0.00000E+00
    0.59914E-20         0.94191E-20         0.00000E+00
    0.65304E-20         0.73358E-20         0.00000E+00
    0.66340E-20         0.71247E-20         0.00000E+00
    0.65837E-20         0.71376E-20         0.00000E+00
    0.77870E-20         0.63313E-20         0.00000E+00
    0.94737E-20         0.72465E-20         0.00000E+00
    0.94191E-20         0.55272E-20         0.00000E+00
    0.86680E-20         0.45915E-20         0.00000E+00
    0.84498E-20         0.40233E-20         0.00000E+00
    0.88509E-20         0.34500E-20         0.00000E+00
    0.92318E-20         0.29302E-20         0.00000E+00
    0.93704E-20         0.24077E-20         0.00000E+00
    0.94514E-20         0.18764E-20         0.00000E+00
    0.95050E-20         0.11709E-20         0.00000E+00
    0.94675E-20         0.32546E-21         0.00000E+00
    0.64060E-21         0.86440E-20         0.00000E+00
    0.60001E-21         0.10395E-19         0.00000E+00
    0.23179E-21         0.85260E-20         0.00000E+00
    0.12364E-20         0.73175E-20         0.00000E+00
    0.18346E-20         0.94503E-20         0.00000E+00
    0.17972E-20         0.88152E-20         0.00000E+00
    0.32484E-20         0.76843E-20         0.00000E+00
    0.45192E-20         0.85735E-20         0.00000E+00
    0.47765E-20         0.82051E-20         0.00000E+00
    0.58432E-20         0.82196E-20         0.00000E+00
    0.64359E-20         0.74035E-20         0.00000E+00
    0.63628E-20         0.70265E-20         0.00000E+00
    0.68455E-20         0.68035E-20         0.00000E+00
    0.69899E-20         0.53177E-20         0.00000E+00
    0.72127E-20         0.63508E-20         0.00000E+00
    0.79623E-20         0.57280E-20         0.00000E+00
    0.82868E-20         0.48174E-20         0.00000E+00
    0.84639E-20         0.38385E-20         0.00000E+00
    0.85318E-20         0.31659E-20         0.00000E+00
    0.86229E-20         0.27424E-20         0.00000E+00
    0.87702E-20         0.23096E-20         0.00000E+00
    0.88474E-20         0.18163E-20         0.00000E+00
    0.89755E-20         0.10493E-20         0.00000E+00
    0.91420E-20         0.31798E-21         0.00000E+00
    0.23888E-21         0.77645E-20         0.00000E+00
    0.88327E-21         0.10671E-19         0.00000E+00
    0.15117E-20         0.79902E-20         0.00000E+00
    0.94934E-21         0.74112E-20         0.00000E+00
    0.11560E-20         0.85519E-20         0.00000E+00
    0.27592E-20         0.81478E-20         0.00000E+00
    0.25704E-20         0.70894E-20         0.00000E+00
    0.21987E-20         0.82693E-20         0.00000E+00
    0.35021E-20         0.69486E-20         0.00000E+00
    0.48933E-20         0.70182E-20         0.00000E+00
    0.56312E-20         0.72743E-20         0.00000E+00
    0.59648E-20         0.68952E-20         0.00000E+00
    0.57144E-20         0.67024E-20         0.00000E+00
    0.52799E-20         0.57088E-20         0.00000E+00
    0.56676E-20         0.53491E-20         0.00000E+00
    0.65411E-20         0.51066E-20         0.00000E+00
    0.72626E-20         0.43928E-20         0.00000E+00
    0.77193E-20         0.36294E-20         0.00000E+00
    0.79723E-20         0.30541E-20         0.00000E+00
    0.81337E-20         0.26018E-20         0.00000E+00
    0.82601E-20         0.21764E-20         0.00000E+00
    0.84742E-20         0.16582E-20         0.00000E+00
    0.85446E-20         0.10090E-20         0.00000E+00
    0.84861E-20         0.25026E-21         0.00000E+00
    0.84156E-21         0.66841E-20         0.00000E+00
    0.21418E-20         0.98066E-20         0.00000E+00
    0.15248E-20         0.88429E-20         0.00000E+00
    0.48388E-21         0.81617E-20         0.00000E+00
    0.99015E-21         0.70884E-20         0.00000E+00
    0.26943E-20         0.63039E-20         0.00000E+00
    0.37697E-20         0.80467E-20         0.00000E+00
    0.41096E-20         0.73437E-20         0.00000E+00
    0.47325E-20         0.59478E-20         0.00000E+00
    0.48898E-20         0.64706E-20         0.00000E+00
    0.49253E-20         0.70485E-20         0.00000E+00
    0.50227E-20         0.66900E-20         0.00000E+00
    0.54790E-20         0.67016E-20         0.00000E+00
    0.58257E-20         0.57975E-20         0.00000E+00
    0.54145E-20         0.52838E-20         0.00000E+00
    0.57237E-20         0.39893E-20         0.00000E+00
    0.67455E-20         0.37668E-20         0.00000E+00
    0.71680E-20         0.33763E-20         0.00000E+00
    0.73572E-20         0.28649E-20         0.00000E+00
    0.75205E-20         0.24662E-20         0.00000E+00
    0.75793E-20         0.21269E-20         0.00000E+00
    0.75798E-20         0.14932E-20         0.00000E+00
    0.77194E-20         0.96404E-21         0.00000E+00
    0.78148E-20         0.25825E-21         0.00000E+00
    0.11218E-22         0.58313E-20         0.00000E+00
    0.14580E-20         0.79124E-20         0.00000E+00
    0.30288E-20         0.97833E-20         0.00000E+00
    0.33536E-20         0.79373E-20         0.00000E+00
    0.36098E-20         0.65503E-20         0.00000E+00
    0.30980E-20         0.56498E-20         0.00000E+00
    0.39145E-20         0.68088E-20         0.00000E+00
    0.59600E-20         0.61961E-20         0.00000E+00
    0.64617E-20         0.59708E-20         0.00000E+00
    0.58598E-20         0.68922E-20         0.00000E+00
    0.56805E-20         0.67708E-20         0.00000E+00
    0.57374E-20         0.68135E-20         0.00000E+00
    0.57893E-20         0.60699E-20         0.00000E+00
    0.60697E-20         0.58022E-20         0.00000E+00
    0.61251E-20         0.56348E-20         0.00000E+00
    0.62476E-20         0.32066E-20         0.00000E+00
    0.66172E-20         0.31581E-20         0.00000E+00
    0.68398E-20         0.33399E-20         0.00000E+00
    0.68693E-20         0.26824E-20         0.00000E+00
    0.69511E-20         0.24036E-20         0.00000E+00
    0.70087E-20         0.20731E-20         0.00000E+00
    0.70830E-20         0.14721E-20         0.00000E+00
    0.71025E-20         0.82599E-21         0.00000E+00
    0.71866E-20         0.21680E-21         0.00000E+00
    0.31263E-21         0.55074E-20         0.00000E+00
    0.72632E-21         0.63758E-20         0.00000E+00
    0.22312E-20         0.82442E-20         0.00000E+00
    0.39204E-20         0.74625E-20         0.00000E+00
    0.45249E-20         0.61644E-20         0.00000E+00
    0.45741E-20         0.64982E-20         0.00000E+00
    0.42537E-20         0.54643E-20         0.00000E+00
    0.50027E-20         0.47461E-20         0.00000E+00
    0.56677E-20         0.62542E-20         0.00000E+00
    0.55522E-20         0.73262E-20         0.00000E+00
    0.55723E-20         0.64959E-20         0.00000E+00
    0.58193E-20         0.67845E-20         0.00000E+00
    0.59009E-20         0.59653E-20         0.00000E+00
    0.55443E-20         0.59829E-20         0.00000E+00
    0.58378E-20         0.51052E-20         0.00000E+00
    0.60481E-20         0.34034E-20         0.00000E+00
    0.56195E-20         0.30204E-20         0.00000E+00
    0.56862E-20         0.31883E-20         0.00000E+00
    0.59662E-20         0.25245E-20         0.00000E+00
    0.60998E-20         0.23462E-20         0.00000E+00
    0.63814E-20         0.17913E-20         0.00000E+00
    0.66871E-20         0.13740E-20         0.00000E+00
    0.67773E-20         0.81432E-21         0.00000E+00
    0.67002E-20         0.22140E-21         0.00000E+00
    0.33095E-21         0.48639E-20         0.00000E+00
    0.10773E-20         0.58593E-20         0.00000E+00
    0.25909E-20         0.57422E-20         0.00000E+00
    0.40823E-20         0.67840E-20         0.00000E+00
    0.40656E-20         0.62552E-20         0.00000E+00
    0.39480E-20         0.64758E-20         0.00000E+00
    0.41065E-20         0.56486E-20         0.00000E+00
    0.37529E-20         0.41663E-20         0.00000E+00
    0.34838E-20         0.64380E-20         0.00000E+00
    0.37669E-20         0.69749E-20         0.00000E+00
    0.43055E-20         0.62885E-20         0.00000E+00
    0.48787E-20         0.61718E-20         0.00000E+00
    0.51871E-20         0.61881E-20         0.00000E+00
    0.51209E-20         0.61828E-20         0.00000E+00
    0.52025E-20         0.45302E-20         0.00000E+00
    0.54673E-20         0.35034E-20         0.00000E+00
    0.53876E-20         0.34287E-20         0.00000E+00
    0.52972E-20         0.28038E-20         0.00000E+00
    0.54974E-20         0.24289E-20         0.00000E+00
    0.58536E-20         0.19520E-20         0.00000E+00
    0.61240E-20         0.16334E-20         0.00000E+00
    0.60717E-20         0.12785E-20         0.00000E+00
    0.60704E-20         0.82099E-21         0.00000E+00
    0.60630E-20         0.29910E-21         0.00000E+00
    0.68704E-21         0.38459E-20         0.00000E+00
    0.21203E-20         0.46977E-20         0.00000E+00
    0.23685E-20         0.51419E-20         0.00000E+00
    0.16917E-20         0.65695E-20         0.00000E+00
    0.21731E-20         0.60050E-20         0.00000E+00
    0.32159E-20         0.58006E-20         0.00000E+00
    0.36284E-20         0.57528E-20         0.00000E+00
    0.30168E-20         0.50274E-20         0.00000E+00
    0.26617E-20         0.62011E-20         0.00000E+00
    0.32551E-20         0.63353E-20         0.00000E+00
    0.36662E-20         0.59783E-20         0.00000E+00
    0.36641E-20         0.59110E-20         0.00000E+00
    0.38072E-20         0.59974E-20         0.00000E+00
    0.42901E-20         0.59567E-20         0.00000E+00
    0.47607E-20         0.42040E-20         0.00000E+00
    0.50193E-20         0.33063E-20         0.00000E+00
    0.53431E-20         0.33816E-20         0.00000E+00
    0.54305E-20         0.28538E-20         0.00000E+00
    0.52553E-20         0.23538E-20         0.00000E+00
    0.53396E-20         0.15866E-20         0.00000E+00
    0.53773E-20         0.16907E-20         0.00000E+00
    0.53265E-20         0.13243E-20         0.00000E+00
    0.53366E-20         0.76644E-21         0.00000E+00
    0.54382E-20         0.25935E-21         0.00000E+00
    0.91709E-22         0.30671E-20         0.00000E+00
    0.95987E-22         0.40390E-20         0.00000E+00
   -0.22067E-21         0.58691E-20         0.00000E+00
    0.85518E-22         0.62129E-20         0.00000E+00
    0.79303E-21         0.51727E-20         0.00000E+00
    0.11147E-20         0.52684E-20         0.00000E+00
    0.18939E-20         0.50934E-20         0.00000E+00
    0.23251E-20         0.58671E-20         0.00000E+00
    0.23180E-20         0.57236E-20         0.00000E+00
    0.27713E-20         0.57663E-20         0.00000E+00
    0.31172E-20         0.57902E-20         0.00000E+00
    0.32306E-20         0.59878E-20         0.00000E+00
    0.35390E-20         0.54692E-20         0.00000E+00
    0.43305E-20         0.52106E-20         0.00000E+00
    0.47875E-20         0.40224E-20         0.00000E+00
    0.44668E-20         0.35500E-20         0.00000E+00
    0.45816E-20         0.26993E-20         0.00000E+00
    0.52352E-20         0.27951E-20         0.00000E+00
    0.52768E-20         0.25460E-20         0.00000E+00
    0.47352E-20         0.18517E-20         0.00000E+00
    0.44969E-20         0.16262E-20         0.00000E+00
    0.47035E-20         0.12331E-20         0.00000E+00
    0.48540E-20         0.69698E-21         0.00000E+00
    0.48576E-20         0.22357E-21         0.00000E+00
   -0.54949E-21         0.35249E-20         0.00000E+00
   -0.13388E-20         0.43662E-20         0.00000E+00
   -0.44198E-21         0.49618E-20         0.00000E+00
    0.67315E-21         0.56989E-20         0.00000E+00
    0.34122E-21         0.53111E-20         0.00000E+00
    0.34588E-21         0.48037E-20         0.00000E+00
    0.64777E-21         0.44771E-20         0.00000E+00
    0.10415E-20         0.56585E-20         0.00000E+00
    0.18052E-20         0.51755E-20         0.00000E+00
    0.24535E-20         0.52128E-20         0.00000E+00
    0.28248E-20         0.56264E-20         0.00000E+00
    0.32570E-20         0.56060E-20         0.00000E+00
    0.38581E-20         0.49415E-20         0.00000E+00
    0.39561E-20         0.48489E-20         0.00000E+00
    0.37722E-20         0.41110E-20         0.00000E+00
    0.42496E-20         0.33047E-20         0.00000E+00
    0.45547E-20         0.25247E-20         0.00000E+00
    0.45999E-20         0.22709E-20         0.00000E+00
    0.47907E-20         0.28378E-20         0.00000E+00
    0.45312E-20         0.23610E-20         0.00000E+00
    0.42276E-20         0.16588E-20         0.00000E+00
    0.42057E-20         0.10159E-20         0.00000E+00
    0.43158E-20         0.65364E-21         0.00000E+00
    0.43234E-20         0.25575E-21         0.00000E+00
   -0.27072E-21         0.43451E-20         0.00000E+00
   -0.52833E-21         0.45928E-20         0.00000E+00
   -0.56936E-21         0.38794E-20         0.00000E+00
   -0.85955E-21         0.59563E-20         0.00000E+00
   -0.84756E-21         0.53736E-20         0.00000E+00
   -0.49152E-21         0.43805E-20         0.00000E+00
   -0.47905E-21         0.45859E-20         0.00000E+00
   -0.23165E-21         0.49086E-20         0.00000E+00
    0.57073E-21         0.43593E-20         0.00000E+00
    0.12851E-20         0.46664E-20         0.00000E+00
    0.21149E-20         0.49717E-20         0.00000E+00
    0.26898E-20         0.52537E-20         0.00000E+00
    0.27417E-20         0.46408E-20         0.00000E+00
    0.30457E-20         0.47476E-20         0.00000E+00
    0.36179E-20         0.38240E-20         0.00000E+00
    0.41046E-20         0.26276E-20         0.00000E+00
    0.43137E-20         0.26877E-20         0.00000E+00
    0.38941E-20         0.24822E-20         0.00000E+00
    0.36322E-20         0.26976E-20         0.00000E+00
    0.39225E-20         0.24705E-20         0.00000E+00
    0.39730E-20         0.18025E-20         0.00000E+00
    0.38506E-20         0.10164E-20         0.00000E+00
    0.37773E-20         0.61640E-21         0.00000E+00
    0.37960E-20         0.26668E-21         0.00000E+00
   -0.11929E-21         0.47351E-20         0.00000E+00
   -0.32321E-21         0.46644E-20         0.00000E+00
   -0.10132E-20         0.45389E-20         0.00000E+00
   -0.10891E-20         0.56629E-20         0.00000E+00
   -0.37470E-21         0.49407E-20         0.00000E+00
   -0.11600E-21         0.41987E-20         0.00000E+00
   -0.26738E-22         0.46660E-20         0.00000E+00
    0.24568E-21         0.43087E-20         0.00000E+00
    0.26390E-21         0.41386E-20         0.00000E+00
    0.35110E-21         0.40855E-20         0.00000E+00
    0.91833E-21         0.41555E-20         0.00000E+00
    0.15601E-20         0.48533E-20         0.00000E+00
    0.21076E-20         0.44418E-20         0.00000E+00
    0.24590E-20         0.42911E-20         0.00000E+00
    0.29462E-20         0.32211E-20         0.00000E+00
    0.32122E-20         0.24778E-20         0.00000E+00
    0.32227E-20         0.26178E-20         0.00000E+00
    0.31965E-20         0.29979E-20         0.00000E+00
    0.31747E-20         0.24656E-20         0.00000E+00
    0.34465E-20         0.21403E-20         0.00000E+00
    0.36424E-20         0.18863E-20         0.00000E+00
    0.35132E-20         0.11842E-20         0.00000E+00
    0.33478E-20         0.68739E-21         0.00000E+00
    0.32607E-20         0.26403E-21         0.00000E+00
   -0.14115E-21         0.49956E-20         0.00000E+00
   -0.38155E-21         0.48482E-20         0.00000E+00
   -0.59821E-21         0.52617E-20         0.00000E+00
   -0.71237E-21         0.51301E-20         0.00000E+00
   -0.51954E-21         0.45662E-20         0.00000E+00
   -0.35366E-21         0.41486E-20         0.00000E+00
    0.16559E-21         0.41076E-20         0.00000E+00
    0.64814E-21         0.41121E-20         0.00000E+00
    0.45790E-21         0.45073E-20         0.00000E+00
    0.32837E-21         0.37592E-20         0.00000E+00
    0.38141E-21         0.38615E-20         0.00000E+00
    0.85289E-21         0.40340E-20         0.00000E+00
    0.15736E-20         0.39928E-20         0.00000E+00
    0.22577E-20         0.37045E-20         0.00000E+00
    0.25546E-20         0.30236E-20         0.00000E+00
    0.24589E-20         0.25051E-20         0.00000E+00
    0.23839E-20         0.26550E-20         0.00000E+00
    0.23868E-20         0.29841E-20         0.00000E+00
    0.24341E-20         0.24540E-20         0.00000E+00
    0.24784E-20         0.18357E-20         0.00000E+00
    0.26216E-20         0.18518E-20         0.00000E+00
    0.26798E-20         0.12896E-20         0.00000E+00
    0.26443E-20         0.78279E-21         0.00000E+00
    0.26501E-20         0.24998E-21         0.00000E+00
   -0.99016E-22         0.52357E-20         0.00000E+00
   -0.41856E-21         0.51680E-20         0.00000E+00
   -0.42503E-21         0.51651E-20         0.00000E+00
    0.24627E-22         0.48913E-20         0.00000E+00
   -0.98048E-24         0.46379E-20         0.00000E+00
   -0.19283E-22         0.39294E-20         0.00000E+00
    0.22834E-21         0.35599E-20         0.00000E+00
    0.27772E-21         0.41278E-20         0.00000E+00
    0.68543E-21         0.42741E-20         0.00000E+00
    0.81541E-21         0.39919E-20         0.00000E+00
    0.69652E-21         0.36946E-20         0.00000E+00
    0.91257E-21         0.35134E-20         0.00000E+00
    0.12868E-20         0.34186E-20         0.00000E+00
    0.16717E-20         0.32099E-20         0.00000E+00
    0.18518E-20         0.30412E-20         0.00000E+00
    0.18102E-20         0.26249E-20         0.00000E+00
    0.17668E-20         0.26536E-20         0.00000E+00
    0.18633E-20         0.28860E-20         0.00000E+00
    0.19108E-20         0.24573E-20         0.00000E+00
    0.18556E-20         0.18434E-20         0.00000E+00
    0.18749E-20         0.16817E-20         0.00000E+00
    0.20175E-20         0.12589E-20         0.00000E+00
    0.21081E-20         0.75836E-21         0.00000E+00
    0.21545E-20         0.22226E-21         0.00000E+00
   -0.10034E-21         0.54351E-20         0.00000E+00
   -0.94284E-22         0.52822E-20         0.00000E+00
    0.95237E-22         0.48679E-20         0.00000E+00
    0.21414E-21         0.46199E-20         0.00000E+00
    0.36674E-21         0.47822E-20         0.00000E+00
    0.32855E-21         0.38415E-20         0.00000E+00
    0.13612E-21         0.35926E-20         0.00000E+00
    0.36987E-21         0.38120E-20         0.00000E+00
    0.67516E-21         0.38769E-20         0.00000E+00
    0.96664E-21         0.39677E-20         0.00000E+00
    0.12168E-20         0.35876E-20         0.00000E+00
    0.10811E-20         0.35400E-20         0.00000E+00
    0.82136E-21         0.32774E-20         0.00000E+00
    0.76467E-21         0.30229E-20         0.00000E+00
    0.89421E-21         0.29185E-20         0.00000E+00
    0.94713E-21         0.27364E-20         0.00000E+00
    0.95694E-21         0.25757E-20         0.00000E+00
    0.11383E-20         0.26859E-20         0.00000E+00
    0.14035E-20         0.23447E-20         0.00000E+00
    0.14805E-20         0.19341E-20         0.00000E+00
    0.14518E-20         0.16004E-20         0.00000E+00
    0.15125E-20         0.11370E-20         0.00000E+00
    0.16158E-20         0.68631E-21         0.00000E+00
    0.16548E-20         0.20887E-21         0.00000E+00
    0.28248E-21         0.52529E-20         0.00000E+00
    0.58258E-21         0.51582E-20         0.00000E+00
    0.32066E-21         0.50643E-20         0.00000E+00
   -0.78237E-22         0.47035E-20         0.00000E+00
   -0.28479E-22         0.44963E-20         0.00000E+00
    0.17563E-22         0.41196E-20         0.00000E+00
    0.77594E-22         0.34469E-20         0.00000E+00
    0.33897E-21         0.34626E-20         0.00000E+00
    0.55047E-21         0.37095E-20         0.00000E+00
    0.72640E-21         0.36676E-20         0.00000E+00
    0.72353E-21         0.36404E-20         0.00000E+00
    0.59774E-21         0.37488E-20         0.00000E+00
    0.55710E-21         0.33690E-20         0.00000E+00
    0.52583E-21         0.30192E-20         0.00000E+00
    0.54952E-21         0.27689E-20         0.00000E+00
    0.61287E-21         0.27697E-20         0.00000E+00
    0.57482E-21         0.25706E-20         0.00000E+00
    0.62622E-21         0.24582E-20         0.00000E+00
    0.79290E-21         0.21406E-20         0.00000E+00
    0.97220E-21         0.18819E-20         0.00000E+00
    0.11196E-20         0.15339E-20         0.00000E+00
    0.11774E-20         0.10850E-20         0.00000E+00
    0.11653E-20         0.64716E-21         0.00000E+00
    0.11829E-20         0.19136E-21         0.00000E+00
    0.14463E-21         0.48258E-20         0.00000E+00
    0.20551E-21         0.52243E-20         0.00000E+00
    0.11843E-21         0.53472E-20         0.00000E+00
    0.16786E-21         0.47701E-20         0.00000E+00
    0.81605E-22         0.44662E-20         0.00000E+00
    0.86260E-22         0.40990E-20         0.00000E+00
    0.32750E-21         0.31662E-20         0.00000E+00
    0.48202E-21         0.33274E-20         0.00000E+00
    0.47221E-21         0.36430E-20         0.00000E+00
    0.40550E-21         0.36249E-20         0.00000E+00
    0.40186E-21         0.36897E-20         0.00000E+00
    0.52028E-21         0.37069E-20         0.00000E+00
    0.60541E-21         0.33664E-20         0.00000E+00
    0.56931E-21         0.30892E-20         0.00000E+00
    0.34736E-21         0.28972E-20         0.00000E+00
    0.12026E-21         0.28051E-20         0.00000E+00
    0.18152E-21         0.25120E-20         0.00000E+00
    0.31448E-21         0.23324E-20         0.00000E+00
    0.41269E-21         0.20014E-20         0.00000E+00
    0.53903E-21         0.17154E-20         0.00000E+00
    0.65438E-21         0.14377E-20         0.00000E+00
    0.67382E-21         0.11040E-20         0.00000E+00
    0.69011E-21         0.62390E-21         0.00000E+00
    0.73027E-21         0.15682E-21         0.00000E+00
   -0.36560E-22         0.47178E-20         0.00000E+00
   -0.10584E-21         0.53408E-20         0.00000E+00
   -0.21738E-22         0.52337E-20         0.00000E+00
    0.18146E-21         0.46309E-20         0.00000E+00
    0.17062E-21         0.47025E-20         0.00000E+00
    0.24514E-21         0.37836E-20         0.00000E+00
    0.47105E-21         0.30145E-20         0.00000E+00
    0.33735E-21         0.34583E-20         0.00000E+00
    0.18899E-21         0.36703E-20         0.00000E+00
    0.29001E-21         0.35633E-20         0.00000E+00
    0.28364E-21         0.37612E-20         0.00000E+00
    0.25771E-21         0.35428E-20         0.00000E+00
    0.30720E-21         0.33959E-20         0.00000E+00
    0.15726E-21         0.32457E-20         0.00000E+00
    0.33102E-22         0.30868E-20         0.00000E+00
    0.34781E-22         0.28410E-20         0.00000E+00
    0.49616E-22         0.24000E-20         0.00000E+00
    0.12153E-21         0.22395E-20         0.00000E+00
    0.84637E-22         0.20330E-20         0.00000E+00
    0.65272E-22         0.15769E-20         0.00000E+00
    0.17023E-21         0.13559E-20         0.00000E+00
    0.22262E-21         0.11139E-20         0.00000E+00
    0.21291E-21         0.60739E-21         0.00000E+00
    0.23787E-21         0.10821E-21         0.00000E+00
POINT_DATA       1225
VECTORS vDarcyNodal double 
    0.45785E-19        -0.31472E-19         0.00000E+00
    0.77152E-20        -0.17600E-19         0.00000E+00
   -0.11607E-19         0.39181E-19         0.00000E+00
    0.18345E-19         0.83456E-19         0.00000E+00
    0.15746E-19         0.57227E-19         0.00000E+00
   -0.68943E-20         0.20572E-19         0.00000E+00
    0.63910E-20         0.18015E-19         0.00000E+00
    0.18358E-19         0.19074E-19         0.00000E+00
    0.80179E-20         0.60082E-20         0.00000E+00
   -0.58309E-21        -0.25012E-20         0.00000E+00
   -0.21109E-20         0.49093E-20         0.00000E+00
    0.22175E-20         0.13309E-19         0.00000E+00
   -0.13658E-20         0.14539E-19         0.00000E+00
    0.11466E-20         0.18148E-19         0.00000E+00
    0.40681E-20         0.14897E-19         0.00000E+00
    0.38176E-20         0.51832E-20         0.00000E+00
    0.28933E-20         0.48479E-20         0.00000E+00
    0.38903E-20         0.71923E-20         0.00000E+00
    0.85855E-21         0.40343E-20         0.00000E+00
    0.47066E-21         0.17765E-20         0.00000E+00
    0.12387E-20         0.89868E-21         0.00000E+00
    0.96638E-21         0.34847E-21         0.00000E+00
    0.58733E-21         0.31758E-21         0.00000E+00
    0.27055E-21         0.45440E-21         0.00000E+00
    0.49421E-21         0.55021E-21         0.00000E+00
    0.53333E-19         0.65979E-20         0.00000E+00
    0.18298E-19         0.11096E-19         0.00000E+00
   -0.51510E-20         0.33866E-19         0.00000E+00
    0.21750E-19         0.69780E-19         0.00000E+00
    0.25485E-19         0.69846E-19         0.00000E+00
    0.15119E-19         0.25250E-19         0.00000E+00
    0.12073E-19         0.53885E-20         0.00000E+00
    0.15493E-19         0.18261E-19         0.00000E+00
    0.66725E-20         0.15479E-19         0.00000E+00
   -0.24510E-20         0.25633E-20         0.00000E+00
   -0.18057E-20         0.35090E-20         0.00000E+00
    0.24574E-20         0.12937E-19         0.00000E+00
    0.10298E-20         0.15075E-19         0.00000E+00
    0.19374E-20         0.15431E-19         0.00000E+00
    0.47169E-20         0.13561E-19         0.00000E+00
    0.32489E-20         0.57706E-20         0.00000E+00
    0.23031E-20         0.48115E-20         0.00000E+00
    0.41828E-20         0.82097E-20         0.00000E+00
    0.29750E-20         0.57441E-20         0.00000E+00
    0.19507E-20         0.15864E-20         0.00000E+00
    0.15586E-20         0.65082E-21         0.00000E+00
    0.18498E-20         0.67415E-21         0.00000E+00
    0.16808E-20         0.66549E-21         0.00000E+00
    0.92250E-21         0.50095E-21         0.00000E+00
    0.76141E-21         0.32655E-21         0.00000E+00
    0.67461E-19         0.38597E-19         0.00000E+00
    0.32164E-19         0.40884E-19         0.00000E+00
    0.11099E-19         0.35729E-19         0.00000E+00
    0.17462E-19         0.52820E-19         0.00000E+00
    0.39461E-19         0.63858E-19         0.00000E+00
    0.41322E-19         0.33984E-19         0.00000E+00
    0.23652E-19         0.17640E-19         0.00000E+00
    0.18752E-19         0.24475E-19         0.00000E+00
    0.15198E-19         0.23953E-19         0.00000E+00
    0.53725E-20         0.59770E-20         0.00000E+00
    0.29524E-20         0.82446E-24         0.00000E+00
    0.10202E-20         0.10474E-19         0.00000E+00
    0.28961E-20         0.15060E-19         0.00000E+00
    0.25539E-20         0.14461E-19         0.00000E+00
    0.37130E-20         0.13585E-19         0.00000E+00
    0.68216E-20         0.75970E-20         0.00000E+00
    0.47212E-20         0.39140E-20         0.00000E+00
    0.30819E-20         0.65205E-20         0.00000E+00
    0.48922E-20         0.62664E-20         0.00000E+00
    0.42388E-20         0.31928E-20         0.00000E+00
    0.30085E-20         0.99964E-21         0.00000E+00
    0.31161E-20         0.22629E-21         0.00000E+00
    0.28360E-20         0.12449E-20         0.00000E+00
    0.21289E-20         0.13738E-20         0.00000E+00
    0.18549E-20         0.87240E-21         0.00000E+00
    0.37021E-19         0.77191E-19         0.00000E+00
    0.29031E-19         0.67459E-19         0.00000E+00
    0.27290E-19         0.48568E-19         0.00000E+00
    0.20297E-19         0.41417E-19         0.00000E+00
    0.35014E-19         0.45986E-19         0.00000E+00
    0.37068E-19         0.41059E-19         0.00000E+00
    0.27588E-19         0.27958E-19         0.00000E+00
    0.22859E-19         0.26714E-19         0.00000E+00
    0.27036E-19         0.28859E-19         0.00000E+00
    0.21970E-19         0.14809E-19         0.00000E+00
    0.12217E-19         0.78613E-20         0.00000E+00
    0.74101E-20         0.12993E-19         0.00000E+00
    0.63201E-20         0.13541E-19         0.00000E+00
    0.44003E-20         0.14614E-19         0.00000E+00
    0.70730E-20         0.92937E-20         0.00000E+00
    0.10804E-19         0.47624E-20         0.00000E+00
    0.78253E-20         0.85512E-20         0.00000E+00
    0.43930E-20         0.80387E-20         0.00000E+00
    0.62687E-20         0.45872E-20         0.00000E+00
    0.56906E-20         0.34701E-20         0.00000E+00
    0.46219E-20         0.17736E-20         0.00000E+00
    0.39837E-20         0.84666E-21         0.00000E+00
    0.33061E-20         0.16526E-20         0.00000E+00
    0.32206E-20         0.14821E-20         0.00000E+00
    0.32444E-20         0.87461E-21         0.00000E+00
    0.00000E+00         0.54576E-19         0.00000E+00
    0.13129E-19         0.50615E-19         0.00000E+00
    0.22876E-19         0.44463E-19         0.00000E+00
    0.21586E-19         0.45096E-19         0.00000E+00
    0.15973E-19         0.47087E-19         0.00000E+00
    0.19192E-19         0.41411E-19         0.00000E+00
    0.21324E-19         0.31849E-19         0.00000E+00
    0.21020E-19         0.25026E-19         0.00000E+00
    0.22380E-19         0.24842E-19         0.00000E+00
    0.24884E-19         0.20797E-19         0.00000E+00
    0.16831E-19         0.14560E-19         0.00000E+00
    0.13152E-19         0.16370E-19         0.00000E+00
    0.10673E-19         0.18069E-19         0.00000E+00
    0.10246E-19         0.13708E-19         0.00000E+00
    0.12337E-19         0.71814E-20         0.00000E+00
    0.84810E-20         0.68447E-20         0.00000E+00
    0.66790E-20         0.10325E-19         0.00000E+00
    0.84681E-20         0.80771E-20         0.00000E+00
    0.84029E-20         0.49688E-20         0.00000E+00
    0.78176E-20         0.48396E-20         0.00000E+00
    0.69540E-20         0.27065E-20         0.00000E+00
    0.52349E-20         0.15420E-20         0.00000E+00
    0.43260E-20         0.20079E-20         0.00000E+00
    0.42072E-20         0.14355E-20         0.00000E+00
    0.41327E-20         0.82491E-21         0.00000E+00
    0.00000E+00         0.50932E-19         0.00000E+00
    0.88748E-20         0.44582E-19         0.00000E+00
    0.13721E-19         0.40111E-19         0.00000E+00
    0.13768E-19         0.48320E-19         0.00000E+00
    0.15457E-19         0.48381E-19         0.00000E+00
    0.19560E-19         0.35709E-19         0.00000E+00
    0.20444E-19         0.26130E-19         0.00000E+00
    0.21265E-19         0.25657E-19         0.00000E+00
    0.15064E-19         0.24995E-19         0.00000E+00
    0.15517E-19         0.20358E-19         0.00000E+00
    0.13387E-19         0.19593E-19         0.00000E+00
    0.11596E-19         0.19152E-19         0.00000E+00
    0.98300E-20         0.16447E-19         0.00000E+00
    0.13143E-19         0.12950E-19         0.00000E+00
    0.11221E-19         0.11058E-19         0.00000E+00
    0.67634E-20         0.10420E-19         0.00000E+00
    0.74532E-20         0.85641E-20         0.00000E+00
    0.98840E-20         0.63148E-20         0.00000E+00
    0.84232E-20         0.52377E-20         0.00000E+00
    0.76556E-20         0.49190E-20         0.00000E+00
    0.80069E-20         0.43563E-20         0.00000E+00
    0.66308E-20         0.34747E-20         0.00000E+00
    0.56739E-20         0.26803E-20         0.00000E+00
    0.52876E-20         0.16754E-20         0.00000E+00
    0.52086E-20         0.10236E-20         0.00000E+00
    0.65417E-34         0.36827E-19         0.00000E+00
    0.82606E-20         0.36893E-19         0.00000E+00
    0.97749E-20         0.39570E-19         0.00000E+00
    0.14605E-19         0.43361E-19         0.00000E+00
    0.25554E-19         0.41295E-19         0.00000E+00
    0.28006E-19         0.36424E-19         0.00000E+00
    0.20392E-19         0.30144E-19         0.00000E+00
    0.14401E-19         0.30406E-19         0.00000E+00
    0.13034E-19         0.30591E-19         0.00000E+00
    0.92399E-20         0.22474E-19         0.00000E+00
    0.60944E-20         0.18481E-19         0.00000E+00
    0.83543E-20         0.19927E-19         0.00000E+00
    0.92485E-20         0.16523E-19         0.00000E+00
    0.98051E-20         0.12317E-19         0.00000E+00
    0.79100E-20         0.13561E-19         0.00000E+00
    0.88916E-20         0.10612E-19         0.00000E+00
    0.12713E-19         0.72046E-20         0.00000E+00
    0.11470E-19         0.71072E-20         0.00000E+00
    0.81064E-20         0.71972E-20         0.00000E+00
    0.69297E-20         0.52559E-20         0.00000E+00
    0.67833E-20         0.37313E-20         0.00000E+00
    0.68594E-20         0.38750E-20         0.00000E+00
    0.65421E-20         0.33511E-20         0.00000E+00
    0.65771E-20         0.19009E-20         0.00000E+00
    0.67591E-20         0.98290E-21         0.00000E+00
    0.00000E+00         0.34411E-19         0.00000E+00
    0.31888E-21         0.34808E-19         0.00000E+00
    0.20844E-20         0.33767E-19         0.00000E+00
    0.69169E-20         0.32541E-19         0.00000E+00
    0.13508E-19         0.34980E-19         0.00000E+00
    0.15877E-19         0.40871E-19         0.00000E+00
    0.12592E-19         0.39736E-19         0.00000E+00
    0.46089E-20         0.33016E-19         0.00000E+00
    0.58135E-20         0.30156E-19         0.00000E+00
    0.41616E-20         0.27297E-19         0.00000E+00
    0.25045E-20         0.20479E-19         0.00000E+00
    0.34275E-20         0.15998E-19         0.00000E+00
    0.99844E-20         0.14997E-19         0.00000E+00
    0.72121E-20         0.14288E-19         0.00000E+00
    0.75963E-20         0.11972E-19         0.00000E+00
    0.12969E-19         0.56179E-20         0.00000E+00
    0.13808E-19         0.59860E-20         0.00000E+00
    0.11524E-19         0.10921E-19         0.00000E+00
    0.94851E-20         0.97777E-20         0.00000E+00
    0.83953E-20         0.62421E-20         0.00000E+00
    0.69294E-20         0.44266E-20         0.00000E+00
    0.66740E-20         0.37158E-20         0.00000E+00
    0.70993E-20         0.29626E-20         0.00000E+00
    0.77161E-20         0.14584E-20         0.00000E+00
    0.79413E-20         0.65971E-21         0.00000E+00
   -0.12857E-33         0.36189E-19         0.00000E+00
    0.68090E-21         0.34809E-19         0.00000E+00
    0.31957E-20         0.32972E-19         0.00000E+00
    0.24087E-20         0.31937E-19         0.00000E+00
    0.31844E-20         0.32335E-19         0.00000E+00
    0.64286E-20         0.37340E-19         0.00000E+00
    0.12316E-19         0.41412E-19         0.00000E+00
    0.10586E-19         0.37184E-19         0.00000E+00
    0.51808E-20         0.31038E-19         0.00000E+00
    0.40311E-20         0.25783E-19         0.00000E+00
    0.58549E-20         0.19215E-19         0.00000E+00
    0.87188E-20         0.12447E-19         0.00000E+00
    0.11713E-19         0.12738E-19         0.00000E+00
    0.10454E-19         0.14705E-19         0.00000E+00
    0.10996E-19         0.78037E-20         0.00000E+00
    0.11102E-19         0.44010E-20         0.00000E+00
    0.89252E-20         0.86500E-20         0.00000E+00
    0.84851E-20         0.11430E-19         0.00000E+00
    0.97718E-20         0.10326E-19         0.00000E+00
    0.90740E-20         0.78115E-20         0.00000E+00
    0.79021E-20         0.54526E-20         0.00000E+00
    0.73942E-20         0.37052E-20         0.00000E+00
    0.80765E-20         0.23090E-20         0.00000E+00
    0.85284E-20         0.10588E-20         0.00000E+00
    0.83471E-20         0.53246E-21         0.00000E+00
    0.10691E-48         0.33049E-19         0.00000E+00
    0.24429E-20         0.31612E-19         0.00000E+00
    0.59227E-20         0.32039E-19         0.00000E+00
    0.57887E-20         0.32552E-19         0.00000E+00
    0.67587E-20         0.30960E-19         0.00000E+00
    0.95674E-20         0.31739E-19         0.00000E+00
    0.15589E-19         0.35578E-19         0.00000E+00
    0.16634E-19         0.40151E-19         0.00000E+00
    0.14460E-19         0.36711E-19         0.00000E+00
    0.13993E-19         0.26623E-19         0.00000E+00
    0.12075E-19         0.15791E-19         0.00000E+00
    0.13631E-19         0.10139E-19         0.00000E+00
    0.10852E-19         0.13262E-19         0.00000E+00
    0.13219E-19         0.15005E-19         0.00000E+00
    0.12839E-19         0.11323E-19         0.00000E+00
    0.86408E-20         0.76890E-20         0.00000E+00
    0.68454E-20         0.86030E-20         0.00000E+00
    0.75374E-20         0.10074E-19         0.00000E+00
    0.91933E-20         0.91889E-20         0.00000E+00
    0.91264E-20         0.81118E-20         0.00000E+00
    0.87257E-20         0.61064E-20         0.00000E+00
    0.86644E-20         0.35414E-20         0.00000E+00
    0.85334E-20         0.18284E-20         0.00000E+00
    0.86205E-20         0.11879E-20         0.00000E+00
    0.88449E-20         0.10223E-20         0.00000E+00
    0.55606E-34         0.31303E-19         0.00000E+00
    0.23831E-20         0.28886E-19         0.00000E+00
    0.22693E-20         0.29626E-19         0.00000E+00
    0.53073E-20         0.31101E-19         0.00000E+00
    0.70697E-20         0.28556E-19         0.00000E+00
    0.65134E-20         0.28510E-19         0.00000E+00
    0.76273E-20         0.34345E-19         0.00000E+00
    0.12387E-19         0.38313E-19         0.00000E+00
    0.15516E-19         0.33680E-19         0.00000E+00
    0.16129E-19         0.28169E-19         0.00000E+00
    0.13493E-19         0.19576E-19         0.00000E+00
    0.75391E-20         0.13670E-19         0.00000E+00
    0.76515E-20         0.13150E-19         0.00000E+00
    0.10301E-19         0.12718E-19         0.00000E+00
    0.12474E-19         0.12382E-19         0.00000E+00
    0.11369E-19         0.10395E-19         0.00000E+00
    0.92141E-20         0.97534E-20         0.00000E+00
    0.98343E-20         0.90818E-20         0.00000E+00
    0.10653E-19         0.87370E-20         0.00000E+00
    0.10488E-19         0.82790E-20         0.00000E+00
    0.10961E-19         0.59146E-20         0.00000E+00
    0.10335E-19         0.38975E-20         0.00000E+00
    0.94547E-20         0.23529E-20         0.00000E+00
    0.98993E-20         0.74737E-21         0.00000E+00
    0.10412E-19         0.83602E-22         0.00000E+00
    0.00000E+00         0.28283E-19         0.00000E+00
    0.20644E-20         0.29343E-19         0.00000E+00
    0.21777E-20         0.29115E-19         0.00000E+00
    0.35753E-20         0.27752E-19         0.00000E+00
    0.45211E-20         0.29754E-19         0.00000E+00
    0.19655E-20         0.31182E-19         0.00000E+00
    0.33725E-20         0.29705E-19         0.00000E+00
    0.11365E-19         0.32262E-19         0.00000E+00
    0.13819E-19         0.32969E-19         0.00000E+00
    0.11564E-19         0.28646E-19         0.00000E+00
    0.13303E-19         0.24381E-19         0.00000E+00
    0.90109E-20         0.15981E-19         0.00000E+00
    0.90148E-20         0.10500E-19         0.00000E+00
    0.96718E-20         0.10183E-19         0.00000E+00
    0.12059E-19         0.10255E-19         0.00000E+00
    0.11244E-19         0.10949E-19         0.00000E+00
    0.10923E-19         0.10138E-19         0.00000E+00
    0.12435E-19         0.86358E-20         0.00000E+00
    0.12478E-19         0.85348E-20         0.00000E+00
    0.13169E-19         0.78031E-20         0.00000E+00
    0.13954E-19         0.62598E-20         0.00000E+00
    0.13008E-19         0.50481E-20         0.00000E+00
    0.12479E-19         0.22641E-20         0.00000E+00
    0.12636E-19         0.23014E-21         0.00000E+00
    0.12448E-19        -0.39676E-23         0.00000E+00
    0.00000E+00         0.27174E-19         0.00000E+00
   -0.60563E-21         0.26708E-19         0.00000E+00
    0.12906E-20         0.28115E-19         0.00000E+00
    0.22047E-20         0.28758E-19         0.00000E+00
    0.42666E-20         0.30166E-19         0.00000E+00
    0.71990E-20         0.29658E-19         0.00000E+00
    0.90534E-20         0.24945E-19         0.00000E+00
    0.10476E-19         0.27866E-19         0.00000E+00
    0.13267E-19         0.33481E-19         0.00000E+00
    0.13151E-19         0.28684E-19         0.00000E+00
    0.17348E-19         0.22130E-19         0.00000E+00
    0.19047E-19         0.17958E-19         0.00000E+00
    0.15740E-19         0.12489E-19         0.00000E+00
    0.12490E-19         0.96746E-20         0.00000E+00
    0.12275E-19         0.10809E-19         0.00000E+00
    0.12502E-19         0.11530E-19         0.00000E+00
    0.12597E-19         0.85631E-20         0.00000E+00
    0.13418E-19         0.75272E-20         0.00000E+00
    0.13630E-19         0.80026E-20         0.00000E+00
    0.14693E-19         0.68024E-20         0.00000E+00
    0.14742E-19         0.60753E-20         0.00000E+00
    0.15516E-19         0.53726E-20         0.00000E+00
    0.15355E-19         0.27248E-20         0.00000E+00
    0.14283E-19         0.77866E-21         0.00000E+00
    0.13948E-19         0.46093E-21         0.00000E+00
    0.00000E+00         0.29494E-19         0.00000E+00
   -0.10397E-20         0.28052E-19         0.00000E+00
   -0.41305E-21         0.26304E-19         0.00000E+00
    0.40237E-20         0.24776E-19         0.00000E+00
    0.70016E-20         0.24759E-19         0.00000E+00
    0.11821E-19         0.26395E-19         0.00000E+00
    0.11692E-19         0.26428E-19         0.00000E+00
    0.92426E-20         0.28048E-19         0.00000E+00
    0.11159E-19         0.30295E-19         0.00000E+00
    0.17047E-19         0.24565E-19         0.00000E+00
    0.17748E-19         0.18484E-19         0.00000E+00
    0.17149E-19         0.17589E-19         0.00000E+00
    0.16333E-19         0.17057E-19         0.00000E+00
    0.14657E-19         0.13648E-19         0.00000E+00
    0.13729E-19         0.10244E-19         0.00000E+00
    0.14414E-19         0.10627E-19         0.00000E+00
    0.14523E-19         0.92214E-20         0.00000E+00
    0.13576E-19         0.76023E-20         0.00000E+00
    0.13920E-19         0.72603E-20         0.00000E+00
    0.14153E-19         0.66912E-20         0.00000E+00
    0.13701E-19         0.54364E-20         0.00000E+00
    0.14966E-19         0.44354E-20         0.00000E+00
    0.15695E-19         0.34976E-20         0.00000E+00
    0.15152E-19         0.16375E-20         0.00000E+00
    0.15010E-19         0.66617E-21         0.00000E+00
    0.00000E+00         0.29254E-19         0.00000E+00
    0.17804E-20         0.27121E-19         0.00000E+00
    0.30808E-20         0.23052E-19         0.00000E+00
    0.45244E-20         0.21343E-19         0.00000E+00
    0.48498E-20         0.22369E-19         0.00000E+00
    0.72769E-20         0.24967E-19         0.00000E+00
    0.72368E-20         0.27523E-19         0.00000E+00
    0.73342E-20         0.28399E-19         0.00000E+00
    0.10338E-19         0.25676E-19         0.00000E+00
    0.15868E-19         0.22095E-19         0.00000E+00
    0.11250E-19         0.22028E-19         0.00000E+00
    0.91188E-20         0.19374E-19         0.00000E+00
    0.10312E-19         0.14981E-19         0.00000E+00
    0.12763E-19         0.12279E-19         0.00000E+00
    0.13145E-19         0.11053E-19         0.00000E+00
    0.14336E-19         0.10736E-19         0.00000E+00
    0.14196E-19         0.94009E-20         0.00000E+00
    0.13232E-19         0.81298E-20         0.00000E+00
    0.13835E-19         0.74261E-20         0.00000E+00
    0.14309E-19         0.70214E-20         0.00000E+00
    0.14184E-19         0.52625E-20         0.00000E+00
    0.14223E-19         0.33791E-20         0.00000E+00
    0.15151E-19         0.25388E-20         0.00000E+00
    0.15657E-19         0.14637E-20         0.00000E+00
    0.15758E-19         0.74483E-21         0.00000E+00
    0.00000E+00         0.25934E-19         0.00000E+00
    0.89062E-21         0.24971E-19         0.00000E+00
    0.90346E-21         0.23560E-19         0.00000E+00
   -0.18368E-21         0.23007E-19         0.00000E+00
   -0.36126E-21         0.22007E-19         0.00000E+00
   -0.30522E-21         0.24008E-19         0.00000E+00
    0.22308E-20         0.26370E-19         0.00000E+00
    0.45990E-20         0.24946E-19         0.00000E+00
    0.86463E-20         0.21761E-19         0.00000E+00
    0.86213E-20         0.23653E-19         0.00000E+00
    0.78421E-20         0.25233E-19         0.00000E+00
    0.11170E-19         0.18528E-19         0.00000E+00
    0.12541E-19         0.13412E-19         0.00000E+00
    0.12771E-19         0.10815E-19         0.00000E+00
    0.12487E-19         0.86710E-20         0.00000E+00
    0.13196E-19         0.95754E-20         0.00000E+00
    0.12950E-19         0.10325E-19         0.00000E+00
    0.13281E-19         0.79630E-20         0.00000E+00
    0.14826E-19         0.61839E-20         0.00000E+00
    0.15112E-19         0.63424E-20         0.00000E+00
    0.15673E-19         0.55225E-20         0.00000E+00
    0.15516E-19         0.34691E-20         0.00000E+00
    0.15393E-19         0.20635E-20         0.00000E+00
    0.15665E-19         0.10302E-20         0.00000E+00
    0.15778E-19         0.46426E-21         0.00000E+00
    0.00000E+00         0.27473E-19         0.00000E+00
   -0.36061E-20         0.26218E-19         0.00000E+00
   -0.35823E-20         0.24126E-19         0.00000E+00
   -0.65237E-21         0.22608E-19         0.00000E+00
    0.67185E-21         0.22491E-19         0.00000E+00
    0.12227E-20         0.22375E-19         0.00000E+00
    0.49404E-20         0.22619E-19         0.00000E+00
    0.76225E-20         0.21984E-19         0.00000E+00
    0.76054E-20         0.21654E-19         0.00000E+00
    0.64861E-20         0.22899E-19         0.00000E+00
    0.12882E-19         0.19479E-19         0.00000E+00
    0.16526E-19         0.14675E-19         0.00000E+00
    0.16889E-19         0.13380E-19         0.00000E+00
    0.16989E-19         0.12333E-19         0.00000E+00
    0.14725E-19         0.10628E-19         0.00000E+00
    0.11811E-19         0.10273E-19         0.00000E+00
    0.12762E-19         0.93160E-20         0.00000E+00
    0.13331E-19         0.62534E-20         0.00000E+00
    0.13649E-19         0.55952E-20         0.00000E+00
    0.14674E-19         0.61750E-20         0.00000E+00
    0.15726E-19         0.48588E-20         0.00000E+00
    0.16185E-19         0.36585E-20         0.00000E+00
    0.15603E-19         0.23892E-20         0.00000E+00
    0.15406E-19         0.10794E-20         0.00000E+00
    0.15369E-19         0.52009E-21         0.00000E+00
    0.00000E+00         0.33146E-19         0.00000E+00
   -0.21529E-20         0.28553E-19         0.00000E+00
   -0.22964E-20         0.20607E-19         0.00000E+00
    0.98743E-22         0.18753E-19         0.00000E+00
    0.28621E-20         0.20132E-19         0.00000E+00
    0.58116E-20         0.19740E-19         0.00000E+00
    0.56411E-20         0.19970E-19         0.00000E+00
    0.71321E-20         0.22281E-19         0.00000E+00
    0.90528E-20         0.22898E-19         0.00000E+00
    0.12559E-19         0.18377E-19         0.00000E+00
    0.16451E-19         0.15193E-19         0.00000E+00
    0.16990E-19         0.14521E-19         0.00000E+00
    0.16529E-19         0.12950E-19         0.00000E+00
    0.16258E-19         0.12979E-19         0.00000E+00
    0.15747E-19         0.13848E-19         0.00000E+00
    0.14106E-19         0.11538E-19         0.00000E+00
    0.12282E-19         0.88053E-20         0.00000E+00
    0.12439E-19         0.70762E-20         0.00000E+00
    0.12528E-19         0.48406E-20         0.00000E+00
    0.14339E-19         0.42650E-20         0.00000E+00
    0.15013E-19         0.40111E-20         0.00000E+00
    0.15194E-19         0.35923E-20         0.00000E+00
    0.15097E-19         0.28428E-20         0.00000E+00
    0.15107E-19         0.12646E-20         0.00000E+00
    0.15112E-19         0.53920E-21         0.00000E+00
    0.00000E+00         0.31778E-19         0.00000E+00
    0.26662E-20         0.28514E-19         0.00000E+00
    0.13264E-20         0.21874E-19         0.00000E+00
    0.36954E-21         0.17449E-19         0.00000E+00
    0.31966E-20         0.16778E-19         0.00000E+00
    0.55728E-20         0.19596E-19         0.00000E+00
    0.43333E-20         0.21298E-19         0.00000E+00
    0.54514E-20         0.18572E-19         0.00000E+00
    0.11304E-19         0.16226E-19         0.00000E+00
    0.15550E-19         0.15501E-19         0.00000E+00
    0.16503E-19         0.15048E-19         0.00000E+00
    0.16243E-19         0.14597E-19         0.00000E+00
    0.15205E-19         0.14112E-19         0.00000E+00
    0.13299E-19         0.13115E-19         0.00000E+00
    0.14036E-19         0.12780E-19         0.00000E+00
    0.14957E-19         0.13738E-19         0.00000E+00
    0.13333E-19         0.10983E-19         0.00000E+00
    0.13711E-19         0.60075E-20         0.00000E+00
    0.13387E-19         0.36955E-20         0.00000E+00
    0.13056E-19         0.36902E-20         0.00000E+00
    0.13431E-19         0.40040E-20         0.00000E+00
    0.13614E-19         0.35739E-20         0.00000E+00
    0.14296E-19         0.24764E-20         0.00000E+00
    0.14726E-19         0.10645E-20         0.00000E+00
    0.14661E-19         0.50935E-21         0.00000E+00
    0.00000E+00         0.27813E-19         0.00000E+00
    0.63126E-20         0.27227E-19         0.00000E+00
    0.66613E-20         0.22903E-19         0.00000E+00
    0.68595E-20         0.16883E-19         0.00000E+00
    0.54146E-20         0.14929E-19         0.00000E+00
    0.49379E-20         0.18603E-19         0.00000E+00
    0.80514E-20         0.20092E-19         0.00000E+00
    0.11478E-19         0.15311E-19         0.00000E+00
    0.12473E-19         0.12799E-19         0.00000E+00
    0.14942E-19         0.13178E-19         0.00000E+00
    0.15198E-19         0.14501E-19         0.00000E+00
    0.14706E-19         0.15818E-19         0.00000E+00
    0.14684E-19         0.15893E-19         0.00000E+00
    0.14730E-19         0.14148E-19         0.00000E+00
    0.13480E-19         0.12191E-19         0.00000E+00
    0.13534E-19         0.12242E-19         0.00000E+00
    0.16625E-19         0.10052E-19         0.00000E+00
    0.16066E-19         0.70218E-20         0.00000E+00
    0.13538E-19         0.54949E-20         0.00000E+00
    0.12471E-19         0.42209E-20         0.00000E+00
    0.12372E-19         0.34531E-20         0.00000E+00
    0.12999E-19         0.27275E-20         0.00000E+00
    0.13812E-19         0.17311E-20         0.00000E+00
    0.13988E-19         0.89949E-21         0.00000E+00
    0.14042E-19         0.66890E-21         0.00000E+00
    0.00000E+00         0.19153E-19         0.00000E+00
    0.68322E-20         0.21853E-19         0.00000E+00
    0.97830E-20         0.21327E-19         0.00000E+00
    0.92662E-20         0.18696E-19         0.00000E+00
    0.63950E-20         0.18700E-19         0.00000E+00
    0.51557E-20         0.16960E-19         0.00000E+00
    0.97109E-20         0.14758E-19         0.00000E+00
    0.11764E-19         0.14151E-19         0.00000E+00
    0.11767E-19         0.12763E-19         0.00000E+00
    0.11519E-19         0.12776E-19         0.00000E+00
    0.10893E-19         0.15284E-19         0.00000E+00
    0.11693E-19         0.15111E-19         0.00000E+00
    0.13054E-19         0.14087E-19         0.00000E+00
    0.13793E-19         0.14320E-19         0.00000E+00
    0.13723E-19         0.13976E-19         0.00000E+00
    0.14515E-19         0.10593E-19         0.00000E+00
    0.15767E-19         0.84509E-20         0.00000E+00
    0.15698E-19         0.90949E-20         0.00000E+00
    0.14967E-19         0.72905E-20         0.00000E+00
    0.14493E-19         0.48563E-20         0.00000E+00
    0.13744E-19         0.34759E-20         0.00000E+00
    0.13264E-19         0.21341E-20         0.00000E+00
    0.13554E-19         0.14881E-20         0.00000E+00
    0.13646E-19         0.83375E-21         0.00000E+00
    0.13697E-19         0.39960E-21         0.00000E+00
    0.00000E+00         0.14149E-19         0.00000E+00
    0.23383E-20         0.17444E-19         0.00000E+00
    0.39083E-20         0.20469E-19         0.00000E+00
    0.31556E-20         0.20271E-19         0.00000E+00
    0.42937E-20         0.19039E-19         0.00000E+00
    0.56870E-20         0.15287E-19         0.00000E+00
    0.73400E-20         0.13484E-19         0.00000E+00
    0.83255E-20         0.13254E-19         0.00000E+00
    0.83703E-20         0.13044E-19         0.00000E+00
    0.67947E-20         0.14053E-19         0.00000E+00
    0.85389E-20         0.14326E-19         0.00000E+00
    0.11068E-19         0.13657E-19         0.00000E+00
    0.10698E-19         0.13793E-19         0.00000E+00
    0.10972E-19         0.13479E-19         0.00000E+00
    0.13080E-19         0.11469E-19         0.00000E+00
    0.14418E-19         0.10198E-19         0.00000E+00
    0.13468E-19         0.88695E-20         0.00000E+00
    0.14144E-19         0.78213E-20         0.00000E+00
    0.15873E-19         0.66995E-20         0.00000E+00
    0.15412E-19         0.54441E-20         0.00000E+00
    0.14770E-19         0.46825E-20         0.00000E+00
    0.14083E-19         0.29176E-20         0.00000E+00
    0.13785E-19         0.13485E-20         0.00000E+00
    0.13697E-19         0.75619E-21         0.00000E+00
    0.13698E-19         0.56695E-21         0.00000E+00
    0.00000E+00         0.14477E-19         0.00000E+00
    0.88556E-21         0.17945E-19         0.00000E+00
    0.16144E-20         0.20510E-19         0.00000E+00
    0.26644E-20         0.18311E-19         0.00000E+00
    0.44813E-20         0.16168E-19         0.00000E+00
    0.63319E-20         0.13913E-19         0.00000E+00
    0.50710E-20         0.12119E-19         0.00000E+00
    0.63636E-20         0.13120E-19         0.00000E+00
    0.60875E-20         0.14294E-19         0.00000E+00
    0.78566E-20         0.12608E-19         0.00000E+00
    0.10283E-19         0.11011E-19         0.00000E+00
    0.11095E-19         0.12952E-19         0.00000E+00
    0.10692E-19         0.14183E-19         0.00000E+00
    0.12358E-19         0.11938E-19         0.00000E+00
    0.13035E-19         0.10530E-19         0.00000E+00
    0.13357E-19         0.10204E-19         0.00000E+00
    0.13345E-19         0.87251E-20         0.00000E+00
    0.13190E-19         0.66896E-20         0.00000E+00
    0.14435E-19         0.60220E-20         0.00000E+00
    0.14130E-19         0.59601E-20         0.00000E+00
    0.14033E-19         0.48055E-20         0.00000E+00
    0.14417E-19         0.31191E-20         0.00000E+00
    0.14032E-19         0.18732E-20         0.00000E+00
    0.13610E-19         0.92069E-21         0.00000E+00
    0.13674E-19         0.39910E-21         0.00000E+00
    0.00000E+00         0.12378E-19         0.00000E+00
   -0.12776E-21         0.15830E-19         0.00000E+00
    0.33998E-20         0.18690E-19         0.00000E+00
    0.49409E-20         0.17404E-19         0.00000E+00
    0.64112E-20         0.15372E-19         0.00000E+00
    0.62075E-20         0.14697E-19         0.00000E+00
    0.57846E-20         0.13452E-19         0.00000E+00
    0.52004E-20         0.12238E-19         0.00000E+00
    0.74133E-20         0.11551E-19         0.00000E+00
    0.99383E-20         0.98574E-20         0.00000E+00
    0.91615E-20         0.11087E-19         0.00000E+00
    0.84101E-20         0.13247E-19         0.00000E+00
    0.10784E-19         0.12530E-19         0.00000E+00
    0.11848E-19         0.11136E-19         0.00000E+00
    0.11901E-19         0.10470E-19         0.00000E+00
    0.11748E-19         0.98884E-20         0.00000E+00
    0.12586E-19         0.90361E-20         0.00000E+00
    0.12641E-19         0.67312E-20         0.00000E+00
    0.12453E-19         0.57596E-20         0.00000E+00
    0.12444E-19         0.58463E-20         0.00000E+00
    0.13253E-19         0.43955E-20         0.00000E+00
    0.13647E-19         0.29186E-20         0.00000E+00
    0.13656E-19         0.21561E-20         0.00000E+00
    0.13686E-19         0.11140E-20         0.00000E+00
    0.13587E-19         0.43873E-21         0.00000E+00
    0.00000E+00         0.14732E-19         0.00000E+00
   -0.11943E-20         0.14545E-19         0.00000E+00
    0.96309E-21         0.15442E-19         0.00000E+00
    0.29629E-20         0.15299E-19         0.00000E+00
    0.41874E-20         0.14902E-19         0.00000E+00
    0.48578E-20         0.14540E-19         0.00000E+00
    0.68347E-20         0.13127E-19         0.00000E+00
    0.66967E-20         0.11492E-19         0.00000E+00
    0.78676E-20         0.95557E-20         0.00000E+00
    0.77922E-20         0.10859E-19         0.00000E+00
    0.66476E-20         0.12539E-19         0.00000E+00
    0.78715E-20         0.11329E-19         0.00000E+00
    0.94242E-20         0.10746E-19         0.00000E+00
    0.92784E-20         0.10822E-19         0.00000E+00
    0.93322E-20         0.10630E-19         0.00000E+00
    0.97370E-20         0.95191E-20         0.00000E+00
    0.12076E-19         0.78325E-20         0.00000E+00
    0.13257E-19         0.68228E-20         0.00000E+00
    0.12302E-19         0.62185E-20         0.00000E+00
    0.12153E-19         0.51599E-20         0.00000E+00
    0.12874E-19         0.36031E-20         0.00000E+00
    0.13010E-19         0.27161E-20         0.00000E+00
    0.13190E-19         0.18340E-20         0.00000E+00
    0.13442E-19         0.98934E-21         0.00000E+00
    0.13444E-19         0.59651E-21         0.00000E+00
    0.00000E+00         0.14767E-19         0.00000E+00
    0.14564E-21         0.14867E-19         0.00000E+00
    0.72727E-21         0.14533E-19         0.00000E+00
    0.20573E-20         0.14179E-19         0.00000E+00
    0.18420E-20         0.13477E-19         0.00000E+00
    0.42312E-20         0.12050E-19         0.00000E+00
    0.49430E-20         0.11613E-19         0.00000E+00
    0.67031E-20         0.11205E-19         0.00000E+00
    0.68505E-20         0.10456E-19         0.00000E+00
    0.62841E-20         0.11077E-19         0.00000E+00
    0.78359E-20         0.11008E-19         0.00000E+00
    0.90463E-20         0.10471E-19         0.00000E+00
    0.75890E-20         0.11123E-19         0.00000E+00
    0.83939E-20         0.11228E-19         0.00000E+00
    0.87805E-20         0.10011E-19         0.00000E+00
    0.10846E-19         0.71450E-20         0.00000E+00
    0.11852E-19         0.55157E-20         0.00000E+00
    0.12464E-19         0.65045E-20         0.00000E+00
    0.11623E-19         0.68643E-20         0.00000E+00
    0.12303E-19         0.52749E-20         0.00000E+00
    0.12669E-19         0.35380E-20         0.00000E+00
    0.12650E-19         0.26025E-20         0.00000E+00
    0.12613E-19         0.17239E-20         0.00000E+00
    0.12734E-19         0.85999E-21         0.00000E+00
    0.12849E-19         0.43552E-21         0.00000E+00
    0.00000E+00         0.14441E-19         0.00000E+00
    0.79197E-21         0.13818E-19         0.00000E+00
    0.26212E-20         0.13530E-19         0.00000E+00
    0.15167E-20         0.14184E-19         0.00000E+00
    0.28955E-20         0.12728E-19         0.00000E+00
    0.33228E-20         0.11439E-19         0.00000E+00
    0.33162E-20         0.10655E-19         0.00000E+00
    0.49097E-20         0.95840E-20         0.00000E+00
    0.58076E-20         0.99747E-20         0.00000E+00
    0.67073E-20         0.98739E-20         0.00000E+00
    0.78623E-20         0.97772E-20         0.00000E+00
    0.79098E-20         0.11576E-19         0.00000E+00
    0.78040E-20         0.11398E-19         0.00000E+00
    0.88584E-20         0.96302E-20         0.00000E+00
    0.10591E-19         0.81773E-20         0.00000E+00
    0.11031E-19         0.64475E-20         0.00000E+00
    0.10693E-19         0.62146E-20         0.00000E+00
    0.10013E-19         0.70514E-20         0.00000E+00
    0.10382E-19         0.63799E-20         0.00000E+00
    0.11530E-19         0.41142E-20         0.00000E+00
    0.11869E-19         0.32555E-20         0.00000E+00
    0.12017E-19         0.27721E-20         0.00000E+00
    0.11985E-19         0.17498E-20         0.00000E+00
    0.11947E-19         0.75349E-21         0.00000E+00
    0.11977E-19         0.36764E-21         0.00000E+00
    0.00000E+00         0.13183E-19         0.00000E+00
    0.14892E-20         0.12245E-19         0.00000E+00
    0.18001E-20         0.13808E-19         0.00000E+00
    0.21961E-20         0.13905E-19         0.00000E+00
    0.45072E-20         0.11671E-19         0.00000E+00
    0.36069E-20         0.11629E-19         0.00000E+00
    0.39698E-20         0.10026E-19         0.00000E+00
    0.37758E-20         0.87135E-20         0.00000E+00
    0.49205E-20         0.86584E-20         0.00000E+00
    0.60168E-20         0.90227E-20         0.00000E+00
    0.68391E-20         0.98056E-20         0.00000E+00
    0.75868E-20         0.10529E-19         0.00000E+00
    0.93896E-20         0.10174E-19         0.00000E+00
    0.92503E-20         0.84416E-20         0.00000E+00
    0.97694E-20         0.78381E-20         0.00000E+00
    0.97550E-20         0.70429E-20         0.00000E+00
    0.99810E-20         0.65342E-20         0.00000E+00
    0.98447E-20         0.68154E-20         0.00000E+00
    0.10872E-19         0.53471E-20         0.00000E+00
    0.11104E-19         0.37875E-20         0.00000E+00
    0.10860E-19         0.30508E-20         0.00000E+00
    0.11288E-19         0.24867E-20         0.00000E+00
    0.11497E-19         0.17945E-20         0.00000E+00
    0.11425E-19         0.86801E-21         0.00000E+00
    0.11373E-19         0.37463E-21         0.00000E+00
    0.00000E+00         0.11463E-19         0.00000E+00
    0.10164E-20         0.12017E-19         0.00000E+00
    0.11570E-20         0.12823E-19         0.00000E+00
    0.40812E-20         0.11477E-19         0.00000E+00
    0.38754E-20         0.11317E-19         0.00000E+00
    0.41395E-20         0.11976E-19         0.00000E+00
    0.47707E-20         0.10486E-19         0.00000E+00
    0.49745E-20         0.86332E-20         0.00000E+00
    0.51360E-20         0.77337E-20         0.00000E+00
    0.54784E-20         0.79554E-20         0.00000E+00
    0.59888E-20         0.82072E-20         0.00000E+00
    0.72155E-20         0.90254E-20         0.00000E+00
    0.86015E-20         0.97345E-20         0.00000E+00
    0.88568E-20         0.92504E-20         0.00000E+00
    0.72569E-20         0.76726E-20         0.00000E+00
    0.86385E-20         0.62359E-20         0.00000E+00
    0.90427E-20         0.61250E-20         0.00000E+00
    0.10323E-19         0.61604E-20         0.00000E+00
    0.10838E-19         0.51211E-20         0.00000E+00
    0.10720E-19         0.41263E-20         0.00000E+00
    0.10766E-19         0.30706E-20         0.00000E+00
    0.10879E-19         0.21352E-20         0.00000E+00
    0.11046E-19         0.16135E-20         0.00000E+00
    0.11223E-19         0.87769E-21         0.00000E+00
    0.11162E-19         0.47181E-21         0.00000E+00
    0.00000E+00         0.11150E-19         0.00000E+00
    0.55496E-21         0.11088E-19         0.00000E+00
    0.21171E-20         0.10744E-19         0.00000E+00
    0.42630E-20         0.11187E-19         0.00000E+00
    0.33526E-20         0.11612E-19         0.00000E+00
    0.48328E-20         0.10734E-19         0.00000E+00
    0.55332E-20         0.91912E-20         0.00000E+00
    0.54869E-20         0.83483E-20         0.00000E+00
    0.55333E-20         0.81545E-20         0.00000E+00
    0.52570E-20         0.81698E-20         0.00000E+00
    0.42595E-20         0.80685E-20         0.00000E+00
    0.48173E-20         0.79162E-20         0.00000E+00
    0.60028E-20         0.85331E-20         0.00000E+00
    0.74459E-20         0.97862E-20         0.00000E+00
    0.79171E-20         0.80564E-20         0.00000E+00
    0.74862E-20         0.52572E-20         0.00000E+00
    0.77933E-20         0.48498E-20         0.00000E+00
    0.89274E-20         0.50202E-20         0.00000E+00
    0.97554E-20         0.49502E-20         0.00000E+00
    0.10111E-19         0.38596E-20         0.00000E+00
    0.10501E-19         0.28915E-20         0.00000E+00
    0.10444E-19         0.22066E-20         0.00000E+00
    0.10454E-19         0.14507E-20         0.00000E+00
    0.10507E-19         0.75216E-21         0.00000E+00
    0.10602E-19         0.49692E-21         0.00000E+00
    0.00000E+00         0.10353E-19         0.00000E+00
    0.93262E-21         0.99004E-20         0.00000E+00
    0.15891E-20         0.91149E-20         0.00000E+00
    0.23999E-20         0.10242E-19         0.00000E+00
    0.43516E-20         0.10747E-19         0.00000E+00
    0.53291E-20         0.97958E-20         0.00000E+00
    0.59715E-20         0.98316E-20         0.00000E+00
    0.55449E-20         0.86331E-20         0.00000E+00
    0.55555E-20         0.79635E-20         0.00000E+00
    0.51815E-20         0.92291E-20         0.00000E+00
    0.49797E-20         0.86469E-20         0.00000E+00
    0.51420E-20         0.72821E-20         0.00000E+00
    0.57174E-20         0.71060E-20         0.00000E+00
    0.65188E-20         0.73361E-20         0.00000E+00
    0.93708E-20         0.76322E-20         0.00000E+00
    0.86296E-20         0.63596E-20         0.00000E+00
    0.82138E-20         0.46838E-20         0.00000E+00
    0.80444E-20         0.41984E-20         0.00000E+00
    0.88175E-20         0.39372E-20         0.00000E+00
    0.94585E-20         0.33806E-20         0.00000E+00
    0.96774E-20         0.27383E-20         0.00000E+00
    0.97503E-20         0.21826E-20         0.00000E+00
    0.97825E-20         0.15504E-20         0.00000E+00
    0.97042E-20         0.72943E-21         0.00000E+00
    0.97677E-20         0.28106E-21         0.00000E+00
    0.00000E+00         0.92846E-20         0.00000E+00
    0.11746E-20         0.94992E-20         0.00000E+00
    0.36058E-21         0.92764E-20         0.00000E+00
    0.64484E-21         0.84241E-20         0.00000E+00
    0.31829E-20         0.86830E-20         0.00000E+00
    0.33072E-20         0.91141E-20         0.00000E+00
    0.38272E-20         0.89753E-20         0.00000E+00
    0.56147E-20         0.87643E-20         0.00000E+00
    0.49668E-20         0.85179E-20         0.00000E+00
    0.53176E-20         0.87457E-20         0.00000E+00
    0.65170E-20         0.81079E-20         0.00000E+00
    0.64493E-20         0.71784E-20         0.00000E+00
    0.65475E-20         0.71563E-20         0.00000E+00
    0.68816E-20         0.61328E-20         0.00000E+00
    0.78953E-20         0.59456E-20         0.00000E+00
    0.87911E-20         0.64142E-20         0.00000E+00
    0.85903E-20         0.54350E-20         0.00000E+00
    0.83644E-20         0.44165E-20         0.00000E+00
    0.85493E-20         0.35362E-20         0.00000E+00
    0.88334E-20         0.29997E-20         0.00000E+00
    0.90212E-20         0.25997E-20         0.00000E+00
    0.91193E-20         0.21015E-20         0.00000E+00
    0.91795E-20         0.14968E-20         0.00000E+00
    0.93010E-20         0.76692E-21         0.00000E+00
    0.93085E-20         0.36986E-21         0.00000E+00
    0.00000E+00         0.80034E-20         0.00000E+00
    0.87948E-21         0.95398E-20         0.00000E+00
    0.60379E-21         0.96446E-20         0.00000E+00
    0.11397E-20         0.74195E-20         0.00000E+00
    0.10461E-20         0.80848E-20         0.00000E+00
    0.19445E-20         0.91515E-20         0.00000E+00
    0.26119E-20         0.75242E-20         0.00000E+00
    0.32069E-20         0.74935E-20         0.00000E+00
    0.35111E-20         0.82606E-20         0.00000E+00
    0.47675E-20         0.76790E-20         0.00000E+00
    0.59689E-20         0.75152E-20         0.00000E+00
    0.60982E-20         0.72516E-20         0.00000E+00
    0.62294E-20         0.66737E-20         0.00000E+00
    0.63305E-20         0.59884E-20         0.00000E+00
    0.59393E-20         0.57228E-20         0.00000E+00
    0.69410E-20         0.56646E-20         0.00000E+00
    0.75624E-20         0.51105E-20         0.00000E+00
    0.79870E-20         0.42394E-20         0.00000E+00
    0.81962E-20         0.34682E-20         0.00000E+00
    0.83080E-20         0.29086E-20         0.00000E+00
    0.84486E-20         0.24523E-20         0.00000E+00
    0.85818E-20         0.20243E-20         0.00000E+00
    0.87398E-20         0.13688E-20         0.00000E+00
    0.87802E-20         0.60040E-21         0.00000E+00
    0.88479E-20         0.26610E-21         0.00000E+00
    0.00000E+00         0.75256E-20         0.00000E+00
    0.10804E-20         0.88954E-20         0.00000E+00
    0.19446E-20         0.90162E-20         0.00000E+00
    0.10919E-20         0.79818E-20         0.00000E+00
    0.34136E-21         0.78782E-20         0.00000E+00
    0.18048E-20         0.75482E-20         0.00000E+00
    0.36487E-20         0.77130E-20         0.00000E+00
    0.26914E-20         0.78652E-20         0.00000E+00
    0.36169E-20         0.69572E-20         0.00000E+00
    0.46178E-20         0.62878E-20         0.00000E+00
    0.51653E-20         0.67773E-20         0.00000E+00
    0.53911E-20         0.69180E-20         0.00000E+00
    0.55963E-20         0.69240E-20         0.00000E+00
    0.55971E-20         0.64229E-20         0.00000E+00
    0.55085E-20         0.53351E-20         0.00000E+00
    0.55737E-20         0.47911E-20         0.00000E+00
    0.66911E-20         0.43889E-20         0.00000E+00
    0.73171E-20         0.37827E-20         0.00000E+00
    0.75702E-20         0.32152E-20         0.00000E+00
    0.77593E-20         0.27472E-20         0.00000E+00
    0.78949E-20         0.23259E-20         0.00000E+00
    0.79445E-20         0.18103E-20         0.00000E+00
    0.81095E-20         0.12984E-20         0.00000E+00
    0.81544E-20         0.65884E-21         0.00000E+00
    0.81465E-20         0.23443E-21         0.00000E+00
    0.00000E+00         0.58425E-20         0.00000E+00
    0.85278E-21         0.75952E-20         0.00000E+00
    0.27470E-20         0.96332E-20         0.00000E+00
    0.18066E-20         0.90227E-20         0.00000E+00
    0.20309E-20         0.73719E-20         0.00000E+00
    0.25691E-20         0.58441E-20         0.00000E+00
    0.32232E-20         0.66376E-20         0.00000E+00
    0.44610E-20         0.75252E-20         0.00000E+00
    0.56086E-20         0.63343E-20         0.00000E+00
    0.55856E-20         0.61306E-20         0.00000E+00
    0.51640E-20         0.67418E-20         0.00000E+00
    0.54418E-20         0.68206E-20         0.00000E+00
    0.53183E-20         0.64676E-20         0.00000E+00
    0.59500E-20         0.60762E-20         0.00000E+00
    0.59453E-20         0.57462E-20         0.00000E+00
    0.55943E-20         0.44820E-20         0.00000E+00
    0.63770E-20         0.33671E-20         0.00000E+00
    0.69857E-20         0.33603E-20         0.00000E+00
    0.70220E-20         0.30259E-20         0.00000E+00
    0.72045E-20         0.25839E-20         0.00000E+00
    0.72671E-20         0.22672E-20         0.00000E+00
    0.73209E-20         0.18097E-20         0.00000E+00
    0.73419E-20         0.11588E-20         0.00000E+00
    0.74800E-20         0.56345E-21         0.00000E+00
    0.75214E-20         0.28207E-21         0.00000E+00
    0.10339E-34         0.58201E-20         0.00000E+00
    0.32385E-21         0.61485E-20         0.00000E+00
    0.18605E-20         0.80625E-20         0.00000E+00
    0.33995E-20         0.86979E-20         0.00000E+00
    0.38744E-20         0.71157E-20         0.00000E+00
    0.42603E-20         0.63560E-20         0.00000E+00
    0.34118E-20         0.58210E-20         0.00000E+00
    0.47564E-20         0.54797E-20         0.00000E+00
    0.62064E-20         0.58327E-20         0.00000E+00
    0.59230E-20         0.67324E-20         0.00000E+00
    0.54890E-20         0.69211E-20         0.00000E+00
    0.57639E-20         0.67637E-20         0.00000E+00
    0.57928E-20         0.64157E-20         0.00000E+00
    0.58973E-20         0.57958E-20         0.00000E+00
    0.57167E-20         0.56908E-20         0.00000E+00
    0.62463E-20         0.43595E-20         0.00000E+00
    0.60495E-20         0.29976E-20         0.00000E+00
    0.61872E-20         0.31377E-20         0.00000E+00
    0.63388E-20         0.29964E-20         0.00000E+00
    0.64967E-20         0.25021E-20         0.00000E+00
    0.65541E-20         0.22096E-20         0.00000E+00
    0.68360E-20         0.17355E-20         0.00000E+00
    0.69341E-20         0.11393E-20         0.00000E+00
    0.69457E-20         0.47934E-21         0.00000E+00
    0.69411E-20         0.15152E-21         0.00000E+00
    0.12963E-48         0.51948E-20         0.00000E+00
    0.64358E-21         0.57348E-20         0.00000E+00
    0.11600E-20         0.65575E-20         0.00000E+00
    0.36621E-20         0.70088E-20         0.00000E+00
    0.43406E-20         0.65112E-20         0.00000E+00
    0.42498E-20         0.63067E-20         0.00000E+00
    0.42723E-20         0.61414E-20         0.00000E+00
    0.40879E-20         0.47306E-20         0.00000E+00
    0.46677E-20         0.51676E-20         0.00000E+00
    0.44839E-20         0.68480E-20         0.00000E+00
    0.48352E-20         0.69010E-20         0.00000E+00
    0.50426E-20         0.65167E-20         0.00000E+00
    0.56554E-20         0.63342E-20         0.00000E+00
    0.54326E-20         0.61524E-20         0.00000E+00
    0.52327E-20         0.53973E-20         0.00000E+00
    0.58077E-20         0.41492E-20         0.00000E+00
    0.57077E-20         0.34262E-20         0.00000E+00
    0.52994E-20         0.30710E-20         0.00000E+00
    0.56840E-20         0.27164E-20         0.00000E+00
    0.57796E-20         0.23686E-20         0.00000E+00
    0.61738E-20         0.19279E-20         0.00000E+00
    0.63316E-20         0.14298E-20         0.00000E+00
    0.64272E-20         0.10491E-20         0.00000E+00
    0.64205E-20         0.55638E-21         0.00000E+00
    0.63428E-20         0.29128E-21         0.00000E+00
   -0.80521E-35         0.45329E-20         0.00000E+00
    0.10180E-20         0.49884E-20         0.00000E+00
    0.21796E-20         0.50439E-20         0.00000E+00
    0.27798E-20         0.55173E-20         0.00000E+00
    0.29942E-20         0.65279E-20         0.00000E+00
    0.32444E-20         0.64242E-20         0.00000E+00
    0.39196E-20         0.59830E-20         0.00000E+00
    0.38154E-20         0.50843E-20         0.00000E+00
    0.29543E-20         0.54367E-20         0.00000E+00
    0.31912E-20         0.65649E-20         0.00000E+00
    0.38308E-20         0.63624E-20         0.00000E+00
    0.41410E-20         0.59436E-20         0.00000E+00
    0.44018E-20         0.60258E-20         0.00000E+00
    0.45925E-20         0.62185E-20         0.00000E+00
    0.48185E-20         0.53157E-20         0.00000E+00
    0.51447E-20         0.38844E-20         0.00000E+00
    0.53418E-20         0.35059E-20         0.00000E+00
    0.53889E-20         0.31614E-20         0.00000E+00
    0.53388E-20         0.25162E-20         0.00000E+00
    0.54139E-20         0.20123E-20         0.00000E+00
    0.57793E-20         0.16575E-20         0.00000E+00
    0.57220E-20         0.14821E-20         0.00000E+00
    0.56762E-20         0.10504E-20         0.00000E+00
    0.57308E-20         0.56371E-21         0.00000E+00
    0.57705E-20         0.30692E-21         0.00000E+00
    0.00000E+00         0.31588E-20         0.00000E+00
    0.77875E-21         0.35552E-20         0.00000E+00
    0.14375E-20         0.47957E-20         0.00000E+00
    0.71030E-21         0.61941E-20         0.00000E+00
    0.10669E-20         0.60466E-20         0.00000E+00
    0.18992E-20         0.53814E-20         0.00000E+00
    0.24314E-20         0.55705E-20         0.00000E+00
    0.30908E-20         0.56959E-20         0.00000E+00
    0.22511E-20         0.57918E-20         0.00000E+00
    0.27287E-20         0.59716E-20         0.00000E+00
    0.32977E-20         0.59512E-20         0.00000E+00
    0.34857E-20         0.59457E-20         0.00000E+00
    0.34089E-20         0.58827E-20         0.00000E+00
    0.39372E-20         0.57356E-20         0.00000E+00
    0.46833E-20         0.48450E-20         0.00000E+00
    0.48649E-20         0.36259E-20         0.00000E+00
    0.46212E-20         0.31821E-20         0.00000E+00
    0.53035E-20         0.30740E-20         0.00000E+00
    0.53622E-20         0.26914E-20         0.00000E+00
    0.51700E-20         0.19280E-20         0.00000E+00
    0.49049E-20         0.16198E-20         0.00000E+00
    0.49694E-20         0.15329E-20         0.00000E+00
    0.50606E-20         0.10403E-20         0.00000E+00
    0.51300E-20         0.46208E-21         0.00000E+00
    0.51658E-20         0.21178E-21         0.00000E+00
    0.00000E+00         0.29754E-20         0.00000E+00
   -0.45778E-21         0.35509E-20         0.00000E+00
   -0.78498E-21         0.51124E-20         0.00000E+00
    0.12233E-21         0.58879E-20         0.00000E+00
    0.63634E-21         0.53390E-20         0.00000E+00
    0.49791E-21         0.50597E-20         0.00000E+00
    0.96263E-21         0.47913E-20         0.00000E+00
    0.15790E-20         0.52646E-20         0.00000E+00
    0.17876E-20         0.57989E-20         0.00000E+00
    0.23356E-20         0.55183E-20         0.00000E+00
    0.28891E-20         0.56053E-20         0.00000E+00
    0.30530E-20         0.58323E-20         0.00000E+00
    0.34347E-20         0.55743E-20         0.00000E+00
    0.39624E-20         0.49442E-20         0.00000E+00
    0.43241E-20         0.43880E-20         0.00000E+00
    0.42355E-20         0.39466E-20         0.00000E+00
    0.44808E-20         0.30672E-20         0.00000E+00
    0.46554E-20         0.24204E-20         0.00000E+00
    0.51797E-20         0.26498E-20         0.00000E+00
    0.48878E-20         0.24696E-20         0.00000E+00
    0.43785E-20         0.18581E-20         0.00000E+00
    0.43460E-20         0.13264E-20         0.00000E+00
    0.45632E-20         0.88978E-21         0.00000E+00
    0.46066E-20         0.45847E-21         0.00000E+00
    0.45744E-20         0.23535E-21         0.00000E+00
    0.00000E+00         0.40744E-20         0.00000E+00
   -0.82021E-21         0.43402E-20         0.00000E+00
   -0.10469E-20         0.42156E-20         0.00000E+00
    0.35528E-22         0.47728E-20         0.00000E+00
   -0.22193E-21         0.56710E-20         0.00000E+00
   -0.28441E-21         0.50551E-20         0.00000E+00
    0.13877E-21         0.44894E-20         0.00000E+00
    0.29952E-22         0.48709E-20         0.00000E+00
    0.77986E-21         0.50351E-20         0.00000E+00
    0.15960E-20         0.48701E-20         0.00000E+00
    0.21425E-20         0.52339E-20         0.00000E+00
    0.27972E-20         0.54001E-20         0.00000E+00
    0.31496E-20         0.49732E-20         0.00000E+00
    0.34503E-20         0.48462E-20         0.00000E+00
    0.35515E-20         0.45719E-20         0.00000E+00
    0.38385E-20         0.34692E-20         0.00000E+00
    0.45157E-20         0.27622E-20         0.00000E+00
    0.43527E-20         0.23752E-20         0.00000E+00
    0.41413E-20         0.24590E-20         0.00000E+00
    0.42816E-20         0.27292E-20         0.00000E+00
    0.41721E-20         0.21617E-20         0.00000E+00
    0.40285E-20         0.13483E-20         0.00000E+00
    0.40279E-20         0.77971E-21         0.00000E+00
    0.40652E-20         0.45092E-21         0.00000E+00
    0.40542E-20         0.27615E-21         0.00000E+00
    0.00000E+00         0.46158E-20         0.00000E+00
   -0.39001E-21         0.45978E-20         0.00000E+00
   -0.46153E-21         0.42567E-20         0.00000E+00
   -0.11210E-20         0.50630E-20         0.00000E+00
   -0.82759E-21         0.56590E-20         0.00000E+00
   -0.39467E-21         0.46990E-20         0.00000E+00
   -0.21285E-21         0.44770E-20         0.00000E+00
   -0.29293E-21         0.46235E-20         0.00000E+00
    0.30697E-21         0.42328E-20         0.00000E+00
    0.52766E-21         0.41557E-20         0.00000E+00
    0.11086E-20         0.44041E-20         0.00000E+00
    0.19247E-20         0.48253E-20         0.00000E+00
    0.23252E-20         0.49213E-20         0.00000E+00
    0.25242E-20         0.45422E-20         0.00000E+00
    0.29806E-20         0.39998E-20         0.00000E+00
    0.35835E-20         0.29824E-20         0.00000E+00
    0.37333E-20         0.25531E-20         0.00000E+00
    0.38031E-20         0.27948E-20         0.00000E+00
    0.32875E-20         0.27208E-20         0.00000E+00
    0.35194E-20         0.24389E-20         0.00000E+00
    0.38496E-20         0.21112E-20         0.00000E+00
    0.37658E-20         0.14706E-20         0.00000E+00
    0.35980E-20         0.85309E-21         0.00000E+00
    0.35270E-20         0.43217E-21         0.00000E+00
    0.35297E-20         0.25722E-21         0.00000E+00
    0.00000E+00         0.48544E-20         0.00000E+00
   -0.26044E-21         0.48017E-20         0.00000E+00
   -0.44432E-21         0.49467E-20         0.00000E+00
   -0.11671E-20         0.51389E-20         0.00000E+00
   -0.63435E-21         0.49446E-20         0.00000E+00
   -0.25990E-21         0.44403E-20         0.00000E+00
   -0.20977E-21         0.43877E-20         0.00000E+00
    0.34862E-21         0.43511E-20         0.00000E+00
    0.54521E-21         0.42146E-20         0.00000E+00
    0.17659E-21         0.40685E-20         0.00000E+00
    0.50287E-21         0.38369E-20         0.00000E+00
    0.79686E-21         0.41835E-20         0.00000E+00
    0.16161E-20         0.43738E-20         0.00000E+00
    0.20650E-20         0.41907E-20         0.00000E+00
    0.26517E-20         0.35125E-20         0.00000E+00
    0.28492E-20         0.27165E-20         0.00000E+00
    0.28218E-20         0.25425E-20         0.00000E+00
    0.27847E-20         0.28210E-20         0.00000E+00
    0.27986E-20         0.27427E-20         0.00000E+00
    0.28102E-20         0.21670E-20         0.00000E+00
    0.31147E-20         0.19153E-20         0.00000E+00
    0.31493E-20         0.15999E-20         0.00000E+00
    0.30438E-20         0.10185E-20         0.00000E+00
    0.29484E-20         0.51925E-21         0.00000E+00
    0.29624E-20         0.27083E-21         0.00000E+00
    0.00000E+00         0.51367E-20         0.00000E+00
   -0.24017E-21         0.50421E-20         0.00000E+00
   -0.55994E-21         0.51633E-20         0.00000E+00
   -0.46329E-21         0.52530E-20         0.00000E+00
   -0.22445E-21         0.47518E-20         0.00000E+00
   -0.29608E-21         0.42745E-20         0.00000E+00
   -0.76869E-22         0.38684E-20         0.00000E+00
    0.47080E-21         0.38685E-20         0.00000E+00
    0.45506E-21         0.44048E-20         0.00000E+00
    0.68826E-21         0.41980E-20         0.00000E+00
    0.45551E-21         0.37838E-20         0.00000E+00
    0.62242E-21         0.37120E-20         0.00000E+00
    0.11430E-20         0.36531E-20         0.00000E+00
    0.17173E-20         0.35066E-20         0.00000E+00
    0.22120E-20         0.32156E-20         0.00000E+00
    0.21944E-20         0.28122E-20         0.00000E+00
    0.20746E-20         0.26175E-20         0.00000E+00
    0.20760E-20         0.28180E-20         0.00000E+00
    0.21741E-20         0.26954E-20         0.00000E+00
    0.21708E-20         0.21227E-20         0.00000E+00
    0.21632E-20         0.17722E-20         0.00000E+00
    0.23333E-20         0.15416E-20         0.00000E+00
    0.23640E-20         0.10540E-20         0.00000E+00
    0.23884E-20         0.51352E-21         0.00000E+00
    0.24162E-20         0.22913E-21         0.00000E+00
    0.00000E+00         0.53348E-20         0.00000E+00
   -0.19935E-21         0.53617E-20         0.00000E+00
   -0.31349E-21         0.51698E-20         0.00000E+00
   -0.16299E-22         0.48034E-20         0.00000E+00
    0.25507E-21         0.47774E-20         0.00000E+00
    0.11070E-21         0.42928E-20         0.00000E+00
    0.19856E-21         0.36208E-20         0.00000E+00
    0.16589E-21         0.38192E-20         0.00000E+00
    0.48170E-21         0.39971E-20         0.00000E+00
    0.87889E-21         0.40680E-20         0.00000E+00
    0.90316E-21         0.39027E-20         0.00000E+00
    0.10102E-20         0.34960E-20         0.00000E+00
    0.98351E-21         0.32789E-20         0.00000E+00
    0.11247E-20         0.31218E-20         0.00000E+00
    0.13117E-20         0.30355E-20         0.00000E+00
    0.14344E-20         0.28539E-20         0.00000E+00
    0.13229E-20         0.26609E-20         0.00000E+00
    0.14008E-20         0.27215E-20         0.00000E+00
    0.16008E-20         0.26478E-20         0.00000E+00
    0.17134E-20         0.21779E-20         0.00000E+00
    0.16227E-20         0.17529E-20         0.00000E+00
    0.17040E-20         0.13990E-20         0.00000E+00
    0.18259E-20         0.96331E-21         0.00000E+00
    0.18980E-20         0.46710E-21         0.00000E+00
    0.19114E-20         0.21539E-21         0.00000E+00
    0.00000E+00         0.55354E-20         0.00000E+00
    0.18215E-21         0.53556E-20         0.00000E+00
    0.30614E-21         0.49803E-20         0.00000E+00
    0.10975E-21         0.46845E-20         0.00000E+00
    0.26155E-22         0.46248E-20         0.00000E+00
    0.31211E-21         0.43310E-20         0.00000E+00
    0.33997E-22         0.38132E-20         0.00000E+00
    0.17971E-21         0.35854E-20         0.00000E+00
    0.52912E-21         0.36918E-20         0.00000E+00
    0.69650E-21         0.37765E-20         0.00000E+00
    0.99654E-21         0.36526E-20         0.00000E+00
    0.94379E-21         0.36317E-20         0.00000E+00
    0.73504E-21         0.35386E-20         0.00000E+00
    0.64342E-21         0.31785E-20         0.00000E+00
    0.64708E-21         0.29059E-20         0.00000E+00
    0.79665E-21         0.28010E-20         0.00000E+00
    0.76335E-21         0.26511E-20         0.00000E+00
    0.76841E-21         0.25401E-20         0.00000E+00
    0.99615E-21         0.23827E-20         0.00000E+00
    0.12002E-20         0.21009E-20         0.00000E+00
    0.12525E-20         0.17816E-20         0.00000E+00
    0.13189E-20         0.13383E-20         0.00000E+00
    0.13710E-20         0.86001E-21         0.00000E+00
    0.14101E-20         0.42808E-21         0.00000E+00
    0.14276E-20         0.20235E-21         0.00000E+00
    0.00000E+00         0.49705E-20         0.00000E+00
    0.42711E-21         0.50555E-20         0.00000E+00
    0.36097E-21         0.52422E-20         0.00000E+00
    0.78107E-22         0.50833E-20         0.00000E+00
    0.11521E-22         0.45750E-20         0.00000E+00
    0.41605E-22         0.42849E-20         0.00000E+00
    0.62217E-22         0.37532E-20         0.00000E+00
    0.34288E-21         0.33240E-20         0.00000E+00
    0.47811E-21         0.34803E-20         0.00000E+00
    0.54456E-21         0.36006E-20         0.00000E+00
    0.58734E-21         0.36554E-20         0.00000E+00
    0.53806E-21         0.37575E-20         0.00000E+00
    0.57996E-21         0.35792E-20         0.00000E+00
    0.58255E-21         0.32097E-20         0.00000E+00
    0.51259E-21         0.28822E-20         0.00000E+00
    0.38428E-21         0.27376E-20         0.00000E+00
    0.34884E-21         0.26892E-20         0.00000E+00
    0.40749E-21         0.24887E-20         0.00000E+00
    0.53321E-21         0.22160E-20         0.00000E+00
    0.67238E-21         0.19216E-20         0.00000E+00
    0.83885E-21         0.16342E-20         0.00000E+00
    0.93513E-21         0.12805E-20         0.00000E+00
    0.91607E-21         0.87210E-21         0.00000E+00
    0.93933E-21         0.41044E-21         0.00000E+00
    0.97387E-21         0.18038E-21         0.00000E+00
    0.00000E+00         0.46812E-20         0.00000E+00
    0.10807E-21         0.49946E-20         0.00000E+00
   -0.83957E-23         0.53293E-20         0.00000E+00
    0.10508E-21         0.50339E-20         0.00000E+00
    0.24424E-21         0.46613E-20         0.00000E+00
    0.79827E-23         0.42803E-20         0.00000E+00
    0.32341E-21         0.35120E-20         0.00000E+00
    0.47514E-21         0.31695E-20         0.00000E+00
    0.34424E-21         0.34901E-20         0.00000E+00
    0.31696E-21         0.36673E-20         0.00000E+00
    0.37855E-21         0.36591E-20         0.00000E+00
    0.30696E-21         0.36391E-20         0.00000E+00
    0.47103E-21         0.34941E-20         0.00000E+00
    0.44158E-21         0.32458E-20         0.00000E+00
    0.28499E-21         0.31042E-20         0.00000E+00
    0.95466E-22         0.29647E-20         0.00000E+00
    0.59578E-22         0.26279E-20         0.00000E+00
    0.17155E-21         0.23557E-20         0.00000E+00
    0.26446E-21         0.21178E-20         0.00000E+00
    0.23287E-21         0.17952E-20         0.00000E+00
    0.37143E-21         0.15189E-20         0.00000E+00
    0.45318E-21         0.12611E-20         0.00000E+00
    0.44326E-21         0.85580E-21         0.00000E+00
    0.45977E-21         0.37028E-21         0.00000E+00
    0.50838E-21         0.13326E-21         0.00000E+00
    0.00000E+00         0.47543E-20         0.00000E+00
   -0.73120E-22         0.50639E-20         0.00000E+00
   -0.13855E-21         0.52452E-20         0.00000E+00
    0.95078E-22         0.48307E-20         0.00000E+00
    0.26783E-21         0.46721E-20         0.00000E+00
    0.73397E-22         0.42057E-20         0.00000E+00
    0.41688E-21         0.32861E-20         0.00000E+00
    0.52522E-21         0.33032E-20         0.00000E+00
    0.14948E-21         0.36385E-20         0.00000E+00
    0.22850E-21         0.35663E-20         0.00000E+00
    0.35152E-21         0.36654E-20         0.00000E+00
    0.21577E-21         0.36650E-20         0.00000E+00
    0.29965E-21         0.34446E-20         0.00000E+00
    0.31476E-21         0.33958E-20         0.00000E+00
   -0.23567E-24         0.32283E-20         0.00000E+00
    0.66439E-22         0.29630E-20         0.00000E+00
    0.31223E-23         0.26131E-20         0.00000E+00
    0.96110E-22         0.22838E-20         0.00000E+00
    0.14695E-21         0.21547E-20         0.00000E+00
    0.22328E-22         0.18146E-20         0.00000E+00
    0.10822E-21         0.14139E-20         0.00000E+00
    0.23225E-21         0.12087E-20         0.00000E+00
    0.21300E-21         0.86552E-21         0.00000E+00
    0.21282E-21         0.34532E-21         0.00000E+00
    0.26292E-21         0.83158E-22         0.00000E+00
CELL_DATA       1152
TENSORS stressef double 
   -0.50391E+05         0.36730E+03         0.00000E+00
    0.36730E+03        -0.10022E+06         0.00000E+00
    0.00000E+00         0.00000E+00        -0.56226E+05
 
   -0.40546E+05         0.26486E+04         0.00000E+00
    0.26486E+04        -0.96900E+05         0.00000E+00
    0.00000E+00         0.00000E+00        -0.65782E+05
 
   -0.34885E+05         0.38063E+04         0.00000E+00
    0.38063E+04        -0.88952E+05         0.00000E+00
    0.00000E+00         0.00000E+00        -0.63209E+05
 
   -0.29645E+05         0.40509E+04         0.00000E+00
    0.40509E+04        -0.80509E+05         0.00000E+00
    0.00000E+00         0.00000E+00        -0.57496E+05
 
   -0.24761E+05         0.38935E+04         0.00000E+00
    0.38935E+04        -0.72692E+05         0.00000E+00
    0.00000E+00         0.00000E+00        -0.51282E+05
 
   -0.20330E+05         0.35934E+04         0.00000E+00
    0.35934E+04        -0.65568E+05         0.00000E+00
    0.00000E+00         0.00000E+00        -0.45219E+05
 
   -0.16348E+05         0.32081E+04         0.00000E+00
    0.32081E+04        -0.59151E+05         0.00000E+00
    0.00000E+00         0.00000E+00        -0.39561E+05
 
   -0.13259E+05         0.27880E+04         0.00000E+00
    0.27880E+04        -0.53412E+05         0.00000E+00
    0.00000E+00         0.00000E+00        -0.34605E+05
 
   -0.10653E+05         0.24213E+04         0.00000E+00
    0.24213E+04        -0.48357E+05         0.00000E+00
    0.00000E+00         0.00000E+00        -0.30293E+05
 
   -0.83767E+04         0.20929E+04         0.00000E+00
    0.20929E+04        -0.43954E+05         0.00000E+00
    0.00000E+00         0.00000E+00        -0.26573E+05
 
   -0.64942E+04         0.18174E+04         0.00000E+00
    0.18174E+04        -0.40076E+05         0.00000E+00
    0.00000E+00         0.00000E+00        -0.23398E+05
 
   -0.48386E+04         0.16290E+04         0.00000E+00
    0.16290E+04        -0.36660E+05         0.00000E+00
    0.00000E+00         0.00000E+00        -0.20596E+05
 
   -0.33193E+04         0.14654E+04         0.00000E+00
    0.14654E+04        -0.33629E+05         0.00000E+00
    0.00000E+00         0.00000E+00        -0.18044E+05
 
   -0.19102E+04         0.13215E+04         0.00000E+00
    0.13215E+04        -0.30891E+05         0.00000E+00
    0.00000E+00         0.00000E+00        -0.15675E+05
 
   -0.62664E+03         0.11691E+04         0.00000E+00
    0.11691E+04        -0.28436E+05         0.00000E+00
    0.00000E+00         0.00000E+00        -0.13468E+05
 
    0.38828E+03         0.10430E+04         0.00000E+00
    0.10430E+04        -0.26254E+05         0.00000E+00
    0.00000E+00         0.00000E+00        -0.11469E+05
 
    0.12312E+04         0.89577E+03         0.00000E+00
    0.89577E+03        -0.24359E+05         0.00000E+00
    0.00000E+00         0.00000E+00        -0.96121E+04
 
    0.19401E+04         0.79589E+03         0.00000E+00
    0.79589E+03        -0.22703E+05         0.00000E+00
    0.00000E+00         0.00000E+00        -0.79618E+04
 
    0.25345E+04         0.70734E+03         0.00000E+00
    0.70734E+03        -0.21226E+05         0.00000E+00
    0.00000E+00         0.00000E+00        -0.64142E+04
 
    0.27045E+04         0.63230E+03         0.00000E+00
    0.63230E+03        -0.19901E+05         0.00000E+00
    0.00000E+00         0.00000E+00        -0.52517E+04
 
    0.78899E+03         0.54023E+03         0.00000E+00
    0.54023E+03        -0.18737E+05         0.00000E+00
    0.00000E+00         0.00000E+00        -0.53843E+04
 
   -0.13049E+04         0.48390E+03         0.00000E+00
    0.48390E+03        -0.17720E+05         0.00000E+00
    0.00000E+00         0.00000E+00        -0.57075E+04
 
   -0.33711E+04         0.46006E+03         0.00000E+00
    0.46006E+03        -0.16781E+05         0.00000E+00
    0.00000E+00         0.00000E+00        -0.60456E+04
 
   -0.55070E+04         0.46042E+03         0.00000E+00
    0.46042E+03        -0.15865E+05         0.00000E+00
    0.00000E+00         0.00000E+00        -0.64115E+04
 
   -0.46905E+05         0.27391E+04         0.00000E+00
    0.27391E+04        -0.99614E+05         0.00000E+00
    0.00000E+00         0.00000E+00        -0.59029E+05
 
   -0.37182E+05         0.97166E+04         0.00000E+00
    0.97166E+04        -0.88863E+05         0.00000E+00
    0.00000E+00         0.00000E+00        -0.63738E+05
 
   -0.33484E+05         0.11696E+05         0.00000E+00
    0.11696E+05        -0.80360E+05         0.00000E+00
    0.00000E+00         0.00000E+00        -0.59430E+05
 
   -0.29650E+05         0.11870E+05         0.00000E+00
    0.11870E+05        -0.73326E+05         0.00000E+00
    0.00000E+00         0.00000E+00        -0.54320E+05
 
   -0.25346E+05         0.11185E+05         0.00000E+00
    0.11185E+05        -0.66651E+05         0.00000E+00
    0.00000E+00         0.00000E+00        -0.48714E+05
 
   -0.21103E+05         0.10180E+05         0.00000E+00
    0.10180E+05        -0.60606E+05         0.00000E+00
    0.00000E+00         0.00000E+00        -0.43217E+05
 
   -0.17293E+05         0.90435E+04         0.00000E+00
    0.90435E+04        -0.55212E+05         0.00000E+00
    0.00000E+00         0.00000E+00        -0.38134E+05
 
   -0.14047E+05         0.79392E+04         0.00000E+00
    0.79392E+04        -0.50454E+05         0.00000E+00
    0.00000E+00         0.00000E+00        -0.33598E+05
 
   -0.11359E+05         0.69290E+04         0.00000E+00
    0.69290E+04        -0.46145E+05         0.00000E+00
    0.00000E+00         0.00000E+00        -0.29593E+05
 
   -0.89791E+04         0.60580E+04         0.00000E+00
    0.60580E+04        -0.42208E+05         0.00000E+00
    0.00000E+00         0.00000E+00        -0.26015E+05
 
   -0.69214E+04         0.53488E+04         0.00000E+00
    0.53488E+04        -0.38725E+05         0.00000E+00
    0.00000E+00         0.00000E+00        -0.22876E+05
 
   -0.51691E+04         0.47850E+04         0.00000E+00
    0.47850E+04        -0.35551E+05         0.00000E+00
    0.00000E+00         0.00000E+00        -0.20117E+05
 
   -0.36323E+04         0.42983E+04         0.00000E+00
    0.42983E+04        -0.32658E+05         0.00000E+00
    0.00000E+00         0.00000E+00        -0.17626E+05
 
   -0.21938E+04         0.38774E+04         0.00000E+00
    0.38774E+04        -0.30101E+05         0.00000E+00
    0.00000E+00         0.00000E+00        -0.15307E+05
 
   -0.92462E+03         0.34478E+04         0.00000E+00
    0.34478E+04        -0.27827E+05         0.00000E+00
    0.00000E+00         0.00000E+00        -0.13185E+05
 
    0.11973E+03         0.30234E+04         0.00000E+00
    0.30234E+04        -0.25818E+05         0.00000E+00
    0.00000E+00         0.00000E+00        -0.11265E+05
 
    0.99390E+03         0.26574E+04         0.00000E+00
    0.26574E+04        -0.24029E+05         0.00000E+00
    0.00000E+00         0.00000E+00        -0.94461E+04
 
    0.17507E+04         0.23527E+04         0.00000E+00
    0.23527E+04        -0.22425E+05         0.00000E+00
    0.00000E+00         0.00000E+00        -0.78184E+04
 
    0.23768E+04         0.21001E+04         0.00000E+00
    0.21001E+04        -0.21004E+05         0.00000E+00
    0.00000E+00         0.00000E+00        -0.63129E+04
 
    0.25249E+04         0.18769E+04         0.00000E+00
    0.18769E+04        -0.19710E+05         0.00000E+00
    0.00000E+00         0.00000E+00        -0.52244E+04
 
    0.63689E+03         0.16069E+04         0.00000E+00
    0.16069E+04        -0.18585E+05         0.00000E+00
    0.00000E+00         0.00000E+00        -0.53845E+04
 
   -0.13809E+04         0.14443E+04         0.00000E+00
    0.14443E+04        -0.17587E+05         0.00000E+00
    0.00000E+00         0.00000E+00        -0.56904E+04
 
   -0.33933E+04         0.13733E+04         0.00000E+00
    0.13733E+04        -0.16662E+05         0.00000E+00
    0.00000E+00         0.00000E+00        -0.60165E+04
 
   -0.54856E+04         0.13738E+04         0.00000E+00
    0.13738E+04        -0.15760E+05         0.00000E+00
    0.00000E+00         0.00000E+00        -0.63738E+04
 
   -0.34308E+05         0.16166E+05         0.00000E+00
    0.16166E+05        -0.75384E+05         0.00000E+00
    0.00000E+00         0.00000E+00        -0.55713E+05
 
   -0.33389E+05         0.18376E+05         0.00000E+00
    0.18376E+05        -0.64371E+05         0.00000E+00
    0.00000E+00         0.00000E+00        -0.52842E+05
 
   -0.33536E+05         0.18913E+05         0.00000E+00
    0.18913E+05        -0.61966E+05         0.00000E+00
    0.00000E+00         0.00000E+00        -0.51523E+05
 
   -0.30579E+05         0.17942E+05         0.00000E+00
    0.17942E+05        -0.58431E+05         0.00000E+00
    0.00000E+00         0.00000E+00        -0.47919E+05
 
   -0.26760E+05         0.16566E+05         0.00000E+00
    0.16566E+05        -0.55017E+05         0.00000E+00
    0.00000E+00         0.00000E+00        -0.43895E+05
 
   -0.22640E+05         0.14973E+05         0.00000E+00
    0.14973E+05        -0.51500E+05         0.00000E+00
    0.00000E+00         0.00000E+00        -0.39628E+05
 
   -0.18792E+05         0.13368E+05         0.00000E+00
    0.13368E+05        -0.48055E+05         0.00000E+00
    0.00000E+00         0.00000E+00        -0.35481E+05
 
   -0.15435E+05         0.11880E+05         0.00000E+00
    0.11880E+05        -0.44737E+05         0.00000E+00
    0.00000E+00         0.00000E+00        -0.31594E+05
 
   -0.12522E+05         0.10622E+05         0.00000E+00
    0.10622E+05        -0.41612E+05         0.00000E+00
    0.00000E+00         0.00000E+00        -0.28020E+05
 
   -0.99566E+04         0.94652E+04         0.00000E+00
    0.94652E+04        -0.38612E+05         0.00000E+00
    0.00000E+00         0.00000E+00        -0.24768E+05
 
   -0.77452E+04         0.84419E+04         0.00000E+00
    0.84419E+04        -0.35718E+05         0.00000E+00
    0.00000E+00         0.00000E+00        -0.21794E+05
 
   -0.58439E+04         0.75695E+04         0.00000E+00
    0.75695E+04        -0.33140E+05         0.00000E+00
    0.00000E+00         0.00000E+00        -0.19138E+05
 
   -0.42040E+04         0.68304E+04         0.00000E+00
    0.68304E+04        -0.30829E+05         0.00000E+00
    0.00000E+00         0.00000E+00        -0.16768E+05
 
   -0.27501E+04         0.61366E+04         0.00000E+00
    0.61366E+04        -0.28684E+05         0.00000E+00
    0.00000E+00         0.00000E+00        -0.14613E+05
 
   -0.14931E+04         0.54808E+04         0.00000E+00
    0.54808E+04        -0.26720E+05         0.00000E+00
    0.00000E+00         0.00000E+00        -0.12623E+05
 
   -0.38869E+03         0.48451E+04         0.00000E+00
    0.48451E+04        -0.24951E+05         0.00000E+00
    0.00000E+00         0.00000E+00        -0.10746E+05
 
    0.57353E+03         0.42774E+04         0.00000E+00
    0.42774E+04        -0.23346E+05         0.00000E+00
    0.00000E+00         0.00000E+00        -0.90464E+04
 
    0.13887E+04         0.38061E+04         0.00000E+00
    0.38061E+04        -0.21894E+05         0.00000E+00
    0.00000E+00         0.00000E+00        -0.75201E+04
 
    0.20778E+04         0.34279E+04         0.00000E+00
    0.34279E+04        -0.20566E+05         0.00000E+00
    0.00000E+00         0.00000E+00        -0.61163E+04
 
    0.21726E+04         0.30632E+04         0.00000E+00
    0.30632E+04        -0.19352E+05         0.00000E+00
    0.00000E+00         0.00000E+00        -0.51739E+04
 
    0.34950E+03         0.26406E+04         0.00000E+00
    0.26406E+04        -0.18272E+05         0.00000E+00
    0.00000E+00         0.00000E+00        -0.53767E+04
 
   -0.15292E+04         0.23831E+04         0.00000E+00
    0.23831E+04        -0.17308E+05         0.00000E+00
    0.00000E+00         0.00000E+00        -0.56512E+04
 
   -0.34392E+04         0.22644E+04         0.00000E+00
    0.22644E+04        -0.16414E+05         0.00000E+00
    0.00000E+00         0.00000E+00        -0.59559E+04
 
   -0.54425E+04         0.22634E+04         0.00000E+00
    0.22634E+04        -0.15545E+05         0.00000E+00
    0.00000E+00         0.00000E+00        -0.62962E+04
 
   -0.13667E+05         0.14261E+05         0.00000E+00
    0.14261E+05        -0.27519E+05         0.00000E+00
    0.00000E+00         0.00000E+00        -0.24696E+05
 
   -0.33315E+05         0.19993E+05         0.00000E+00
    0.19993E+05        -0.37879E+05         0.00000E+00
    0.00000E+00         0.00000E+00        -0.41094E+05
 
   -0.33834E+05         0.19630E+05         0.00000E+00
    0.19630E+05        -0.37797E+05         0.00000E+00
    0.00000E+00         0.00000E+00        -0.40565E+05
 
   -0.31843E+05         0.19156E+05         0.00000E+00
    0.19156E+05        -0.38809E+05         0.00000E+00
    0.00000E+00         0.00000E+00        -0.39546E+05
 
   -0.28267E+05         0.18222E+05         0.00000E+00
    0.18222E+05        -0.38968E+05         0.00000E+00
    0.00000E+00         0.00000E+00        -0.37283E+05
 
   -0.24305E+05         0.17046E+05         0.00000E+00
    0.17046E+05        -0.38593E+05         0.00000E+00
    0.00000E+00         0.00000E+00        -0.34534E+05
 
   -0.20436E+05         0.15706E+05         0.00000E+00
    0.15706E+05        -0.37658E+05         0.00000E+00
    0.00000E+00         0.00000E+00        -0.31522E+05
 
   -0.16926E+05         0.14338E+05         0.00000E+00
    0.14338E+05        -0.36332E+05         0.00000E+00
    0.00000E+00         0.00000E+00        -0.28473E+05
 
   -0.13889E+05         0.13037E+05         0.00000E+00
    0.13037E+05        -0.34814E+05         0.00000E+00
    0.00000E+00         0.00000E+00        -0.25514E+05
 
   -0.11146E+05         0.11875E+05         0.00000E+00
    0.11875E+05        -0.33248E+05         0.00000E+00
    0.00000E+00         0.00000E+00        -0.22674E+05
 
   -0.87931E+04         0.10766E+05         0.00000E+00
    0.10766E+05        -0.31607E+05         0.00000E+00
    0.00000E+00         0.00000E+00        -0.20065E+05
 
   -0.67725E+04         0.96977E+04         0.00000E+00
    0.96977E+04        -0.29870E+05         0.00000E+00
    0.00000E+00         0.00000E+00        -0.17688E+05
 
   -0.50155E+04         0.87620E+04         0.00000E+00
    0.87620E+04        -0.28192E+05         0.00000E+00
    0.00000E+00         0.00000E+00        -0.15537E+05
 
   -0.35112E+04         0.79189E+04         0.00000E+00
    0.79189E+04        -0.26640E+05         0.00000E+00
    0.00000E+00         0.00000E+00        -0.13603E+05
 
   -0.22066E+04         0.71244E+04         0.00000E+00
    0.71244E+04        -0.25200E+05         0.00000E+00
    0.00000E+00         0.00000E+00        -0.11804E+05
 
   -0.10641E+04         0.63871E+04         0.00000E+00
    0.63871E+04        -0.23832E+05         0.00000E+00
    0.00000E+00         0.00000E+00        -0.10128E+05
 
   -0.26000E+02         0.57347E+04         0.00000E+00
    0.57347E+04        -0.22452E+05         0.00000E+00
    0.00000E+00         0.00000E+00        -0.85749E+04
 
    0.91722E+03         0.51302E+04         0.00000E+00
    0.51302E+04        -0.21118E+05         0.00000E+00
    0.00000E+00         0.00000E+00        -0.71372E+04
 
    0.17001E+04         0.46607E+04         0.00000E+00
    0.46607E+04        -0.19885E+05         0.00000E+00
    0.00000E+00         0.00000E+00        -0.58498E+04
 
    0.16256E+04         0.41619E+04         0.00000E+00
    0.41619E+04        -0.18763E+05         0.00000E+00
    0.00000E+00         0.00000E+00        -0.51412E+04
 
   -0.43840E+02         0.36219E+04         0.00000E+00
    0.36219E+04        -0.17765E+05         0.00000E+00
    0.00000E+00         0.00000E+00        -0.53427E+04
 
   -0.17473E+04         0.32798E+04         0.00000E+00
    0.32798E+04        -0.16863E+05         0.00000E+00
    0.00000E+00         0.00000E+00        -0.55830E+04
 
   -0.35104E+04         0.31135E+04         0.00000E+00
    0.31135E+04        -0.16023E+05         0.00000E+00
    0.00000E+00         0.00000E+00        -0.58602E+04
 
   -0.53774E+04         0.31096E+04         0.00000E+00
    0.31096E+04        -0.15209E+05         0.00000E+00
    0.00000E+00         0.00000E+00        -0.61759E+04
 
   -0.53469E+04         0.32349E+04         0.00000E+00
    0.32349E+04         0.36723E+04         0.00000E+00
    0.00000E+00         0.00000E+00         0.23212E+03
 
   -0.27103E+05         0.11085E+05         0.00000E+00
    0.11085E+05        -0.97059E+04         0.00000E+00
    0.00000E+00         0.00000E+00        -0.19807E+05
 
   -0.32124E+05         0.14176E+05         0.00000E+00
    0.14176E+05        -0.17695E+05         0.00000E+00
    0.00000E+00         0.00000E+00        -0.27674E+05
 
   -0.30963E+05         0.15562E+05         0.00000E+00
    0.15562E+05        -0.21987E+05         0.00000E+00
    0.00000E+00         0.00000E+00        -0.29206E+05
 
   -0.28342E+05         0.16162E+05         0.00000E+00
    0.16162E+05        -0.24972E+05         0.00000E+00
    0.00000E+00         0.00000E+00        -0.29112E+05
 
   -0.24962E+05         0.16103E+05         0.00000E+00
    0.16103E+05        -0.26821E+05         0.00000E+00
    0.00000E+00         0.00000E+00        -0.27933E+05
 
   -0.21430E+05         0.15590E+05         0.00000E+00
    0.15590E+05        -0.27861E+05         0.00000E+00
    0.00000E+00         0.00000E+00        -0.26198E+05
 
   -0.18058E+05         0.14789E+05         0.00000E+00
    0.14789E+05        -0.28262E+05         0.00000E+00
    0.00000E+00         0.00000E+00        -0.24178E+05
 
   -0.15009E+05         0.13853E+05         0.00000E+00
    0.13853E+05        -0.28171E+05         0.00000E+00
    0.00000E+00         0.00000E+00        -0.22050E+05
 
   -0.12272E+05         0.12870E+05         0.00000E+00
    0.12870E+05        -0.27744E+05         0.00000E+00
    0.00000E+00         0.00000E+00        -0.19909E+05
 
   -0.98618E+04         0.11908E+05         0.00000E+00
    0.11908E+05        -0.27142E+05         0.00000E+00
    0.00000E+00         0.00000E+00        -0.17841E+05
 
   -0.77535E+04         0.10979E+05         0.00000E+00
    0.10979E+05        -0.26368E+05         0.00000E+00
    0.00000E+00         0.00000E+00        -0.15892E+05
 
   -0.59144E+04         0.10067E+05         0.00000E+00
    0.10067E+05        -0.25391E+05         0.00000E+00
    0.00000E+00         0.00000E+00        -0.14077E+05
 
   -0.43694E+04         0.91818E+04         0.00000E+00
    0.91818E+04        -0.24354E+05         0.00000E+00
    0.00000E+00         0.00000E+00        -0.12417E+05
 
   -0.29850E+04         0.83396E+04         0.00000E+00
    0.83396E+04        -0.23314E+05         0.00000E+00
    0.00000E+00         0.00000E+00        -0.10870E+05
 
   -0.17770E+04         0.76113E+04         0.00000E+00
    0.76113E+04        -0.22205E+05         0.00000E+00
    0.00000E+00         0.00000E+00        -0.94383E+04
 
   -0.69009E+03         0.69418E+04         0.00000E+00
    0.69418E+04        -0.21129E+05         0.00000E+00
    0.00000E+00         0.00000E+00        -0.80770E+04
 
    0.34342E+03         0.63231E+04         0.00000E+00
    0.63231E+04        -0.20069E+05         0.00000E+00
    0.00000E+00         0.00000E+00        -0.67235E+04
 
    0.12771E+04         0.57860E+04         0.00000E+00
    0.57860E+04        -0.18954E+05         0.00000E+00
    0.00000E+00         0.00000E+00        -0.55141E+04
 
    0.91327E+03         0.51595E+04         0.00000E+00
    0.51595E+04        -0.17920E+05         0.00000E+00
    0.00000E+00         0.00000E+00        -0.51021E+04
 
   -0.52612E+03         0.45179E+04         0.00000E+00
    0.45179E+04        -0.17043E+05         0.00000E+00
    0.00000E+00         0.00000E+00        -0.52707E+04
 
   -0.20290E+04         0.41035E+04         0.00000E+00
    0.41035E+04        -0.16239E+05         0.00000E+00
    0.00000E+00         0.00000E+00        -0.54804E+04
 
   -0.36066E+04         0.38952E+04         0.00000E+00
    0.38952E+04        -0.15486E+05         0.00000E+00
    0.00000E+00         0.00000E+00        -0.57277E+04
 
   -0.52900E+04         0.38895E+04         0.00000E+00
    0.38895E+04        -0.14750E+05         0.00000E+00
    0.00000E+00         0.00000E+00        -0.60120E+04
 
    0.33639E+03        -0.11882E+04         0.00000E+00
   -0.11882E+04        -0.16838E+04         0.00000E+00
    0.00000E+00         0.00000E+00        -0.16420E+03
 
   -0.24262E+05         0.58099E+04         0.00000E+00
    0.58099E+04        -0.31118E+04         0.00000E+00
    0.00000E+00         0.00000E+00        -0.10025E+05
 
   -0.28863E+05         0.95685E+04         0.00000E+00
    0.95685E+04        -0.92097E+04         0.00000E+00
    0.00000E+00         0.00000E+00        -0.18316E+05
 
   -0.29153E+05         0.11881E+05         0.00000E+00
    0.11881E+05        -0.13479E+05         0.00000E+00
    0.00000E+00         0.00000E+00        -0.21768E+05
 
   -0.27273E+05         0.13319E+05         0.00000E+00
    0.13319E+05        -0.16587E+05         0.00000E+00
    0.00000E+00         0.00000E+00        -0.22791E+05
 
   -0.24636E+05         0.14068E+05         0.00000E+00
    0.14068E+05        -0.18911E+05         0.00000E+00
    0.00000E+00         0.00000E+00        -0.22591E+05
 
   -0.21632E+05         0.14282E+05         0.00000E+00
    0.14282E+05        -0.20587E+05         0.00000E+00
    0.00000E+00         0.00000E+00        -0.21711E+05
 
   -0.18606E+05         0.14091E+05         0.00000E+00
    0.14091E+05        -0.21700E+05         0.00000E+00
    0.00000E+00         0.00000E+00        -0.20427E+05
 
   -0.15747E+05         0.13634E+05         0.00000E+00
    0.13634E+05        -0.22353E+05         0.00000E+00
    0.00000E+00         0.00000E+00        -0.18938E+05
 
   -0.13116E+05         0.13006E+05         0.00000E+00
    0.13006E+05        -0.22633E+05         0.00000E+00
    0.00000E+00         0.00000E+00        -0.17346E+05
 
   -0.10738E+05         0.12268E+05         0.00000E+00
    0.12268E+05        -0.22615E+05         0.00000E+00
    0.00000E+00         0.00000E+00        -0.15732E+05
 
   -0.86043E+04         0.11540E+05         0.00000E+00
    0.11540E+05        -0.22382E+05         0.00000E+00
    0.00000E+00         0.00000E+00        -0.14132E+05
 
   -0.67729E+04         0.10766E+05         0.00000E+00
    0.10766E+05        -0.22038E+05         0.00000E+00
    0.00000E+00         0.00000E+00        -0.12647E+05
 
   -0.51816E+04         0.99913E+04         0.00000E+00
    0.99913E+04        -0.21522E+05         0.00000E+00
    0.00000E+00         0.00000E+00        -0.11256E+05
 
   -0.37702E+04         0.92553E+04         0.00000E+00
    0.92553E+04        -0.20804E+05         0.00000E+00
    0.00000E+00         0.00000E+00        -0.99528E+04
 
   -0.24763E+04         0.85359E+04         0.00000E+00
    0.85359E+04        -0.20024E+05         0.00000E+00
    0.00000E+00         0.00000E+00        -0.86863E+04
 
   -0.13432E+04         0.78591E+04         0.00000E+00
    0.78591E+04        -0.19230E+05         0.00000E+00
    0.00000E+00         0.00000E+00        -0.74664E+04
 
   -0.22848E+03         0.72841E+04         0.00000E+00
    0.72841E+04        -0.18419E+05         0.00000E+00
    0.00000E+00         0.00000E+00        -0.62236E+04
 
    0.76161E+03         0.67704E+04         0.00000E+00
    0.67704E+04        -0.17586E+05         0.00000E+00
    0.00000E+00         0.00000E+00        -0.51440E+04
 
    0.94004E+02         0.59908E+04         0.00000E+00
    0.59908E+04        -0.16813E+05         0.00000E+00
    0.00000E+00         0.00000E+00        -0.50157E+04
 
   -0.10801E+04         0.52840E+04         0.00000E+00
    0.52840E+04        -0.16111E+05         0.00000E+00
    0.00000E+00         0.00000E+00        -0.51572E+04
 
   -0.23610E+04         0.48173E+04         0.00000E+00
    0.48173E+04        -0.15450E+05         0.00000E+00
    0.00000E+00         0.00000E+00        -0.53432E+04
 
   -0.37207E+04         0.45829E+04         0.00000E+00
    0.45829E+04        -0.14812E+05         0.00000E+00
    0.00000E+00         0.00000E+00        -0.55597E+04
 
   -0.51809E+04         0.45806E+04         0.00000E+00
    0.45806E+04        -0.14178E+05         0.00000E+00
    0.00000E+00         0.00000E+00        -0.58075E+04
 
    0.94886E+03        -0.17039E+04         0.00000E+00
   -0.17039E+04         0.49000E+02         0.00000E+00
    0.00000E+00         0.00000E+00         0.35061E+03
 
   -0.18633E+05         0.80513E+03         0.00000E+00
    0.80513E+03        -0.13738E+04         0.00000E+00
    0.00000E+00         0.00000E+00        -0.60021E+04
 
   -0.26652E+05         0.61350E+04         0.00000E+00
    0.61350E+04        -0.49879E+04         0.00000E+00
    0.00000E+00         0.00000E+00        -0.12163E+05
 
   -0.26866E+05         0.88909E+04         0.00000E+00
    0.88909E+04        -0.83077E+04         0.00000E+00
    0.00000E+00         0.00000E+00        -0.15722E+05
 
   -0.25819E+05         0.10756E+05         0.00000E+00
    0.10756E+05        -0.11200E+05         0.00000E+00
    0.00000E+00         0.00000E+00        -0.17432E+05
 
   -0.23743E+05         0.12012E+05         0.00000E+00
    0.12012E+05        -0.13532E+05         0.00000E+00
    0.00000E+00         0.00000E+00        -0.17925E+05
 
   -0.21274E+05         0.12691E+05         0.00000E+00
    0.12691E+05        -0.15312E+05         0.00000E+00
    0.00000E+00         0.00000E+00        -0.17677E+05
 
   -0.18639E+05         0.12948E+05         0.00000E+00
    0.12948E+05        -0.16671E+05         0.00000E+00
    0.00000E+00         0.00000E+00        -0.16960E+05
 
   -0.16062E+05         0.12881E+05         0.00000E+00
    0.12881E+05        -0.17656E+05         0.00000E+00
    0.00000E+00         0.00000E+00        -0.15976E+05
 
   -0.13629E+05         0.12588E+05         0.00000E+00
    0.12588E+05        -0.18329E+05         0.00000E+00
    0.00000E+00         0.00000E+00        -0.14829E+05
 
   -0.11342E+05         0.12166E+05         0.00000E+00
    0.12166E+05        -0.18723E+05         0.00000E+00
    0.00000E+00         0.00000E+00        -0.13573E+05
 
   -0.92757E+04         0.11624E+05         0.00000E+00
    0.11624E+05        -0.18892E+05         0.00000E+00
    0.00000E+00         0.00000E+00        -0.12303E+05
 
   -0.74748E+04         0.11037E+05         0.00000E+00
    0.11037E+05        -0.18828E+05         0.00000E+00
    0.00000E+00         0.00000E+00        -0.11097E+05
 
   -0.58745E+04         0.10419E+05         0.00000E+00
    0.10419E+05        -0.18585E+05         0.00000E+00
    0.00000E+00         0.00000E+00        -0.99498E+04
 
   -0.44468E+04         0.97933E+04         0.00000E+00
    0.97933E+04        -0.18255E+05         0.00000E+00
    0.00000E+00         0.00000E+00        -0.88637E+04
 
   -0.31403E+04         0.91719E+04         0.00000E+00
    0.91719E+04        -0.17824E+05         0.00000E+00
    0.00000E+00         0.00000E+00        -0.77694E+04
 
   -0.19320E+04         0.85745E+04         0.00000E+00
    0.85745E+04        -0.17271E+05         0.00000E+00
    0.00000E+00         0.00000E+00        -0.66786E+04
 
   -0.77438E+03         0.80332E+04         0.00000E+00
    0.80332E+04        -0.16616E+05         0.00000E+00
    0.00000E+00         0.00000E+00        -0.56677E+04
 
    0.49807E+02         0.74566E+04         0.00000E+00
    0.74566E+04        -0.15971E+05         0.00000E+00
    0.00000E+00         0.00000E+00        -0.48140E+04
 
   -0.71328E+03         0.65799E+04         0.00000E+00
    0.65799E+04        -0.15497E+05         0.00000E+00
    0.00000E+00         0.00000E+00        -0.48631E+04
 
   -0.16787E+04         0.58665E+04         0.00000E+00
    0.58665E+04        -0.15029E+05         0.00000E+00
    0.00000E+00         0.00000E+00        -0.50124E+04
 
   -0.27151E+04         0.53907E+04         0.00000E+00
    0.53907E+04        -0.14538E+05         0.00000E+00
    0.00000E+00         0.00000E+00        -0.51760E+04
 
   -0.38388E+04         0.51553E+04         0.00000E+00
    0.51553E+04        -0.14034E+05         0.00000E+00
    0.00000E+00         0.00000E+00        -0.53619E+04
 
   -0.50506E+04         0.51650E+04         0.00000E+00
    0.51650E+04        -0.13515E+05         0.00000E+00
    0.00000E+00         0.00000E+00        -0.55698E+04
 
   -0.85879E+03        -0.17690E+04         0.00000E+00
   -0.17690E+04        -0.28083E+02         0.00000E+00
    0.00000E+00         0.00000E+00        -0.26606E+03
 
   -0.14035E+05        -0.11455E+04         0.00000E+00
   -0.11455E+04        -0.32864E+03         0.00000E+00
    0.00000E+00         0.00000E+00        -0.43091E+04
 
   -0.23208E+05         0.29835E+04         0.00000E+00
    0.29835E+04        -0.14805E+04         0.00000E+00
    0.00000E+00         0.00000E+00        -0.76369E+04
 
   -0.24778E+05         0.62787E+04         0.00000E+00
    0.62787E+04        -0.46971E+04         0.00000E+00
    0.00000E+00         0.00000E+00        -0.11370E+05
 
   -0.24089E+05         0.84507E+04         0.00000E+00
    0.84507E+04        -0.71061E+04         0.00000E+00
    0.00000E+00         0.00000E+00        -0.13210E+05
 
   -0.22523E+05         0.10024E+05         0.00000E+00
    0.10024E+05        -0.92865E+04         0.00000E+00
    0.00000E+00         0.00000E+00        -0.13934E+05
 
   -0.20561E+05         0.11079E+05         0.00000E+00
    0.11079E+05        -0.11179E+05         0.00000E+00
    0.00000E+00         0.00000E+00        -0.14109E+05
 
   -0.18317E+05         0.11676E+05         0.00000E+00
    0.11676E+05        -0.12665E+05         0.00000E+00
    0.00000E+00         0.00000E+00        -0.13789E+05
 
   -0.16049E+05         0.11923E+05         0.00000E+00
    0.11923E+05        -0.13809E+05         0.00000E+00
    0.00000E+00         0.00000E+00        -0.13195E+05
 
   -0.13819E+05         0.11917E+05         0.00000E+00
    0.11917E+05        -0.14651E+05         0.00000E+00
    0.00000E+00         0.00000E+00        -0.12395E+05
 
   -0.11692E+05         0.11738E+05         0.00000E+00
    0.11738E+05        -0.15235E+05         0.00000E+00
    0.00000E+00         0.00000E+00        -0.11466E+05
 
   -0.97379E+04         0.11432E+05         0.00000E+00
    0.11432E+05        -0.15589E+05         0.00000E+00
    0.00000E+00         0.00000E+00        -0.10482E+05
 
   -0.79966E+04         0.11021E+05         0.00000E+00
    0.11021E+05        -0.15783E+05         0.00000E+00
    0.00000E+00         0.00000E+00        -0.95297E+04
 
   -0.64293E+04         0.10558E+05         0.00000E+00
    0.10558E+05        -0.15833E+05         0.00000E+00
    0.00000E+00         0.00000E+00        -0.86046E+04
 
   -0.50032E+04         0.10065E+05         0.00000E+00
    0.10065E+05        -0.15714E+05         0.00000E+00
    0.00000E+00         0.00000E+00        -0.76959E+04
 
   -0.37032E+04         0.95621E+04         0.00000E+00
    0.95621E+04        -0.15459E+05         0.00000E+00
    0.00000E+00         0.00000E+00        -0.68247E+04
 
   -0.24583E+04         0.90654E+04         0.00000E+00
    0.90654E+04        -0.15114E+05         0.00000E+00
    0.00000E+00         0.00000E+00        -0.59392E+04
 
   -0.12849E+04         0.85754E+04         0.00000E+00
    0.85754E+04        -0.14687E+05         0.00000E+00
    0.00000E+00         0.00000E+00        -0.50593E+04
 
   -0.83313E+03         0.78527E+04         0.00000E+00
    0.78527E+04        -0.14352E+05         0.00000E+00
    0.00000E+00         0.00000E+00        -0.45556E+04
 
   -0.15300E+04         0.69179E+04         0.00000E+00
    0.69179E+04        -0.14162E+05         0.00000E+00
    0.00000E+00         0.00000E+00        -0.47076E+04
 
   -0.22529E+04         0.62514E+04         0.00000E+00
    0.62514E+04        -0.13896E+05         0.00000E+00
    0.00000E+00         0.00000E+00        -0.48446E+04
 
   -0.30572E+04         0.58140E+04         0.00000E+00
    0.58140E+04        -0.13569E+05         0.00000E+00
    0.00000E+00         0.00000E+00        -0.49877E+04
 
   -0.39429E+04         0.56042E+04         0.00000E+00
    0.56042E+04        -0.13197E+05         0.00000E+00
    0.00000E+00         0.00000E+00        -0.51419E+04
 
   -0.49005E+04         0.56343E+04         0.00000E+00
    0.56343E+04        -0.12796E+05         0.00000E+00
    0.00000E+00         0.00000E+00        -0.53089E+04
 
   -0.28933E+04        -0.15202E+04         0.00000E+00
   -0.15202E+04         0.15846E+03         0.00000E+00
    0.00000E+00         0.00000E+00        -0.82044E+03
 
   -0.11935E+05        -0.16427E+04         0.00000E+00
   -0.16427E+04         0.28788E+03         0.00000E+00
    0.00000E+00         0.00000E+00        -0.34942E+04
 
   -0.19235E+05         0.78366E+03         0.00000E+00
    0.78366E+03        -0.66784E+03         0.00000E+00
    0.00000E+00         0.00000E+00        -0.59710E+04
 
   -0.22452E+05         0.41344E+04         0.00000E+00
    0.41344E+04        -0.20292E+04         0.00000E+00
    0.00000E+00         0.00000E+00        -0.80266E+04
 
   -0.22272E+05         0.65008E+04         0.00000E+00
    0.65008E+04        -0.41139E+04         0.00000E+00
    0.00000E+00         0.00000E+00        -0.99064E+04
 
   -0.21132E+05         0.82004E+04         0.00000E+00
    0.82004E+04        -0.59006E+04         0.00000E+00
    0.00000E+00         0.00000E+00        -0.10847E+05
 
   -0.19582E+05         0.94568E+04         0.00000E+00
    0.94568E+04        -0.75618E+04         0.00000E+00
    0.00000E+00         0.00000E+00        -0.11158E+05
 
   -0.17718E+05         0.10347E+05         0.00000E+00
    0.10347E+05        -0.90534E+04         0.00000E+00
    0.00000E+00         0.00000E+00        -0.11095E+05
 
   -0.15778E+05         0.10864E+05         0.00000E+00
    0.10864E+05        -0.10293E+05         0.00000E+00
    0.00000E+00         0.00000E+00        -0.10763E+05
 
   -0.13763E+05         0.11108E+05         0.00000E+00
    0.11108E+05        -0.11265E+05         0.00000E+00
    0.00000E+00         0.00000E+00        -0.10221E+05
 
   -0.11810E+05         0.11158E+05         0.00000E+00
    0.11158E+05        -0.12011E+05         0.00000E+00
    0.00000E+00         0.00000E+00        -0.95412E+04
 
   -0.99983E+04         0.11044E+05         0.00000E+00
    0.11044E+05        -0.12561E+05         0.00000E+00
    0.00000E+00         0.00000E+00        -0.88017E+04
 
   -0.83532E+04         0.10809E+05         0.00000E+00
    0.10809E+05        -0.12920E+05         0.00000E+00
    0.00000E+00         0.00000E+00        -0.80669E+04
 
   -0.68353E+04         0.10502E+05         0.00000E+00
    0.10502E+05        -0.13103E+05         0.00000E+00
    0.00000E+00         0.00000E+00        -0.73334E+04
 
   -0.54348E+04         0.10142E+05         0.00000E+00
    0.10142E+05        -0.13176E+05         0.00000E+00
    0.00000E+00         0.00000E+00        -0.65981E+04
 
   -0.41538E+04         0.97446E+04         0.00000E+00
    0.97446E+04        -0.13151E+05         0.00000E+00
    0.00000E+00         0.00000E+00        -0.58851E+04
 
   -0.29116E+04         0.93335E+04         0.00000E+00
    0.93335E+04        -0.12983E+05         0.00000E+00
    0.00000E+00         0.00000E+00        -0.51328E+04
 
   -0.18341E+04         0.88775E+04         0.00000E+00
    0.88775E+04        -0.12817E+05         0.00000E+00
    0.00000E+00         0.00000E+00        -0.44384E+04
 
   -0.18899E+04         0.78617E+04         0.00000E+00
    0.78617E+04        -0.12913E+05         0.00000E+00
    0.00000E+00         0.00000E+00        -0.44409E+04
 
   -0.22673E+04         0.70549E+04         0.00000E+00
    0.70549E+04        -0.12911E+05         0.00000E+00
    0.00000E+00         0.00000E+00        -0.45536E+04
 
   -0.27675E+04         0.64762E+04         0.00000E+00
    0.64762E+04        -0.12796E+05         0.00000E+00
    0.00000E+00         0.00000E+00        -0.46691E+04
 
   -0.33558E+04         0.61020E+04         0.00000E+00
    0.61020E+04        -0.12599E+05         0.00000E+00
    0.00000E+00         0.00000E+00        -0.47864E+04
 
   -0.40186E+04         0.59351E+04         0.00000E+00
    0.59351E+04        -0.12344E+05         0.00000E+00
    0.00000E+00         0.00000E+00        -0.49087E+04
 
   -0.47333E+04         0.59900E+04         0.00000E+00
    0.59900E+04        -0.12053E+05         0.00000E+00
    0.00000E+00         0.00000E+00        -0.50359E+04
 
   -0.47269E+04        -0.11862E+04         0.00000E+00
   -0.11862E+04         0.14245E+03         0.00000E+00
    0.00000E+00         0.00000E+00        -0.13753E+04
 
   -0.11047E+05        -0.16568E+04         0.00000E+00
   -0.16568E+04         0.43173E+03         0.00000E+00
    0.00000E+00         0.00000E+00        -0.31847E+04
 
   -0.16292E+05        -0.95858E+02         0.00000E+00
   -0.95858E+02         0.34137E+03         0.00000E+00
    0.00000E+00         0.00000E+00        -0.47852E+04
 
   -0.19717E+05         0.24489E+04         0.00000E+00
    0.24489E+04        -0.40740E+03         0.00000E+00
    0.00000E+00         0.00000E+00        -0.60373E+04
 
   -0.20417E+05         0.48762E+04         0.00000E+00
    0.48762E+04        -0.18355E+04         0.00000E+00
    0.00000E+00         0.00000E+00        -0.72832E+04
 
   -0.19683E+05         0.66865E+04         0.00000E+00
    0.66865E+04        -0.34016E+04         0.00000E+00
    0.00000E+00         0.00000E+00        -0.82663E+04
 
   -0.18455E+05         0.80361E+04         0.00000E+00
    0.80361E+04        -0.47981E+04         0.00000E+00
    0.00000E+00         0.00000E+00        -0.87344E+04
 
   -0.16919E+05         0.90457E+04         0.00000E+00
    0.90457E+04        -0.60913E+04         0.00000E+00
    0.00000E+00         0.00000E+00        -0.88335E+04
 
   -0.15274E+05         0.97703E+04         0.00000E+00
    0.97703E+04        -0.72626E+04         0.00000E+00
    0.00000E+00         0.00000E+00        -0.86739E+04
 
   -0.13502E+05         0.10223E+05         0.00000E+00
    0.10223E+05        -0.82791E+04         0.00000E+00
    0.00000E+00         0.00000E+00        -0.83371E+04
 
   -0.11742E+05         0.10460E+05         0.00000E+00
    0.10460E+05        -0.90917E+04         0.00000E+00
    0.00000E+00         0.00000E+00        -0.78551E+04
 
   -0.10087E+05         0.10516E+05         0.00000E+00
    0.10516E+05        -0.97327E+04         0.00000E+00
    0.00000E+00         0.00000E+00        -0.73021E+04
 
   -0.85416E+04         0.10444E+05         0.00000E+00
    0.10444E+05        -0.10234E+05         0.00000E+00
    0.00000E+00         0.00000E+00        -0.67062E+04
 
   -0.70980E+04         0.10280E+05         0.00000E+00
    0.10280E+05        -0.10625E+05         0.00000E+00
    0.00000E+00         0.00000E+00        -0.61321E+04
 
   -0.57467E+04         0.10048E+05         0.00000E+00
    0.10048E+05        -0.10834E+05         0.00000E+00
    0.00000E+00         0.00000E+00        -0.55334E+04
 
   -0.45157E+04         0.97447E+04         0.00000E+00
    0.97447E+04        -0.10909E+05         0.00000E+00
    0.00000E+00         0.00000E+00        -0.49475E+04
 
   -0.32800E+04         0.94363E+04         0.00000E+00
    0.94363E+04        -0.11002E+05         0.00000E+00
    0.00000E+00         0.00000E+00        -0.43277E+04
 
   -0.28000E+04         0.85713E+04         0.00000E+00
    0.85713E+04        -0.11370E+05         0.00000E+00
    0.00000E+00         0.00000E+00        -0.42511E+04
 
   -0.27299E+04         0.77261E+04         0.00000E+00
    0.77261E+04        -0.11674E+05         0.00000E+00
    0.00000E+00         0.00000E+00        -0.43211E+04
 
   -0.28983E+04         0.70649E+04         0.00000E+00
    0.70649E+04        -0.11780E+05         0.00000E+00
    0.00000E+00         0.00000E+00        -0.44034E+04
 
   -0.32011E+04         0.65839E+04         0.00000E+00
    0.65839E+04        -0.11765E+05         0.00000E+00
    0.00000E+00         0.00000E+00        -0.44897E+04
 
   -0.35979E+04         0.62810E+04         0.00000E+00
    0.62810E+04        -0.11665E+05         0.00000E+00
    0.00000E+00         0.00000E+00        -0.45790E+04
 
   -0.40587E+04         0.61621E+04         0.00000E+00
    0.61621E+04        -0.11507E+05         0.00000E+00
    0.00000E+00         0.00000E+00        -0.46697E+04
 
   -0.45530E+04         0.62414E+04         0.00000E+00
    0.62414E+04        -0.11313E+05         0.00000E+00
    0.00000E+00         0.00000E+00        -0.47597E+04
 
   -0.62296E+04        -0.87760E+03         0.00000E+00
   -0.87760E+03         0.12298E+03         0.00000E+00
    0.00000E+00         0.00000E+00        -0.18320E+04
 
   -0.10573E+05        -0.13323E+04         0.00000E+00
   -0.13323E+04         0.49511E+03         0.00000E+00
    0.00000E+00         0.00000E+00        -0.30234E+04
 
   -0.14492E+05        -0.34043E+03         0.00000E+00
   -0.34043E+03         0.66362E+03         0.00000E+00
    0.00000E+00         0.00000E+00        -0.41485E+04
 
   -0.17174E+05         0.15172E+04         0.00000E+00
    0.15172E+04         0.31660E+03         0.00000E+00
    0.00000E+00         0.00000E+00        -0.50574E+04
 
   -0.18455E+05         0.36122E+04         0.00000E+00
    0.36122E+04        -0.27224E+03         0.00000E+00
    0.00000E+00         0.00000E+00        -0.56182E+04
 
   -0.18199E+05         0.53906E+04         0.00000E+00
    0.53906E+04        -0.13932E+04         0.00000E+00
    0.00000E+00         0.00000E+00        -0.62368E+04
 
   -0.17279E+05         0.68192E+04         0.00000E+00
    0.68192E+04        -0.26544E+04         0.00000E+00
    0.00000E+00         0.00000E+00        -0.67050E+04
 
   -0.16024E+05         0.79157E+04         0.00000E+00
    0.79157E+04        -0.37929E+04         0.00000E+00
    0.00000E+00         0.00000E+00        -0.68947E+04
 
   -0.14609E+05         0.87133E+04         0.00000E+00
    0.87133E+04        -0.48589E+04         0.00000E+00
    0.00000E+00         0.00000E+00        -0.68866E+04
 
   -0.13078E+05         0.93270E+04         0.00000E+00
    0.93270E+04        -0.57892E+04         0.00000E+00
    0.00000E+00         0.00000E+00        -0.66458E+04
 
   -0.11514E+05         0.97069E+04         0.00000E+00
    0.97069E+04        -0.66270E+04         0.00000E+00
    0.00000E+00         0.00000E+00        -0.63117E+04
 
   -0.10016E+05         0.99219E+04         0.00000E+00
    0.99219E+04        -0.73432E+04         0.00000E+00
    0.00000E+00         0.00000E+00        -0.59045E+04
 
   -0.85960E+04         0.99736E+04         0.00000E+00
    0.99736E+04        -0.78915E+04         0.00000E+00
    0.00000E+00         0.00000E+00        -0.54619E+04
 
   -0.72245E+04         0.99317E+04         0.00000E+00
    0.99317E+04        -0.82713E+04         0.00000E+00
    0.00000E+00         0.00000E+00        -0.49872E+04
 
   -0.59829E+04         0.98139E+04         0.00000E+00
    0.98139E+04        -0.86439E+04         0.00000E+00
    0.00000E+00         0.00000E+00        -0.45277E+04
 
   -0.48085E+04         0.95438E+04         0.00000E+00
    0.95438E+04        -0.90728E+04         0.00000E+00
    0.00000E+00         0.00000E+00        -0.41644E+04
 
   -0.40217E+04         0.88593E+04         0.00000E+00
    0.88593E+04        -0.97152E+04         0.00000E+00
    0.00000E+00         0.00000E+00        -0.41211E+04
 
   -0.35873E+04         0.81566E+04         0.00000E+00
    0.81566E+04        -0.10263E+05         0.00000E+00
    0.00000E+00         0.00000E+00        -0.41552E+04
 
   -0.34007E+04         0.75135E+04         0.00000E+00
    0.75135E+04        -0.10584E+05         0.00000E+00
    0.00000E+00         0.00000E+00        -0.41955E+04
 
   -0.34103E+04         0.69899E+04         0.00000E+00
    0.69899E+04        -0.10752E+05         0.00000E+00
    0.00000E+00         0.00000E+00        -0.42488E+04
 
   -0.35516E+04         0.66068E+04         0.00000E+00
    0.66068E+04        -0.10809E+05         0.00000E+00
    0.00000E+00         0.00000E+00        -0.43081E+04
 
   -0.37808E+04         0.63737E+04         0.00000E+00
    0.63737E+04        -0.10785E+05         0.00000E+00
    0.00000E+00         0.00000E+00        -0.43696E+04
 
   -0.40633E+04         0.63009E+04         0.00000E+00
    0.63009E+04        -0.10705E+05         0.00000E+00
    0.00000E+00         0.00000E+00        -0.44304E+04
 
   -0.43639E+04         0.64011E+04         0.00000E+00
    0.64011E+04        -0.10593E+05         0.00000E+00
    0.00000E+00         0.00000E+00        -0.44872E+04
 
   -0.73281E+04        -0.60329E+03         0.00000E+00
   -0.60329E+03         0.10361E+03         0.00000E+00
    0.00000E+00         0.00000E+00        -0.21674E+04
 
   -0.10325E+05        -0.94944E+03         0.00000E+00
   -0.94944E+03         0.43993E+03         0.00000E+00
    0.00000E+00         0.00000E+00        -0.29656E+04
 
   -0.13209E+05        -0.26268E+03         0.00000E+00
   -0.26268E+03         0.72374E+03         0.00000E+00
    0.00000E+00         0.00000E+00        -0.37454E+04
 
   -0.15356E+05         0.11436E+04         0.00000E+00
    0.11436E+04         0.69969E+03         0.00000E+00
    0.00000E+00         0.00000E+00        -0.43968E+04
 
   -0.16508E+05         0.28279E+04         0.00000E+00
    0.28279E+04         0.26371E+03         0.00000E+00
    0.00000E+00         0.00000E+00        -0.48734E+04
 
   -0.16675E+05         0.44510E+04         0.00000E+00
    0.44510E+04        -0.25740E+03         0.00000E+00
    0.00000E+00         0.00000E+00        -0.50797E+04
 
   -0.16101E+05         0.58299E+04         0.00000E+00
    0.58299E+04        -0.93854E+03         0.00000E+00
    0.00000E+00         0.00000E+00        -0.51867E+04
 
   -0.15094E+05         0.69051E+04         0.00000E+00
    0.69051E+04        -0.19088E+04         0.00000E+00
    0.00000E+00         0.00000E+00        -0.53480E+04
 
   -0.13870E+05         0.78024E+04         0.00000E+00
    0.78024E+04        -0.28345E+04         0.00000E+00
    0.00000E+00         0.00000E+00        -0.53552E+04
 
   -0.12534E+05         0.84782E+04         0.00000E+00
    0.84782E+04        -0.37027E+04         0.00000E+00
    0.00000E+00         0.00000E+00        -0.52132E+04
 
   -0.11162E+05         0.89547E+04         0.00000E+00
    0.89547E+04        -0.44695E+04         0.00000E+00
    0.00000E+00         0.00000E+00        -0.49794E+04
 
   -0.98216E+04         0.92662E+04         0.00000E+00
    0.92662E+04        -0.51508E+04         0.00000E+00
    0.00000E+00         0.00000E+00        -0.46734E+04
 
   -0.85344E+04         0.94674E+04         0.00000E+00
    0.94674E+04        -0.57953E+04         0.00000E+00
    0.00000E+00         0.00000E+00        -0.43468E+04
 
   -0.73175E+04         0.94252E+04         0.00000E+00
    0.94252E+04        -0.65246E+04         0.00000E+00
    0.00000E+00         0.00000E+00        -0.41537E+04
 
   -0.62163E+04         0.91762E+04         0.00000E+00
    0.91762E+04        -0.73106E+04         0.00000E+00
    0.00000E+00         0.00000E+00        -0.40581E+04
 
   -0.53287E+04         0.87700E+04         0.00000E+00
    0.87700E+04        -0.81417E+04         0.00000E+00
    0.00000E+00         0.00000E+00        -0.40411E+04
 
   -0.46466E+04         0.82748E+04         0.00000E+00
    0.82748E+04        -0.88033E+04         0.00000E+00
    0.00000E+00         0.00000E+00        -0.40350E+04
 
   -0.41769E+04         0.77446E+04         0.00000E+00
    0.77446E+04        -0.92796E+04         0.00000E+00
    0.00000E+00         0.00000E+00        -0.40369E+04
 
   -0.39173E+04         0.72612E+04         0.00000E+00
    0.72612E+04        -0.96135E+04         0.00000E+00
    0.00000E+00         0.00000E+00        -0.40592E+04
 
   -0.38119E+04         0.68594E+04         0.00000E+00
    0.68594E+04        -0.98191E+04         0.00000E+00
    0.00000E+00         0.00000E+00        -0.40893E+04
 
   -0.38220E+04         0.65663E+04         0.00000E+00
    0.65663E+04        -0.99264E+04         0.00000E+00
    0.00000E+00         0.00000E+00        -0.41245E+04
 
   -0.39085E+04         0.63977E+04         0.00000E+00
    0.63977E+04        -0.99609E+04         0.00000E+00
    0.00000E+00         0.00000E+00        -0.41608E+04
 
   -0.40364E+04         0.63660E+04         0.00000E+00
    0.63660E+04        -0.99458E+04         0.00000E+00
    0.00000E+00         0.00000E+00        -0.41947E+04
 
   -0.41703E+04         0.64827E+04         0.00000E+00
    0.64827E+04        -0.99042E+04         0.00000E+00
    0.00000E+00         0.00000E+00        -0.42224E+04
 
   -0.80647E+04        -0.38413E+03         0.00000E+00
   -0.38413E+03         0.79132E+02         0.00000E+00
    0.00000E+00         0.00000E+00        -0.23957E+04
 
   -0.10146E+05        -0.58713E+03         0.00000E+00
   -0.58713E+03         0.35939E+03         0.00000E+00
    0.00000E+00         0.00000E+00        -0.29361E+04
 
   -0.12251E+05        -0.60532E+02         0.00000E+00
   -0.60532E+02         0.64815E+03         0.00000E+00
    0.00000E+00         0.00000E+00        -0.34808E+04
 
   -0.13935E+05         0.10248E+04         0.00000E+00
    0.10248E+04         0.73677E+03         0.00000E+00
    0.00000E+00         0.00000E+00        -0.39595E+04
 
   -0.14937E+05         0.24159E+04         0.00000E+00
    0.24159E+04         0.55900E+03         0.00000E+00
    0.00000E+00         0.00000E+00        -0.43133E+04
 
   -0.15207E+05         0.38420E+04         0.00000E+00
    0.38420E+04         0.10876E+03         0.00000E+00
    0.00000E+00         0.00000E+00        -0.45293E+04
 
   -0.14893E+05         0.50911E+04         0.00000E+00
    0.50911E+04        -0.49709E+03         0.00000E+00
    0.00000E+00         0.00000E+00        -0.46170E+04
 
   -0.14127E+05         0.61596E+04         0.00000E+00
    0.61596E+04        -0.10431E+04         0.00000E+00
    0.00000E+00         0.00000E+00        -0.45511E+04
 
   -0.13103E+05         0.70370E+04         0.00000E+00
    0.70370E+04        -0.16792E+04         0.00000E+00
    0.00000E+00         0.00000E+00        -0.44346E+04
 
   -0.11960E+05         0.77096E+04         0.00000E+00
    0.77096E+04        -0.24165E+04         0.00000E+00
    0.00000E+00         0.00000E+00        -0.43131E+04
 
   -0.10772E+05         0.82009E+04         0.00000E+00
    0.82009E+04        -0.32268E+04         0.00000E+00
    0.00000E+00         0.00000E+00        -0.41996E+04
 
   -0.95799E+04         0.85001E+04         0.00000E+00
    0.85001E+04        -0.40904E+04         0.00000E+00
    0.00000E+00         0.00000E+00        -0.41011E+04
 
   -0.84849E+04         0.86037E+04         0.00000E+00
    0.86037E+04        -0.50147E+04         0.00000E+00
    0.00000E+00         0.00000E+00        -0.40499E+04
 
   -0.74644E+04         0.85728E+04         0.00000E+00
    0.85728E+04        -0.58906E+04         0.00000E+00
    0.00000E+00         0.00000E+00        -0.40065E+04
 
   -0.65193E+04         0.83886E+04         0.00000E+00
    0.83886E+04        -0.66870E+04         0.00000E+00
    0.00000E+00         0.00000E+00        -0.39619E+04
 
   -0.57193E+04         0.80869E+04         0.00000E+00
    0.80869E+04        -0.73717E+04         0.00000E+00
    0.00000E+00         0.00000E+00        -0.39273E+04
 
   -0.50903E+04         0.77297E+04         0.00000E+00
    0.77297E+04        -0.79507E+04         0.00000E+00
    0.00000E+00         0.00000E+00        -0.39123E+04
 
   -0.46212E+04         0.73483E+04         0.00000E+00
    0.73483E+04        -0.84074E+04         0.00000E+00
    0.00000E+00         0.00000E+00        -0.39086E+04
 
   -0.43047E+04         0.69894E+04         0.00000E+00
    0.69894E+04        -0.87397E+04         0.00000E+00
    0.00000E+00         0.00000E+00        -0.39133E+04
 
   -0.41155E+04         0.66910E+04         0.00000E+00
    0.66910E+04        -0.89688E+04         0.00000E+00
    0.00000E+00         0.00000E+00        -0.39253E+04
 
   -0.40200E+04         0.64773E+04         0.00000E+00
    0.64773E+04        -0.91134E+04         0.00000E+00
    0.00000E+00         0.00000E+00        -0.39400E+04
 
   -0.39865E+04         0.63658E+04         0.00000E+00
    0.63658E+04        -0.91946E+04         0.00000E+00
    0.00000E+00         0.00000E+00        -0.39543E+04
 
   -0.39828E+04         0.63695E+04         0.00000E+00
    0.63695E+04        -0.92330E+04         0.00000E+00
    0.00000E+00         0.00000E+00        -0.39647E+04
 
   -0.39755E+04         0.64985E+04         0.00000E+00
    0.64985E+04        -0.92498E+04         0.00000E+00
    0.00000E+00         0.00000E+00        -0.39676E+04
 
   -0.85028E+04        -0.21785E+03         0.00000E+00
   -0.21785E+03         0.58385E+02         0.00000E+00
    0.00000E+00         0.00000E+00        -0.25333E+04
 
   -0.99670E+04        -0.28460E+03         0.00000E+00
   -0.28460E+03         0.27468E+03         0.00000E+00
    0.00000E+00         0.00000E+00        -0.29077E+04
 
   -0.11504E+05         0.15677E+03         0.00000E+00
    0.15677E+03         0.51984E+03         0.00000E+00
    0.00000E+00         0.00000E+00        -0.32954E+04
 
   -0.12792E+05         0.10248E+04         0.00000E+00
    0.10248E+04         0.63897E+03         0.00000E+00
    0.00000E+00         0.00000E+00        -0.36459E+04
 
   -0.13625E+05         0.21560E+04         0.00000E+00
    0.21560E+04         0.54336E+03         0.00000E+00
    0.00000E+00         0.00000E+00        -0.39245E+04
 
   -0.13935E+05         0.33665E+04         0.00000E+00
    0.33665E+04         0.22791E+03         0.00000E+00
    0.00000E+00         0.00000E+00        -0.41122E+04
 
   -0.13756E+05         0.45189E+04         0.00000E+00
    0.45189E+04        -0.25085E+03         0.00000E+00
    0.00000E+00         0.00000E+00        -0.42022E+04
 
   -0.13190E+05         0.55226E+04         0.00000E+00
    0.55226E+04        -0.85678E+03         0.00000E+00
    0.00000E+00         0.00000E+00        -0.42139E+04
 
   -0.12364E+05         0.63284E+04         0.00000E+00
    0.63284E+04        -0.15334E+04         0.00000E+00
    0.00000E+00         0.00000E+00        -0.41693E+04
 
   -0.11408E+05         0.69439E+04         0.00000E+00
    0.69439E+04        -0.22614E+04         0.00000E+00
    0.00000E+00         0.00000E+00        -0.41009E+04
 
   -0.10397E+05         0.73850E+04         0.00000E+00
    0.73850E+04        -0.30292E+04         0.00000E+00
    0.00000E+00         0.00000E+00        -0.40278E+04
 
   -0.93906E+04         0.76556E+04         0.00000E+00
    0.76556E+04        -0.38223E+04         0.00000E+00
    0.00000E+00         0.00000E+00        -0.39639E+04
 
   -0.84338E+04         0.77791E+04         0.00000E+00
    0.77791E+04        -0.46000E+04         0.00000E+00
    0.00000E+00         0.00000E+00        -0.39101E+04
 
   -0.75409E+04         0.77877E+04         0.00000E+00
    0.77877E+04        -0.53509E+04         0.00000E+00
    0.00000E+00         0.00000E+00        -0.38675E+04
 
   -0.67194E+04         0.76837E+04         0.00000E+00
    0.76837E+04        -0.60510E+04         0.00000E+00
    0.00000E+00         0.00000E+00        -0.38311E+04
 
   -0.60015E+04         0.74860E+04         0.00000E+00
    0.74860E+04        -0.66710E+04         0.00000E+00
    0.00000E+00         0.00000E+00        -0.38017E+04
 
   -0.54081E+04         0.72339E+04         0.00000E+00
    0.72339E+04        -0.71943E+04         0.00000E+00
    0.00000E+00         0.00000E+00        -0.37807E+04
 
   -0.49405E+04         0.69639E+04         0.00000E+00
    0.69639E+04        -0.76199E+04         0.00000E+00
    0.00000E+00         0.00000E+00        -0.37681E+04
 
   -0.45885E+04         0.67082E+04         0.00000E+00
    0.67082E+04        -0.79496E+04         0.00000E+00
    0.00000E+00         0.00000E+00        -0.37614E+04
 
   -0.43344E+04         0.64962E+04         0.00000E+00
    0.64962E+04        -0.81930E+04         0.00000E+00
    0.00000E+00         0.00000E+00        -0.37582E+04
 
   -0.41545E+04         0.63507E+04         0.00000E+00
    0.63507E+04        -0.83656E+04         0.00000E+00
    0.00000E+00         0.00000E+00        -0.37560E+04
 
   -0.40216E+04         0.62883E+04         0.00000E+00
    0.62883E+04        -0.84841E+04         0.00000E+00
    0.00000E+00         0.00000E+00        -0.37517E+04
 
   -0.39075E+04         0.63216E+04         0.00000E+00
    0.63216E+04        -0.85665E+04         0.00000E+00
    0.00000E+00         0.00000E+00        -0.37422E+04
 
   -0.37820E+04         0.64594E+04         0.00000E+00
    0.64594E+04        -0.86318E+04         0.00000E+00
    0.00000E+00         0.00000E+00        -0.37241E+04
 
   -0.87116E+04        -0.97278E+02         0.00000E+00
   -0.97278E+02         0.41219E+02         0.00000E+00
    0.00000E+00         0.00000E+00        -0.26011E+04
 
   -0.97628E+04        -0.52517E+02         0.00000E+00
   -0.52517E+02         0.19847E+03         0.00000E+00
    0.00000E+00         0.00000E+00        -0.28693E+04
 
   -0.10891E+05         0.34354E+03         0.00000E+00
    0.34354E+03         0.38622E+03         0.00000E+00
    0.00000E+00         0.00000E+00        -0.31513E+04
 
   -0.11869E+05         0.10547E+04         0.00000E+00
    0.10547E+04         0.48744E+03         0.00000E+00
    0.00000E+00         0.00000E+00        -0.34143E+04
 
   -0.12538E+05         0.19811E+04         0.00000E+00
    0.19811E+04         0.42912E+03         0.00000E+00
    0.00000E+00         0.00000E+00        -0.36328E+04
 
   -0.12826E+05         0.30007E+04         0.00000E+00
    0.30007E+04         0.18863E+03         0.00000E+00
    0.00000E+00         0.00000E+00        -0.37913E+04
 
   -0.12735E+05         0.40005E+04         0.00000E+00
    0.40005E+04        -0.22070E+03         0.00000E+00
    0.00000E+00         0.00000E+00        -0.38868E+04
 
   -0.12323E+05         0.48961E+04         0.00000E+00
    0.48961E+04        -0.76090E+03         0.00000E+00
    0.00000E+00         0.00000E+00        -0.39252E+04
 
   -0.11680E+05         0.56390E+04         0.00000E+00
    0.56390E+04        -0.13915E+04         0.00000E+00
    0.00000E+00         0.00000E+00        -0.39214E+04
 
   -0.10897E+05         0.62160E+04         0.00000E+00
    0.62160E+04        -0.20733E+04         0.00000E+00
    0.00000E+00         0.00000E+00        -0.38911E+04
 
   -0.10049E+05         0.66344E+04         0.00000E+00
    0.66344E+04        -0.27815E+04         0.00000E+00
    0.00000E+00         0.00000E+00        -0.38492E+04
 
   -0.91892E+04         0.69083E+04         0.00000E+00
    0.69083E+04        -0.34934E+04         0.00000E+00
    0.00000E+00         0.00000E+00        -0.38048E+04
 
   -0.83547E+04         0.70575E+04         0.00000E+00
    0.70575E+04        -0.41896E+04         0.00000E+00
    0.00000E+00         0.00000E+00        -0.37633E+04
 
   -0.75656E+04         0.71025E+04         0.00000E+00
    0.71025E+04        -0.48540E+04         0.00000E+00
    0.00000E+00         0.00000E+00        -0.37259E+04
 
   -0.68373E+04         0.70578E+04         0.00000E+00
    0.70578E+04        -0.54732E+04         0.00000E+00
    0.00000E+00         0.00000E+00        -0.36932E+04
 
   -0.61869E+04         0.69407E+04         0.00000E+00
    0.69407E+04        -0.60293E+04         0.00000E+00
    0.00000E+00         0.00000E+00        -0.36649E+04
 
   -0.56277E+04         0.67771E+04         0.00000E+00
    0.67771E+04        -0.65098E+04         0.00000E+00
    0.00000E+00         0.00000E+00        -0.36412E+04
 
   -0.51627E+04         0.65955E+04         0.00000E+00
    0.65955E+04        -0.69101E+04         0.00000E+00
    0.00000E+00         0.00000E+00        -0.36219E+04
 
   -0.47855E+04         0.64230E+04         0.00000E+00
    0.64230E+04        -0.72329E+04         0.00000E+00
    0.00000E+00         0.00000E+00        -0.36055E+04
 
   -0.44824E+04         0.62829E+04         0.00000E+00
    0.62829E+04        -0.74853E+04         0.00000E+00
    0.00000E+00         0.00000E+00        -0.35903E+04
 
   -0.42348E+04         0.61948E+04         0.00000E+00
    0.61948E+04        -0.76786E+04         0.00000E+00
    0.00000E+00         0.00000E+00        -0.35740E+04
 
   -0.40205E+04         0.61739E+04         0.00000E+00
    0.61739E+04        -0.78268E+04         0.00000E+00
    0.00000E+00         0.00000E+00        -0.35542E+04
 
   -0.38150E+04         0.62314E+04         0.00000E+00
    0.62314E+04        -0.79451E+04         0.00000E+00
    0.00000E+00         0.00000E+00        -0.35280E+04
 
   -0.35917E+04         0.63748E+04         0.00000E+00
    0.63748E+04        -0.80504E+04         0.00000E+00
    0.00000E+00         0.00000E+00        -0.34926E+04
 
   -0.87539E+04        -0.13730E+02         0.00000E+00
   -0.13730E+02         0.27824E+02         0.00000E+00
    0.00000E+00         0.00000E+00        -0.26178E+04
 
   -0.95299E+04         0.11397E+03         0.00000E+00
    0.11397E+03         0.13588E+03         0.00000E+00
    0.00000E+00         0.00000E+00        -0.28182E+04
 
   -0.10367E+05         0.48279E+03         0.00000E+00
    0.48279E+03         0.26701E+03         0.00000E+00
    0.00000E+00         0.00000E+00        -0.30300E+04
 
   -0.11109E+05         0.10808E+04         0.00000E+00
    0.10808E+04         0.33707E+03         0.00000E+00
    0.00000E+00         0.00000E+00        -0.32315E+04
 
   -0.11637E+05         0.18479E+04         0.00000E+00
    0.18479E+04         0.28655E+03         0.00000E+00
    0.00000E+00         0.00000E+00        -0.34050E+04
 
   -0.11886E+05         0.27005E+04         0.00000E+00
    0.27005E+04         0.87910E+02         0.00000E+00
    0.00000E+00         0.00000E+00        -0.35393E+04
 
   -0.11845E+05         0.35541E+04         0.00000E+00
    0.35541E+04        -0.25642E+03         0.00000E+00
    0.00000E+00         0.00000E+00        -0.36303E+04
 
   -0.11546E+05         0.43394E+04         0.00000E+00
    0.43394E+04        -0.72376E+03         0.00000E+00
    0.00000E+00         0.00000E+00        -0.36808E+04
 
   -0.11046E+05         0.50114E+04         0.00000E+00
    0.50114E+04        -0.12801E+04         0.00000E+00
    0.00000E+00         0.00000E+00        -0.36979E+04
 
   -0.10413E+05         0.55505E+04         0.00000E+00
    0.55505E+04        -0.18914E+04         0.00000E+00
    0.00000E+00         0.00000E+00        -0.36914E+04
 
   -0.97061E+04         0.59559E+04         0.00000E+00
    0.59559E+04        -0.25284E+04         0.00000E+00
    0.00000E+00         0.00000E+00        -0.36703E+04
 
   -0.89719E+04         0.62375E+04         0.00000E+00
    0.62375E+04        -0.31683E+04         0.00000E+00
    0.00000E+00         0.00000E+00        -0.36421E+04
 
   -0.82441E+04         0.64109E+04         0.00000E+00
    0.64109E+04        -0.37931E+04         0.00000E+00
    0.00000E+00         0.00000E+00        -0.36112E+04
 
   -0.75454E+04         0.64926E+04         0.00000E+00
    0.64926E+04        -0.43892E+04         0.00000E+00
    0.00000E+00         0.00000E+00        -0.35804E+04
 
   -0.68915E+04         0.64983E+04         0.00000E+00
    0.64983E+04        -0.49444E+04         0.00000E+00
    0.00000E+00         0.00000E+00        -0.35508E+04
 
   -0.62957E+04         0.64447E+04         0.00000E+00
    0.64447E+04        -0.54476E+04         0.00000E+00
    0.00000E+00         0.00000E+00        -0.35230E+04
 
   -0.57666E+04         0.63521E+04         0.00000E+00
    0.63521E+04        -0.58900E+04         0.00000E+00
    0.00000E+00         0.00000E+00        -0.34970E+04
 
   -0.53068E+04         0.62425E+04         0.00000E+00
    0.62425E+04        -0.62680E+04         0.00000E+00
    0.00000E+00         0.00000E+00        -0.34724E+04
 
   -0.49117E+04         0.61375E+04         0.00000E+00
    0.61375E+04        -0.65827E+04         0.00000E+00
    0.00000E+00         0.00000E+00        -0.34483E+04
 
   -0.45711E+04         0.60567E+04         0.00000E+00
    0.60567E+04        -0.68400E+04         0.00000E+00
    0.00000E+00         0.00000E+00        -0.34233E+04
 
   -0.42698E+04         0.60163E+04         0.00000E+00
    0.60163E+04        -0.70487E+04         0.00000E+00
    0.00000E+00         0.00000E+00        -0.33956E+04
 
   -0.39896E+04         0.60296E+04         0.00000E+00
    0.60296E+04        -0.72201E+04         0.00000E+00
    0.00000E+00         0.00000E+00        -0.33629E+04
 
   -0.37094E+04         0.61064E+04         0.00000E+00
    0.61064E+04        -0.73675E+04         0.00000E+00
    0.00000E+00         0.00000E+00        -0.33231E+04
 
   -0.34062E+04         0.62530E+04         0.00000E+00
    0.62530E+04        -0.75053E+04         0.00000E+00
    0.00000E+00         0.00000E+00        -0.32734E+04
 
   -0.86818E+04         0.41390E+02         0.00000E+00
    0.41390E+02         0.17830E+02         0.00000E+00
    0.00000E+00         0.00000E+00        -0.25992E+04
 
   -0.92744E+04         0.22544E+03         0.00000E+00
    0.22544E+03         0.87376E+02         0.00000E+00
    0.00000E+00         0.00000E+00        -0.27561E+04
 
   -0.99069E+04         0.57488E+03         0.00000E+00
    0.57488E+03         0.17054E+03         0.00000E+00
    0.00000E+00         0.00000E+00        -0.29209E+04
 
   -0.10473E+05         0.10893E+04         0.00000E+00
    0.10893E+04         0.20775E+03         0.00000E+00
    0.00000E+00         0.00000E+00        -0.30794E+04
 
   -0.10885E+05         0.17326E+04         0.00000E+00
    0.17326E+04         0.15290E+03         0.00000E+00
    0.00000E+00         0.00000E+00        -0.32196E+04
 
   -0.11092E+05         0.24482E+04         0.00000E+00
    0.24482E+04        -0.19062E+02         0.00000E+00
    0.00000E+00         0.00000E+00        -0.33333E+04
 
   -0.11077E+05         0.31747E+04         0.00000E+00
    0.31747E+04        -0.31170E+03         0.00000E+00
    0.00000E+00         0.00000E+00        -0.34167E+04
 
   -0.10857E+05         0.38580E+04         0.00000E+00
    0.38580E+04        -0.71105E+03         0.00000E+00
    0.00000E+00         0.00000E+00        -0.34703E+04
 
   -0.10467E+05         0.44597E+04         0.00000E+00
    0.44597E+04        -0.11927E+04         0.00000E+00
    0.00000E+00         0.00000E+00        -0.34979E+04
 
   -0.99550E+04         0.49588E+04         0.00000E+00
    0.49588E+04        -0.17287E+04         0.00000E+00
    0.00000E+00         0.00000E+00        -0.35051E+04
 
   -0.93661E+04         0.53494E+04         0.00000E+00
    0.53494E+04        -0.22930E+04         0.00000E+00
    0.00000E+00         0.00000E+00        -0.34977E+04
 
   -0.87394E+04         0.56363E+04         0.00000E+00
    0.56363E+04        -0.28637E+04         0.00000E+00
    0.00000E+00         0.00000E+00        -0.34809E+04
 
   -0.81049E+04         0.58301E+04         0.00000E+00
    0.58301E+04        -0.34238E+04         0.00000E+00
    0.00000E+00         0.00000E+00        -0.34586E+04
 
   -0.74843E+04         0.59442E+04         0.00000E+00
    0.59442E+04        -0.39600E+04         0.00000E+00
    0.00000E+00         0.00000E+00        -0.34333E+04
 
   -0.68934E+04         0.59928E+04         0.00000E+00
    0.59928E+04        -0.44617E+04         0.00000E+00
    0.00000E+00         0.00000E+00        -0.34065E+04
 
   -0.63431E+04         0.59909E+04         0.00000E+00
    0.59909E+04        -0.49204E+04         0.00000E+00
    0.00000E+00         0.00000E+00        -0.33791E+04
 
   -0.58405E+04         0.59555E+04         0.00000E+00
    0.59555E+04        -0.53298E+04         0.00000E+00
    0.00000E+00         0.00000E+00        -0.33511E+04
 
   -0.53873E+04         0.59042E+04         0.00000E+00
    0.59042E+04        -0.56870E+04         0.00000E+00
    0.00000E+00         0.00000E+00        -0.33223E+04
 
   -0.49801E+04         0.58543E+04         0.00000E+00
    0.58543E+04        -0.59931E+04         0.00000E+00
    0.00000E+00         0.00000E+00        -0.32920E+04
 
   -0.46109E+04         0.58218E+04         0.00000E+00
    0.58218E+04        -0.62524E+04         0.00000E+00
    0.00000E+00         0.00000E+00        -0.32590E+04
 
   -0.42675E+04         0.58206E+04         0.00000E+00
    0.58206E+04        -0.64720E+04         0.00000E+00
    0.00000E+00         0.00000E+00        -0.32218E+04
 
   -0.39345E+04         0.58618E+04         0.00000E+00
    0.58618E+04        -0.66615E+04         0.00000E+00
    0.00000E+00         0.00000E+00        -0.31788E+04
 
   -0.35940E+04         0.59535E+04         0.00000E+00
    0.59535E+04        -0.68319E+04         0.00000E+00
    0.00000E+00         0.00000E+00        -0.31278E+04
 
   -0.32264E+04         0.61011E+04         0.00000E+00
    0.61011E+04        -0.69958E+04         0.00000E+00
    0.00000E+00         0.00000E+00        -0.30667E+04
 
   -0.85357E+04         0.75553E+02         0.00000E+00
    0.75553E+02         0.10632E+02         0.00000E+00
    0.00000E+00         0.00000E+00        -0.25575E+04
 
   -0.90052E+04         0.29401E+03         0.00000E+00
    0.29401E+03         0.51549E+02         0.00000E+00
    0.00000E+00         0.00000E+00        -0.26861E+04
 
   -0.94939E+04         0.62659E+03         0.00000E+00
    0.62659E+03         0.97058E+02         0.00000E+00
    0.00000E+00         0.00000E+00        -0.28191E+04
 
   -0.99301E+04         0.10774E+04         0.00000E+00
    0.10774E+04         0.10576E+03         0.00000E+00
    0.00000E+00         0.00000E+00        -0.29473E+04
 
   -0.10252E+05         0.16248E+04         0.00000E+00
    0.16248E+04         0.43315E+02         0.00000E+00
    0.00000E+00         0.00000E+00        -0.30627E+04
 
   -0.10420E+05         0.22308E+04         0.00000E+00
    0.22308E+04        -0.11117E+03         0.00000E+00
    0.00000E+00         0.00000E+00        -0.31594E+04
 
   -0.10417E+05         0.28513E+04         0.00000E+00
    0.28513E+04        -0.36325E+03         0.00000E+00
    0.00000E+00         0.00000E+00        -0.32341E+04
 
   -0.10250E+05         0.34454E+04         0.00000E+00
    0.34454E+04        -0.70512E+03         0.00000E+00
    0.00000E+00         0.00000E+00        -0.32866E+04
 
   -0.99418E+04         0.39815E+04         0.00000E+00
    0.39815E+04        -0.11197E+04         0.00000E+00
    0.00000E+00         0.00000E+00        -0.33184E+04
 
   -0.95245E+04         0.44400E+04         0.00000E+00
    0.44400E+04        -0.15854E+04         0.00000E+00
    0.00000E+00         0.00000E+00        -0.33330E+04
 
   -0.90322E+04         0.48125E+04         0.00000E+00
    0.48125E+04        -0.20808E+04         0.00000E+00
    0.00000E+00         0.00000E+00        -0.33339E+04
 
   -0.84961E+04         0.50999E+04         0.00000E+00
    0.50999E+04        -0.25865E+04         0.00000E+00
    0.00000E+00         0.00000E+00        -0.33248E+04
 
   -0.79417E+04         0.53089E+04         0.00000E+00
    0.53089E+04        -0.30868E+04         0.00000E+00
    0.00000E+00         0.00000E+00        -0.33086E+04
 
   -0.73888E+04         0.54494E+04         0.00000E+00
    0.54494E+04        -0.35692E+04         0.00000E+00
    0.00000E+00         0.00000E+00        -0.32874E+04
 
   -0.68519E+04         0.55333E+04         0.00000E+00
    0.55333E+04        -0.40241E+04         0.00000E+00
    0.00000E+00         0.00000E+00        -0.32628E+04
 
   -0.63410E+04         0.55737E+04         0.00000E+00
    0.55737E+04        -0.44440E+04         0.00000E+00
    0.00000E+00         0.00000E+00        -0.32355E+04
 
   -0.58619E+04         0.55845E+04         0.00000E+00
    0.55845E+04        -0.48241E+04         0.00000E+00
    0.00000E+00         0.00000E+00        -0.32058E+04
 
   -0.54162E+04         0.55801E+04         0.00000E+00
    0.55801E+04        -0.51622E+04         0.00000E+00
    0.00000E+00         0.00000E+00        -0.31735E+04
 
   -0.50014E+04         0.55749E+04         0.00000E+00
    0.55749E+04        -0.54590E+04         0.00000E+00
    0.00000E+00         0.00000E+00        -0.31381E+04
 
   -0.46109E+04         0.55817E+04         0.00000E+00
    0.55817E+04        -0.57180E+04         0.00000E+00
    0.00000E+00         0.00000E+00        -0.30987E+04
 
   -0.42348E+04         0.56122E+04         0.00000E+00
    0.56122E+04        -0.59451E+04         0.00000E+00
    0.00000E+00         0.00000E+00        -0.30540E+04
 
   -0.38602E+04         0.56755E+04         0.00000E+00
    0.56755E+04        -0.61481E+04         0.00000E+00
    0.00000E+00         0.00000E+00        -0.30025E+04
 
   -0.34720E+04         0.57784E+04         0.00000E+00
    0.57784E+04        -0.63365E+04         0.00000E+00
    0.00000E+00         0.00000E+00        -0.29426E+04
 
   -0.30534E+04         0.59252E+04         0.00000E+00
    0.59252E+04        -0.65209E+04         0.00000E+00
    0.00000E+00         0.00000E+00        -0.28723E+04
 
   -0.83457E+04         0.94825E+02         0.00000E+00
    0.94825E+02         0.56205E+01         0.00000E+00
    0.00000E+00         0.00000E+00        -0.25020E+04
 
   -0.87311E+04         0.33080E+03         0.00000E+00
    0.33080E+03         0.26092E+02         0.00000E+00
    0.00000E+00         0.00000E+00        -0.26115E+04
 
   -0.91184E+04         0.64666E+03         0.00000E+00
    0.64666E+03         0.43735E+02         0.00000E+00
    0.00000E+00         0.00000E+00        -0.27224E+04
 
   -0.94600E+04         0.10475E+04         0.00000E+00
    0.10475E+04         0.30232E+02         0.00000E+00
    0.00000E+00         0.00000E+00        -0.28289E+04
 
   -0.97129E+04         0.15202E+04         0.00000E+00
    0.15202E+04        -0.39344E+02         0.00000E+00
    0.00000E+00         0.00000E+00        -0.29257E+04
 
   -0.98469E+04         0.20391E+04         0.00000E+00
    0.20391E+04        -0.18143E+03         0.00000E+00
    0.00000E+00         0.00000E+00        -0.30085E+04
 
   -0.98475E+04         0.25730E+04         0.00000E+00
    0.25730E+04        -0.40189E+03         0.00000E+00
    0.00000E+00         0.00000E+00        -0.30748E+04
 
   -0.97164E+04         0.30913E+04         0.00000E+00
    0.30913E+04        -0.69659E+03         0.00000E+00
    0.00000E+00         0.00000E+00        -0.31239E+04
 
   -0.94677E+04         0.35686E+04         0.00000E+00
    0.35686E+04        -0.10539E+04         0.00000E+00
    0.00000E+00         0.00000E+00        -0.31565E+04
 
   -0.91234E+04         0.39878E+04         0.00000E+00
    0.39878E+04        -0.14578E+04         0.00000E+00
    0.00000E+00         0.00000E+00        -0.31743E+04
 
   -0.87084E+04         0.43400E+04         0.00000E+00
    0.43400E+04        -0.18911E+04         0.00000E+00
    0.00000E+00         0.00000E+00        -0.31798E+04
 
   -0.82471E+04         0.46235E+04         0.00000E+00
    0.46235E+04        -0.23376E+04         0.00000E+00
    0.00000E+00         0.00000E+00        -0.31754E+04
 
   -0.77604E+04         0.48420E+04         0.00000E+00
    0.48420E+04        -0.27833E+04         0.00000E+00
    0.00000E+00         0.00000E+00        -0.31631E+04
 
   -0.72655E+04         0.50025E+04         0.00000E+00
    0.50025E+04        -0.32170E+04         0.00000E+00
    0.00000E+00         0.00000E+00        -0.31448E+04
 
   -0.67754E+04         0.51145E+04         0.00000E+00
    0.51145E+04        -0.36298E+04         0.00000E+00
    0.00000E+00         0.00000E+00        -0.31215E+04
 
   -0.62988E+04         0.51887E+04         0.00000E+00
    0.51887E+04        -0.40151E+04         0.00000E+00
    0.00000E+00         0.00000E+00        -0.30942E+04
 
   -0.58410E+04         0.52365E+04         0.00000E+00
    0.52365E+04        -0.43688E+04         0.00000E+00
    0.00000E+00         0.00000E+00        -0.30629E+04
 
   -0.54036E+04         0.52700E+04         0.00000E+00
    0.52700E+04        -0.46889E+04         0.00000E+00
    0.00000E+00         0.00000E+00        -0.30278E+04
 
   -0.49847E+04         0.53006E+04         0.00000E+00
    0.53006E+04        -0.49761E+04         0.00000E+00
    0.00000E+00         0.00000E+00        -0.29882E+04
 
   -0.45788E+04         0.53390E+04         0.00000E+00
    0.53390E+04        -0.52331E+04         0.00000E+00
    0.00000E+00         0.00000E+00        -0.29436E+04
 
   -0.41779E+04         0.53947E+04         0.00000E+00
    0.53947E+04        -0.54647E+04         0.00000E+00
    0.00000E+00         0.00000E+00        -0.28928E+04
 
   -0.37711E+04         0.54753E+04         0.00000E+00
    0.54753E+04        -0.56775E+04         0.00000E+00
    0.00000E+00         0.00000E+00        -0.28346E+04
 
   -0.33459E+04         0.55861E+04         0.00000E+00
    0.55861E+04        -0.58795E+04         0.00000E+00
    0.00000E+00         0.00000E+00        -0.27676E+04
 
   -0.28878E+04         0.57306E+04         0.00000E+00
    0.57306E+04        -0.60796E+04         0.00000E+00
    0.00000E+00         0.00000E+00        -0.26902E+04
 
   -0.81333E+04         0.10386E+03         0.00000E+00
    0.10386E+03         0.22419E+01         0.00000E+00
    0.00000E+00         0.00000E+00        -0.24393E+04
 
   -0.84595E+04         0.34503E+03         0.00000E+00
    0.34503E+03         0.86606E+01         0.00000E+00
    0.00000E+00         0.00000E+00        -0.25353E+04
 
   -0.87744E+04         0.64353E+03         0.00000E+00
    0.64353E+03         0.67064E+01         0.00000E+00
    0.00000E+00         0.00000E+00        -0.26303E+04
 
   -0.90468E+04         0.10037E+04         0.00000E+00
    0.10037E+04        -0.22747E+02         0.00000E+00
    0.00000E+00         0.00000E+00        -0.27209E+04
 
   -0.92470E+04         0.14174E+04         0.00000E+00
    0.14174E+04        -0.97437E+02         0.00000E+00
    0.00000E+00         0.00000E+00        -0.28033E+04
 
   -0.93529E+04         0.18672E+04         0.00000E+00
    0.18672E+04        -0.22984E+03         0.00000E+00
    0.00000E+00         0.00000E+00        -0.28748E+04
 
   -0.93527E+04         0.23309E+04         0.00000E+00
    0.23309E+04        -0.42522E+03         0.00000E+00
    0.00000E+00         0.00000E+00        -0.29334E+04
 
   -0.92456E+04         0.27855E+04         0.00000E+00
    0.27855E+04        -0.68162E+03         0.00000E+00
    0.00000E+00         0.00000E+00        -0.29782E+04
 
   -0.90402E+04         0.32114E+04         0.00000E+00
    0.32114E+04        -0.99115E+03         0.00000E+00
    0.00000E+00         0.00000E+00        -0.30094E+04
 
   -0.87515E+04         0.35941E+04         0.00000E+00
    0.35941E+04        -0.13421E+04         0.00000E+00
    0.00000E+00         0.00000E+00        -0.30281E+04
 
   -0.83976E+04         0.39251E+04         0.00000E+00
    0.39251E+04        -0.17211E+04         0.00000E+00
    0.00000E+00         0.00000E+00        -0.30356E+04
 
   -0.79971E+04         0.42013E+04         0.00000E+00
    0.42013E+04        -0.21150E+04         0.00000E+00
    0.00000E+00         0.00000E+00        -0.30336E+04
 
   -0.75668E+04         0.44243E+04         0.00000E+00
    0.44243E+04        -0.25118E+04         0.00000E+00
    0.00000E+00         0.00000E+00        -0.30236E+04
 
   -0.71212E+04         0.45989E+04         0.00000E+00
    0.45989E+04        -0.29016E+04         0.00000E+00
    0.00000E+00         0.00000E+00        -0.30068E+04
 
   -0.66712E+04         0.47323E+04         0.00000E+00
    0.47323E+04        -0.32764E+04         0.00000E+00
    0.00000E+00         0.00000E+00        -0.29843E+04
 
   -0.62247E+04         0.48328E+04         0.00000E+00
    0.48328E+04        -0.36304E+04         0.00000E+00
    0.00000E+00         0.00000E+00        -0.29565E+04
 
   -0.57864E+04         0.49100E+04         0.00000E+00
    0.49100E+04        -0.39598E+04         0.00000E+00
    0.00000E+00         0.00000E+00        -0.29239E+04
 
   -0.53578E+04         0.49734E+04         0.00000E+00
    0.49734E+04        -0.42630E+04         0.00000E+00
    0.00000E+00         0.00000E+00        -0.28863E+04
 
   -0.49375E+04         0.50324E+04         0.00000E+00
    0.50324E+04        -0.45403E+04         0.00000E+00
    0.00000E+00         0.00000E+00        -0.28433E+04
 
   -0.45211E+04         0.50958E+04         0.00000E+00
    0.50958E+04        -0.47938E+04         0.00000E+00
    0.00000E+00         0.00000E+00        -0.27945E+04
 
   -0.41020E+04         0.51713E+04         0.00000E+00
    0.51713E+04        -0.50276E+04         0.00000E+00
    0.00000E+00         0.00000E+00        -0.27389E+04
 
   -0.36712E+04         0.52649E+04         0.00000E+00
    0.52649E+04        -0.52470E+04         0.00000E+00
    0.00000E+00         0.00000E+00        -0.26754E+04
 
   -0.32179E+04         0.53809E+04         0.00000E+00
    0.53809E+04        -0.54588E+04         0.00000E+00
    0.00000E+00         0.00000E+00        -0.26030E+04
 
   -0.27302E+04         0.55219E+04         0.00000E+00
    0.55219E+04        -0.56706E+04         0.00000E+00
    0.00000E+00         0.00000E+00        -0.25202E+04
 
   -0.79132E+04         0.10609E+03         0.00000E+00
    0.10609E+03         0.44625E-01         0.00000E+00
    0.00000E+00         0.00000E+00        -0.23740E+04
 
   -0.81959E+04         0.34395E+03         0.00000E+00
    0.34395E+03        -0.28050E+01         0.00000E+00
    0.00000E+00         0.00000E+00        -0.24596E+04
 
   -0.84581E+04         0.62437E+03         0.00000E+00
    0.62437E+03        -0.17832E+02         0.00000E+00
    0.00000E+00         0.00000E+00        -0.25428E+04
 
   -0.86794E+04         0.95043E+03         0.00000E+00
    0.95043E+03        -0.57834E+02         0.00000E+00
    0.00000E+00         0.00000E+00        -0.26212E+04
 
   -0.88396E+04         0.13167E+04         0.00000E+00
    0.13167E+04        -0.13524E+03         0.00000E+00
    0.00000E+00         0.00000E+00        -0.26924E+04
 
   -0.89226E+04         0.17112E+04         0.00000E+00
    0.17112E+04        -0.25926E+03         0.00000E+00
    0.00000E+00         0.00000E+00        -0.27546E+04
 
   -0.89194E+04         0.21177E+04         0.00000E+00
    0.21177E+04        -0.43426E+03         0.00000E+00
    0.00000E+00         0.00000E+00        -0.28061E+04
 
   -0.88283E+04         0.25194E+04         0.00000E+00
    0.25194E+04        -0.65943E+03         0.00000E+00
    0.00000E+00         0.00000E+00        -0.28463E+04
 
   -0.86543E+04         0.29011E+04         0.00000E+00
    0.29011E+04        -0.92943E+03         0.00000E+00
    0.00000E+00         0.00000E+00        -0.28751E+04
 
   -0.84077E+04         0.32506E+04         0.00000E+00
    0.32506E+04        -0.12357E+04         0.00000E+00
    0.00000E+00         0.00000E+00        -0.28930E+04
 
   -0.81015E+04         0.35605E+04         0.00000E+00
    0.35605E+04        -0.15681E+04         0.00000E+00
    0.00000E+00         0.00000E+00        -0.29009E+04
 
   -0.77499E+04         0.38271E+04         0.00000E+00
    0.38271E+04        -0.19160E+04         0.00000E+00
    0.00000E+00         0.00000E+00        -0.28998E+04
 
   -0.73660E+04         0.40507E+04         0.00000E+00
    0.40507E+04        -0.22695E+04         0.00000E+00
    0.00000E+00         0.00000E+00        -0.28907E+04
 
   -0.69616E+04         0.42343E+04         0.00000E+00
    0.42343E+04        -0.26200E+04         0.00000E+00
    0.00000E+00         0.00000E+00        -0.28745E+04
 
   -0.65460E+04         0.43830E+04         0.00000E+00
    0.43830E+04        -0.29607E+04         0.00000E+00
    0.00000E+00         0.00000E+00        -0.28520E+04
 
   -0.61259E+04         0.45036E+04         0.00000E+00
    0.45036E+04        -0.32864E+04         0.00000E+00
    0.00000E+00         0.00000E+00        -0.28237E+04
 
   -0.57054E+04         0.46033E+04         0.00000E+00
    0.46033E+04        -0.35935E+04         0.00000E+00
    0.00000E+00         0.00000E+00        -0.27897E+04
 
   -0.52859E+04         0.46900E+04         0.00000E+00
    0.46900E+04        -0.38806E+04         0.00000E+00
    0.00000E+00         0.00000E+00        -0.27500E+04
 
   -0.48665E+04         0.47712E+04         0.00000E+00
    0.47712E+04        -0.41478E+04         0.00000E+00
    0.00000E+00         0.00000E+00        -0.27043E+04
 
   -0.44436E+04         0.48540E+04         0.00000E+00
    0.48540E+04        -0.43967E+04         0.00000E+00
    0.00000E+00         0.00000E+00        -0.26521E+04
 
   -0.40117E+04         0.49444E+04         0.00000E+00
    0.49444E+04        -0.46306E+04         0.00000E+00
    0.00000E+00         0.00000E+00        -0.25927E+04
 
   -0.35634E+04         0.50475E+04         0.00000E+00
    0.50475E+04        -0.48541E+04         0.00000E+00
    0.00000E+00         0.00000E+00        -0.25253E+04
 
   -0.30898E+04         0.51664E+04         0.00000E+00
    0.51664E+04        -0.50726E+04         0.00000E+00
    0.00000E+00         0.00000E+00        -0.24487E+04
 
   -0.25807E+04         0.53029E+04         0.00000E+00
    0.53029E+04        -0.52927E+04         0.00000E+00
    0.00000E+00         0.00000E+00        -0.23620E+04
 
   -0.76952E+04         0.10398E+03         0.00000E+00
    0.10398E+03        -0.13200E+01         0.00000E+00
    0.00000E+00         0.00000E+00        -0.23089E+04
 
   -0.79442E+04         0.33294E+03         0.00000E+00
    0.33294E+03        -0.99733E+01         0.00000E+00
    0.00000E+00         0.00000E+00        -0.23862E+04
 
   -0.81668E+04         0.59489E+03         0.00000E+00
    0.59489E+03        -0.33159E+02         0.00000E+00
    0.00000E+00         0.00000E+00        -0.24600E+04
 
   -0.83497E+04         0.89152E+03         0.00000E+00
    0.89152E+03        -0.79395E+02         0.00000E+00
    0.00000E+00         0.00000E+00        -0.25287E+04
 
   -0.84792E+04         0.12189E+04         0.00000E+00
    0.12189E+04        -0.15729E+03         0.00000E+00
    0.00000E+00         0.00000E+00        -0.25909E+04
 
   -0.85438E+04         0.15684E+04         0.00000E+00
    0.15684E+04        -0.27350E+03         0.00000E+00
    0.00000E+00         0.00000E+00        -0.26452E+04
 
   -0.85367E+04         0.19283E+04         0.00000E+00
    0.19283E+04        -0.43144E+03         0.00000E+00
    0.00000E+00         0.00000E+00        -0.26905E+04
 
   -0.84560E+04         0.22860E+04         0.00000E+00
    0.22860E+04        -0.63086E+03         0.00000E+00
    0.00000E+00         0.00000E+00        -0.27261E+04
 
   -0.83048E+04         0.26297E+04         0.00000E+00
    0.26297E+04        -0.86810E+03         0.00000E+00
    0.00000E+00         0.00000E+00        -0.27519E+04
 
   -0.80899E+04         0.29496E+04         0.00000E+00
    0.29496E+04        -0.11370E+04         0.00000E+00
    0.00000E+00         0.00000E+00        -0.27681E+04
 
   -0.78209E+04         0.32392E+04         0.00000E+00
    0.32392E+04        -0.14296E+04         0.00000E+00
    0.00000E+00         0.00000E+00        -0.27752E+04
 
   -0.75082E+04         0.34949E+04         0.00000E+00
    0.34949E+04        -0.17378E+04         0.00000E+00
    0.00000E+00         0.00000E+00        -0.27738E+04
 
   -0.71621E+04         0.37160E+04         0.00000E+00
    0.37160E+04        -0.20535E+04         0.00000E+00
    0.00000E+00         0.00000E+00        -0.27647E+04
 
   -0.67921E+04         0.39043E+04         0.00000E+00
    0.39043E+04        -0.23694E+04         0.00000E+00
    0.00000E+00         0.00000E+00        -0.27484E+04
 
   -0.64056E+04         0.40635E+04         0.00000E+00
    0.40635E+04        -0.26796E+04         0.00000E+00
    0.00000E+00         0.00000E+00        -0.27255E+04
 
   -0.60084E+04         0.41985E+04         0.00000E+00
    0.41985E+04        -0.29795E+04         0.00000E+00
    0.00000E+00         0.00000E+00        -0.26964E+04
 
   -0.56041E+04         0.43151E+04         0.00000E+00
    0.43151E+04        -0.32662E+04         0.00000E+00
    0.00000E+00         0.00000E+00        -0.26611E+04
 
   -0.51939E+04         0.44194E+04         0.00000E+00
    0.44194E+04        -0.35380E+04         0.00000E+00
    0.00000E+00         0.00000E+00        -0.26196E+04
 
   -0.47770E+04         0.45174E+04         0.00000E+00
    0.45174E+04        -0.37950E+04         0.00000E+00
    0.00000E+00         0.00000E+00        -0.25716E+04
 
   -0.43509E+04         0.46148E+04         0.00000E+00
    0.46148E+04        -0.40385E+04         0.00000E+00
    0.00000E+00         0.00000E+00        -0.25168E+04
 
   -0.39108E+04         0.47163E+04         0.00000E+00
    0.47163E+04        -0.42710E+04         0.00000E+00
    0.00000E+00         0.00000E+00        -0.24545E+04
 
   -0.34508E+04         0.48258E+04         0.00000E+00
    0.48258E+04        -0.44963E+04         0.00000E+00
    0.00000E+00         0.00000E+00        -0.23841E+04
 
   -0.29632E+04         0.49456E+04         0.00000E+00
    0.49456E+04        -0.47189E+04         0.00000E+00
    0.00000E+00         0.00000E+00        -0.23046E+04
 
   -0.24397E+04         0.50769E+04         0.00000E+00
    0.50769E+04        -0.49443E+04         0.00000E+00
    0.00000E+00         0.00000E+00        -0.22152E+04
 
   -0.74852E+04         0.99252E+02         0.00000E+00
    0.99252E+02        -0.21112E+01         0.00000E+00
    0.00000E+00         0.00000E+00        -0.22462E+04
 
   -0.77067E+04         0.31593E+03         0.00000E+00
    0.31593E+03        -0.14128E+02         0.00000E+00
    0.00000E+00         0.00000E+00        -0.23163E+04
 
   -0.78985E+04         0.55937E+03         0.00000E+00
    0.55937E+03        -0.41906E+02         0.00000E+00
    0.00000E+00         0.00000E+00        -0.23821E+04
 
   -0.80519E+04         0.83007E+03         0.00000E+00
    0.83007E+03        -0.91113E+02         0.00000E+00
    0.00000E+00         0.00000E+00        -0.24429E+04
 
   -0.81574E+04         0.11249E+04         0.00000E+00
    0.11249E+04        -0.16767E+03         0.00000E+00
    0.00000E+00         0.00000E+00        -0.24975E+04
 
   -0.82071E+04         0.14373E+04         0.00000E+00
    0.14373E+04        -0.27630E+03         0.00000E+00
    0.00000E+00         0.00000E+00        -0.25450E+04
 
   -0.81958E+04         0.17587E+04         0.00000E+00
    0.17587E+04        -0.41957E+03         0.00000E+00
    0.00000E+00         0.00000E+00        -0.25846E+04
 
   -0.81219E+04         0.20796E+04         0.00000E+00
    0.20796E+04        -0.59746E+03         0.00000E+00
    0.00000E+00         0.00000E+00        -0.26158E+04
 
   -0.79870E+04         0.23907E+04         0.00000E+00
    0.23907E+04        -0.80742E+03         0.00000E+00
    0.00000E+00         0.00000E+00        -0.26383E+04
 
   -0.77960E+04         0.26844E+04         0.00000E+00
    0.26844E+04        -0.10449E+04         0.00000E+00
    0.00000E+00         0.00000E+00        -0.26523E+04
 
   -0.75557E+04         0.29550E+04         0.00000E+00
    0.29550E+04        -0.13040E+04         0.00000E+00
    0.00000E+00         0.00000E+00        -0.26579E+04
 
   -0.72738E+04         0.31990E+04         0.00000E+00
    0.31990E+04        -0.15781E+04         0.00000E+00
    0.00000E+00         0.00000E+00        -0.26556E+04
 
   -0.69584E+04         0.34155E+04         0.00000E+00
    0.34155E+04        -0.18609E+04         0.00000E+00
    0.00000E+00         0.00000E+00        -0.26458E+04
 
   -0.66166E+04         0.36052E+04         0.00000E+00
    0.36052E+04        -0.21463E+04         0.00000E+00
    0.00000E+00         0.00000E+00        -0.26289E+04
 
   -0.62548E+04         0.37707E+04         0.00000E+00
    0.37707E+04        -0.24295E+04         0.00000E+00
    0.00000E+00         0.00000E+00        -0.26053E+04
 
   -0.58775E+04         0.39155E+04         0.00000E+00
    0.39155E+04        -0.27063E+04         0.00000E+00
    0.00000E+00         0.00000E+00        -0.25751E+04
 
   -0.54878E+04         0.40442E+04         0.00000E+00
    0.40442E+04        -0.29742E+04         0.00000E+00
    0.00000E+00         0.00000E+00        -0.25386E+04
 
   -0.50868E+04         0.41613E+04         0.00000E+00
    0.41613E+04        -0.32317E+04         0.00000E+00
    0.00000E+00         0.00000E+00        -0.24955E+04
 
   -0.46740E+04         0.42716E+04         0.00000E+00
    0.42716E+04        -0.34786E+04         0.00000E+00
    0.00000E+00         0.00000E+00        -0.24458E+04
 
   -0.42472E+04         0.43795E+04         0.00000E+00
    0.43795E+04        -0.37159E+04         0.00000E+00
    0.00000E+00         0.00000E+00        -0.23889E+04
 
   -0.38026E+04         0.44886E+04         0.00000E+00
    0.44886E+04        -0.39457E+04         0.00000E+00
    0.00000E+00         0.00000E+00        -0.23245E+04
 
   -0.33354E+04         0.46020E+04         0.00000E+00
    0.46020E+04        -0.41711E+04         0.00000E+00
    0.00000E+00         0.00000E+00        -0.22519E+04
 
   -0.28392E+04         0.47211E+04         0.00000E+00
    0.47211E+04        -0.43957E+04         0.00000E+00
    0.00000E+00         0.00000E+00        -0.21705E+04
 
   -0.23072E+04         0.48466E+04         0.00000E+00
    0.48466E+04        -0.46240E+04         0.00000E+00
    0.00000E+00         0.00000E+00        -0.20794E+04
 
   -0.72869E+04         0.93090E+02         0.00000E+00
    0.93090E+02        -0.25167E+01         0.00000E+00
    0.00000E+00         0.00000E+00        -0.21868E+04
 
   -0.74849E+04         0.29567E+03         0.00000E+00
    0.29567E+03        -0.16224E+02         0.00000E+00
    0.00000E+00         0.00000E+00        -0.22503E+04
 
   -0.76517E+04         0.52092E+03         0.00000E+00
    0.52092E+03        -0.46091E+02         0.00000E+00
    0.00000E+00         0.00000E+00        -0.23093E+04
 
   -0.77816E+04         0.76842E+03         0.00000E+00
    0.76842E+03        -0.95917E+02         0.00000E+00
    0.00000E+00         0.00000E+00        -0.23632E+04
 
   -0.78680E+04         0.10354E+04         0.00000E+00
    0.10354E+04        -0.16976E+03         0.00000E+00
    0.00000E+00         0.00000E+00        -0.24113E+04
 
   -0.79054E+04         0.13168E+04         0.00000E+00
    0.13168E+04        -0.27095E+03         0.00000E+00
    0.00000E+00         0.00000E+00        -0.24529E+04
 
   -0.78898E+04         0.16060E+04         0.00000E+00
    0.16060E+04        -0.40134E+03         0.00000E+00
    0.00000E+00         0.00000E+00        -0.24873E+04
 
   -0.78200E+04         0.18958E+04         0.00000E+00
    0.18958E+04        -0.56096E+03         0.00000E+00
    0.00000E+00         0.00000E+00        -0.25143E+04
 
   -0.76969E+04         0.21790E+04         0.00000E+00
    0.21790E+04        -0.74800E+03         0.00000E+00
    0.00000E+00         0.00000E+00        -0.25335E+04
 
   -0.75238E+04         0.24494E+04         0.00000E+00
    0.24494E+04        -0.95907E+03         0.00000E+00
    0.00000E+00         0.00000E+00        -0.25449E+04
 
   -0.73056E+04         0.27022E+04         0.00000E+00
    0.27022E+04        -0.11897E+04         0.00000E+00
    0.00000E+00         0.00000E+00        -0.25486E+04
 
   -0.70480E+04         0.29344E+04         0.00000E+00
    0.29344E+04        -0.14348E+04         0.00000E+00
    0.00000E+00         0.00000E+00        -0.25448E+04
 
   -0.67572E+04         0.31446E+04         0.00000E+00
    0.31446E+04        -0.16892E+04         0.00000E+00
    0.00000E+00         0.00000E+00        -0.25339E+04
 
   -0.64388E+04         0.33332E+04         0.00000E+00
    0.33332E+04        -0.19481E+04         0.00000E+00
    0.00000E+00         0.00000E+00        -0.25161E+04
 
   -0.60976E+04         0.35016E+04         0.00000E+00
    0.35016E+04        -0.22073E+04         0.00000E+00
    0.00000E+00         0.00000E+00        -0.24915E+04
 
   -0.57376E+04         0.36525E+04         0.00000E+00
    0.36525E+04        -0.24634E+04         0.00000E+00
    0.00000E+00         0.00000E+00        -0.24603E+04
 
   -0.53610E+04         0.37891E+04         0.00000E+00
    0.37891E+04        -0.27141E+04         0.00000E+00
    0.00000E+00         0.00000E+00        -0.24225E+04
 
   -0.49690E+04         0.39150E+04         0.00000E+00
    0.39150E+04        -0.29582E+04         0.00000E+00
    0.00000E+00         0.00000E+00        -0.23782E+04
 
   -0.45612E+04         0.40338E+04         0.00000E+00
    0.40338E+04        -0.31952E+04         0.00000E+00
    0.00000E+00         0.00000E+00        -0.23269E+04
 
   -0.41358E+04         0.41488E+04         0.00000E+00
    0.41488E+04        -0.34260E+04         0.00000E+00
    0.00000E+00         0.00000E+00        -0.22686E+04
 
   -0.36899E+04         0.42628E+04         0.00000E+00
    0.42628E+04        -0.36522E+04         0.00000E+00
    0.00000E+00         0.00000E+00        -0.22026E+04
 
   -0.32192E+04         0.43778E+04         0.00000E+00
    0.43778E+04        -0.38762E+04         0.00000E+00
    0.00000E+00         0.00000E+00        -0.21286E+04
 
   -0.27189E+04         0.44950E+04         0.00000E+00
    0.44950E+04        -0.41010E+04         0.00000E+00
    0.00000E+00         0.00000E+00        -0.20460E+04
 
   -0.21831E+04         0.46142E+04         0.00000E+00
    0.46142E+04        -0.43302E+04         0.00000E+00
    0.00000E+00         0.00000E+00        -0.19540E+04
 
   -0.71021E+04         0.86273E+02         0.00000E+00
    0.86273E+02        -0.26694E+01         0.00000E+00
    0.00000E+00         0.00000E+00        -0.21314E+04
 
   -0.72791E+04         0.27404E+03         0.00000E+00
    0.27404E+03        -0.16953E+02         0.00000E+00
    0.00000E+00         0.00000E+00        -0.21888E+04
 
   -0.74249E+04         0.48172E+03         0.00000E+00
    0.48172E+03        -0.47211E+02         0.00000E+00
    0.00000E+00         0.00000E+00        -0.22416E+04
 
   -0.75354E+04         0.70824E+03         0.00000E+00
    0.70824E+03        -0.96044E+02         0.00000E+00
    0.00000E+00         0.00000E+00        -0.22894E+04
 
   -0.76061E+04         0.95099E+03         0.00000E+00
    0.95099E+03        -0.16625E+03         0.00000E+00
    0.00000E+00         0.00000E+00        -0.23317E+04
 
   -0.76330E+04         0.12059E+04         0.00000E+00
    0.12059E+04        -0.26014E+03         0.00000E+00
    0.00000E+00         0.00000E+00        -0.23679E+04
 
   -0.76132E+04         0.14679E+04         0.00000E+00
    0.14679E+04        -0.37905E+03         0.00000E+00
    0.00000E+00         0.00000E+00        -0.23977E+04
 
   -0.75456E+04         0.17312E+04         0.00000E+00
    0.17312E+04        -0.52297E+03         0.00000E+00
    0.00000E+00         0.00000E+00        -0.24206E+04
 
   -0.74309E+04         0.19901E+04         0.00000E+00
    0.19901E+04        -0.69059E+03         0.00000E+00
    0.00000E+00         0.00000E+00        -0.24364E+04
 
   -0.72711E+04         0.22398E+04         0.00000E+00
    0.22398E+04        -0.87936E+03         0.00000E+00
    0.00000E+00         0.00000E+00        -0.24451E+04
 
   -0.70699E+04         0.24762E+04         0.00000E+00
    0.24762E+04        -0.10859E+04         0.00000E+00
    0.00000E+00         0.00000E+00        -0.24467E+04
 
   -0.68315E+04         0.26966E+04         0.00000E+00
    0.26966E+04        -0.13062E+04         0.00000E+00
    0.00000E+00         0.00000E+00        -0.24413E+04
 
   -0.65604E+04         0.28995E+04         0.00000E+00
    0.28995E+04        -0.15362E+04         0.00000E+00
    0.00000E+00         0.00000E+00        -0.24290E+04
 
   -0.62611E+04         0.30849E+04         0.00000E+00
    0.30849E+04        -0.17720E+04         0.00000E+00
    0.00000E+00         0.00000E+00        -0.24099E+04
 
   -0.59373E+04         0.32537E+04         0.00000E+00
    0.32537E+04        -0.20101E+04         0.00000E+00
    0.00000E+00         0.00000E+00        -0.23842E+04
 
   -0.55921E+04         0.34075E+04         0.00000E+00
    0.34075E+04        -0.22477E+04         0.00000E+00
    0.00000E+00         0.00000E+00        -0.23519E+04
 
   -0.52274E+04         0.35488E+04         0.00000E+00
    0.35488E+04        -0.24829E+04         0.00000E+00
    0.00000E+00         0.00000E+00        -0.23131E+04
 
   -0.48442E+04         0.36801E+04         0.00000E+00
    0.36801E+04        -0.27144E+04         0.00000E+00
    0.00000E+00         0.00000E+00        -0.22676E+04
 
   -0.44421E+04         0.38042E+04         0.00000E+00
    0.38042E+04        -0.29419E+04         0.00000E+00
    0.00000E+00         0.00000E+00        -0.22152E+04
 
   -0.40198E+04         0.39234E+04         0.00000E+00
    0.39234E+04        -0.31660E+04         0.00000E+00
    0.00000E+00         0.00000E+00        -0.21557E+04
 
   -0.35748E+04         0.40398E+04         0.00000E+00
    0.40398E+04        -0.33877E+04         0.00000E+00
    0.00000E+00         0.00000E+00        -0.20888E+04
 
   -0.31039E+04         0.41548E+04         0.00000E+00
    0.41548E+04        -0.36092E+04         0.00000E+00
    0.00000E+00         0.00000E+00        -0.20139E+04
 
   -0.26029E+04         0.42689E+04         0.00000E+00
    0.42689E+04        -0.38328E+04         0.00000E+00
    0.00000E+00         0.00000E+00        -0.19307E+04
 
   -0.20673E+04         0.43817E+04         0.00000E+00
    0.43817E+04        -0.40614E+04         0.00000E+00
    0.00000E+00         0.00000E+00        -0.18386E+04
 
   -0.69315E+04         0.79309E+02         0.00000E+00
    0.79309E+02        -0.26622E+01         0.00000E+00
    0.00000E+00         0.00000E+00        -0.20802E+04
 
   -0.70892E+04         0.25226E+03         0.00000E+00
    0.25226E+03        -0.16807E+02         0.00000E+00
    0.00000E+00         0.00000E+00        -0.21318E+04
 
   -0.72166E+04         0.44322E+03         0.00000E+00
    0.44322E+03        -0.46357E+02         0.00000E+00
    0.00000E+00         0.00000E+00        -0.21789E+04
 
   -0.73106E+04         0.65064E+03         0.00000E+00
    0.65064E+03        -0.93154E+02         0.00000E+00
    0.00000E+00         0.00000E+00        -0.22211E+04
 
   -0.73679E+04         0.87206E+03         0.00000E+00
    0.87206E+03        -0.15916E+03         0.00000E+00
    0.00000E+00         0.00000E+00        -0.22581E+04
 
   -0.73857E+04         0.11041E+04         0.00000E+00
    0.11041E+04        -0.24598E+03         0.00000E+00
    0.00000E+00         0.00000E+00        -0.22895E+04
 
   -0.73618E+04         0.13425E+04         0.00000E+00
    0.13425E+04        -0.35456E+03         0.00000E+00
    0.00000E+00         0.00000E+00        -0.23149E+04
 
   -0.72951E+04         0.15829E+04         0.00000E+00
    0.15829E+04        -0.48486E+03         0.00000E+00
    0.00000E+00         0.00000E+00        -0.23340E+04
 
   -0.71861E+04         0.18207E+04         0.00000E+00
    0.18207E+04        -0.63588E+03         0.00000E+00
    0.00000E+00         0.00000E+00        -0.23466E+04
 
   -0.70363E+04         0.20518E+04         0.00000E+00
    0.20518E+04        -0.80572E+03         0.00000E+00
    0.00000E+00         0.00000E+00        -0.23526E+04
 
   -0.68480E+04         0.22729E+04         0.00000E+00
    0.22729E+04        -0.99173E+03         0.00000E+00
    0.00000E+00         0.00000E+00        -0.23519E+04
 
   -0.66246E+04         0.24817E+04         0.00000E+00
    0.24817E+04        -0.11909E+04         0.00000E+00
    0.00000E+00         0.00000E+00        -0.23446E+04
 
   -0.63694E+04         0.26766E+04         0.00000E+00
    0.26766E+04        -0.13998E+04         0.00000E+00
    0.00000E+00         0.00000E+00        -0.23308E+04
 
   -0.60856E+04         0.28574E+04         0.00000E+00
    0.28574E+04        -0.16156E+04         0.00000E+00
    0.00000E+00         0.00000E+00        -0.23104E+04
 
   -0.57764E+04         0.30244E+04         0.00000E+00
    0.30244E+04        -0.18352E+04         0.00000E+00
    0.00000E+00         0.00000E+00        -0.22835E+04
 
   -0.54440E+04         0.31786E+04         0.00000E+00
    0.31786E+04        -0.20565E+04         0.00000E+00
    0.00000E+00         0.00000E+00        -0.22502E+04
 
   -0.50901E+04         0.33219E+04         0.00000E+00
    0.33219E+04        -0.22776E+04         0.00000E+00
    0.00000E+00         0.00000E+00        -0.22103E+04
 
   -0.47153E+04         0.34559E+04         0.00000E+00
    0.34559E+04        -0.24975E+04         0.00000E+00
    0.00000E+00         0.00000E+00        -0.21638E+04
 
   -0.43195E+04         0.35826E+04         0.00000E+00
    0.35826E+04        -0.27158E+04         0.00000E+00
    0.00000E+00         0.00000E+00        -0.21106E+04
 
   -0.39014E+04         0.37037E+04         0.00000E+00
    0.37037E+04        -0.29330E+04         0.00000E+00
    0.00000E+00         0.00000E+00        -0.20503E+04
 
   -0.34594E+04         0.38206E+04         0.00000E+00
    0.38206E+04        -0.31499E+04         0.00000E+00
    0.00000E+00         0.00000E+00        -0.19828E+04
 
   -0.29906E+04         0.39341E+04         0.00000E+00
    0.39341E+04        -0.33680E+04         0.00000E+00
    0.00000E+00         0.00000E+00        -0.19076E+04
 
   -0.24919E+04         0.40443E+04         0.00000E+00
    0.40443E+04        -0.35892E+04         0.00000E+00
    0.00000E+00         0.00000E+00        -0.18243E+04
 
   -0.19597E+04         0.41505E+04         0.00000E+00
    0.41505E+04        -0.38159E+04         0.00000E+00
    0.00000E+00         0.00000E+00        -0.17327E+04
 
   -0.67748E+04         0.72512E+02         0.00000E+00
    0.72512E+02        -0.25588E+01         0.00000E+00
    0.00000E+00         0.00000E+00        -0.20332E+04
 
   -0.69146E+04         0.23113E+03         0.00000E+00
    0.23113E+03        -0.16130E+02         0.00000E+00
    0.00000E+00         0.00000E+00        -0.20792E+04
 
   -0.70255E+04         0.40632E+03         0.00000E+00
    0.40632E+03        -0.44303E+02         0.00000E+00
    0.00000E+00         0.00000E+00        -0.21209E+04
 
   -0.71050E+04         0.59629E+03         0.00000E+00
    0.59629E+03        -0.88452E+02         0.00000E+00
    0.00000E+00         0.00000E+00        -0.21580E+04
 
   -0.71507E+04         0.79868E+03         0.00000E+00
    0.79868E+03        -0.14999E+03         0.00000E+00
    0.00000E+00         0.00000E+00        -0.21902E+04
 
   -0.71603E+04         0.10106E+04         0.00000E+00
    0.10106E+04        -0.23006E+03         0.00000E+00
    0.00000E+00         0.00000E+00        -0.22171E+04
 
   -0.71322E+04         0.12285E+04         0.00000E+00
    0.12285E+04        -0.32931E+03         0.00000E+00
    0.00000E+00         0.00000E+00        -0.22384E+04
 
   -0.70654E+04         0.14488E+04         0.00000E+00
    0.14488E+04        -0.44770E+03         0.00000E+00
    0.00000E+00         0.00000E+00        -0.22539E+04
 
   -0.69602E+04         0.16678E+04         0.00000E+00
    0.16678E+04        -0.58445E+03         0.00000E+00
    0.00000E+00         0.00000E+00        -0.22634E+04
 
   -0.68176E+04         0.18821E+04         0.00000E+00
    0.18821E+04        -0.73809E+03         0.00000E+00
    0.00000E+00         0.00000E+00        -0.22667E+04
 
   -0.66393E+04         0.20891E+04         0.00000E+00
    0.20891E+04        -0.90661E+03         0.00000E+00
    0.00000E+00         0.00000E+00        -0.22638E+04
 
   -0.64276E+04         0.22865E+04         0.00000E+00
    0.22865E+04        -0.10876E+04         0.00000E+00
    0.00000E+00         0.00000E+00        -0.22546E+04
 
   -0.61850E+04         0.24730E+04         0.00000E+00
    0.24730E+04        -0.12785E+04         0.00000E+00
    0.00000E+00         0.00000E+00        -0.22391E+04
 
   -0.59141E+04         0.26479E+04         0.00000E+00
    0.26479E+04        -0.14769E+04         0.00000E+00
    0.00000E+00         0.00000E+00        -0.22173E+04
 
   -0.56171E+04         0.28115E+04         0.00000E+00
    0.28115E+04        -0.16803E+04         0.00000E+00
    0.00000E+00         0.00000E+00        -0.21892E+04
 
   -0.52958E+04         0.29643E+04         0.00000E+00
    0.29643E+04        -0.18870E+04         0.00000E+00
    0.00000E+00         0.00000E+00        -0.21548E+04
 
   -0.49515E+04         0.31072E+04         0.00000E+00
    0.31072E+04        -0.20954E+04         0.00000E+00
    0.00000E+00         0.00000E+00        -0.21141E+04
 
   -0.45848E+04         0.32417E+04         0.00000E+00
    0.32417E+04        -0.23046E+04         0.00000E+00
    0.00000E+00         0.00000E+00        -0.20668E+04
 
   -0.41955E+04         0.33688E+04         0.00000E+00
    0.33688E+04        -0.25143E+04         0.00000E+00
    0.00000E+00         0.00000E+00        -0.20129E+04
 
   -0.37828E+04         0.34899E+04         0.00000E+00
    0.34899E+04        -0.27246E+04         0.00000E+00
    0.00000E+00         0.00000E+00        -0.19522E+04
 
   -0.33451E+04         0.36056E+04         0.00000E+00
    0.36056E+04        -0.29363E+04         0.00000E+00
    0.00000E+00         0.00000E+00        -0.18844E+04
 
   -0.28805E+04         0.37165E+04         0.00000E+00
    0.37165E+04        -0.31504E+04         0.00000E+00
    0.00000E+00         0.00000E+00        -0.18093E+04
 
   -0.23863E+04         0.38222E+04         0.00000E+00
    0.38222E+04        -0.33684E+04         0.00000E+00
    0.00000E+00         0.00000E+00        -0.17264E+04
 
   -0.18598E+04         0.39218E+04         0.00000E+00
    0.39218E+04        -0.35921E+04         0.00000E+00
    0.00000E+00         0.00000E+00        -0.16356E+04
 
   -0.66317E+04         0.66064E+02         0.00000E+00
    0.66064E+02        -0.24026E+01         0.00000E+00
    0.00000E+00         0.00000E+00        -0.19902E+04
 
   -0.67547E+04         0.21109E+03         0.00000E+00
    0.21109E+03        -0.15160E+02         0.00000E+00
    0.00000E+00         0.00000E+00        -0.20309E+04
 
   -0.68504E+04         0.37155E+03         0.00000E+00
    0.37155E+03        -0.41591E+02         0.00000E+00
    0.00000E+00         0.00000E+00        -0.20676E+04
 
   -0.69169E+04         0.54553E+03         0.00000E+00
    0.54553E+03        -0.82789E+02         0.00000E+00
    0.00000E+00         0.00000E+00        -0.20999E+04
 
   -0.69521E+04         0.73078E+03         0.00000E+00
    0.73078E+03        -0.13982E+03         0.00000E+00
    0.00000E+00         0.00000E+00        -0.21276E+04
 
   -0.69542E+04         0.92472E+03         0.00000E+00
    0.92472E+03        -0.21352E+03         0.00000E+00
    0.00000E+00         0.00000E+00        -0.21503E+04
 
   -0.69218E+04         0.11244E+04         0.00000E+00
    0.11244E+04        -0.30436E+03         0.00000E+00
    0.00000E+00         0.00000E+00        -0.21678E+04
 
   -0.68542E+04         0.13269E+04         0.00000E+00
    0.13269E+04        -0.41228E+03         0.00000E+00
    0.00000E+00         0.00000E+00        -0.21799E+04
 
   -0.67513E+04         0.15291E+04         0.00000E+00
    0.15291E+04        -0.53668E+03         0.00000E+00
    0.00000E+00         0.00000E+00        -0.21864E+04
 
   -0.66139E+04         0.17282E+04         0.00000E+00
    0.17282E+04        -0.67643E+03         0.00000E+00
    0.00000E+00         0.00000E+00        -0.21871E+04
 
   -0.64431E+04         0.19218E+04         0.00000E+00
    0.19218E+04        -0.82996E+03         0.00000E+00
    0.00000E+00         0.00000E+00        -0.21819E+04
 
   -0.62405E+04         0.21082E+04         0.00000E+00
    0.21082E+04        -0.99541E+03         0.00000E+00
    0.00000E+00         0.00000E+00        -0.21708E+04
 
   -0.60081E+04         0.22859E+04         0.00000E+00
    0.22859E+04        -0.11708E+04         0.00000E+00
    0.00000E+00         0.00000E+00        -0.21536E+04
 
   -0.57476E+04         0.24542E+04         0.00000E+00
    0.24542E+04        -0.13540E+04         0.00000E+00
    0.00000E+00         0.00000E+00        -0.21305E+04
 
   -0.54609E+04         0.26131E+04         0.00000E+00
    0.26131E+04        -0.15433E+04         0.00000E+00
    0.00000E+00         0.00000E+00        -0.21013E+04
 
   -0.51492E+04         0.27628E+04         0.00000E+00
    0.27628E+04        -0.17371E+04         0.00000E+00
    0.00000E+00         0.00000E+00        -0.20659E+04
 
   -0.48137E+04         0.29037E+04         0.00000E+00
    0.29037E+04        -0.19341E+04         0.00000E+00
    0.00000E+00         0.00000E+00        -0.20243E+04
 
   -0.44547E+04         0.30368E+04         0.00000E+00
    0.30368E+04        -0.21335E+04         0.00000E+00
    0.00000E+00         0.00000E+00        -0.19764E+04
 
   -0.40721E+04         0.31627E+04         0.00000E+00
    0.31627E+04        -0.23350E+04         0.00000E+00
    0.00000E+00         0.00000E+00        -0.19221E+04
 
   -0.36654E+04         0.32821E+04         0.00000E+00
    0.32821E+04        -0.25386E+04         0.00000E+00
    0.00000E+00         0.00000E+00        -0.18612E+04
 
   -0.32333E+04         0.33954E+04         0.00000E+00
    0.33954E+04        -0.27448E+04         0.00000E+00
    0.00000E+00         0.00000E+00        -0.17934E+04
 
   -0.27742E+04         0.35027E+04         0.00000E+00
    0.35027E+04        -0.29544E+04         0.00000E+00
    0.00000E+00         0.00000E+00        -0.17186E+04
 
   -0.22864E+04         0.36034E+04         0.00000E+00
    0.36034E+04        -0.31686E+04         0.00000E+00
    0.00000E+00         0.00000E+00        -0.16365E+04
 
   -0.17676E+04         0.36965E+04         0.00000E+00
    0.36965E+04        -0.33886E+04         0.00000E+00
    0.00000E+00         0.00000E+00        -0.15469E+04
 
   -0.65012E+04         0.60059E+02         0.00000E+00
    0.60059E+02        -0.22221E+01         0.00000E+00
    0.00000E+00         0.00000E+00        -0.19510E+04
 
   -0.66083E+04         0.19239E+03         0.00000E+00
    0.19239E+03        -0.14055E+02         0.00000E+00
    0.00000E+00         0.00000E+00        -0.19867E+04
 
   -0.66901E+04         0.33916E+03         0.00000E+00
    0.33916E+03        -0.38588E+02         0.00000E+00
    0.00000E+00         0.00000E+00        -0.20186E+04
 
   -0.67447E+04         0.49845E+03         0.00000E+00
    0.49845E+03        -0.76754E+02         0.00000E+00
    0.00000E+00         0.00000E+00        -0.20464E+04
 
   -0.67702E+04         0.66815E+03         0.00000E+00
    0.66815E+03        -0.12940E+03         0.00000E+00
    0.00000E+00         0.00000E+00        -0.20699E+04
 
   -0.67652E+04         0.84595E+03         0.00000E+00
    0.84595E+03        -0.19719E+03         0.00000E+00
    0.00000E+00         0.00000E+00        -0.20887E+04
 
   -0.67285E+04         0.10293E+04         0.00000E+00
    0.10293E+04        -0.28045E+03         0.00000E+00
    0.00000E+00         0.00000E+00        -0.21027E+04
 
   -0.66594E+04         0.12158E+04         0.00000E+00
    0.12158E+04        -0.37915E+03         0.00000E+00
    0.00000E+00         0.00000E+00        -0.21116E+04
 
   -0.65578E+04         0.14027E+04         0.00000E+00
    0.14027E+04        -0.49282E+03         0.00000E+00
    0.00000E+00         0.00000E+00        -0.21152E+04
 
   -0.64240E+04         0.15877E+04         0.00000E+00
    0.15877E+04        -0.62059E+03         0.00000E+00
    0.00000E+00         0.00000E+00        -0.21134E+04
 
   -0.62588E+04         0.17688E+04         0.00000E+00
    0.17688E+04        -0.76124E+03         0.00000E+00
    0.00000E+00         0.00000E+00        -0.21060E+04
 
   -0.60633E+04         0.19444E+04         0.00000E+00
    0.19444E+04        -0.91331E+03         0.00000E+00
    0.00000E+00         0.00000E+00        -0.20930E+04
 
   -0.58390E+04         0.21131E+04         0.00000E+00
    0.21131E+04        -0.10752E+04         0.00000E+00
    0.00000E+00         0.00000E+00        -0.20743E+04
 
   -0.55871E+04         0.22743E+04         0.00000E+00
    0.22743E+04        -0.12454E+04         0.00000E+00
    0.00000E+00         0.00000E+00        -0.20498E+04
 
   -0.53091E+04         0.24275E+04         0.00000E+00
    0.24275E+04        -0.14223E+04         0.00000E+00
    0.00000E+00         0.00000E+00        -0.20194E+04
 
   -0.50059E+04         0.25728E+04         0.00000E+00
    0.25728E+04        -0.16046E+04         0.00000E+00
    0.00000E+00         0.00000E+00        -0.19831E+04
 
   -0.46782E+04         0.27104E+04         0.00000E+00
    0.27104E+04        -0.17913E+04         0.00000E+00
    0.00000E+00         0.00000E+00        -0.19409E+04
 
   -0.43266E+04         0.28406E+04         0.00000E+00
    0.28406E+04        -0.19817E+04         0.00000E+00
    0.00000E+00         0.00000E+00        -0.18925E+04
 
   -0.39508E+04         0.29638E+04         0.00000E+00
    0.29638E+04        -0.21755E+04         0.00000E+00
    0.00000E+00         0.00000E+00        -0.18379E+04
 
   -0.35505E+04         0.30803E+04         0.00000E+00
    0.30803E+04        -0.23726E+04         0.00000E+00
    0.00000E+00         0.00000E+00        -0.17769E+04
 
   -0.31248E+04         0.31902E+04         0.00000E+00
    0.31902E+04        -0.25733E+04         0.00000E+00
    0.00000E+00         0.00000E+00        -0.17094E+04
 
   -0.26725E+04         0.32932E+04         0.00000E+00
    0.32932E+04        -0.27782E+04         0.00000E+00
    0.00000E+00         0.00000E+00        -0.16352E+04
 
   -0.21923E+04         0.33886E+04         0.00000E+00
    0.33886E+04        -0.29881E+04         0.00000E+00
    0.00000E+00         0.00000E+00        -0.15541E+04
 
   -0.16825E+04         0.34752E+04         0.00000E+00
    0.34752E+04        -0.32039E+04         0.00000E+00
    0.00000E+00         0.00000E+00        -0.14659E+04
 
   -0.63825E+04         0.54530E+02         0.00000E+00
    0.54530E+02        -0.20362E+01         0.00000E+00
    0.00000E+00         0.00000E+00        -0.19154E+04
 
   -0.64747E+04         0.17510E+03         0.00000E+00
    0.17510E+03        -0.12921E+02         0.00000E+00
    0.00000E+00         0.00000E+00        -0.19463E+04
 
   -0.65435E+04         0.30921E+03         0.00000E+00
    0.30921E+03        -0.35542E+02         0.00000E+00
    0.00000E+00         0.00000E+00        -0.19737E+04
 
   -0.65869E+04         0.45498E+03         0.00000E+00
    0.45498E+03        -0.70742E+02         0.00000E+00
    0.00000E+00         0.00000E+00        -0.19973E+04
 
   -0.66035E+04         0.61047E+03         0.00000E+00
    0.61047E+03        -0.11925E+03         0.00000E+00
    0.00000E+00         0.00000E+00        -0.20168E+04
 
   -0.65918E+04         0.77359E+03         0.00000E+00
    0.77359E+03        -0.18159E+03         0.00000E+00
    0.00000E+00         0.00000E+00        -0.20320E+04
 
   -0.65508E+04         0.94216E+03         0.00000E+00
    0.94216E+03        -0.25807E+03         0.00000E+00
    0.00000E+00         0.00000E+00        -0.20427E+04
 
   -0.64797E+04         0.11140E+04         0.00000E+00
    0.11140E+04        -0.34864E+03         0.00000E+00
    0.00000E+00         0.00000E+00        -0.20485E+04
 
   -0.63784E+04         0.12869E+04         0.00000E+00
    0.12869E+04        -0.45296E+03         0.00000E+00
    0.00000E+00         0.00000E+00        -0.20494E+04
 
   -0.62470E+04         0.14588E+04         0.00000E+00
    0.14588E+04        -0.57036E+03         0.00000E+00
    0.00000E+00         0.00000E+00        -0.20452E+04
 
   -0.60859E+04         0.16281E+04         0.00000E+00
    0.16281E+04        -0.69990E+03         0.00000E+00
    0.00000E+00         0.00000E+00        -0.20357E+04
 
   -0.58960E+04         0.17931E+04         0.00000E+00
    0.17931E+04        -0.84044E+03         0.00000E+00
    0.00000E+00         0.00000E+00        -0.20209E+04
 
   -0.56781E+04         0.19528E+04         0.00000E+00
    0.19528E+04        -0.99073E+03         0.00000E+00
    0.00000E+00         0.00000E+00        -0.20007E+04
 
   -0.54334E+04         0.21063E+04         0.00000E+00
    0.21063E+04        -0.11495E+04         0.00000E+00
    0.00000E+00         0.00000E+00        -0.19749E+04
 
   -0.51627E+04         0.22531E+04         0.00000E+00
    0.22531E+04        -0.13155E+04         0.00000E+00
    0.00000E+00         0.00000E+00        -0.19435E+04
 
   -0.48669E+04         0.23931E+04         0.00000E+00
    0.23931E+04        -0.14877E+04         0.00000E+00
    0.00000E+00         0.00000E+00        -0.19064E+04
 
   -0.45465E+04         0.25261E+04         0.00000E+00
    0.25261E+04        -0.16652E+04         0.00000E+00
    0.00000E+00         0.00000E+00        -0.18635E+04
 
   -0.42018E+04         0.26523E+04         0.00000E+00
    0.26523E+04        -0.18474E+04         0.00000E+00
    0.00000E+00         0.00000E+00        -0.18148E+04
 
   -0.38328E+04         0.27718E+04         0.00000E+00
    0.27718E+04        -0.20340E+04         0.00000E+00
    0.00000E+00         0.00000E+00        -0.17600E+04
 
   -0.34393E+04         0.28844E+04         0.00000E+00
    0.28844E+04        -0.22248E+04         0.00000E+00
    0.00000E+00         0.00000E+00        -0.16992E+04
 
   -0.30205E+04         0.29901E+04         0.00000E+00
    0.29901E+04        -0.24201E+04         0.00000E+00
    0.00000E+00         0.00000E+00        -0.16322E+04
 
   -0.25758E+04         0.30883E+04         0.00000E+00
    0.30883E+04        -0.26201E+04         0.00000E+00
    0.00000E+00         0.00000E+00        -0.15588E+04
 
   -0.21041E+04         0.31782E+04         0.00000E+00
    0.31782E+04        -0.28254E+04         0.00000E+00
    0.00000E+00         0.00000E+00        -0.14788E+04
 
   -0.16043E+04         0.32585E+04         0.00000E+00
    0.32585E+04        -0.30366E+04         0.00000E+00
    0.00000E+00         0.00000E+00        -0.13923E+04
 
   -0.62746E+04         0.49474E+02         0.00000E+00
    0.49474E+02        -0.18563E+01         0.00000E+00
    0.00000E+00         0.00000E+00        -0.18829E+04
 
   -0.63529E+04         0.15921E+03         0.00000E+00
    0.15921E+03        -0.11823E+02         0.00000E+00
    0.00000E+00         0.00000E+00        -0.19094E+04
 
   -0.64094E+04         0.28162E+03         0.00000E+00
    0.28162E+03        -0.32607E+02         0.00000E+00
    0.00000E+00         0.00000E+00        -0.19326E+04
 
   -0.64425E+04         0.41494E+03         0.00000E+00
    0.41494E+03        -0.65005E+02         0.00000E+00
    0.00000E+00         0.00000E+00        -0.19523E+04
 
   -0.64507E+04         0.55737E+03         0.00000E+00
    0.55737E+03        -0.10967E+03         0.00000E+00
    0.00000E+00         0.00000E+00        -0.19681E+04
 
   -0.64325E+04         0.70703E+03         0.00000E+00
    0.70703E+03        -0.16708E+03         0.00000E+00
    0.00000E+00         0.00000E+00        -0.19799E+04
 
   -0.63872E+04         0.86202E+03         0.00000E+00
    0.86202E+03        -0.23749E+03         0.00000E+00
    0.00000E+00         0.00000E+00        -0.19874E+04
 
   -0.63138E+04         0.10204E+04         0.00000E+00
    0.10204E+04        -0.32091E+03         0.00000E+00
    0.00000E+00         0.00000E+00        -0.19904E+04
 
   -0.62121E+04         0.11803E+04         0.00000E+00
    0.11803E+04        -0.41708E+03         0.00000E+00
    0.00000E+00         0.00000E+00        -0.19888E+04
 
   -0.60821E+04         0.13400E+04         0.00000E+00
    0.13400E+04        -0.52550E+03         0.00000E+00
    0.00000E+00         0.00000E+00        -0.19823E+04
 
   -0.59240E+04         0.14979E+04         0.00000E+00
    0.14979E+04        -0.64544E+03         0.00000E+00
    0.00000E+00         0.00000E+00        -0.19708E+04
 
   -0.57384E+04         0.16527E+04         0.00000E+00
    0.16527E+04        -0.77600E+03         0.00000E+00
    0.00000E+00         0.00000E+00        -0.19543E+04
 
   -0.55257E+04         0.18032E+04         0.00000E+00
    0.18032E+04        -0.91621E+03         0.00000E+00
    0.00000E+00         0.00000E+00        -0.19326E+04
 
   -0.52869E+04         0.19487E+04         0.00000E+00
    0.19487E+04        -0.10650E+04         0.00000E+00
    0.00000E+00         0.00000E+00        -0.19056E+04
 
   -0.50225E+04         0.20886E+04         0.00000E+00
    0.20886E+04        -0.12215E+04         0.00000E+00
    0.00000E+00         0.00000E+00        -0.18732E+04
 
   -0.47332E+04         0.22225E+04         0.00000E+00
    0.22225E+04        -0.13847E+04         0.00000E+00
    0.00000E+00         0.00000E+00        -0.18354E+04
 
   -0.44193E+04         0.23502E+04         0.00000E+00
    0.23502E+04        -0.15540E+04         0.00000E+00
    0.00000E+00         0.00000E+00        -0.17920E+04
 
   -0.40813E+04         0.24715E+04         0.00000E+00
    0.24715E+04        -0.17287E+04         0.00000E+00
    0.00000E+00         0.00000E+00        -0.17430E+04
 
   -0.37190E+04         0.25863E+04         0.00000E+00
    0.25863E+04        -0.19086E+04         0.00000E+00
    0.00000E+00         0.00000E+00        -0.16883E+04
 
   -0.33324E+04         0.26943E+04         0.00000E+00
    0.26943E+04        -0.20935E+04         0.00000E+00
    0.00000E+00         0.00000E+00        -0.16277E+04
 
   -0.29210E+04         0.27951E+04         0.00000E+00
    0.27951E+04        -0.22833E+04         0.00000E+00
    0.00000E+00         0.00000E+00        -0.15613E+04
 
   -0.24843E+04         0.28882E+04         0.00000E+00
    0.28882E+04        -0.24784E+04         0.00000E+00
    0.00000E+00         0.00000E+00        -0.14888E+04
 
   -0.20217E+04         0.29724E+04         0.00000E+00
    0.29724E+04        -0.26789E+04         0.00000E+00
    0.00000E+00         0.00000E+00        -0.14102E+04
 
   -0.15326E+04         0.30466E+04         0.00000E+00
    0.30466E+04        -0.28853E+04         0.00000E+00
    0.00000E+00         0.00000E+00        -0.13254E+04
 
   -0.61767E+04         0.44868E+02         0.00000E+00
    0.44868E+02        -0.16894E+01         0.00000E+00
    0.00000E+00         0.00000E+00        -0.18535E+04
 
   -0.62418E+04         0.14466E+03         0.00000E+00
    0.14466E+03        -0.10802E+02         0.00000E+00
    0.00000E+00         0.00000E+00        -0.18758E+04
 
   -0.62870E+04         0.25627E+03         0.00000E+00
    0.25627E+03        -0.29879E+02         0.00000E+00
    0.00000E+00         0.00000E+00        -0.18951E+04
 
   -0.63104E+04         0.37808E+03         0.00000E+00
    0.37808E+03        -0.59694E+02         0.00000E+00
    0.00000E+00         0.00000E+00        -0.19110E+04
 
   -0.63106E+04         0.50844E+03         0.00000E+00
    0.50844E+03        -0.10087E+03         0.00000E+00
    0.00000E+00         0.00000E+00        -0.19234E+04
 
   -0.62863E+04         0.64568E+03         0.00000E+00
    0.64568E+03        -0.15384E+03         0.00000E+00
    0.00000E+00         0.00000E+00        -0.19320E+04
 
   -0.62366E+04         0.78810E+03         0.00000E+00
    0.78810E+03        -0.21887E+03         0.00000E+00
    0.00000E+00         0.00000E+00        -0.19366E+04
 
   -0.61607E+04         0.93401E+03         0.00000E+00
    0.93401E+03        -0.29601E+03         0.00000E+00
    0.00000E+00         0.00000E+00        -0.19370E+04
 
   -0.60581E+04         0.10818E+04         0.00000E+00
    0.10818E+04        -0.38507E+03         0.00000E+00
    0.00000E+00         0.00000E+00        -0.19330E+04
 
   -0.59288E+04         0.12299E+04         0.00000E+00
    0.12299E+04        -0.48569E+03         0.00000E+00
    0.00000E+00         0.00000E+00        -0.19244E+04
 
   -0.57728E+04         0.13769E+04         0.00000E+00
    0.13769E+04        -0.59731E+03         0.00000E+00
    0.00000E+00         0.00000E+00        -0.19110E+04
 
   -0.55904E+04         0.15216E+04         0.00000E+00
    0.15216E+04        -0.71923E+03         0.00000E+00
    0.00000E+00         0.00000E+00        -0.18929E+04
 
   -0.53819E+04         0.16630E+04         0.00000E+00
    0.16630E+04        -0.85069E+03         0.00000E+00
    0.00000E+00         0.00000E+00        -0.18698E+04
 
   -0.51480E+04         0.18003E+04         0.00000E+00
    0.18003E+04        -0.99086E+03         0.00000E+00
    0.00000E+00         0.00000E+00        -0.18417E+04
 
   -0.48890E+04         0.19328E+04         0.00000E+00
    0.19328E+04        -0.11390E+04         0.00000E+00
    0.00000E+00         0.00000E+00        -0.18084E+04
 
   -0.46055E+04         0.20601E+04         0.00000E+00
    0.20601E+04        -0.12942E+04         0.00000E+00
    0.00000E+00         0.00000E+00        -0.17699E+04
 
   -0.42977E+04         0.21818E+04         0.00000E+00
    0.21818E+04        -0.14561E+04         0.00000E+00
    0.00000E+00         0.00000E+00        -0.17261E+04
 
   -0.39659E+04         0.22975E+04         0.00000E+00
    0.22975E+04        -0.16240E+04         0.00000E+00
    0.00000E+00         0.00000E+00        -0.16770E+04
 
   -0.36102E+04         0.24070E+04         0.00000E+00
    0.24070E+04        -0.17976E+04         0.00000E+00
    0.00000E+00         0.00000E+00        -0.16224E+04
 
   -0.32305E+04         0.25097E+04         0.00000E+00
    0.25097E+04        -0.19768E+04         0.00000E+00
    0.00000E+00         0.00000E+00        -0.15622E+04
 
   -0.28266E+04         0.26053E+04         0.00000E+00
    0.26053E+04        -0.21614E+04         0.00000E+00
    0.00000E+00         0.00000E+00        -0.14964E+04
 
   -0.23983E+04         0.26928E+04         0.00000E+00
    0.26928E+04        -0.23516E+04         0.00000E+00
    0.00000E+00         0.00000E+00        -0.14250E+04
 
   -0.19452E+04         0.27714E+04         0.00000E+00
    0.27714E+04        -0.25473E+04         0.00000E+00
    0.00000E+00         0.00000E+00        -0.13477E+04
 
   -0.14671E+04         0.28397E+04         0.00000E+00
    0.28397E+04        -0.27487E+04         0.00000E+00
    0.00000E+00         0.00000E+00        -0.12647E+04
 
   -0.60878E+04         0.40671E+02         0.00000E+00
    0.40671E+02        -0.15390E+01         0.00000E+00
    0.00000E+00         0.00000E+00        -0.18268E+04
 
   -0.61408E+04         0.13132E+03         0.00000E+00
    0.13132E+03        -0.98779E+01         0.00000E+00
    0.00000E+00         0.00000E+00        -0.18452E+04
 
   -0.61753E+04         0.23295E+03         0.00000E+00
    0.23295E+03        -0.27408E+02         0.00000E+00
    0.00000E+00         0.00000E+00        -0.18608E+04
 
   -0.61896E+04         0.34410E+03         0.00000E+00
    0.34410E+03        -0.54889E+02         0.00000E+00
    0.00000E+00         0.00000E+00        -0.18733E+04
 
   -0.61823E+04         0.46326E+03         0.00000E+00
    0.46326E+03        -0.92925E+02         0.00000E+00
    0.00000E+00         0.00000E+00        -0.18826E+04
 
   -0.61521E+04         0.58895E+03         0.00000E+00
    0.58895E+03        -0.14195E+03         0.00000E+00
    0.00000E+00         0.00000E+00        -0.18882E+04
 
   -0.60981E+04         0.71966E+03         0.00000E+00
    0.71966E+03        -0.20224E+03         0.00000E+00
    0.00000E+00         0.00000E+00        -0.18901E+04
 
   -0.60195E+04         0.85390E+03         0.00000E+00
    0.85390E+03        -0.27386E+03         0.00000E+00
    0.00000E+00         0.00000E+00        -0.18880E+04
 
   -0.59157E+04         0.99022E+03         0.00000E+00
    0.99022E+03        -0.35673E+03         0.00000E+00
    0.00000E+00         0.00000E+00        -0.18817E+04
 
   -0.57865E+04         0.11273E+04         0.00000E+00
    0.11273E+04        -0.45058E+03         0.00000E+00
    0.00000E+00         0.00000E+00        -0.18711E+04
 
   -0.56319E+04         0.12638E+04         0.00000E+00
    0.12638E+04        -0.55499E+03         0.00000E+00
    0.00000E+00         0.00000E+00        -0.18561E+04
 
   -0.54519E+04         0.13987E+04         0.00000E+00
    0.13987E+04        -0.66943E+03         0.00000E+00
    0.00000E+00         0.00000E+00        -0.18364E+04
 
   -0.52469E+04         0.15310E+04         0.00000E+00
    0.15310E+04        -0.79328E+03         0.00000E+00
    0.00000E+00         0.00000E+00        -0.18120E+04
 
   -0.50170E+04         0.16599E+04         0.00000E+00
    0.16599E+04        -0.92589E+03         0.00000E+00
    0.00000E+00         0.00000E+00        -0.17829E+04
 
   -0.47627E+04         0.17848E+04         0.00000E+00
    0.17848E+04        -0.10666E+04         0.00000E+00
    0.00000E+00         0.00000E+00        -0.17488E+04
 
   -0.44843E+04         0.19050E+04         0.00000E+00
    0.19050E+04        -0.12148E+04         0.00000E+00
    0.00000E+00         0.00000E+00        -0.17098E+04
 
   -0.41821E+04         0.20201E+04         0.00000E+00
    0.20201E+04        -0.13700E+04         0.00000E+00
    0.00000E+00         0.00000E+00        -0.16656E+04
 
   -0.38562E+04         0.21297E+04         0.00000E+00
    0.21297E+04        -0.15318E+04         0.00000E+00
    0.00000E+00         0.00000E+00        -0.16164E+04
 
   -0.35069E+04         0.22333E+04         0.00000E+00
    0.22333E+04        -0.16996E+04         0.00000E+00
    0.00000E+00         0.00000E+00        -0.15620E+04
 
   -0.31340E+04         0.23304E+04         0.00000E+00
    0.23304E+04        -0.18735E+04         0.00000E+00
    0.00000E+00         0.00000E+00        -0.15023E+04
 
   -0.27377E+04         0.24204E+04         0.00000E+00
    0.24204E+04        -0.20531E+04         0.00000E+00
    0.00000E+00         0.00000E+00        -0.14372E+04
 
   -0.23179E+04         0.25024E+04         0.00000E+00
    0.25024E+04        -0.22383E+04         0.00000E+00
    0.00000E+00         0.00000E+00        -0.13669E+04
 
   -0.18744E+04         0.25753E+04         0.00000E+00
    0.25753E+04        -0.24293E+04         0.00000E+00
    0.00000E+00         0.00000E+00        -0.12911E+04
 
   -0.14074E+04         0.26380E+04         0.00000E+00
    0.26380E+04        -0.26258E+04         0.00000E+00
    0.00000E+00         0.00000E+00        -0.12100E+04
 
   -0.60072E+04         0.36839E+02         0.00000E+00
    0.36839E+02        -0.14067E+01         0.00000E+00
    0.00000E+00         0.00000E+00        -0.18026E+04
 
   -0.60489E+04         0.11908E+03         0.00000E+00
    0.11908E+03        -0.90605E+01         0.00000E+00
    0.00000E+00         0.00000E+00        -0.18174E+04
 
   -0.60736E+04         0.21147E+03         0.00000E+00
    0.21147E+03        -0.25215E+02         0.00000E+00
    0.00000E+00         0.00000E+00        -0.18296E+04
 
   -0.60794E+04         0.31269E+03         0.00000E+00
    0.31269E+03        -0.50622E+02         0.00000E+00
    0.00000E+00         0.00000E+00        -0.18390E+04
 
   -0.60651E+04         0.42142E+03         0.00000E+00
    0.42142E+03        -0.85877E+02         0.00000E+00
    0.00000E+00         0.00000E+00        -0.18453E+04
 
   -0.60293E+04         0.53631E+03         0.00000E+00
    0.53631E+03        -0.13142E+03         0.00000E+00
    0.00000E+00         0.00000E+00        -0.18482E+04
 
   -0.59710E+04         0.65603E+03         0.00000E+00
    0.65603E+03        -0.18754E+03         0.00000E+00
    0.00000E+00         0.00000E+00        -0.18476E+04
 
   -0.58895E+04         0.77926E+03         0.00000E+00
    0.77926E+03        -0.25436E+03         0.00000E+00
    0.00000E+00         0.00000E+00        -0.18432E+04
 
   -0.57842E+04         0.90473E+03         0.00000E+00
    0.90473E+03        -0.33184E+03         0.00000E+00
    0.00000E+00         0.00000E+00        -0.18348E+04
 
   -0.56548E+04         0.10312E+04         0.00000E+00
    0.10312E+04        -0.41981E+03         0.00000E+00
    0.00000E+00         0.00000E+00        -0.18224E+04
 
   -0.55010E+04         0.11576E+04         0.00000E+00
    0.11576E+04        -0.51797E+03         0.00000E+00
    0.00000E+00         0.00000E+00        -0.18057E+04
 
   -0.53229E+04         0.12828E+04         0.00000E+00
    0.12828E+04        -0.62591E+03         0.00000E+00
    0.00000E+00         0.00000E+00        -0.17846E+04
 
   -0.51206E+04         0.14061E+04         0.00000E+00
    0.14061E+04        -0.74314E+03         0.00000E+00
    0.00000E+00         0.00000E+00        -0.17591E+04
 
   -0.48942E+04         0.15265E+04         0.00000E+00
    0.15265E+04        -0.86915E+03         0.00000E+00
    0.00000E+00         0.00000E+00        -0.17290E+04
 
   -0.46439E+04         0.16435E+04         0.00000E+00
    0.16435E+04        -0.10034E+04         0.00000E+00
    0.00000E+00         0.00000E+00        -0.16942E+04
 
   -0.43701E+04         0.17563E+04         0.00000E+00
    0.17563E+04        -0.11454E+04         0.00000E+00
    0.00000E+00         0.00000E+00        -0.16547E+04
 
   -0.40730E+04         0.18646E+04         0.00000E+00
    0.18646E+04        -0.12946E+04         0.00000E+00
    0.00000E+00         0.00000E+00        -0.16103E+04
 
   -0.37527E+04         0.19677E+04         0.00000E+00
    0.19677E+04        -0.14507E+04         0.00000E+00
    0.00000E+00         0.00000E+00        -0.15610E+04
 
   -0.34095E+04         0.20651E+04         0.00000E+00
    0.20651E+04        -0.16133E+04         0.00000E+00
    0.00000E+00         0.00000E+00        -0.15068E+04
 
   -0.30434E+04         0.21562E+04         0.00000E+00
    0.21562E+04        -0.17821E+04         0.00000E+00
    0.00000E+00         0.00000E+00        -0.14476E+04
 
   -0.26545E+04         0.22403E+04         0.00000E+00
    0.22403E+04        -0.19569E+04         0.00000E+00
    0.00000E+00         0.00000E+00        -0.13834E+04
 
   -0.22431E+04         0.23166E+04         0.00000E+00
    0.23166E+04        -0.21375E+04         0.00000E+00
    0.00000E+00         0.00000E+00        -0.13142E+04
 
   -0.18092E+04         0.23840E+04         0.00000E+00
    0.23840E+04        -0.23237E+04         0.00000E+00
    0.00000E+00         0.00000E+00        -0.12399E+04
 
   -0.13532E+04         0.24412E+04         0.00000E+00
    0.24412E+04        -0.25153E+04         0.00000E+00
    0.00000E+00         0.00000E+00        -0.11606E+04
 
   -0.59342E+04         0.33325E+02         0.00000E+00
    0.33325E+02        -0.12923E+01         0.00000E+00
    0.00000E+00         0.00000E+00        -0.17806E+04
 
   -0.59656E+04         0.10781E+03         0.00000E+00
    0.10781E+03        -0.83502E+01         0.00000E+00
    0.00000E+00         0.00000E+00        -0.17922E+04
 
   -0.59811E+04         0.19160E+03         0.00000E+00
    0.19160E+03        -0.23301E+02         0.00000E+00
    0.00000E+00         0.00000E+00        -0.18013E+04
 
   -0.59791E+04         0.28356E+03         0.00000E+00
    0.28356E+03        -0.46889E+02         0.00000E+00
    0.00000E+00         0.00000E+00        -0.18078E+04
 
   -0.59581E+04         0.38251E+03         0.00000E+00
    0.38251E+03        -0.79708E+02         0.00000E+00
    0.00000E+00         0.00000E+00        -0.18113E+04
 
   -0.59170E+04         0.48725E+03         0.00000E+00
    0.48725E+03        -0.12221E+03         0.00000E+00
    0.00000E+00         0.00000E+00        -0.18118E+04
 
   -0.58546E+04         0.59661E+03         0.00000E+00
    0.59661E+03        -0.17469E+03         0.00000E+00
    0.00000E+00         0.00000E+00        -0.18088E+04
 
   -0.57703E+04         0.70940E+03         0.00000E+00
    0.70940E+03        -0.23733E+03         0.00000E+00
    0.00000E+00         0.00000E+00        -0.18023E+04
 
   -0.56633E+04         0.82449E+03         0.00000E+00
    0.82449E+03        -0.31014E+03         0.00000E+00
    0.00000E+00         0.00000E+00        -0.17920E+04
 
   -0.55333E+04         0.94081E+03         0.00000E+00
    0.94081E+03        -0.39302E+03         0.00000E+00
    0.00000E+00         0.00000E+00        -0.17779E+04
 
   -0.53799E+04         0.10573E+04         0.00000E+00
    0.10573E+04        -0.48576E+03         0.00000E+00
    0.00000E+00         0.00000E+00        -0.17597E+04
 
   -0.52032E+04         0.11731E+04         0.00000E+00
    0.11731E+04        -0.58805E+03         0.00000E+00
    0.00000E+00         0.00000E+00        -0.17374E+04
 
   -0.50030E+04         0.12874E+04         0.00000E+00
    0.12874E+04        -0.69952E+03         0.00000E+00
    0.00000E+00         0.00000E+00        -0.17108E+04
 
   -0.47795E+04         0.13993E+04         0.00000E+00
    0.13993E+04        -0.81976E+03         0.00000E+00
    0.00000E+00         0.00000E+00        -0.16798E+04
 
   -0.45329E+04         0.15082E+04         0.00000E+00
    0.15082E+04        -0.94831E+03         0.00000E+00
    0.00000E+00         0.00000E+00        -0.16444E+04
 
   -0.42632E+04         0.16134E+04         0.00000E+00
    0.16134E+04        -0.10847E+04         0.00000E+00
    0.00000E+00         0.00000E+00        -0.16044E+04
 
   -0.39707E+04         0.17145E+04         0.00000E+00
    0.17145E+04        -0.12286E+04         0.00000E+00
    0.00000E+00         0.00000E+00        -0.15598E+04
 
   -0.36557E+04         0.18108E+04         0.00000E+00
    0.18108E+04        -0.13796E+04         0.00000E+00
    0.00000E+00         0.00000E+00        -0.15106E+04
 
   -0.33183E+04         0.19018E+04         0.00000E+00
    0.19018E+04        -0.15373E+04         0.00000E+00
    0.00000E+00         0.00000E+00        -0.14567E+04
 
   -0.29587E+04         0.19867E+04         0.00000E+00
    0.19867E+04        -0.17015E+04         0.00000E+00
    0.00000E+00         0.00000E+00        -0.13980E+04
 
   -0.25772E+04         0.20649E+04         0.00000E+00
    0.20649E+04        -0.18717E+04         0.00000E+00
    0.00000E+00         0.00000E+00        -0.13347E+04
 
   -0.21739E+04         0.21354E+04         0.00000E+00
    0.21354E+04        -0.20478E+04         0.00000E+00
    0.00000E+00         0.00000E+00        -0.12665E+04
 
   -0.17494E+04         0.21973E+04         0.00000E+00
    0.21973E+04        -0.22295E+04         0.00000E+00
    0.00000E+00         0.00000E+00        -0.11937E+04
 
   -0.13041E+04         0.22494E+04         0.00000E+00
    0.22494E+04        -0.24165E+04         0.00000E+00
    0.00000E+00         0.00000E+00        -0.11162E+04
 
   -0.58682E+04         0.30084E+02         0.00000E+00
    0.30084E+02        -0.11952E+01         0.00000E+00
    0.00000E+00         0.00000E+00        -0.17608E+04
 
   -0.58901E+04         0.97362E+02         0.00000E+00
    0.97362E+02        -0.77424E+01         0.00000E+00
    0.00000E+00         0.00000E+00        -0.17694E+04
 
   -0.58973E+04         0.17314E+03         0.00000E+00
    0.17314E+03        -0.21655E+02         0.00000E+00
    0.00000E+00         0.00000E+00        -0.17757E+04
 
   -0.58880E+04         0.25642E+03         0.00000E+00
    0.25642E+03        -0.43667E+02         0.00000E+00
    0.00000E+00         0.00000E+00        -0.17795E+04
 
   -0.58609E+04         0.34616E+03         0.00000E+00
    0.34616E+03        -0.74372E+02         0.00000E+00
    0.00000E+00         0.00000E+00        -0.17806E+04
 
   -0.58147E+04         0.44131E+03         0.00000E+00
    0.44131E+03        -0.11423E+03         0.00000E+00
    0.00000E+00         0.00000E+00        -0.17787E+04
 
   -0.57484E+04         0.54083E+03         0.00000E+00
    0.54083E+03        -0.16357E+03         0.00000E+00
    0.00000E+00         0.00000E+00        -0.17736E+04
 
   -0.56612E+04         0.64366E+03         0.00000E+00
    0.64366E+03        -0.22258E+03         0.00000E+00
    0.00000E+00         0.00000E+00        -0.17651E+04
 
   -0.55524E+04         0.74882E+03         0.00000E+00
    0.74882E+03        -0.29134E+03         0.00000E+00
    0.00000E+00         0.00000E+00        -0.17531E+04
 
   -0.54216E+04         0.85531E+03         0.00000E+00
    0.85531E+03        -0.36982E+03         0.00000E+00
    0.00000E+00         0.00000E+00        -0.17374E+04
 
   -0.52684E+04         0.96224E+03         0.00000E+00
    0.96224E+03        -0.45787E+03         0.00000E+00
    0.00000E+00         0.00000E+00        -0.17179E+04
 
   -0.50927E+04         0.10687E+04         0.00000E+00
    0.10687E+04        -0.55527E+03         0.00000E+00
    0.00000E+00         0.00000E+00        -0.16944E+04
 
   -0.48943E+04         0.11740E+04         0.00000E+00
    0.11740E+04        -0.66174E+03         0.00000E+00
    0.00000E+00         0.00000E+00        -0.16668E+04
 
   -0.46732E+04         0.12774E+04         0.00000E+00
    0.12774E+04        -0.77693E+03         0.00000E+00
    0.00000E+00         0.00000E+00        -0.16350E+04
 
   -0.44297E+04         0.13781E+04         0.00000E+00
    0.13781E+04        -0.90047E+03         0.00000E+00
    0.00000E+00         0.00000E+00        -0.15990E+04
 
   -0.41637E+04         0.14757E+04         0.00000E+00
    0.14757E+04        -0.10320E+04         0.00000E+00
    0.00000E+00         0.00000E+00        -0.15587E+04
 
   -0.38755E+04         0.15694E+04         0.00000E+00
    0.15694E+04        -0.11711E+04         0.00000E+00
    0.00000E+00         0.00000E+00        -0.15140E+04
 
   -0.35654E+04         0.16587E+04         0.00000E+00
    0.16587E+04        -0.13175E+04         0.00000E+00
    0.00000E+00         0.00000E+00        -0.14649E+04
 
   -0.32335E+04         0.17430E+04         0.00000E+00
    0.17430E+04        -0.14707E+04         0.00000E+00
    0.00000E+00         0.00000E+00        -0.14113E+04
 
   -0.28801E+04         0.18216E+04         0.00000E+00
    0.18216E+04        -0.16305E+04         0.00000E+00
    0.00000E+00         0.00000E+00        -0.13532E+04
 
   -0.25056E+04         0.18938E+04         0.00000E+00
    0.18938E+04        -0.17965E+04         0.00000E+00
    0.00000E+00         0.00000E+00        -0.12906E+04
 
   -0.21104E+04         0.19586E+04         0.00000E+00
    0.19586E+04        -0.19684E+04         0.00000E+00
    0.00000E+00         0.00000E+00        -0.12236E+04
 
   -0.16949E+04         0.20152E+04         0.00000E+00
    0.20152E+04        -0.21458E+04         0.00000E+00
    0.00000E+00         0.00000E+00        -0.11522E+04
 
   -0.12598E+04         0.20623E+04         0.00000E+00
    0.20623E+04        -0.23282E+04         0.00000E+00
    0.00000E+00         0.00000E+00        -0.10764E+04
 
   -0.58087E+04         0.27075E+02         0.00000E+00
    0.27075E+02        -0.11139E+01         0.00000E+00
    0.00000E+00         0.00000E+00        -0.17429E+04
 
   -0.58221E+04         0.87631E+02         0.00000E+00
    0.87631E+02        -0.72296E+01         0.00000E+00
    0.00000E+00         0.00000E+00        -0.17488E+04
 
   -0.58216E+04         0.15589E+03         0.00000E+00
    0.15589E+03        -0.20257E+02         0.00000E+00
    0.00000E+00         0.00000E+00        -0.17526E+04
 
   -0.58056E+04         0.23099E+03         0.00000E+00
    0.23099E+03        -0.40919E+02         0.00000E+00
    0.00000E+00         0.00000E+00        -0.17540E+04
 
   -0.57728E+04         0.31202E+03         0.00000E+00
    0.31202E+03        -0.69808E+02         0.00000E+00
    0.00000E+00         0.00000E+00        -0.17528E+04
 
   -0.57219E+04         0.39806E+03         0.00000E+00
    0.39806E+03        -0.10739E+03         0.00000E+00
    0.00000E+00         0.00000E+00        -0.17488E+04
 
   -0.56518E+04         0.48820E+03         0.00000E+00
    0.48820E+03        -0.15401E+03         0.00000E+00
    0.00000E+00         0.00000E+00        -0.17418E+04
 
   -0.55619E+04         0.58150E+03         0.00000E+00
    0.58150E+03        -0.20990E+03         0.00000E+00
    0.00000E+00         0.00000E+00        -0.17315E+04
 
   -0.54513E+04         0.67708E+03         0.00000E+00
    0.67708E+03        -0.27518E+03         0.00000E+00
    0.00000E+00         0.00000E+00        -0.17179E+04
 
   -0.53195E+04         0.77406E+03         0.00000E+00
    0.77406E+03        -0.34986E+03         0.00000E+00
    0.00000E+00         0.00000E+00        -0.17008E+04
 
   -0.51663E+04         0.87162E+03         0.00000E+00
    0.87162E+03        -0.43386E+03         0.00000E+00
    0.00000E+00         0.00000E+00        -0.16800E+04
 
   -0.49912E+04         0.96898E+03         0.00000E+00
    0.96898E+03        -0.52703E+03         0.00000E+00
    0.00000E+00         0.00000E+00        -0.16555E+04
 
   -0.47942E+04         0.10654E+04         0.00000E+00
    0.10654E+04        -0.62915E+03         0.00000E+00
    0.00000E+00         0.00000E+00        -0.16270E+04
 
   -0.45753E+04         0.11602E+04         0.00000E+00
    0.11602E+04        -0.73993E+03         0.00000E+00
    0.00000E+00         0.00000E+00        -0.15946E+04
 
   -0.43344E+04         0.12528E+04         0.00000E+00
    0.12528E+04        -0.85908E+03         0.00000E+00
    0.00000E+00         0.00000E+00        -0.15581E+04
 
   -0.40718E+04         0.13425E+04         0.00000E+00
    0.13425E+04        -0.98627E+03         0.00000E+00
    0.00000E+00         0.00000E+00        -0.15174E+04
 
   -0.37876E+04         0.14288E+04         0.00000E+00
    0.14288E+04        -0.11211E+04         0.00000E+00
    0.00000E+00         0.00000E+00        -0.14726E+04
 
   -0.34820E+04         0.15110E+04         0.00000E+00
    0.15110E+04        -0.12634E+04         0.00000E+00
    0.00000E+00         0.00000E+00        -0.14236E+04
 
   -0.31553E+04         0.15885E+04         0.00000E+00
    0.15885E+04        -0.14125E+04         0.00000E+00
    0.00000E+00         0.00000E+00        -0.13703E+04
 
   -0.28078E+04         0.16607E+04         0.00000E+00
    0.16607E+04        -0.15684E+04         0.00000E+00
    0.00000E+00         0.00000E+00        -0.13128E+04
 
   -0.24399E+04         0.17268E+04         0.00000E+00
    0.17268E+04        -0.17304E+04         0.00000E+00
    0.00000E+00         0.00000E+00        -0.12511E+04
 
   -0.20523E+04         0.17860E+04         0.00000E+00
    0.17860E+04        -0.18983E+04         0.00000E+00
    0.00000E+00         0.00000E+00        -0.11852E+04
 
   -0.16454E+04         0.18373E+04         0.00000E+00
    0.18373E+04        -0.20716E+04         0.00000E+00
    0.00000E+00         0.00000E+00        -0.11151E+04
 
   -0.12200E+04         0.18798E+04         0.00000E+00
    0.18798E+04        -0.22497E+04         0.00000E+00
    0.00000E+00         0.00000E+00        -0.10409E+04
 
   -0.57553E+04         0.24257E+02         0.00000E+00
    0.24257E+02        -0.10467E+01         0.00000E+00
    0.00000E+00         0.00000E+00        -0.17269E+04
 
   -0.57610E+04         0.78499E+02         0.00000E+00
    0.78499E+02        -0.68025E+01         0.00000E+00
    0.00000E+00         0.00000E+00        -0.17303E+04
 
   -0.57536E+04         0.13967E+03         0.00000E+00
    0.13967E+03        -0.19085E+02         0.00000E+00
    0.00000E+00         0.00000E+00        -0.17318E+04
 
   -0.57315E+04         0.20702E+03         0.00000E+00
    0.20702E+03        -0.38602E+02         0.00000E+00
    0.00000E+00         0.00000E+00        -0.17310E+04
 
   -0.56934E+04         0.27977E+03         0.00000E+00
    0.27977E+03        -0.65943E+02         0.00000E+00
    0.00000E+00         0.00000E+00        -0.17278E+04
 
   -0.56381E+04         0.35713E+03         0.00000E+00
    0.35713E+03        -0.10158E+03         0.00000E+00
    0.00000E+00         0.00000E+00        -0.17219E+04
 
   -0.55646E+04         0.43828E+03         0.00000E+00
    0.43828E+03        -0.14588E+03         0.00000E+00
    0.00000E+00         0.00000E+00        -0.17131E+04
 
   -0.54720E+04         0.52241E+03         0.00000E+00
    0.52241E+03        -0.19910E+03         0.00000E+00
    0.00000E+00         0.00000E+00        -0.17013E+04
 
   -0.53596E+04         0.60873E+03         0.00000E+00
    0.60873E+03        -0.26138E+03         0.00000E+00
    0.00000E+00         0.00000E+00        -0.16863E+04
 
   -0.52268E+04         0.69646E+03         0.00000E+00
    0.69646E+03        -0.33280E+03         0.00000E+00
    0.00000E+00         0.00000E+00        -0.16679E+04
 
   -0.50733E+04         0.78486E+03         0.00000E+00
    0.78486E+03        -0.41331E+03         0.00000E+00
    0.00000E+00         0.00000E+00        -0.16460E+04
 
   -0.48987E+04         0.87322E+03         0.00000E+00
    0.87322E+03        -0.50283E+03         0.00000E+00
    0.00000E+00         0.00000E+00        -0.16204E+04
 
   -0.47028E+04         0.96088E+03         0.00000E+00
    0.96088E+03        -0.60118E+03         0.00000E+00
    0.00000E+00         0.00000E+00        -0.15912E+04
 
   -0.44857E+04         0.10472E+04         0.00000E+00
    0.10472E+04        -0.70813E+03         0.00000E+00
    0.00000E+00         0.00000E+00        -0.15581E+04
 
   -0.42473E+04         0.11316E+04         0.00000E+00
    0.11316E+04        -0.82344E+03         0.00000E+00
    0.00000E+00         0.00000E+00        -0.15212E+04
 
   -0.39876E+04         0.12134E+04         0.00000E+00
    0.12134E+04        -0.94680E+03         0.00000E+00
    0.00000E+00         0.00000E+00        -0.14803E+04
 
   -0.37070E+04         0.12921E+04         0.00000E+00
    0.12921E+04        -0.10779E+04         0.00000E+00
    0.00000E+00         0.00000E+00        -0.14355E+04
 
   -0.34055E+04         0.13671E+04         0.00000E+00
    0.13671E+04        -0.12164E+04         0.00000E+00
    0.00000E+00         0.00000E+00        -0.13866E+04
 
   -0.30836E+04         0.14378E+04         0.00000E+00
    0.14378E+04        -0.13619E+04         0.00000E+00
    0.00000E+00         0.00000E+00        -0.13337E+04
 
   -0.27417E+04         0.15035E+04         0.00000E+00
    0.15035E+04        -0.15141E+04         0.00000E+00
    0.00000E+00         0.00000E+00        -0.12767E+04
 
   -0.23801E+04         0.15636E+04         0.00000E+00
    0.15636E+04        -0.16725E+04         0.00000E+00
    0.00000E+00         0.00000E+00        -0.12158E+04
 
   -0.19996E+04         0.16172E+04         0.00000E+00
    0.16172E+04        -0.18366E+04         0.00000E+00
    0.00000E+00         0.00000E+00        -0.11509E+04
 
   -0.16007E+04         0.16635E+04         0.00000E+00
    0.16635E+04        -0.20061E+04         0.00000E+00
    0.00000E+00         0.00000E+00        -0.10820E+04
 
   -0.11845E+04         0.17015E+04         0.00000E+00
    0.17015E+04        -0.21802E+04         0.00000E+00
    0.00000E+00         0.00000E+00        -0.10094E+04
 
   -0.57075E+04         0.21598E+02         0.00000E+00
    0.21598E+02        -0.99205E+00         0.00000E+00
    0.00000E+00         0.00000E+00        -0.17126E+04
 
   -0.57064E+04         0.69868E+02         0.00000E+00
    0.69868E+02        -0.64512E+01         0.00000E+00
    0.00000E+00         0.00000E+00        -0.17138E+04
 
   -0.56928E+04         0.12431E+03         0.00000E+00
    0.12431E+03        -0.18113E+02         0.00000E+00
    0.00000E+00         0.00000E+00        -0.17133E+04
 
   -0.56652E+04         0.18428E+03         0.00000E+00
    0.18428E+03        -0.36670E+02         0.00000E+00
    0.00000E+00         0.00000E+00        -0.17106E+04
 
   -0.56223E+04         0.24914E+03         0.00000E+00
    0.24914E+03        -0.62704E+02         0.00000E+00
    0.00000E+00         0.00000E+00        -0.17055E+04
 
   -0.55630E+04         0.31817E+03         0.00000E+00
    0.31817E+03        -0.96696E+02         0.00000E+00
    0.00000E+00         0.00000E+00        -0.16979E+04
 
   -0.54863E+04         0.39067E+03         0.00000E+00
    0.39067E+03        -0.13902E+03         0.00000E+00
    0.00000E+00         0.00000E+00        -0.16876E+04
 
   -0.53911E+04         0.46594E+03         0.00000E+00
    0.46594E+03        -0.18996E+03         0.00000E+00
    0.00000E+00         0.00000E+00        -0.16743E+04
 
   -0.52770E+04         0.54328E+03         0.00000E+00
    0.54328E+03        -0.24969E+03         0.00000E+00
    0.00000E+00         0.00000E+00        -0.16580E+04
 
   -0.51432E+04         0.62199E+03         0.00000E+00
    0.62199E+03        -0.31831E+03         0.00000E+00
    0.00000E+00         0.00000E+00        -0.16384E+04
 
   -0.49893E+04         0.70141E+03         0.00000E+00
    0.70141E+03        -0.39584E+03         0.00000E+00
    0.00000E+00         0.00000E+00        -0.16155E+04
 
   -0.48150E+04         0.78092E+03         0.00000E+00
    0.78092E+03        -0.48222E+03         0.00000E+00
    0.00000E+00         0.00000E+00        -0.15892E+04
 
   -0.46201E+04         0.85989E+03         0.00000E+00
    0.85989E+03        -0.57731E+03         0.00000E+00
    0.00000E+00         0.00000E+00        -0.15592E+04
 
   -0.44045E+04         0.93774E+03         0.00000E+00
    0.93774E+03        -0.68095E+03         0.00000E+00
    0.00000E+00         0.00000E+00        -0.15256E+04
 
   -0.41681E+04         0.10139E+04         0.00000E+00
    0.10139E+04        -0.79290E+03         0.00000E+00
    0.00000E+00         0.00000E+00        -0.14883E+04
 
   -0.39112E+04         0.10878E+04         0.00000E+00
    0.10878E+04        -0.91291E+03         0.00000E+00
    0.00000E+00         0.00000E+00        -0.14472E+04
 
   -0.36337E+04         0.11590E+04         0.00000E+00
    0.11590E+04        -0.10407E+04         0.00000E+00
    0.00000E+00         0.00000E+00        -0.14023E+04
 
   -0.33361E+04         0.12267E+04         0.00000E+00
    0.12267E+04        -0.11758E+04         0.00000E+00
    0.00000E+00         0.00000E+00        -0.13536E+04
 
   -0.30187E+04         0.12906E+04         0.00000E+00
    0.12906E+04        -0.13180E+04         0.00000E+00
    0.00000E+00         0.00000E+00        -0.13010E+04
 
   -0.26818E+04         0.13499E+04         0.00000E+00
    0.13499E+04        -0.14669E+04         0.00000E+00
    0.00000E+00         0.00000E+00        -0.12446E+04
 
   -0.23261E+04         0.14039E+04         0.00000E+00
    0.14039E+04        -0.16220E+04         0.00000E+00
    0.00000E+00         0.00000E+00        -0.11844E+04
 
   -0.19521E+04         0.14520E+04         0.00000E+00
    0.14520E+04        -0.17828E+04         0.00000E+00
    0.00000E+00         0.00000E+00        -0.11205E+04
 
   -0.15608E+04         0.14934E+04         0.00000E+00
    0.14934E+04        -0.19487E+04         0.00000E+00
    0.00000E+00         0.00000E+00        -0.10528E+04
 
   -0.11530E+04         0.15271E+04         0.00000E+00
    0.15271E+04        -0.21191E+04         0.00000E+00
    0.00000E+00         0.00000E+00        -0.98165E+03
 
   -0.56652E+04         0.19066E+02         0.00000E+00
    0.19066E+02        -0.94813E+00         0.00000E+00
    0.00000E+00         0.00000E+00        -0.16999E+04
 
   -0.56580E+04         0.61647E+02         0.00000E+00
    0.61647E+02        -0.61660E+01         0.00000E+00
    0.00000E+00         0.00000E+00        -0.16993E+04
 
   -0.56389E+04         0.10966E+03         0.00000E+00
    0.10966E+03        -0.17317E+02         0.00000E+00
    0.00000E+00         0.00000E+00        -0.16969E+04
 
   -0.56064E+04         0.16259E+03         0.00000E+00
    0.16259E+03        -0.35076E+02         0.00000E+00
    0.00000E+00         0.00000E+00        -0.16924E+04
 
   -0.55592E+04         0.21985E+03         0.00000E+00
    0.21985E+03        -0.60018E+02         0.00000E+00
    0.00000E+00         0.00000E+00        -0.16858E+04
 
   -0.54963E+04         0.28087E+03         0.00000E+00
    0.28087E+03        -0.92626E+02         0.00000E+00
    0.00000E+00         0.00000E+00        -0.16767E+04
 
   -0.54165E+04         0.34503E+03         0.00000E+00
    0.34503E+03        -0.13329E+03         0.00000E+00
    0.00000E+00         0.00000E+00        -0.16649E+04
 
   -0.53191E+04         0.41171E+03         0.00000E+00
    0.41171E+03        -0.18230E+03         0.00000E+00
    0.00000E+00         0.00000E+00        -0.16504E+04
 
   -0.52033E+04         0.48030E+03         0.00000E+00
    0.48030E+03        -0.23987E+03         0.00000E+00
    0.00000E+00         0.00000E+00        -0.16329E+04
 
   -0.50684E+04         0.55019E+03         0.00000E+00
    0.55019E+03        -0.30612E+03         0.00000E+00
    0.00000E+00         0.00000E+00        -0.16124E+04
 
   -0.49141E+04         0.62081E+03         0.00000E+00
    0.62081E+03        -0.38110E+03         0.00000E+00
    0.00000E+00         0.00000E+00        -0.15886E+04
 
   -0.47400E+04         0.69158E+03         0.00000E+00
    0.69158E+03        -0.46479E+03         0.00000E+00
    0.00000E+00         0.00000E+00        -0.15614E+04
 
   -0.45458E+04         0.76195E+03         0.00000E+00
    0.76195E+03        -0.55709E+03         0.00000E+00
    0.00000E+00         0.00000E+00        -0.15309E+04
 
   -0.43315E+04         0.83139E+03         0.00000E+00
    0.83139E+03        -0.65787E+03         0.00000E+00
    0.00000E+00         0.00000E+00        -0.14968E+04
 
   -0.40970E+04         0.89938E+03         0.00000E+00
    0.89938E+03        -0.76692E+03         0.00000E+00
    0.00000E+00         0.00000E+00        -0.14592E+04
 
   -0.38424E+04         0.96540E+03         0.00000E+00
    0.96540E+03        -0.88400E+03         0.00000E+00
    0.00000E+00         0.00000E+00        -0.14179E+04
 
   -0.35679E+04         0.10289E+04         0.00000E+00
    0.10289E+04        -0.10088E+04         0.00000E+00
    0.00000E+00         0.00000E+00        -0.13730E+04
 
   -0.32738E+04         0.10895E+04         0.00000E+00
    0.10895E+04        -0.11410E+04         0.00000E+00
    0.00000E+00         0.00000E+00        -0.13244E+04
 
   -0.29603E+04         0.11465E+04         0.00000E+00
    0.11465E+04        -0.12803E+04         0.00000E+00
    0.00000E+00         0.00000E+00        -0.12722E+04
 
   -0.26281E+04         0.11993E+04         0.00000E+00
    0.11993E+04        -0.14262E+04         0.00000E+00
    0.00000E+00         0.00000E+00        -0.12163E+04
 
   -0.22777E+04         0.12475E+04         0.00000E+00
    0.12475E+04        -0.15783E+04         0.00000E+00
    0.00000E+00         0.00000E+00        -0.11568E+04
 
   -0.19098E+04         0.12902E+04         0.00000E+00
    0.12902E+04        -0.17360E+04         0.00000E+00
    0.00000E+00         0.00000E+00        -0.10937E+04
 
   -0.15254E+04         0.13268E+04         0.00000E+00
    0.13268E+04        -0.18987E+04         0.00000E+00
    0.00000E+00         0.00000E+00        -0.10272E+04
 
   -0.11253E+04         0.13564E+04         0.00000E+00
    0.13564E+04        -0.20658E+04         0.00000E+00
    0.00000E+00         0.00000E+00        -0.95734E+03
 
   -0.56281E+04         0.16637E+02         0.00000E+00
    0.16637E+02        -0.91333E+00         0.00000E+00
    0.00000E+00         0.00000E+00        -0.16887E+04
 
   -0.56156E+04         0.53761E+02         0.00000E+00
    0.53761E+02        -0.59373E+01         0.00000E+00
    0.00000E+00         0.00000E+00        -0.16865E+04
 
   -0.55916E+04         0.95609E+02         0.00000E+00
    0.95609E+02        -0.16673E+02         0.00000E+00
    0.00000E+00         0.00000E+00        -0.16825E+04
 
   -0.55548E+04         0.14175E+03         0.00000E+00
    0.14175E+03        -0.33776E+02         0.00000E+00
    0.00000E+00         0.00000E+00        -0.16766E+04
 
   -0.55038E+04         0.19170E+03         0.00000E+00
    0.19170E+03        -0.57815E+02         0.00000E+00
    0.00000E+00         0.00000E+00        -0.16685E+04
 
   -0.54376E+04         0.24497E+03         0.00000E+00
    0.24497E+03        -0.89273E+02         0.00000E+00
    0.00000E+00         0.00000E+00        -0.16581E+04
 
   -0.53552E+04         0.30103E+03         0.00000E+00
    0.30103E+03        -0.12854E+03         0.00000E+00
    0.00000E+00         0.00000E+00        -0.16451E+04
 
   -0.52556E+04         0.35935E+03         0.00000E+00
    0.35935E+03        -0.17594E+03         0.00000E+00
    0.00000E+00         0.00000E+00        -0.16295E+04
 
   -0.51383E+04         0.41940E+03         0.00000E+00
    0.41940E+03        -0.23169E+03         0.00000E+00
    0.00000E+00         0.00000E+00        -0.16110E+04
 
   -0.50024E+04         0.48067E+03         0.00000E+00
    0.48067E+03        -0.29594E+03         0.00000E+00
    0.00000E+00         0.00000E+00        -0.15895E+04
 
   -0.48477E+04         0.54263E+03         0.00000E+00
    0.54263E+03        -0.36877E+03         0.00000E+00
    0.00000E+00         0.00000E+00        -0.15649E+04
 
   -0.46737E+04         0.60478E+03         0.00000E+00
    0.60478E+03        -0.45018E+03         0.00000E+00
    0.00000E+00         0.00000E+00        -0.15372E+04
 
   -0.44801E+04         0.66664E+03         0.00000E+00
    0.66664E+03        -0.54011E+03         0.00000E+00
    0.00000E+00         0.00000E+00        -0.15061E+04
 
   -0.42669E+04         0.72773E+03         0.00000E+00
    0.72773E+03        -0.63844E+03         0.00000E+00
    0.00000E+00         0.00000E+00        -0.14716E+04
 
   -0.40340E+04         0.78757E+03         0.00000E+00
    0.78757E+03        -0.74499E+03         0.00000E+00
    0.00000E+00         0.00000E+00        -0.14337E+04
 
   -0.37815E+04         0.84571E+03         0.00000E+00
    0.84571E+03        -0.85954E+03         0.00000E+00
    0.00000E+00         0.00000E+00        -0.13923E+04
 
   -0.35095E+04         0.90168E+03         0.00000E+00
    0.90168E+03        -0.98181E+03         0.00000E+00
    0.00000E+00         0.00000E+00        -0.13474E+04
 
   -0.32185E+04         0.95499E+03         0.00000E+00
    0.95499E+03        -0.11115E+04         0.00000E+00
    0.00000E+00         0.00000E+00        -0.12990E+04
 
   -0.29086E+04         0.10051E+04         0.00000E+00
    0.10051E+04        -0.12482E+04         0.00000E+00
    0.00000E+00         0.00000E+00        -0.12470E+04
 
   -0.25806E+04         0.10516E+04         0.00000E+00
    0.10516E+04        -0.13914E+04         0.00000E+00
    0.00000E+00         0.00000E+00        -0.11916E+04
 
   -0.22350E+04         0.10939E+04         0.00000E+00
    0.10939E+04        -0.15408E+04         0.00000E+00
    0.00000E+00         0.00000E+00        -0.11328E+04
 
   -0.18726E+04         0.11313E+04         0.00000E+00
    0.11313E+04        -0.16958E+04         0.00000E+00
    0.00000E+00         0.00000E+00        -0.10705E+04
 
   -0.14943E+04         0.11632E+04         0.00000E+00
    0.11632E+04        -0.18556E+04         0.00000E+00
    0.00000E+00         0.00000E+00        -0.10050E+04
 
   -0.11012E+04         0.11890E+04         0.00000E+00
    0.11890E+04        -0.20197E+04         0.00000E+00
    0.00000E+00         0.00000E+00        -0.93628E+03
 
   -0.55959E+04         0.14289E+02         0.00000E+00
    0.14289E+02        -0.88619E+00         0.00000E+00
    0.00000E+00         0.00000E+00        -0.16790E+04
 
   -0.55789E+04         0.46143E+02         0.00000E+00
    0.46143E+02        -0.57566E+01         0.00000E+00
    0.00000E+00         0.00000E+00        -0.16754E+04
 
   -0.55507E+04         0.82036E+02         0.00000E+00
    0.82036E+02        -0.16159E+02         0.00000E+00
    0.00000E+00         0.00000E+00        -0.16701E+04
 
   -0.55101E+04         0.12161E+03         0.00000E+00
    0.12161E+03        -0.32731E+02         0.00000E+00
    0.00000E+00         0.00000E+00        -0.16628E+04
 
   -0.54558E+04         0.16448E+03         0.00000E+00
    0.16448E+03        -0.56032E+02         0.00000E+00
    0.00000E+00         0.00000E+00        -0.16536E+04
 
   -0.53868E+04         0.21023E+03         0.00000E+00
    0.21023E+03        -0.86544E+02         0.00000E+00
    0.00000E+00         0.00000E+00        -0.16420E+04
 
   -0.53020E+04         0.25840E+03         0.00000E+00
    0.25840E+03        -0.12467E+03         0.00000E+00
    0.00000E+00         0.00000E+00        -0.16280E+04
 
   -0.52005E+04         0.30856E+03         0.00000E+00
    0.30856E+03        -0.17073E+03         0.00000E+00
    0.00000E+00         0.00000E+00        -0.16114E+04
 
   -0.50818E+04         0.36026E+03         0.00000E+00
    0.36026E+03        -0.22496E+03         0.00000E+00
    0.00000E+00         0.00000E+00        -0.15920E+04
 
   -0.49450E+04         0.41305E+03         0.00000E+00
    0.41305E+03        -0.28755E+03         0.00000E+00
    0.00000E+00         0.00000E+00        -0.15698E+04
 
   -0.47898E+04         0.46648E+03         0.00000E+00
    0.46648E+03        -0.35858E+03         0.00000E+00
    0.00000E+00         0.00000E+00        -0.15445E+04
 
   -0.46158E+04         0.52012E+03         0.00000E+00
    0.52012E+03        -0.43807E+03         0.00000E+00
    0.00000E+00         0.00000E+00        -0.15162E+04
 
   -0.44228E+04         0.57355E+03         0.00000E+00
    0.57355E+03        -0.52600E+03         0.00000E+00
    0.00000E+00         0.00000E+00        -0.14846E+04
 
   -0.42105E+04         0.62634E+03         0.00000E+00
    0.62634E+03        -0.62226E+03         0.00000E+00
    0.00000E+00         0.00000E+00        -0.14498E+04
 
   -0.39789E+04         0.67809E+03         0.00000E+00
    0.67809E+03        -0.72670E+03         0.00000E+00
    0.00000E+00         0.00000E+00        -0.14117E+04
 
   -0.37282E+04         0.72838E+03         0.00000E+00
    0.72838E+03        -0.83909E+03         0.00000E+00
    0.00000E+00         0.00000E+00        -0.13702E+04
 
   -0.34585E+04         0.77679E+03         0.00000E+00
    0.77679E+03        -0.95917E+03         0.00000E+00
    0.00000E+00         0.00000E+00        -0.13253E+04
 
   -0.31702E+04         0.82290E+03         0.00000E+00
    0.82290E+03        -0.10866E+04         0.00000E+00
    0.00000E+00         0.00000E+00        -0.12770E+04
 
   -0.28635E+04         0.86626E+03         0.00000E+00
    0.86626E+03        -0.12211E+04         0.00000E+00
    0.00000E+00         0.00000E+00        -0.12254E+04
 
   -0.25392E+04         0.90641E+03         0.00000E+00
    0.90641E+03        -0.13621E+04         0.00000E+00
    0.00000E+00         0.00000E+00        -0.11704E+04
 
   -0.21979E+04         0.94285E+03         0.00000E+00
    0.94285E+03        -0.15091E+04         0.00000E+00
    0.00000E+00         0.00000E+00        -0.11121E+04
 
   -0.18403E+04         0.97505E+03         0.00000E+00
    0.97505E+03        -0.16616E+04         0.00000E+00
    0.00000E+00         0.00000E+00        -0.10506E+04
 
   -0.14675E+04         0.10025E+04         0.00000E+00
    0.10025E+04        -0.18189E+04         0.00000E+00
    0.00000E+00         0.00000E+00        -0.98592E+03
 
   -0.10805E+04         0.10245E+04         0.00000E+00
    0.10245E+04        -0.19803E+04         0.00000E+00
    0.00000E+00         0.00000E+00        -0.91826E+03
 
   -0.55686E+04         0.12003E+02         0.00000E+00
    0.12003E+02        -0.86538E+00         0.00000E+00
    0.00000E+00         0.00000E+00        -0.16708E+04
 
   -0.55477E+04         0.38738E+02         0.00000E+00
    0.38738E+02        -0.56162E+01         0.00000E+00
    0.00000E+00         0.00000E+00        -0.16660E+04
 
   -0.55160E+04         0.68847E+02         0.00000E+00
    0.68847E+02        -0.15755E+02         0.00000E+00
    0.00000E+00         0.00000E+00        -0.16595E+04
 
   -0.54721E+04         0.10205E+03         0.00000E+00
    0.10205E+03        -0.31903E+02         0.00000E+00
    0.00000E+00         0.00000E+00        -0.16512E+04
 
   -0.54150E+04         0.13802E+03         0.00000E+00
    0.13802E+03        -0.54611E+02         0.00000E+00
    0.00000E+00         0.00000E+00        -0.16409E+04
 
   -0.53435E+04         0.17643E+03         0.00000E+00
    0.17643E+03        -0.84358E+02         0.00000E+00
    0.00000E+00         0.00000E+00        -0.16284E+04
 
   -0.52567E+04         0.21690E+03         0.00000E+00
    0.21690E+03        -0.12155E+03         0.00000E+00
    0.00000E+00         0.00000E+00        -0.16135E+04
 
   -0.51536E+04         0.25907E+03         0.00000E+00
    0.25907E+03        -0.16652E+03         0.00000E+00
    0.00000E+00         0.00000E+00        -0.15960E+04
 
   -0.50336E+04         0.30256E+03         0.00000E+00
    0.30256E+03        -0.21952E+03         0.00000E+00
    0.00000E+00         0.00000E+00        -0.15759E+04
 
   -0.48961E+04         0.34701E+03         0.00000E+00
    0.34701E+03        -0.28073E+03         0.00000E+00
    0.00000E+00         0.00000E+00        -0.15530E+04
 
   -0.47405E+04         0.39202E+03         0.00000E+00
    0.39202E+03        -0.35028E+03         0.00000E+00
    0.00000E+00         0.00000E+00        -0.15272E+04
 
   -0.45665E+04         0.43725E+03         0.00000E+00
    0.43725E+03        -0.42820E+03         0.00000E+00
    0.00000E+00         0.00000E+00        -0.14984E+04
 
   -0.43738E+04         0.48232E+03         0.00000E+00
    0.48232E+03        -0.51447E+03         0.00000E+00
    0.00000E+00         0.00000E+00        -0.14665E+04
 
   -0.41622E+04         0.52688E+03         0.00000E+00
    0.52688E+03        -0.60901E+03         0.00000E+00
    0.00000E+00         0.00000E+00        -0.14314E+04
 
   -0.39318E+04         0.57057E+03         0.00000E+00
    0.57057E+03        -0.71167E+03         0.00000E+00
    0.00000E+00         0.00000E+00        -0.13931E+04
 
   -0.36827E+04         0.61304E+03         0.00000E+00
    0.61304E+03        -0.82225E+03         0.00000E+00
    0.00000E+00         0.00000E+00        -0.13515E+04
 
   -0.34149E+04         0.65393E+03         0.00000E+00
    0.65393E+03        -0.94049E+03         0.00000E+00
    0.00000E+00         0.00000E+00        -0.13066E+04
 
   -0.31289E+04         0.69286E+03         0.00000E+00
    0.69286E+03        -0.10661E+04         0.00000E+00
    0.00000E+00         0.00000E+00        -0.12585E+04
 
   -0.28250E+04         0.72946E+03         0.00000E+00
    0.72946E+03        -0.11986E+04         0.00000E+00
    0.00000E+00         0.00000E+00        -0.12071E+04
 
   -0.25039E+04         0.76333E+03         0.00000E+00
    0.76333E+03        -0.13376E+04         0.00000E+00
    0.00000E+00         0.00000E+00        -0.11525E+04
 
   -0.21662E+04         0.79403E+03         0.00000E+00
    0.79403E+03        -0.14826E+04         0.00000E+00
    0.00000E+00         0.00000E+00        -0.10947E+04
 
   -0.18128E+04         0.82111E+03         0.00000E+00
    0.82111E+03        -0.16331E+04         0.00000E+00
    0.00000E+00         0.00000E+00        -0.10338E+04
 
   -0.14447E+04         0.84410E+03         0.00000E+00
    0.84410E+03        -0.17882E+04         0.00000E+00
    0.00000E+00         0.00000E+00        -0.96988E+03
 
   -0.10631E+04         0.86249E+03         0.00000E+00
    0.86249E+03        -0.19473E+04         0.00000E+00
    0.00000E+00         0.00000E+00        -0.90312E+03
 
   -0.55460E+04         0.97649E+01         0.00000E+00
    0.97649E+01        -0.84978E+00         0.00000E+00
    0.00000E+00         0.00000E+00        -0.16640E+04
 
   -0.55219E+04         0.31496E+02         0.00000E+00
    0.31496E+02        -0.55094E+01         0.00000E+00
    0.00000E+00         0.00000E+00        -0.16582E+04
 
   -0.54873E+04         0.55959E+02         0.00000E+00
    0.55959E+02        -0.15445E+02         0.00000E+00
    0.00000E+00         0.00000E+00        -0.16508E+04
 
   -0.54408E+04         0.82932E+02         0.00000E+00
    0.82932E+02        -0.31262E+02         0.00000E+00
    0.00000E+00         0.00000E+00        -0.16416E+04
 
   -0.53813E+04         0.11217E+03         0.00000E+00
    0.11217E+03        -0.53502E+02         0.00000E+00
    0.00000E+00         0.00000E+00        -0.16304E+04
 
   -0.53077E+04         0.14339E+03         0.00000E+00
    0.14339E+03        -0.82645E+02         0.00000E+00
    0.00000E+00         0.00000E+00        -0.16171E+04
 
   -0.52192E+04         0.17631E+03         0.00000E+00
    0.17631E+03        -0.11910E+03         0.00000E+00
    0.00000E+00         0.00000E+00        -0.16015E+04
 
   -0.51147E+04         0.21063E+03         0.00000E+00
    0.21063E+03        -0.16319E+03         0.00000E+00
    0.00000E+00         0.00000E+00        -0.15834E+04
 
   -0.49937E+04         0.24604E+03         0.00000E+00
    0.24604E+03        -0.21520E+03         0.00000E+00
    0.00000E+00         0.00000E+00        -0.15627E+04
 
   -0.48554E+04         0.28225E+03         0.00000E+00
    0.28225E+03        -0.27532E+03         0.00000E+00
    0.00000E+00         0.00000E+00        -0.15392E+04
 
   -0.46995E+04         0.31895E+03         0.00000E+00
    0.31895E+03        -0.34367E+03         0.00000E+00
    0.00000E+00         0.00000E+00        -0.15129E+04
 
   -0.45254E+04         0.35584E+03         0.00000E+00
    0.35584E+03        -0.42032E+03         0.00000E+00
    0.00000E+00         0.00000E+00        -0.14837E+04
 
   -0.43330E+04         0.39262E+03         0.00000E+00
    0.39262E+03        -0.50524E+03         0.00000E+00
    0.00000E+00         0.00000E+00        -0.14515E+04
 
   -0.41221E+04         0.42899E+03         0.00000E+00
    0.42899E+03        -0.59839E+03         0.00000E+00
    0.00000E+00         0.00000E+00        -0.14161E+04
 
   -0.38927E+04         0.46467E+03         0.00000E+00
    0.46467E+03        -0.69960E+03         0.00000E+00
    0.00000E+00         0.00000E+00        -0.13777E+04
 
   -0.36448E+04         0.49936E+03         0.00000E+00
    0.49936E+03        -0.80871E+03         0.00000E+00
    0.00000E+00         0.00000E+00        -0.13360E+04
 
   -0.33786E+04         0.53276E+03         0.00000E+00
    0.53276E+03        -0.92543E+03         0.00000E+00
    0.00000E+00         0.00000E+00        -0.12912E+04
 
   -0.30945E+04         0.56456E+03         0.00000E+00
    0.56456E+03        -0.10495E+04         0.00000E+00
    0.00000E+00         0.00000E+00        -0.12432E+04
 
   -0.27930E+04         0.59444E+03         0.00000E+00
    0.59444E+03        -0.11804E+04         0.00000E+00
    0.00000E+00         0.00000E+00        -0.11920E+04
 
   -0.24745E+04         0.62206E+03         0.00000E+00
    0.62206E+03        -0.13178E+04         0.00000E+00
    0.00000E+00         0.00000E+00        -0.11377E+04
 
   -0.21399E+04         0.64709E+03         0.00000E+00
    0.64709E+03        -0.14611E+04         0.00000E+00
    0.00000E+00         0.00000E+00        -0.10803E+04
 
   -0.17901E+04         0.66914E+03         0.00000E+00
    0.66914E+03        -0.16098E+04         0.00000E+00
    0.00000E+00         0.00000E+00        -0.10200E+04
 
   -0.14259E+04         0.68781E+03         0.00000E+00
    0.68781E+03        -0.17631E+04         0.00000E+00
    0.00000E+00         0.00000E+00        -0.95672E+03
 
   -0.10487E+04         0.70269E+03         0.00000E+00
    0.70269E+03        -0.19203E+04         0.00000E+00
    0.00000E+00         0.00000E+00        -0.89071E+03
 
   -0.55280E+04         0.75623E+01         0.00000E+00
    0.75623E+01        -0.83843E+00         0.00000E+00
    0.00000E+00         0.00000E+00        -0.16586E+04
 
   -0.55014E+04         0.24380E+02         0.00000E+00
    0.24380E+02        -0.54306E+01         0.00000E+00
    0.00000E+00         0.00000E+00        -0.16520E+04
 
   -0.54644E+04         0.43302E+02         0.00000E+00
    0.43302E+02        -0.15214E+02         0.00000E+00
    0.00000E+00         0.00000E+00        -0.16439E+04
 
   -0.54158E+04         0.64165E+02         0.00000E+00
    0.64165E+02        -0.30780E+02         0.00000E+00
    0.00000E+00         0.00000E+00        -0.16340E+04
 
   -0.53545E+04         0.86780E+02         0.00000E+00
    0.86780E+02        -0.52666E+02         0.00000E+00
    0.00000E+00         0.00000E+00        -0.16221E+04
 
   -0.52793E+04         0.11094E+03         0.00000E+00
    0.11094E+03        -0.81345E+02         0.00000E+00
    0.00000E+00         0.00000E+00        -0.16082E+04
 
   -0.51893E+04         0.13642E+03         0.00000E+00
    0.13642E+03        -0.11723E+03         0.00000E+00
    0.00000E+00         0.00000E+00        -0.15920E+04
 
   -0.50838E+04         0.16300E+03         0.00000E+00
    0.16300E+03        -0.16065E+03         0.00000E+00
    0.00000E+00         0.00000E+00        -0.15733E+04
 
   -0.49619E+04         0.19044E+03         0.00000E+00
    0.19044E+03        -0.21190E+03         0.00000E+00
    0.00000E+00         0.00000E+00        -0.15521E+04
 
   -0.48231E+04         0.21851E+03         0.00000E+00
    0.21851E+03        -0.27116E+03         0.00000E+00
    0.00000E+00         0.00000E+00        -0.15283E+04
 
   -0.46668E+04         0.24697E+03         0.00000E+00
    0.24697E+03        -0.33859E+03         0.00000E+00
    0.00000E+00         0.00000E+00        -0.15016E+04
 
   -0.44927E+04         0.27559E+03         0.00000E+00
    0.27559E+03        -0.41424E+03         0.00000E+00
    0.00000E+00         0.00000E+00        -0.14721E+04
 
   -0.43005E+04         0.30414E+03         0.00000E+00
    0.30414E+03        -0.49812E+03         0.00000E+00
    0.00000E+00         0.00000E+00        -0.14396E+04
 
   -0.40901E+04         0.33238E+03         0.00000E+00
    0.33238E+03        -0.59016E+03         0.00000E+00
    0.00000E+00         0.00000E+00        -0.14041E+04
 
   -0.38614E+04         0.36008E+03         0.00000E+00
    0.36008E+03        -0.69025E+03         0.00000E+00
    0.00000E+00         0.00000E+00        -0.13655E+04
 
   -0.36145E+04         0.38702E+03         0.00000E+00
    0.38702E+03        -0.79818E+03         0.00000E+00
    0.00000E+00         0.00000E+00        -0.13238E+04
 
   -0.33496E+04         0.41296E+03         0.00000E+00
    0.41296E+03        -0.91371E+03         0.00000E+00
    0.00000E+00         0.00000E+00        -0.12790E+04
 
   -0.30671E+04         0.43765E+03         0.00000E+00
    0.43765E+03        -0.10365E+04         0.00000E+00
    0.00000E+00         0.00000E+00        -0.12311E+04
 
   -0.27674E+04         0.46085E+03         0.00000E+00
    0.46085E+03        -0.11662E+04         0.00000E+00
    0.00000E+00         0.00000E+00        -0.11801E+04
 
   -0.24511E+04         0.48229E+03         0.00000E+00
    0.48229E+03        -0.13023E+04         0.00000E+00
    0.00000E+00         0.00000E+00        -0.11260E+04
 
   -0.21190E+04         0.50169E+03         0.00000E+00
    0.50169E+03        -0.14443E+04         0.00000E+00
    0.00000E+00         0.00000E+00        -0.10690E+04
 
   -0.17720E+04         0.51876E+03         0.00000E+00
    0.51876E+03        -0.15916E+04         0.00000E+00
    0.00000E+00         0.00000E+00        -0.10091E+04
 
   -0.14110E+04         0.53320E+03         0.00000E+00
    0.53320E+03        -0.17434E+04         0.00000E+00
    0.00000E+00         0.00000E+00        -0.94633E+03
 
   -0.10374E+04         0.54468E+03         0.00000E+00
    0.54468E+03        -0.18990E+04         0.00000E+00
    0.00000E+00         0.00000E+00        -0.88093E+03
 
   -0.55145E+04         0.53850E+01         0.00000E+00
    0.53850E+01        -0.83057E+00         0.00000E+00
    0.00000E+00         0.00000E+00        -0.16546E+04
 
   -0.54861E+04         0.17353E+02         0.00000E+00
    0.17353E+02        -0.53754E+01         0.00000E+00
    0.00000E+00         0.00000E+00        -0.16474E+04
 
   -0.54474E+04         0.30815E+02         0.00000E+00
    0.30815E+02        -0.15050E+02         0.00000E+00
    0.00000E+00         0.00000E+00        -0.16387E+04
 
   -0.53972E+04         0.45656E+02         0.00000E+00
    0.45656E+02        -0.30437E+02         0.00000E+00
    0.00000E+00         0.00000E+00        -0.16283E+04
 
   -0.53344E+04         0.61745E+02         0.00000E+00
    0.61745E+02        -0.52067E+02         0.00000E+00
    0.00000E+00         0.00000E+00        -0.16159E+04
 
   -0.52580E+04         0.78937E+02         0.00000E+00
    0.78937E+02        -0.80412E+02         0.00000E+00
    0.00000E+00         0.00000E+00        -0.16015E+04
 
   -0.51670E+04         0.97076E+02         0.00000E+00
    0.97076E+02        -0.11588E+03         0.00000E+00
    0.00000E+00         0.00000E+00        -0.15849E+04
 
   -0.50606E+04         0.11600E+03         0.00000E+00
    0.11600E+03        -0.15882E+03         0.00000E+00
    0.00000E+00         0.00000E+00        -0.15658E+04
 
   -0.49381E+04         0.13555E+03         0.00000E+00
    0.13555E+03        -0.20950E+03         0.00000E+00
    0.00000E+00         0.00000E+00        -0.15443E+04
 
   -0.47988E+04         0.15554E+03         0.00000E+00
    0.15554E+03        -0.26815E+03         0.00000E+00
    0.00000E+00         0.00000E+00        -0.15201E+04
 
   -0.46423E+04         0.17583E+03         0.00000E+00
    0.17583E+03        -0.33489E+03         0.00000E+00
    0.00000E+00         0.00000E+00        -0.14932E+04
 
   -0.44682E+04         0.19623E+03         0.00000E+00
    0.19623E+03        -0.40981E+03         0.00000E+00
    0.00000E+00         0.00000E+00        -0.14634E+04
 
   -0.42762E+04         0.21659E+03         0.00000E+00
    0.21659E+03        -0.49292E+03         0.00000E+00
    0.00000E+00         0.00000E+00        -0.14307E+04
 
   -0.40661E+04         0.23673E+03         0.00000E+00
    0.23673E+03        -0.58416E+03         0.00000E+00
    0.00000E+00         0.00000E+00        -0.13951E+04
 
   -0.38379E+04         0.25650E+03         0.00000E+00
    0.25650E+03        -0.68340E+03         0.00000E+00
    0.00000E+00         0.00000E+00        -0.13564E+04
 
   -0.35918E+04         0.27572E+03         0.00000E+00
    0.27572E+03        -0.79047E+03         0.00000E+00
    0.00000E+00         0.00000E+00        -0.13147E+04
 
   -0.33279E+04         0.29422E+03         0.00000E+00
    0.29422E+03        -0.90511E+03         0.00000E+00
    0.00000E+00         0.00000E+00        -0.12699E+04
 
   -0.30466E+04         0.31184E+03         0.00000E+00
    0.31184E+03        -0.10270E+04         0.00000E+00
    0.00000E+00         0.00000E+00        -0.12221E+04
 
   -0.27483E+04         0.32838E+03         0.00000E+00
    0.32838E+03        -0.11557E+04         0.00000E+00
    0.00000E+00         0.00000E+00        -0.11712E+04
 
   -0.24336E+04         0.34367E+03         0.00000E+00
    0.34367E+03        -0.12909E+04         0.00000E+00
    0.00000E+00         0.00000E+00        -0.11173E+04
 
   -0.21034E+04         0.35749E+03         0.00000E+00
    0.35749E+03        -0.14318E+04         0.00000E+00
    0.00000E+00         0.00000E+00        -0.10606E+04
 
   -0.17585E+04         0.36965E+03         0.00000E+00
    0.36965E+03        -0.15781E+04         0.00000E+00
    0.00000E+00         0.00000E+00        -0.10010E+04
 
   -0.13999E+04         0.37992E+03         0.00000E+00
    0.37992E+03        -0.17288E+04         0.00000E+00
    0.00000E+00         0.00000E+00        -0.93861E+03
 
   -0.10290E+04         0.38806E+03         0.00000E+00
    0.38806E+03        -0.18833E+04         0.00000E+00
    0.00000E+00         0.00000E+00        -0.87367E+03
 
   -0.55056E+04         0.32246E+01         0.00000E+00
    0.32246E+01        -0.82565E+00         0.00000E+00
    0.00000E+00         0.00000E+00        -0.16519E+04
 
   -0.54759E+04         0.10388E+02         0.00000E+00
    0.10388E+02        -0.53405E+01         0.00000E+00
    0.00000E+00         0.00000E+00        -0.16444E+04
 
   -0.54361E+04         0.18444E+02         0.00000E+00
    0.18444E+02        -0.14946E+02         0.00000E+00
    0.00000E+00         0.00000E+00        -0.16353E+04
 
   -0.53848E+04         0.27325E+02         0.00000E+00
    0.27325E+02        -0.30218E+02         0.00000E+00
    0.00000E+00         0.00000E+00        -0.16245E+04
 
   -0.53211E+04         0.36953E+02         0.00000E+00
    0.36953E+02        -0.51682E+02         0.00000E+00
    0.00000E+00         0.00000E+00        -0.16118E+04
 
   -0.52439E+04         0.47242E+02         0.00000E+00
    0.47242E+02        -0.79809E+02         0.00000E+00
    0.00000E+00         0.00000E+00        -0.15971E+04
 
   -0.51522E+04         0.58100E+02         0.00000E+00
    0.58100E+02        -0.11501E+03         0.00000E+00
    0.00000E+00         0.00000E+00        -0.15802E+04
 
   -0.50452E+04         0.69430E+02         0.00000E+00
    0.69430E+02        -0.15763E+03         0.00000E+00
    0.00000E+00         0.00000E+00        -0.15609E+04
 
   -0.49223E+04         0.81135E+02         0.00000E+00
    0.81135E+02        -0.20795E+03         0.00000E+00
    0.00000E+00         0.00000E+00        -0.15391E+04
 
   -0.47827E+04         0.93114E+02         0.00000E+00
    0.93114E+02        -0.26618E+03         0.00000E+00
    0.00000E+00         0.00000E+00        -0.15147E+04
 
   -0.46260E+04         0.10527E+03         0.00000E+00
    0.10527E+03        -0.33248E+03         0.00000E+00
    0.00000E+00         0.00000E+00        -0.14876E+04
 
   -0.44519E+04         0.11749E+03         0.00000E+00
    0.11749E+03        -0.40692E+03         0.00000E+00
    0.00000E+00         0.00000E+00        -0.14576E+04
 
   -0.42600E+04         0.12969E+03         0.00000E+00
    0.12969E+03        -0.48952E+03         0.00000E+00
    0.00000E+00         0.00000E+00        -0.14248E+04
 
   -0.40501E+04         0.14177E+03         0.00000E+00
    0.14177E+03        -0.58023E+03         0.00000E+00
    0.00000E+00         0.00000E+00        -0.13891E+04
 
   -0.38223E+04         0.15362E+03         0.00000E+00
    0.15362E+03        -0.67892E+03         0.00000E+00
    0.00000E+00         0.00000E+00        -0.13504E+04
 
   -0.35767E+04         0.16514E+03         0.00000E+00
    0.16514E+03        -0.78541E+03         0.00000E+00
    0.00000E+00         0.00000E+00        -0.13086E+04
 
   -0.33134E+04         0.17624E+03         0.00000E+00
    0.17624E+03        -0.89946E+03         0.00000E+00
    0.00000E+00         0.00000E+00        -0.12639E+04
 
   -0.30329E+04         0.18680E+03         0.00000E+00
    0.18680E+03        -0.10207E+04         0.00000E+00
    0.00000E+00         0.00000E+00        -0.12161E+04
 
   -0.27355E+04         0.19671E+03         0.00000E+00
    0.19671E+03        -0.11488E+04         0.00000E+00
    0.00000E+00         0.00000E+00        -0.11653E+04
 
   -0.24220E+04         0.20587E+03         0.00000E+00
    0.20587E+03        -0.12833E+04         0.00000E+00
    0.00000E+00         0.00000E+00        -0.11116E+04
 
   -0.20930E+04         0.21415E+03         0.00000E+00
    0.21415E+03        -0.14236E+04         0.00000E+00
    0.00000E+00         0.00000E+00        -0.10550E+04
 
   -0.17495E+04         0.22143E+03         0.00000E+00
    0.22143E+03        -0.15692E+04         0.00000E+00
    0.00000E+00         0.00000E+00        -0.99559E+03
 
   -0.13925E+04         0.22757E+03         0.00000E+00
    0.22757E+03        -0.17192E+04         0.00000E+00
    0.00000E+00         0.00000E+00        -0.93351E+03
 
   -0.10234E+04         0.23244E+03         0.00000E+00
    0.23244E+03        -0.18729E+04         0.00000E+00
    0.00000E+00         0.00000E+00        -0.86888E+03
 
   -0.55011E+04         0.10738E+01         0.00000E+00
    0.10738E+01        -0.82328E+00         0.00000E+00
    0.00000E+00         0.00000E+00        -0.16506E+04
 
   -0.54709E+04         0.34590E+01         0.00000E+00
    0.34590E+01        -0.53236E+01         0.00000E+00
    0.00000E+00         0.00000E+00        -0.16429E+04
 
   -0.54304E+04         0.61406E+01         0.00000E+00
    0.61406E+01        -0.14895E+02         0.00000E+00
    0.00000E+00         0.00000E+00        -0.16336E+04
 
   -0.53787E+04         0.90968E+01         0.00000E+00
    0.90968E+01        -0.30111E+02         0.00000E+00
    0.00000E+00         0.00000E+00        -0.16226E+04
 
   -0.53145E+04         0.12302E+02         0.00000E+00
    0.12302E+02        -0.51494E+02         0.00000E+00
    0.00000E+00         0.00000E+00        -0.16098E+04
 
   -0.52368E+04         0.15727E+02         0.00000E+00
    0.15727E+02        -0.79514E+02         0.00000E+00
    0.00000E+00         0.00000E+00        -0.15949E+04
 
   -0.51448E+04         0.19343E+02         0.00000E+00
    0.19343E+02        -0.11458E+03         0.00000E+00
    0.00000E+00         0.00000E+00        -0.15778E+04
 
   -0.50375E+04         0.23115E+02         0.00000E+00
    0.23115E+02        -0.15704E+03         0.00000E+00
    0.00000E+00         0.00000E+00        -0.15584E+04
 
   -0.49144E+04         0.27013E+02         0.00000E+00
    0.27013E+02        -0.20718E+03         0.00000E+00
    0.00000E+00         0.00000E+00        -0.15365E+04
 
   -0.47747E+04         0.31003E+02         0.00000E+00
    0.31003E+02        -0.26522E+03         0.00000E+00
    0.00000E+00         0.00000E+00        -0.15120E+04
 
   -0.46179E+04         0.35051E+02         0.00000E+00
    0.35051E+02        -0.33130E+03         0.00000E+00
    0.00000E+00         0.00000E+00        -0.14848E+04
 
   -0.44437E+04         0.39123E+02         0.00000E+00
    0.39123E+02        -0.40550E+03         0.00000E+00
    0.00000E+00         0.00000E+00        -0.14548E+04
 
   -0.42519E+04         0.43188E+02         0.00000E+00
    0.43188E+02        -0.48785E+03         0.00000E+00
    0.00000E+00         0.00000E+00        -0.14219E+04
 
   -0.40421E+04         0.47211E+02         0.00000E+00
    0.47211E+02        -0.57829E+03         0.00000E+00
    0.00000E+00         0.00000E+00        -0.13861E+04
 
   -0.38145E+04         0.51159E+02         0.00000E+00
    0.51159E+02        -0.67670E+03         0.00000E+00
    0.00000E+00         0.00000E+00        -0.13474E+04
 
   -0.35692E+04         0.54999E+02         0.00000E+00
    0.54999E+02        -0.78291E+03         0.00000E+00
    0.00000E+00         0.00000E+00        -0.13056E+04
 
   -0.33062E+04         0.58695E+02         0.00000E+00
    0.58695E+02        -0.89666E+03         0.00000E+00
    0.00000E+00         0.00000E+00        -0.12609E+04
 
   -0.30260E+04         0.62214E+02         0.00000E+00
    0.62214E+02        -0.10176E+04         0.00000E+00
    0.00000E+00         0.00000E+00        -0.12131E+04
 
   -0.27291E+04         0.65518E+02         0.00000E+00
    0.65518E+02        -0.11454E+04         0.00000E+00
    0.00000E+00         0.00000E+00        -0.11624E+04
 
   -0.24161E+04         0.68569E+02         0.00000E+00
    0.68569E+02        -0.12796E+04         0.00000E+00
    0.00000E+00         0.00000E+00        -0.11087E+04
 
   -0.20878E+04         0.71327E+02         0.00000E+00
    0.71327E+02        -0.14196E+04         0.00000E+00
    0.00000E+00         0.00000E+00        -0.10522E+04
 
   -0.17450E+04         0.73750E+02         0.00000E+00
    0.73750E+02        -0.15647E+04         0.00000E+00
    0.00000E+00         0.00000E+00        -0.99292E+03
 
   -0.13889E+04         0.75794E+02         0.00000E+00
    0.75794E+02        -0.17144E+04         0.00000E+00
    0.00000E+00         0.00000E+00        -0.93097E+03
 
   -0.10206E+04         0.77413E+02         0.00000E+00
    0.77413E+02        -0.18677E+04         0.00000E+00
    0.00000E+00         0.00000E+00        -0.86649E+03
 
TENSORS stresstot double 
   -0.50391E+05         0.36730E+03         0.00000E+00
    0.36730E+03        -0.10022E+06         0.00000E+00
    0.00000E+00         0.00000E+00        -0.56226E+05
 
   -0.40546E+05         0.26486E+04         0.00000E+00
    0.26486E+04        -0.96900E+05         0.00000E+00
    0.00000E+00         0.00000E+00        -0.65782E+05
 
   -0.34885E+05         0.38063E+04         0.00000E+00
    0.38063E+04        -0.88952E+05         0.00000E+00
    0.00000E+00         0.00000E+00        -0.63209E+05
 
   -0.29645E+05         0.40509E+04         0.00000E+00
    0.40509E+04        -0.80509E+05         0.00000E+00
    0.00000E+00         0.00000E+00        -0.57496E+05
 
   -0.24761E+05         0.38935E+04         0.00000E+00
    0.38935E+04        -0.72692E+05         0.00000E+00
    0.00000E+00         0.00000E+00        -0.51282E+05
 
   -0.20330E+05         0.35934E+04         0.00000E+00
    0.35934E+04        -0.65568E+05         0.00000E+00
    0.00000E+00         0.00000E+00        -0.45219E+05
 
   -0.16348E+05         0.32081E+04         0.00000E+00
    0.32081E+04        -0.59151E+05         0.00000E+00
    0.00000E+00         0.00000E+00        -0.39561E+05
 
   -0.13259E+05         0.27880E+04         0.00000E+00
    0.27880E+04        -0.53412E+05         0.00000E+00
    0.00000E+00         0.00000E+00        -0.34605E+05
 
   -0.10653E+05         0.24213E+04         0.00000E+00
    0.24213E+04        -0.48357E+05         0.00000E+00
    0.00000E+00         0.00000E+00        -0.30293E+05
 
   -0.83767E+04         0.20929E+04         0.00000E+00
    0.20929E+04        -0.43954E+05         0.00000E+00
    0.00000E+00         0.00000E+00        -0.26573E+05
 
   -0.64942E+04         0.18174E+04         0.00000E+00
    0.18174E+04        -0.40076E+05         0.00000E+00
    0.00000E+00         0.00000E+00        -0.23398E+05
 
   -0.48386E+04         0.16290E+04         0.00000E+00
    0.16290E+04        -0.36660E+05         0.00000E+00
    0.00000E+00         0.00000E+00        -0.20596E+05
 
   -0.33193E+04         0.14654E+04         0.00000E+00
    0.14654E+04        -0.33629E+05         0.00000E+00
    0.00000E+00         0.00000E+00        -0.18044E+05
 
   -0.19102E+04         0.13215E+04         0.00000E+00
    0.13215E+04        -0.30891E+05         0.00000E+00
    0.00000E+00         0.00000E+00        -0.15675E+05
 
   -0.62664E+03         0.11691E+04         0.00000E+00
    0.11691E+04        -0.28436E+05         0.00000E+00
    0.00000E+00         0.00000E+00        -0.13468E+05
 
    0.38828E+03         0.10430E+04         0.00000E+00
    0.10430E+04        -0.26254E+05         0.00000E+00
    0.00000E+00         0.00000E+00        -0.11469E+05
 
    0.12312E+04         0.89577E+03         0.00000E+00
    0.89577E+03        -0.24359E+05         0.00000E+00
    0.00000E+00         0.00000E+00        -0.96121E+04
 
    0.19401E+04         0.79589E+03         0.00000E+00
    0.79589E+03        -0.22703E+05         0.00000E+00
    0.00000E+00         0.00000E+00        -0.79618E+04
 
    0.25345E+04         0.70734E+03         0.00000E+00
    0.70734E+03        -0.21226E+05         0.00000E+00
    0.00000E+00         0.00000E+00        -0.64142E+04
 
    0.27045E+04         0.63230E+03         0.00000E+00
    0.63230E+03        -0.19901E+05         0.00000E+00
    0.00000E+00         0.00000E+00        -0.52517E+04
 
    0.78899E+03         0.54023E+03         0.00000E+00
    0.54023E+03        -0.18737E+05         0.00000E+00
    0.00000E+00         0.00000E+00        -0.53843E+04
 
   -0.13049E+04         0.48390E+03         0.00000E+00
    0.48390E+03        -0.17720E+05         0.00000E+00
    0.00000E+00         0.00000E+00        -0.57075E+04
 
   -0.33711E+04         0.46006E+03         0.00000E+00
    0.46006E+03        -0.16781E+05         0.00000E+00
    0.00000E+00         0.00000E+00        -0.60456E+04
 
   -0.55070E+04         0.46042E+03         0.00000E+00
    0.46042E+03        -0.15865E+05         0.00000E+00
    0.00000E+00         0.00000E+00        -0.64115E+04
 
   -0.46905E+05         0.27391E+04         0.00000E+00
    0.27391E+04        -0.99614E+05         0.00000E+00
    0.00000E+00         0.00000E+00        -0.59029E+05
 
   -0.37182E+05         0.97166E+04         0.00000E+00
    0.97166E+04        -0.88863E+05         0.00000E+00
    0.00000E+00         0.00000E+00        -0.63738E+05
 
   -0.33484E+05         0.11696E+05         0.00000E+00
    0.11696E+05        -0.80360E+05         0.00000E+00
    0.00000E+00         0.00000E+00        -0.59430E+05
 
   -0.29650E+05         0.11870E+05         0.00000E+00
    0.11870E+05        -0.73326E+05         0.00000E+00
    0.00000E+00         0.00000E+00        -0.54320E+05
 
   -0.25346E+05         0.11185E+05         0.00000E+00
    0.11185E+05        -0.66651E+05         0.00000E+00
    0.00000E+00         0.00000E+00        -0.48714E+05
 
   -0.21103E+05         0.10180E+05         0.00000E+00
    0.10180E+05        -0.60606E+05         0.00000E+00
    0.00000E+00         0.00000E+00        -0.43217E+05
 
   -0.17293E+05         0.90435E+04         0.00000E+00
    0.90435E+04        -0.55212E+05         0.00000E+00
    0.00000E+00         0.00000E+00        -0.38134E+05
 
   -0.14047E+05         0.79392E+04         0.00000E+00
    0.79392E+04        -0.50454E+05         0.00000E+00
    0.00000E+00         0.00000E+00        -0.33598E+05
 
   -0.11359E+05         0.69290E+04         0.00000E+00
    0.69290E+04        -0.46145E+05         0.00000E+00
    0.00000E+00         0.00000E+00        -0.29593E+05
 
   -0.89791E+04         0.60580E+04         0.00000E+00
    0.60580E+04        -0.42208E+05         0.00000E+00
    0.00000E+00         0.00000E+00        -0.26015E+05
 
   -0.69214E+04         0.53488E+04         0.00000E+00
    0.53488E+04        -0.38725E+05         0.00000E+00
    0.00000E+00         0.00000E+00        -0.22876E+05
 
   -0.51691E+04         0.47850E+04         0.00000E+00
    0.47850E+04        -0.35551E+05         0.00000E+00
    0.00000E+00         0.00000E+00        -0.20117E+05
 
   -0.36323E+04         0.42983E+04         0.00000E+00
    0.42983E+04        -0.32658E+05         0.00000E+00
    0.00000E+00         0.00000E+00        -0.17626E+05
 
   -0.21938E+04         0.38774E+04         0.00000E+00
    0.38774E+04        -0.30101E+05         0.00000E+00
    0.00000E+00         0.00000E+00        -0.15307E+05
 
   -0.92462E+03         0.34478E+04         0.00000E+00
    0.34478E+04        -0.27827E+05         0.00000E+00
    0.00000E+00         0.00000E+00        -0.13185E+05
 
    0.11973E+03         0.30234E+04         0.00000E+00
    0.30234E+04        -0.25818E+05         0.00000E+00
    0.00000E+00         0.00000E+00        -0.11265E+05
 
    0.99390E+03         0.26574E+04         0.00000E+00
    0.26574E+04        -0.24029E+05         0.00000E+00
    0.00000E+00         0.00000E+00        -0.94461E+04
 
    0.17507E+04         0.23527E+04         0.00000E+00
    0.23527E+04        -0.22425E+05         0.00000E+00
    0.00000E+00         0.00000E+00        -0.78184E+04
 
    0.23768E+04         0.21001E+04         0.00000E+00
    0.21001E+04        -0.21004E+05         0.00000E+00
    0.00000E+00         0.00000E+00        -0.63129E+04
 
    0.25249E+04         0.18769E+04         0.00000E+00
    0.18769E+04        -0.19710E+05         0.00000E+00
    0.00000E+00         0.00000E+00        -0.52244E+04
 
    0.63689E+03         0.16069E+04         0.00000E+00
    0.16069E+04        -0.18585E+05         0.00000E+00
    0.00000E+00         0.00000E+00        -0.53845E+04
 
   -0.13809E+04         0.14443E+04         0.00000E+00
    0.14443E+04        -0.17587E+05         0.00000E+00
    0.00000E+00         0.00000E+00        -0.56904E+04
 
   -0.33933E+04         0.13733E+04         0.00000E+00
    0.13733E+04        -0.16662E+05         0.00000E+00
    0.00000E+00         0.00000E+00        -0.60165E+04
 
   -0.54856E+04         0.13738E+04         0.00000E+00
    0.13738E+04        -0.15760E+05         0.00000E+00
    0.00000E+00         0.00000E+00        -0.63738E+04
 
   -0.34308E+05         0.16166E+05         0.00000E+00
    0.16166E+05        -0.75384E+05         0.00000E+00
    0.00000E+00         0.00000E+00        -0.55713E+05
 
   -0.33389E+05         0.18376E+05         0.00000E+00
    0.18376E+05        -0.64371E+05         0.00000E+00
    0.00000E+00         0.00000E+00        -0.52842E+05
 
   -0.33536E+05         0.18913E+05         0.00000E+00
    0.18913E+05        -0.61966E+05         0.00000E+00
    0.00000E+00         0.00000E+00        -0.51523E+05
 
   -0.30579E+05         0.17942E+05         0.00000E+00
    0.17942E+05        -0.58431E+05         0.00000E+00
    0.00000E+00         0.00000E+00        -0.47919E+05
 
   -0.26760E+05         0.16566E+05         0.00000E+00
    0.16566E+05        -0.55017E+05         0.00000E+00
    0.00000E+00         0.00000E+00        -0.43895E+05
 
   -0.22640E+05         0.14973E+05         0.00000E+00
    0.14973E+05        -0.51500E+05         0.00000E+00
    0.00000E+00         0.00000E+00        -0.39628E+05
 
   -0.18792E+05         0.13368E+05         0.00000E+00
    0.13368E+05        -0.48055E+05         0.00000E+00
    0.00000E+00         0.00000E+00        -0.35481E+05
 
   -0.15435E+05         0.11880E+05         0.00000E+00
    0.11880E+05        -0.44737E+05         0.00000E+00
    0.00000E+00         0.00000E+00        -0.31594E+05
 
   -0.12522E+05         0.10622E+05         0.00000E+00
    0.10622E+05        -0.41612E+05         0.00000E+00
    0.00000E+00         0.00000E+00        -0.28020E+05
 
   -0.99566E+04         0.94652E+04         0.00000E+00
    0.94652E+04        -0.38612E+05         0.00000E+00
    0.00000E+00         0.00000E+00        -0.24768E+05
 
   -0.77452E+04         0.84419E+04         0.00000E+00
    0.84419E+04        -0.35718E+05         0.00000E+00
    0.00000E+00         0.00000E+00        -0.21794E+05
 
   -0.58439E+04         0.75695E+04         0.00000E+00
    0.75695E+04        -0.33140E+05         0.00000E+00
    0.00000E+00         0.00000E+00        -0.19138E+05
 
   -0.42040E+04         0.68304E+04         0.00000E+00
    0.68304E+04        -0.30829E+05         0.00000E+00
    0.00000E+00         0.00000E+00        -0.16768E+05
 
   -0.27501E+04         0.61366E+04         0.00000E+00
    0.61366E+04        -0.28684E+05         0.00000E+00
    0.00000E+00         0.00000E+00        -0.14613E+05
 
   -0.14931E+04         0.54808E+04         0.00000E+00
    0.54808E+04        -0.26720E+05         0.00000E+00
    0.00000E+00         0.00000E+00        -0.12623E+05
 
   -0.38869E+03         0.48451E+04         0.00000E+00
    0.48451E+04        -0.24951E+05         0.00000E+00
    0.00000E+00         0.00000E+00        -0.10746E+05
 
    0.57353E+03         0.42774E+04         0.00000E+00
    0.42774E+04        -0.23346E+05         0.00000E+00
    0.00000E+00         0.00000E+00        -0.90464E+04
 
    0.13887E+04         0.38061E+04         0.00000E+00
    0.38061E+04        -0.21894E+05         0.00000E+00
    0.00000E+00         0.00000E+00        -0.75201E+04
 
    0.20778E+04         0.34279E+04         0.00000E+00
    0.34279E+04        -0.20566E+05         0.00000E+00
    0.00000E+00         0.00000E+00        -0.61163E+04
 
    0.21726E+04         0.30632E+04         0.00000E+00
    0.30632E+04        -0.19352E+05         0.00000E+00
    0.00000E+00         0.00000E+00        -0.51739E+04
 
    0.34950E+03         0.26406E+04         0.00000E+00
    0.26406E+04        -0.18272E+05         0.00000E+00
    0.00000E+00         0.00000E+00        -0.53767E+04
 
   -0.15292E+04         0.23831E+04         0.00000E+00
    0.23831E+04        -0.17308E+05         0.00000E+00
    0.00000E+00         0.00000E+00        -0.56512E+04
 
   -0.34392E+04         0.22644E+04         0.00000E+00
    0.22644E+04        -0.16414E+05         0.00000E+00
    0.00000E+00         0.00000E+00        -0.59559E+04
 
   -0.54425E+04         0.22634E+04         0.00000E+00
    0.22634E+04        -0.15545E+05         0.00000E+00
    0.00000E+00         0.00000E+00        -0.62962E+04
 
   -0.13667E+05         0.14261E+05         0.00000E+00
    0.14261E+05        -0.27519E+05         0.00000E+00
    0.00000E+00         0.00000E+00        -0.24696E+05
 
   -0.33315E+05         0.19993E+05         0.00000E+00
    0.19993E+05        -0.37879E+05         0.00000E+00
    0.00000E+00         0.00000E+00        -0.41094E+05
 
   -0.33834E+05         0.19630E+05         0.00000E+00
    0.19630E+05        -0.37797E+05         0.00000E+00
    0.00000E+00         0.00000E+00        -0.40565E+05
 
   -0.31843E+05         0.19156E+05         0.00000E+00
    0.19156E+05        -0.38809E+05         0.00000E+00
    0.00000E+00         0.00000E+00        -0.39546E+05
 
   -0.28267E+05         0.18222E+05         0.00000E+00
    0.18222E+05        -0.38968E+05         0.00000E+00
    0.00000E+00         0.00000E+00        -0.37283E+05
 
   -0.24305E+05         0.17046E+05         0.00000E+00
    0.17046E+05        -0.38593E+05         0.00000E+00
    0.00000E+00         0.00000E+00        -0.34534E+05
 
   -0.20436E+05         0.15706E+05         0.00000E+00
    0.15706E+05        -0.37658E+05         0.00000E+00
    0.00000E+00         0.00000E+00        -0.31522E+05
 
   -0.16926E+05         0.14338E+05         0.00000E+00
    0.14338E+05        -0.36332E+05         0.00000E+00
    0.00000E+00         0.00000E+00        -0.28473E+05
 
   -0.13889E+05         0.13037E+05         0.00000E+00
    0.13037E+05        -0.34814E+05         0.00000E+00
    0.00000E+00         0.00000E+00        -0.25514E+05
 
   -0.11146E+05         0.11875E+05         0.00000E+00
    0.11875E+05        -0.33248E+05         0.00000E+00
    0.00000E+00         0.00000E+00        -0.22674E+05
 
   -0.87931E+04         0.10766E+05         0.00000E+00
    0.10766E+05        -0.31607E+05         0.00000E+00
    0.00000E+00         0.00000E+00        -0.20065E+05
 
   -0.67725E+04         0.96977E+04         0.00000E+00
    0.96977E+04        -0.29870E+05         0.00000E+00
    0.00000E+00         0.00000E+00        -0.17688E+05
 
   -0.50155E+04         0.87620E+04         0.00000E+00
    0.87620E+04        -0.28192E+05         0.00000E+00
    0.00000E+00         0.00000E+00        -0.15537E+05
 
   -0.35112E+04         0.79189E+04         0.00000E+00
    0.79189E+04        -0.26640E+05         0.00000E+00
    0.00000E+00         0.00000E+00        -0.13603E+05
 
   -0.22066E+04         0.71244E+04         0.00000E+00
    0.71244E+04        -0.25200E+05         0.00000E+00
    0.00000E+00         0.00000E+00        -0.11804E+05
 
   -0.10641E+04         0.63871E+04         0.00000E+00
    0.63871E+04        -0.23832E+05         0.00000E+00
    0.00000E+00         0.00000E+00        -0.10128E+05
 
   -0.26000E+02         0.57347E+04         0.00000E+00
    0.57347E+04        -0.22452E+05         0.00000E+00
    0.00000E+00         0.00000E+00        -0.85749E+04
 
    0.91722E+03         0.51302E+04         0.00000E+00
    0.51302E+04        -0.21118E+05         0.00000E+00
    0.00000E+00         0.00000E+00        -0.71372E+04
 
    0.17001E+04         0.46607E+04         0.00000E+00
    0.46607E+04        -0.19885E+05         0.00000E+00
    0.00000E+00         0.00000E+00        -0.58498E+04
 
    0.16256E+04         0.41619E+04         0.00000E+00
    0.41619E+04        -0.18763E+05         0.00000E+00
    0.00000E+00         0.00000E+00        -0.51412E+04
 
   -0.43840E+02         0.36219E+04         0.00000E+00
    0.36219E+04        -0.17765E+05         0.00000E+00
    0.00000E+00         0.00000E+00        -0.53427E+04
 
   -0.17473E+04         0.32798E+04         0.00000E+00
    0.32798E+04        -0.16863E+05         0.00000E+00
    0.00000E+00         0.00000E+00        -0.55830E+04
 
   -0.35104E+04         0.31135E+04         0.00000E+00
    0.31135E+04        -0.16023E+05         0.00000E+00
    0.00000E+00         0.00000E+00        -0.58602E+04
 
   -0.53774E+04         0.31096E+04         0.00000E+00
    0.31096E+04        -0.15209E+05         0.00000E+00
    0.00000E+00         0.00000E+00        -0.61759E+04
 
   -0.53469E+04         0.32349E+04         0.00000E+00
    0.32349E+04         0.36723E+04         0.00000E+00
    0.00000E+00         0.00000E+00         0.23212E+03
 
   -0.27103E+05         0.11085E+05         0.00000E+00
    0.11085E+05        -0.97059E+04         0.00000E+00
    0.00000E+00         0.00000E+00        -0.19807E+05
 
   -0.32124E+05         0.14176E+05         0.00000E+00
    0.14176E+05        -0.17695E+05         0.00000E+00
    0.00000E+00         0.00000E+00        -0.27674E+05
 
   -0.30963E+05         0.15562E+05         0.00000E+00
    0.15562E+05        -0.21987E+05         0.00000E+00
    0.00000E+00         0.00000E+00        -0.29206E+05
 
   -0.28342E+05         0.16162E+05         0.00000E+00
    0.16162E+05        -0.24972E+05         0.00000E+00
    0.00000E+00         0.00000E+00        -0.29112E+05
 
   -0.24962E+05         0.16103E+05         0.00000E+00
    0.16103E+05        -0.26821E+05         0.00000E+00
    0.00000E+00         0.00000E+00        -0.27933E+05
 
   -0.21430E+05         0.15590E+05         0.00000E+00
    0.15590E+05        -0.27861E+05         0.00000E+00
    0.00000E+00         0.00000E+00        -0.26198E+05
 
   -0.18058E+05         0.14789E+05         0.00000E+00
    0.14789E+05        -0.28262E+05         0.00000E+00
    0.00000E+00         0.00000E+00        -0.24178E+05
 
   -0.15009E+05         0.13853E+05         0.00000E+00
    0.13853E+05        -0.28171E+05         0.00000E+00
    0.00000E+00         0.00000E+00        -0.22050E+05
 
   -0.12272E+05         0.12870E+05         0.00000E+00
    0.12870E+05        -0.27744E+05         0.00000E+00
    0.00000E+00         0.00000E+00        -0.19909E+05
 
   -0.98618E+04         0.11908E+05         0.00000E+00
    0.11908E+05        -0.27142E+05         0.00000E+00
    0.00000E+00         0.00000E+00        -0.17841E+05
 
   -0.77535E+04         0.10979E+05         0.00000E+00
    0.10979E+05        -0.26368E+05         0.00000E+00
    0.00000E+00         0.00000E+00        -0.15892E+05
 
   -0.59144E+04         0.10067E+05         0.00000E+00
    0.10067E+05        -0.25391E+05         0.00000E+00
    0.00000E+00         0.00000E+00        -0.14077E+05
 
   -0.43694E+04         0.91818E+04         0.00000E+00
    0.91818E+04        -0.24354E+05         0.00000E+00
    0.00000E+00         0.00000E+00        -0.12417E+05
 
   -0.29850E+04         0.83396E+04         0.00000E+00
    0.83396E+04        -0.23314E+05         0.00000E+00
    0.00000E+00         0.00000E+00        -0.10870E+05
 
   -0.17770E+04         0.76113E+04         0.00000E+00
    0.76113E+04        -0.22205E+05         0.00000E+00
    0.00000E+00         0.00000E+00        -0.94383E+04
 
   -0.69009E+03         0.69418E+04         0.00000E+00
    0.69418E+04        -0.21129E+05         0.00000E+00
    0.00000E+00         0.00000E+00        -0.80770E+04
 
    0.34342E+03         0.63231E+04         0.00000E+00
    0.63231E+04        -0.20069E+05         0.00000E+00
    0.00000E+00         0.00000E+00        -0.67235E+04
 
    0.12771E+04         0.57860E+04         0.00000E+00
    0.57860E+04        -0.18954E+05         0.00000E+00
    0.00000E+00         0.00000E+00        -0.55141E+04
 
    0.91327E+03         0.51595E+04         0.00000E+00
    0.51595E+04        -0.17920E+05         0.00000E+00
    0.00000E+00         0.00000E+00        -0.51021E+04
 
   -0.52612E+03         0.45179E+04         0.00000E+00
    0.45179E+04        -0.17043E+05         0.00000E+00
    0.00000E+00         0.00000E+00        -0.52707E+04
 
   -0.20290E+04         0.41035E+04         0.00000E+00
    0.41035E+04        -0.16239E+05         0.00000E+00
    0.00000E+00         0.00000E+00        -0.54804E+04
 
   -0.36066E+04         0.38952E+04         0.00000E+00
    0.38952E+04        -0.15486E+05         0.00000E+00
    0.00000E+00         0.00000E+00        -0.57277E+04
 
   -0.52900E+04         0.38895E+04         0.00000E+00
    0.38895E+04        -0.14750E+05         0.00000E+00
    0.00000E+00         0.00000E+00        -0.60120E+04
 
    0.33639E+03        -0.11882E+04         0.00000E+00
   -0.11882E+04        -0.16838E+04         0.00000E+00
    0.00000E+00         0.00000E+00        -0.16420E+03
 
   -0.24262E+05         0.58099E+04         0.00000E+00
    0.58099E+04        -0.31118E+04         0.00000E+00
    0.00000E+00         0.00000E+00        -0.10025E+05
 
   -0.28863E+05         0.95685E+04         0.00000E+00
    0.95685E+04        -0.92097E+04         0.00000E+00
    0.00000E+00         0.00000E+00        -0.18316E+05
 
   -0.29153E+05         0.11881E+05         0.00000E+00
    0.11881E+05        -0.13479E+05         0.00000E+00
    0.00000E+00         0.00000E+00        -0.21768E+05
 
   -0.27273E+05         0.13319E+05         0.00000E+00
    0.13319E+05        -0.16587E+05         0.00000E+00
    0.00000E+00         0.00000E+00        -0.22791E+05
 
   -0.24636E+05         0.14068E+05         0.00000E+00
    0.14068E+05        -0.18911E+05         0.00000E+00
    0.00000E+00         0.00000E+00        -0.22591E+05
 
   -0.21632E+05         0.14282E+05         0.00000E+00
    0.14282E+05        -0.20587E+05         0.00000E+00
    0.00000E+00         0.00000E+00        -0.21711E+05
 
   -0.18606E+05         0.14091E+05         0.00000E+00
    0.14091E+05        -0.21700E+05         0.00000E+00
    0.00000E+00         0.00000E+00        -0.20427E+05
 
   -0.15747E+05         0.13634E+05         0.00000E+00
    0.13634E+05        -0.22353E+05         0.00000E+00
    0.00000E+00         0.00000E+00        -0.18938E+05
 
   -0.13116E+05         0.13006E+05         0.00000E+00
    0.13006E+05        -0.22633E+05         0.00000E+00
    0.00000E+00         0.00000E+00        -0.17346E+05
 
   -0.10738E+05         0.12268E+05         0.00000E+00
    0.12268E+05        -0.22615E+05         0.00000E+00
    0.00000E+00         0.00000E+00        -0.15732E+05
 
   -0.86043E+04         0.11540E+05         0.00000E+00
    0.11540E+05        -0.22382E+05         0.00000E+00
    0.00000E+00         0.00000E+00        -0.14132E+05
 
   -0.67729E+04         0.10766E+05         0.00000E+00
    0.10766E+05        -0.22038E+05         0.00000E+00
    0.00000E+00         0.00000E+00        -0.12647E+05
 
   -0.51816E+04         0.99913E+04         0.00000E+00
    0.99913E+04        -0.21522E+05         0.00000E+00
    0.00000E+00         0.00000E+00        -0.11256E+05
 
   -0.37702E+04         0.92553E+04         0.00000E+00
    0.92553E+04        -0.20804E+05         0.00000E+00
    0.00000E+00         0.00000E+00        -0.99528E+04
 
   -0.24763E+04         0.85359E+04         0.00000E+00
    0.85359E+04        -0.20024E+05         0.00000E+00
    0.00000E+00         0.00000E+00        -0.86863E+04
 
   -0.13432E+04         0.78591E+04         0.00000E+00
    0.78591E+04        -0.19230E+05         0.00000E+00
    0.00000E+00         0.00000E+00        -0.74664E+04
 
   -0.22848E+03         0.72841E+04         0.00000E+00
    0.72841E+04        -0.18419E+05         0.00000E+00
    0.00000E+00         0.00000E+00        -0.62236E+04
 
    0.76161E+03         0.67704E+04         0.00000E+00
    0.67704E+04        -0.17586E+05         0.00000E+00
    0.00000E+00         0.00000E+00        -0.51440E+04
 
    0.94004E+02         0.59908E+04         0.00000E+00
    0.59908E+04        -0.16813E+05         0.00000E+00
    0.00000E+00         0.00000E+00        -0.50157E+04
 
   -0.10801E+04         0.52840E+04         0.00000E+00
    0.52840E+04        -0.16111E+05         0.00000E+00
    0.00000E+00         0.00000E+00        -0.51572E+04
 
   -0.23610E+04         0.48173E+04         0.00000E+00
    0.48173E+04        -0.15450E+05         0.00000E+00
    0.00000E+00         0.00000E+00        -0.53432E+04
 
   -0.37207E+04         0.45829E+04         0.00000E+00
    0.45829E+04        -0.14812E+05         0.00000E+00
    0.00000E+00         0.00000E+00        -0.55597E+04
 
   -0.51809E+04         0.45806E+04         0.00000E+00
    0.45806E+04        -0.14178E+05         0.00000E+00
    0.00000E+00         0.00000E+00        -0.58075E+04
 
    0.94886E+03        -0.17039E+04         0.00000E+00
   -0.17039E+04         0.49000E+02         0.00000E+00
    0.00000E+00         0.00000E+00         0.35061E+03
 
   -0.18633E+05         0.80513E+03         0.00000E+00
    0.80513E+03        -0.13738E+04         0.00000E+00
    0.00000E+00         0.00000E+00        -0.60021E+04
 
   -0.26652E+05         0.61350E+04         0.00000E+00
    0.61350E+04        -0.49879E+04         0.00000E+00
    0.00000E+00         0.00000E+00        -0.12163E+05
 
   -0.26866E+05         0.88909E+04         0.00000E+00
    0.88909E+04        -0.83077E+04         0.00000E+00
    0.00000E+00         0.00000E+00        -0.15722E+05
 
   -0.25819E+05         0.10756E+05         0.00000E+00
    0.10756E+05        -0.11200E+05         0.00000E+00
    0.00000E+00         0.00000E+00        -0.17432E+05
 
   -0.23743E+05         0.12012E+05         0.00000E+00
    0.12012E+05        -0.13532E+05         0.00000E+00
    0.00000E+00         0.00000E+00        -0.17925E+05
 
   -0.21274E+05         0.12691E+05         0.00000E+00
    0.12691E+05        -0.15312E+05         0.00000E+00
    0.00000E+00         0.00000E+00        -0.17677E+05
 
   -0.18639E+05         0.12948E+05         0.00000E+00
    0.12948E+05        -0.16671E+05         0.00000E+00
    0.00000E+00         0.00000E+00        -0.16960E+05
 
   -0.16062E+05         0.12881E+05         0.00000E+00
    0.12881E+05        -0.17656E+05         0.00000E+00
    0.00000E+00         0.00000E+00        -0.15976E+05
 
   -0.13629E+05         0.12588E+05         0.00000E+00
    0.12588E+05        -0.18329E+05         0.00000E+00
    0.00000E+00         0.00000E+00        -0.14829E+05
 
   -0.11342E+05         0.12166E+05         0.00000E+00
    0.12166E+05        -0.18723E+05         0.00000E+00
    0.00000E+00         0.00000E+00        -0.13573E+05
 
   -0.92757E+04         0.11624E+05         0.00000E+00
    0.11624E+05        -0.18892E+05         0.00000E+00
    0.00000E+00         0.00000E+00        -0.12303E+05
 
   -0.74748E+04         0.11037E+05         0.00000E+00
    0.11037E+05        -0.18828E+05         0.00000E+00
    0.00000E+00         0.00000E+00        -0.11097E+05
 
   -0.58745E+04         0.10419E+05         0.00000E+00
    0.10419E+05        -0.18585E+05         0.00000E+00
    0.00000E+00         0.00000E+00        -0.99498E+04
 
   -0.44468E+04         0.97933E+04         0.00000E+00
    0.97933E+04        -0.18255E+05         0.00000E+00
    0.00000E+00         0.00000E+00        -0.88637E+04
 
   -0.31403E+04         0.91719E+04         0.00000E+00
    0.91719E+04        -0.17824E+05         0.00000E+00
    0.00000E+00         0.00000E+00        -0.77694E+04
 
   -0.19320E+04         0.85745E+04         0.00000E+00
    0.85745E+04        -0.17271E+05         0.00000E+00
    0.00000E+00         0.00000E+00        -0.66786E+04
 
   -0.77438E+03         0.80332E+04         0.00000E+00
    0.80332E+04        -0.16616E+05         0.00000E+00
    0.00000E+00         0.00000E+00        -0.56677E+04
 
    0.49807E+02         0.74566E+04         0.00000E+00
    0.74566E+04        -0.15971E+05         0.00000E+00
    0.00000E+00         0.00000E+00        -0.48140E+04
 
   -0.71328E+03         0.65799E+04         0.00000E+00
    0.65799E+04        -0.15497E+05         0.00000E+00
    0.00000E+00         0.00000E+00        -0.48631E+04
 
   -0.16787E+04         0.58665E+04         0.00000E+00
    0.58665E+04        -0.15029E+05         0.00000E+00
    0.00000E+00         0.00000E+00        -0.50124E+04
 
   -0.27151E+04         0.53907E+04         0.00000E+00
    0.53907E+04        -0.14538E+05         0.00000E+00
    0.00000E+00         0.00000E+00        -0.51760E+04
 
   -0.38388E+04         0.51553E+04         0.00000E+00
    0.51553E+04        -0.14034E+05         0.00000E+00
    0.00000E+00         0.00000E+00        -0.53619E+04
 
   -0.50506E+04         0.51650E+04         0.00000E+00
    0.51650E+04        -0.13515E+05         0.00000E+00
    0.00000E+00         0.00000E+00        -0.55698E+04
 
   -0.85879E+03        -0.17690E+04         0.00000E+00
   -0.17690E+04        -0.28083E+02         0.00000E+00
    0.00000E+00         0.00000E+00        -0.26606E+03
 
   -0.14035E+05        -0.11455E+04         0.00000E+00
   -0.11455E+04        -0.32864E+03         0.00000E+00
    0.00000E+00         0.00000E+00        -0.43091E+04
 
   -0.23208E+05         0.29835E+04         0.00000E+00
    0.29835E+04        -0.14805E+04         0.00000E+00
    0.00000E+00         0.00000E+00        -0.76369E+04
 
   -0.24778E+05         0.62787E+04         0.00000E+00
    0.62787E+04        -0.46971E+04         0.00000E+00
    0.00000E+00         0.00000E+00        -0.11370E+05
 
   -0.24089E+05         0.84507E+04         0.00000E+00
    0.84507E+04        -0.71061E+04         0.00000E+00
    0.00000E+00         0.00000E+00        -0.13210E+05
 
   -0.22523E+05         0.10024E+05         0.00000E+00
    0.10024E+05        -0.92865E+04         0.00000E+00
    0.00000E+00         0.00000E+00        -0.13934E+05
 
   -0.20561E+05         0.11079E+05         0.00000E+00
    0.11079E+05        -0.11179E+05         0.00000E+00
    0.00000E+00         0.00000E+00        -0.14109E+05
 
   -0.18317E+05         0.11676E+05         0.00000E+00
    0.11676E+05        -0.12665E+05         0.00000E+00
    0.00000E+00         0.00000E+00        -0.13789E+05
 
   -0.16049E+05         0.11923E+05         0.00000E+00
    0.11923E+05        -0.13809E+05         0.00000E+00
    0.00000E+00         0.00000E+00        -0.13195E+05
 
   -0.13819E+05         0.11917E+05         0.00000E+00
    0.11917E+05        -0.14651E+05         0.00000E+00
    0.00000E+00         0.00000E+00        -0.12395E+05
 
   -0.11692E+05         0.11738E+05         0.00000E+00
    0.11738E+05        -0.15235E+05         0.00000E+00
    0.00000E+00         0.00000E+00        -0.11466E+05
 
   -0.97379E+04         0.11432E+05         0.00000E+00
    0.11432E+05        -0.15589E+05         0.00000E+00
    0.00000E+00         0.00000E+00        -0.10482E+05
 
   -0.79966E+04         0.11021E+05         0.00000E+00
    0.11021E+05        -0.15783E+05         0.00000E+00
    0.00000E+00         0.00000E+00        -0.95297E+04
 
   -0.64293E+04         0.10558E+05         0.00000E+00
    0.10558E+05        -0.15833E+05         0.00000E+00
    0.00000E+00         0.00000E+00        -0.86046E+04
 
   -0.50032E+04         0.10065E+05         0.00000E+00
    0.10065E+05        -0.15714E+05         0.00000E+00
    0.00000E+00         0.00000E+00        -0.76959E+04
 
   -0.37032E+04         0.95621E+04         0.00000E+00
    0.95621E+04        -0.15459E+05         0.00000E+00
    0.00000E+00         0.00000E+00        -0.68247E+04
 
   -0.24583E+04         0.90654E+04         0.00000E+00
    0.90654E+04        -0.15114E+05         0.00000E+00
    0.00000E+00         0.00000E+00        -0.59392E+04
 
   -0.12849E+04         0.85754E+04         0.00000E+00
    0.85754E+04        -0.14687E+05         0.00000E+00
    0.00000E+00         0.00000E+00        -0.50593E+04
 
   -0.83313E+03         0.78527E+04         0.00000E+00
    0.78527E+04        -0.14352E+05         0.00000E+00
    0.00000E+00         0.00000E+00        -0.45556E+04
 
   -0.15300E+04         0.69179E+04         0.00000E+00
    0.69179E+04        -0.14162E+05         0.00000E+00
    0.00000E+00         0.00000E+00        -0.47076E+04
 
   -0.22529E+04         0.62514E+04         0.00000E+00
    0.62514E+04        -0.13896E+05         0.00000E+00
    0.00000E+00         0.00000E+00        -0.48446E+04
 
   -0.30572E+04         0.58140E+04         0.00000E+00
    0.58140E+04        -0.13569E+05         0.00000E+00
    0.00000E+00         0.00000E+00        -0.49877E+04
 
   -0.39429E+04         0.56042E+04         0.00000E+00
    0.56042E+04        -0.13197E+05         0.00000E+00
    0.00000E+00         0.00000E+00        -0.51419E+04
 
   -0.49005E+04         0.56343E+04         0.00000E+00
    0.56343E+04        -0.12796E+05         0.00000E+00
    0.00000E+00         0.00000E+00        -0.53089E+04
 
   -0.28933E+04        -0.15202E+04         0.00000E+00
   -0.15202E+04         0.15846E+03         0.00000E+00
    0.00000E+00         0.00000E+00        -0.82044E+03
 
   -0.11935E+05        -0.16427E+04         0.00000E+00
   -0.16427E+04         0.28788E+03         0.00000E+00
    0.00000E+00         0.00000E+00        -0.34942E+04
 
   -0.19235E+05         0.78366E+03         0.00000E+00
    0.78366E+03        -0.66784E+03         0.00000E+00
    0.00000E+00         0.00000E+00        -0.59710E+04
 
   -0.22452E+05         0.41344E+04         0.00000E+00
    0.41344E+04        -0.20292E+04         0.00000E+00
    0.00000E+00         0.00000E+00        -0.80266E+04
 
   -0.22272E+05         0.65008E+04         0.00000E+00
    0.65008E+04        -0.41139E+04         0.00000E+00
    0.00000E+00         0.00000E+00        -0.99064E+04
 
   -0.21132E+05         0.82004E+04         0.00000E+00
    0.82004E+04        -0.59006E+04         0.00000E+00
    0.00000E+00         0.00000E+00        -0.10847E+05
 
   -0.19582E+05         0.94568E+04         0.00000E+00
    0.94568E+04        -0.75618E+04         0.00000E+00
    0.00000E+00         0.00000E+00        -0.11158E+05
 
   -0.17718E+05         0.10347E+05         0.00000E+00
    0.10347E+05        -0.90534E+04         0.00000E+00
    0.00000E+00         0.00000E+00        -0.11095E+05
 
   -0.15778E+05         0.10864E+05         0.00000E+00
    0.10864E+05        -0.10293E+05         0.00000E+00
    0.00000E+00         0.00000E+00        -0.10763E+05
 
   -0.13763E+05         0.11108E+05         0.00000E+00
    0.11108E+05        -0.11265E+05         0.00000E+00
    0.00000E+00         0.00000E+00        -0.10221E+05
 
   -0.11810E+05         0.11158E+05         0.00000E+00
    0.11158E+05        -0.12011E+05         0.00000E+00
    0.00000E+00         0.00000E+00        -0.95412E+04
 
   -0.99983E+04         0.11044E+05         0.00000E+00
    0.11044E+05        -0.12561E+05         0.00000E+00
    0.00000E+00         0.00000E+00        -0.88017E+04
 
   -0.83532E+04         0.10809E+05         0.00000E+00
    0.10809E+05        -0.12920E+05         0.00000E+00
    0.00000E+00         0.00000E+00        -0.80669E+04
 
   -0.68353E+04         0.10502E+05         0.00000E+00
    0.10502E+05        -0.13103E+05         0.00000E+00
    0.00000E+00         0.00000E+00        -0.73334E+04
 
   -0.54348E+04         0.10142E+05         0.00000E+00
    0.10142E+05        -0.13176E+05         0.00000E+00
    0.00000E+00         0.00000E+00        -0.65981E+04
 
   -0.41538E+04         0.97446E+04         0.00000E+00
    0.97446E+04        -0.13151E+05         0.00000E+00
    0.00000E+00         0.00000E+00        -0.58851E+04
 
   -0.29116E+04         0.93335E+04         0.00000E+00
    0.93335E+04        -0.12983E+05         0.00000E+00
    0.00000E+00         0.00000E+00        -0.51328E+04
 
   -0.18341E+04         0.88775E+04         0.00000E+00
    0.88775E+04        -0.12817E+05         0.00000E+00
    0.00000E+00         0.00000E+00        -0.44384E+04
 
   -0.18899E+04         0.78617E+04         0.00000E+00
    0.78617E+04        -0.12913E+05         0.00000E+00
    0.00000E+00         0.00000E+00        -0.44409E+04
 
   -0.22673E+04         0.70549E+04         0.00000E+00
    0.70549E+04        -0.12911E+05         0.00000E+00
    0.00000E+00         0.00000E+00        -0.45536E+04
 
   -0.27675E+04         0.64762E+04         0.00000E+00
    0.64762E+04        -0.12796E+05         0.00000E+00
    0.00000E+00         0.00000E+00        -0.46691E+04
 
   -0.33558E+04         0.61020E+04         0.00000E+00
    0.61020E+04        -0.12599E+05         0.00000E+00
    0.00000E+00         0.00000E+00        -0.47864E+04
 
   -0.40186E+04         0.59351E+04         0.00000E+00
    0.59351E+04        -0.12344E+05         0.00000E+00
    0.00000E+00         0.00000E+00        -0.49087E+04
 
   -0.47333E+04         0.59900E+04         0.00000E+00
    0.59900E+04        -0.12053E+05         0.00000E+00
    0.00000E+00         0.00000E+00        -0.50359E+04
 
   -0.47269E+04        -0.11862E+04         0.00000E+00
   -0.11862E+04         0.14245E+03         0.00000E+00
    0.00000E+00         0.00000E+00        -0.13753E+04
 
   -0.11047E+05        -0.16568E+04         0.00000E+00
   -0.16568E+04         0.43173E+03         0.00000E+00
    0.00000E+00         0.00000E+00        -0.31847E+04
 
   -0.16292E+05        -0.95858E+02         0.00000E+00
   -0.95858E+02         0.34137E+03         0.00000E+00
    0.00000E+00         0.00000E+00        -0.47852E+04
 
   -0.19717E+05         0.24489E+04         0.00000E+00
    0.24489E+04        -0.40740E+03         0.00000E+00
    0.00000E+00         0.00000E+00        -0.60373E+04
 
   -0.20417E+05         0.48762E+04         0.00000E+00
    0.48762E+04        -0.18355E+04         0.00000E+00
    0.00000E+00         0.00000E+00        -0.72832E+04
 
   -0.19683E+05         0.66865E+04         0.00000E+00
    0.66865E+04        -0.34016E+04         0.00000E+00
    0.00000E+00         0.00000E+00        -0.82663E+04
 
   -0.18455E+05         0.80361E+04         0.00000E+00
    0.80361E+04        -0.47981E+04         0.00000E+00
    0.00000E+00         0.00000E+00        -0.87344E+04
 
   -0.16919E+05         0.90457E+04         0.00000E+00
    0.90457E+04        -0.60913E+04         0.00000E+00
    0.00000E+00         0.00000E+00        -0.88335E+04
 
   -0.15274E+05         0.97703E+04         0.00000E+00
    0.97703E+04        -0.72626E+04         0.00000E+00
    0.00000E+00         0.00000E+00        -0.86739E+04
 
   -0.13502E+05         0.10223E+05         0.00000E+00
    0.10223E+05        -0.82791E+04         0.00000E+00
    0.00000E+00         0.00000E+00        -0.83371E+04
 
   -0.11742E+05         0.10460E+05         0.00000E+00
    0.10460E+05        -0.90917E+04         0.00000E+00
    0.00000E+00         0.00000E+00        -0.78551E+04
 
   -0.10087E+05         0.10516E+05         0.00000E+00
    0.10516E+05        -0.97327E+04         0.00000E+00
    0.00000E+00         0.00000E+00        -0.73021E+04
 
   -0.85416E+04         0.10444E+05         0.00000E+00
    0.10444E+05        -0.10234E+05         0.00000E+00
    0.00000E+00         0.00000E+00        -0.67062E+04
 
   -0.70980E+04         0.10280E+05         0.00000E+00
    0.10280E+05        -0.10625E+05         0.00000E+00
    0.00000E+00         0.00000E+00        -0.61321E+04
 
   -0.57467E+04         0.10048E+05         0.00000E+00
    0.10048E+05        -0.10834E+05         0.00000E+00
    0.00000E+00         0.00000E+00        -0.55334E+04
 
   -0.45157E+04         0.97447E+04         0.00000E+00
    0.97447E+04        -0.10909E+05         0.00000E+00
    0.00000E+00         0.00000E+00        -0.49475E+04
 
   -0.32800E+04         0.94363E+04         0.00000E+00
    0.94363E+04        -0.11002E+05         0.00000E+00
    0.00000E+00         0.00000E+00        -0.43277E+04
 
   -0.28000E+04         0.85713E+04         0.00000E+00
    0.85713E+04        -0.11370E+05         0.00000E+00
    0.00000E+00         0.00000E+00        -0.42511E+04
 
   -0.27299E+04         0.77261E+04         0.00000E+00
    0.77261E+04        -0.11674E+05         0.00000E+00
    0.00000E+00         0.00000E+00        -0.43211E+04
 
   -0.28983E+04         0.70649E+04         0.00000E+00
    0.70649E+04        -0.11780E+05         0.00000E+00
    0.00000E+00         0.00000E+00        -0.44034E+04
 
   -0.32011E+04         0.65839E+04         0.00000E+00
    0.65839E+04        -0.11765E+05         0.00000E+00
    0.00000E+00         0.00000E+00        -0.44897E+04
 
   -0.35979E+04         0.62810E+04         0.00000E+00
    0.62810E+04        -0.11665E+05         0.00000E+00
    0.00000E+00         0.00000E+00        -0.45790E+04
 
   -0.40587E+04         0.61621E+04         0.00000E+00
    0.61621E+04        -0.11507E+05         0.00000E+00
    0.00000E+00         0.00000E+00        -0.46697E+04
 
   -0.45530E+04         0.62414E+04         0.00000E+00
    0.62414E+04        -0.11313E+05         0.00000E+00
    0.00000E+00         0.00000E+00        -0.47597E+04
 
   -0.62296E+04        -0.87760E+03         0.00000E+00
   -0.87760E+03         0.12298E+03         0.00000E+00
    0.00000E+00         0.00000E+00        -0.18320E+04
 
   -0.10573E+05        -0.13323E+04         0.00000E+00
   -0.13323E+04         0.49511E+03         0.00000E+00
    0.00000E+00         0.00000E+00        -0.30234E+04
 
   -0.14492E+05        -0.34043E+03         0.00000E+00
   -0.34043E+03         0.66362E+03         0.00000E+00
    0.00000E+00         0.00000E+00        -0.41485E+04
 
   -0.17174E+05         0.15172E+04         0.00000E+00
    0.15172E+04         0.31660E+03         0.00000E+00
    0.00000E+00         0.00000E+00        -0.50574E+04
 
   -0.18455E+05         0.36122E+04         0.00000E+00
    0.36122E+04        -0.27224E+03         0.00000E+00
    0.00000E+00         0.00000E+00        -0.56182E+04
 
   -0.18199E+05         0.53906E+04         0.00000E+00
    0.53906E+04        -0.13932E+04         0.00000E+00
    0.00000E+00         0.00000E+00        -0.62368E+04
 
   -0.17279E+05         0.68192E+04         0.00000E+00
    0.68192E+04        -0.26544E+04         0.00000E+00
    0.00000E+00         0.00000E+00        -0.67050E+04
 
   -0.16024E+05         0.79157E+04         0.00000E+00
    0.79157E+04        -0.37929E+04         0.00000E+00
    0.00000E+00         0.00000E+00        -0.68947E+04
 
   -0.14609E+05         0.87133E+04         0.00000E+00
    0.87133E+04        -0.48589E+04         0.00000E+00
    0.00000E+00         0.00000E+00        -0.68866E+04
 
   -0.13078E+05         0.93270E+04         0.00000E+00
    0.93270E+04        -0.57892E+04         0.00000E+00
    0.00000E+00         0.00000E+00        -0.66458E+04
 
   -0.11514E+05         0.97069E+04         0.00000E+00
    0.97069E+04        -0.66270E+04         0.00000E+00
    0.00000E+00         0.00000E+00        -0.63117E+04
 
   -0.10016E+05         0.99219E+04         0.00000E+00
    0.99219E+04        -0.73432E+04         0.00000E+00
    0.00000E+00         0.00000E+00        -0.59045E+04
 
   -0.85960E+04         0.99736E+04         0.00000E+00
    0.99736E+04        -0.78915E+04         0.00000E+00
    0.00000E+00         0.00000E+00        -0.54619E+04
 
   -0.72245E+04         0.99317E+04         0.00000E+00
    0.99317E+04        -0.82713E+04         0.00000E+00
    0.00000E+00         0.00000E+00        -0.49872E+04
 
   -0.59829E+04         0.98139E+04         0.00000E+00
    0.98139E+04        -0.86439E+04         0.00000E+00
    0.00000E+00         0.00000E+00        -0.45277E+04
 
   -0.48085E+04         0.95438E+04         0.00000E+00
    0.95438E+04        -0.90728E+04         0.00000E+00
    0.00000E+00         0.00000E+00        -0.41644E+04
 
   -0.40217E+04         0.88593E+04         0.00000E+00
    0.88593E+04        -0.97152E+04         0.00000E+00
    0.00000E+00         0.00000E+00        -0.41211E+04
 
   -0.35873E+04         0.81566E+04         0.00000E+00
    0.81566E+04        -0.10263E+05         0.00000E+00
    0.00000E+00         0.00000E+00        -0.41552E+04
 
   -0.34007E+04         0.75135E+04         0.00000E+00
    0.75135E+04        -0.10584E+05         0.00000E+00
    0.00000E+00         0.00000E+00        -0.41955E+04
 
   -0.34103E+04         0.69899E+04         0.00000E+00
    0.69899E+04        -0.10752E+05         0.00000E+00
    0.00000E+00         0.00000E+00        -0.42488E+04
 
   -0.35516E+04         0.66068E+04         0.00000E+00
    0.66068E+04        -0.10809E+05         0.00000E+00
    0.00000E+00         0.00000E+00        -0.43081E+04
 
   -0.37808E+04         0.63737E+04         0.00000E+00
    0.63737E+04        -0.10785E+05         0.00000E+00
    0.00000E+00         0.00000E+00        -0.43696E+04
 
   -0.40633E+04         0.63009E+04         0.00000E+00
    0.63009E+04        -0.10705E+05         0.00000E+00
    0.00000E+00         0.00000E+00        -0.44304E+04
 
   -0.43639E+04         0.64011E+04         0.00000E+00
    0.64011E+04        -0.10593E+05         0.00000E+00
    0.00000E+00         0.00000E+00        -0.44872E+04
 
   -0.73281E+04        -0.60329E+03         0.00000E+00
   -0.60329E+03         0.10361E+03         0.00000E+00
    0.00000E+00         0.00000E+00        -0.21674E+04
 
   -0.10325E+05        -0.94944E+03         0.00000E+00
   -0.94944E+03         0.43993E+03         0.00000E+00
    0.00000E+00         0.00000E+00        -0.29656E+04
 
   -0.13209E+05        -0.26268E+03         0.00000E+00
   -0.26268E+03         0.72374E+03         0.00000E+00
    0.00000E+00         0.00000E+00        -0.37454E+04
 
   -0.15356E+05         0.11436E+04         0.00000E+00
    0.11436E+04         0.69969E+03         0.00000E+00
    0.00000E+00         0.00000E+00        -0.43968E+04
 
   -0.16508E+05         0.28279E+04         0.00000E+00
    0.28279E+04         0.26371E+03         0.00000E+00
    0.00000E+00         0.00000E+00        -0.48734E+04
 
   -0.16675E+05         0.44510E+04         0.00000E+00
    0.44510E+04        -0.25740E+03         0.00000E+00
    0.00000E+00         0.00000E+00        -0.50797E+04
 
   -0.16101E+05         0.58299E+04         0.00000E+00
    0.58299E+04        -0.93854E+03         0.00000E+00
    0.00000E+00         0.00000E+00        -0.51867E+04
 
   -0.15094E+05         0.69051E+04         0.00000E+00
    0.69051E+04        -0.19088E+04         0.00000E+00
    0.00000E+00         0.00000E+00        -0.53480E+04
 
   -0.13870E+05         0.78024E+04         0.00000E+00
    0.78024E+04        -0.28345E+04         0.00000E+00
    0.00000E+00         0.00000E+00        -0.53552E+04
 
   -0.12534E+05         0.84782E+04         0.00000E+00
    0.84782E+04        -0.37027E+04         0.00000E+00
    0.00000E+00         0.00000E+00        -0.52132E+04
 
   -0.11162E+05         0.89547E+04         0.00000E+00
    0.89547E+04        -0.44695E+04         0.00000E+00
    0.00000E+00         0.00000E+00        -0.49794E+04
 
   -0.98216E+04         0.92662E+04         0.00000E+00
    0.92662E+04        -0.51508E+04         0.00000E+00
    0.00000E+00         0.00000E+00        -0.46734E+04
 
   -0.85344E+04         0.94674E+04         0.00000E+00
    0.94674E+04        -0.57953E+04         0.00000E+00
    0.00000E+00         0.00000E+00        -0.43468E+04
 
   -0.73175E+04         0.94252E+04         0.00000E+00
    0.94252E+04        -0.65246E+04         0.00000E+00
    0.00000E+00         0.00000E+00        -0.41537E+04
 
   -0.62163E+04         0.91762E+04         0.00000E+00
    0.91762E+04        -0.73106E+04         0.00000E+00
    0.00000E+00         0.00000E+00        -0.40581E+04
 
   -0.53287E+04         0.87700E+04         0.00000E+00
    0.87700E+04        -0.81417E+04         0.00000E+00
    0.00000E+00         0.00000E+00        -0.40411E+04
 
   -0.46466E+04         0.82748E+04         0.00000E+00
    0.82748E+04        -0.88033E+04         0.00000E+00
    0.00000E+00         0.00000E+00        -0.40350E+04
 
   -0.41769E+04         0.77446E+04         0.00000E+00
    0.77446E+04        -0.92796E+04         0.00000E+00
    0.00000E+00         0.00000E+00        -0.40369E+04
 
   -0.39173E+04         0.72612E+04         0.00000E+00
    0.72612E+04        -0.96135E+04         0.00000E+00
    0.00000E+00         0.00000E+00        -0.40592E+04
 
   -0.38119E+04         0.68594E+04         0.00000E+00
    0.68594E+04        -0.98191E+04         0.00000E+00
    0.00000E+00         0.00000E+00        -0.40893E+04
 
   -0.38220E+04         0.65663E+04         0.00000E+00
    0.65663E+04        -0.99264E+04         0.00000E+00
    0.00000E+00         0.00000E+00        -0.41245E+04
 
   -0.39085E+04         0.63977E+04         0.00000E+00
    0.63977E+04        -0.99609E+04         0.00000E+00
    0.00000E+00         0.00000E+00        -0.41608E+04
 
   -0.40364E+04         0.63660E+04         0.00000E+00
    0.63660E+04        -0.99458E+04         0.00000E+00
    0.00000E+00         0.00000E+00        -0.41947E+04
 
   -0.41703E+04         0.64827E+04         0.00000E+00
    0.64827E+04        -0.99042E+04         0.00000E+00
    0.00000E+00         0.00000E+00        -0.42224E+04
 
   -0.80647E+04        -0.38413E+03         0.00000E+00
   -0.38413E+03         0.79132E+02         0.00000E+00
    0.00000E+00         0.00000E+00        -0.23957E+04
 
   -0.10146E+05        -0.58713E+03         0.00000E+00
   -0.58713E+03         0.35939E+03         0.00000E+00
    0.00000E+00         0.00000E+00        -0.29361E+04
 
   -0.12251E+05        -0.60532E+02         0.00000E+00
   -0.60532E+02         0.64815E+03         0.00000E+00
    0.00000E+00         0.00000E+00        -0.34808E+04
 
   -0.13935E+05         0.10248E+04         0.00000E+00
    0.10248E+04         0.73677E+03         0.00000E+00
    0.00000E+00         0.00000E+00        -0.39595E+04
 
   -0.14937E+05         0.24159E+04         0.00000E+00
    0.24159E+04         0.55900E+03         0.00000E+00
    0.00000E+00         0.00000E+00        -0.43133E+04
 
   -0.15207E+05         0.38420E+04         0.00000E+00
    0.38420E+04         0.10876E+03         0.00000E+00
    0.00000E+00         0.00000E+00        -0.45293E+04
 
   -0.14893E+05         0.50911E+04         0.00000E+00
    0.50911E+04        -0.49709E+03         0.00000E+00
    0.00000E+00         0.00000E+00        -0.46170E+04
 
   -0.14127E+05         0.61596E+04         0.00000E+00
    0.61596E+04        -0.10431E+04         0.00000E+00
    0.00000E+00         0.00000E+00        -0.45511E+04
 
   -0.13103E+05         0.70370E+04         0.00000E+00
    0.70370E+04        -0.16792E+04         0.00000E+00
    0.00000E+00         0.00000E+00        -0.44346E+04
 
   -0.11960E+05         0.77096E+04         0.00000E+00
    0.77096E+04        -0.24165E+04         0.00000E+00
    0.00000E+00         0.00000E+00        -0.43131E+04
 
   -0.10772E+05         0.82009E+04         0.00000E+00
    0.82009E+04        -0.32268E+04         0.00000E+00
    0.00000E+00         0.00000E+00        -0.41996E+04
 
   -0.95799E+04         0.85001E+04         0.00000E+00
    0.85001E+04        -0.40904E+04         0.00000E+00
    0.00000E+00         0.00000E+00        -0.41011E+04
 
   -0.84849E+04         0.86037E+04         0.00000E+00
    0.86037E+04        -0.50147E+04         0.00000E+00
    0.00000E+00         0.00000E+00        -0.40499E+04
 
   -0.74644E+04         0.85728E+04         0.00000E+00
    0.85728E+04        -0.58906E+04         0.00000E+00
    0.00000E+00         0.00000E+00        -0.40065E+04
 
   -0.65193E+04         0.83886E+04         0.00000E+00
    0.83886E+04        -0.66870E+04         0.00000E+00
    0.00000E+00         0.00000E+00        -0.39619E+04
 
   -0.57193E+04         0.80869E+04         0.00000E+00
    0.80869E+04        -0.73717E+04         0.00000E+00
    0.00000E+00         0.00000E+00        -0.39273E+04
 
   -0.50903E+04         0.77297E+04         0.00000E+00
    0.77297E+04        -0.79507E+04         0.00000E+00
    0.00000E+00         0.00000E+00        -0.39123E+04
 
   -0.46212E+04         0.73483E+04         0.00000E+00
    0.73483E+04        -0.84074E+04         0.00000E+00
    0.00000E+00         0.00000E+00        -0.39086E+04
 
   -0.43047E+04         0.69894E+04         0.00000E+00
    0.69894E+04        -0.87397E+04         0.00000E+00
    0.00000E+00         0.00000E+00        -0.39133E+04
 
   -0.41155E+04         0.66910E+04         0.00000E+00
    0.66910E+04        -0.89688E+04         0.00000E+00
    0.00000E+00         0.00000E+00        -0.39253E+04
 
   -0.40200E+04         0.64773E+04         0.00000E+00
    0.64773E+04        -0.91134E+04         0.00000E+00
    0.00000E+00         0.00000E+00        -0.39400E+04
 
   -0.39865E+04         0.63658E+04         0.00000E+00
    0.63658E+04        -0.91946E+04         0.00000E+00
    0.00000E+00         0.00000E+00        -0.39543E+04
 
   -0.39828E+04         0.63695E+04         0.00000E+00
    0.63695E+04        -0.92330E+04         0.00000E+00
    0.00000E+00         0.00000E+00        -0.39647E+04
 
   -0.39755E+04         0.64985E+04         0.00000E+00
    0.64985E+04        -0.92498E+04         0.00000E+00
    0.00000E+00         0.00000E+00        -0.39676E+04
 
   -0.85028E+04        -0.21785E+03         0.00000E+00
   -0.21785E+03         0.58385E+02         0.00000E+00
    0.00000E+00         0.00000E+00        -0.25333E+04
 
   -0.99670E+04        -0.28460E+03         0.00000E+00
   -0.28460E+03         0.27468E+03         0.00000E+00
    0.00000E+00         0.00000E+00        -0.29077E+04
 
   -0.11504E+05         0.15677E+03         0.00000E+00
    0.15677E+03         0.51984E+03         0.00000E+00
    0.00000E+00         0.00000E+00        -0.32954E+04
 
   -0.12792E+05         0.10248E+04         0.00000E+00
    0.10248E+04         0.63897E+03         0.00000E+00
    0.00000E+00         0.00000E+00        -0.36459E+04
 
   -0.13625E+05         0.21560E+04         0.00000E+00
    0.21560E+04         0.54336E+03         0.00000E+00
    0.00000E+00         0.00000E+00        -0.39245E+04
 
   -0.13935E+05         0.33665E+04         0.00000E+00
    0.33665E+04         0.22791E+03         0.00000E+00
    0.00000E+00         0.00000E+00        -0.41122E+04
 
   -0.13756E+05         0.45189E+04         0.00000E+00
    0.45189E+04        -0.25085E+03         0.00000E+00
    0.00000E+00         0.00000E+00        -0.42022E+04
 
   -0.13190E+05         0.55226E+04         0.00000E+00
    0.55226E+04        -0.85678E+03         0.00000E+00
    0.00000E+00         0.00000E+00        -0.42139E+04
 
   -0.12364E+05         0.63284E+04         0.00000E+00
    0.63284E+04        -0.15334E+04         0.00000E+00
    0.00000E+00         0.00000E+00        -0.41693E+04
 
   -0.11408E+05         0.69439E+04         0.00000E+00
    0.69439E+04        -0.22614E+04         0.00000E+00
    0.00000E+00         0.00000E+00        -0.41009E+04
 
   -0.10397E+05         0.73850E+04         0.00000E+00
    0.73850E+04        -0.30292E+04         0.00000E+00
    0.00000E+00         0.00000E+00        -0.40278E+04
 
   -0.93906E+04         0.76556E+04         0.00000E+00
    0.76556E+04        -0.38223E+04         0.00000E+00
    0.00000E+00         0.00000E+00        -0.39639E+04
 
   -0.84338E+04         0.77791E+04         0.00000E+00
    0.77791E+04        -0.46000E+04         0.00000E+00
    0.00000E+00         0.00000E+00        -0.39101E+04
 
   -0.75409E+04         0.77877E+04         0.00000E+00
    0.77877E+04        -0.53509E+04         0.00000E+00
    0.00000E+00         0.00000E+00        -0.38675E+04
 
   -0.67194E+04         0.76837E+04         0.00000E+00
    0.76837E+04        -0.60510E+04         0.00000E+00
    0.00000E+00         0.00000E+00        -0.38311E+04
 
   -0.60015E+04         0.74860E+04         0.00000E+00
    0.74860E+04        -0.66710E+04         0.00000E+00
    0.00000E+00         0.00000E+00        -0.38017E+04
 
   -0.54081E+04         0.72339E+04         0.00000E+00
    0.72339E+04        -0.71943E+04         0.00000E+00
    0.00000E+00         0.00000E+00        -0.37807E+04
 
   -0.49405E+04         0.69639E+04         0.00000E+00
    0.69639E+04        -0.76199E+04         0.00000E+00
    0.00000E+00         0.00000E+00        -0.37681E+04
 
   -0.45885E+04         0.67082E+04         0.00000E+00
    0.67082E+04        -0.79496E+04         0.00000E+00
    0.00000E+00         0.00000E+00        -0.37614E+04
 
   -0.43344E+04         0.64962E+04         0.00000E+00
    0.64962E+04        -0.81930E+04         0.00000E+00
    0.00000E+00         0.00000E+00        -0.37582E+04
 
   -0.41545E+04         0.63507E+04         0.00000E+00
    0.63507E+04        -0.83656E+04         0.00000E+00
    0.00000E+00         0.00000E+00        -0.37560E+04
 
   -0.40216E+04         0.62883E+04         0.00000E+00
    0.62883E+04        -0.84841E+04         0.00000E+00
    0.00000E+00         0.00000E+00        -0.37517E+04
 
   -0.39075E+04         0.63216E+04         0.00000E+00
    0.63216E+04        -0.85665E+04         0.00000E+00
    0.00000E+00         0.00000E+00        -0.37422E+04
 
   -0.37820E+04         0.64594E+04         0.00000E+00
    0.64594E+04        -0.86318E+04         0.00000E+00
    0.00000E+00         0.00000E+00        -0.37241E+04
 
   -0.87116E+04        -0.97278E+02         0.00000E+00
   -0.97278E+02         0.41219E+02         0.00000E+00
    0.00000E+00         0.00000E+00        -0.26011E+04
 
   -0.97628E+04        -0.52517E+02         0.00000E+00
   -0.52517E+02         0.19847E+03         0.00000E+00
    0.00000E+00         0.00000E+00        -0.28693E+04
 
   -0.10891E+05         0.34354E+03         0.00000E+00
    0.34354E+03         0.38622E+03         0.00000E+00
    0.00000E+00         0.00000E+00        -0.31513E+04
 
   -0.11869E+05         0.10547E+04         0.00000E+00
    0.10547E+04         0.48744E+03         0.00000E+00
    0.00000E+00         0.00000E+00        -0.34143E+04
 
   -0.12538E+05         0.19811E+04         0.00000E+00
    0.19811E+04         0.42912E+03         0.00000E+00
    0.00000E+00         0.00000E+00        -0.36328E+04
 
   -0.12826E+05         0.30007E+04         0.00000E+00
    0.30007E+04         0.18863E+03         0.00000E+00
    0.00000E+00         0.00000E+00        -0.37913E+04
 
   -0.12735E+05         0.40005E+04         0.00000E+00
    0.40005E+04        -0.22070E+03         0.00000E+00
    0.00000E+00         0.00000E+00        -0.38868E+04
 
   -0.12323E+05         0.48961E+04         0.00000E+00
    0.48961E+04        -0.76090E+03         0.00000E+00
    0.00000E+00         0.00000E+00        -0.39252E+04
 
   -0.11680E+05         0.56390E+04         0.00000E+00
    0.56390E+04        -0.13915E+04         0.00000E+00
    0.00000E+00         0.00000E+00        -0.39214E+04
 
   -0.10897E+05         0.62160E+04         0.00000E+00
    0.62160E+04        -0.20733E+04         0.00000E+00
    0.00000E+00         0.00000E+00        -0.38911E+04
 
   -0.10049E+05         0.66344E+04         0.00000E+00
    0.66344E+04        -0.27815E+04         0.00000E+00
    0.00000E+00         0.00000E+00        -0.38492E+04
 
   -0.91892E+04         0.69083E+04         0.00000E+00
    0.69083E+04        -0.34934E+04         0.00000E+00
    0.00000E+00         0.00000E+00        -0.38048E+04
 
   -0.83547E+04         0.70575E+04         0.00000E+00
    0.70575E+04        -0.41896E+04         0.00000E+00
    0.00000E+00         0.00000E+00        -0.37633E+04
 
   -0.75656E+04         0.71025E+04         0.00000E+00
    0.71025E+04        -0.48540E+04         0.00000E+00
    0.00000E+00         0.00000E+00        -0.37259E+04
 
   -0.68373E+04         0.70578E+04         0.00000E+00
    0.70578E+04        -0.54732E+04         0.00000E+00
    0.00000E+00         0.00000E+00        -0.36932E+04
 
   -0.61869E+04         0.69407E+04         0.00000E+00
    0.69407E+04        -0.60293E+04         0.00000E+00
    0.00000E+00         0.00000E+00        -0.36649E+04
 
   -0.56277E+04         0.67771E+04         0.00000E+00
    0.67771E+04        -0.65098E+04         0.00000E+00
    0.00000E+00         0.00000E+00        -0.36412E+04
 
   -0.51627E+04         0.65955E+04         0.00000E+00
    0.65955E+04        -0.69101E+04         0.00000E+00
    0.00000E+00         0.00000E+00        -0.36219E+04
 
   -0.47855E+04         0.64230E+04         0.00000E+00
    0.64230E+04        -0.72329E+04         0.00000E+00
    0.00000E+00         0.00000E+00        -0.36055E+04
 
   -0.44824E+04         0.62829E+04         0.00000E+00
    0.62829E+04        -0.74853E+04         0.00000E+00
    0.00000E+00         0.00000E+00        -0.35903E+04
 
   -0.42348E+04         0.61948E+04         0.00000E+00
    0.61948E+04        -0.76786E+04         0.00000E+00
    0.00000E+00         0.00000E+00        -0.35740E+04
 
   -0.40205E+04         0.61739E+04         0.00000E+00
    0.61739E+04        -0.78268E+04         0.00000E+00
    0.00000E+00         0.00000E+00        -0.35542E+04
 
   -0.38150E+04         0.62314E+04         0.00000E+00
    0.62314E+04        -0.79451E+04         0.00000E+00
    0.00000E+00         0.00000E+00        -0.35280E+04
 
   -0.35917E+04         0.63748E+04         0.00000E+00
    0.63748E+04        -0.80504E+04         0.00000E+00
    0.00000E+00         0.00000E+00        -0.34926E+04
 
   -0.87539E+04        -0.13730E+02         0.00000E+00
   -0.13730E+02         0.27824E+02         0.00000E+00
    0.00000E+00         0.00000E+00        -0.26178E+04
 
   -0.95299E+04         0.11397E+03         0.00000E+00
    0.11397E+03         0.13588E+03         0.00000E+00
    0.00000E+00         0.00000E+00        -0.28182E+04
 
   -0.10367E+05         0.48279E+03         0.00000E+00
    0.48279E+03         0.26701E+03         0.00000E+00
    0.00000E+00         0.00000E+00        -0.30300E+04
 
   -0.11109E+05         0.10808E+04         0.00000E+00
    0.10808E+04         0.33707E+03         0.00000E+00
    0.00000E+00         0.00000E+00        -0.32315E+04
 
   -0.11637E+05         0.18479E+04         0.00000E+00
    0.18479E+04         0.28655E+03         0.00000E+00
    0.00000E+00         0.00000E+00        -0.34050E+04
 
   -0.11886E+05         0.27005E+04         0.00000E+00
    0.27005E+04         0.87910E+02         0.00000E+00
    0.00000E+00         0.00000E+00        -0.35393E+04
 
   -0.11845E+05         0.35541E+04         0.00000E+00
    0.35541E+04        -0.25642E+03         0.00000E+00
    0.00000E+00         0.00000E+00        -0.36303E+04
 
   -0.11546E+05         0.43394E+04         0.00000E+00
    0.43394E+04        -0.72376E+03         0.00000E+00
    0.00000E+00         0.00000E+00        -0.36808E+04
 
   -0.11046E+05         0.50114E+04         0.00000E+00
    0.50114E+04        -0.12801E+04         0.00000E+00
    0.00000E+00         0.00000E+00        -0.36979E+04
 
   -0.10413E+05         0.55505E+04         0.00000E+00
    0.55505E+04        -0.18914E+04         0.00000E+00
    0.00000E+00         0.00000E+00        -0.36914E+04
 
   -0.97061E+04         0.59559E+04         0.00000E+00
    0.59559E+04        -0.25284E+04         0.00000E+00
    0.00000E+00         0.00000E+00        -0.36703E+04
 
   -0.89719E+04         0.62375E+04         0.00000E+00
    0.62375E+04        -0.31683E+04         0.00000E+00
    0.00000E+00         0.00000E+00        -0.36421E+04
 
   -0.82441E+04         0.64109E+04         0.00000E+00
    0.64109E+04        -0.37931E+04         0.00000E+00
    0.00000E+00         0.00000E+00        -0.36112E+04
 
   -0.75454E+04         0.64926E+04         0.00000E+00
    0.64926E+04        -0.43892E+04         0.00000E+00
    0.00000E+00         0.00000E+00        -0.35804E+04
 
   -0.68915E+04         0.64983E+04         0.00000E+00
    0.64983E+04        -0.49444E+04         0.00000E+00
    0.00000E+00         0.00000E+00        -0.35508E+04
 
   -0.62957E+04         0.64447E+04         0.00000E+00
    0.64447E+04        -0.54476E+04         0.00000E+00
    0.00000E+00         0.00000E+00        -0.35230E+04
 
   -0.57666E+04         0.63521E+04         0.00000E+00
    0.63521E+04        -0.58900E+04         0.00000E+00
    0.00000E+00         0.00000E+00        -0.34970E+04
 
   -0.53068E+04         0.62425E+04         0.00000E+00
    0.62425E+04        -0.62680E+04         0.00000E+00
    0.00000E+00         0.00000E+00        -0.34724E+04
 
   -0.49117E+04         0.61375E+04         0.00000E+00
    0.61375E+04        -0.65827E+04         0.00000E+00
    0.00000E+00         0.00000E+00        -0.34483E+04
 
   -0.45711E+04         0.60567E+04         0.00000E+00
    0.60567E+04        -0.68400E+04         0.00000E+00
    0.00000E+00         0.00000E+00        -0.34233E+04
 
   -0.42698E+04         0.60163E+04         0.00000E+00
    0.60163E+04        -0.70487E+04         0.00000E+00
    0.00000E+00         0.00000E+00        -0.33956E+04
 
   -0.39896E+04         0.60296E+04         0.00000E+00
    0.60296E+04        -0.72201E+04         0.00000E+00
    0.00000E+00         0.00000E+00        -0.33629E+04
 
   -0.37094E+04         0.61064E+04         0.00000E+00
    0.61064E+04        -0.73675E+04         0.00000E+00
    0.00000E+00         0.00000E+00        -0.33231E+04
 
   -0.34062E+04         0.62530E+04         0.00000E+00
    0.62530E+04        -0.75053E+04         0.00000E+00
    0.00000E+00         0.00000E+00        -0.32734E+04
 
   -0.86818E+04         0.41390E+02         0.00000E+00
    0.41390E+02         0.17830E+02         0.00000E+00
    0.00000E+00         0.00000E+00        -0.25992E+04
 
   -0.92744E+04         0.22544E+03         0.00000E+00
    0.22544E+03         0.87376E+02         0.00000E+00
    0.00000E+00         0.00000E+00        -0.27561E+04
 
   -0.99069E+04         0.57488E+03         0.00000E+00
    0.57488E+03         0.17054E+03         0.00000E+00
    0.00000E+00         0.00000E+00        -0.29209E+04
 
   -0.10473E+05         0.10893E+04         0.00000E+00
    0.10893E+04         0.20775E+03         0.00000E+00
    0.00000E+00         0.00000E+00        -0.30794E+04
 
   -0.10885E+05         0.17326E+04         0.00000E+00
    0.17326E+04         0.15290E+03         0.00000E+00
    0.00000E+00         0.00000E+00        -0.32196E+04
 
   -0.11092E+05         0.24482E+04         0.00000E+00
    0.24482E+04        -0.19062E+02         0.00000E+00
    0.00000E+00         0.00000E+00        -0.33333E+04
 
   -0.11077E+05         0.31747E+04         0.00000E+00
    0.31747E+04        -0.31170E+03         0.00000E+00
    0.00000E+00         0.00000E+00        -0.34167E+04
 
   -0.10857E+05         0.38580E+04         0.00000E+00
    0.38580E+04        -0.71105E+03         0.00000E+00
    0.00000E+00         0.00000E+00        -0.34703E+04
 
   -0.10467E+05         0.44597E+04         0.00000E+00
    0.44597E+04        -0.11927E+04         0.00000E+00
    0.00000E+00         0.00000E+00        -0.34979E+04
 
   -0.99550E+04         0.49588E+04         0.00000E+00
    0.49588E+04        -0.17287E+04         0.00000E+00
    0.00000E+00         0.00000E+00        -0.35051E+04
 
   -0.93661E+04         0.53494E+04         0.00000E+00
    0.53494E+04        -0.22930E+04         0.00000E+00
    0.00000E+00         0.00000E+00        -0.34977E+04
 
   -0.87394E+04         0.56363E+04         0.00000E+00
    0.56363E+04        -0.28637E+04         0.00000E+00
    0.00000E+00         0.00000E+00        -0.34809E+04
 
   -0.81049E+04         0.58301E+04         0.00000E+00
    0.58301E+04        -0.34238E+04         0.00000E+00
    0.00000E+00         0.00000E+00        -0.34586E+04
 
   -0.74843E+04         0.59442E+04         0.00000E+00
    0.59442E+04        -0.39600E+04         0.00000E+00
    0.00000E+00         0.00000E+00        -0.34333E+04
 
   -0.68934E+04         0.59928E+04         0.00000E+00
    0.59928E+04        -0.44617E+04         0.00000E+00
    0.00000E+00         0.00000E+00        -0.34065E+04
 
   -0.63431E+04         0.59909E+04         0.00000E+00
    0.59909E+04        -0.49204E+04         0.00000E+00
    0.00000E+00         0.00000E+00        -0.33791E+04
 
   -0.58405E+04         0.59555E+04         0.00000E+00
    0.59555E+04        -0.53298E+04         0.00000E+00
    0.00000E+00         0.00000E+00        -0.33511E+04
 
   -0.53873E+04         0.59042E+04         0.00000E+00
    0.59042E+04        -0.56870E+04         0.00000E+00
    0.00000E+00         0.00000E+00        -0.33223E+04
 
   -0.49801E+04         0.58543E+04         0.00000E+00
    0.58543E+04        -0.59931E+04         0.00000E+00
    0.00000E+00         0.00000E+00        -0.32920E+04
 
   -0.46109E+04         0.58218E+04         0.00000E+00
    0.58218E+04        -0.62524E+04         0.00000E+00
    0.00000E+00         0.00000E+00        -0.32590E+04
 
   -0.42675E+04         0.58206E+04         0.00000E+00
    0.58206E+04        -0.64720E+04         0.00000E+00
    0.00000E+00         0.00000E+00        -0.32218E+04
 
   -0.39345E+04         0.58618E+04         0.00000E+00
    0.58618E+04        -0.66615E+04         0.00000E+00
    0.00000E+00         0.00000E+00        -0.31788E+04
 
   -0.35940E+04         0.59535E+04         0.00000E+00
    0.59535E+04        -0.68319E+04         0.00000E+00
    0.00000E+00         0.00000E+00        -0.31278E+04
 
   -0.32264E+04         0.61011E+04         0.00000E+00
    0.61011E+04        -0.69958E+04         0.00000E+00
    0.00000E+00         0.00000E+00        -0.30667E+04
 
   -0.85357E+04         0.75553E+02         0.00000E+00
    0.75553E+02         0.10632E+02         0.00000E+00
    0.00000E+00         0.00000E+00        -0.25575E+04
 
   -0.90052E+04         0.29401E+03         0.00000E+00
    0.29401E+03         0.51549E+02         0.00000E+00
    0.00000E+00         0.00000E+00        -0.26861E+04
 
   -0.94939E+04         0.62659E+03         0.00000E+00
    0.62659E+03         0.97058E+02         0.00000E+00
    0.00000E+00         0.00000E+00        -0.28191E+04
 
   -0.99301E+04         0.10774E+04         0.00000E+00
    0.10774E+04         0.10576E+03         0.00000E+00
    0.00000E+00         0.00000E+00        -0.29473E+04
 
   -0.10252E+05         0.16248E+04         0.00000E+00
    0.16248E+04         0.43315E+02         0.00000E+00
    0.00000E+00         0.00000E+00        -0.30627E+04
 
   -0.10420E+05         0.22308E+04         0.00000E+00
    0.22308E+04        -0.11117E+03         0.00000E+00
    0.00000E+00         0.00000E+00        -0.31594E+04
 
   -0.10417E+05         0.28513E+04         0.00000E+00
    0.28513E+04        -0.36325E+03         0.00000E+00
    0.00000E+00         0.00000E+00        -0.32341E+04
 
   -0.10250E+05         0.34454E+04         0.00000E+00
    0.34454E+04        -0.70512E+03         0.00000E+00
    0.00000E+00         0.00000E+00        -0.32866E+04
 
   -0.99418E+04         0.39815E+04         0.00000E+00
    0.39815E+04        -0.11197E+04         0.00000E+00
    0.00000E+00         0.00000E+00        -0.33184E+04
 
   -0.95245E+04         0.44400E+04         0.00000E+00
    0.44400E+04        -0.15854E+04         0.00000E+00
    0.00000E+00         0.00000E+00        -0.33330E+04
 
   -0.90322E+04         0.48125E+04         0.00000E+00
    0.48125E+04        -0.20808E+04         0.00000E+00
    0.00000E+00         0.00000E+00        -0.33339E+04
 
   -0.84961E+04         0.50999E+04         0.00000E+00
    0.50999E+04        -0.25865E+04         0.00000E+00
    0.00000E+00         0.00000E+00        -0.33248E+04
 
   -0.79417E+04         0.53089E+04         0.00000E+00
    0.53089E+04        -0.30868E+04         0.00000E+00
    0.00000E+00         0.00000E+00        -0.33086E+04
 
   -0.73888E+04         0.54494E+04         0.00000E+00
    0.54494E+04        -0.35692E+04         0.00000E+00
    0.00000E+00         0.00000E+00        -0.32874E+04
 
   -0.68519E+04         0.55333E+04         0.00000E+00
    0.55333E+04        -0.40241E+04         0.00000E+00
    0.00000E+00         0.00000E+00        -0.32628E+04
 
   -0.63410E+04         0.55737E+04         0.00000E+00
    0.55737E+04        -0.44440E+04         0.00000E+00
    0.00000E+00         0.00000E+00        -0.32355E+04
 
   -0.58619E+04         0.55845E+04         0.00000E+00
    0.55845E+04        -0.48241E+04         0.00000E+00
    0.00000E+00         0.00000E+00        -0.32058E+04
 
   -0.54162E+04         0.55801E+04         0.00000E+00
    0.55801E+04        -0.51622E+04         0.00000E+00
    0.00000E+00         0.00000E+00        -0.31735E+04
 
   -0.50014E+04         0.55749E+04         0.00000E+00
    0.55749E+04        -0.54590E+04         0.00000E+00
    0.00000E+00         0.00000E+00        -0.31381E+04
 
   -0.46109E+04         0.55817E+04         0.00000E+00
    0.55817E+04        -0.57180E+04         0.00000E+00
    0.00000E+00         0.00000E+00        -0.30987E+04
 
   -0.42348E+04         0.56122E+04         0.00000E+00
    0.56122E+04        -0.59451E+04         0.00000E+00
    0.00000E+00         0.00000E+00        -0.30540E+04
 
   -0.38602E+04         0.56755E+04         0.00000E+00
    0.56755E+04        -0.61481E+04         0.00000E+00
    0.00000E+00         0.00000E+00        -0.30025E+04
 
   -0.34720E+04         0.57784E+04         0.00000E+00
    0.57784E+04        -0.63365E+04         0.00000E+00
    0.00000E+00         0.00000E+00        -0.29426E+04
 
   -0.30534E+04         0.59252E+04         0.00000E+00
    0.59252E+04        -0.65209E+04         0.00000E+00
    0.00000E+00         0.00000E+00        -0.28723E+04
 
   -0.83457E+04         0.94825E+02         0.00000E+00
    0.94825E+02         0.56205E+01         0.00000E+00
    0.00000E+00         0.00000E+00        -0.25020E+04
 
   -0.87311E+04         0.33080E+03         0.00000E+00
    0.33080E+03         0.26092E+02         0.00000E+00
    0.00000E+00         0.00000E+00        -0.26115E+04
 
   -0.91184E+04         0.64666E+03         0.00000E+00
    0.64666E+03         0.43735E+02         0.00000E+00
    0.00000E+00         0.00000E+00        -0.27224E+04
 
   -0.94600E+04         0.10475E+04         0.00000E+00
    0.10475E+04         0.30232E+02         0.00000E+00
    0.00000E+00         0.00000E+00        -0.28289E+04
 
   -0.97129E+04         0.15202E+04         0.00000E+00
    0.15202E+04        -0.39344E+02         0.00000E+00
    0.00000E+00         0.00000E+00        -0.29257E+04
 
   -0.98469E+04         0.20391E+04         0.00000E+00
    0.20391E+04        -0.18143E+03         0.00000E+00
    0.00000E+00         0.00000E+00        -0.30085E+04
 
   -0.98475E+04         0.25730E+04         0.00000E+00
    0.25730E+04        -0.40189E+03         0.00000E+00
    0.00000E+00         0.00000E+00        -0.30748E+04
 
   -0.97164E+04         0.30913E+04         0.00000E+00
    0.30913E+04        -0.69659E+03         0.00000E+00
    0.00000E+00         0.00000E+00        -0.31239E+04
 
   -0.94677E+04         0.35686E+04         0.00000E+00
    0.35686E+04        -0.10539E+04         0.00000E+00
    0.00000E+00         0.00000E+00        -0.31565E+04
 
   -0.91234E+04         0.39878E+04         0.00000E+00
    0.39878E+04        -0.14578E+04         0.00000E+00
    0.00000E+00         0.00000E+00        -0.31743E+04
 
   -0.87084E+04         0.43400E+04         0.00000E+00
    0.43400E+04        -0.18911E+04         0.00000E+00
    0.00000E+00         0.00000E+00        -0.31798E+04
 
   -0.82471E+04         0.46235E+04         0.00000E+00
    0.46235E+04        -0.23376E+04         0.00000E+00
    0.00000E+00         0.00000E+00        -0.31754E+04
 
   -0.77604E+04         0.48420E+04         0.00000E+00
    0.48420E+04        -0.27833E+04         0.00000E+00
    0.00000E+00         0.00000E+00        -0.31631E+04
 
   -0.72655E+04         0.50025E+04         0.00000E+00
    0.50025E+04        -0.32170E+04         0.00000E+00
    0.00000E+00         0.00000E+00        -0.31448E+04
 
   -0.67754E+04         0.51145E+04         0.00000E+00
    0.51145E+04        -0.36298E+04         0.00000E+00
    0.00000E+00         0.00000E+00        -0.31215E+04
 
   -0.62988E+04         0.51887E+04         0.00000E+00
    0.51887E+04        -0.40151E+04         0.00000E+00
    0.00000E+00         0.00000E+00        -0.30942E+04
 
   -0.58410E+04         0.52365E+04         0.00000E+00
    0.52365E+04        -0.43688E+04         0.00000E+00
    0.00000E+00         0.00000E+00        -0.30629E+04
 
   -0.54036E+04         0.52700E+04         0.00000E+00
    0.52700E+04        -0.46889E+04         0.00000E+00
    0.00000E+00         0.00000E+00        -0.30278E+04
 
   -0.49847E+04         0.53006E+04         0.00000E+00
    0.53006E+04        -0.49761E+04         0.00000E+00
    0.00000E+00         0.00000E+00        -0.29882E+04
 
   -0.45788E+04         0.53390E+04         0.00000E+00
    0.53390E+04        -0.52331E+04         0.00000E+00
    0.00000E+00         0.00000E+00        -0.29436E+04
 
   -0.41779E+04         0.53947E+04         0.00000E+00
    0.53947E+04        -0.54647E+04         0.00000E+00
    0.00000E+00         0.00000E+00        -0.28928E+04
 
   -0.37711E+04         0.54753E+04         0.00000E+00
    0.54753E+04        -0.56775E+04         0.00000E+00
    0.00000E+00         0.00000E+00        -0.28346E+04
 
   -0.33459E+04         0.55861E+04         0.00000E+00
    0.55861E+04        -0.58795E+04         0.00000E+00
    0.00000E+00         0.00000E+00        -0.27676E+04
 
   -0.28878E+04         0.57306E+04         0.00000E+00
    0.57306E+04        -0.60796E+04         0.00000E+00
    0.00000E+00         0.00000E+00        -0.26902E+04
 
   -0.81333E+04         0.10386E+03         0.00000E+00
    0.10386E+03         0.22419E+01         0.00000E+00
    0.00000E+00         0.00000E+00        -0.24393E+04
 
   -0.84595E+04         0.34503E+03         0.00000E+00
    0.34503E+03         0.86606E+01         0.00000E+00
    0.00000E+00         0.00000E+00        -0.25353E+04
 
   -0.87744E+04         0.64353E+03         0.00000E+00
    0.64353E+03         0.67064E+01         0.00000E+00
    0.00000E+00         0.00000E+00        -0.26303E+04
 
   -0.90468E+04         0.10037E+04         0.00000E+00
    0.10037E+04        -0.22747E+02         0.00000E+00
    0.00000E+00         0.00000E+00        -0.27209E+04
 
   -0.92470E+04         0.14174E+04         0.00000E+00
    0.14174E+04        -0.97437E+02         0.00000E+00
    0.00000E+00         0.00000E+00        -0.28033E+04
 
   -0.93529E+04         0.18672E+04         0.00000E+00
    0.18672E+04        -0.22984E+03         0.00000E+00
    0.00000E+00         0.00000E+00        -0.28748E+04
 
   -0.93527E+04         0.23309E+04         0.00000E+00
    0.23309E+04        -0.42522E+03         0.00000E+00
    0.00000E+00         0.00000E+00        -0.29334E+04
 
   -0.92456E+04         0.27855E+04         0.00000E+00
    0.27855E+04        -0.68162E+03         0.00000E+00
    0.00000E+00         0.00000E+00        -0.29782E+04
 
   -0.90402E+04         0.32114E+04         0.00000E+00
    0.32114E+04        -0.99115E+03         0.00000E+00
    0.00000E+00         0.00000E+00        -0.30094E+04
 
   -0.87515E+04         0.35941E+04         0.00000E+00
    0.35941E+04        -0.13421E+04         0.00000E+00
    0.00000E+00         0.00000E+00        -0.30281E+04
 
   -0.83976E+04         0.39251E+04         0.00000E+00
    0.39251E+04        -0.17211E+04         0.00000E+00
    0.00000E+00         0.00000E+00        -0.30356E+04
 
   -0.79971E+04         0.42013E+04         0.00000E+00
    0.42013E+04        -0.21150E+04         0.00000E+00
    0.00000E+00         0.00000E+00        -0.30336E+04
 
   -0.75668E+04         0.44243E+04         0.00000E+00
    0.44243E+04        -0.25118E+04         0.00000E+00
    0.00000E+00         0.00000E+00        -0.30236E+04
 
   -0.71212E+04         0.45989E+04         0.00000E+00
    0.45989E+04        -0.29016E+04         0.00000E+00
    0.00000E+00         0.00000E+00        -0.30068E+04
 
   -0.66712E+04         0.47323E+04         0.00000E+00
    0.47323E+04        -0.32764E+04         0.00000E+00
    0.00000E+00         0.00000E+00        -0.29843E+04
 
   -0.62247E+04         0.48328E+04         0.00000E+00
    0.48328E+04        -0.36304E+04         0.00000E+00
    0.00000E+00         0.00000E+00        -0.29565E+04
 
   -0.57864E+04         0.49100E+04         0.00000E+00
    0.49100E+04        -0.39598E+04         0.00000E+00
    0.00000E+00         0.00000E+00        -0.29239E+04
 
   -0.53578E+04         0.49734E+04         0.00000E+00
    0.49734E+04        -0.42630E+04         0.00000E+00
    0.00000E+00         0.00000E+00        -0.28863E+04
 
   -0.49375E+04         0.50324E+04         0.00000E+00
    0.50324E+04        -0.45403E+04         0.00000E+00
    0.00000E+00         0.00000E+00        -0.28433E+04
 
   -0.45211E+04         0.50958E+04         0.00000E+00
    0.50958E+04        -0.47938E+04         0.00000E+00
    0.00000E+00         0.00000E+00        -0.27945E+04
 
   -0.41020E+04         0.51713E+04         0.00000E+00
    0.51713E+04        -0.50276E+04         0.00000E+00
    0.00000E+00         0.00000E+00        -0.27389E+04
 
   -0.36712E+04         0.52649E+04         0.00000E+00
    0.52649E+04        -0.52470E+04         0.00000E+00
    0.00000E+00         0.00000E+00        -0.26754E+04
 
   -0.32179E+04         0.53809E+04         0.00000E+00
    0.53809E+04        -0.54588E+04         0.00000E+00
    0.00000E+00         0.00000E+00        -0.26030E+04
 
   -0.27302E+04         0.55219E+04         0.00000E+00
    0.55219E+04        -0.56706E+04         0.00000E+00
    0.00000E+00         0.00000E+00        -0.25202E+04
 
   -0.79132E+04         0.10609E+03         0.00000E+00
    0.10609E+03         0.44625E-01         0.00000E+00
    0.00000E+00         0.00000E+00        -0.23740E+04
 
   -0.81959E+04         0.34395E+03         0.00000E+00
    0.34395E+03        -0.28050E+01         0.00000E+00
    0.00000E+00         0.00000E+00        -0.24596E+04
 
   -0.84581E+04         0.62437E+03         0.00000E+00
    0.62437E+03        -0.17832E+02         0.00000E+00
    0.00000E+00         0.00000E+00        -0.25428E+04
 
   -0.86794E+04         0.95043E+03         0.00000E+00
    0.95043E+03        -0.57834E+02         0.00000E+00
    0.00000E+00         0.00000E+00        -0.26212E+04
 
   -0.88396E+04         0.13167E+04         0.00000E+00
    0.13167E+04        -0.13524E+03         0.00000E+00
    0.00000E+00         0.00000E+00        -0.26924E+04
 
   -0.89226E+04         0.17112E+04         0.00000E+00
    0.17112E+04        -0.25926E+03         0.00000E+00
    0.00000E+00         0.00000E+00        -0.27546E+04
 
   -0.89194E+04         0.21177E+04         0.00000E+00
    0.21177E+04        -0.43426E+03         0.00000E+00
    0.00000E+00         0.00000E+00        -0.28061E+04
 
   -0.88283E+04         0.25194E+04         0.00000E+00
    0.25194E+04        -0.65943E+03         0.00000E+00
    0.00000E+00         0.00000E+00        -0.28463E+04
 
   -0.86543E+04         0.29011E+04         0.00000E+00
    0.29011E+04        -0.92943E+03         0.00000E+00
    0.00000E+00         0.00000E+00        -0.28751E+04
 
   -0.84077E+04         0.32506E+04         0.00000E+00
    0.32506E+04        -0.12357E+04         0.00000E+00
    0.00000E+00         0.00000E+00        -0.28930E+04
 
   -0.81015E+04         0.35605E+04         0.00000E+00
    0.35605E+04        -0.15681E+04         0.00000E+00
    0.00000E+00         0.00000E+00        -0.29009E+04
 
   -0.77499E+04         0.38271E+04         0.00000E+00
    0.38271E+04        -0.19160E+04         0.00000E+00
    0.00000E+00         0.00000E+00        -0.28998E+04
 
   -0.73660E+04         0.40507E+04         0.00000E+00
    0.40507E+04        -0.22695E+04         0.00000E+00
    0.00000E+00         0.00000E+00        -0.28907E+04
 
   -0.69616E+04         0.42343E+04         0.00000E+00
    0.42343E+04        -0.26200E+04         0.00000E+00
    0.00000E+00         0.00000E+00        -0.28745E+04
 
   -0.65460E+04         0.43830E+04         0.00000E+00
    0.43830E+04        -0.29607E+04         0.00000E+00
    0.00000E+00         0.00000E+00        -0.28520E+04
 
   -0.61259E+04         0.45036E+04         0.00000E+00
    0.45036E+04        -0.32864E+04         0.00000E+00
    0.00000E+00         0.00000E+00        -0.28237E+04
 
   -0.57054E+04         0.46033E+04         0.00000E+00
    0.46033E+04        -0.35935E+04         0.00000E+00
    0.00000E+00         0.00000E+00        -0.27897E+04
 
   -0.52859E+04         0.46900E+04         0.00000E+00
    0.46900E+04        -0.38806E+04         0.00000E+00
    0.00000E+00         0.00000E+00        -0.27500E+04
 
   -0.48665E+04         0.47712E+04         0.00000E+00
    0.47712E+04        -0.41478E+04         0.00000E+00
    0.00000E+00         0.00000E+00        -0.27043E+04
 
   -0.44436E+04         0.48540E+04         0.00000E+00
    0.48540E+04        -0.43967E+04         0.00000E+00
    0.00000E+00         0.00000E+00        -0.26521E+04
 
   -0.40117E+04         0.49444E+04         0.00000E+00
    0.49444E+04        -0.46306E+04         0.00000E+00
    0.00000E+00         0.00000E+00        -0.25927E+04
 
   -0.35634E+04         0.50475E+04         0.00000E+00
    0.50475E+04        -0.48541E+04         0.00000E+00
    0.00000E+00         0.00000E+00        -0.25253E+04
 
   -0.30898E+04         0.51664E+04         0.00000E+00
    0.51664E+04        -0.50726E+04         0.00000E+00
    0.00000E+00         0.00000E+00        -0.24487E+04
 
   -0.25807E+04         0.53029E+04         0.00000E+00
    0.53029E+04        -0.52927E+04         0.00000E+00
    0.00000E+00         0.00000E+00        -0.23620E+04
 
   -0.76952E+04         0.10398E+03         0.00000E+00
    0.10398E+03        -0.13200E+01         0.00000E+00
    0.00000E+00         0.00000E+00        -0.23089E+04
 
   -0.79442E+04         0.33294E+03         0.00000E+00
    0.33294E+03        -0.99733E+01         0.00000E+00
    0.00000E+00         0.00000E+00        -0.23862E+04
 
   -0.81668E+04         0.59489E+03         0.00000E+00
    0.59489E+03        -0.33159E+02         0.00000E+00
    0.00000E+00         0.00000E+00        -0.24600E+04
 
   -0.83497E+04         0.89152E+03         0.00000E+00
    0.89152E+03        -0.79395E+02         0.00000E+00
    0.00000E+00         0.00000E+00        -0.25287E+04
 
   -0.84792E+04         0.12189E+04         0.00000E+00
    0.12189E+04        -0.15729E+03         0.00000E+00
    0.00000E+00         0.00000E+00        -0.25909E+04
 
   -0.85438E+04         0.15684E+04         0.00000E+00
    0.15684E+04        -0.27350E+03         0.00000E+00
    0.00000E+00         0.00000E+00        -0.26452E+04
 
   -0.85367E+04         0.19283E+04         0.00000E+00
    0.19283E+04        -0.43144E+03         0.00000E+00
    0.00000E+00         0.00000E+00        -0.26905E+04
 
   -0.84560E+04         0.22860E+04         0.00000E+00
    0.22860E+04        -0.63086E+03         0.00000E+00
    0.00000E+00         0.00000E+00        -0.27261E+04
 
   -0.83048E+04         0.26297E+04         0.00000E+00
    0.26297E+04        -0.86810E+03         0.00000E+00
    0.00000E+00         0.00000E+00        -0.27519E+04
 
   -0.80899E+04         0.29496E+04         0.00000E+00
    0.29496E+04        -0.11370E+04         0.00000E+00
    0.00000E+00         0.00000E+00        -0.27681E+04
 
   -0.78209E+04         0.32392E+04         0.00000E+00
    0.32392E+04        -0.14296E+04         0.00000E+00
    0.00000E+00         0.00000E+00        -0.27752E+04
 
   -0.75082E+04         0.34949E+04         0.00000E+00
    0.34949E+04        -0.17378E+04         0.00000E+00
    0.00000E+00         0.00000E+00        -0.27738E+04
 
   -0.71621E+04         0.37160E+04         0.00000E+00
    0.37160E+04        -0.20535E+04         0.00000E+00
    0.00000E+00         0.00000E+00        -0.27647E+04
 
   -0.67921E+04         0.39043E+04         0.00000E+00
    0.39043E+04        -0.23694E+04         0.00000E+00
    0.00000E+00         0.00000E+00        -0.27484E+04
 
   -0.64056E+04         0.40635E+04         0.00000E+00
    0.40635E+04        -0.26796E+04         0.00000E+00
    0.00000E+00         0.00000E+00        -0.27255E+04
 
   -0.60084E+04         0.41985E+04         0.00000E+00
    0.41985E+04        -0.29795E+04         0.00000E+00
    0.00000E+00         0.00000E+00        -0.26964E+04
 
   -0.56041E+04         0.43151E+04         0.00000E+00
    0.43151E+04        -0.32662E+04         0.00000E+00
    0.00000E+00         0.00000E+00        -0.26611E+04
 
   -0.51939E+04         0.44194E+04         0.00000E+00
    0.44194E+04        -0.35380E+04         0.00000E+00
    0.00000E+00         0.00000E+00        -0.26196E+04
 
   -0.47770E+04         0.45174E+04         0.00000E+00
    0.45174E+04        -0.37950E+04         0.00000E+00
    0.00000E+00         0.00000E+00        -0.25716E+04
 
   -0.43509E+04         0.46148E+04         0.00000E+00
    0.46148E+04        -0.40385E+04         0.00000E+00
    0.00000E+00         0.00000E+00        -0.25168E+04
 
   -0.39108E+04         0.47163E+04         0.00000E+00
    0.47163E+04        -0.42710E+04         0.00000E+00
    0.00000E+00         0.00000E+00        -0.24545E+04
 
   -0.34508E+04         0.48258E+04         0.00000E+00
    0.48258E+04        -0.44963E+04         0.00000E+00
    0.00000E+00         0.00000E+00        -0.23841E+04
 
   -0.29632E+04         0.49456E+04         0.00000E+00
    0.49456E+04        -0.47189E+04         0.00000E+00
    0.00000E+00         0.00000E+00        -0.23046E+04
 
   -0.24397E+04         0.50769E+04         0.00000E+00
    0.50769E+04        -0.49443E+04         0.00000E+00
    0.00000E+00         0.00000E+00        -0.22152E+04
 
   -0.74852E+04         0.99252E+02         0.00000E+00
    0.99252E+02        -0.21112E+01         0.00000E+00
    0.00000E+00         0.00000E+00        -0.22462E+04
 
   -0.77067E+04         0.31593E+03         0.00000E+00
    0.31593E+03        -0.14128E+02         0.00000E+00
    0.00000E+00         0.00000E+00        -0.23163E+04
 
   -0.78985E+04         0.55937E+03         0.00000E+00
    0.55937E+03        -0.41906E+02         0.00000E+00
    0.00000E+00         0.00000E+00        -0.23821E+04
 
   -0.80519E+04         0.83007E+03         0.00000E+00
    0.83007E+03        -0.91113E+02         0.00000E+00
    0.00000E+00         0.00000E+00        -0.24429E+04
 
   -0.81574E+04         0.11249E+04         0.00000E+00
    0.11249E+04        -0.16767E+03         0.00000E+00
    0.00000E+00         0.00000E+00        -0.24975E+04
 
   -0.82071E+04         0.14373E+04         0.00000E+00
    0.14373E+04        -0.27630E+03         0.00000E+00
    0.00000E+00         0.00000E+00        -0.25450E+04
 
   -0.81958E+04         0.17587E+04         0.00000E+00
    0.17587E+04        -0.41957E+03         0.00000E+00
    0.00000E+00         0.00000E+00        -0.25846E+04
 
   -0.81219E+04         0.20796E+04         0.00000E+00
    0.20796E+04        -0.59746E+03         0.00000E+00
    0.00000E+00         0.00000E+00        -0.26158E+04
 
   -0.79870E+04         0.23907E+04         0.00000E+00
    0.23907E+04        -0.80742E+03         0.00000E+00
    0.00000E+00         0.00000E+00        -0.26383E+04
 
   -0.77960E+04         0.26844E+04         0.00000E+00
    0.26844E+04        -0.10449E+04         0.00000E+00
    0.00000E+00         0.00000E+00        -0.26523E+04
 
   -0.75557E+04         0.29550E+04         0.00000E+00
    0.29550E+04        -0.13040E+04         0.00000E+00
    0.00000E+00         0.00000E+00        -0.26579E+04
 
   -0.72738E+04         0.31990E+04         0.00000E+00
    0.31990E+04        -0.15781E+04         0.00000E+00
    0.00000E+00         0.00000E+00        -0.26556E+04
 
   -0.69584E+04         0.34155E+04         0.00000E+00
    0.34155E+04        -0.18609E+04         0.00000E+00
    0.00000E+00         0.00000E+00        -0.26458E+04
 
   -0.66166E+04         0.36052E+04         0.00000E+00
    0.36052E+04        -0.21463E+04         0.00000E+00
    0.00000E+00         0.00000E+00        -0.26289E+04
 
   -0.62548E+04         0.37707E+04         0.00000E+00
    0.37707E+04        -0.24295E+04         0.00000E+00
    0.00000E+00         0.00000E+00        -0.26053E+04
 
   -0.58775E+04         0.39155E+04         0.00000E+00
    0.39155E+04        -0.27063E+04         0.00000E+00
    0.00000E+00         0.00000E+00        -0.25751E+04
 
   -0.54878E+04         0.40442E+04         0.00000E+00
    0.40442E+04        -0.29742E+04         0.00000E+00
    0.00000E+00         0.00000E+00        -0.25386E+04
 
   -0.50868E+04         0.41613E+04         0.00000E+00
    0.41613E+04        -0.32317E+04         0.00000E+00
    0.00000E+00         0.00000E+00        -0.24955E+04
 
   -0.46740E+04         0.42716E+04         0.00000E+00
    0.42716E+04        -0.34786E+04         0.00000E+00
    0.00000E+00         0.00000E+00        -0.24458E+04
 
   -0.42472E+04         0.43795E+04         0.00000E+00
    0.43795E+04        -0.37159E+04         0.00000E+00
    0.00000E+00         0.00000E+00        -0.23889E+04
 
   -0.38026E+04         0.44886E+04         0.00000E+00
    0.44886E+04        -0.39457E+04         0.00000E+00
    0.00000E+00         0.00000E+00        -0.23245E+04
 
   -0.33354E+04         0.46020E+04         0.00000E+00
    0.46020E+04        -0.41711E+04         0.00000E+00
    0.00000E+00         0.00000E+00        -0.22519E+04
 
   -0.28392E+04         0.47211E+04         0.00000E+00
    0.47211E+04        -0.43957E+04         0.00000E+00
    0.00000E+00         0.00000E+00        -0.21705E+04
 
   -0.23072E+04         0.48466E+04         0.00000E+00
    0.48466E+04        -0.46240E+04         0.00000E+00
    0.00000E+00         0.00000E+00        -0.20794E+04
 
   -0.72869E+04         0.93090E+02         0.00000E+00
    0.93090E+02        -0.25167E+01         0.00000E+00
    0.00000E+00         0.00000E+00        -0.21868E+04
 
   -0.74849E+04         0.29567E+03         0.00000E+00
    0.29567E+03        -0.16224E+02         0.00000E+00
    0.00000E+00         0.00000E+00        -0.22503E+04
 
   -0.76517E+04         0.52092E+03         0.00000E+00
    0.52092E+03        -0.46091E+02         0.00000E+00
    0.00000E+00         0.00000E+00        -0.23093E+04
 
   -0.77816E+04         0.76842E+03         0.00000E+00
    0.76842E+03        -0.95917E+02         0.00000E+00
    0.00000E+00         0.00000E+00        -0.23632E+04
 
   -0.78680E+04         0.10354E+04         0.00000E+00
    0.10354E+04        -0.16976E+03         0.00000E+00
    0.00000E+00         0.00000E+00        -0.24113E+04
 
   -0.79054E+04         0.13168E+04         0.00000E+00
    0.13168E+04        -0.27095E+03         0.00000E+00
    0.00000E+00         0.00000E+00        -0.24529E+04
 
   -0.78898E+04         0.16060E+04         0.00000E+00
    0.16060E+04        -0.40134E+03         0.00000E+00
    0.00000E+00         0.00000E+00        -0.24873E+04
 
   -0.78200E+04         0.18958E+04         0.00000E+00
    0.18958E+04        -0.56096E+03         0.00000E+00
    0.00000E+00         0.00000E+00        -0.25143E+04
 
   -0.76969E+04         0.21790E+04         0.00000E+00
    0.21790E+04        -0.74800E+03         0.00000E+00
    0.00000E+00         0.00000E+00        -0.25335E+04
 
   -0.75238E+04         0.24494E+04         0.00000E+00
    0.24494E+04        -0.95907E+03         0.00000E+00
    0.00000E+00         0.00000E+00        -0.25449E+04
 
   -0.73056E+04         0.27022E+04         0.00000E+00
    0.27022E+04        -0.11897E+04         0.00000E+00
    0.00000E+00         0.00000E+00        -0.25486E+04
 
   -0.70480E+04         0.29344E+04         0.00000E+00
    0.29344E+04        -0.14348E+04         0.00000E+00
    0.00000E+00         0.00000E+00        -0.25448E+04
 
   -0.67572E+04         0.31446E+04         0.00000E+00
    0.31446E+04        -0.16892E+04         0.00000E+00
    0.00000E+00         0.00000E+00        -0.25339E+04
 
   -0.64388E+04         0.33332E+04         0.00000E+00
    0.33332E+04        -0.19481E+04         0.00000E+00
    0.00000E+00         0.00000E+00        -0.25161E+04
 
   -0.60976E+04         0.35016E+04         0.00000E+00
    0.35016E+04        -0.22073E+04         0.00000E+00
    0.00000E+00         0.00000E+00        -0.24915E+04
 
   -0.57376E+04         0.36525E+04         0.00000E+00
    0.36525E+04        -0.24634E+04         0.00000E+00
    0.00000E+00         0.00000E+00        -0.24603E+04
 
   -0.53610E+04         0.37891E+04         0.00000E+00
    0.37891E+04        -0.27141E+04         0.00000E+00
    0.00000E+00         0.00000E+00        -0.24225E+04
 
   -0.49690E+04         0.39150E+04         0.00000E+00
    0.39150E+04        -0.29582E+04         0.00000E+00
    0.00000E+00         0.00000E+00        -0.23782E+04
 
   -0.45612E+04         0.40338E+04         0.00000E+00
    0.40338E+04        -0.31952E+04         0.00000E+00
    0.00000E+00         0.00000E+00        -0.23269E+04
 
   -0.41358E+04         0.41488E+04         0.00000E+00
    0.41488E+04        -0.34260E+04         0.00000E+00
    0.00000E+00         0.00000E+00        -0.22686E+04
 
   -0.36899E+04         0.42628E+04         0.00000E+00
    0.42628E+04        -0.36522E+04         0.00000E+00
    0.00000E+00         0.00000E+00        -0.22026E+04
 
   -0.32192E+04         0.43778E+04         0.00000E+00
    0.43778E+04        -0.38762E+04         0.00000E+00
    0.00000E+00         0.00000E+00        -0.21286E+04
 
   -0.27189E+04         0.44950E+04         0.00000E+00
    0.44950E+04        -0.41010E+04         0.00000E+00
    0.00000E+00         0.00000E+00        -0.20460E+04
 
   -0.21831E+04         0.46142E+04         0.00000E+00
    0.46142E+04        -0.43302E+04         0.00000E+00
    0.00000E+00         0.00000E+00        -0.19540E+04
 
   -0.71021E+04         0.86273E+02         0.00000E+00
    0.86273E+02        -0.26694E+01         0.00000E+00
    0.00000E+00         0.00000E+00        -0.21314E+04
 
   -0.72791E+04         0.27404E+03         0.00000E+00
    0.27404E+03        -0.16953E+02         0.00000E+00
    0.00000E+00         0.00000E+00        -0.21888E+04
 
   -0.74249E+04         0.48172E+03         0.00000E+00
    0.48172E+03        -0.47211E+02         0.00000E+00
    0.00000E+00         0.00000E+00        -0.22416E+04
 
   -0.75354E+04         0.70824E+03         0.00000E+00
    0.70824E+03        -0.96044E+02         0.00000E+00
    0.00000E+00         0.00000E+00        -0.22894E+04
 
   -0.76061E+04         0.95099E+03         0.00000E+00
    0.95099E+03        -0.16625E+03         0.00000E+00
    0.00000E+00         0.00000E+00        -0.23317E+04
 
   -0.76330E+04         0.12059E+04         0.00000E+00
    0.12059E+04        -0.26014E+03         0.00000E+00
    0.00000E+00         0.00000E+00        -0.23679E+04
 
   -0.76132E+04         0.14679E+04         0.00000E+00
    0.14679E+04        -0.37905E+03         0.00000E+00
    0.00000E+00         0.00000E+00        -0.23977E+04
 
   -0.75456E+04         0.17312E+04         0.00000E+00
    0.17312E+04        -0.52297E+03         0.00000E+00
    0.00000E+00         0.00000E+00        -0.24206E+04
 
   -0.74309E+04         0.19901E+04         0.00000E+00
    0.19901E+04        -0.69059E+03         0.00000E+00
    0.00000E+00         0.00000E+00        -0.24364E+04
 
   -0.72711E+04         0.22398E+04         0.00000E+00
    0.22398E+04        -0.87936E+03         0.00000E+00
    0.00000E+00         0.00000E+00        -0.24451E+04
 
   -0.70699E+04         0.24762E+04         0.00000E+00
    0.24762E+04        -0.10859E+04         0.00000E+00
    0.00000E+00         0.00000E+00        -0.24467E+04
 
   -0.68315E+04         0.26966E+04         0.00000E+00
    0.26966E+04        -0.13062E+04         0.00000E+00
    0.00000E+00         0.00000E+00        -0.24413E+04
 
   -0.65604E+04         0.28995E+04         0.00000E+00
    0.28995E+04        -0.15362E+04         0.00000E+00
    0.00000E+00         0.00000E+00        -0.24290E+04
 
   -0.62611E+04         0.30849E+04         0.00000E+00
    0.30849E+04        -0.17720E+04         0.00000E+00
    0.00000E+00         0.00000E+00        -0.24099E+04
 
   -0.59373E+04         0.32537E+04         0.00000E+00
    0.32537E+04        -0.20101E+04         0.00000E+00
    0.00000E+00         0.00000E+00        -0.23842E+04
 
   -0.55921E+04         0.34075E+04         0.00000E+00
    0.34075E+04        -0.22477E+04         0.00000E+00
    0.00000E+00         0.00000E+00        -0.23519E+04
 
   -0.52274E+04         0.35488E+04         0.00000E+00
    0.35488E+04        -0.24829E+04         0.00000E+00
    0.00000E+00         0.00000E+00        -0.23131E+04
 
   -0.48442E+04         0.36801E+04         0.00000E+00
    0.36801E+04        -0.27144E+04         0.00000E+00
    0.00000E+00         0.00000E+00        -0.22676E+04
 
   -0.44421E+04         0.38042E+04         0.00000E+00
    0.38042E+04        -0.29419E+04         0.00000E+00
    0.00000E+00         0.00000E+00        -0.22152E+04
 
   -0.40198E+04         0.39234E+04         0.00000E+00
    0.39234E+04        -0.31660E+04         0.00000E+00
    0.00000E+00         0.00000E+00        -0.21557E+04
 
   -0.35748E+04         0.40398E+04         0.00000E+00
    0.40398E+04        -0.33877E+04         0.00000E+00
    0.00000E+00         0.00000E+00        -0.20888E+04
 
   -0.31039E+04         0.41548E+04         0.00000E+00
    0.41548E+04        -0.36092E+04         0.00000E+00
    0.00000E+00         0.00000E+00        -0.20139E+04
 
   -0.26029E+04         0.42689E+04         0.00000E+00
    0.42689E+04        -0.38328E+04         0.00000E+00
    0.00000E+00         0.00000E+00        -0.19307E+04
 
   -0.20673E+04         0.43817E+04         0.00000E+00
    0.43817E+04        -0.40614E+04         0.00000E+00
    0.00000E+00         0.00000E+00        -0.18386E+04
 
   -0.69315E+04         0.79309E+02         0.00000E+00
    0.79309E+02        -0.26622E+01         0.00000E+00
    0.00000E+00         0.00000E+00        -0.20802E+04
 
   -0.70892E+04         0.25226E+03         0.00000E+00
    0.25226E+03        -0.16807E+02         0.00000E+00
    0.00000E+00         0.00000E+00        -0.21318E+04
 
   -0.72166E+04         0.44322E+03         0.00000E+00
    0.44322E+03        -0.46357E+02         0.00000E+00
    0.00000E+00         0.00000E+00        -0.21789E+04
 
   -0.73106E+04         0.65064E+03         0.00000E+00
    0.65064E+03        -0.93154E+02         0.00000E+00
    0.00000E+00         0.00000E+00        -0.22211E+04
 
   -0.73679E+04         0.87206E+03         0.00000E+00
    0.87206E+03        -0.15916E+03         0.00000E+00
    0.00000E+00         0.00000E+00        -0.22581E+04
 
   -0.73857E+04         0.11041E+04         0.00000E+00
    0.11041E+04        -0.24598E+03         0.00000E+00
    0.00000E+00         0.00000E+00        -0.22895E+04
 
   -0.73618E+04         0.13425E+04         0.00000E+00
    0.13425E+04        -0.35456E+03         0.00000E+00
    0.00000E+00         0.00000E+00        -0.23149E+04
 
   -0.72951E+04         0.15829E+04         0.00000E+00
    0.15829E+04        -0.48486E+03         0.00000E+00
    0.00000E+00         0.00000E+00        -0.23340E+04
 
   -0.71861E+04         0.18207E+04         0.00000E+00
    0.18207E+04        -0.63588E+03         0.00000E+00
    0.00000E+00         0.00000E+00        -0.23466E+04
 
   -0.70363E+04         0.20518E+04         0.00000E+00
    0.20518E+04        -0.80572E+03         0.00000E+00
    0.00000E+00         0.00000E+00        -0.23526E+04
 
   -0.68480E+04         0.22729E+04         0.00000E+00
    0.22729E+04        -0.99173E+03         0.00000E+00
    0.00000E+00         0.00000E+00        -0.23519E+04
 
   -0.66246E+04         0.24817E+04         0.00000E+00
    0.24817E+04        -0.11909E+04         0.00000E+00
    0.00000E+00         0.00000E+00        -0.23446E+04
 
   -0.63694E+04         0.26766E+04         0.00000E+00
    0.26766E+04        -0.13998E+04         0.00000E+00
    0.00000E+00         0.00000E+00        -0.23308E+04
 
   -0.60856E+04         0.28574E+04         0.00000E+00
    0.28574E+04        -0.16156E+04         0.00000E+00
    0.00000E+00         0.00000E+00        -0.23104E+04
 
   -0.57764E+04         0.30244E+04         0.00000E+00
    0.30244E+04        -0.18352E+04         0.00000E+00
    0.00000E+00         0.00000E+00        -0.22835E+04
 
   -0.54440E+04         0.31786E+04         0.00000E+00
    0.31786E+04        -0.20565E+04         0.00000E+00
    0.00000E+00         0.00000E+00        -0.22502E+04
 
   -0.50901E+04         0.33219E+04         0.00000E+00
    0.33219E+04        -0.22776E+04         0.00000E+00
    0.00000E+00         0.00000E+00        -0.22103E+04
 
   -0.47153E+04         0.34559E+04         0.00000E+00
    0.34559E+04        -0.24975E+04         0.00000E+00
    0.00000E+00         0.00000E+00        -0.21638E+04
 
   -0.43195E+04         0.35826E+04         0.00000E+00
    0.35826E+04        -0.27158E+04         0.00000E+00
    0.00000E+00         0.00000E+00        -0.21106E+04
 
   -0.39014E+04         0.37037E+04         0.00000E+00
    0.37037E+04        -0.29330E+04         0.00000E+00
    0.00000E+00         0.00000E+00        -0.20503E+04
 
   -0.34594E+04         0.38206E+04         0.00000E+00
    0.38206E+04        -0.31499E+04         0.00000E+00
    0.00000E+00         0.00000E+00        -0.19828E+04
 
   -0.29906E+04         0.39341E+04         0.00000E+00
    0.39341E+04        -0.33680E+04         0.00000E+00
    0.00000E+00         0.00000E+00        -0.19076E+04
 
   -0.24919E+04         0.40443E+04         0.00000E+00
    0.40443E+04        -0.35892E+04         0.00000E+00
    0.00000E+00         0.00000E+00        -0.18243E+04
 
   -0.19597E+04         0.41505E+04         0.00000E+00
    0.41505E+04        -0.38159E+04         0.00000E+00
    0.00000E+00         0.00000E+00        -0.17327E+04
 
   -0.67748E+04         0.72512E+02         0.00000E+00
    0.72512E+02        -0.25588E+01         0.00000E+00
    0.00000E+00         0.00000E+00        -0.20332E+04
 
   -0.69146E+04         0.23113E+03         0.00000E+00
    0.23113E+03        -0.16130E+02         0.00000E+00
    0.00000E+00         0.00000E+00        -0.20792E+04
 
   -0.70255E+04         0.40632E+03         0.00000E+00
    0.40632E+03        -0.44303E+02         0.00000E+00
    0.00000E+00         0.00000E+00        -0.21209E+04
 
   -0.71050E+04         0.59629E+03         0.00000E+00
    0.59629E+03        -0.88452E+02         0.00000E+00
    0.00000E+00         0.00000E+00        -0.21580E+04
 
   -0.71507E+04         0.79868E+03         0.00000E+00
    0.79868E+03        -0.14999E+03         0.00000E+00
    0.00000E+00         0.00000E+00        -0.21902E+04
 
   -0.71603E+04         0.10106E+04         0.00000E+00
    0.10106E+04        -0.23006E+03         0.00000E+00
    0.00000E+00         0.00000E+00        -0.22171E+04
 
   -0.71322E+04         0.12285E+04         0.00000E+00
    0.12285E+04        -0.32931E+03         0.00000E+00
    0.00000E+00         0.00000E+00        -0.22384E+04
 
   -0.70654E+04         0.14488E+04         0.00000E+00
    0.14488E+04        -0.44770E+03         0.00000E+00
    0.00000E+00         0.00000E+00        -0.22539E+04
 
   -0.69602E+04         0.16678E+04         0.00000E+00
    0.16678E+04        -0.58445E+03         0.00000E+00
    0.00000E+00         0.00000E+00        -0.22634E+04
 
   -0.68176E+04         0.18821E+04         0.00000E+00
    0.18821E+04        -0.73809E+03         0.00000E+00
    0.00000E+00         0.00000E+00        -0.22667E+04
 
   -0.66393E+04         0.20891E+04         0.00000E+00
    0.20891E+04        -0.90661E+03         0.00000E+00
    0.00000E+00         0.00000E+00        -0.22638E+04
 
   -0.64276E+04         0.22865E+04         0.00000E+00
    0.22865E+04        -0.10876E+04         0.00000E+00
    0.00000E+00         0.00000E+00        -0.22546E+04
 
   -0.61850E+04         0.24730E+04         0.00000E+00
    0.24730E+04        -0.12785E+04         0.00000E+00
    0.00000E+00         0.00000E+00        -0.22391E+04
 
   -0.59141E+04         0.26479E+04         0.00000E+00
    0.26479E+04        -0.14769E+04         0.00000E+00
    0.00000E+00         0.00000E+00        -0.22173E+04
 
   -0.56171E+04         0.28115E+04         0.00000E+00
    0.28115E+04        -0.16803E+04         0.00000E+00
    0.00000E+00         0.00000E+00        -0.21892E+04
 
   -0.52958E+04         0.29643E+04         0.00000E+00
    0.29643E+04        -0.18870E+04         0.00000E+00
    0.00000E+00         0.00000E+00        -0.21548E+04
 
   -0.49515E+04         0.31072E+04         0.00000E+00
    0.31072E+04        -0.20954E+04         0.00000E+00
    0.00000E+00         0.00000E+00        -0.21141E+04
 
   -0.45848E+04         0.32417E+04         0.00000E+00
    0.32417E+04        -0.23046E+04         0.00000E+00
    0.00000E+00         0.00000E+00        -0.20668E+04
 
   -0.41955E+04         0.33688E+04         0.00000E+00
    0.33688E+04        -0.25143E+04         0.00000E+00
    0.00000E+00         0.00000E+00        -0.20129E+04
 
   -0.37828E+04         0.34899E+04         0.00000E+00
    0.34899E+04        -0.27246E+04         0.00000E+00
    0.00000E+00         0.00000E+00        -0.19522E+04
 
   -0.33451E+04         0.36056E+04         0.00000E+00
    0.36056E+04        -0.29363E+04         0.00000E+00
    0.00000E+00         0.00000E+00        -0.18844E+04
 
   -0.28805E+04         0.37165E+04         0.00000E+00
    0.37165E+04        -0.31504E+04         0.00000E+00
    0.00000E+00         0.00000E+00        -0.18093E+04
 
   -0.23863E+04         0.38222E+04         0.00000E+00
    0.38222E+04        -0.33684E+04         0.00000E+00
    0.00000E+00         0.00000E+00        -0.17264E+04
 
   -0.18598E+04         0.39218E+04         0.00000E+00
    0.39218E+04        -0.35921E+04         0.00000E+00
    0.00000E+00         0.00000E+00        -0.16356E+04
 
   -0.66317E+04         0.66064E+02         0.00000E+00
    0.66064E+02        -0.24026E+01         0.00000E+00
    0.00000E+00         0.00000E+00        -0.19902E+04
 
   -0.67547E+04         0.21109E+03         0.00000E+00
    0.21109E+03        -0.15160E+02         0.00000E+00
    0.00000E+00         0.00000E+00        -0.20309E+04
 
   -0.68504E+04         0.37155E+03         0.00000E+00
    0.37155E+03        -0.41591E+02         0.00000E+00
    0.00000E+00         0.00000E+00        -0.20676E+04
 
   -0.69169E+04         0.54553E+03         0.00000E+00
    0.54553E+03        -0.82789E+02         0.00000E+00
    0.00000E+00         0.00000E+00        -0.20999E+04
 
   -0.69521E+04         0.73078E+03         0.00000E+00
    0.73078E+03        -0.13982E+03         0.00000E+00
    0.00000E+00         0.00000E+00        -0.21276E+04
 
   -0.69542E+04         0.92472E+03         0.00000E+00
    0.92472E+03        -0.21352E+03         0.00000E+00
    0.00000E+00         0.00000E+00        -0.21503E+04
 
   -0.69218E+04         0.11244E+04         0.00000E+00
    0.11244E+04        -0.30436E+03         0.00000E+00
    0.00000E+00         0.00000E+00        -0.21678E+04
 
   -0.68542E+04         0.13269E+04         0.00000E+00
    0.13269E+04        -0.41228E+03         0.00000E+00
    0.00000E+00         0.00000E+00        -0.21799E+04
 
   -0.67513E+04         0.15291E+04         0.00000E+00
    0.15291E+04        -0.53668E+03         0.00000E+00
    0.00000E+00         0.00000E+00        -0.21864E+04
 
   -0.66139E+04         0.17282E+04         0.00000E+00
    0.17282E+04        -0.67643E+03         0.00000E+00
    0.00000E+00         0.00000E+00        -0.21871E+04
 
   -0.64431E+04         0.19218E+04         0.00000E+00
    0.19218E+04        -0.82996E+03         0.00000E+00
    0.00000E+00         0.00000E+00        -0.21819E+04
 
   -0.62405E+04         0.21082E+04         0.00000E+00
    0.21082E+04        -0.99541E+03         0.00000E+00
    0.00000E+00         0.00000E+00        -0.21708E+04
 
   -0.60081E+04         0.22859E+04         0.00000E+00
    0.22859E+04        -0.11708E+04         0.00000E+00
    0.00000E+00         0.00000E+00        -0.21536E+04
 
   -0.57476E+04         0.24542E+04         0.00000E+00
    0.24542E+04        -0.13540E+04         0.00000E+00
    0.00000E+00         0.00000E+00        -0.21305E+04
 
   -0.54609E+04         0.26131E+04         0.00000E+00
    0.26131E+04        -0.15433E+04         0.00000E+00
    0.00000E+00         0.00000E+00        -0.21013E+04
 
   -0.51492E+04         0.27628E+04         0.00000E+00
    0.27628E+04        -0.17371E+04         0.00000E+00
    0.00000E+00         0.00000E+00        -0.20659E+04
 
   -0.48137E+04         0.29037E+04         0.00000E+00
    0.29037E+04        -0.19341E+04         0.00000E+00
    0.00000E+00         0.00000E+00        -0.20243E+04
 
   -0.44547E+04         0.30368E+04         0.00000E+00
    0.30368E+04        -0.21335E+04         0.00000E+00
    0.00000E+00         0.00000E+00        -0.19764E+04
 
   -0.40721E+04         0.31627E+04         0.00000E+00
    0.31627E+04        -0.23350E+04         0.00000E+00
    0.00000E+00         0.00000E+00        -0.19221E+04
 
   -0.36654E+04         0.32821E+04         0.00000E+00
    0.32821E+04        -0.25386E+04         0.00000E+00
    0.00000E+00         0.00000E+00        -0.18612E+04
 
   -0.32333E+04         0.33954E+04         0.00000E+00
    0.33954E+04        -0.27448E+04         0.00000E+00
    0.00000E+00         0.00000E+00        -0.17934E+04
 
   -0.27742E+04         0.35027E+04         0.00000E+00
    0.35027E+04        -0.29544E+04         0.00000E+00
    0.00000E+00         0.00000E+00        -0.17186E+04
 
   -0.22864E+04         0.36034E+04         0.00000E+00
    0.36034E+04        -0.31686E+04         0.00000E+00
    0.00000E+00         0.00000E+00        -0.16365E+04
 
   -0.17676E+04         0.36965E+04         0.00000E+00
    0.36965E+04        -0.33886E+04         0.00000E+00
    0.00000E+00         0.00000E+00        -0.15469E+04
 
   -0.65012E+04         0.60059E+02         0.00000E+00
    0.60059E+02        -0.22221E+01         0.00000E+00
    0.00000E+00         0.00000E+00        -0.19510E+04
 
   -0.66083E+04         0.19239E+03         0.00000E+00
    0.19239E+03        -0.14055E+02         0.00000E+00
    0.00000E+00         0.00000E+00        -0.19867E+04
 
   -0.66901E+04         0.33916E+03         0.00000E+00
    0.33916E+03        -0.38588E+02         0.00000E+00
    0.00000E+00         0.00000E+00        -0.20186E+04
 
   -0.67447E+04         0.49845E+03         0.00000E+00
    0.49845E+03        -0.76754E+02         0.00000E+00
    0.00000E+00         0.00000E+00        -0.20464E+04
 
   -0.67702E+04         0.66815E+03         0.00000E+00
    0.66815E+03        -0.12940E+03         0.00000E+00
    0.00000E+00         0.00000E+00        -0.20699E+04
 
   -0.67652E+04         0.84595E+03         0.00000E+00
    0.84595E+03        -0.19719E+03         0.00000E+00
    0.00000E+00         0.00000E+00        -0.20887E+04
 
   -0.67285E+04         0.10293E+04         0.00000E+00
    0.10293E+04        -0.28045E+03         0.00000E+00
    0.00000E+00         0.00000E+00        -0.21027E+04
 
   -0.66594E+04         0.12158E+04         0.00000E+00
    0.12158E+04        -0.37915E+03         0.00000E+00
    0.00000E+00         0.00000E+00        -0.21116E+04
 
   -0.65578E+04         0.14027E+04         0.00000E+00
    0.14027E+04        -0.49282E+03         0.00000E+00
    0.00000E+00         0.00000E+00        -0.21152E+04
 
   -0.64240E+04         0.15877E+04         0.00000E+00
    0.15877E+04        -0.62059E+03         0.00000E+00
    0.00000E+00         0.00000E+00        -0.21134E+04
 
   -0.62588E+04         0.17688E+04         0.00000E+00
    0.17688E+04        -0.76124E+03         0.00000E+00
    0.00000E+00         0.00000E+00        -0.21060E+04
 
   -0.60633E+04         0.19444E+04         0.00000E+00
    0.19444E+04        -0.91331E+03         0.00000E+00
    0.00000E+00         0.00000E+00        -0.20930E+04
 
   -0.58390E+04         0.21131E+04         0.00000E+00
    0.21131E+04        -0.10752E+04         0.00000E+00
    0.00000E+00         0.00000E+00        -0.20743E+04
 
   -0.55871E+04         0.22743E+04         0.00000E+00
    0.22743E+04        -0.12454E+04         0.00000E+00
    0.00000E+00         0.00000E+00        -0.20498E+04
 
   -0.53091E+04         0.24275E+04         0.00000E+00
    0.24275E+04        -0.14223E+04         0.00000E+00
    0.00000E+00         0.00000E+00        -0.20194E+04
 
   -0.50059E+04         0.25728E+04         0.00000E+00
    0.25728E+04        -0.16046E+04         0.00000E+00
    0.00000E+00         0.00000E+00        -0.19831E+04
 
   -0.46782E+04         0.27104E+04         0.00000E+00
    0.27104E+04        -0.17913E+04         0.00000E+00
    0.00000E+00         0.00000E+00        -0.19409E+04
 
   -0.43266E+04         0.28406E+04         0.00000E+00
    0.28406E+04        -0.19817E+04         0.00000E+00
    0.00000E+00         0.00000E+00        -0.18925E+04
 
   -0.39508E+04         0.29638E+04         0.00000E+00
    0.29638E+04        -0.21755E+04         0.00000E+00
    0.00000E+00         0.00000E+00        -0.18379E+04
 
   -0.35505E+04         0.30803E+04         0.00000E+00
    0.30803E+04        -0.23726E+04         0.00000E+00
    0.00000E+00         0.00000E+00        -0.17769E+04
 
   -0.31248E+04         0.31902E+04         0.00000E+00
    0.31902E+04        -0.25733E+04         0.00000E+00
    0.00000E+00         0.00000E+00        -0.17094E+04
 
   -0.26725E+04         0.32932E+04         0.00000E+00
    0.32932E+04        -0.27782E+04         0.00000E+00
    0.00000E+00         0.00000E+00        -0.16352E+04
 
   -0.21923E+04         0.33886E+04         0.00000E+00
    0.33886E+04        -0.29881E+04         0.00000E+00
    0.00000E+00         0.00000E+00        -0.15541E+04
 
   -0.16825E+04         0.34752E+04         0.00000E+00
    0.34752E+04        -0.32039E+04         0.00000E+00
    0.00000E+00         0.00000E+00        -0.14659E+04
 
   -0.63825E+04         0.54530E+02         0.00000E+00
    0.54530E+02        -0.20362E+01         0.00000E+00
    0.00000E+00         0.00000E+00        -0.19154E+04
 
   -0.64747E+04         0.17510E+03         0.00000E+00
    0.17510E+03        -0.12921E+02         0.00000E+00
    0.00000E+00         0.00000E+00        -0.19463E+04
 
   -0.65435E+04         0.30921E+03         0.00000E+00
    0.30921E+03        -0.35542E+02         0.00000E+00
    0.00000E+00         0.00000E+00        -0.19737E+04
 
   -0.65869E+04         0.45498E+03         0.00000E+00
    0.45498E+03        -0.70742E+02         0.00000E+00
    0.00000E+00         0.00000E+00        -0.19973E+04
 
   -0.66035E+04         0.61047E+03         0.00000E+00
    0.61047E+03        -0.11925E+03         0.00000E+00
    0.00000E+00         0.00000E+00        -0.20168E+04
 
   -0.65918E+04         0.77359E+03         0.00000E+00
    0.77359E+03        -0.18159E+03         0.00000E+00
    0.00000E+00         0.00000E+00        -0.20320E+04
 
   -0.65508E+04         0.94216E+03         0.00000E+00
    0.94216E+03        -0.25807E+03         0.00000E+00
    0.00000E+00         0.00000E+00        -0.20427E+04
 
   -0.64797E+04         0.11140E+04         0.00000E+00
    0.11140E+04        -0.34864E+03         0.00000E+00
    0.00000E+00         0.00000E+00        -0.20485E+04
 
   -0.63784E+04         0.12869E+04         0.00000E+00
    0.12869E+04        -0.45296E+03         0.00000E+00
    0.00000E+00         0.00000E+00        -0.20494E+04
 
   -0.62470E+04         0.14588E+04         0.00000E+00
    0.14588E+04        -0.57036E+03         0.00000E+00
    0.00000E+00         0.00000E+00        -0.20452E+04
 
   -0.60859E+04         0.16281E+04         0.00000E+00
    0.16281E+04        -0.69990E+03         0.00000E+00
    0.00000E+00         0.00000E+00        -0.20357E+04
 
   -0.58960E+04         0.17931E+04         0.00000E+00
    0.17931E+04        -0.84044E+03         0.00000E+00
    0.00000E+00         0.00000E+00        -0.20209E+04
 
   -0.56781E+04         0.19528E+04         0.00000E+00
    0.19528E+04        -0.99073E+03         0.00000E+00
    0.00000E+00         0.00000E+00        -0.20007E+04
 
   -0.54334E+04         0.21063E+04         0.00000E+00
    0.21063E+04        -0.11495E+04         0.00000E+00
    0.00000E+00         0.00000E+00        -0.19749E+04
 
   -0.51627E+04         0.22531E+04         0.00000E+00
    0.22531E+04        -0.13155E+04         0.00000E+00
    0.00000E+00         0.00000E+00        -0.19435E+04
 
   -0.48669E+04         0.23931E+04         0.00000E+00
    0.23931E+04        -0.14877E+04         0.00000E+00
    0.00000E+00         0.00000E+00        -0.19064E+04
 
   -0.45465E+04         0.25261E+04         0.00000E+00
    0.25261E+04        -0.16652E+04         0.00000E+00
    0.00000E+00         0.00000E+00        -0.18635E+04
 
   -0.42018E+04         0.26523E+04         0.00000E+00
    0.26523E+04        -0.18474E+04         0.00000E+00
    0.00000E+00         0.00000E+00        -0.18148E+04
 
   -0.38328E+04         0.27718E+04         0.00000E+00
    0.27718E+04        -0.20340E+04         0.00000E+00
    0.00000E+00         0.00000E+00        -0.17600E+04
 
   -0.34393E+04         0.28844E+04         0.00000E+00
    0.28844E+04        -0.22248E+04         0.00000E+00
    0.00000E+00         0.00000E+00        -0.16992E+04
 
   -0.30205E+04         0.29901E+04         0.00000E+00
    0.29901E+04        -0.24201E+04         0.00000E+00
    0.00000E+00         0.00000E+00        -0.16322E+04
 
   -0.25758E+04         0.30883E+04         0.00000E+00
    0.30883E+04        -0.26201E+04         0.00000E+00
    0.00000E+00         0.00000E+00        -0.15588E+04
 
   -0.21041E+04         0.31782E+04         0.00000E+00
    0.31782E+04        -0.28254E+04         0.00000E+00
    0.00000E+00         0.00000E+00        -0.14788E+04
 
   -0.16043E+04         0.32585E+04         0.00000E+00
    0.32585E+04        -0.30366E+04         0.00000E+00
    0.00000E+00         0.00000E+00        -0.13923E+04
 
   -0.62746E+04         0.49474E+02         0.00000E+00
    0.49474E+02        -0.18563E+01         0.00000E+00
    0.00000E+00         0.00000E+00        -0.18829E+04
 
   -0.63529E+04         0.15921E+03         0.00000E+00
    0.15921E+03        -0.11823E+02         0.00000E+00
    0.00000E+00         0.00000E+00        -0.19094E+04
 
   -0.64094E+04         0.28162E+03         0.00000E+00
    0.28162E+03        -0.32607E+02         0.00000E+00
    0.00000E+00         0.00000E+00        -0.19326E+04
 
   -0.64425E+04         0.41494E+03         0.00000E+00
    0.41494E+03        -0.65005E+02         0.00000E+00
    0.00000E+00         0.00000E+00        -0.19523E+04
 
   -0.64507E+04         0.55737E+03         0.00000E+00
    0.55737E+03        -0.10967E+03         0.00000E+00
    0.00000E+00         0.00000E+00        -0.19681E+04
 
   -0.64325E+04         0.70703E+03         0.00000E+00
    0.70703E+03        -0.16708E+03         0.00000E+00
    0.00000E+00         0.00000E+00        -0.19799E+04
 
   -0.63872E+04         0.86202E+03         0.00000E+00
    0.86202E+03        -0.23749E+03         0.00000E+00
    0.00000E+00         0.00000E+00        -0.19874E+04
 
   -0.63138E+04         0.10204E+04         0.00000E+00
    0.10204E+04        -0.32091E+03         0.00000E+00
    0.00000E+00         0.00000E+00        -0.19904E+04
 
   -0.62121E+04         0.11803E+04         0.00000E+00
    0.11803E+04        -0.41708E+03         0.00000E+00
    0.00000E+00         0.00000E+00        -0.19888E+04
 
   -0.60821E+04         0.13400E+04         0.00000E+00
    0.13400E+04        -0.52550E+03         0.00000E+00
    0.00000E+00         0.00000E+00        -0.19823E+04
 
   -0.59240E+04         0.14979E+04         0.00000E+00
    0.14979E+04        -0.64544E+03         0.00000E+00
    0.00000E+00         0.00000E+00        -0.19708E+04
 
   -0.57384E+04         0.16527E+04         0.00000E+00
    0.16527E+04        -0.77600E+03         0.00000E+00
    0.00000E+00         0.00000E+00        -0.19543E+04
 
   -0.55257E+04         0.18032E+04         0.00000E+00
    0.18032E+04        -0.91621E+03         0.00000E+00
    0.00000E+00         0.00000E+00        -0.19326E+04
 
   -0.52869E+04         0.19487E+04         0.00000E+00
    0.19487E+04        -0.10650E+04         0.00000E+00
    0.00000E+00         0.00000E+00        -0.19056E+04
 
   -0.50225E+04         0.20886E+04         0.00000E+00
    0.20886E+04        -0.12215E+04         0.00000E+00
    0.00000E+00         0.00000E+00        -0.18732E+04
 
   -0.47332E+04         0.22225E+04         0.00000E+00
    0.22225E+04        -0.13847E+04         0.00000E+00
    0.00000E+00         0.00000E+00        -0.18354E+04
 
   -0.44193E+04         0.23502E+04         0.00000E+00
    0.23502E+04        -0.15540E+04         0.00000E+00
    0.00000E+00         0.00000E+00        -0.17920E+04
 
   -0.40813E+04         0.24715E+04         0.00000E+00
    0.24715E+04        -0.17287E+04         0.00000E+00
    0.00000E+00         0.00000E+00        -0.17430E+04
 
   -0.37190E+04         0.25863E+04         0.00000E+00
    0.25863E+04        -0.19086E+04         0.00000E+00
    0.00000E+00         0.00000E+00        -0.16883E+04
 
   -0.33324E+04         0.26943E+04         0.00000E+00
    0.26943E+04        -0.20935E+04         0.00000E+00
    0.00000E+00         0.00000E+00        -0.16277E+04
 
   -0.29210E+04         0.27951E+04         0.00000E+00
    0.27951E+04        -0.22833E+04         0.00000E+00
    0.00000E+00         0.00000E+00        -0.15613E+04
 
   -0.24843E+04         0.28882E+04         0.00000E+00
    0.28882E+04        -0.24784E+04         0.00000E+00
    0.00000E+00         0.00000E+00        -0.14888E+04
 
   -0.20217E+04         0.29724E+04         0.00000E+00
    0.29724E+04        -0.26789E+04         0.00000E+00
    0.00000E+00         0.00000E+00        -0.14102E+04
 
   -0.15326E+04         0.30466E+04         0.00000E+00
    0.30466E+04        -0.28853E+04         0.00000E+00
    0.00000E+00         0.00000E+00        -0.13254E+04
 
   -0.61767E+04         0.44868E+02         0.00000E+00
    0.44868E+02        -0.16894E+01         0.00000E+00
    0.00000E+00         0.00000E+00        -0.18535E+04
 
   -0.62418E+04         0.14466E+03         0.00000E+00
    0.14466E+03        -0.10802E+02         0.00000E+00
    0.00000E+00         0.00000E+00        -0.18758E+04
 
   -0.62870E+04         0.25627E+03         0.00000E+00
    0.25627E+03        -0.29879E+02         0.00000E+00
    0.00000E+00         0.00000E+00        -0.18951E+04
 
   -0.63104E+04         0.37808E+03         0.00000E+00
    0.37808E+03        -0.59694E+02         0.00000E+00
    0.00000E+00         0.00000E+00        -0.19110E+04
 
   -0.63106E+04         0.50844E+03         0.00000E+00
    0.50844E+03        -0.10087E+03         0.00000E+00
    0.00000E+00         0.00000E+00        -0.19234E+04
 
   -0.62863E+04         0.64568E+03         0.00000E+00
    0.64568E+03        -0.15384E+03         0.00000E+00
    0.00000E+00         0.00000E+00        -0.19320E+04
 
   -0.62366E+04         0.78810E+03         0.00000E+00
    0.78810E+03        -0.21887E+03         0.00000E+00
    0.00000E+00         0.00000E+00        -0.19366E+04
 
   -0.61607E+04         0.93401E+03         0.00000E+00
    0.93401E+03        -0.29601E+03         0.00000E+00
    0.00000E+00         0.00000E+00        -0.19370E+04
 
   -0.60581E+04         0.10818E+04         0.00000E+00
    0.10818E+04        -0.38507E+03         0.00000E+00
    0.00000E+00         0.00000E+00        -0.19330E+04
 
   -0.59288E+04         0.12299E+04         0.00000E+00
    0.12299E+04        -0.48569E+03         0.00000E+00
    0.00000E+00         0.00000E+00        -0.19244E+04
 
   -0.57728E+04         0.13769E+04         0.00000E+00
    0.13769E+04        -0.59731E+03         0.00000E+00
    0.00000E+00         0.00000E+00        -0.19110E+04
 
   -0.55904E+04         0.15216E+04         0.00000E+00
    0.15216E+04        -0.71923E+03         0.00000E+00
    0.00000E+00         0.00000E+00        -0.18929E+04
 
   -0.53819E+04         0.16630E+04         0.00000E+00
    0.16630E+04        -0.85069E+03         0.00000E+00
    0.00000E+00         0.00000E+00        -0.18698E+04
 
   -0.51480E+04         0.18003E+04         0.00000E+00
    0.18003E+04        -0.99086E+03         0.00000E+00
    0.00000E+00         0.00000E+00        -0.18417E+04
 
   -0.48890E+04         0.19328E+04         0.00000E+00
    0.19328E+04        -0.11390E+04         0.00000E+00
    0.00000E+00         0.00000E+00        -0.18084E+04
 
   -0.46055E+04         0.20601E+04         0.00000E+00
    0.20601E+04        -0.12942E+04         0.00000E+00
    0.00000E+00         0.00000E+00        -0.17699E+04
 
   -0.42977E+04         0.21818E+04         0.00000E+00
    0.21818E+04        -0.14561E+04         0.00000E+00
    0.00000E+00         0.00000E+00        -0.17261E+04
 
   -0.39659E+04         0.22975E+04         0.00000E+00
    0.22975E+04        -0.16240E+04         0.00000E+00
    0.00000E+00         0.00000E+00        -0.16770E+04
 
   -0.36102E+04         0.24070E+04         0.00000E+00
    0.24070E+04        -0.17976E+04         0.00000E+00
    0.00000E+00         0.00000E+00        -0.16224E+04
 
   -0.32305E+04         0.25097E+04         0.00000E+00
    0.25097E+04        -0.19768E+04         0.00000E+00
    0.00000E+00         0.00000E+00        -0.15622E+04
 
   -0.28266E+04         0.26053E+04         0.00000E+00
    0.26053E+04        -0.21614E+04         0.00000E+00
    0.00000E+00         0.00000E+00        -0.14964E+04
 
   -0.23983E+04         0.26928E+04         0.00000E+00
    0.26928E+04        -0.23516E+04         0.00000E+00
    0.00000E+00         0.00000E+00        -0.14250E+04
 
   -0.19452E+04         0.27714E+04         0.00000E+00
    0.27714E+04        -0.25473E+04         0.00000E+00
    0.00000E+00         0.00000E+00        -0.13477E+04
 
   -0.14671E+04         0.28397E+04         0.00000E+00
    0.28397E+04        -0.27487E+04         0.00000E+00
    0.00000E+00         0.00000E+00        -0.12647E+04
 
   -0.60878E+04         0.40671E+02         0.00000E+00
    0.40671E+02        -0.15390E+01         0.00000E+00
    0.00000E+00         0.00000E+00        -0.18268E+04
 
   -0.61408E+04         0.13132E+03         0.00000E+00
    0.13132E+03        -0.98779E+01         0.00000E+00
    0.00000E+00         0.00000E+00        -0.18452E+04
 
   -0.61753E+04         0.23295E+03         0.00000E+00
    0.23295E+03        -0.27408E+02         0.00000E+00
    0.00000E+00         0.00000E+00        -0.18608E+04
 
   -0.61896E+04         0.34410E+03         0.00000E+00
    0.34410E+03        -0.54889E+02         0.00000E+00
    0.00000E+00         0.00000E+00        -0.18733E+04
 
   -0.61823E+04         0.46326E+03         0.00000E+00
    0.46326E+03        -0.92925E+02         0.00000E+00
    0.00000E+00         0.00000E+00        -0.18826E+04
 
   -0.61521E+04         0.58895E+03         0.00000E+00
    0.58895E+03        -0.14195E+03         0.00000E+00
    0.00000E+00         0.00000E+00        -0.18882E+04
 
   -0.60981E+04         0.71966E+03         0.00000E+00
    0.71966E+03        -0.20224E+03         0.00000E+00
    0.00000E+00         0.00000E+00        -0.18901E+04
 
   -0.60195E+04         0.85390E+03         0.00000E+00
    0.85390E+03        -0.27386E+03         0.00000E+00
    0.00000E+00         0.00000E+00        -0.18880E+04
 
   -0.59157E+04         0.99022E+03         0.00000E+00
    0.99022E+03        -0.35673E+03         0.00000E+00
    0.00000E+00         0.00000E+00        -0.18817E+04
 
   -0.57865E+04         0.11273E+04         0.00000E+00
    0.11273E+04        -0.45058E+03         0.00000E+00
    0.00000E+00         0.00000E+00        -0.18711E+04
 
   -0.56319E+04         0.12638E+04         0.00000E+00
    0.12638E+04        -0.55499E+03         0.00000E+00
    0.00000E+00         0.00000E+00        -0.18561E+04
 
   -0.54519E+04         0.13987E+04         0.00000E+00
    0.13987E+04        -0.66943E+03         0.00000E+00
    0.00000E+00         0.00000E+00        -0.18364E+04
 
   -0.52469E+04         0.15310E+04         0.00000E+00
    0.15310E+04        -0.79328E+03         0.00000E+00
    0.00000E+00         0.00000E+00        -0.18120E+04
 
   -0.50170E+04         0.16599E+04         0.00000E+00
    0.16599E+04        -0.92589E+03         0.00000E+00
    0.00000E+00         0.00000E+00        -0.17829E+04
 
   -0.47627E+04         0.17848E+04         0.00000E+00
    0.17848E+04        -0.10666E+04         0.00000E+00
    0.00000E+00         0.00000E+00        -0.17488E+04
 
   -0.44843E+04         0.19050E+04         0.00000E+00
    0.19050E+04        -0.12148E+04         0.00000E+00
    0.00000E+00         0.00000E+00        -0.17098E+04
 
   -0.41821E+04         0.20201E+04         0.00000E+00
    0.20201E+04        -0.13700E+04         0.00000E+00
    0.00000E+00         0.00000E+00        -0.16656E+04
 
   -0.38562E+04         0.21297E+04         0.00000E+00
    0.21297E+04        -0.15318E+04         0.00000E+00
    0.00000E+00         0.00000E+00        -0.16164E+04
 
   -0.35069E+04         0.22333E+04         0.00000E+00
    0.22333E+04        -0.16996E+04         0.00000E+00
    0.00000E+00         0.00000E+00        -0.15620E+04
 
   -0.31340E+04         0.23304E+04         0.00000E+00
    0.23304E+04        -0.18735E+04         0.00000E+00
    0.00000E+00         0.00000E+00        -0.15023E+04
 
   -0.27377E+04         0.24204E+04         0.00000E+00
    0.24204E+04        -0.20531E+04         0.00000E+00
    0.00000E+00         0.00000E+00        -0.14372E+04
 
   -0.23179E+04         0.25024E+04         0.00000E+00
    0.25024E+04        -0.22383E+04         0.00000E+00
    0.00000E+00         0.00000E+00        -0.13669E+04
 
   -0.18744E+04         0.25753E+04         0.00000E+00
    0.25753E+04        -0.24293E+04         0.00000E+00
    0.00000E+00         0.00000E+00        -0.12911E+04
 
   -0.14074E+04         0.26380E+04         0.00000E+00
    0.26380E+04        -0.26258E+04         0.00000E+00
    0.00000E+00         0.00000E+00        -0.12100E+04
 
   -0.60072E+04         0.36839E+02         0.00000E+00
    0.36839E+02        -0.14067E+01         0.00000E+00
    0.00000E+00         0.00000E+00        -0.18026E+04
 
   -0.60489E+04         0.11908E+03         0.00000E+00
    0.11908E+03        -0.90605E+01         0.00000E+00
    0.00000E+00         0.00000E+00        -0.18174E+04
 
   -0.60736E+04         0.21147E+03         0.00000E+00
    0.21147E+03        -0.25215E+02         0.00000E+00
    0.00000E+00         0.00000E+00        -0.18296E+04
 
   -0.60794E+04         0.31269E+03         0.00000E+00
    0.31269E+03        -0.50622E+02         0.00000E+00
    0.00000E+00         0.00000E+00        -0.18390E+04
 
   -0.60651E+04         0.42142E+03         0.00000E+00
    0.42142E+03        -0.85877E+02         0.00000E+00
    0.00000E+00         0.00000E+00        -0.18453E+04
 
   -0.60293E+04         0.53631E+03         0.00000E+00
    0.53631E+03        -0.13142E+03         0.00000E+00
    0.00000E+00         0.00000E+00        -0.18482E+04
 
   -0.59710E+04         0.65603E+03         0.00000E+00
    0.65603E+03        -0.18754E+03         0.00000E+00
    0.00000E+00         0.00000E+00        -0.18476E+04
 
   -0.58895E+04         0.77926E+03         0.00000E+00
    0.77926E+03        -0.25436E+03         0.00000E+00
    0.00000E+00         0.00000E+00        -0.18432E+04
 
   -0.57842E+04         0.90473E+03         0.00000E+00
    0.90473E+03        -0.33184E+03         0.00000E+00
    0.00000E+00         0.00000E+00        -0.18348E+04
 
   -0.56548E+04         0.10312E+04         0.00000E+00
    0.10312E+04        -0.41981E+03         0.00000E+00
    0.00000E+00         0.00000E+00        -0.18224E+04
 
   -0.55010E+04         0.11576E+04         0.00000E+00
    0.11576E+04        -0.51797E+03         0.00000E+00
    0.00000E+00         0.00000E+00        -0.18057E+04
 
   -0.53229E+04         0.12828E+04         0.00000E+00
    0.12828E+04        -0.62591E+03         0.00000E+00
    0.00000E+00         0.00000E+00        -0.17846E+04
 
   -0.51206E+04         0.14061E+04         0.00000E+00
    0.14061E+04        -0.74314E+03         0.00000E+00
    0.00000E+00         0.00000E+00        -0.17591E+04
 
   -0.48942E+04         0.15265E+04         0.00000E+00
    0.15265E+04        -0.86915E+03         0.00000E+00
    0.00000E+00         0.00000E+00        -0.17290E+04
 
   -0.46439E+04         0.16435E+04         0.00000E+00
    0.16435E+04        -0.10034E+04         0.00000E+00
    0.00000E+00         0.00000E+00        -0.16942E+04
 
   -0.43701E+04         0.17563E+04         0.00000E+00
    0.17563E+04        -0.11454E+04         0.00000E+00
    0.00000E+00         0.00000E+00        -0.16547E+04
 
   -0.40730E+04         0.18646E+04         0.00000E+00
    0.18646E+04        -0.12946E+04         0.00000E+00
    0.00000E+00         0.00000E+00        -0.16103E+04
 
   -0.37527E+04         0.19677E+04         0.00000E+00
    0.19677E+04        -0.14507E+04         0.00000E+00
    0.00000E+00         0.00000E+00        -0.15610E+04
 
   -0.34095E+04         0.20651E+04         0.00000E+00
    0.20651E+04        -0.16133E+04         0.00000E+00
    0.00000E+00         0.00000E+00        -0.15068E+04
 
   -0.30434E+04         0.21562E+04         0.00000E+00
    0.21562E+04        -0.17821E+04         0.00000E+00
    0.00000E+00         0.00000E+00        -0.14476E+04
 
   -0.26545E+04         0.22403E+04         0.00000E+00
    0.22403E+04        -0.19569E+04         0.00000E+00
    0.00000E+00         0.00000E+00        -0.13834E+04
 
   -0.22431E+04         0.23166E+04         0.00000E+00
    0.23166E+04        -0.21375E+04         0.00000E+00
    0.00000E+00         0.00000E+00        -0.13142E+04
 
   -0.18092E+04         0.23840E+04         0.00000E+00
    0.23840E+04        -0.23237E+04         0.00000E+00
    0.00000E+00         0.00000E+00        -0.12399E+04
 
   -0.13532E+04         0.24412E+04         0.00000E+00
    0.24412E+04        -0.25153E+04         0.00000E+00
    0.00000E+00         0.00000E+00        -0.11606E+04
 
   -0.59342E+04         0.33325E+02         0.00000E+00
    0.33325E+02        -0.12923E+01         0.00000E+00
    0.00000E+00         0.00000E+00        -0.17806E+04
 
   -0.59656E+04         0.10781E+03         0.00000E+00
    0.10781E+03        -0.83502E+01         0.00000E+00
    0.00000E+00         0.00000E+00        -0.17922E+04
 
   -0.59811E+04         0.19160E+03         0.00000E+00
    0.19160E+03        -0.23301E+02         0.00000E+00
    0.00000E+00         0.00000E+00        -0.18013E+04
 
   -0.59791E+04         0.28356E+03         0.00000E+00
    0.28356E+03        -0.46889E+02         0.00000E+00
    0.00000E+00         0.00000E+00        -0.18078E+04
 
   -0.59581E+04         0.38251E+03         0.00000E+00
    0.38251E+03        -0.79708E+02         0.00000E+00
    0.00000E+00         0.00000E+00        -0.18113E+04
 
   -0.59170E+04         0.48725E+03         0.00000E+00
    0.48725E+03        -0.12221E+03         0.00000E+00
    0.00000E+00         0.00000E+00        -0.18118E+04
 
   -0.58546E+04         0.59661E+03         0.00000E+00
    0.59661E+03        -0.17469E+03         0.00000E+00
    0.00000E+00         0.00000E+00        -0.18088E+04
 
   -0.57703E+04         0.70940E+03         0.00000E+00
    0.70940E+03        -0.23733E+03         0.00000E+00
    0.00000E+00         0.00000E+00        -0.18023E+04
 
   -0.56633E+04         0.82449E+03         0.00000E+00
    0.82449E+03        -0.31014E+03         0.00000E+00
    0.00000E+00         0.00000E+00        -0.17920E+04
 
   -0.55333E+04         0.94081E+03         0.00000E+00
    0.94081E+03        -0.39302E+03         0.00000E+00
    0.00000E+00         0.00000E+00        -0.17779E+04
 
   -0.53799E+04         0.10573E+04         0.00000E+00
    0.10573E+04        -0.48576E+03         0.00000E+00
    0.00000E+00         0.00000E+00        -0.17597E+04
 
   -0.52032E+04         0.11731E+04         0.00000E+00
    0.11731E+04        -0.58805E+03         0.00000E+00
    0.00000E+00         0.00000E+00        -0.17374E+04
 
   -0.50030E+04         0.12874E+04         0.00000E+00
    0.12874E+04        -0.69952E+03         0.00000E+00
    0.00000E+00         0.00000E+00        -0.17108E+04
 
   -0.47795E+04         0.13993E+04         0.00000E+00
    0.13993E+04        -0.81976E+03         0.00000E+00
    0.00000E+00         0.00000E+00        -0.16798E+04
 
   -0.45329E+04         0.15082E+04         0.00000E+00
    0.15082E+04        -0.94831E+03         0.00000E+00
    0.00000E+00         0.00000E+00        -0.16444E+04
 
   -0.42632E+04         0.16134E+04         0.00000E+00
    0.16134E+04        -0.10847E+04         0.00000E+00
    0.00000E+00         0.00000E+00        -0.16044E+04
 
   -0.39707E+04         0.17145E+04         0.00000E+00
    0.17145E+04        -0.12286E+04         0.00000E+00
    0.00000E+00         0.00000E+00        -0.15598E+04
 
   -0.36557E+04         0.18108E+04         0.00000E+00
    0.18108E+04        -0.13796E+04         0.00000E+00
    0.00000E+00         0.00000E+00        -0.15106E+04
 
   -0.33183E+04         0.19018E+04         0.00000E+00
    0.19018E+04        -0.15373E+04         0.00000E+00
    0.00000E+00         0.00000E+00        -0.14567E+04
 
   -0.29587E+04         0.19867E+04         0.00000E+00
    0.19867E+04        -0.17015E+04         0.00000E+00
    0.00000E+00         0.00000E+00        -0.13980E+04
 
   -0.25772E+04         0.20649E+04         0.00000E+00
    0.20649E+04        -0.18717E+04         0.00000E+00
    0.00000E+00         0.00000E+00        -0.13347E+04
 
   -0.21739E+04         0.21354E+04         0.00000E+00
    0.21354E+04        -0.20478E+04         0.00000E+00
    0.00000E+00         0.00000E+00        -0.12665E+04
 
   -0.17494E+04         0.21973E+04         0.00000E+00
    0.21973E+04        -0.22295E+04         0.00000E+00
    0.00000E+00         0.00000E+00        -0.11937E+04
 
   -0.13041E+04         0.22494E+04         0.00000E+00
    0.22494E+04        -0.24165E+04         0.00000E+00
    0.00000E+00         0.00000E+00        -0.11162E+04
 
   -0.58682E+04         0.30084E+02         0.00000E+00
    0.30084E+02        -0.11952E+01         0.00000E+00
    0.00000E+00         0.00000E+00        -0.17608E+04
 
   -0.58901E+04         0.97362E+02         0.00000E+00
    0.97362E+02        -0.77424E+01         0.00000E+00
    0.00000E+00         0.00000E+00        -0.17694E+04
 
   -0.58973E+04         0.17314E+03         0.00000E+00
    0.17314E+03        -0.21655E+02         0.00000E+00
    0.00000E+00         0.00000E+00        -0.17757E+04
 
   -0.58880E+04         0.25642E+03         0.00000E+00
    0.25642E+03        -0.43667E+02         0.00000E+00
    0.00000E+00         0.00000E+00        -0.17795E+04
 
   -0.58609E+04         0.34616E+03         0.00000E+00
    0.34616E+03        -0.74372E+02         0.00000E+00
    0.00000E+00         0.00000E+00        -0.17806E+04
 
   -0.58147E+04         0.44131E+03         0.00000E+00
    0.44131E+03        -0.11423E+03         0.00000E+00
    0.00000E+00         0.00000E+00        -0.17787E+04
 
   -0.57484E+04         0.54083E+03         0.00000E+00
    0.54083E+03        -0.16357E+03         0.00000E+00
    0.00000E+00         0.00000E+00        -0.17736E+04
 
   -0.56612E+04         0.64366E+03         0.00000E+00
    0.64366E+03        -0.22258E+03         0.00000E+00
    0.00000E+00         0.00000E+00        -0.17651E+04
 
   -0.55524E+04         0.74882E+03         0.00000E+00
    0.74882E+03        -0.29134E+03         0.00000E+00
    0.00000E+00         0.00000E+00        -0.17531E+04
 
   -0.54216E+04         0.85531E+03         0.00000E+00
    0.85531E+03        -0.36982E+03         0.00000E+00
    0.00000E+00         0.00000E+00        -0.17374E+04
 
   -0.52684E+04         0.96224E+03         0.00000E+00
    0.96224E+03        -0.45787E+03         0.00000E+00
    0.00000E+00         0.00000E+00        -0.17179E+04
 
   -0.50927E+04         0.10687E+04         0.00000E+00
    0.10687E+04        -0.55527E+03         0.00000E+00
    0.00000E+00         0.00000E+00        -0.16944E+04
 
   -0.48943E+04         0.11740E+04         0.00000E+00
    0.11740E+04        -0.66174E+03         0.00000E+00
    0.00000E+00         0.00000E+00        -0.16668E+04
 
   -0.46732E+04         0.12774E+04         0.00000E+00
    0.12774E+04        -0.77693E+03         0.00000E+00
    0.00000E+00         0.00000E+00        -0.16350E+04
 
   -0.44297E+04         0.13781E+04         0.00000E+00
    0.13781E+04        -0.90047E+03         0.00000E+00
    0.00000E+00         0.00000E+00        -0.15990E+04
 
   -0.41637E+04         0.14757E+04         0.00000E+00
    0.14757E+04        -0.10320E+04         0.00000E+00
    0.00000E+00         0.00000E+00        -0.15587E+04
 
   -0.38755E+04         0.15694E+04         0.00000E+00
    0.15694E+04        -0.11711E+04         0.00000E+00
    0.00000E+00         0.00000E+00        -0.15140E+04
 
   -0.35654E+04         0.16587E+04         0.00000E+00
    0.16587E+04        -0.13175E+04         0.00000E+00
    0.00000E+00         0.00000E+00        -0.14649E+04
 
   -0.32335E+04         0.17430E+04         0.00000E+00
    0.17430E+04        -0.14707E+04         0.00000E+00
    0.00000E+00         0.00000E+00        -0.14113E+04
 
   -0.28801E+04         0.18216E+04         0.00000E+00
    0.18216E+04        -0.16305E+04         0.00000E+00
    0.00000E+00         0.00000E+00        -0.13532E+04
 
   -0.25056E+04         0.18938E+04         0.00000E+00
    0.18938E+04        -0.17965E+04         0.00000E+00
    0.00000E+00         0.00000E+00        -0.12906E+04
 
   -0.21104E+04         0.19586E+04         0.00000E+00
    0.19586E+04        -0.19684E+04         0.00000E+00
    0.00000E+00         0.00000E+00        -0.12236E+04
 
   -0.16949E+04         0.20152E+04         0.00000E+00
    0.20152E+04        -0.21458E+04         0.00000E+00
    0.00000E+00         0.00000E+00        -0.11522E+04
 
   -0.12598E+04         0.20623E+04         0.00000E+00
    0.20623E+04        -0.23282E+04         0.00000E+00
    0.00000E+00         0.00000E+00        -0.10764E+04
 
   -0.58087E+04         0.27075E+02         0.00000E+00
    0.27075E+02        -0.11139E+01         0.00000E+00
    0.00000E+00         0.00000E+00        -0.17429E+04
 
   -0.58221E+04         0.87631E+02         0.00000E+00
    0.87631E+02        -0.72296E+01         0.00000E+00
    0.00000E+00         0.00000E+00        -0.17488E+04
 
   -0.58216E+04         0.15589E+03         0.00000E+00
    0.15589E+03        -0.20257E+02         0.00000E+00
    0.00000E+00         0.00000E+00        -0.17526E+04
 
   -0.58056E+04         0.23099E+03         0.00000E+00
    0.23099E+03        -0.40919E+02         0.00000E+00
    0.00000E+00         0.00000E+00        -0.17540E+04
 
   -0.57728E+04         0.31202E+03         0.00000E+00
    0.31202E+03        -0.69808E+02         0.00000E+00
    0.00000E+00         0.00000E+00        -0.17528E+04
 
   -0.57219E+04         0.39806E+03         0.00000E+00
    0.39806E+03        -0.10739E+03         0.00000E+00
    0.00000E+00         0.00000E+00        -0.17488E+04
 
   -0.56518E+04         0.48820E+03         0.00000E+00
    0.48820E+03        -0.15401E+03         0.00000E+00
    0.00000E+00         0.00000E+00        -0.17418E+04
 
   -0.55619E+04         0.58150E+03         0.00000E+00
    0.58150E+03        -0.20990E+03         0.00000E+00
    0.00000E+00         0.00000E+00        -0.17315E+04
 
   -0.54513E+04         0.67708E+03         0.00000E+00
    0.67708E+03        -0.27518E+03         0.00000E+00
    0.00000E+00         0.00000E+00        -0.17179E+04
 
   -0.53195E+04         0.77406E+03         0.00000E+00
    0.77406E+03        -0.34986E+03         0.00000E+00
    0.00000E+00         0.00000E+00        -0.17008E+04
 
   -0.51663E+04         0.87162E+03         0.00000E+00
    0.87162E+03        -0.43386E+03         0.00000E+00
    0.00000E+00         0.00000E+00        -0.16800E+04
 
   -0.49912E+04         0.96898E+03         0.00000E+00
    0.96898E+03        -0.52703E+03         0.00000E+00
    0.00000E+00         0.00000E+00        -0.16555E+04
 
   -0.47942E+04         0.10654E+04         0.00000E+00
    0.10654E+04        -0.62915E+03         0.00000E+00
    0.00000E+00         0.00000E+00        -0.16270E+04
 
   -0.45753E+04         0.11602E+04         0.00000E+00
    0.11602E+04        -0.73993E+03         0.00000E+00
    0.00000E+00         0.00000E+00        -0.15946E+04
 
   -0.43344E+04         0.12528E+04         0.00000E+00
    0.12528E+04        -0.85908E+03         0.00000E+00
    0.00000E+00         0.00000E+00        -0.15581E+04
 
   -0.40718E+04         0.13425E+04         0.00000E+00
    0.13425E+04        -0.98627E+03         0.00000E+00
    0.00000E+00         0.00000E+00        -0.15174E+04
 
   -0.37876E+04         0.14288E+04         0.00000E+00
    0.14288E+04        -0.11211E+04         0.00000E+00
    0.00000E+00         0.00000E+00        -0.14726E+04
 
   -0.34820E+04         0.15110E+04         0.00000E+00
    0.15110E+04        -0.12634E+04         0.00000E+00
    0.00000E+00         0.00000E+00        -0.14236E+04
 
   -0.31553E+04         0.15885E+04         0.00000E+00
    0.15885E+04        -0.14125E+04         0.00000E+00
    0.00000E+00         0.00000E+00        -0.13703E+04
 
   -0.28078E+04         0.16607E+04         0.00000E+00
    0.16607E+04        -0.15684E+04         0.00000E+00
    0.00000E+00         0.00000E+00        -0.13128E+04
 
   -0.24399E+04         0.17268E+04         0.00000E+00
    0.17268E+04        -0.17304E+04         0.00000E+00
    0.00000E+00         0.00000E+00        -0.12511E+04
 
   -0.20523E+04         0.17860E+04         0.00000E+00
    0.17860E+04        -0.18983E+04         0.00000E+00
    0.00000E+00         0.00000E+00        -0.11852E+04
 
   -0.16454E+04         0.18373E+04         0.00000E+00
    0.18373E+04        -0.20716E+04         0.00000E+00
    0.00000E+00         0.00000E+00        -0.11151E+04
 
   -0.12200E+04         0.18798E+04         0.00000E+00
    0.18798E+04        -0.22497E+04         0.00000E+00
    0.00000E+00         0.00000E+00        -0.10409E+04
 
   -0.57553E+04         0.24257E+02         0.00000E+00
    0.24257E+02        -0.10467E+01         0.00000E+00
    0.00000E+00         0.00000E+00        -0.17269E+04
 
   -0.57610E+04         0.78499E+02         0.00000E+00
    0.78499E+02        -0.68025E+01         0.00000E+00
    0.00000E+00         0.00000E+00        -0.17303E+04
 
   -0.57536E+04         0.13967E+03         0.00000E+00
    0.13967E+03        -0.19085E+02         0.00000E+00
    0.00000E+00         0.00000E+00        -0.17318E+04
 
   -0.57315E+04         0.20702E+03         0.00000E+00
    0.20702E+03        -0.38602E+02         0.00000E+00
    0.00000E+00         0.00000E+00        -0.17310E+04
 
   -0.56934E+04         0.27977E+03         0.00000E+00
    0.27977E+03        -0.65943E+02         0.00000E+00
    0.00000E+00         0.00000E+00        -0.17278E+04
 
   -0.56381E+04         0.35713E+03         0.00000E+00
    0.35713E+03        -0.10158E+03         0.00000E+00
    0.00000E+00         0.00000E+00        -0.17219E+04
 
   -0.55646E+04         0.43828E+03         0.00000E+00
    0.43828E+03        -0.14588E+03         0.00000E+00
    0.00000E+00         0.00000E+00        -0.17131E+04
 
   -0.54720E+04         0.52241E+03         0.00000E+00
    0.52241E+03        -0.19910E+03         0.00000E+00
    0.00000E+00         0.00000E+00        -0.17013E+04
 
   -0.53596E+04         0.60873E+03         0.00000E+00
    0.60873E+03        -0.26138E+03         0.00000E+00
    0.00000E+00         0.00000E+00        -0.16863E+04
 
   -0.52268E+04         0.69646E+03         0.00000E+00
    0.69646E+03        -0.33280E+03         0.00000E+00
    0.00000E+00         0.00000E+00        -0.16679E+04
 
   -0.50733E+04         0.78486E+03         0.00000E+00
    0.78486E+03        -0.41331E+03         0.00000E+00
    0.00000E+00         0.00000E+00        -0.16460E+04
 
   -0.48987E+04         0.87322E+03         0.00000E+00
    0.87322E+03        -0.50283E+03         0.00000E+00
    0.00000E+00         0.00000E+00        -0.16204E+04
 
   -0.47028E+04         0.96088E+03         0.00000E+00
    0.96088E+03        -0.60118E+03         0.00000E+00
    0.00000E+00         0.00000E+00        -0.15912E+04
 
   -0.44857E+04         0.10472E+04         0.00000E+00
    0.10472E+04        -0.70813E+03         0.00000E+00
    0.00000E+00         0.00000E+00        -0.15581E+04
 
   -0.42473E+04         0.11316E+04         0.00000E+00
    0.11316E+04        -0.82344E+03         0.00000E+00
    0.00000E+00         0.00000E+00        -0.15212E+04
 
   -0.39876E+04         0.12134E+04         0.00000E+00
    0.12134E+04        -0.94680E+03         0.00000E+00
    0.00000E+00         0.00000E+00        -0.14803E+04
 
   -0.37070E+04         0.12921E+04         0.00000E+00
    0.12921E+04        -0.10779E+04         0.00000E+00
    0.00000E+00         0.00000E+00        -0.14355E+04
 
   -0.34055E+04         0.13671E+04         0.00000E+00
    0.13671E+04        -0.12164E+04         0.00000E+00
    0.00000E+00         0.00000E+00        -0.13866E+04
 
   -0.30836E+04         0.14378E+04         0.00000E+00
    0.14378E+04        -0.13619E+04         0.00000E+00
    0.00000E+00         0.00000E+00        -0.13337E+04
 
   -0.27417E+04         0.15035E+04         0.00000E+00
    0.15035E+04        -0.15141E+04         0.00000E+00
    0.00000E+00         0.00000E+00        -0.12767E+04
 
   -0.23801E+04         0.15636E+04         0.00000E+00
    0.15636E+04        -0.16725E+04         0.00000E+00
    0.00000E+00         0.00000E+00        -0.12158E+04
 
   -0.19996E+04         0.16172E+04         0.00000E+00
    0.16172E+04        -0.18366E+04         0.00000E+00
    0.00000E+00         0.00000E+00        -0.11509E+04
 
   -0.16007E+04         0.16635E+04         0.00000E+00
    0.16635E+04        -0.20061E+04         0.00000E+00
    0.00000E+00         0.00000E+00        -0.10820E+04
 
   -0.11845E+04         0.17015E+04         0.00000E+00
    0.17015E+04        -0.21802E+04         0.00000E+00
    0.00000E+00         0.00000E+00        -0.10094E+04
 
   -0.57075E+04         0.21598E+02         0.00000E+00
    0.21598E+02        -0.99205E+00         0.00000E+00
    0.00000E+00         0.00000E+00        -0.17126E+04
 
   -0.57064E+04         0.69868E+02         0.00000E+00
    0.69868E+02        -0.64512E+01         0.00000E+00
    0.00000E+00         0.00000E+00        -0.17138E+04
 
   -0.56928E+04         0.12431E+03         0.00000E+00
    0.12431E+03        -0.18113E+02         0.00000E+00
    0.00000E+00         0.00000E+00        -0.17133E+04
 
   -0.56652E+04         0.18428E+03         0.00000E+00
    0.18428E+03        -0.36670E+02         0.00000E+00
    0.00000E+00         0.00000E+00        -0.17106E+04
 
   -0.56223E+04         0.24914E+03         0.00000E+00
    0.24914E+03        -0.62704E+02         0.00000E+00
    0.00000E+00         0.00000E+00        -0.17055E+04
 
   -0.55630E+04         0.31817E+03         0.00000E+00
    0.31817E+03        -0.96696E+02         0.00000E+00
    0.00000E+00         0.00000E+00        -0.16979E+04
 
   -0.54863E+04         0.39067E+03         0.00000E+00
    0.39067E+03        -0.13902E+03         0.00000E+00
    0.00000E+00         0.00000E+00        -0.16876E+04
 
   -0.53911E+04         0.46594E+03         0.00000E+00
    0.46594E+03        -0.18996E+03         0.00000E+00
    0.00000E+00         0.00000E+00        -0.16743E+04
 
   -0.52770E+04         0.54328E+03         0.00000E+00
    0.54328E+03        -0.24969E+03         0.00000E+00
    0.00000E+00         0.00000E+00        -0.16580E+04
 
   -0.51432E+04         0.62199E+03         0.00000E+00
    0.62199E+03        -0.31831E+03         0.00000E+00
    0.00000E+00         0.00000E+00        -0.16384E+04
 
   -0.49893E+04         0.70141E+03         0.00000E+00
    0.70141E+03        -0.39584E+03         0.00000E+00
    0.00000E+00         0.00000E+00        -0.16155E+04
 
   -0.48150E+04         0.78092E+03         0.00000E+00
    0.78092E+03        -0.48222E+03         0.00000E+00
    0.00000E+00         0.00000E+00        -0.15892E+04
 
   -0.46201E+04         0.85989E+03         0.00000E+00
    0.85989E+03        -0.57731E+03         0.00000E+00
    0.00000E+00         0.00000E+00        -0.15592E+04
 
   -0.44045E+04         0.93774E+03         0.00000E+00
    0.93774E+03        -0.68095E+03         0.00000E+00
    0.00000E+00         0.00000E+00        -0.15256E+04
 
   -0.41681E+04         0.10139E+04         0.00000E+00
    0.10139E+04        -0.79290E+03         0.00000E+00
    0.00000E+00         0.00000E+00        -0.14883E+04
 
   -0.39112E+04         0.10878E+04         0.00000E+00
    0.10878E+04        -0.91291E+03         0.00000E+00
    0.00000E+00         0.00000E+00        -0.14472E+04
 
   -0.36337E+04         0.11590E+04         0.00000E+00
    0.11590E+04        -0.10407E+04         0.00000E+00
    0.00000E+00         0.00000E+00        -0.14023E+04
 
   -0.33361E+04         0.12267E+04         0.00000E+00
    0.12267E+04        -0.11758E+04         0.00000E+00
    0.00000E+00         0.00000E+00        -0.13536E+04
 
   -0.30187E+04         0.12906E+04         0.00000E+00
    0.12906E+04        -0.13180E+04         0.00000E+00
    0.00000E+00         0.00000E+00        -0.13010E+04
 
   -0.26818E+04         0.13499E+04         0.00000E+00
    0.13499E+04        -0.14669E+04         0.00000E+00
    0.00000E+00         0.00000E+00        -0.12446E+04
 
   -0.23261E+04         0.14039E+04         0.00000E+00
    0.14039E+04        -0.16220E+04         0.00000E+00
    0.00000E+00         0.00000E+00        -0.11844E+04
 
   -0.19521E+04         0.14520E+04         0.00000E+00
    0.14520E+04        -0.17828E+04         0.00000E+00
    0.00000E+00         0.00000E+00        -0.11205E+04
 
   -0.15608E+04         0.14934E+04         0.00000E+00
    0.14934E+04        -0.19487E+04         0.00000E+00
    0.00000E+00         0.00000E+00        -0.10528E+04
 
   -0.11530E+04         0.15271E+04         0.00000E+00
    0.15271E+04        -0.21191E+04         0.00000E+00
    0.00000E+00         0.00000E+00        -0.98165E+03
 
   -0.56652E+04         0.19066E+02         0.00000E+00
    0.19066E+02        -0.94813E+00         0.00000E+00
    0.00000E+00         0.00000E+00        -0.16999E+04
 
   -0.56580E+04         0.61647E+02         0.00000E+00
    0.61647E+02        -0.61660E+01         0.00000E+00
    0.00000E+00         0.00000E+00        -0.16993E+04
 
   -0.56389E+04         0.10966E+03         0.00000E+00
    0.10966E+03        -0.17317E+02         0.00000E+00
    0.00000E+00         0.00000E+00        -0.16969E+04
 
   -0.56064E+04         0.16259E+03         0.00000E+00
    0.16259E+03        -0.35076E+02         0.00000E+00
    0.00000E+00         0.00000E+00        -0.16924E+04
 
   -0.55592E+04         0.21985E+03         0.00000E+00
    0.21985E+03        -0.60018E+02         0.00000E+00
    0.00000E+00         0.00000E+00        -0.16858E+04
 
   -0.54963E+04         0.28087E+03         0.00000E+00
    0.28087E+03        -0.92626E+02         0.00000E+00
    0.00000E+00         0.00000E+00        -0.16767E+04
 
   -0.54165E+04         0.34503E+03         0.00000E+00
    0.34503E+03        -0.13329E+03         0.00000E+00
    0.00000E+00         0.00000E+00        -0.16649E+04
 
   -0.53191E+04         0.41171E+03         0.00000E+00
    0.41171E+03        -0.18230E+03         0.00000E+00
    0.00000E+00         0.00000E+00        -0.16504E+04
 
   -0.52033E+04         0.48030E+03         0.00000E+00
    0.48030E+03        -0.23987E+03         0.00000E+00
    0.00000E+00         0.00000E+00        -0.16329E+04
 
   -0.50684E+04         0.55019E+03         0.00000E+00
    0.55019E+03        -0.30612E+03         0.00000E+00
    0.00000E+00         0.00000E+00        -0.16124E+04
 
   -0.49141E+04         0.62081E+03         0.00000E+00
    0.62081E+03        -0.38110E+03         0.00000E+00
    0.00000E+00         0.00000E+00        -0.15886E+04
 
   -0.47400E+04         0.69158E+03         0.00000E+00
    0.69158E+03        -0.46479E+03         0.00000E+00
    0.00000E+00         0.00000E+00        -0.15614E+04
 
   -0.45458E+04         0.76195E+03         0.00000E+00
    0.76195E+03        -0.55709E+03         0.00000E+00
    0.00000E+00         0.00000E+00        -0.15309E+04
 
   -0.43315E+04         0.83139E+03         0.00000E+00
    0.83139E+03        -0.65787E+03         0.00000E+00
    0.00000E+00         0.00000E+00        -0.14968E+04
 
   -0.40970E+04         0.89938E+03         0.00000E+00
    0.89938E+03        -0.76692E+03         0.00000E+00
    0.00000E+00         0.00000E+00        -0.14592E+04
 
   -0.38424E+04         0.96540E+03         0.00000E+00
    0.96540E+03        -0.88400E+03         0.00000E+00
    0.00000E+00         0.00000E+00        -0.14179E+04
 
   -0.35679E+04         0.10289E+04         0.00000E+00
    0.10289E+04        -0.10088E+04         0.00000E+00
    0.00000E+00         0.00000E+00        -0.13730E+04
 
   -0.32738E+04         0.10895E+04         0.00000E+00
    0.10895E+04        -0.11410E+04         0.00000E+00
    0.00000E+00         0.00000E+00        -0.13244E+04
 
   -0.29603E+04         0.11465E+04         0.00000E+00
    0.11465E+04        -0.12803E+04         0.00000E+00
    0.00000E+00         0.00000E+00        -0.12722E+04
 
   -0.26281E+04         0.11993E+04         0.00000E+00
    0.11993E+04        -0.14262E+04         0.00000E+00
    0.00000E+00         0.00000E+00        -0.12163E+04
 
   -0.22777E+04         0.12475E+04         0.00000E+00
    0.12475E+04        -0.15783E+04         0.00000E+00
    0.00000E+00         0.00000E+00        -0.11568E+04
 
   -0.19098E+04         0.12902E+04         0.00000E+00
    0.12902E+04        -0.17360E+04         0.00000E+00
    0.00000E+00         0.00000E+00        -0.10937E+04
 
   -0.15254E+04         0.13268E+04         0.00000E+00
    0.13268E+04        -0.18987E+04         0.00000E+00
    0.00000E+00         0.00000E+00        -0.10272E+04
 
   -0.11253E+04         0.13564E+04         0.00000E+00
    0.13564E+04        -0.20658E+04         0.00000E+00
    0.00000E+00         0.00000E+00        -0.95734E+03
 
   -0.56281E+04         0.16637E+02         0.00000E+00
    0.16637E+02        -0.91333E+00         0.00000E+00
    0.00000E+00         0.00000E+00        -0.16887E+04
 
   -0.56156E+04         0.53761E+02         0.00000E+00
    0.53761E+02        -0.59373E+01         0.00000E+00
    0.00000E+00         0.00000E+00        -0.16865E+04
 
   -0.55916E+04         0.95609E+02         0.00000E+00
    0.95609E+02        -0.16673E+02         0.00000E+00
    0.00000E+00         0.00000E+00        -0.16825E+04
 
   -0.55548E+04         0.14175E+03         0.00000E+00
    0.14175E+03        -0.33776E+02         0.00000E+00
    0.00000E+00         0.00000E+00        -0.16766E+04
 
   -0.55038E+04         0.19170E+03         0.00000E+00
    0.19170E+03        -0.57815E+02         0.00000E+00
    0.00000E+00         0.00000E+00        -0.16685E+04
 
   -0.54376E+04         0.24497E+03         0.00000E+00
    0.24497E+03        -0.89273E+02         0.00000E+00
    0.00000E+00         0.00000E+00        -0.16581E+04
 
   -0.53552E+04         0.30103E+03         0.00000E+00
    0.30103E+03        -0.12854E+03         0.00000E+00
    0.00000E+00         0.00000E+00        -0.16451E+04
 
   -0.52556E+04         0.35935E+03         0.00000E+00
    0.35935E+03        -0.17594E+03         0.00000E+00
    0.00000E+00         0.00000E+00        -0.16295E+04
 
   -0.51383E+04         0.41940E+03         0.00000E+00
    0.41940E+03        -0.23169E+03         0.00000E+00
    0.00000E+00         0.00000E+00        -0.16110E+04
 
   -0.50024E+04         0.48067E+03         0.00000E+00
    0.48067E+03        -0.29594E+03         0.00000E+00
    0.00000E+00         0.00000E+00        -0.15895E+04
 
   -0.48477E+04         0.54263E+03         0.00000E+00
    0.54263E+03        -0.36877E+03         0.00000E+00
    0.00000E+00         0.00000E+00        -0.15649E+04
 
   -0.46737E+04         0.60478E+03         0.00000E+00
    0.60478E+03        -0.45018E+03         0.00000E+00
    0.00000E+00         0.00000E+00        -0.15372E+04
 
   -0.44801E+04         0.66664E+03         0.00000E+00
    0.66664E+03        -0.54011E+03         0.00000E+00
    0.00000E+00         0.00000E+00        -0.15061E+04
 
   -0.42669E+04         0.72773E+03         0.00000E+00
    0.72773E+03        -0.63844E+03         0.00000E+00
    0.00000E+00         0.00000E+00        -0.14716E+04
 
   -0.40340E+04         0.78757E+03         0.00000E+00
    0.78757E+03        -0.74499E+03         0.00000E+00
    0.00000E+00         0.00000E+00        -0.14337E+04
 
   -0.37815E+04         0.84571E+03         0.00000E+00
    0.84571E+03        -0.85954E+03         0.00000E+00
    0.00000E+00         0.00000E+00        -0.13923E+04
 
   -0.35095E+04         0.90168E+03         0.00000E+00
    0.90168E+03        -0.98181E+03         0.00000E+00
    0.00000E+00         0.00000E+00        -0.13474E+04
 
   -0.32185E+04         0.95499E+03         0.00000E+00
    0.95499E+03        -0.11115E+04         0.00000E+00
    0.00000E+00         0.00000E+00        -0.12990E+04
 
   -0.29086E+04         0.10051E+04         0.00000E+00
    0.10051E+04        -0.12482E+04         0.00000E+00
    0.00000E+00         0.00000E+00        -0.12470E+04
 
   -0.25806E+04         0.10516E+04         0.00000E+00
    0.10516E+04        -0.13914E+04         0.00000E+00
    0.00000E+00         0.00000E+00        -0.11916E+04
 
   -0.22350E+04         0.10939E+04         0.00000E+00
    0.10939E+04        -0.15408E+04         0.00000E+00
    0.00000E+00         0.00000E+00        -0.11328E+04
 
   -0.18726E+04         0.11313E+04         0.00000E+00
    0.11313E+04        -0.16958E+04         0.00000E+00
    0.00000E+00         0.00000E+00        -0.10705E+04
 
   -0.14943E+04         0.11632E+04         0.00000E+00
    0.11632E+04        -0.18556E+04         0.00000E+00
    0.00000E+00         0.00000E+00        -0.10050E+04
 
   -0.11012E+04         0.11890E+04         0.00000E+00
    0.11890E+04        -0.20197E+04         0.00000E+00
    0.00000E+00         0.00000E+00        -0.93628E+03
 
   -0.55959E+04         0.14289E+02         0.00000E+00
    0.14289E+02        -0.88619E+00         0.00000E+00
    0.00000E+00         0.00000E+00        -0.16790E+04
 
   -0.55789E+04         0.46143E+02         0.00000E+00
    0.46143E+02        -0.57566E+01         0.00000E+00
    0.00000E+00         0.00000E+00        -0.16754E+04
 
   -0.55507E+04         0.82036E+02         0.00000E+00
    0.82036E+02        -0.16159E+02         0.00000E+00
    0.00000E+00         0.00000E+00        -0.16701E+04
 
   -0.55101E+04         0.12161E+03         0.00000E+00
    0.12161E+03        -0.32731E+02         0.00000E+00
    0.00000E+00         0.00000E+00        -0.16628E+04
 
   -0.54558E+04         0.16448E+03         0.00000E+00
    0.16448E+03        -0.56032E+02         0.00000E+00
    0.00000E+00         0.00000E+00        -0.16536E+04
 
   -0.53868E+04         0.21023E+03         0.00000E+00
    0.21023E+03        -0.86544E+02         0.00000E+00
    0.00000E+00         0.00000E+00        -0.16420E+04
 
   -0.53020E+04         0.25840E+03         0.00000E+00
    0.25840E+03        -0.12467E+03         0.00000E+00
    0.00000E+00         0.00000E+00        -0.16280E+04
 
   -0.52005E+04         0.30856E+03         0.00000E+00
    0.30856E+03        -0.17073E+03         0.00000E+00
    0.00000E+00         0.00000E+00        -0.16114E+04
 
   -0.50818E+04         0.36026E+03         0.00000E+00
    0.36026E+03        -0.22496E+03         0.00000E+00
    0.00000E+00         0.00000E+00        -0.15920E+04
 
   -0.49450E+04         0.41305E+03         0.00000E+00
    0.41305E+03        -0.28755E+03         0.00000E+00
    0.00000E+00         0.00000E+00        -0.15698E+04
 
   -0.47898E+04         0.46648E+03         0.00000E+00
    0.46648E+03        -0.35858E+03         0.00000E+00
    0.00000E+00         0.00000E+00        -0.15445E+04
 
   -0.46158E+04         0.52012E+03         0.00000E+00
    0.52012E+03        -0.43807E+03         0.00000E+00
    0.00000E+00         0.00000E+00        -0.15162E+04
 
   -0.44228E+04         0.57355E+03         0.00000E+00
    0.57355E+03        -0.52600E+03         0.00000E+00
    0.00000E+00         0.00000E+00        -0.14846E+04
 
   -0.42105E+04         0.62634E+03         0.00000E+00
    0.62634E+03        -0.62226E+03         0.00000E+00
    0.00000E+00         0.00000E+00        -0.14498E+04
 
   -0.39789E+04         0.67809E+03         0.00000E+00
    0.67809E+03        -0.72670E+03         0.00000E+00
    0.00000E+00         0.00000E+00        -0.14117E+04
 
   -0.37282E+04         0.72838E+03         0.00000E+00
    0.72838E+03        -0.83909E+03         0.00000E+00
    0.00000E+00         0.00000E+00        -0.13702E+04
 
   -0.34585E+04         0.77679E+03         0.00000E+00
    0.77679E+03        -0.95917E+03         0.00000E+00
    0.00000E+00         0.00000E+00        -0.13253E+04
 
   -0.31702E+04         0.82290E+03         0.00000E+00
    0.82290E+03        -0.10866E+04         0.00000E+00
    0.00000E+00         0.00000E+00        -0.12770E+04
 
   -0.28635E+04         0.86626E+03         0.00000E+00
    0.86626E+03        -0.12211E+04         0.00000E+00
    0.00000E+00         0.00000E+00        -0.12254E+04
 
   -0.25392E+04         0.90641E+03         0.00000E+00
    0.90641E+03        -0.13621E+04         0.00000E+00
    0.00000E+00         0.00000E+00        -0.11704E+04
 
   -0.21979E+04         0.94285E+03         0.00000E+00
    0.94285E+03        -0.15091E+04         0.00000E+00
    0.00000E+00         0.00000E+00        -0.11121E+04
 
   -0.18403E+04         0.97505E+03         0.00000E+00
    0.97505E+03        -0.16616E+04         0.00000E+00
    0.00000E+00         0.00000E+00        -0.10506E+04
 
   -0.14675E+04         0.10025E+04         0.00000E+00
    0.10025E+04        -0.18189E+04         0.00000E+00
    0.00000E+00         0.00000E+00        -0.98592E+03
 
   -0.10805E+04         0.10245E+04         0.00000E+00
    0.10245E+04        -0.19803E+04         0.00000E+00
    0.00000E+00         0.00000E+00        -0.91826E+03
 
   -0.55686E+04         0.12003E+02         0.00000E+00
    0.12003E+02        -0.86538E+00         0.00000E+00
    0.00000E+00         0.00000E+00        -0.16708E+04
 
   -0.55477E+04         0.38738E+02         0.00000E+00
    0.38738E+02        -0.56162E+01         0.00000E+00
    0.00000E+00         0.00000E+00        -0.16660E+04
 
   -0.55160E+04         0.68847E+02         0.00000E+00
    0.68847E+02        -0.15755E+02         0.00000E+00
    0.00000E+00         0.00000E+00        -0.16595E+04
 
   -0.54721E+04         0.10205E+03         0.00000E+00
    0.10205E+03        -0.31903E+02         0.00000E+00
    0.00000E+00         0.00000E+00        -0.16512E+04
 
   -0.54150E+04         0.13802E+03         0.00000E+00
    0.13802E+03        -0.54611E+02         0.00000E+00
    0.00000E+00         0.00000E+00        -0.16409E+04
 
   -0.53435E+04         0.17643E+03         0.00000E+00
    0.17643E+03        -0.84358E+02         0.00000E+00
    0.00000E+00         0.00000E+00        -0.16284E+04
 
   -0.52567E+04         0.21690E+03         0.00000E+00
    0.21690E+03        -0.12155E+03         0.00000E+00
    0.00000E+00         0.00000E+00        -0.16135E+04
 
   -0.51536E+04         0.25907E+03         0.00000E+00
    0.25907E+03        -0.16652E+03         0.00000E+00
    0.00000E+00         0.00000E+00        -0.15960E+04
 
   -0.50336E+04         0.30256E+03         0.00000E+00
    0.30256E+03        -0.21952E+03         0.00000E+00
    0.00000E+00         0.00000E+00        -0.15759E+04
 
   -0.48961E+04         0.34701E+03         0.00000E+00
    0.34701E+03        -0.28073E+03         0.00000E+00
    0.00000E+00         0.00000E+00        -0.15530E+04
 
   -0.47405E+04         0.39202E+03         0.00000E+00
    0.39202E+03        -0.35028E+03         0.00000E+00
    0.00000E+00         0.00000E+00        -0.15272E+04
 
   -0.45665E+04         0.43725E+03         0.00000E+00
    0.43725E+03        -0.42820E+03         0.00000E+00
    0.00000E+00         0.00000E+00        -0.14984E+04
 
   -0.43738E+04         0.48232E+03         0.00000E+00
    0.48232E+03        -0.51447E+03         0.00000E+00
    0.00000E+00         0.00000E+00        -0.14665E+04
 
   -0.41622E+04         0.52688E+03         0.00000E+00
    0.52688E+03        -0.60901E+03         0.00000E+00
    0.00000E+00         0.00000E+00        -0.14314E+04
 
   -0.39318E+04         0.57057E+03         0.00000E+00
    0.57057E+03        -0.71167E+03         0.00000E+00
    0.00000E+00         0.00000E+00        -0.13931E+04
 
   -0.36827E+04         0.61304E+03         0.00000E+00
    0.61304E+03        -0.82225E+03         0.00000E+00
    0.00000E+00         0.00000E+00        -0.13515E+04
 
   -0.34149E+04         0.65393E+03         0.00000E+00
    0.65393E+03        -0.94049E+03         0.00000E+00
    0.00000E+00         0.00000E+00        -0.13066E+04
 
   -0.31289E+04         0.69286E+03         0.00000E+00
    0.69286E+03        -0.10661E+04         0.00000E+00
    0.00000E+00         0.00000E+00        -0.12585E+04
 
   -0.28250E+04         0.72946E+03         0.00000E+00
    0.72946E+03        -0.11986E+04         0.00000E+00
    0.00000E+00         0.00000E+00        -0.12071E+04
 
   -0.25039E+04         0.76333E+03         0.00000E+00
    0.76333E+03        -0.13376E+04         0.00000E+00
    0.00000E+00         0.00000E+00        -0.11525E+04
 
   -0.21662E+04         0.79403E+03         0.00000E+00
    0.79403E+03        -0.14826E+04         0.00000E+00
    0.00000E+00         0.00000E+00        -0.10947E+04
 
   -0.18128E+04         0.82111E+03         0.00000E+00
    0.82111E+03        -0.16331E+04         0.00000E+00
    0.00000E+00         0.00000E+00        -0.10338E+04
 
   -0.14447E+04         0.84410E+03         0.00000E+00
    0.84410E+03        -0.17882E+04         0.00000E+00
    0.00000E+00         0.00000E+00        -0.96988E+03
 
   -0.10631E+04         0.86249E+03         0.00000E+00
    0.86249E+03        -0.19473E+04         0.00000E+00
    0.00000E+00         0.00000E+00        -0.90312E+03
 
   -0.55460E+04         0.97649E+01         0.00000E+00
    0.97649E+01        -0.84978E+00         0.00000E+00
    0.00000E+00         0.00000E+00        -0.16640E+04
 
   -0.55219E+04         0.31496E+02         0.00000E+00
    0.31496E+02        -0.55094E+01         0.00000E+00
    0.00000E+00         0.00000E+00        -0.16582E+04
 
   -0.54873E+04         0.55959E+02         0.00000E+00
    0.55959E+02        -0.15445E+02         0.00000E+00
    0.00000E+00         0.00000E+00        -0.16508E+04
 
   -0.54408E+04         0.82932E+02         0.00000E+00
    0.82932E+02        -0.31262E+02         0.00000E+00
    0.00000E+00         0.00000E+00        -0.16416E+04
 
   -0.53813E+04         0.11217E+03         0.00000E+00
    0.11217E+03        -0.53502E+02         0.00000E+00
    0.00000E+00         0.00000E+00        -0.16304E+04
 
   -0.53077E+04         0.14339E+03         0.00000E+00
    0.14339E+03        -0.82645E+02         0.00000E+00
    0.00000E+00         0.00000E+00        -0.16171E+04
 
   -0.52192E+04         0.17631E+03         0.00000E+00
    0.17631E+03        -0.11910E+03         0.00000E+00
    0.00000E+00         0.00000E+00        -0.16015E+04
 
   -0.51147E+04         0.21063E+03         0.00000E+00
    0.21063E+03        -0.16319E+03         0.00000E+00
    0.00000E+00         0.00000E+00        -0.15834E+04
 
   -0.49937E+04         0.24604E+03         0.00000E+00
    0.24604E+03        -0.21520E+03         0.00000E+00
    0.00000E+00         0.00000E+00        -0.15627E+04
 
   -0.48554E+04         0.28225E+03         0.00000E+00
    0.28225E+03        -0.27532E+03         0.00000E+00
    0.00000E+00         0.00000E+00        -0.15392E+04
 
   -0.46995E+04         0.31895E+03         0.00000E+00
    0.31895E+03        -0.34367E+03         0.00000E+00
    0.00000E+00         0.00000E+00        -0.15129E+04
 
   -0.45254E+04         0.35584E+03         0.00000E+00
    0.35584E+03        -0.42032E+03         0.00000E+00
    0.00000E+00         0.00000E+00        -0.14837E+04
 
   -0.43330E+04         0.39262E+03         0.00000E+00
    0.39262E+03        -0.50524E+03         0.00000E+00
    0.00000E+00         0.00000E+00        -0.14515E+04
 
   -0.41221E+04         0.42899E+03         0.00000E+00
    0.42899E+03        -0.59839E+03         0.00000E+00
    0.00000E+00         0.00000E+00        -0.14161E+04
 
   -0.38927E+04         0.46467E+03         0.00000E+00
    0.46467E+03        -0.69960E+03         0.00000E+00
    0.00000E+00         0.00000E+00        -0.13777E+04
 
   -0.36448E+04         0.49936E+03         0.00000E+00
    0.49936E+03        -0.80871E+03         0.00000E+00
    0.00000E+00         0.00000E+00        -0.13360E+04
 
   -0.33786E+04         0.53276E+03         0.00000E+00
    0.53276E+03        -0.92543E+03         0.00000E+00
    0.00000E+00         0.00000E+00        -0.12912E+04
 
   -0.30945E+04         0.56456E+03         0.00000E+00
    0.56456E+03        -0.10495E+04         0.00000E+00
    0.00000E+00         0.00000E+00        -0.12432E+04
 
   -0.27930E+04         0.59444E+03         0.00000E+00
    0.59444E+03        -0.11804E+04         0.00000E+00
    0.00000E+00         0.00000E+00        -0.11920E+04
 
   -0.24745E+04         0.62206E+03         0.00000E+00
    0.62206E+03        -0.13178E+04         0.00000E+00
    0.00000E+00         0.00000E+00        -0.11377E+04
 
   -0.21399E+04         0.64709E+03         0.00000E+00
    0.64709E+03        -0.14611E+04         0.00000E+00
    0.00000E+00         0.00000E+00        -0.10803E+04
 
   -0.17901E+04         0.66914E+03         0.00000E+00
    0.66914E+03        -0.16098E+04         0.00000E+00
    0.00000E+00         0.00000E+00        -0.10200E+04
 
   -0.14259E+04         0.68781E+03         0.00000E+00
    0.68781E+03        -0.17631E+04         0.00000E+00
    0.00000E+00         0.00000E+00        -0.95672E+03
 
   -0.10487E+04         0.70269E+03         0.00000E+00
    0.70269E+03        -0.19203E+04         0.00000E+00
    0.00000E+00         0.00000E+00        -0.89071E+03
 
   -0.55280E+04         0.75623E+01         0.00000E+00
    0.75623E+01        -0.83843E+00         0.00000E+00
    0.00000E+00         0.00000E+00        -0.16586E+04
 
   -0.55014E+04         0.24380E+02         0.00000E+00
    0.24380E+02        -0.54306E+01         0.00000E+00
    0.00000E+00         0.00000E+00        -0.16520E+04
 
   -0.54644E+04         0.43302E+02         0.00000E+00
    0.43302E+02        -0.15214E+02         0.00000E+00
    0.00000E+00         0.00000E+00        -0.16439E+04
 
   -0.54158E+04         0.64165E+02         0.00000E+00
    0.64165E+02        -0.30780E+02         0.00000E+00
    0.00000E+00         0.00000E+00        -0.16340E+04
 
   -0.53545E+04         0.86780E+02         0.00000E+00
    0.86780E+02        -0.52666E+02         0.00000E+00
    0.00000E+00         0.00000E+00        -0.16221E+04
 
   -0.52793E+04         0.11094E+03         0.00000E+00
    0.11094E+03        -0.81345E+02         0.00000E+00
    0.00000E+00         0.00000E+00        -0.16082E+04
 
   -0.51893E+04         0.13642E+03         0.00000E+00
    0.13642E+03        -0.11723E+03         0.00000E+00
    0.00000E+00         0.00000E+00        -0.15920E+04
 
   -0.50838E+04         0.16300E+03         0.00000E+00
    0.16300E+03        -0.16065E+03         0.00000E+00
    0.00000E+00         0.00000E+00        -0.15733E+04
 
   -0.49619E+04         0.19044E+03         0.00000E+00
    0.19044E+03        -0.21190E+03         0.00000E+00
    0.00000E+00         0.00000E+00        -0.15521E+04
 
   -0.48231E+04         0.21851E+03         0.00000E+00
    0.21851E+03        -0.27116E+03         0.00000E+00
    0.00000E+00         0.00000E+00        -0.15283E+04
 
   -0.46668E+04         0.24697E+03         0.00000E+00
    0.24697E+03        -0.33859E+03         0.00000E+00
    0.00000E+00         0.00000E+00        -0.15016E+04
 
   -0.44927E+04         0.27559E+03         0.00000E+00
    0.27559E+03        -0.41424E+03         0.00000E+00
    0.00000E+00         0.00000E+00        -0.14721E+04
 
   -0.43005E+04         0.30414E+03         0.00000E+00
    0.30414E+03        -0.49812E+03         0.00000E+00
    0.00000E+00         0.00000E+00        -0.14396E+04
 
   -0.40901E+04         0.33238E+03         0.00000E+00
    0.33238E+03        -0.59016E+03         0.00000E+00
    0.00000E+00         0.00000E+00        -0.14041E+04
 
   -0.38614E+04         0.36008E+03         0.00000E+00
    0.36008E+03        -0.69025E+03         0.00000E+00
    0.00000E+00         0.00000E+00        -0.13655E+04
 
   -0.36145E+04         0.38702E+03         0.00000E+00
    0.38702E+03        -0.79818E+03         0.00000E+00
    0.00000E+00         0.00000E+00        -0.13238E+04
 
   -0.33496E+04         0.41296E+03         0.00000E+00
    0.41296E+03        -0.91371E+03         0.00000E+00
    0.00000E+00         0.00000E+00        -0.12790E+04
 
   -0.30671E+04         0.43765E+03         0.00000E+00
    0.43765E+03        -0.10365E+04         0.00000E+00
    0.00000E+00         0.00000E+00        -0.12311E+04
 
   -0.27674E+04         0.46085E+03         0.00000E+00
    0.46085E+03        -0.11662E+04         0.00000E+00
    0.00000E+00         0.00000E+00        -0.11801E+04
 
   -0.24511E+04         0.48229E+03         0.00000E+00
    0.48229E+03        -0.13023E+04         0.00000E+00
    0.00000E+00         0.00000E+00        -0.11260E+04
 
   -0.21190E+04         0.50169E+03         0.00000E+00
    0.50169E+03        -0.14443E+04         0.00000E+00
    0.00000E+00         0.00000E+00        -0.10690E+04
 
   -0.17720E+04         0.51876E+03         0.00000E+00
    0.51876E+03        -0.15916E+04         0.00000E+00
    0.00000E+00         0.00000E+00        -0.10091E+04
 
   -0.14110E+04         0.53320E+03         0.00000E+00
    0.53320E+03        -0.17434E+04         0.00000E+00
    0.00000E+00         0.00000E+00        -0.94633E+03
 
   -0.10374E+04         0.54468E+03         0.00000E+00
    0.54468E+03        -0.18990E+04         0.00000E+00
    0.00000E+00         0.00000E+00        -0.88093E+03
 
   -0.55145E+04         0.53850E+01         0.00000E+00
    0.53850E+01        -0.83057E+00         0.00000E+00
    0.00000E+00         0.00000E+00        -0.16546E+04
 
   -0.54861E+04         0.17353E+02         0.00000E+00
    0.17353E+02        -0.53754E+01         0.00000E+00
    0.00000E+00         0.00000E+00        -0.16474E+04
 
   -0.54474E+04         0.30815E+02         0.00000E+00
    0.30815E+02        -0.15050E+02         0.00000E+00
    0.00000E+00         0.00000E+00        -0.16387E+04
 
   -0.53972E+04         0.45656E+02         0.00000E+00
    0.45656E+02        -0.30437E+02         0.00000E+00
    0.00000E+00         0.00000E+00        -0.16283E+04
 
   -0.53344E+04         0.61745E+02         0.00000E+00
    0.61745E+02        -0.52067E+02         0.00000E+00
    0.00000E+00         0.00000E+00        -0.16159E+04
 
   -0.52580E+04         0.78937E+02         0.00000E+00
    0.78937E+02        -0.80412E+02         0.00000E+00
    0.00000E+00         0.00000E+00        -0.16015E+04
 
   -0.51670E+04         0.97076E+02         0.00000E+00
    0.97076E+02        -0.11588E+03         0.00000E+00
    0.00000E+00         0.00000E+00        -0.15849E+04
 
   -0.50606E+04         0.11600E+03         0.00000E+00
    0.11600E+03        -0.15882E+03         0.00000E+00
    0.00000E+00         0.00000E+00        -0.15658E+04
 
   -0.49381E+04         0.13555E+03         0.00000E+00
    0.13555E+03        -0.20950E+03         0.00000E+00
    0.00000E+00         0.00000E+00        -0.15443E+04
 
   -0.47988E+04         0.15554E+03         0.00000E+00
    0.15554E+03        -0.26815E+03         0.00000E+00
    0.00000E+00         0.00000E+00        -0.15201E+04
 
   -0.46423E+04         0.17583E+03         0.00000E+00
    0.17583E+03        -0.33489E+03         0.00000E+00
    0.00000E+00         0.00000E+00        -0.14932E+04
 
   -0.44682E+04         0.19623E+03         0.00000E+00
    0.19623E+03        -0.40981E+03         0.00000E+00
    0.00000E+00         0.00000E+00        -0.14634E+04
 
   -0.42762E+04         0.21659E+03         0.00000E+00
    0.21659E+03        -0.49292E+03         0.00000E+00
    0.00000E+00         0.00000E+00        -0.14307E+04
 
   -0.40661E+04         0.23673E+03         0.00000E+00
    0.23673E+03        -0.58416E+03         0.00000E+00
    0.00000E+00         0.00000E+00        -0.13951E+04
 
   -0.38379E+04         0.25650E+03         0.00000E+00
    0.25650E+03        -0.68340E+03         0.00000E+00
    0.00000E+00         0.00000E+00        -0.13564E+04
 
   -0.35918E+04         0.27572E+03         0.00000E+00
    0.27572E+03        -0.79047E+03         0.00000E+00
    0.00000E+00         0.00000E+00        -0.13147E+04
 
   -0.33279E+04         0.29422E+03         0.00000E+00
    0.29422E+03        -0.90511E+03         0.00000E+00
    0.00000E+00         0.00000E+00        -0.12699E+04
 
   -0.30466E+04         0.31184E+03         0.00000E+00
    0.31184E+03        -0.10270E+04         0.00000E+00
    0.00000E+00         0.00000E+00        -0.12221E+04
 
   -0.27483E+04         0.32838E+03         0.00000E+00
    0.32838E+03        -0.11557E+04         0.00000E+00
    0.00000E+00         0.00000E+00        -0.11712E+04
 
   -0.24336E+04         0.34367E+03         0.00000E+00
    0.34367E+03        -0.12909E+04         0.00000E+00
    0.00000E+00         0.00000E+00        -0.11173E+04
 
   -0.21034E+04         0.35749E+03         0.00000E+00
    0.35749E+03        -0.14318E+04         0.00000E+00
    0.00000E+00         0.00000E+00        -0.10606E+04
 
   -0.17585E+04         0.36965E+03         0.00000E+00
    0.36965E+03        -0.15781E+04         0.00000E+00
    0.00000E+00         0.00000E+00        -0.10010E+04
 
   -0.13999E+04         0.37992E+03         0.00000E+00
    0.37992E+03        -0.17288E+04         0.00000E+00
    0.00000E+00         0.00000E+00        -0.93861E+03
 
   -0.10290E+04         0.38806E+03         0.00000E+00
    0.38806E+03        -0.18833E+04         0.00000E+00
    0.00000E+00         0.00000E+00        -0.87367E+03
 
   -0.55056E+04         0.32246E+01         0.00000E+00
    0.32246E+01        -0.82565E+00         0.00000E+00
    0.00000E+00         0.00000E+00        -0.16519E+04
 
   -0.54759E+04         0.10388E+02         0.00000E+00
    0.10388E+02        -0.53405E+01         0.00000E+00
    0.00000E+00         0.00000E+00        -0.16444E+04
 
   -0.54361E+04         0.18444E+02         0.00000E+00
    0.18444E+02        -0.14946E+02         0.00000E+00
    0.00000E+00         0.00000E+00        -0.16353E+04
 
   -0.53848E+04         0.27325E+02         0.00000E+00
    0.27325E+02        -0.30218E+02         0.00000E+00
    0.00000E+00         0.00000E+00        -0.16245E+04
 
   -0.53211E+04         0.36953E+02         0.00000E+00
    0.36953E+02        -0.51682E+02         0.00000E+00
    0.00000E+00         0.00000E+00        -0.16118E+04
 
   -0.52439E+04         0.47242E+02         0.00000E+00
    0.47242E+02        -0.79809E+02         0.00000E+00
    0.00000E+00         0.00000E+00        -0.15971E+04
 
   -0.51522E+04         0.58100E+02         0.00000E+00
    0.58100E+02        -0.11501E+03         0.00000E+00
    0.00000E+00         0.00000E+00        -0.15802E+04
 
   -0.50452E+04         0.69430E+02         0.00000E+00
    0.69430E+02        -0.15763E+03         0.00000E+00
    0.00000E+00         0.00000E+00        -0.15609E+04
 
   -0.49223E+04         0.81135E+02         0.00000E+00
    0.81135E+02        -0.20795E+03         0.00000E+00
    0.00000E+00         0.00000E+00        -0.15391E+04
 
   -0.47827E+04         0.93114E+02         0.00000E+00
    0.93114E+02        -0.26618E+03         0.00000E+00
    0.00000E+00         0.00000E+00        -0.15147E+04
 
   -0.46260E+04         0.10527E+03         0.00000E+00
    0.10527E+03        -0.33248E+03         0.00000E+00
    0.00000E+00         0.00000E+00        -0.14876E+04
 
   -0.44519E+04         0.11749E+03         0.00000E+00
    0.11749E+03        -0.40692E+03         0.00000E+00
    0.00000E+00         0.00000E+00        -0.14576E+04
 
   -0.42600E+04         0.12969E+03         0.00000E+00
    0.12969E+03        -0.48952E+03         0.00000E+00
    0.00000E+00         0.00000E+00        -0.14248E+04
 
   -0.40501E+04         0.14177E+03         0.00000E+00
    0.14177E+03        -0.58023E+03         0.00000E+00
    0.00000E+00         0.00000E+00        -0.13891E+04
 
   -0.38223E+04         0.15362E+03         0.00000E+00
    0.15362E+03        -0.67892E+03         0.00000E+00
    0.00000E+00         0.00000E+00        -0.13504E+04
 
   -0.35767E+04         0.16514E+03         0.00000E+00
    0.16514E+03        -0.78541E+03         0.00000E+00
    0.00000E+00         0.00000E+00        -0.13086E+04
 
   -0.33134E+04         0.17624E+03         0.00000E+00
    0.17624E+03        -0.89946E+03         0.00000E+00
    0.00000E+00         0.00000E+00        -0.12639E+04
 
   -0.30329E+04         0.18680E+03         0.00000E+00
    0.18680E+03        -0.10207E+04         0.00000E+00
    0.00000E+00         0.00000E+00        -0.12161E+04
 
   -0.27355E+04         0.19671E+03         0.00000E+00
    0.19671E+03        -0.11488E+04         0.00000E+00
    0.00000E+00         0.00000E+00        -0.11653E+04
 
   -0.24220E+04         0.20587E+03         0.00000E+00
    0.20587E+03        -0.12833E+04         0.00000E+00
    0.00000E+00         0.00000E+00        -0.11116E+04
 
   -0.20930E+04         0.21415E+03         0.00000E+00
    0.21415E+03        -0.14236E+04         0.00000E+00
    0.00000E+00         0.00000E+00        -0.10550E+04
 
   -0.17495E+04         0.22143E+03         0.00000E+00
    0.22143E+03        -0.15692E+04         0.00000E+00
    0.00000E+00         0.00000E+00        -0.99559E+03
 
   -0.13925E+04         0.22757E+03         0.00000E+00
    0.22757E+03        -0.17192E+04         0.00000E+00
    0.00000E+00         0.00000E+00        -0.93351E+03
 
   -0.10234E+04         0.23244E+03         0.00000E+00
    0.23244E+03        -0.18729E+04         0.00000E+00
    0.00000E+00         0.00000E+00        -0.86888E+03
 
   -0.55011E+04         0.10738E+01         0.00000E+00
    0.10738E+01        -0.82328E+00         0.00000E+00
    0.00000E+00         0.00000E+00        -0.16506E+04
 
   -0.54709E+04         0.34590E+01         0.00000E+00
    0.34590E+01        -0.53236E+01         0.00000E+00
    0.00000E+00         0.00000E+00        -0.16429E+04
 
   -0.54304E+04         0.61406E+01         0.00000E+00
    0.61406E+01        -0.14895E+02         0.00000E+00
    0.00000E+00         0.00000E+00        -0.16336E+04
 
   -0.53787E+04         0.90968E+01         0.00000E+00
    0.90968E+01        -0.30111E+02         0.00000E+00
    0.00000E+00         0.00000E+00        -0.16226E+04
 
   -0.53145E+04         0.12302E+02         0.00000E+00
    0.12302E+02        -0.51494E+02         0.00000E+00
    0.00000E+00         0.00000E+00        -0.16098E+04
 
   -0.52368E+04         0.15727E+02         0.00000E+00
    0.15727E+02        -0.79514E+02         0.00000E+00
    0.00000E+00         0.00000E+00        -0.15949E+04
 
   -0.51448E+04         0.19343E+02         0.00000E+00
    0.19343E+02        -0.11458E+03         0.00000E+00
    0.00000E+00         0.00000E+00        -0.15778E+04
 
   -0.50375E+04         0.23115E+02         0.00000E+00
    0.23115E+02        -0.15704E+03         0.00000E+00
    0.00000E+00         0.00000E+00        -0.15584E+04
 
   -0.49144E+04         0.27013E+02         0.00000E+00
    0.27013E+02        -0.20718E+03         0.00000E+00
    0.00000E+00         0.00000E+00        -0.15365E+04
 
   -0.47747E+04         0.31003E+02         0.00000E+00
    0.31003E+02        -0.26522E+03         0.00000E+00
    0.00000E+00         0.00000E+00        -0.15120E+04
 
   -0.46179E+04         0.35051E+02         0.00000E+00
    0.35051E+02        -0.33130E+03         0.00000E+00
    0.00000E+00         0.00000E+00        -0.14848E+04
 
   -0.44437E+04         0.39123E+02         0.00000E+00
    0.39123E+02        -0.40550E+03         0.00000E+00
    0.00000E+00         0.00000E+00        -0.14548E+04
 
   -0.42519E+04         0.43188E+02         0.00000E+00
    0.43188E+02        -0.48785E+03         0.00000E+00
    0.00000E+00         0.00000E+00        -0.14219E+04
 
   -0.40421E+04         0.47211E+02         0.00000E+00
    0.47211E+02        -0.57829E+03         0.00000E+00
    0.00000E+00         0.00000E+00        -0.13861E+04
 
   -0.38145E+04         0.51159E+02         0.00000E+00
    0.51159E+02        -0.67670E+03         0.00000E+00
    0.00000E+00         0.00000E+00        -0.13474E+04
 
   -0.35692E+04         0.54999E+02         0.00000E+00
    0.54999E+02        -0.78291E+03         0.00000E+00
    0.00000E+00         0.00000E+00        -0.13056E+04
 
   -0.33062E+04         0.58695E+02         0.00000E+00
    0.58695E+02        -0.89666E+03         0.00000E+00
    0.00000E+00         0.00000E+00        -0.12609E+04
 
   -0.30260E+04         0.62214E+02         0.00000E+00
    0.62214E+02        -0.10176E+04         0.00000E+00
    0.00000E+00         0.00000E+00        -0.12131E+04
 
   -0.27291E+04         0.65518E+02         0.00000E+00
    0.65518E+02        -0.11454E+04         0.00000E+00
    0.00000E+00         0.00000E+00        -0.11624E+04
 
   -0.24161E+04         0.68569E+02         0.00000E+00
    0.68569E+02        -0.12796E+04         0.00000E+00
    0.00000E+00         0.00000E+00        -0.11087E+04
 
   -0.20878E+04         0.71327E+02         0.00000E+00
    0.71327E+02        -0.14196E+04         0.00000E+00
    0.00000E+00         0.00000E+00        -0.10522E+04
 
   -0.17450E+04         0.73750E+02         0.00000E+00
    0.73750E+02        -0.15647E+04         0.00000E+00
    0.00000E+00         0.00000E+00        -0.99292E+03
 
   -0.13889E+04         0.75794E+02         0.00000E+00
    0.75794E+02        -0.17144E+04         0.00000E+00
    0.00000E+00         0.00000E+00        -0.93097E+03
 
   -0.10206E+04         0.77413E+02         0.00000E+00
    0.77413E+02        -0.18677E+04         0.00000E+00
    0.00000E+00         0.00000E+00        -0.86649E+03
 
SCALARS stresss double 
LOOKUP_TABLE default
  -68946.3284073660     
  -67742.3782816389     
  -62348.4927774687     
  -55883.6438384252     
  -49578.4524050856     
  -43705.5834839603     
  -38353.3390967078     
  -33758.7621826056     
  -29767.6302774373     
  -26301.2412808941     
  -23322.7669498390     
  -20698.1090816254     
  -18330.9822583611     
  -16158.8313048191     
  -14176.8234540682     
  -12444.8509794866     
  -10913.1629896857     
  -9574.83671758169     
  -8368.64807373269     
  -7482.68857031146     
  -7777.38462652902     
  -8244.12372964139     
  -8732.57139789475     
  -9261.12743708987     
  -68516.0009353668     
  -63260.7682255476     
  -57758.1142742543     
  -52431.6604907948     
  -46903.7632855559     
  -41642.1575304103     
  -36879.8352266004     
  -32699.5808655567     
  -29032.0333024761     
  -25734.2535530874     
  -22840.9120820353     
  -20279.1011879021     
  -17971.9096076509     
  -15867.4587386073     
  -13979.0132451938     
  -12321.0521990534     
  -10827.1962561458     
  -9497.55904192405     
  -8313.28733237183     
  -7469.89738008838     
  -7777.61438354918     
  -8219.43539374410     
  -8690.54984009602     
  -9206.64258757111     
  -55134.8503102632     
  -50200.5025722464     
  -49008.4871073856     
  -45643.0845327082     
  -41890.6267632718     
  -37922.5606485396     
  -34109.5268041437     
  -30588.7401389895     
  -27384.8481274226     
  -24445.7391462523     
  -21752.3111238251     
  -19373.7015563961     
  -17267.1631497721     
  -15348.8813647077     
  -13612.0197753437     
  -12028.5003632611     
  -10606.1627381494     
  -9341.83768025416     
  -8201.43247176107     
  -7450.95476967521     
  -7766.32020995437     
  -8162.78800843130     
  -8602.91931146652     
  -9094.50418688020     
  -21960.6030429094     
  -37429.4236921881     
  -37398.7668949253     
  -36732.8004230173     
  -34839.3575388397     
  -32477.0118084758     
  -29871.9232043157     
  -27243.7204454771     
  -24738.6693994763     
  -22355.9527893816     
  -20155.0579051170     
  -18110.2117152338     
  -16248.0908683526     
  -14584.8478896185     
  -13070.1218061077     
  -11674.4112760627     
  -10351.0134011054     
  -9112.52797472153     
  -8011.52814915933     
  -7426.21971865983     
  -7717.24530219304     
  -8064.39220220771     
  -8464.69791680653     
  -8920.73649524430     
  -480.825868362393     
  -18872.0281522550     
  -25831.2700543105     
  -27385.5606985133     
  -27475.3758328760     
  -26571.6313816139     
  -25162.7168417589     
  -23499.2474656888     
  -21743.4287312426     
  -19974.9855529891     
  -18281.5594054634     
  -16671.1450180868     
  -15127.3833193226     
  -13713.5548016802     
  -12389.7219965140     
  -11140.1511958268     
  -9965.33469499225     
  -8816.36397359863     
  -7730.41398788381     
  -7369.65749895255     
  -7613.27207690368     
  -7916.10190995401     
  -8273.27666765858     
  -8684.01592049644     
  -503.873210752334     
  -12466.3425369112     
  -18796.3230041890     
  -21466.3937100815     
  -22216.9224565789     
  -22046.2527241471     
  -21310.0013461919     
  -20244.0406236633     
  -19012.7169091229     
  -17698.2003714369     
  -16361.6671873288     
  -15039.4324547412     
  -13819.3887534209     
  -12653.3987794827     
  -11509.0580472527     
  -10395.4750797289     
  -9346.36586806333     
  -8290.45138730731     
  -7322.81002246465     
  -7244.93047794562     
  -7449.28483354798     
  -7717.98159769280     
  -8030.71691200661     
  -8388.67310896447     
   449.488634691540     
  -8669.74049001144     
  -14600.7107869462     
  -16965.2324332217     
  -18150.4303577284     
  -18400.0670869996     
  -18087.8800038641     
  -17423.4794609836     
  -16564.8181012434     
  -15595.7614367619     
  -14546.3169412678     
  -13490.3133094187     
  -12466.8303718289     
  -11469.6677426835     
  -10521.7597912494     
  -9578.06457003598     
  -8627.25882760315     
  -7686.12459344605     
  -6911.66477185159     
  -7024.46085745527     
  -7240.11875869434     
  -7476.46620762405     
  -7744.90790259013     
  -8045.20817601765     
  -384.312091125120     
  -6224.21808440246     
  -10775.0125515627     
  -13615.2236446933     
  -14801.8104184488     
  -15247.8463105672     
  -15282.9097518355     
  -14923.5608751488     
  -14350.8699803808     
  -13621.5481689978     
  -12797.7748919913     
  -11936.1991985602     
  -11102.9734495127     
  -10289.0619175563     
  -9470.98559723467     
  -8662.22219925840     
  -7837.30442569704     
  -7010.42986943159     
  -6580.33478951315     
  -6799.88858850892     
  -6997.72482776028     
  -7204.51344793358     
  -7427.23450640968     
  -7668.46662393471     
  -1185.07962318853     
  -5047.24969568123     
  -8624.76641707884     
  -10835.7784106895     
  -12097.3328363660     
  -12626.5456037706     
  -12767.3138621839     
  -12622.0233697129     
  -12278.1637994570     
  -11749.5007100660     
  -11120.6260780925     
  -10453.5904403667     
  -9780.09262678231     
  -9090.71160880301     
  -8403.09367038162     
  -7729.97317373610     
  -7009.05595637107     
  -6363.15663810881     
  -6414.68296621699     
  -6577.47924453380     
  -6744.30158214911     
  -6913.62587438532     
  -7090.36320769436     
  -7274.01240951309     
  -1986.60551908925     
  -4600.12626707043     
  -6911.90195757491     
  -8720.60805140662     
  -9845.11436446368     
  -10450.4241977313     
  -10662.5473824197     
  -10614.4701609388     
  -10403.5454718172     
  -10039.2787264860     
  -9562.97010612111     
  -9040.53515713604     
  -8493.86598109123     
  -7951.82589149105     
  -7371.41366370078     
  -6790.87223685956     
  -6203.33079397215     
  -6140.46936111844     
  -6241.58578139223     
  -6360.44650048564     
  -6485.14285625572     
  -6614.12153293811     
  -6745.05788538444     
  -6875.18149238097     
  -2646.19423393852     
  -4367.12654860980     
  -5992.25825625383     
  -7305.07952039431     
  -8115.19995473102     
  -8609.70351924918     
  -8879.48705726700     
  -8903.71628654808     
  -8784.93478180479     
  -8504.36680919624     
  -8150.95383544490     
  -7754.70423043470     
  -7316.46694385143     
  -6827.65317824702     
  -6384.83233538241     
  -6015.19638268521     
  -5952.65089999519     
  -6001.91346160115     
  -6060.16100225111     
  -6137.15052130221     
  -6222.87368684826     
  -6311.67657894793     
  -6399.48380239474     
  -6481.50659112573     
  -3130.61986258197     
  -4283.62823227574     
  -5410.08751241166     
  -6350.94546663970     
  -7039.39584757016     
  -7337.35217916110     
  -7408.78930107197     
  -7450.14767025144     
  -7353.22900230602     
  -7149.86908084708     
  -6870.32484007927     
  -6548.59964185939     
  -6225.51803126380     
  -5998.60585370522     
  -5861.66774398511     
  -5837.16532472580     
  -5828.29243427945     
  -5831.12841200480     
  -5863.30652520480     
  -5906.79303694316     
  -5957.65484527273     
  -6010.06273827034     
  -6058.94048633721     
  -6098.98053750788     
  -3460.39688444687     
  -4241.04078414907     
  -5027.82985701850     
  -5719.29678056186     
  -6230.26954707599     
  -6542.37185716772     
  -6668.99470727333     
  -6573.84882160962     
  -6405.50314331080     
  -6229.99056889035     
  -6066.06165360195     
  -5923.79162085742     
  -5849.82207264990     
  -5787.19824150544     
  -5722.75628581052     
  -5672.76205918856     
  -5651.09884909848     
  -5645.73033434848     
  -5652.56883808459     
  -5669.83622622316     
  -5691.14536409951     
  -5711.81672094289     
  -5726.83663878285     
  -5730.97926981937     
  -3659.26111999019     
  -4199.99672389334     
  -4760.00088104631     
  -5266.32726157712     
  -5668.69287572986     
  -5939.90100489382     
  -6069.77846657078     
  -6086.73582245895     
  -6022.28824479379     
  -5923.51018256737     
  -5817.96796701564     
  -5725.61477086361     
  -5647.96265628977     
  -5586.44450287411     
  -5533.84455968940     
  -5491.40736309915     
  -5461.03645190226     
  -5442.82563293235     
  -5433.17661979301     
  -5428.56044142284     
  -5425.35812789988     
  -5419.11916852139     
  -5405.36959195130     
  -5379.31528505755     
  -3757.17083254884     
  -4144.54827291207     
  -4551.93614200041     
  -4931.79779912356     
  -5247.37570558461     
  -5476.34032995066     
  -5614.28432699934     
  -5669.75176918671     
  -5664.31165098407     
  -5620.52119031792     
  -5559.94942378273     
  -5495.78803558606     
  -5435.87073544107     
  -5381.85375084473     
  -5334.55735568611     
  -5293.68022246684     
  -5259.56577588307     
  -5231.56311156661     
  -5207.95780363734     
  -5186.00976872192     
  -5162.49395426271     
  -5133.83175023499     
  -5096.05552588038     
  -5044.93339929689     
  -3781.30708214717     
  -4070.73626458372     
  -4376.72571498568     
  -4667.77808154787     
  -4918.37572788749     
  -5112.38525049068     
  -5243.83153970575     
  -5316.71624974488     
  -5341.45011289084     
  -5332.04905102706     
  -5301.61359270433     
  -5260.75473222222     
  -5216.13291544434     
  -5171.62107231323     
  -5128.88651035423     
  -5088.73705503394     
  -5051.20064437521     
  -5015.71996513308     
  -4980.93869493081     
  -4944.80318571762     
  -4904.68764490793     
  -4857.54130790867     
  -4799.97547856274     
  -4728.30736938425     
  -3754.36706407617     
  -3981.04176194529     
  -4219.10132498842     
  -4448.07014241030     
  -4650.59530368221     
  -4814.76840565350     
  -4935.22657411407     
  -5012.67315810895     
  -5052.58340274783     
  -5062.93075052760     
  -5052.26839441223     
  -5027.99590495288     
  -4995.74227354440     
  -4959.19006944251     
  -4920.54358449053     
  -4880.86943896806     
  -4840.45136078766     
  -4798.86894304281     
  -4755.07317474253     
  -4707.42240211517     
  -4653.77193687948     
  -4591.56312848504     
  -4517.90230339971     
  -4429.62567678567     
  -3694.18004349509     
  -3879.92414719425     
  -4071.97506911977     
  -4257.19914016933     
  -4423.89863178649     
  -4563.52872815238     
  -4671.51559569305     
  -4747.24930295643     
  -4793.30471298580     
  -4814.30530352381     
  -4815.63650192918     
  -4802.45366953133     
  -4779.01763706168     
  -4748.48465680700     
  -4712.92431888175     
  -4673.49737216196     
  -4630.60176411464     
  -4583.99540681253     
  -4532.86332222085     
  -4475.88287039447     
  -4411.28636861566     
  -4336.93031262127     
  -4250.36119628893     
  -4148.87589649001     
  -3614.03724934119     
  -3772.18697767001     
  -3932.36153394203     
  -4086.22728364527     
  -4225.98863463666     
  -4345.59199753077     
  -4441.39909941981     
  -4512.29719136782     
  -4559.35534663677     
  -4585.16802252709     
  -4593.11292091231     
  -4586.67263116575     
  -4568.95945453771     
  -4542.44675749978     
  -4508.88959338741     
  -4469.34486526028     
  -4424.24082348577     
  -4373.44495093865     
  -4316.32680292497     
  -4251.81246588250     
  -4178.43970670926     
  -4094.41328590249     
  -3997.66036051093     
  -3885.88410060098     
  -3523.46912543223     
  -3662.03411443089     
  -3799.33687214485     
  -3930.13597025832     
  -4049.27521002539     
  -4152.52419936219     
  -4237.09345910108     
  -4301.80225120090     
  -4346.93832419532     
  -4373.90805730462     
  -4384.78734830572     
  -4381.88675131937     
  -4367.40052556404     
  -4343.17652241662     
  -4310.59553186468     
  -4270.53449491486     
  -4223.37630641159     
  -4169.04260580891     
  -4107.03340994702     
  -4036.46981743528     
  -3956.13803514612     
  -3864.53510163527     
  -3759.91535926831     
  -3640.33694946970     
  -3429.05231824376     
  -3552.77081639787     
  -3672.88862860307     
  -3786.12272432710     
  -3889.07696979185     
  -3978.81796153617     
  -4053.26018592160     
  -4111.33292260581     
  -4152.94734057100     
  -4178.81350631775     
  -4190.17572721077     
  -4188.53119856280     
  -4175.38361262355     
  -4152.05829395076     
  -4119.58523682001     
  -4078.63927252230     
  -4029.52160065746     
  -3972.16651916842     
  -3906.16259804204     
  -3830.78160320416     
  -3745.01221055288     
  -3647.59676973268     
  -3537.07010503611     
  -3411.79941924869     
  -3335.14854153473     
  -3446.79359152805     
  -3553.30033345367     
  -3652.60380260711     
  -3742.46149589257     
  -3820.84235460492     
  -3886.20611919703     
  -3937.64845556182     
  -3974.91567365781     
  -3998.31547212978     
  -4008.56218532380     
  -4006.59735736180     
  -3993.41910545884     
  -3969.94217955517     
  -3936.89744439970     
  -3894.76978923479     
  -3843.76742657439     
  -3783.81417337298     
  -3714.55716944556     
  -3635.38471758900     
  -3545.45074511287     
  -3443.70376319687     
  -3328.91888404500     
  -3199.73187194246     
  -3244.51241678410     
  -3345.70770157801     
  -3440.85571510747     
  -3528.63259840385     
  -3607.53829239034     
  -3676.15518885366     
  -3733.34596282871     
  -3778.36977717664     
  -3810.91451271316     
  -3831.05753234315     
  -3839.17684850235     
  -3835.83741466639     
  -3821.67480043902     
  -3797.29231748585     
  -3763.18046302475     
  -3719.66104398397     
  -3666.85402159635     
  -3604.66293686063     
  -3532.77445943766     
  -3450.66819818932     
  -3357.63386836200     
  -3252.79372973483     
  -3135.12882747040     
  -3003.50796393700     
  -3158.76487011464     
  -3250.48528248941     
  -3335.71731597422     
  -3413.57558981622     
  -3483.02779031004     
  -3543.06383858834     
  -3592.83279019824     
  -3631.73100759030     
  -3659.43680020580     
  -3675.89671600844     
  -3681.27542292273     
  -3675.88412419306     
  -3660.10196032523     
  -3634.30194272959     
  -3598.78887841140     
  -3553.75275938925     
  -3499.23795892716     
  -3435.12666622795     
  -3361.13415257232     
  -3276.81339729679     
  -3181.56691657480     
  -3074.66407745776     
  -2955.26258181697     
  -2822.43313383788     
  -3078.74800857808     
  -3161.62064667623     
  -3237.89622345954     
  -3306.93910979751     
  -3368.00424364163     
  -3420.34564425978     
  -3463.30900498267     
  -3496.39583057720     
  -3519.29391285670     
  -3531.87554344692     
  -3534.16971638793     
  -3526.31717574299     
  -3508.51759859650     
  -3480.97695631995     
  -3443.86090433588     
  -3397.25761994636     
  -3341.15139566628     
  -3275.40677646064     
  -3199.76215553393     
  -3113.83138884753     
  -3017.11197840077     
  -2908.99853759038     
  -2788.80047784192     
  -2655.76308363836     
  -3004.78399455551     
  -3079.26466012263     
  -3147.26463081804     
  -3208.28291990389     
  -3261.74531792531     
  -3307.07232386202     
  -3343.74022367708     
  -3371.32604873638     
  -3389.53169812374     
  -3398.18684949521     
  -3397.23369564786     
  -3386.69864555943     
  -3366.65687038612     
  -3337.19519005578     
  -3298.37767409999     
  -3250.21690075028     
  -3192.65243360715     
  -3125.53696196516     
  -3048.62979334462     
  -2961.59696623343     
  -2864.01708813029     
  -2755.39200850241     
  -2635.16153192600     
  -2502.72151505833     
  -2936.85999092926     
  -3003.33304366012     
  -3063.58514013124     
  -3117.18185749538     
  -3163.64648888090     
  -3202.50118491918     
  -3233.30606230656     
  -3255.68957394520     
  -3269.36623404810     
  -3274.14061581214     
  -3269.89890466089     
  -3256.59090203739     
  -3234.20614718689     
  -3202.74784752373     
  -3162.20778931842     
  -3112.54458821334     
  -3053.66676120828     
  -2985.42132153841     
  -2907.58800249388     
  -2819.87882497854     
  -2721.94251194116     
  -2613.37317607383     
  -2493.72272052895     
  -2362.51646082277     
  -2874.75795399433     
  -2933.58968620402     
  -2986.54343013806     
  -3033.21289342904     
  -3073.17404435645     
  -3106.00884605258     
  -3131.32934566770     
  -3148.79735113009     
  -3158.13662807214     
  -3159.13637059761     
  -3151.64631655761     
  -3135.56507403962     
  -3110.82390921398     
  -3077.36843886714     
  -3035.14047712211     
  -2984.06184777202     
  -2924.02143373557     
  -2854.86620765760     
  -2776.39654519106     
  -2688.36579680454     
  -2590.48388548882     
  -2482.42458882049     
  -2363.83613029690     
  -2234.35472409621     
  -2818.14415027757     
  -2869.70851379443     
  -2915.77808342114     
  -2955.95462416603     
  -2989.84056177025     
  -3017.05163118688     
  -3037.23091384178     
  -3050.06092498667     
  -3055.27142987765     
  -3052.64183025457     
  -3041.99805472775     
  -3023.20475205606     
  -2996.15414392479     
  -2960.75313496831     
  -2916.91024956960     
  -2864.52374667101     
  -2803.47194299876     
  -2733.60642868626     
  -2654.74854291811     
  -2566.68922241022     
  -2469.19215303749     
  -2362.00004104813     
  -2244.84376379670     
  -2117.45414721300     
  -2766.62969889757     
  -2811.31804427138     
  -2850.90520360426     
  -2884.99201631557     
  -2913.19305950795     
  -2935.14243011854     
  -2950.50122410505     
  -2958.96440774999     
  -2960.26537338211     
  -2954.17720611395     
  -2940.51041738897     
  -2919.10751506194     
  -2889.83521259288     
  -2852.57531147657     
  -2807.21533878168     
  -2753.63992783643     
  -2691.72374713955     
  -2621.32656096310     
  -2542.29078515565     
  -2454.44171000862     
  -2357.59041209918     
  -2251.53927166371     
  -2136.08994732986     
  -2011.05362840583     
  -2719.81051104955     
  -2758.03249131331     
  -2791.53739750596     
  -2819.92260672676     
  -2842.80797052352     
  -2859.83751739067     
  -2870.68279522047     
  -2875.04628621386     
  -2872.66366786675     
  -2863.30415130243     
  -2846.76860950785     
  -2822.88563638519     
  -2791.50600217349     
  -2752.49616936268     
  -2705.73160852970     
  -2651.09062651436     
  -2588.44932055996     
  -2517.67813370468     
  -2438.64033692080     
  -2351.19262299163     
  -2255.18787845509     
  -2150.48010843681     
  -2036.93142467877     
  -1914.42096577122     
  -2677.29272912925     
  -2709.47270159004     
  -2737.29759407832     
  -2760.36229746568     
  -2778.28952158720     
  -2790.72923467510     
  -2797.35952201254     
  -2797.88781624368     
  -2792.05163868732     
  -2779.61827147651     
  -2760.38309406659     
  -2734.16661204533     
  -2700.81044335720     
  -2660.17268665340     
  -2612.12317469218     
  -2556.53912166220     
  -2493.30162406360     
  -2422.29339040590     
  -2343.39797444301     
  -2256.50068524462     
  -2161.49125554358     
  -2058.26827313023     
  -1946.74532013069     
  -1826.85872026798     
  -2638.70806789514     
  -2665.27957231963     
  -2687.82851328381     
  -2705.94996039061     
  -2719.26958513841     
  -2727.44200104771     
  -2730.15024781557     
  -2727.10573472264     
  -2718.04805407458     
  -2702.74424346730     
  -2680.98727721083     
  -2652.59376658003     
  -2617.40101808492     
  -2575.26372172181     
  -2526.05061099629     
  -2469.64145622102     
  -2405.92473119429     
  -2334.79624295912     
  -2256.15894737753     
  -2169.92410056565     
  -2076.01382591666     
  -1974.36511350443     
  -1864.93521523697     
  -1747.70835492415     
  -2603.72221090758     
  -2625.12201502313     
  -2642.79865961052     
  -2656.35063909430     
  -2665.40796078475     
  -2669.63011299684     
  -2668.70490356901     
  -2662.34773457049     
  -2650.30092163236     
  -2632.33276371059     
  -2608.23619624486     
  -2577.82699351155     
  -2540.94160472467     
  -2497.43479974177     
  -2447.17735760993     
  -2390.05405433154     
  -2325.96219944548     
  -2254.81094133459     
  -2176.52151653395     
  -2091.02856616592     
  -1998.28258895544     
  -1898.25354917908     
  -1790.93561150883     
  -1676.35293339593     
  -2572.03850846718     
  -2588.70104260733     
  -2601.90564752681     
  -2611.25742140488     
  -2616.39256725707     
  -2616.97642683339     
  -2612.70213891403     
  -2603.28965893370     
  -2588.48488989102     
  -2568.05872810548     
  -2541.80590569807     
  -2509.54359856205     
  -2471.10985010764     
  -2426.36192700910     
  -2375.17476772455     
  -2317.43970602175     
  -2253.06365178992     
  -2181.96889392458     
  -2104.09365996310     
  -2019.39352939263     
  -1927.84375643333     
  -1829.44251679182     
  -1724.21505328704     
  -1612.21865805289     
  -2543.39856938272     
  -2555.75116484332     
  -2564.87754938424     
  -2570.39218047393     
  -2571.93932562226     
  -2569.19140976303     
  -2561.84777830443     
  -2549.63372815243     
  -2532.29965634179     
  -2509.62020288555     
  -2481.39331105930     
  -2447.43918385947     
  -2407.59917007656     
  -2361.73465971313     
  -2309.72610148848     
  -2251.47227280393     
  -2186.88993505423     
  -2115.91399653341     
  -2038.49828434317     
  -1954.61699890471     
  -1864.26689288529     
  -1767.47018296079     
  -1664.27816943977     
  -1554.77550616955     
  -2517.58086955194     
  -2526.03997155856     
  -2531.47283006758     
  -2533.50542085279     
  -2531.79167957056     
  -2526.01228726587     
  -2515.87370114293     
  -2501.10735940950     
  -2481.46897881827     
  -2456.73787471114     
  -2426.71625967546     
  -2391.22851128688     
  -2350.12043511292     
  -2303.25858063715     
  -2250.52969116628     
  -2191.84038203830     
  -2127.11714414201     
  -2056.30676274919     
  -1979.37722663629     
  -1896.31918148913     
  -1807.14795668168     
  -1711.90616744611     
  -1610.66686650301     
  -1503.53719119848     
  -2494.39816442443     
  -2499.36654885136     
  -2501.47931554465     
  -2500.37546042721     
  -2495.71978351735     
  -2487.20215908564     
  -2474.53691589287     
  -2457.46230595190     
  -2435.74002722934     
  -2409.15476787297     
  -2377.51375308268     
  -2340.64629602669     
  -2298.40337664156     
  -2250.65729274851     
  -2197.30144369167     
  -2138.25031584112     
  -2073.43974111874     
  -2002.82749444826     
  -1926.39428460979     
  -1844.14517667001     
  -1756.11146433489     
  -1662.35298850286     
  -1562.96087501689     
  -1458.06064087564     
  -2473.69425256666     
  -2475.55919689441     
  -2474.71254157378     
  -2470.80715355942     
  -2463.51942771584     
  -2452.54903999328     
  -2437.61870591683     
  -2418.47395407052     
  -2394.88291095073     
  -2366.63609090260     
  -2333.54619053806     
  -2295.44789809417     
  -2252.19774150837     
  -2203.67401173156     
  -2149.77680772941     
  -2090.42825524041     
  -2025.57295193151     
  -1955.17868705363     
  -1879.23747449867     
  -1797.76692506683     
  -1710.81196768854     
  -1618.44691122645     
  -1520.77781913118     
  -1417.94514931739     
  -2455.34046673227     
  -2454.47278576333     
  -2451.01374568857     
  -2444.63032831215     
  -2435.01078196456     
  -2421.86482767216     
  -2404.92379109799     
  -2383.94068874636     
  -2358.69028463441     
  -2328.96912866772     
  -2294.59558898086     
  -2255.40989563503     
  -2211.27422021807     
  -2162.07282308588     
  -2107.71230556808     
  -2048.12200725261     
  -1983.25458778699     
  -1913.08682828931     
  -1837.62067963363     
  -1756.88457402211     
  -1670.93500299152     
  -1579.85834999615     
  -1483.77294961000     
  -1382.83132879770     
  -2439.23214762173     
  -2435.98598781191     
  -2430.24769906909     
  -2421.69807796266     
  -2410.03703802089     
  -2394.98422332678     
  -2376.27948865652     
  -2353.68328521961     
  -2326.97698035021     
  -2295.96313370267     
  -2260.46575089567     
  -2220.33053696233     
  -2175.42517502599     
  -2125.63965896623     
  -2070.88671127587     
  -2011.10231793152     
  -1946.24641033736     
  -1876.30372001542     
  -1801.28482475376     
  -1721.22739565536     
  -1636.19764336985     
  -1546.29194922989     
  -1451.63865357324     
  -1352.39995972542     
  -2425.28526995109     
  -2419.99855317937     
  -2412.30052284705     
  -2401.88501736666     
  -2388.46302266783     
  -2371.76364027533     
  -2351.53487867617     
  -2327.54431228070     
  -2299.57964329423     
  -2267.44919600603     
  -2230.98237002359     
  -2190.03007813568     
  -2144.46519489423     
  -2094.18304273632     
  -2039.10194267952     
  -1979.16385564218     
  -1914.33513781042     
  -1844.60742896812     
  -1769.99868631054     
  -1690.55436813557     
  -1606.34876223493     
  -1517.48644316251     
  -1424.10383125645     
  -1326.37081477542     
  -2413.43333054286     
  -2406.42874266254     
  -2397.07759336284     
  -2385.08558935668     
  -2370.17384263152     
  -2352.08013768532     
  -2330.55999110801     
  -2305.38754977337     
  -2276.35636654957     
  -2243.28008702151     
  -2205.99307712801     
  -2164.35101946002     
  -2118.23150469447     
  -2067.53464363443     
  -2012.18372400583     
  -1952.12593403568     
  -1887.33317155596     
  -1817.80295275257     
  -1743.55942867097     
  -1664.65451029902     
  -1581.16909467997     
  -1493.21437535097     
  -1400.93321079668     
  -1304.50151492933     
  -2403.62456672521     
  -2395.21099452063     
  -2384.50161060562     
  -2371.21248546438     
  -2355.07361145242     
  -2335.83041434540     
  -2313.24503560725     
  -2287.09743172509     
  -2257.18633102322     
  -2223.33008350603     
  -2185.36743550667     
  -2143.15825804624     
  -2096.58425550774     
  -2045.54967910407     
  -1989.98206727274     
  -1929.83303221398     
  -1865.07910804810     
  -1795.72267135068     
  -1721.79293909460     
  -1643.34704235340     
  -1560.47116665940     
  -1473.28174189142     
  -1381.92665627487     
  -1286.58646083470     
  -2395.81954521058     
  -2386.29387507957     
  -2374.51088151690     
  -2360.19522853700     
  -2343.08429811306     
  -2322.92989309720     
  -2299.49969618687     
  -2272.57853045328     
  -2241.96946217040     
  -2207.49478237658     
  -2168.99689986494     
  -2126.33917506755     
  -2079.40672139375     
  -2028.10719775572     
  -1972.37161300169     
  -1912.15515953719     
  -1847.43808936274     
  -1778.22664098095     
  -1704.55402010025     
  -1626.48143083847     
  -1544.09914733808     
  -1457.52760853537     
  -1366.91851152099     
  -1272.45587176875     
  -2389.98914309028     
  -2379.63834444490     
  -2367.05785332913     
  -2351.97895173748     
  -2334.14472820605     
  -2313.31192153749     
  -2289.25251105364     
  -2261.75509779554     
  -2230.62611718461     
  -2195.69091982433     
  -2156.79475350491     
  -2113.80367608536     
  -2066.60542568540     
  -2015.11027137130     
  -1959.25186409448     
  -1898.98810387008     
  -1834.30203493361     
  -1765.20277580771     
  -1691.72648583065     
  -1613.93736379269     
  -1531.92866800711     
  -1445.82374057588     
  -1355.77701200836     
  -1261.97495596194     
  -2386.11293091390     
  -2375.21635607804     
  -2362.10792024875     
  -2346.52339836834     
  -2328.20976080361     
  -2306.92710953026     
  -2282.45035518977     
  -2254.57067850011     
  -2223.09681617543     
  -2187.85620801173     
  -2148.69603829721     
  -2105.48420126253     
  -2058.11021686974     
  -2006.48611975842     
  -1950.54734050612     
  -1890.25359439684     
  -1825.58978852883     
  -1756.56695327313     
  -1683.22319880945     
  -1605.62469176413     
  -1523.86664095775     
  -1438.07427508900     
  -1348.40378903053     
  -1255.04322951889     
  -2384.17796103655     
  -2373.00980081078     
  -2359.63851843467     
  -2343.80215933906     
  -2325.24965787327     
  -2303.74281927484     
  -2279.05803988741     
  -2250.98780858085     
  -2219.34202928872     
  -2183.94920125547     
  -2144.65749015662     
  -2101.33571979808     
  -2053.87431061213     
  -2002.18618758446     
  -1946.20767647914     
  -1885.89940317805     
  -1821.24720653697     
  -1752.26307033660     
  -1678.98607466946     
  -1601.48336150105     
  -1519.85110327415     
  -1434.21545743227     
  -1344.73348380795     
  -1251.59399616908     
SCALARS 2waySource double 
LOOKUP_TABLE default
  1.941713426766814E-018
 -3.966096769962580E-018
 -1.909938873723146E-018
  1.737834750618888E-018
  7.035524182406446E-018
  1.632950686317076E-018
 -1.981298709399792E-018
  2.100757793537314E-018
 -7.583782706314989E-019
 -7.824278948619426E-019
 -1.191263091764386E-018
  1.338239746031627E-018
 -4.169975446110488E-019
  1.433328993083105E-019
  1.050000080893169E-018
  2.939533085344806E-019
 -3.311055894867208E-019
  1.095853631857303E-018
  9.663381206337357E-020
  1.633227998784655E-019
  4.892908210983208E-020
  1.208942944255746E-019
  9.927192431369889E-020
  2.882982681583420E-020
 -2.921693126425634E-018
  3.944117034169229E-018
 -3.914092156707028E-018
 -3.934322216918900E-018
  6.415202586582585E-018
  9.225544581066916E-019
  8.688001692696752E-019
 -9.094947017729271E-020
  3.691936102744558E-018
  5.761591174213127E-019
 -1.729672402910283E-018
 -3.844653598164001E-019
 -6.228289031563064E-019
 -6.583487145668271E-019
  9.017697729596944E-019
  9.112872777424511E-019
 -9.155871610444386E-019
  2.229136857134416E-019
  1.487184785328042E-019
  3.857190134826340E-019
  1.075943784501049E-019
  1.898425786155037E-020
 -5.145783963631431E-020
  1.758064810830746E-019
 -3.432584867441833E-018
  5.741243907961494E-018
  2.328014262940768E-018
 -8.453051699743789E-019
  2.337926286230870E-018
  2.556488773239257E-020
  2.517435125292759E-019
 -2.048753180281777E-018
  3.713915838537911E-018
  5.473292906054793E-019
  5.602718408994761E-020
  1.250555214937778E-018
 -4.561611109804979E-019
  1.203229300859723E-018
  5.237756882902929E-019
 -1.558966337268205E-019
  4.553448762096385E-019
  5.379718922505243E-019
 -1.314467434268758E-019
 -9.693257472496075E-020
  1.337860930156139E-019
 -2.994482424828175E-020
  5.684341886080802E-020
  2.243274458074765E-019
 -1.291366953480800E-019
 -2.405322154092971E-018
 -6.320690954714907E-019
 -3.712283368996206E-018
 -1.399164338746737E-018
 -1.753690621877019E-019
  2.273736754432318E-019
 -1.823363592499573E-019
 -7.661031994447326E-019
  3.012642596602949E-018
 -1.312237439403859E-018
  1.959654889093902E-018
  4.271125747169772E-019
  1.508988712061739E-018
  5.093607748823757E-019
 -1.511816232249805E-018
  4.683460295235209E-019
  5.154532341538871E-019
 -2.760547465954357E-020
  7.237332970117266E-019
  1.200780596547141E-019
 -1.644377973109130E-019
  9.663381206337355E-020
  1.281017511295331E-019
 -2.761133496153202E-019
  2.288311774268037E-018
 -1.043091386850797E-018
 -6.289213624278193E-019
  7.226983527931826E-019
  1.360977113575949E-018
 -3.372723544099773E-020
 -2.683884208020881E-019
  3.146207876417097E-019
 -1.289500071859543E-018
  3.146207876417100E-019
 -3.094031661609448E-019
  1.441491340791707E-019
  1.136868377216183E-020
 -4.112839012150259E-019
 -4.663347441063115E-019
  1.046516432362042E-018
 -1.037319140434888E-019
 -3.322205869191685E-019
 -2.870446144921097E-019
  3.327380590284418E-019
  1.648459146963432E-019
  1.534772309241816E-019
  1.690071417645462E-019
  8.570254718658510E-020
  1.135046499736696E-018
 -1.372724613223602E-018
  1.872189067447739E-018
  3.034622332396287E-018
  2.205524651799349E-018
  0.000000000000000E+000
 -1.124683458673135E-018
  1.898570189950981E-018
 -3.232205542456887E-019
 -4.831397588069261E-019
 -1.810827055837253E-019
  8.160965272830529E-019
 -1.422280522166551E-018
  1.211770464443813E-018
  2.606634919888569E-019
  4.508848864798482E-019
 -2.041188357896355E-019
 -2.619171456550901E-020
  1.469766542672404E-019
 -2.894933188046907E-019
  1.519541161063039E-019
  6.405087556476657E-020
  2.372192443975158E-019
 -5.531229872153991E-019
 -2.209357814696026E-018
 -5.363980257286879E-019
 -2.384756178393664E-018
 -3.145481649929846E-018
 -1.064575100728886E-018
 -4.990270353287619E-019
 -1.383714481120274E-018
  7.476657152023947E-019
 -5.402018871154223E-019
 -2.367310737981847E-019
 -8.286602617015636E-019
  9.145522168258904E-019
 -4.890721116506351E-019
  1.416188062895040E-018
 -2.235112110366158E-019
 -1.558966337268203E-019
 -1.598684528572796E-019
  5.472199358816344E-019
  2.349892495326211E-019
  7.003398011243450E-020
  5.572842142836045E-020
  1.462697742202231E-019
  1.084106132209653E-019
  7.771516703612895E-019
  6.949034701958921E-019
 -2.121425272644548E-019
  3.782127941170866E-019
 -4.821634176082660E-019
 -2.872633239397957E-019
  1.064575100728883E-018
  1.699370212980531E-018
 -1.480756410569070E-018
  9.277720795874614E-019
  3.648328249277174E-019
  1.756811157164516E-018
 -1.523114817877750E-020
  6.689011635681264E-019
  6.975708839561594E-019
 -1.142443364378397E-018
 -4.049219807918701E-019
  1.835314098963066E-019
 -3.509060821191315E-019
  5.565480327266450E-019
 -2.162237011187563E-020
  3.035294163371196E-020
  3.030919974417473E-019
  1.250555214937776E-019
  2.090999603174430E-019
  4.010995429922060E-019
  1.211661109719970E-018
  6.108626940609730E-019
 -2.817683899914599E-019
  1.039506234911748E-019
  1.118372289953940E-018
  7.524030173997595E-019
  1.435937803823488E-018
  2.473256944258384E-018
  1.721510055201682E-018
  3.507967273952895E-019
 -4.317912738944548E-019
  9.251339673371366E-019
  1.154598981411478E-018
 -8.169127620539161E-019
 -4.833155678665774E-020
  1.675933816705117E-019
 -7.460332456606795E-020
  1.705302565824240E-019
  1.024275086732974E-019
  3.962714624839349E-019
  5.379718922505250E-020
  6.973521745084732E-020
  9.843526089976431E-019
 -3.716468150012170E-019
 -1.518506216844486E-018
  1.463791289440664E-019
 -1.924513893558873E-019
  6.471275146999691E-021
 -3.009217551091686E-018
  2.007738434922930E-019
  3.045057575357815E-019
  3.410605131648480E-019
  4.955433867976332E-019
 -1.751564234173801E-018
  2.472542212895422E-019
 -6.512799140966519E-019
  6.659935901661548E-019
  5.740091757703170E-019
  3.123400410728566E-019
  3.326287043045976E-019
 -8.140266388459592E-020
  2.519329204670200E-019
  2.447254637630617E-019
 -7.003398011243454E-020
  1.071862610646749E-019
  1.307398633798584E-019
 -1.429936122862882E-018
  2.119531193267110E-019
  3.979039320256563E-020
  4.242850545289077E-020
 -1.299484297047608E-018
 -4.819447081605775E-019
 -1.879913996260966E-019
 -6.821210263296934E-020
  3.181044361728382E-019
 -7.531606491507371E-019
  1.627405000664788E-018
 -4.476785504162912E-020
  4.272726811447753E-020
  3.128575131821303E-019
  9.774880949582100E-020
 -1.139178425294958E-018
  6.516587299721416E-020
  2.678709486928151E-019
 -3.054234957145612E-020
  5.782797575623639E-019
 -4.350635005947082E-021
  3.797359089349660E-019
  3.736434496634554E-019
  2.512260404200025E-019
 -3.510007860880040E-019
 -7.423523378758811E-020
  2.619171456550889E-020
  1.400679602248693E-020
 -6.554468887270243E-020
  1.857664799315968E-018
 -3.547685465257473E-019
 -1.902213944909920E-019
  3.663559397455947E-019
  1.156231450953203E-018
  3.853401976071459E-019
  2.063496157861239E-018
  2.127693540975701E-019
 -8.237121013724443E-019
 -4.158532456686584E-019
  6.943059448727193E-019
  5.989765381795357E-019
 -1.037319140434891E-019
  2.087975349671118E-019
  7.501144195149821E-020
  2.201662187392739E-019
  6.104545766755422E-019
  2.311267851260047E-019
  7.541955933692819E-020
  7.488900673586881E-019
 -6.998008788210570E-019
 -6.936791180396004E-019
  9.581757729251351E-020
 -1.932676241267477E-019
  8.630007250975883E-020
  1.508098171639158E-019
 -4.221644143878561E-019
 -2.194593386922562E-019
  1.614025031475422E-018
 -1.644377973109136E-019
  9.897316165211202E-020
  6.325944188966890E-019
  1.338538508693217E-018
  1.258717562646380E-019
 -1.552991084036461E-019
  3.708959826892876E-019
  1.325617408593234E-019
 -5.298095445419224E-020
 -2.619171456550892E-020
 -5.765965363166854E-020
 -4.231915072904796E-020
  1.902213944909922E-019
  8.831135792696767E-020
  1.713611421082557E-019
  1.167982876258814E-018
  8.932579108855469E-019
  5.910622014285576E-019
 -1.765133611300926E-019
  0.000000000000000E+000
 -1.250555214937772E-019
  2.887864387576724E-019
  1.445572514646017E-019
  5.328850756876222E-019
 -9.807530340416502E-019
 -7.609949326878114E-019
 -1.646309205312433E-018
 -3.870527203627670E-019
 -1.110487254712907E-019
 -9.388634508920540E-020
 -2.203048749730583E-020
 -2.284886728756790E-019
 -1.099337280388430E-019
  4.331249807745883E-019
  6.799339318528339E-021
 -2.203048749730583E-020
 -1.155087152010808E-019
  1.845370526049107E-019
 -5.784291388931583E-019
  4.267259075255634E-020
 -6.980590545554903E-019
 -1.470014553630032E-018
 -9.011722476365270E-019
 -1.819178811483593E-018
 -9.781149217913282E-019
 -6.145064490199004E-019
  1.133938226222011E-020
 -8.966029031828877E-019
  3.268643092046169E-019
  1.491935686403496E-018
  7.859622950970257E-019
  8.950504868550690E-019
  3.102994541457059E-019
  5.276224500650585E-021
  1.477928890381005E-019
  4.436774297758893E-019
  1.530691135387514E-019
  4.392174400461003E-019
  2.405642366948585E-019
  3.168000308026473E-019
  2.042281905134788E-019
  5.836653367868580E-020
 -8.264595683466131E-019
 -5.500474560697051E-019
 -2.273736754432324E-020
  8.600481475538258E-019
  3.353761712787694E-019
  1.240899053921233E-018
  3.522397889992669E-019
  1.260072719720538E-018
 -2.703196530053961E-019
 -3.260988261377152E-019
  9.029941251159900E-019
  2.031131930810314E-019
 -8.485701090578170E-020
  2.191605760306694E-019
 -6.086326991960769E-019
 -2.314548492975334E-020
  3.997258095051222E-019
 -3.538429570310457E-019
 -2.050444252843396E-019
 -2.000669634452765E-019
  8.374201347333432E-020
  3.258293649860711E-020
  3.046229635755478E-021
  3.562916613436262E-020
 -4.439615416825083E-019
  8.935967001540827E-019
 -5.816247498597075E-020
  1.458616568347935E-019
 -5.227407440717496E-020
 -1.928302052313749E-020
  1.969113790856771E-020
 -8.069578383757878E-020
  8.660605536114344E-019
  7.264807639858987E-019
  1.208942944255749E-019
  4.892908210983227E-020
  7.389644451905040E-020
  6.889203656482268E-019
  7.861517030347726E-019
  4.311937485712821E-019
 -2.896827267424349E-019
  3.771778498985415E-019
 -1.857614047612012E-020
  3.743503297104728E-019
 -1.552991084036471E-020
  6.750522258595235E-020
  9.927192431369917E-020
  5.948153111113354E-020
  1.255762111321535E-018
  1.136161497169146E-018
  4.375302931424568E-019
 -6.940872354250328E-019
  1.096056638673142E-020
 -2.411910635279748E-019
 -3.102194009318050E-019
 -6.330825894960211E-019
  1.307398633798585E-019
 -8.069578383757878E-020
 -1.441491340791709E-020
  1.091174932679828E-019
 -4.968770936777672E-019
 -8.522431655266905E-019
 -3.515036074423061E-019
  2.633016042391818E-019
  5.364487774326474E-019
  8.638012572365955E-020
 -7.278144708660294E-020
 -1.674840269466686E-019
  7.114897754488211E-020
 -1.814908229691555E-019
 -9.641510261568811E-021
  7.389644451905024E-020
 -2.813602726060293E-019
  7.615924580109819E-019
  2.415445035514834E-019
  1.443698833585712E-018
 -1.688177338268023E-019
 -4.406018986301892E-019
  1.216259755683549E-018
  1.423395519598996E-018
  2.730671199795637E-020
  1.095256106534128E-019
 -2.162237011187571E-020
  1.441491340791714E-020
  1.657715041910466E-019
  8.202577543512585E-019
 -1.350104451719043E-019
 -1.263599268639688E-019
  8.305114406909684E-019
  5.448805862928957E-019
 -5.505649281789784E-019
 -2.659983195093915E-020
 -2.716240583755879E-019
  8.303513342631719E-020
  2.710265330524153E-020
 -7.008865747435633E-020
 -2.918326683934294E-020
  9.333070401427508E-019
  1.450906290289675E-018
  2.786421071418012E-020
 -7.653455676937577E-020
  5.530936857054597E-019
 -1.343035651248877E-019
 -6.724648653131545E-019
  8.730571521836342E-021
 -4.422636696818568E-019
 -4.456086619791977E-019
 -2.151887569002101E-019
 -1.454535394493625E-019
 -1.148018351540636E-019
  1.542934656950425E-019
  4.421543149580143E-019
 -3.286715359291130E-019
  9.774880949582121E-020
  8.463547649478943E-019
  9.085476620842101E-020
  4.580376658218852E-019
  5.719685888431699E-020
 -4.374756157805365E-020
  7.958078640513141E-020
 -3.720402816316762E-019
 -1.543692288701402E-018
 -8.744230343547866E-019
 -6.593690080304021E-019
 -8.450357088227324E-020
 -4.161227068203074E-021
 -1.725708435095754E-020
  6.516587299721410E-020
 -1.809479750079026E-019
 -1.019971277773024E-018
  2.053431879459260E-019
 -1.472353903218771E-019
 -1.884541943734480E-019
 -2.256465019326392E-019
 -5.663936016809291E-020
  2.238392752081452E-020
 -4.902671622969811E-019
  3.105982168072915E-020
  5.912809108762463E-020
  0.000000000000000E+000
  2.517288617743051E-019
  1.330245356066749E-019
  7.785361289453813E-020
  6.176620333794982E-020
 -1.216827979496783E-018
  6.334907068814490E-019
  1.004962764699895E-020
 -9.587225465443479E-020
  1.632280959095947E-019
  4.967530881989544E-019
 -6.700308117555462E-019
 -8.024763984519815E-020
 -4.847175509867258E-019
  7.493528621060397E-019
  6.988059612094591E-019
 -9.663381206337330E-020
  5.201719599383142E-019
  2.736646453027389E-019
  5.719685888431664E-020
  1.411615074633018E-020
  3.902336805743461E-019
  3.690741052098227E-019
 -8.338857344982566E-020
 -8.998385407563896E-020
  6.029776588199373E-020
  1.657568534360752E-019
  3.258293649860707E-020
  4.131350802044339E-020
 -4.264721490057773E-020
 -1.228590129899397E-018
  1.011255357006158E-018
  8.205711677678178E-019
  5.631833399594076E-019
  1.343582424868080E-019
  3.860578027511680E-019
 -4.059197721845486E-020
  6.993634599256813E-019
 -8.045169853791307E-020
 -5.083951587807227E-019
 -3.483626738376791E-019
  6.536993168992888E-020
 -3.091044034993560E-020
  4.567879378136120E-020
  2.364830628405564E-020
 -3.553446216549037E-020
 -2.639577325822394E-020
 -6.065374349070018E-019
 -3.821260102276635E-020
  2.329486626054690E-020
  3.603728351979278E-021
  6.405087556476655E-020
  8.998385407563860E-020
  7.206323900140550E-019
 -2.105393592326770E-019
 -8.448863274919379E-019
 -8.706699246720178E-019
 -5.203066905141375E-019
 -7.207456703958608E-021
  7.764955420182383E-021
  6.597771254158340E-019
  2.842170943040405E-021
 -4.785997158632372E-019
 -4.816752470089313E-020
  1.364788826278609E-019
 -1.234377027070284E-019
 -9.206446760974043E-020
 -3.353761712787697E-019
 -2.671093912838771E-019
  1.340448290702512E-019
  3.175069108496665E-019
  3.833796638938972E-019
  1.661649708215060E-019
  4.679379121380890E-020
  3.806321969197292E-020
  2.009925529399792E-020
  4.907846344062586E-020
 -8.701524525627407E-019
  4.183019499812437E-019
  4.809937428138931E-019
  7.793523637162463E-019
  9.303008371139422E-020
  3.139031824976841E-019
 -3.399669659264167E-021
 -1.441491340791711E-020
 -9.861972162860305E-020
 -4.154597790382015E-019
  7.987447389632238E-019
  1.922834316121620E-020
 -3.189206709436974E-019
 -1.213024118110051E-020
  2.345811321471893E-019
  6.302404185529784E-019
 -4.090539063501319E-020
 -6.923239609654503E-020
 -1.173852700424675E-019
  1.619490663913814E-019
  5.455874663399138E-020
  1.649552694201866E-020
  8.322454136406153E-021
 -9.084011545344983E-021
  3.742956523485497E-019
  6.104467253596195E-020
  2.325805718269912E-019
 -6.644011472313900E-019
  3.049138749212135E-019
 -6.863769573667735E-019
 -1.027262713348849E-019
  6.100464592901126E-020
  2.689859461252630E-020
  3.625735285528827E-019
 -6.659428384621992E-020
 -3.640966433707592E-019
  2.740581119331975E-019
  1.249608175249063E-019
  1.126265176510904E-019
 -3.258293649860715E-020
 -2.679803034166590E-019
 -3.845493386882663E-019
  2.962379807612986E-019
  4.319006286182997E-020
  3.603728351979290E-021
  3.105982168072933E-020
  4.471317767970770E-020
  1.344929730626313E-020
  8.771011732120593E-019
 -2.096137697379722E-019
 -2.906483428440876E-019
  6.975962598081372E-019
  4.082523223342410E-019
  4.973799150320683E-019
  2.448201677319310E-019
 -2.689859461252616E-019
 -4.057635914147088E-019
 -3.785115567786749E-019
 -3.694822225952511E-020
 -2.983586209023477E-019
  4.044445352895458E-019
 -2.284672226816623E-021
  4.310608398996621E-021
 -1.902213944909911E-019
 -8.784856317961550E-020
  1.652540320817727E-019
  3.163919134172158E-019
 -4.435973765619870E-020
 -1.771255372082361E-019
  1.365335599897818E-020
  1.761052437446613E-020
 -2.766015202146494E-020
  3.629816459383132E-019
 -2.883236440103227E-019
 -3.058248136609468E-019
  3.826727838468813E-019
 -2.994335917278500E-019
 -1.839795538886870E-019
  7.169739843001491E-019
  1.198339743550490E-019
  5.542965876677357E-020
  3.770977966846429E-020
  5.827182970981392E-020
  2.766015202146499E-020
 -3.806321969197281E-020
 -5.370248525618079E-020
 -1.252996067934438E-019
  2.987267116808295E-019
 -9.492128930775232E-021
  3.760228258591461E-019
  1.365335599897832E-020
  6.730116389323771E-020
  1.769214785155236E-019
  5.095501828201236E-020
  1.954175657777426E-020
  1.233283479831856E-019
  4.418008749345033E-019
 -1.378926427218953E-019
  4.339812421524008E-019
  2.682097379613538E-019
  3.958633450985093E-020
  1.599231302192015E-019
 -7.293082841739643E-020
 -6.241840602304588E-021
  2.405642366948598E-020
 -4.255640840471214E-019
 -1.011084525481348E-019
 -8.367532812932770E-019
 -3.785115567786737E-019
  1.732777235565926E-019
 -6.319461418695567E-020
 -4.442896058540369E-019
 -2.465073146355767E-019
 -1.882901622876838E-019
  0.000000000000000E+000
  0.000000000000000E+000
 -7.207456703958554E-021
  1.081118505593784E-020
 -5.126843169857028E-021
 -3.144060038519876E-020
 -1.557072257890767E-019
  2.915192549768695E-019
 -2.118984419647873E-019
 -2.817683899914567E-019
  4.242850545289091E-019
  3.869433656389233E-019
  2.522863604905278E-019
 -5.126843169857028E-021
 -7.993422642863963E-020
  5.258748782373271E-020
  2.812294676881690E-020
  3.744050070723935E-019
 -4.324474022375081E-020
 -3.619613524747327E-019
  8.175249381320572E-019
  4.558623483189111E-019
  1.066287623484502E-019
 -1.517647081685594E-020
  1.781458306718126E-020
  5.684341886080786E-021
  1.969113790856763E-020
 -3.126388037344424E-020
  2.831968008404646E-020
 -3.750572097574887E-020
  1.041578997129933E-018
  9.977474566800217E-020
 -1.441491340791717E-020
 -1.170865073808806E-019
 -2.928383111020338E-019
 -4.428211683980816E-019
 -2.404548819710143E-019
  3.708959826892868E-019
 -3.146793906615960E-020
 -2.927797080821493E-020
  3.928717928246720E-019
 -4.395162027076875E-020
  9.522005196933904E-020
  2.645113056405026E-019
 -3.008620025768519E-019
  3.603728351979269E-021
  2.065675401022166E-020
  6.821210263296981E-020
  2.689859461252630E-020
 -2.766015202146523E-020
 -1.060712636322276E-020
  1.523114817877749E-021
  1.299382793639689E-020
  7.008865747435632E-020
 -1.154140112322083E-019
 -2.951229833288499E-019
  1.938251228429699E-019
 -1.198085985030701E-020
 -5.480283193365695E-021
  4.547473508864612E-020
 -1.055284156709743E-019
 -6.174032973248606E-019
 -1.649552694201859E-020
 -6.821210263296964E-020
  0.000000000000000E+000
 -7.207456703958573E-021
 -4.608691116679170E-020
 -3.664945959793828E-020
 -1.541841109711995E-019
 -3.750572097574911E-020
  0.000000000000000E+000
  0.000000000000000E+000
 -6.445899295019659E-021
  1.060712636322273E-020
 -1.421085471520205E-021
  2.689859461252637E-020
 -8.145734124651798E-021
 -1.657021760741536E-020
 -6.060346135527007E-019
  2.717334130994296E-019
  4.429705497288717E-019
 -3.920155314468610E-019
 -1.788527107188297E-019
  6.258243810881001E-020
  3.487707912231087E-019
 -3.399669659264141E-021
  9.084011545344945E-021
 -8.810729923425209E-020
 -1.497241212414075E-020
 -1.268773989732422E-020
  2.897920814662782E-020
 -9.900246316205290E-021
 -1.584000154013221E-019
 -3.923289448634166E-020
  2.405642366948586E-020
  1.344929730626302E-020
 -1.476835343142565E-020
 -3.258293649860706E-020
 -1.142336113408308E-021
  7.615574089388716E-022
  2.682390394712928E-020
 -4.644035119029986E-021
 -7.969014112897448E-020
 -1.155633925630026E-019
  7.673861546209078E-020
 -5.017488446013451E-021
  4.375849705043787E-019
 -1.597190715264862E-019
 -3.142566225211929E-019
  1.241992601159671E-019
  3.353214939168447E-019
 -4.131350802044355E-020
 -1.989519660128293E-020
 -8.019296248327694E-020
  3.105982168072918E-020
  2.266121180342930E-019
  2.082400362508878E-019
  3.603728351979268E-021
  1.344929730626316E-020
 -4.365285760918182E-021
  2.689859461252645E-020
 -3.628869419694389E-020
  6.826677999489104E-021
 -5.400124791776782E-020
 -6.090261658265397E-020
 -8.145734124651815E-021
 -6.245560766668979E-019
 -6.121760781445393E-022
  4.325259153968002E-021
  4.411886988563600E-019
  6.395617159589521E-020
  3.042069948741972E-019
  1.273401937205943E-019
  1.263199002570185E-019
  1.321536234738932E-019
  2.267614993650890E-019
  4.608691116679177E-020
  1.961097950697881E-019
  1.926554480486015E-019
 -1.875832822406666E-019
 -6.429496086443251E-020
  1.691565230953411E-019
 -3.410605131648482E-020
  3.750572097574899E-020
  2.395439432312839E-020
  2.007191661303724E-020
 -3.222949647509832E-021
  1.954175657777427E-020
  5.559905340104218E-020
  1.733177501635430E-020
  1.106952854477812E-019
 -2.765068162457782E-019
 -1.643977707039622E-019
  1.736311635801009E-019
  6.100464592901079E-020
 -2.337102200144079E-019
  1.264692815878119E-019
 -6.821210263296888E-020
 -2.747796427351839E-019
 -1.306851860179352E-019
 -1.371857626748772E-019
 -2.034666331045387E-019
 -2.766015202146506E-020
  2.842170943040377E-021
  6.252776074688839E-020
  6.241840602304509E-021
 -5.253281046181113E-020
 -1.223900705624907E-019
 -2.484531975938526E-020
 -8.259967735992515E-020
 -3.400402197012704E-020
 -7.615574089388729E-022
 -1.334726795990549E-020
 -4.644035119030009E-021
  7.911799165777984E-020
 -1.431141898606250E-019
  3.320712055883765E-019
 -5.983497113464193E-020
  6.414557953363920E-020
  2.834008595331791E-019
  8.192013599386992E-020
  7.926737298857459E-020
 -3.512048447807186E-019
 -3.050232296450577E-020
  3.750572097574891E-020
 -1.344929730626315E-020
 -7.615574089388803E-022
 -1.603712742115830E-019
 -1.479422703688954E-019
  2.349892495326213E-020
  1.121930244136816E-020
  1.758064810830758E-019
  1.801864175989647E-020
  1.550750364074564E-019
  2.405642366948587E-020
  0.000000000000000E+000
 -3.400402197012730E-020
  0.000000000000000E+000
  3.076105901914227E-020
 -5.760497626974745E-020
 -2.299610359895995E-020
 -3.798852902657632E-019
 -8.572792303856459E-020
 -1.472353903218772E-019
 -1.502269425957106E-019
 -7.709205548559990E-020
 -2.065675401022192E-020
 -3.694822225952549E-020
  9.288070238060135E-021
 -1.883448396496069E-019
 -1.722027527310957E-019
  2.197581013538424E-020
  3.993723694816127E-019
 -9.130291020080216E-020
 -1.290126898692664E-019
 -2.908123749298533E-020
  1.098790506769216E-020
 -5.593248012107589E-020
 -1.583726767203640E-019
 -1.098790506769229E-020
  2.080613534101545E-021
 -1.202821183474302E-020
 -2.550338274646961E-019
 -1.950494749992604E-019
 -4.050567113676895E-019
  8.699230180180402E-020
  8.069578383757829E-020
 -5.268219179260461E-020
  4.283662283832132E-020
 -1.676334082774628E-019
 -2.766015202146488E-020
 -2.710265330524119E-020
 -2.766015202146510E-020
  1.350397466818469E-020
  2.032625744118246E-019
 -2.918326683934276E-020
 -8.069578383757808E-020
 -7.470535391242505E-020
  7.709205548559948E-020
 -6.418560614058988E-021
  9.216649695609733E-020
  8.214420799005921E-020
  9.009320879948106E-021
 -4.542005772672391E-021
  2.235658883985370E-020
  3.120920301152236E-021
 -7.805767158725362E-020
  9.094947017729254E-020
  9.267664368788603E-020
  1.907896183042262E-020
 -4.166694804395175E-020
 -7.181583098494877E-020
 -1.624118611387320E-019
 -2.822311847388077E-019
 -2.974076555556647E-020
 -3.050232296450556E-020
 -3.902883579362650E-020
 -2.065675401022171E-020
 -1.989519660128266E-020
 -7.044209749786411E-020
  1.348737517671005E-019
  5.609651220683806E-021
  1.110960774557257E-019
 -8.521777630677581E-020
 -1.765406998110529E-019
 -2.311814624879266E-020
  2.563421584928518E-021
 -1.448960407331390E-020
 -5.389921857141025E-020
  1.060712636322270E-020
 -3.167199775887501E-020
  1.364242052659400E-019
 -9.841566293588800E-020
 -4.411886988563635E-019
  1.489078864705492E-019
 -2.974076555556666E-020
 -1.969113790856761E-020
 -1.969113790856778E-020
 -3.319511257675235E-020
 -1.273401937205947E-019
 -1.155633925630023E-019
  9.845568954283852E-021
  7.764955420182315E-021
 -1.195752383004121E-019
  4.400629763269013E-020
  2.382502629581021E-020
 -9.782350016121729E-020
  2.623906654994491E-020
 -1.147071311851918E-020
 -7.764955420182438E-021
  6.044714721278732E-020
  6.346603816758213E-020
 -6.445899295019732E-021
  0.000000000000000E+000
 -1.517647081685593E-020
  1.004962764699884E-020
  4.215904430124549E-021
 -4.257788678368415E-020
  1.301823646636350E-019
 -3.161732039695296E-020
  6.328931815582813E-020
  1.129252803126770E-019
  5.968558980384876E-020
 -4.542005772672470E-020
 -1.347517091172685E-019
 -1.665184108450146E-019
 -1.344929730626318E-020
 -4.958128479492850E-020
  8.295311738343462E-020
 -1.185822835177973E-019
 -3.489494740638447E-020
 -1.282511324603267E-019
  3.807787044694343E-022
 -2.634109589630263E-020
 -7.046943617882548E-020
 -2.461392238570967E-021
 -3.722697161763694E-020
 -1.060712636322281E-020
  6.649957987734762E-021
 -2.730671199795624E-020
  1.318548608123054E-019
  6.704242783860125E-020
  1.000334817226385E-019
 -5.344374920154405E-020
 -2.080613534101479E-020
 -1.824564390708102E-019
 -2.842170943040380E-021
  1.907242158452958E-019
 -6.399619820284480E-020
  6.364275817933688E-020
 -7.633049807666117E-020
  6.856554265647789E-020
  4.085803865057729E-020
  1.844677244880208E-020
 -5.920278175302111E-020
 -1.448960407331397E-020
  8.145734124651803E-021
 -4.075600930421958E-020
 -2.908123749298532E-020
  7.662926073824772E-021
 -7.384176715712982E-021
 -3.807787044694409E-022
  1.974581527048928E-020
 -1.538052950957096E-020
  8.201483996274102E-020
 -3.237887780589206E-020
  1.320589195050211E-019
  6.536993168992902E-020
  9.754475080310619E-020
 -1.087093758825513E-019
  5.871997370219453E-020
  6.349337684854257E-020
  6.003902982735722E-020
  1.680415256628913E-019
 -7.309486050316104E-021
 -5.476280532670660E-020
 -8.308248541075271E-020
 -8.277639737167971E-020
 -1.046775168416679E-019
 -4.925518345238001E-020
  2.492001042478232E-020
  3.210012844778007E-020
 -8.247763471009295E-021
 -2.547750914100588E-020
  3.222949647509840E-021
 -1.421085471520200E-021
  1.373351440056718E-019
  0.000000000000000E+000
  1.470313316291623E-019
 -1.193711796076969E-019
  3.735633964495545E-020
  4.714723123731720E-020
 -1.365335599897830E-020
 -1.060712636322282E-020
 -6.973521745084745E-020
  3.182137908966838E-020
 -3.202543778238341E-020
 -7.969014112897431E-021
 -3.913086513998422E-020
 -2.634109589630246E-020
 -4.867034605519545E-020
 -1.319056125162697E-021
 -3.847133707740297E-020
 -3.438480067459670E-020
 -9.947598300641405E-021
 -1.951441789681338E-020
 -3.780448363733614E-021
  1.202821183474293E-020
  0.000000000000000E+000
 -1.801864175989629E-021
  1.333779756301824E-019
  0.000000000000000E+000
 -1.892958049962885E-020
  1.705302565824238E-020
  3.314043521483073E-020
  1.344929730626300E-020
  8.145734124651763E-020
 -1.913363919234392E-020
  4.943190346413427E-020
 -2.974076555556675E-020
 -4.471317767970754E-020
 -4.166694804395213E-020
  3.192340843602567E-020
  4.585551379311581E-020
  1.969113790856772E-020
 -5.105704762836965E-020
 -1.142336113408310E-021
 -2.563421584928510E-021
 -1.639349759566106E-020
  1.022634765875331E-020
  7.105427357601008E-021
 -4.263256414560611E-021
  1.875286048787464E-020
 -3.807787044694389E-022
 -1.320589195050209E-019
 -4.755534862274790E-020
 -4.582817511215473E-020
  5.968558980384804E-020
  0.000000000000000E+000
  1.248514628010627E-019
  7.861517030347699E-020
 -3.126388037344416E-020
 -3.674416356680982E-020
 -8.526512829121175E-021
  2.121425272644531E-020
  6.445899295019656E-021
  9.288070238060006E-021
 -9.845568954283799E-021
 -3.864805708915704E-020
  3.603728351979264E-021
 -1.469366276602890E-020
  6.445899295019632E-021
  3.501699005621719E-021
 -7.588235408427935E-021
 -1.383007601073250E-020
 -1.278976924368187E-020
  1.421085471520185E-021
 -1.383007601073250E-020
  3.522104874893259E-020
 -4.034789191878905E-020
  9.927192431369836E-020
 -5.379718922505213E-020
  0.000000000000000E+000
  8.013828512135440E-020
 -8.846073925776045E-020
 -7.237332970117254E-020
 -2.121425272644517E-020
 -5.532030404293079E-020
 -4.034789191878939E-020
 -1.781458306718113E-020
 -3.105982168072887E-020
 -2.623906654994496E-020
  1.667224695377306E-020
  9.390099584417653E-021
  9.947598300641328E-021
 -6.065120590550190E-021
  2.159503143091476E-020
  1.941238855045569E-020
 -8.145734124651768E-021
 -2.017394595939446E-020
  2.519875978289400E-020
 -1.563194018672216E-020
SCALARS elementIsPlast double 
LOOKUP_TABLE default
  0.000000000000000E+000
  0.000000000000000E+000
  0.000000000000000E+000
  0.000000000000000E+000
  0.000000000000000E+000
  0.000000000000000E+000
  0.000000000000000E+000
  0.000000000000000E+000
  0.000000000000000E+000
  0.000000000000000E+000
  0.000000000000000E+000
  0.000000000000000E+000
  0.000000000000000E+000
  0.000000000000000E+000
  0.000000000000000E+000
  0.000000000000000E+000
  0.000000000000000E+000
  0.000000000000000E+000
  0.000000000000000E+000
  0.000000000000000E+000
  0.000000000000000E+000
  0.000000000000000E+000
  0.000000000000000E+000
  0.000000000000000E+000
  0.000000000000000E+000
  0.000000000000000E+000
  0.000000000000000E+000
  0.000000000000000E+000
  0.000000000000000E+000
  0.000000000000000E+000
  0.000000000000000E+000
  0.000000000000000E+000
  0.000000000000000E+000
  0.000000000000000E+000
  0.000000000000000E+000
  0.000000000000000E+000
  0.000000000000000E+000
  0.000000000000000E+000
  0.000000000000000E+000
  0.000000000000000E+000
  0.000000000000000E+000
  0.000000000000000E+000
  0.000000000000000E+000
  0.000000000000000E+000
  0.000000000000000E+000
  0.000000000000000E+000
  0.000000000000000E+000
  0.000000000000000E+000
  0.000000000000000E+000
  0.000000000000000E+000
  0.000000000000000E+000
  0.000000000000000E+000
  0.000000000000000E+000
  0.000000000000000E+000
  0.000000000000000E+000
  0.000000000000000E+000
  0.000000000000000E+000
  0.000000000000000E+000
  0.000000000000000E+000
  0.000000000000000E+000
  0.000000000000000E+000
  0.000000000000000E+000
  0.000000000000000E+000
  0.000000000000000E+000
  0.000000000000000E+000
  0.000000000000000E+000
  0.000000000000000E+000
  0.000000000000000E+000
  0.000000000000000E+000
  0.000000000000000E+000
  0.000000000000000E+000
  0.000000000000000E+000
  0.000000000000000E+000
  0.000000000000000E+000
  0.000000000000000E+000
  0.000000000000000E+000
  0.000000000000000E+000
  0.000000000000000E+000
  0.000000000000000E+000
  0.000000000000000E+000
  0.000000000000000E+000
  0.000000000000000E+000
  0.000000000000000E+000
  0.000000000000000E+000
  0.000000000000000E+000
  0.000000000000000E+000
  0.000000000000000E+000
  0.000000000000000E+000
  0.000000000000000E+000
  0.000000000000000E+000
  0.000000000000000E+000
  0.000000000000000E+000
  0.000000000000000E+000
  0.000000000000000E+000
  0.000000000000000E+000
  0.000000000000000E+000
  0.000000000000000E+000
  0.000000000000000E+000
  0.000000000000000E+000
  0.000000000000000E+000
  0.000000000000000E+000
  0.000000000000000E+000
  0.000000000000000E+000
  0.000000000000000E+000
  0.000000000000000E+000
  0.000000000000000E+000
  0.000000000000000E+000
  0.000000000000000E+000
  0.000000000000000E+000
  0.000000000000000E+000
  0.000000000000000E+000
  0.000000000000000E+000
  0.000000000000000E+000
  0.000000000000000E+000
  0.000000000000000E+000
  0.000000000000000E+000
  0.000000000000000E+000
  0.000000000000000E+000
  0.000000000000000E+000
  0.000000000000000E+000
  0.000000000000000E+000
  0.000000000000000E+000
  0.000000000000000E+000
  0.000000000000000E+000
  0.000000000000000E+000
  0.000000000000000E+000
  0.000000000000000E+000
  0.000000000000000E+000
  0.000000000000000E+000
  0.000000000000000E+000
  0.000000000000000E+000
  0.000000000000000E+000
  0.000000000000000E+000
  0.000000000000000E+000
  0.000000000000000E+000
  0.000000000000000E+000
  0.000000000000000E+000
  0.000000000000000E+000
  0.000000000000000E+000
  0.000000000000000E+000
  0.000000000000000E+000
  0.000000000000000E+000
  0.000000000000000E+000
  0.000000000000000E+000
  0.000000000000000E+000
  0.000000000000000E+000
  0.000000000000000E+000
  0.000000000000000E+000
  0.000000000000000E+000
  0.000000000000000E+000
  0.000000000000000E+000
  0.000000000000000E+000
  0.000000000000000E+000
  0.000000000000000E+000
  0.000000000000000E+000
  0.000000000000000E+000
  0.000000000000000E+000
  0.000000000000000E+000
  0.000000000000000E+000
  0.000000000000000E+000
  0.000000000000000E+000
  0.000000000000000E+000
  0.000000000000000E+000
  0.000000000000000E+000
  0.000000000000000E+000
  0.000000000000000E+000
  0.000000000000000E+000
  0.000000000000000E+000
  0.000000000000000E+000
  0.000000000000000E+000
  0.000000000000000E+000
  0.000000000000000E+000
  0.000000000000000E+000
  0.000000000000000E+000
  0.000000000000000E+000
  0.000000000000000E+000
  0.000000000000000E+000
  0.000000000000000E+000
  0.000000000000000E+000
  0.000000000000000E+000
  0.000000000000000E+000
  0.000000000000000E+000
  0.000000000000000E+000
  0.000000000000000E+000
  0.000000000000000E+000
  0.000000000000000E+000
  0.000000000000000E+000
  0.000000000000000E+000
  0.000000000000000E+000
  0.000000000000000E+000
  0.000000000000000E+000
  0.000000000000000E+000
  0.000000000000000E+000
  0.000000000000000E+000
  0.000000000000000E+000
  0.000000000000000E+000
  0.000000000000000E+000
  0.000000000000000E+000
  0.000000000000000E+000
  0.000000000000000E+000
  0.000000000000000E+000
  0.000000000000000E+000
  0.000000000000000E+000
  0.000000000000000E+000
  0.000000000000000E+000
  0.000000000000000E+000
  0.000000000000000E+000
  0.000000000000000E+000
  0.000000000000000E+000
  0.000000000000000E+000
  0.000000000000000E+000
  0.000000000000000E+000
  0.000000000000000E+000
  0.000000000000000E+000
  0.000000000000000E+000
  0.000000000000000E+000
  0.000000000000000E+000
  0.000000000000000E+000
  0.000000000000000E+000
  0.000000000000000E+000
  0.000000000000000E+000
  0.000000000000000E+000
  0.000000000000000E+000
  0.000000000000000E+000
  0.000000000000000E+000
  0.000000000000000E+000
  0.000000000000000E+000
  0.000000000000000E+000
  0.000000000000000E+000
  0.000000000000000E+000
  0.000000000000000E+000
  0.000000000000000E+000
  0.000000000000000E+000
  0.000000000000000E+000
  0.000000000000000E+000
  0.000000000000000E+000
  0.000000000000000E+000
  0.000000000000000E+000
  0.000000000000000E+000
  0.000000000000000E+000
  0.000000000000000E+000
  0.000000000000000E+000
  0.000000000000000E+000
  0.000000000000000E+000
  0.000000000000000E+000
  0.000000000000000E+000
  0.000000000000000E+000
  0.000000000000000E+000
  0.000000000000000E+000
  0.000000000000000E+000
  0.000000000000000E+000
  0.000000000000000E+000
  0.000000000000000E+000
  0.000000000000000E+000
  0.000000000000000E+000
  0.000000000000000E+000
  0.000000000000000E+000
  0.000000000000000E+000
  0.000000000000000E+000
  0.000000000000000E+000
  0.000000000000000E+000
  0.000000000000000E+000
  0.000000000000000E+000
  0.000000000000000E+000
  0.000000000000000E+000
  0.000000000000000E+000
  0.000000000000000E+000
  0.000000000000000E+000
  0.000000000000000E+000
  0.000000000000000E+000
  0.000000000000000E+000
  0.000000000000000E+000
  0.000000000000000E+000
  0.000000000000000E+000
  0.000000000000000E+000
  0.000000000000000E+000
  0.000000000000000E+000
  0.000000000000000E+000
  0.000000000000000E+000
  0.000000000000000E+000
  0.000000000000000E+000
  0.000000000000000E+000
  0.000000000000000E+000
  0.000000000000000E+000
  0.000000000000000E+000
  0.000000000000000E+000
  0.000000000000000E+000
  0.000000000000000E+000
  0.000000000000000E+000
  0.000000000000000E+000
  0.000000000000000E+000
  0.000000000000000E+000
  0.000000000000000E+000
  0.000000000000000E+000
  0.000000000000000E+000
  0.000000000000000E+000
  0.000000000000000E+000
  0.000000000000000E+000
  0.000000000000000E+000
  0.000000000000000E+000
  0.000000000000000E+000
  0.000000000000000E+000
  0.000000000000000E+000
  0.000000000000000E+000
  0.000000000000000E+000
  0.000000000000000E+000
  0.000000000000000E+000
  0.000000000000000E+000
  0.000000000000000E+000
  0.000000000000000E+000
  0.000000000000000E+000
  0.000000000000000E+000
  0.000000000000000E+000
  0.000000000000000E+000
  0.000000000000000E+000
  0.000000000000000E+000
  0.000000000000000E+000
  0.000000000000000E+000
  0.000000000000000E+000
  0.000000000000000E+000
  0.000000000000000E+000
  0.000000000000000E+000
  0.000000000000000E+000
  0.000000000000000E+000
  0.000000000000000E+000
  0.000000000000000E+000
  0.000000000000000E+000
  0.000000000000000E+000
  0.000000000000000E+000
  0.000000000000000E+000
  0.000000000000000E+000
  0.000000000000000E+000
  0.000000000000000E+000
  0.000000000000000E+000
  0.000000000000000E+000
  0.000000000000000E+000
  0.000000000000000E+000
  0.000000000000000E+000
  0.000000000000000E+000
  0.000000000000000E+000
  0.000000000000000E+000
  0.000000000000000E+000
  0.000000000000000E+000
  0.000000000000000E+000
  0.000000000000000E+000
  0.000000000000000E+000
  0.000000000000000E+000
  0.000000000000000E+000
  0.000000000000000E+000
  0.000000000000000E+000
  0.000000000000000E+000
  0.000000000000000E+000
  0.000000000000000E+000
  0.000000000000000E+000
  0.000000000000000E+000
  0.000000000000000E+000
  0.000000000000000E+000
  0.000000000000000E+000
  0.000000000000000E+000
  0.000000000000000E+000
  0.000000000000000E+000
  0.000000000000000E+000
  0.000000000000000E+000
  0.000000000000000E+000
  0.000000000000000E+000
  0.000000000000000E+000
  0.000000000000000E+000
  0.000000000000000E+000
  0.000000000000000E+000
  0.000000000000000E+000
  0.000000000000000E+000
  0.000000000000000E+000
  0.000000000000000E+000
  0.000000000000000E+000
  0.000000000000000E+000
  0.000000000000000E+000
  0.000000000000000E+000
  0.000000000000000E+000
  0.000000000000000E+000
  0.000000000000000E+000
  0.000000000000000E+000
  0.000000000000000E+000
  0.000000000000000E+000
  0.000000000000000E+000
  0.000000000000000E+000
  0.000000000000000E+000
  0.000000000000000E+000
  0.000000000000000E+000
  0.000000000000000E+000
  0.000000000000000E+000
  0.000000000000000E+000
  0.000000000000000E+000
  0.000000000000000E+000
  0.000000000000000E+000
  0.000000000000000E+000
  0.000000000000000E+000
  0.000000000000000E+000
  0.000000000000000E+000
  0.000000000000000E+000
  0.000000000000000E+000
  0.000000000000000E+000
  0.000000000000000E+000
  0.000000000000000E+000
  0.000000000000000E+000
  0.000000000000000E+000
  0.000000000000000E+000
  0.000000000000000E+000
  0.000000000000000E+000
  0.000000000000000E+000
  0.000000000000000E+000
  0.000000000000000E+000
  0.000000000000000E+000
  0.000000000000000E+000
  0.000000000000000E+000
  0.000000000000000E+000
  0.000000000000000E+000
  0.000000000000000E+000
  0.000000000000000E+000
  0.000000000000000E+000
  0.000000000000000E+000
  0.000000000000000E+000
  0.000000000000000E+000
  0.000000000000000E+000
  0.000000000000000E+000
  0.000000000000000E+000
  0.000000000000000E+000
  0.000000000000000E+000
  0.000000000000000E+000
  0.000000000000000E+000
  0.000000000000000E+000
  0.000000000000000E+000
  0.000000000000000E+000
  0.000000000000000E+000
  0.000000000000000E+000
  0.000000000000000E+000
  0.000000000000000E+000
  0.000000000000000E+000
  0.000000000000000E+000
  0.000000000000000E+000
  0.000000000000000E+000
  0.000000000000000E+000
  0.000000000000000E+000
  0.000000000000000E+000
  0.000000000000000E+000
  0.000000000000000E+000
  0.000000000000000E+000
  0.000000000000000E+000
  0.000000000000000E+000
  0.000000000000000E+000
  0.000000000000000E+000
  0.000000000000000E+000
  0.000000000000000E+000
  0.000000000000000E+000
  0.000000000000000E+000
  0.000000000000000E+000
  0.000000000000000E+000
  0.000000000000000E+000
  0.000000000000000E+000
  0.000000000000000E+000
  0.000000000000000E+000
  0.000000000000000E+000
  0.000000000000000E+000
  0.000000000000000E+000
  0.000000000000000E+000
  0.000000000000000E+000
  0.000000000000000E+000
  0.000000000000000E+000
  0.000000000000000E+000
  0.000000000000000E+000
  0.000000000000000E+000
  0.000000000000000E+000
  0.000000000000000E+000
  0.000000000000000E+000
  0.000000000000000E+000
  0.000000000000000E+000
  0.000000000000000E+000
  0.000000000000000E+000
  0.000000000000000E+000
  0.000000000000000E+000
  0.000000000000000E+000
  0.000000000000000E+000
  0.000000000000000E+000
  0.000000000000000E+000
  0.000000000000000E+000
  0.000000000000000E+000
  0.000000000000000E+000
  0.000000000000000E+000
  0.000000000000000E+000
  0.000000000000000E+000
  0.000000000000000E+000
  0.000000000000000E+000
  0.000000000000000E+000
  0.000000000000000E+000
  0.000000000000000E+000
  0.000000000000000E+000
  0.000000000000000E+000
  0.000000000000000E+000
  0.000000000000000E+000
  0.000000000000000E+000
  0.000000000000000E+000
  0.000000000000000E+000
  0.000000000000000E+000
  0.000000000000000E+000
  0.000000000000000E+000
  0.000000000000000E+000
  0.000000000000000E+000
  0.000000000000000E+000
  0.000000000000000E+000
  0.000000000000000E+000
  0.000000000000000E+000
  0.000000000000000E+000
  0.000000000000000E+000
  0.000000000000000E+000
  0.000000000000000E+000
  0.000000000000000E+000
  0.000000000000000E+000
  0.000000000000000E+000
  0.000000000000000E+000
  0.000000000000000E+000
  0.000000000000000E+000
  0.000000000000000E+000
  0.000000000000000E+000
  0.000000000000000E+000
  0.000000000000000E+000
  0.000000000000000E+000
  0.000000000000000E+000
  0.000000000000000E+000
  0.000000000000000E+000
  0.000000000000000E+000
  0.000000000000000E+000
  0.000000000000000E+000
  0.000000000000000E+000
  0.000000000000000E+000
  0.000000000000000E+000
  0.000000000000000E+000
  0.000000000000000E+000
  0.000000000000000E+000
  0.000000000000000E+000
  0.000000000000000E+000
  0.000000000000000E+000
  0.000000000000000E+000
  0.000000000000000E+000
  0.000000000000000E+000
  0.000000000000000E+000
  0.000000000000000E+000
  0.000000000000000E+000
  0.000000000000000E+000
  0.000000000000000E+000
  0.000000000000000E+000
  0.000000000000000E+000
  0.000000000000000E+000
  0.000000000000000E+000
  0.000000000000000E+000
  0.000000000000000E+000
  0.000000000000000E+000
  0.000000000000000E+000
  0.000000000000000E+000
  0.000000000000000E+000
  0.000000000000000E+000
  0.000000000000000E+000
  0.000000000000000E+000
  0.000000000000000E+000
  0.000000000000000E+000
  0.000000000000000E+000
  0.000000000000000E+000
  0.000000000000000E+000
  0.000000000000000E+000
  0.000000000000000E+000
  0.000000000000000E+000
  0.000000000000000E+000
  0.000000000000000E+000
  0.000000000000000E+000
  0.000000000000000E+000
  0.000000000000000E+000
  0.000000000000000E+000
  0.000000000000000E+000
  0.000000000000000E+000
  0.000000000000000E+000
  0.000000000000000E+000
  0.000000000000000E+000
  0.000000000000000E+000
  0.000000000000000E+000
  0.000000000000000E+000
  0.000000000000000E+000
  0.000000000000000E+000
  0.000000000000000E+000
  0.000000000000000E+000
  0.000000000000000E+000
  0.000000000000000E+000
  0.000000000000000E+000
  0.000000000000000E+000
  0.000000000000000E+000
  0.000000000000000E+000
  0.000000000000000E+000
  0.000000000000000E+000
  0.000000000000000E+000
  0.000000000000000E+000
  0.000000000000000E+000
  0.000000000000000E+000
  0.000000000000000E+000
  0.000000000000000E+000
  0.000000000000000E+000
  0.000000000000000E+000
  0.000000000000000E+000
  0.000000000000000E+000
  0.000000000000000E+000
  0.000000000000000E+000
  0.000000000000000E+000
  0.000000000000000E+000
  0.000000000000000E+000
  0.000000000000000E+000
  0.000000000000000E+000
  0.000000000000000E+000
  0.000000000000000E+000
  0.000000000000000E+000
  0.000000000000000E+000
  0.000000000000000E+000
  0.000000000000000E+000
  0.000000000000000E+000
  0.000000000000000E+000
  0.000000000000000E+000
  0.000000000000000E+000
  0.000000000000000E+000
  0.000000000000000E+000
  0.000000000000000E+000
  0.000000000000000E+000
  0.000000000000000E+000
  0.000000000000000E+000
  0.000000000000000E+000
  0.000000000000000E+000
  0.000000000000000E+000
  0.000000000000000E+000
  0.000000000000000E+000
  0.000000000000000E+000
  0.000000000000000E+000
  0.000000000000000E+000
  0.000000000000000E+000
  0.000000000000000E+000
  0.000000000000000E+000
  0.000000000000000E+000
  0.000000000000000E+000
  0.000000000000000E+000
  0.000000000000000E+000
  0.000000000000000E+000
  0.000000000000000E+000
  0.000000000000000E+000
  0.000000000000000E+000
  0.000000000000000E+000
  0.000000000000000E+000
  0.000000000000000E+000
  0.000000000000000E+000
  0.000000000000000E+000
  0.000000000000000E+000
  0.000000000000000E+000
  0.000000000000000E+000
  0.000000000000000E+000
  0.000000000000000E+000
  0.000000000000000E+000
  0.000000000000000E+000
  0.000000000000000E+000
  0.000000000000000E+000
  0.000000000000000E+000
  0.000000000000000E+000
  0.000000000000000E+000
  0.000000000000000E+000
  0.000000000000000E+000
  0.000000000000000E+000
  0.000000000000000E+000
  0.000000000000000E+000
  0.000000000000000E+000
  0.000000000000000E+000
  0.000000000000000E+000
  0.000000000000000E+000
  0.000000000000000E+000
  0.000000000000000E+000
  0.000000000000000E+000
  0.000000000000000E+000
  0.000000000000000E+000
  0.000000000000000E+000
  0.000000000000000E+000
  0.000000000000000E+000
  0.000000000000000E+000
  0.000000000000000E+000
  0.000000000000000E+000
  0.000000000000000E+000
  0.000000000000000E+000
  0.000000000000000E+000
  0.000000000000000E+000
  0.000000000000000E+000
  0.000000000000000E+000
  0.000000000000000E+000
  0.000000000000000E+000
  0.000000000000000E+000
  0.000000000000000E+000
  0.000000000000000E+000
  0.000000000000000E+000
  0.000000000000000E+000
  0.000000000000000E+000
  0.000000000000000E+000
  0.000000000000000E+000
  0.000000000000000E+000
  0.000000000000000E+000
  0.000000000000000E+000
  0.000000000000000E+000
  0.000000000000000E+000
  0.000000000000000E+000
  0.000000000000000E+000
  0.000000000000000E+000
  0.000000000000000E+000
  0.000000000000000E+000
  0.000000000000000E+000
  0.000000000000000E+000
  0.000000000000000E+000
  0.000000000000000E+000
  0.000000000000000E+000
  0.000000000000000E+000
  0.000000000000000E+000
  0.000000000000000E+000
  0.000000000000000E+000
  0.000000000000000E+000
  0.000000000000000E+000
  0.000000000000000E+000
  0.000000000000000E+000
  0.000000000000000E+000
  0.000000000000000E+000
  0.000000000000000E+000
  0.000000000000000E+000
  0.000000000000000E+000
  0.000000000000000E+000
  0.000000000000000E+000
  0.000000000000000E+000
  0.000000000000000E+000
  0.000000000000000E+000
  0.000000000000000E+000
  0.000000000000000E+000
  0.000000000000000E+000
  0.000000000000000E+000
  0.000000000000000E+000
  0.000000000000000E+000
  0.000000000000000E+000
  0.000000000000000E+000
  0.000000000000000E+000
  0.000000000000000E+000
  0.000000000000000E+000
  0.000000000000000E+000
  0.000000000000000E+000
  0.000000000000000E+000
  0.000000000000000E+000
  0.000000000000000E+000
  0.000000000000000E+000
  0.000000000000000E+000
  0.000000000000000E+000
  0.000000000000000E+000
  0.000000000000000E+000
  0.000000000000000E+000
  0.000000000000000E+000
  0.000000000000000E+000
  0.000000000000000E+000
  0.000000000000000E+000
  0.000000000000000E+000
  0.000000000000000E+000
  0.000000000000000E+000
  0.000000000000000E+000
  0.000000000000000E+000
  0.000000000000000E+000
  0.000000000000000E+000
  0.000000000000000E+000
  0.000000000000000E+000
  0.000000000000000E+000
  0.000000000000000E+000
  0.000000000000000E+000
  0.000000000000000E+000
  0.000000000000000E+000
  0.000000000000000E+000
  0.000000000000000E+000
  0.000000000000000E+000
  0.000000000000000E+000
  0.000000000000000E+000
  0.000000000000000E+000
  0.000000000000000E+000
  0.000000000000000E+000
  0.000000000000000E+000
  0.000000000000000E+000
  0.000000000000000E+000
  0.000000000000000E+000
  0.000000000000000E+000
  0.000000000000000E+000
  0.000000000000000E+000
  0.000000000000000E+000
  0.000000000000000E+000
  0.000000000000000E+000
  0.000000000000000E+000
  0.000000000000000E+000
  0.000000000000000E+000
  0.000000000000000E+000
  0.000000000000000E+000
  0.000000000000000E+000
  0.000000000000000E+000
  0.000000000000000E+000
  0.000000000000000E+000
  0.000000000000000E+000
  0.000000000000000E+000
  0.000000000000000E+000
  0.000000000000000E+000
  0.000000000000000E+000
  0.000000000000000E+000
  0.000000000000000E+000
  0.000000000000000E+000
  0.000000000000000E+000
  0.000000000000000E+000
  0.000000000000000E+000
  0.000000000000000E+000
  0.000000000000000E+000
  0.000000000000000E+000
  0.000000000000000E+000
  0.000000000000000E+000
  0.000000000000000E+000
  0.000000000000000E+000
  0.000000000000000E+000
  0.000000000000000E+000
  0.000000000000000E+000
  0.000000000000000E+000
  0.000000000000000E+000
  0.000000000000000E+000
  0.000000000000000E+000
  0.000000000000000E+000
  0.000000000000000E+000
  0.000000000000000E+000
  0.000000000000000E+000
  0.000000000000000E+000
  0.000000000000000E+000
  0.000000000000000E+000
  0.000000000000000E+000
  0.000000000000000E+000
  0.000000000000000E+000
  0.000000000000000E+000
  0.000000000000000E+000
  0.000000000000000E+000
  0.000000000000000E+000
  0.000000000000000E+000
  0.000000000000000E+000
  0.000000000000000E+000
  0.000000000000000E+000
  0.000000000000000E+000
  0.000000000000000E+000
  0.000000000000000E+000
  0.000000000000000E+000
  0.000000000000000E+000
  0.000000000000000E+000
  0.000000000000000E+000
  0.000000000000000E+000
  0.000000000000000E+000
  0.000000000000000E+000
  0.000000000000000E+000
  0.000000000000000E+000
  0.000000000000000E+000
  0.000000000000000E+000
  0.000000000000000E+000
  0.000000000000000E+000
  0.000000000000000E+000
  0.000000000000000E+000
  0.000000000000000E+000
  0.000000000000000E+000
  0.000000000000000E+000
  0.000000000000000E+000
  0.000000000000000E+000
  0.000000000000000E+000
  0.000000000000000E+000
  0.000000000000000E+000
  0.000000000000000E+000
  0.000000000000000E+000
  0.000000000000000E+000
  0.000000000000000E+000
  0.000000000000000E+000
  0.000000000000000E+000
  0.000000000000000E+000
  0.000000000000000E+000
  0.000000000000000E+000
  0.000000000000000E+000
  0.000000000000000E+000
  0.000000000000000E+000
  0.000000000000000E+000
  0.000000000000000E+000
  0.000000000000000E+000
  0.000000000000000E+000
  0.000000000000000E+000
  0.000000000000000E+000
  0.000000000000000E+000
  0.000000000000000E+000
  0.000000000000000E+000
  0.000000000000000E+000
  0.000000000000000E+000
  0.000000000000000E+000
  0.000000000000000E+000
  0.000000000000000E+000
  0.000000000000000E+000
  0.000000000000000E+000
  0.000000000000000E+000
  0.000000000000000E+000
  0.000000000000000E+000
  0.000000000000000E+000
  0.000000000000000E+000
  0.000000000000000E+000
  0.000000000000000E+000
  0.000000000000000E+000
  0.000000000000000E+000
  0.000000000000000E+000
  0.000000000000000E+000
  0.000000000000000E+000
  0.000000000000000E+000
  0.000000000000000E+000
  0.000000000000000E+000
  0.000000000000000E+000
  0.000000000000000E+000
  0.000000000000000E+000
  0.000000000000000E+000
  0.000000000000000E+000
  0.000000000000000E+000
  0.000000000000000E+000
  0.000000000000000E+000
  0.000000000000000E+000
  0.000000000000000E+000
  0.000000000000000E+000
  0.000000000000000E+000
  0.000000000000000E+000
  0.000000000000000E+000
  0.000000000000000E+000
  0.000000000000000E+000
  0.000000000000000E+000
  0.000000000000000E+000
  0.000000000000000E+000
  0.000000000000000E+000
  0.000000000000000E+000
  0.000000000000000E+000
  0.000000000000000E+000
  0.000000000000000E+000
  0.000000000000000E+000
  0.000000000000000E+000
  0.000000000000000E+000
  0.000000000000000E+000
  0.000000000000000E+000
  0.000000000000000E+000
  0.000000000000000E+000
  0.000000000000000E+000
  0.000000000000000E+000
  0.000000000000000E+000
  0.000000000000000E+000
  0.000000000000000E+000
  0.000000000000000E+000
  0.000000000000000E+000
  0.000000000000000E+000
  0.000000000000000E+000
  0.000000000000000E+000
  0.000000000000000E+000
  0.000000000000000E+000
  0.000000000000000E+000
  0.000000000000000E+000
  0.000000000000000E+000
  0.000000000000000E+000
  0.000000000000000E+000
  0.000000000000000E+000
  0.000000000000000E+000
  0.000000000000000E+000
  0.000000000000000E+000
  0.000000000000000E+000
  0.000000000000000E+000
  0.000000000000000E+000
  0.000000000000000E+000
  0.000000000000000E+000
  0.000000000000000E+000
  0.000000000000000E+000
  0.000000000000000E+000
  0.000000000000000E+000
  0.000000000000000E+000
  0.000000000000000E+000
  0.000000000000000E+000
  0.000000000000000E+000
  0.000000000000000E+000
  0.000000000000000E+000
  0.000000000000000E+000
  0.000000000000000E+000
  0.000000000000000E+000
  0.000000000000000E+000
  0.000000000000000E+000
  0.000000000000000E+000
  0.000000000000000E+000
  0.000000000000000E+000
  0.000000000000000E+000
  0.000000000000000E+000
  0.000000000000000E+000
  0.000000000000000E+000
  0.000000000000000E+000
  0.000000000000000E+000
  0.000000000000000E+000
  0.000000000000000E+000
  0.000000000000000E+000
  0.000000000000000E+000
  0.000000000000000E+000
  0.000000000000000E+000
  0.000000000000000E+000
  0.000000000000000E+000
  0.000000000000000E+000
  0.000000000000000E+000
  0.000000000000000E+000
  0.000000000000000E+000
  0.000000000000000E+000
  0.000000000000000E+000
  0.000000000000000E+000
  0.000000000000000E+000
  0.000000000000000E+000
  0.000000000000000E+000
  0.000000000000000E+000
  0.000000000000000E+000
  0.000000000000000E+000
  0.000000000000000E+000
  0.000000000000000E+000
  0.000000000000000E+000
  0.000000000000000E+000
  0.000000000000000E+000
  0.000000000000000E+000
  0.000000000000000E+000
  0.000000000000000E+000
  0.000000000000000E+000
  0.000000000000000E+000
  0.000000000000000E+000
  0.000000000000000E+000
  0.000000000000000E+000
  0.000000000000000E+000
  0.000000000000000E+000
  0.000000000000000E+000
  0.000000000000000E+000
  0.000000000000000E+000
  0.000000000000000E+000
  0.000000000000000E+000
  0.000000000000000E+000
  0.000000000000000E+000
  0.000000000000000E+000
  0.000000000000000E+000
  0.000000000000000E+000
  0.000000000000000E+000
  0.000000000000000E+000
  0.000000000000000E+000
  0.000000000000000E+000
  0.000000000000000E+000
  0.000000000000000E+000
  0.000000000000000E+000
  0.000000000000000E+000
  0.000000000000000E+000
  0.000000000000000E+000
  0.000000000000000E+000
  0.000000000000000E+000
  0.000000000000000E+000
  0.000000000000000E+000
  0.000000000000000E+000
  0.000000000000000E+000
  0.000000000000000E+000
  0.000000000000000E+000
  0.000000000000000E+000
  0.000000000000000E+000
  0.000000000000000E+000
  0.000000000000000E+000
  0.000000000000000E+000
  0.000000000000000E+000
  0.000000000000000E+000
  0.000000000000000E+000
  0.000000000000000E+000
  0.000000000000000E+000
  0.000000000000000E+000
  0.000000000000000E+000
  0.000000000000000E+000
  0.000000000000000E+000
  0.000000000000000E+000
  0.000000000000000E+000
  0.000000000000000E+000
  0.000000000000000E+000
  0.000000000000000E+000
  0.000000000000000E+000
  0.000000000000000E+000
  0.000000000000000E+000
  0.000000000000000E+000
  0.000000000000000E+000
  0.000000000000000E+000
  0.000000000000000E+000
  0.000000000000000E+000
  0.000000000000000E+000
  0.000000000000000E+000
  0.000000000000000E+000
  0.000000000000000E+000
  0.000000000000000E+000
  0.000000000000000E+000
  0.000000000000000E+000
  0.000000000000000E+000
  0.000000000000000E+000
  0.000000000000000E+000
  0.000000000000000E+000
  0.000000000000000E+000
  0.000000000000000E+000
  0.000000000000000E+000
  0.000000000000000E+000
  0.000000000000000E+000
  0.000000000000000E+000
  0.000000000000000E+000
  0.000000000000000E+000
  0.000000000000000E+000
  0.000000000000000E+000
  0.000000000000000E+000
  0.000000000000000E+000
  0.000000000000000E+000
  0.000000000000000E+000
  0.000000000000000E+000
  0.000000000000000E+000
  0.000000000000000E+000
  0.000000000000000E+000
  0.000000000000000E+000
  0.000000000000000E+000
  0.000000000000000E+000
  0.000000000000000E+000
  0.000000000000000E+000
  0.000000000000000E+000
  0.000000000000000E+000
  0.000000000000000E+000
  0.000000000000000E+000
  0.000000000000000E+000
  0.000000000000000E+000
  0.000000000000000E+000
  0.000000000000000E+000
  0.000000000000000E+000
  0.000000000000000E+000
  0.000000000000000E+000
  0.000000000000000E+000
  0.000000000000000E+000
  0.000000000000000E+000
  0.000000000000000E+000
  0.000000000000000E+000
  0.000000000000000E+000
  0.000000000000000E+000
  0.000000000000000E+000
  0.000000000000000E+000
  0.000000000000000E+000
  0.000000000000000E+000
  0.000000000000000E+000
  0.000000000000000E+000
  0.000000000000000E+000
  0.000000000000000E+000
  0.000000000000000E+000
  0.000000000000000E+000
  0.000000000000000E+000
  0.000000000000000E+000
  0.000000000000000E+000
  0.000000000000000E+000
  0.000000000000000E+000
  0.000000000000000E+000
