# vtk DataFile Version 3.0
vtk output
ASCII
DATASET UNSTRUCTURED_GRID
POINTS      1225 double 
  0.00000000E+00  2.40000000E+01  0.00000000E+00
  0.00000000E+00  2.30000000E+01  0.00000000E+00
  0.00000000E+00  2.20000000E+01  0.00000000E+00
  0.00000000E+00  2.10000000E+01  0.00000000E+00
  0.00000000E+00  2.00000000E+01  0.00000000E+00
  0.00000000E+00  1.90000000E+01  0.00000000E+00
  0.00000000E+00  1.80000000E+01  0.00000000E+00
  0.00000000E+00  1.70000000E+01  0.00000000E+00
  0.00000000E+00  1.60000000E+01  0.00000000E+00
  0.00000000E+00  1.50000000E+01  0.00000000E+00
  0.00000000E+00  1.40000000E+01  0.00000000E+00
  0.00000000E+00  1.30000000E+01  0.00000000E+00
  0.00000000E+00  1.20000000E+01  0.00000000E+00
  0.00000000E+00  1.10000000E+01  0.00000000E+00
  0.00000000E+00  1.00000000E+01  0.00000000E+00
  0.00000000E+00  9.00000000E+00  0.00000000E+00
  0.00000000E+00  8.00000000E+00  0.00000000E+00
  0.00000000E+00  7.00000000E+00  0.00000000E+00
  0.00000000E+00  6.00000000E+00  0.00000000E+00
  0.00000000E+00  5.00000000E+00  0.00000000E+00
  0.00000000E+00  4.00000000E+00  0.00000000E+00
  0.00000000E+00  3.00000000E+00  0.00000000E+00
  0.00000000E+00  2.00000000E+00  0.00000000E+00
  0.00000000E+00  1.00000000E+00  0.00000000E+00
  0.00000000E+00 -2.66453526E-15  0.00000000E+00
  1.00000000E+00  2.40000000E+01  0.00000000E+00
  1.00000000E+00  2.30000000E+01  0.00000000E+00
  1.00000000E+00  2.20000000E+01  0.00000000E+00
  1.00000000E+00  2.10000000E+01  0.00000000E+00
  1.00000000E+00  2.00000000E+01  0.00000000E+00
  1.00000000E+00  1.90000000E+01  0.00000000E+00
  1.00000000E+00  1.80000000E+01  0.00000000E+00
  1.00000000E+00  1.70000000E+01  0.00000000E+00
  1.00000000E+00  1.60000000E+01  0.00000000E+00
  1.00000000E+00  1.50000000E+01  0.00000000E+00
  1.00000000E+00  1.40000000E+01  0.00000000E+00
  1.00000000E+00  1.30000000E+01  0.00000000E+00
  1.00000000E+00  1.20000000E+01  0.00000000E+00
  1.00000000E+00  1.10000000E+01  0.00000000E+00
  1.00000000E+00  1.00000000E+01  0.00000000E+00
  1.00000000E+00  9.00000000E+00  0.00000000E+00
  1.00000000E+00  8.00000000E+00  0.00000000E+00
  1.00000000E+00  7.00000000E+00  0.00000000E+00
  1.00000000E+00  6.00000000E+00  0.00000000E+00
  1.00000000E+00  5.00000000E+00  0.00000000E+00
  1.00000000E+00  4.00000000E+00  0.00000000E+00
  1.00000000E+00  3.00000000E+00  0.00000000E+00
  1.00000000E+00  2.00000000E+00  0.00000000E+00
  1.00000000E+00  1.00000000E+00  0.00000000E+00
  1.00000000E+00 -2.66453526E-15  0.00000000E+00
  2.00000000E+00  2.40000000E+01  0.00000000E+00
  2.00000000E+00  2.30000000E+01  0.00000000E+00
  2.00000000E+00  2.20000000E+01  0.00000000E+00
  2.00000000E+00  2.10000000E+01  0.00000000E+00
  2.00000000E+00  2.00000000E+01  0.00000000E+00
  2.00000000E+00  1.90000000E+01  0.00000000E+00
  2.00000000E+00  1.80000000E+01  0.00000000E+00
  2.00000000E+00  1.70000000E+01  0.00000000E+00
  2.00000000E+00  1.60000000E+01  0.00000000E+00
  2.00000000E+00  1.50000000E+01  0.00000000E+00
  2.00000000E+00  1.40000000E+01  0.00000000E+00
  2.00000000E+00  1.30000000E+01  0.00000000E+00
  2.00000000E+00  1.20000000E+01  0.00000000E+00
  2.00000000E+00  1.10000000E+01  0.00000000E+00
  2.00000000E+00  1.00000000E+01  0.00000000E+00
  2.00000000E+00  9.00000000E+00  0.00000000E+00
  2.00000000E+00  8.00000000E+00  0.00000000E+00
  2.00000000E+00  7.00000000E+00  0.00000000E+00
  2.00000000E+00  6.00000000E+00  0.00000000E+00
  2.00000000E+00  5.00000000E+00  0.00000000E+00
  2.00000000E+00  4.00000000E+00  0.00000000E+00
  2.00000000E+00  3.00000000E+00  0.00000000E+00
  2.00000000E+00  2.00000000E+00  0.00000000E+00
  2.00000000E+00  1.00000000E+00  0.00000000E+00
  2.00000000E+00 -2.66453526E-15  0.00000000E+00
  3.00000000E+00  2.40000000E+01  0.00000000E+00
  3.00000000E+00  2.30000000E+01  0.00000000E+00
  3.00000000E+00  2.20000000E+01  0.00000000E+00
  3.00000000E+00  2.10000000E+01  0.00000000E+00
  3.00000000E+00  2.00000000E+01  0.00000000E+00
  3.00000000E+00  1.90000000E+01  0.00000000E+00
  3.00000000E+00  1.80000000E+01  0.00000000E+00
  3.00000000E+00  1.70000000E+01  0.00000000E+00
  3.00000000E+00  1.60000000E+01  0.00000000E+00
  3.00000000E+00  1.50000000E+01  0.00000000E+00
  3.00000000E+00  1.40000000E+01  0.00000000E+00
  3.00000000E+00  1.30000000E+01  0.00000000E+00
  3.00000000E+00  1.20000000E+01  0.00000000E+00
  3.00000000E+00  1.10000000E+01  0.00000000E+00
  3.00000000E+00  1.00000000E+01  0.00000000E+00
  3.00000000E+00  9.00000000E+00  0.00000000E+00
  3.00000000E+00  8.00000000E+00  0.00000000E+00
  3.00000000E+00  7.00000000E+00  0.00000000E+00
  3.00000000E+00  6.00000000E+00  0.00000000E+00
  3.00000000E+00  5.00000000E+00  0.00000000E+00
  3.00000000E+00  4.00000000E+00  0.00000000E+00
  3.00000000E+00  3.00000000E+00  0.00000000E+00
  3.00000000E+00  2.00000000E+00  0.00000000E+00
  3.00000000E+00  1.00000000E+00  0.00000000E+00
  3.00000000E+00 -2.66453526E-15  0.00000000E+00
  4.00000000E+00  2.40000000E+01  0.00000000E+00
  4.00000000E+00  2.30000000E+01  0.00000000E+00
  4.00000000E+00  2.20000000E+01  0.00000000E+00
  4.00000000E+00  2.10000000E+01  0.00000000E+00
  4.00000000E+00  2.00000000E+01  0.00000000E+00
  4.00000000E+00  1.90000000E+01  0.00000000E+00
  4.00000000E+00  1.80000000E+01  0.00000000E+00
  4.00000000E+00  1.70000000E+01  0.00000000E+00
  4.00000000E+00  1.60000000E+01  0.00000000E+00
  4.00000000E+00  1.50000000E+01  0.00000000E+00
  4.00000000E+00  1.40000000E+01  0.00000000E+00
  4.00000000E+00  1.30000000E+01  0.00000000E+00
  4.00000000E+00  1.20000000E+01  0.00000000E+00
  4.00000000E+00  1.10000000E+01  0.00000000E+00
  4.00000000E+00  1.00000000E+01  0.00000000E+00
  4.00000000E+00  9.00000000E+00  0.00000000E+00
  4.00000000E+00  8.00000000E+00  0.00000000E+00
  4.00000000E+00  7.00000000E+00  0.00000000E+00
  4.00000000E+00  6.00000000E+00  0.00000000E+00
  4.00000000E+00  5.00000000E+00  0.00000000E+00
  4.00000000E+00  4.00000000E+00  0.00000000E+00
  4.00000000E+00  3.00000000E+00  0.00000000E+00
  4.00000000E+00  2.00000000E+00  0.00000000E+00
  4.00000000E+00  1.00000000E+00  0.00000000E+00
  4.00000000E+00 -2.66453526E-15  0.00000000E+00
  5.00000000E+00  2.40000000E+01  0.00000000E+00
  5.00000000E+00  2.30000000E+01  0.00000000E+00
  5.00000000E+00  2.20000000E+01  0.00000000E+00
  5.00000000E+00  2.10000000E+01  0.00000000E+00
  5.00000000E+00  2.00000000E+01  0.00000000E+00
  5.00000000E+00  1.90000000E+01  0.00000000E+00
  5.00000000E+00  1.80000000E+01  0.00000000E+00
  5.00000000E+00  1.70000000E+01  0.00000000E+00
  5.00000000E+00  1.60000000E+01  0.00000000E+00
  5.00000000E+00  1.50000000E+01  0.00000000E+00
  5.00000000E+00  1.40000000E+01  0.00000000E+00
  5.00000000E+00  1.30000000E+01  0.00000000E+00
  5.00000000E+00  1.20000000E+01  0.00000000E+00
  5.00000000E+00  1.10000000E+01  0.00000000E+00
  5.00000000E+00  1.00000000E+01  0.00000000E+00
  5.00000000E+00  9.00000000E+00  0.00000000E+00
  5.00000000E+00  8.00000000E+00  0.00000000E+00
  5.00000000E+00  7.00000000E+00  0.00000000E+00
  5.00000000E+00  6.00000000E+00  0.00000000E+00
  5.00000000E+00  5.00000000E+00  0.00000000E+00
  5.00000000E+00  4.00000000E+00  0.00000000E+00
  5.00000000E+00  3.00000000E+00  0.00000000E+00
  5.00000000E+00  2.00000000E+00  0.00000000E+00
  5.00000000E+00  1.00000000E+00  0.00000000E+00
  5.00000000E+00 -2.66453526E-15  0.00000000E+00
  6.00000000E+00  2.40000000E+01  0.00000000E+00
  6.00000000E+00  2.30000000E+01  0.00000000E+00
  6.00000000E+00  2.20000000E+01  0.00000000E+00
  6.00000000E+00  2.10000000E+01  0.00000000E+00
  6.00000000E+00  2.00000000E+01  0.00000000E+00
  6.00000000E+00  1.90000000E+01  0.00000000E+00
  6.00000000E+00  1.80000000E+01  0.00000000E+00
  6.00000000E+00  1.70000000E+01  0.00000000E+00
  6.00000000E+00  1.60000000E+01  0.00000000E+00
  6.00000000E+00  1.50000000E+01  0.00000000E+00
  6.00000000E+00  1.40000000E+01  0.00000000E+00
  6.00000000E+00  1.30000000E+01  0.00000000E+00
  6.00000000E+00  1.20000000E+01  0.00000000E+00
  6.00000000E+00  1.10000000E+01  0.00000000E+00
  6.00000000E+00  1.00000000E+01  0.00000000E+00
  6.00000000E+00  9.00000000E+00  0.00000000E+00
  6.00000000E+00  8.00000000E+00  0.00000000E+00
  6.00000000E+00  7.00000000E+00  0.00000000E+00
  6.00000000E+00  6.00000000E+00  0.00000000E+00
  6.00000000E+00  5.00000000E+00  0.00000000E+00
  6.00000000E+00  4.00000000E+00  0.00000000E+00
  6.00000000E+00  3.00000000E+00  0.00000000E+00
  6.00000000E+00  2.00000000E+00  0.00000000E+00
  6.00000000E+00  1.00000000E+00  0.00000000E+00
  6.00000000E+00 -2.66453526E-15  0.00000000E+00
  7.00000000E+00  2.40000000E+01  0.00000000E+00
  7.00000000E+00  2.30000000E+01  0.00000000E+00
  7.00000000E+00  2.20000000E+01  0.00000000E+00
  7.00000000E+00  2.10000000E+01  0.00000000E+00
  7.00000000E+00  2.00000000E+01  0.00000000E+00
  7.00000000E+00  1.90000000E+01  0.00000000E+00
  7.00000000E+00  1.80000000E+01  0.00000000E+00
  7.00000000E+00  1.70000000E+01  0.00000000E+00
  7.00000000E+00  1.60000000E+01  0.00000000E+00
  7.00000000E+00  1.50000000E+01  0.00000000E+00
  7.00000000E+00  1.40000000E+01  0.00000000E+00
  7.00000000E+00  1.30000000E+01  0.00000000E+00
  7.00000000E+00  1.20000000E+01  0.00000000E+00
  7.00000000E+00  1.10000000E+01  0.00000000E+00
  7.00000000E+00  1.00000000E+01  0.00000000E+00
  7.00000000E+00  9.00000000E+00  0.00000000E+00
  7.00000000E+00  8.00000000E+00  0.00000000E+00
  7.00000000E+00  7.00000000E+00  0.00000000E+00
  7.00000000E+00  6.00000000E+00  0.00000000E+00
  7.00000000E+00  5.00000000E+00  0.00000000E+00
  7.00000000E+00  4.00000000E+00  0.00000000E+00
  7.00000000E+00  3.00000000E+00  0.00000000E+00
  7.00000000E+00  2.00000000E+00  0.00000000E+00
  7.00000000E+00  1.00000000E+00  0.00000000E+00
  7.00000000E+00 -2.66453526E-15  0.00000000E+00
  8.00000000E+00  2.40000000E+01  0.00000000E+00
  8.00000000E+00  2.30000000E+01  0.00000000E+00
  8.00000000E+00  2.20000000E+01  0.00000000E+00
  8.00000000E+00  2.10000000E+01  0.00000000E+00
  8.00000000E+00  2.00000000E+01  0.00000000E+00
  8.00000000E+00  1.90000000E+01  0.00000000E+00
  8.00000000E+00  1.80000000E+01  0.00000000E+00
  8.00000000E+00  1.70000000E+01  0.00000000E+00
  8.00000000E+00  1.60000000E+01  0.00000000E+00
  8.00000000E+00  1.50000000E+01  0.00000000E+00
  8.00000000E+00  1.40000000E+01  0.00000000E+00
  8.00000000E+00  1.30000000E+01  0.00000000E+00
  8.00000000E+00  1.20000000E+01  0.00000000E+00
  8.00000000E+00  1.10000000E+01  0.00000000E+00
  8.00000000E+00  1.00000000E+01  0.00000000E+00
  8.00000000E+00  9.00000000E+00  0.00000000E+00
  8.00000000E+00  8.00000000E+00  0.00000000E+00
  8.00000000E+00  7.00000000E+00  0.00000000E+00
  8.00000000E+00  6.00000000E+00  0.00000000E+00
  8.00000000E+00  5.00000000E+00  0.00000000E+00
  8.00000000E+00  4.00000000E+00  0.00000000E+00
  8.00000000E+00  3.00000000E+00  0.00000000E+00
  8.00000000E+00  2.00000000E+00  0.00000000E+00
  8.00000000E+00  1.00000000E+00  0.00000000E+00
  8.00000000E+00 -2.66453526E-15  0.00000000E+00
  9.00000000E+00  2.40000000E+01  0.00000000E+00
  9.00000000E+00  2.30000000E+01  0.00000000E+00
  9.00000000E+00  2.20000000E+01  0.00000000E+00
  9.00000000E+00  2.10000000E+01  0.00000000E+00
  9.00000000E+00  2.00000000E+01  0.00000000E+00
  9.00000000E+00  1.90000000E+01  0.00000000E+00
  9.00000000E+00  1.80000000E+01  0.00000000E+00
  9.00000000E+00  1.70000000E+01  0.00000000E+00
  9.00000000E+00  1.60000000E+01  0.00000000E+00
  9.00000000E+00  1.50000000E+01  0.00000000E+00
  9.00000000E+00  1.40000000E+01  0.00000000E+00
  9.00000000E+00  1.30000000E+01  0.00000000E+00
  9.00000000E+00  1.20000000E+01  0.00000000E+00
  9.00000000E+00  1.10000000E+01  0.00000000E+00
  9.00000000E+00  1.00000000E+01  0.00000000E+00
  9.00000000E+00  9.00000000E+00  0.00000000E+00
  9.00000000E+00  8.00000000E+00  0.00000000E+00
  9.00000000E+00  7.00000000E+00  0.00000000E+00
  9.00000000E+00  6.00000000E+00  0.00000000E+00
  9.00000000E+00  5.00000000E+00  0.00000000E+00
  9.00000000E+00  4.00000000E+00  0.00000000E+00
  9.00000000E+00  3.00000000E+00  0.00000000E+00
  9.00000000E+00  2.00000000E+00  0.00000000E+00
  9.00000000E+00  1.00000000E+00  0.00000000E+00
  9.00000000E+00 -2.66453526E-15  0.00000000E+00
  1.00000000E+01  2.40000000E+01  0.00000000E+00
  1.00000000E+01  2.30000000E+01  0.00000000E+00
  1.00000000E+01  2.20000000E+01  0.00000000E+00
  1.00000000E+01  2.10000000E+01  0.00000000E+00
  1.00000000E+01  2.00000000E+01  0.00000000E+00
  1.00000000E+01  1.90000000E+01  0.00000000E+00
  1.00000000E+01  1.80000000E+01  0.00000000E+00
  1.00000000E+01  1.70000000E+01  0.00000000E+00
  1.00000000E+01  1.60000000E+01  0.00000000E+00
  1.00000000E+01  1.50000000E+01  0.00000000E+00
  1.00000000E+01  1.40000000E+01  0.00000000E+00
  1.00000000E+01  1.30000000E+01  0.00000000E+00
  1.00000000E+01  1.20000000E+01  0.00000000E+00
  1.00000000E+01  1.10000000E+01  0.00000000E+00
  1.00000000E+01  1.00000000E+01  0.00000000E+00
  1.00000000E+01  9.00000000E+00  0.00000000E+00
  1.00000000E+01  8.00000000E+00  0.00000000E+00
  1.00000000E+01  7.00000000E+00  0.00000000E+00
  1.00000000E+01  6.00000000E+00  0.00000000E+00
  1.00000000E+01  5.00000000E+00  0.00000000E+00
  1.00000000E+01  4.00000000E+00  0.00000000E+00
  1.00000000E+01  3.00000000E+00  0.00000000E+00
  1.00000000E+01  2.00000000E+00  0.00000000E+00
  1.00000000E+01  1.00000000E+00  0.00000000E+00
  1.00000000E+01 -2.66453526E-15  0.00000000E+00
  1.10000000E+01  2.40000000E+01  0.00000000E+00
  1.10000000E+01  2.30000000E+01  0.00000000E+00
  1.10000000E+01  2.20000000E+01  0.00000000E+00
  1.10000000E+01  2.10000000E+01  0.00000000E+00
  1.10000000E+01  2.00000000E+01  0.00000000E+00
  1.10000000E+01  1.90000000E+01  0.00000000E+00
  1.10000000E+01  1.80000000E+01  0.00000000E+00
  1.10000000E+01  1.70000000E+01  0.00000000E+00
  1.10000000E+01  1.60000000E+01  0.00000000E+00
  1.10000000E+01  1.50000000E+01  0.00000000E+00
  1.10000000E+01  1.40000000E+01  0.00000000E+00
  1.10000000E+01  1.30000000E+01  0.00000000E+00
  1.10000000E+01  1.20000000E+01  0.00000000E+00
  1.10000000E+01  1.10000000E+01  0.00000000E+00
  1.10000000E+01  1.00000000E+01  0.00000000E+00
  1.10000000E+01  9.00000000E+00  0.00000000E+00
  1.10000000E+01  8.00000000E+00  0.00000000E+00
  1.10000000E+01  7.00000000E+00  0.00000000E+00
  1.10000000E+01  6.00000000E+00  0.00000000E+00
  1.10000000E+01  5.00000000E+00  0.00000000E+00
  1.10000000E+01  4.00000000E+00  0.00000000E+00
  1.10000000E+01  3.00000000E+00  0.00000000E+00
  1.10000000E+01  2.00000000E+00  0.00000000E+00
  1.10000000E+01  1.00000000E+00  0.00000000E+00
  1.10000000E+01 -2.66453526E-15  0.00000000E+00
  1.20000000E+01  2.40000000E+01  0.00000000E+00
  1.20000000E+01  2.30000000E+01  0.00000000E+00
  1.20000000E+01  2.20000000E+01  0.00000000E+00
  1.20000000E+01  2.10000000E+01  0.00000000E+00
  1.20000000E+01  2.00000000E+01  0.00000000E+00
  1.20000000E+01  1.90000000E+01  0.00000000E+00
  1.20000000E+01  1.80000000E+01  0.00000000E+00
  1.20000000E+01  1.70000000E+01  0.00000000E+00
  1.20000000E+01  1.60000000E+01  0.00000000E+00
  1.20000000E+01  1.50000000E+01  0.00000000E+00
  1.20000000E+01  1.40000000E+01  0.00000000E+00
  1.20000000E+01  1.30000000E+01  0.00000000E+00
  1.20000000E+01  1.20000000E+01  0.00000000E+00
  1.20000000E+01  1.10000000E+01  0.00000000E+00
  1.20000000E+01  1.00000000E+01  0.00000000E+00
  1.20000000E+01  9.00000000E+00  0.00000000E+00
  1.20000000E+01  8.00000000E+00  0.00000000E+00
  1.20000000E+01  7.00000000E+00  0.00000000E+00
  1.20000000E+01  6.00000000E+00  0.00000000E+00
  1.20000000E+01  5.00000000E+00  0.00000000E+00
  1.20000000E+01  4.00000000E+00  0.00000000E+00
  1.20000000E+01  3.00000000E+00  0.00000000E+00
  1.20000000E+01  2.00000000E+00  0.00000000E+00
  1.20000000E+01  1.00000000E+00  0.00000000E+00
  1.20000000E+01 -2.66453526E-15  0.00000000E+00
  1.30000000E+01  2.40000000E+01  0.00000000E+00
  1.30000000E+01  2.30000000E+01  0.00000000E+00
  1.30000000E+01  2.20000000E+01  0.00000000E+00
  1.30000000E+01  2.10000000E+01  0.00000000E+00
  1.30000000E+01  2.00000000E+01  0.00000000E+00
  1.30000000E+01  1.90000000E+01  0.00000000E+00
  1.30000000E+01  1.80000000E+01  0.00000000E+00
  1.30000000E+01  1.70000000E+01  0.00000000E+00
  1.30000000E+01  1.60000000E+01  0.00000000E+00
  1.30000000E+01  1.50000000E+01  0.00000000E+00
  1.30000000E+01  1.40000000E+01  0.00000000E+00
  1.30000000E+01  1.30000000E+01  0.00000000E+00
  1.30000000E+01  1.20000000E+01  0.00000000E+00
  1.30000000E+01  1.10000000E+01  0.00000000E+00
  1.30000000E+01  1.00000000E+01  0.00000000E+00
  1.30000000E+01  9.00000000E+00  0.00000000E+00
  1.30000000E+01  8.00000000E+00  0.00000000E+00
  1.30000000E+01  7.00000000E+00  0.00000000E+00
  1.30000000E+01  6.00000000E+00  0.00000000E+00
  1.30000000E+01  5.00000000E+00  0.00000000E+00
  1.30000000E+01  4.00000000E+00  0.00000000E+00
  1.30000000E+01  3.00000000E+00  0.00000000E+00
  1.30000000E+01  2.00000000E+00  0.00000000E+00
  1.30000000E+01  1.00000000E+00  0.00000000E+00
  1.30000000E+01 -2.66453526E-15  0.00000000E+00
  1.40000000E+01  2.40000000E+01  0.00000000E+00
  1.40000000E+01  2.30000000E+01  0.00000000E+00
  1.40000000E+01  2.20000000E+01  0.00000000E+00
  1.40000000E+01  2.10000000E+01  0.00000000E+00
  1.40000000E+01  2.00000000E+01  0.00000000E+00
  1.40000000E+01  1.90000000E+01  0.00000000E+00
  1.40000000E+01  1.80000000E+01  0.00000000E+00
  1.40000000E+01  1.70000000E+01  0.00000000E+00
  1.40000000E+01  1.60000000E+01  0.00000000E+00
  1.40000000E+01  1.50000000E+01  0.00000000E+00
  1.40000000E+01  1.40000000E+01  0.00000000E+00
  1.40000000E+01  1.30000000E+01  0.00000000E+00
  1.40000000E+01  1.20000000E+01  0.00000000E+00
  1.40000000E+01  1.10000000E+01  0.00000000E+00
  1.40000000E+01  1.00000000E+01  0.00000000E+00
  1.40000000E+01  9.00000000E+00  0.00000000E+00
  1.40000000E+01  8.00000000E+00  0.00000000E+00
  1.40000000E+01  7.00000000E+00  0.00000000E+00
  1.40000000E+01  6.00000000E+00  0.00000000E+00
  1.40000000E+01  5.00000000E+00  0.00000000E+00
  1.40000000E+01  4.00000000E+00  0.00000000E+00
  1.40000000E+01  3.00000000E+00  0.00000000E+00
  1.40000000E+01  2.00000000E+00  0.00000000E+00
  1.40000000E+01  1.00000000E+00  0.00000000E+00
  1.40000000E+01 -2.66453526E-15  0.00000000E+00
  1.50000000E+01  2.40000000E+01  0.00000000E+00
  1.50000000E+01  2.30000000E+01  0.00000000E+00
  1.50000000E+01  2.20000000E+01  0.00000000E+00
  1.50000000E+01  2.10000000E+01  0.00000000E+00
  1.50000000E+01  2.00000000E+01  0.00000000E+00
  1.50000000E+01  1.90000000E+01  0.00000000E+00
  1.50000000E+01  1.80000000E+01  0.00000000E+00
  1.50000000E+01  1.70000000E+01  0.00000000E+00
  1.50000000E+01  1.60000000E+01  0.00000000E+00
  1.50000000E+01  1.50000000E+01  0.00000000E+00
  1.50000000E+01  1.40000000E+01  0.00000000E+00
  1.50000000E+01  1.30000000E+01  0.00000000E+00
  1.50000000E+01  1.20000000E+01  0.00000000E+00
  1.50000000E+01  1.10000000E+01  0.00000000E+00
  1.50000000E+01  1.00000000E+01  0.00000000E+00
  1.50000000E+01  9.00000000E+00  0.00000000E+00
  1.50000000E+01  8.00000000E+00  0.00000000E+00
  1.50000000E+01  7.00000000E+00  0.00000000E+00
  1.50000000E+01  6.00000000E+00  0.00000000E+00
  1.50000000E+01  5.00000000E+00  0.00000000E+00
  1.50000000E+01  4.00000000E+00  0.00000000E+00
  1.50000000E+01  3.00000000E+00  0.00000000E+00
  1.50000000E+01  2.00000000E+00  0.00000000E+00
  1.50000000E+01  1.00000000E+00  0.00000000E+00
  1.50000000E+01 -2.66453526E-15  0.00000000E+00
  1.60000000E+01  2.40000000E+01  0.00000000E+00
  1.60000000E+01  2.30000000E+01  0.00000000E+00
  1.60000000E+01  2.20000000E+01  0.00000000E+00
  1.60000000E+01  2.10000000E+01  0.00000000E+00
  1.60000000E+01  2.00000000E+01  0.00000000E+00
  1.60000000E+01  1.90000000E+01  0.00000000E+00
  1.60000000E+01  1.80000000E+01  0.00000000E+00
  1.60000000E+01  1.70000000E+01  0.00000000E+00
  1.60000000E+01  1.60000000E+01  0.00000000E+00
  1.60000000E+01  1.50000000E+01  0.00000000E+00
  1.60000000E+01  1.40000000E+01  0.00000000E+00
  1.60000000E+01  1.30000000E+01  0.00000000E+00
  1.60000000E+01  1.20000000E+01  0.00000000E+00
  1.60000000E+01  1.10000000E+01  0.00000000E+00
  1.60000000E+01  1.00000000E+01  0.00000000E+00
  1.60000000E+01  9.00000000E+00  0.00000000E+00
  1.60000000E+01  8.00000000E+00  0.00000000E+00
  1.60000000E+01  7.00000000E+00  0.00000000E+00
  1.60000000E+01  6.00000000E+00  0.00000000E+00
  1.60000000E+01  5.00000000E+00  0.00000000E+00
  1.60000000E+01  4.00000000E+00  0.00000000E+00
  1.60000000E+01  3.00000000E+00  0.00000000E+00
  1.60000000E+01  2.00000000E+00  0.00000000E+00
  1.60000000E+01  1.00000000E+00  0.00000000E+00
  1.60000000E+01 -2.66453526E-15  0.00000000E+00
  1.70000000E+01  2.40000000E+01  0.00000000E+00
  1.70000000E+01  2.30000000E+01  0.00000000E+00
  1.70000000E+01  2.20000000E+01  0.00000000E+00
  1.70000000E+01  2.10000000E+01  0.00000000E+00
  1.70000000E+01  2.00000000E+01  0.00000000E+00
  1.70000000E+01  1.90000000E+01  0.00000000E+00
  1.70000000E+01  1.80000000E+01  0.00000000E+00
  1.70000000E+01  1.70000000E+01  0.00000000E+00
  1.70000000E+01  1.60000000E+01  0.00000000E+00
  1.70000000E+01  1.50000000E+01  0.00000000E+00
  1.70000000E+01  1.40000000E+01  0.00000000E+00
  1.70000000E+01  1.30000000E+01  0.00000000E+00
  1.70000000E+01  1.20000000E+01  0.00000000E+00
  1.70000000E+01  1.10000000E+01  0.00000000E+00
  1.70000000E+01  1.00000000E+01  0.00000000E+00
  1.70000000E+01  9.00000000E+00  0.00000000E+00
  1.70000000E+01  8.00000000E+00  0.00000000E+00
  1.70000000E+01  7.00000000E+00  0.00000000E+00
  1.70000000E+01  6.00000000E+00  0.00000000E+00
  1.70000000E+01  5.00000000E+00  0.00000000E+00
  1.70000000E+01  4.00000000E+00  0.00000000E+00
  1.70000000E+01  3.00000000E+00  0.00000000E+00
  1.70000000E+01  2.00000000E+00  0.00000000E+00
  1.70000000E+01  1.00000000E+00  0.00000000E+00
  1.70000000E+01 -2.66453526E-15  0.00000000E+00
  1.80000000E+01  2.40000000E+01  0.00000000E+00
  1.80000000E+01  2.30000000E+01  0.00000000E+00
  1.80000000E+01  2.20000000E+01  0.00000000E+00
  1.80000000E+01  2.10000000E+01  0.00000000E+00
  1.80000000E+01  2.00000000E+01  0.00000000E+00
  1.80000000E+01  1.90000000E+01  0.00000000E+00
  1.80000000E+01  1.80000000E+01  0.00000000E+00
  1.80000000E+01  1.70000000E+01  0.00000000E+00
  1.80000000E+01  1.60000000E+01  0.00000000E+00
  1.80000000E+01  1.50000000E+01  0.00000000E+00
  1.80000000E+01  1.40000000E+01  0.00000000E+00
  1.80000000E+01  1.30000000E+01  0.00000000E+00
  1.80000000E+01  1.20000000E+01  0.00000000E+00
  1.80000000E+01  1.10000000E+01  0.00000000E+00
  1.80000000E+01  1.00000000E+01  0.00000000E+00
  1.80000000E+01  9.00000000E+00  0.00000000E+00
  1.80000000E+01  8.00000000E+00  0.00000000E+00
  1.80000000E+01  7.00000000E+00  0.00000000E+00
  1.80000000E+01  6.00000000E+00  0.00000000E+00
  1.80000000E+01  5.00000000E+00  0.00000000E+00
  1.80000000E+01  4.00000000E+00  0.00000000E+00
  1.80000000E+01  3.00000000E+00  0.00000000E+00
  1.80000000E+01  2.00000000E+00  0.00000000E+00
  1.80000000E+01  1.00000000E+00  0.00000000E+00
  1.80000000E+01 -2.66453526E-15  0.00000000E+00
  1.90000000E+01  2.40000000E+01  0.00000000E+00
  1.90000000E+01  2.30000000E+01  0.00000000E+00
  1.90000000E+01  2.20000000E+01  0.00000000E+00
  1.90000000E+01  2.10000000E+01  0.00000000E+00
  1.90000000E+01  2.00000000E+01  0.00000000E+00
  1.90000000E+01  1.90000000E+01  0.00000000E+00
  1.90000000E+01  1.80000000E+01  0.00000000E+00
  1.90000000E+01  1.70000000E+01  0.00000000E+00
  1.90000000E+01  1.60000000E+01  0.00000000E+00
  1.90000000E+01  1.50000000E+01  0.00000000E+00
  1.90000000E+01  1.40000000E+01  0.00000000E+00
  1.90000000E+01  1.30000000E+01  0.00000000E+00
  1.90000000E+01  1.20000000E+01  0.00000000E+00
  1.90000000E+01  1.10000000E+01  0.00000000E+00
  1.90000000E+01  1.00000000E+01  0.00000000E+00
  1.90000000E+01  9.00000000E+00  0.00000000E+00
  1.90000000E+01  8.00000000E+00  0.00000000E+00
  1.90000000E+01  7.00000000E+00  0.00000000E+00
  1.90000000E+01  6.00000000E+00  0.00000000E+00
  1.90000000E+01  5.00000000E+00  0.00000000E+00
  1.90000000E+01  4.00000000E+00  0.00000000E+00
  1.90000000E+01  3.00000000E+00  0.00000000E+00
  1.90000000E+01  2.00000000E+00  0.00000000E+00
  1.90000000E+01  1.00000000E+00  0.00000000E+00
  1.90000000E+01 -2.66453526E-15  0.00000000E+00
  2.00000000E+01  2.40000000E+01  0.00000000E+00
  2.00000000E+01  2.30000000E+01  0.00000000E+00
  2.00000000E+01  2.20000000E+01  0.00000000E+00
  2.00000000E+01  2.10000000E+01  0.00000000E+00
  2.00000000E+01  2.00000000E+01  0.00000000E+00
  2.00000000E+01  1.90000000E+01  0.00000000E+00
  2.00000000E+01  1.80000000E+01  0.00000000E+00
  2.00000000E+01  1.70000000E+01  0.00000000E+00
  2.00000000E+01  1.60000000E+01  0.00000000E+00
  2.00000000E+01  1.50000000E+01  0.00000000E+00
  2.00000000E+01  1.40000000E+01  0.00000000E+00
  2.00000000E+01  1.30000000E+01  0.00000000E+00
  2.00000000E+01  1.20000000E+01  0.00000000E+00
  2.00000000E+01  1.10000000E+01  0.00000000E+00
  2.00000000E+01  1.00000000E+01  0.00000000E+00
  2.00000000E+01  9.00000000E+00  0.00000000E+00
  2.00000000E+01  8.00000000E+00  0.00000000E+00
  2.00000000E+01  7.00000000E+00  0.00000000E+00
  2.00000000E+01  6.00000000E+00  0.00000000E+00
  2.00000000E+01  5.00000000E+00  0.00000000E+00
  2.00000000E+01  4.00000000E+00  0.00000000E+00
  2.00000000E+01  3.00000000E+00  0.00000000E+00
  2.00000000E+01  2.00000000E+00  0.00000000E+00
  2.00000000E+01  1.00000000E+00  0.00000000E+00
  2.00000000E+01 -2.66453526E-15  0.00000000E+00
  2.10000000E+01  2.40000000E+01  0.00000000E+00
  2.10000000E+01  2.30000000E+01  0.00000000E+00
  2.10000000E+01  2.20000000E+01  0.00000000E+00
  2.10000000E+01  2.10000000E+01  0.00000000E+00
  2.10000000E+01  2.00000000E+01  0.00000000E+00
  2.10000000E+01  1.90000000E+01  0.00000000E+00
  2.10000000E+01  1.80000000E+01  0.00000000E+00
  2.10000000E+01  1.70000000E+01  0.00000000E+00
  2.10000000E+01  1.60000000E+01  0.00000000E+00
  2.10000000E+01  1.50000000E+01  0.00000000E+00
  2.10000000E+01  1.40000000E+01  0.00000000E+00
  2.10000000E+01  1.30000000E+01  0.00000000E+00
  2.10000000E+01  1.20000000E+01  0.00000000E+00
  2.10000000E+01  1.10000000E+01  0.00000000E+00
  2.10000000E+01  1.00000000E+01  0.00000000E+00
  2.10000000E+01  9.00000000E+00  0.00000000E+00
  2.10000000E+01  8.00000000E+00  0.00000000E+00
  2.10000000E+01  7.00000000E+00  0.00000000E+00
  2.10000000E+01  6.00000000E+00  0.00000000E+00
  2.10000000E+01  5.00000000E+00  0.00000000E+00
  2.10000000E+01  4.00000000E+00  0.00000000E+00
  2.10000000E+01  3.00000000E+00  0.00000000E+00
  2.10000000E+01  2.00000000E+00  0.00000000E+00
  2.10000000E+01  1.00000000E+00  0.00000000E+00
  2.10000000E+01 -2.66453526E-15  0.00000000E+00
  2.20000000E+01  2.40000000E+01  0.00000000E+00
  2.20000000E+01  2.30000000E+01  0.00000000E+00
  2.20000000E+01  2.20000000E+01  0.00000000E+00
  2.20000000E+01  2.10000000E+01  0.00000000E+00
  2.20000000E+01  2.00000000E+01  0.00000000E+00
  2.20000000E+01  1.90000000E+01  0.00000000E+00
  2.20000000E+01  1.80000000E+01  0.00000000E+00
  2.20000000E+01  1.70000000E+01  0.00000000E+00
  2.20000000E+01  1.60000000E+01  0.00000000E+00
  2.20000000E+01  1.50000000E+01  0.00000000E+00
  2.20000000E+01  1.40000000E+01  0.00000000E+00
  2.20000000E+01  1.30000000E+01  0.00000000E+00
  2.20000000E+01  1.20000000E+01  0.00000000E+00
  2.20000000E+01  1.10000000E+01  0.00000000E+00
  2.20000000E+01  1.00000000E+01  0.00000000E+00
  2.20000000E+01  9.00000000E+00  0.00000000E+00
  2.20000000E+01  8.00000000E+00  0.00000000E+00
  2.20000000E+01  7.00000000E+00  0.00000000E+00
  2.20000000E+01  6.00000000E+00  0.00000000E+00
  2.20000000E+01  5.00000000E+00  0.00000000E+00
  2.20000000E+01  4.00000000E+00  0.00000000E+00
  2.20000000E+01  3.00000000E+00  0.00000000E+00
  2.20000000E+01  2.00000000E+00  0.00000000E+00
  2.20000000E+01  1.00000000E+00  0.00000000E+00
  2.20000000E+01 -2.66453526E-15  0.00000000E+00
  2.30000000E+01  2.40000000E+01  0.00000000E+00
  2.30000000E+01  2.30000000E+01  0.00000000E+00
  2.30000000E+01  2.20000000E+01  0.00000000E+00
  2.30000000E+01  2.10000000E+01  0.00000000E+00
  2.30000000E+01  2.00000000E+01  0.00000000E+00
  2.30000000E+01  1.90000000E+01  0.00000000E+00
  2.30000000E+01  1.80000000E+01  0.00000000E+00
  2.30000000E+01  1.70000000E+01  0.00000000E+00
  2.30000000E+01  1.60000000E+01  0.00000000E+00
  2.30000000E+01  1.50000000E+01  0.00000000E+00
  2.30000000E+01  1.40000000E+01  0.00000000E+00
  2.30000000E+01  1.30000000E+01  0.00000000E+00
  2.30000000E+01  1.20000000E+01  0.00000000E+00
  2.30000000E+01  1.10000000E+01  0.00000000E+00
  2.30000000E+01  1.00000000E+01  0.00000000E+00
  2.30000000E+01  9.00000000E+00  0.00000000E+00
  2.30000000E+01  8.00000000E+00  0.00000000E+00
  2.30000000E+01  7.00000000E+00  0.00000000E+00
  2.30000000E+01  6.00000000E+00  0.00000000E+00
  2.30000000E+01  5.00000000E+00  0.00000000E+00
  2.30000000E+01  4.00000000E+00  0.00000000E+00
  2.30000000E+01  3.00000000E+00  0.00000000E+00
  2.30000000E+01  2.00000000E+00  0.00000000E+00
  2.30000000E+01  1.00000000E+00  0.00000000E+00
  2.30000000E+01 -2.66453526E-15  0.00000000E+00
  2.40000000E+01  2.40000000E+01  0.00000000E+00
  2.40000000E+01  2.30000000E+01  0.00000000E+00
  2.40000000E+01  2.20000000E+01  0.00000000E+00
  2.40000000E+01  2.10000000E+01  0.00000000E+00
  2.40000000E+01  2.00000000E+01  0.00000000E+00
  2.40000000E+01  1.90000000E+01  0.00000000E+00
  2.40000000E+01  1.80000000E+01  0.00000000E+00
  2.40000000E+01  1.70000000E+01  0.00000000E+00
  2.40000000E+01  1.60000000E+01  0.00000000E+00
  2.40000000E+01  1.50000000E+01  0.00000000E+00
  2.40000000E+01  1.40000000E+01  0.00000000E+00
  2.40000000E+01  1.30000000E+01  0.00000000E+00
  2.40000000E+01  1.20000000E+01  0.00000000E+00
  2.40000000E+01  1.10000000E+01  0.00000000E+00
  2.40000000E+01  1.00000000E+01  0.00000000E+00
  2.40000000E+01  9.00000000E+00  0.00000000E+00
  2.40000000E+01  8.00000000E+00  0.00000000E+00
  2.40000000E+01  7.00000000E+00  0.00000000E+00
  2.40000000E+01  6.00000000E+00  0.00000000E+00
  2.40000000E+01  5.00000000E+00  0.00000000E+00
  2.40000000E+01  4.00000000E+00  0.00000000E+00
  2.40000000E+01  3.00000000E+00  0.00000000E+00
  2.40000000E+01  2.00000000E+00  0.00000000E+00
  2.40000000E+01  1.00000000E+00  0.00000000E+00
  2.40000000E+01 -2.66453526E-15  0.00000000E+00
  2.50000000E+01  2.40000000E+01  0.00000000E+00
  2.50000000E+01  2.30000000E+01  0.00000000E+00
  2.50000000E+01  2.20000000E+01  0.00000000E+00
  2.50000000E+01  2.10000000E+01  0.00000000E+00
  2.50000000E+01  2.00000000E+01  0.00000000E+00
  2.50000000E+01  1.90000000E+01  0.00000000E+00
  2.50000000E+01  1.80000000E+01  0.00000000E+00
  2.50000000E+01  1.70000000E+01  0.00000000E+00
  2.50000000E+01  1.60000000E+01  0.00000000E+00
  2.50000000E+01  1.50000000E+01  0.00000000E+00
  2.50000000E+01  1.40000000E+01  0.00000000E+00
  2.50000000E+01  1.30000000E+01  0.00000000E+00
  2.50000000E+01  1.20000000E+01  0.00000000E+00
  2.50000000E+01  1.10000000E+01  0.00000000E+00
  2.50000000E+01  1.00000000E+01  0.00000000E+00
  2.50000000E+01  9.00000000E+00  0.00000000E+00
  2.50000000E+01  8.00000000E+00  0.00000000E+00
  2.50000000E+01  7.00000000E+00  0.00000000E+00
  2.50000000E+01  6.00000000E+00  0.00000000E+00
  2.50000000E+01  5.00000000E+00  0.00000000E+00
  2.50000000E+01  4.00000000E+00  0.00000000E+00
  2.50000000E+01  3.00000000E+00  0.00000000E+00
  2.50000000E+01  2.00000000E+00  0.00000000E+00
  2.50000000E+01  1.00000000E+00  0.00000000E+00
  2.50000000E+01 -2.66453526E-15  0.00000000E+00
  2.60000000E+01  2.40000000E+01  0.00000000E+00
  2.60000000E+01  2.30000000E+01  0.00000000E+00
  2.60000000E+01  2.20000000E+01  0.00000000E+00
  2.60000000E+01  2.10000000E+01  0.00000000E+00
  2.60000000E+01  2.00000000E+01  0.00000000E+00
  2.60000000E+01  1.90000000E+01  0.00000000E+00
  2.60000000E+01  1.80000000E+01  0.00000000E+00
  2.60000000E+01  1.70000000E+01  0.00000000E+00
  2.60000000E+01  1.60000000E+01  0.00000000E+00
  2.60000000E+01  1.50000000E+01  0.00000000E+00
  2.60000000E+01  1.40000000E+01  0.00000000E+00
  2.60000000E+01  1.30000000E+01  0.00000000E+00
  2.60000000E+01  1.20000000E+01  0.00000000E+00
  2.60000000E+01  1.10000000E+01  0.00000000E+00
  2.60000000E+01  1.00000000E+01  0.00000000E+00
  2.60000000E+01  9.00000000E+00  0.00000000E+00
  2.60000000E+01  8.00000000E+00  0.00000000E+00
  2.60000000E+01  7.00000000E+00  0.00000000E+00
  2.60000000E+01  6.00000000E+00  0.00000000E+00
  2.60000000E+01  5.00000000E+00  0.00000000E+00
  2.60000000E+01  4.00000000E+00  0.00000000E+00
  2.60000000E+01  3.00000000E+00  0.00000000E+00
  2.60000000E+01  2.00000000E+00  0.00000000E+00
  2.60000000E+01  1.00000000E+00  0.00000000E+00
  2.60000000E+01 -2.66453526E-15  0.00000000E+00
  2.70000000E+01  2.40000000E+01  0.00000000E+00
  2.70000000E+01  2.30000000E+01  0.00000000E+00
  2.70000000E+01  2.20000000E+01  0.00000000E+00
  2.70000000E+01  2.10000000E+01  0.00000000E+00
  2.70000000E+01  2.00000000E+01  0.00000000E+00
  2.70000000E+01  1.90000000E+01  0.00000000E+00
  2.70000000E+01  1.80000000E+01  0.00000000E+00
  2.70000000E+01  1.70000000E+01  0.00000000E+00
  2.70000000E+01  1.60000000E+01  0.00000000E+00
  2.70000000E+01  1.50000000E+01  0.00000000E+00
  2.70000000E+01  1.40000000E+01  0.00000000E+00
  2.70000000E+01  1.30000000E+01  0.00000000E+00
  2.70000000E+01  1.20000000E+01  0.00000000E+00
  2.70000000E+01  1.10000000E+01  0.00000000E+00
  2.70000000E+01  1.00000000E+01  0.00000000E+00
  2.70000000E+01  9.00000000E+00  0.00000000E+00
  2.70000000E+01  8.00000000E+00  0.00000000E+00
  2.70000000E+01  7.00000000E+00  0.00000000E+00
  2.70000000E+01  6.00000000E+00  0.00000000E+00
  2.70000000E+01  5.00000000E+00  0.00000000E+00
  2.70000000E+01  4.00000000E+00  0.00000000E+00
  2.70000000E+01  3.00000000E+00  0.00000000E+00
  2.70000000E+01  2.00000000E+00  0.00000000E+00
  2.70000000E+01  1.00000000E+00  0.00000000E+00
  2.70000000E+01 -2.66453526E-15  0.00000000E+00
  2.80000000E+01  2.40000000E+01  0.00000000E+00
  2.80000000E+01  2.30000000E+01  0.00000000E+00
  2.80000000E+01  2.20000000E+01  0.00000000E+00
  2.80000000E+01  2.10000000E+01  0.00000000E+00
  2.80000000E+01  2.00000000E+01  0.00000000E+00
  2.80000000E+01  1.90000000E+01  0.00000000E+00
  2.80000000E+01  1.80000000E+01  0.00000000E+00
  2.80000000E+01  1.70000000E+01  0.00000000E+00
  2.80000000E+01  1.60000000E+01  0.00000000E+00
  2.80000000E+01  1.50000000E+01  0.00000000E+00
  2.80000000E+01  1.40000000E+01  0.00000000E+00
  2.80000000E+01  1.30000000E+01  0.00000000E+00
  2.80000000E+01  1.20000000E+01  0.00000000E+00
  2.80000000E+01  1.10000000E+01  0.00000000E+00
  2.80000000E+01  1.00000000E+01  0.00000000E+00
  2.80000000E+01  9.00000000E+00  0.00000000E+00
  2.80000000E+01  8.00000000E+00  0.00000000E+00
  2.80000000E+01  7.00000000E+00  0.00000000E+00
  2.80000000E+01  6.00000000E+00  0.00000000E+00
  2.80000000E+01  5.00000000E+00  0.00000000E+00
  2.80000000E+01  4.00000000E+00  0.00000000E+00
  2.80000000E+01  3.00000000E+00  0.00000000E+00
  2.80000000E+01  2.00000000E+00  0.00000000E+00
  2.80000000E+01  1.00000000E+00  0.00000000E+00
  2.80000000E+01 -2.66453526E-15  0.00000000E+00
  2.90000000E+01  2.40000000E+01  0.00000000E+00
  2.90000000E+01  2.30000000E+01  0.00000000E+00
  2.90000000E+01  2.20000000E+01  0.00000000E+00
  2.90000000E+01  2.10000000E+01  0.00000000E+00
  2.90000000E+01  2.00000000E+01  0.00000000E+00
  2.90000000E+01  1.90000000E+01  0.00000000E+00
  2.90000000E+01  1.80000000E+01  0.00000000E+00
  2.90000000E+01  1.70000000E+01  0.00000000E+00
  2.90000000E+01  1.60000000E+01  0.00000000E+00
  2.90000000E+01  1.50000000E+01  0.00000000E+00
  2.90000000E+01  1.40000000E+01  0.00000000E+00
  2.90000000E+01  1.30000000E+01  0.00000000E+00
  2.90000000E+01  1.20000000E+01  0.00000000E+00
  2.90000000E+01  1.10000000E+01  0.00000000E+00
  2.90000000E+01  1.00000000E+01  0.00000000E+00
  2.90000000E+01  9.00000000E+00  0.00000000E+00
  2.90000000E+01  8.00000000E+00  0.00000000E+00
  2.90000000E+01  7.00000000E+00  0.00000000E+00
  2.90000000E+01  6.00000000E+00  0.00000000E+00
  2.90000000E+01  5.00000000E+00  0.00000000E+00
  2.90000000E+01  4.00000000E+00  0.00000000E+00
  2.90000000E+01  3.00000000E+00  0.00000000E+00
  2.90000000E+01  2.00000000E+00  0.00000000E+00
  2.90000000E+01  1.00000000E+00  0.00000000E+00
  2.90000000E+01 -2.66453526E-15  0.00000000E+00
  3.00000000E+01  2.40000000E+01  0.00000000E+00
  3.00000000E+01  2.30000000E+01  0.00000000E+00
  3.00000000E+01  2.20000000E+01  0.00000000E+00
  3.00000000E+01  2.10000000E+01  0.00000000E+00
  3.00000000E+01  2.00000000E+01  0.00000000E+00
  3.00000000E+01  1.90000000E+01  0.00000000E+00
  3.00000000E+01  1.80000000E+01  0.00000000E+00
  3.00000000E+01  1.70000000E+01  0.00000000E+00
  3.00000000E+01  1.60000000E+01  0.00000000E+00
  3.00000000E+01  1.50000000E+01  0.00000000E+00
  3.00000000E+01  1.40000000E+01  0.00000000E+00
  3.00000000E+01  1.30000000E+01  0.00000000E+00
  3.00000000E+01  1.20000000E+01  0.00000000E+00
  3.00000000E+01  1.10000000E+01  0.00000000E+00
  3.00000000E+01  1.00000000E+01  0.00000000E+00
  3.00000000E+01  9.00000000E+00  0.00000000E+00
  3.00000000E+01  8.00000000E+00  0.00000000E+00
  3.00000000E+01  7.00000000E+00  0.00000000E+00
  3.00000000E+01  6.00000000E+00  0.00000000E+00
  3.00000000E+01  5.00000000E+00  0.00000000E+00
  3.00000000E+01  4.00000000E+00  0.00000000E+00
  3.00000000E+01  3.00000000E+00  0.00000000E+00
  3.00000000E+01  2.00000000E+00  0.00000000E+00
  3.00000000E+01  1.00000000E+00  0.00000000E+00
  3.00000000E+01 -2.66453526E-15  0.00000000E+00
  3.10000000E+01  2.40000000E+01  0.00000000E+00
  3.10000000E+01  2.30000000E+01  0.00000000E+00
  3.10000000E+01  2.20000000E+01  0.00000000E+00
  3.10000000E+01  2.10000000E+01  0.00000000E+00
  3.10000000E+01  2.00000000E+01  0.00000000E+00
  3.10000000E+01  1.90000000E+01  0.00000000E+00
  3.10000000E+01  1.80000000E+01  0.00000000E+00
  3.10000000E+01  1.70000000E+01  0.00000000E+00
  3.10000000E+01  1.60000000E+01  0.00000000E+00
  3.10000000E+01  1.50000000E+01  0.00000000E+00
  3.10000000E+01  1.40000000E+01  0.00000000E+00
  3.10000000E+01  1.30000000E+01  0.00000000E+00
  3.10000000E+01  1.20000000E+01  0.00000000E+00
  3.10000000E+01  1.10000000E+01  0.00000000E+00
  3.10000000E+01  1.00000000E+01  0.00000000E+00
  3.10000000E+01  9.00000000E+00  0.00000000E+00
  3.10000000E+01  8.00000000E+00  0.00000000E+00
  3.10000000E+01  7.00000000E+00  0.00000000E+00
  3.10000000E+01  6.00000000E+00  0.00000000E+00
  3.10000000E+01  5.00000000E+00  0.00000000E+00
  3.10000000E+01  4.00000000E+00  0.00000000E+00
  3.10000000E+01  3.00000000E+00  0.00000000E+00
  3.10000000E+01  2.00000000E+00  0.00000000E+00
  3.10000000E+01  1.00000000E+00  0.00000000E+00
  3.10000000E+01 -2.66453526E-15  0.00000000E+00
  3.20000000E+01  2.40000000E+01  0.00000000E+00
  3.20000000E+01  2.30000000E+01  0.00000000E+00
  3.20000000E+01  2.20000000E+01  0.00000000E+00
  3.20000000E+01  2.10000000E+01  0.00000000E+00
  3.20000000E+01  2.00000000E+01  0.00000000E+00
  3.20000000E+01  1.90000000E+01  0.00000000E+00
  3.20000000E+01  1.80000000E+01  0.00000000E+00
  3.20000000E+01  1.70000000E+01  0.00000000E+00
  3.20000000E+01  1.60000000E+01  0.00000000E+00
  3.20000000E+01  1.50000000E+01  0.00000000E+00
  3.20000000E+01  1.40000000E+01  0.00000000E+00
  3.20000000E+01  1.30000000E+01  0.00000000E+00
  3.20000000E+01  1.20000000E+01  0.00000000E+00
  3.20000000E+01  1.10000000E+01  0.00000000E+00
  3.20000000E+01  1.00000000E+01  0.00000000E+00
  3.20000000E+01  9.00000000E+00  0.00000000E+00
  3.20000000E+01  8.00000000E+00  0.00000000E+00
  3.20000000E+01  7.00000000E+00  0.00000000E+00
  3.20000000E+01  6.00000000E+00  0.00000000E+00
  3.20000000E+01  5.00000000E+00  0.00000000E+00
  3.20000000E+01  4.00000000E+00  0.00000000E+00
  3.20000000E+01  3.00000000E+00  0.00000000E+00
  3.20000000E+01  2.00000000E+00  0.00000000E+00
  3.20000000E+01  1.00000000E+00  0.00000000E+00
  3.20000000E+01 -2.66453526E-15  0.00000000E+00
  3.30000000E+01  2.40000000E+01  0.00000000E+00
  3.30000000E+01  2.30000000E+01  0.00000000E+00
  3.30000000E+01  2.20000000E+01  0.00000000E+00
  3.30000000E+01  2.10000000E+01  0.00000000E+00
  3.30000000E+01  2.00000000E+01  0.00000000E+00
  3.30000000E+01  1.90000000E+01  0.00000000E+00
  3.30000000E+01  1.80000000E+01  0.00000000E+00
  3.30000000E+01  1.70000000E+01  0.00000000E+00
  3.30000000E+01  1.60000000E+01  0.00000000E+00
  3.30000000E+01  1.50000000E+01  0.00000000E+00
  3.30000000E+01  1.40000000E+01  0.00000000E+00
  3.30000000E+01  1.30000000E+01  0.00000000E+00
  3.30000000E+01  1.20000000E+01  0.00000000E+00
  3.30000000E+01  1.10000000E+01  0.00000000E+00
  3.30000000E+01  1.00000000E+01  0.00000000E+00
  3.30000000E+01  9.00000000E+00  0.00000000E+00
  3.30000000E+01  8.00000000E+00  0.00000000E+00
  3.30000000E+01  7.00000000E+00  0.00000000E+00
  3.30000000E+01  6.00000000E+00  0.00000000E+00
  3.30000000E+01  5.00000000E+00  0.00000000E+00
  3.30000000E+01  4.00000000E+00  0.00000000E+00
  3.30000000E+01  3.00000000E+00  0.00000000E+00
  3.30000000E+01  2.00000000E+00  0.00000000E+00
  3.30000000E+01  1.00000000E+00  0.00000000E+00
  3.30000000E+01 -2.66453526E-15  0.00000000E+00
  3.40000000E+01  2.40000000E+01  0.00000000E+00
  3.40000000E+01  2.30000000E+01  0.00000000E+00
  3.40000000E+01  2.20000000E+01  0.00000000E+00
  3.40000000E+01  2.10000000E+01  0.00000000E+00
  3.40000000E+01  2.00000000E+01  0.00000000E+00
  3.40000000E+01  1.90000000E+01  0.00000000E+00
  3.40000000E+01  1.80000000E+01  0.00000000E+00
  3.40000000E+01  1.70000000E+01  0.00000000E+00
  3.40000000E+01  1.60000000E+01  0.00000000E+00
  3.40000000E+01  1.50000000E+01  0.00000000E+00
  3.40000000E+01  1.40000000E+01  0.00000000E+00
  3.40000000E+01  1.30000000E+01  0.00000000E+00
  3.40000000E+01  1.20000000E+01  0.00000000E+00
  3.40000000E+01  1.10000000E+01  0.00000000E+00
  3.40000000E+01  1.00000000E+01  0.00000000E+00
  3.40000000E+01  9.00000000E+00  0.00000000E+00
  3.40000000E+01  8.00000000E+00  0.00000000E+00
  3.40000000E+01  7.00000000E+00  0.00000000E+00
  3.40000000E+01  6.00000000E+00  0.00000000E+00
  3.40000000E+01  5.00000000E+00  0.00000000E+00
  3.40000000E+01  4.00000000E+00  0.00000000E+00
  3.40000000E+01  3.00000000E+00  0.00000000E+00
  3.40000000E+01  2.00000000E+00  0.00000000E+00
  3.40000000E+01  1.00000000E+00  0.00000000E+00
  3.40000000E+01 -2.66453526E-15  0.00000000E+00
  3.50000000E+01  2.40000000E+01  0.00000000E+00
  3.50000000E+01  2.30000000E+01  0.00000000E+00
  3.50000000E+01  2.20000000E+01  0.00000000E+00
  3.50000000E+01  2.10000000E+01  0.00000000E+00
  3.50000000E+01  2.00000000E+01  0.00000000E+00
  3.50000000E+01  1.90000000E+01  0.00000000E+00
  3.50000000E+01  1.80000000E+01  0.00000000E+00
  3.50000000E+01  1.70000000E+01  0.00000000E+00
  3.50000000E+01  1.60000000E+01  0.00000000E+00
  3.50000000E+01  1.50000000E+01  0.00000000E+00
  3.50000000E+01  1.40000000E+01  0.00000000E+00
  3.50000000E+01  1.30000000E+01  0.00000000E+00
  3.50000000E+01  1.20000000E+01  0.00000000E+00
  3.50000000E+01  1.10000000E+01  0.00000000E+00
  3.50000000E+01  1.00000000E+01  0.00000000E+00
  3.50000000E+01  9.00000000E+00  0.00000000E+00
  3.50000000E+01  8.00000000E+00  0.00000000E+00
  3.50000000E+01  7.00000000E+00  0.00000000E+00
  3.50000000E+01  6.00000000E+00  0.00000000E+00
  3.50000000E+01  5.00000000E+00  0.00000000E+00
  3.50000000E+01  4.00000000E+00  0.00000000E+00
  3.50000000E+01  3.00000000E+00  0.00000000E+00
  3.50000000E+01  2.00000000E+00  0.00000000E+00
  3.50000000E+01  1.00000000E+00  0.00000000E+00
  3.50000000E+01 -2.66453526E-15  0.00000000E+00
  3.60000000E+01  2.40000000E+01  0.00000000E+00
  3.60000000E+01  2.30000000E+01  0.00000000E+00
  3.60000000E+01  2.20000000E+01  0.00000000E+00
  3.60000000E+01  2.10000000E+01  0.00000000E+00
  3.60000000E+01  2.00000000E+01  0.00000000E+00
  3.60000000E+01  1.90000000E+01  0.00000000E+00
  3.60000000E+01  1.80000000E+01  0.00000000E+00
  3.60000000E+01  1.70000000E+01  0.00000000E+00
  3.60000000E+01  1.60000000E+01  0.00000000E+00
  3.60000000E+01  1.50000000E+01  0.00000000E+00
  3.60000000E+01  1.40000000E+01  0.00000000E+00
  3.60000000E+01  1.30000000E+01  0.00000000E+00
  3.60000000E+01  1.20000000E+01  0.00000000E+00
  3.60000000E+01  1.10000000E+01  0.00000000E+00
  3.60000000E+01  1.00000000E+01  0.00000000E+00
  3.60000000E+01  9.00000000E+00  0.00000000E+00
  3.60000000E+01  8.00000000E+00  0.00000000E+00
  3.60000000E+01  7.00000000E+00  0.00000000E+00
  3.60000000E+01  6.00000000E+00  0.00000000E+00
  3.60000000E+01  5.00000000E+00  0.00000000E+00
  3.60000000E+01  4.00000000E+00  0.00000000E+00
  3.60000000E+01  3.00000000E+00  0.00000000E+00
  3.60000000E+01  2.00000000E+00  0.00000000E+00
  3.60000000E+01  1.00000000E+00  0.00000000E+00
  3.60000000E+01 -2.66453526E-15  0.00000000E+00
  3.70000000E+01  2.40000000E+01  0.00000000E+00
  3.70000000E+01  2.30000000E+01  0.00000000E+00
  3.70000000E+01  2.20000000E+01  0.00000000E+00
  3.70000000E+01  2.10000000E+01  0.00000000E+00
  3.70000000E+01  2.00000000E+01  0.00000000E+00
  3.70000000E+01  1.90000000E+01  0.00000000E+00
  3.70000000E+01  1.80000000E+01  0.00000000E+00
  3.70000000E+01  1.70000000E+01  0.00000000E+00
  3.70000000E+01  1.60000000E+01  0.00000000E+00
  3.70000000E+01  1.50000000E+01  0.00000000E+00
  3.70000000E+01  1.40000000E+01  0.00000000E+00
  3.70000000E+01  1.30000000E+01  0.00000000E+00
  3.70000000E+01  1.20000000E+01  0.00000000E+00
  3.70000000E+01  1.10000000E+01  0.00000000E+00
  3.70000000E+01  1.00000000E+01  0.00000000E+00
  3.70000000E+01  9.00000000E+00  0.00000000E+00
  3.70000000E+01  8.00000000E+00  0.00000000E+00
  3.70000000E+01  7.00000000E+00  0.00000000E+00
  3.70000000E+01  6.00000000E+00  0.00000000E+00
  3.70000000E+01  5.00000000E+00  0.00000000E+00
  3.70000000E+01  4.00000000E+00  0.00000000E+00
  3.70000000E+01  3.00000000E+00  0.00000000E+00
  3.70000000E+01  2.00000000E+00  0.00000000E+00
  3.70000000E+01  1.00000000E+00  0.00000000E+00
  3.70000000E+01 -2.66453526E-15  0.00000000E+00
  3.80000000E+01  2.40000000E+01  0.00000000E+00
  3.80000000E+01  2.30000000E+01  0.00000000E+00
  3.80000000E+01  2.20000000E+01  0.00000000E+00
  3.80000000E+01  2.10000000E+01  0.00000000E+00
  3.80000000E+01  2.00000000E+01  0.00000000E+00
  3.80000000E+01  1.90000000E+01  0.00000000E+00
  3.80000000E+01  1.80000000E+01  0.00000000E+00
  3.80000000E+01  1.70000000E+01  0.00000000E+00
  3.80000000E+01  1.60000000E+01  0.00000000E+00
  3.80000000E+01  1.50000000E+01  0.00000000E+00
  3.80000000E+01  1.40000000E+01  0.00000000E+00
  3.80000000E+01  1.30000000E+01  0.00000000E+00
  3.80000000E+01  1.20000000E+01  0.00000000E+00
  3.80000000E+01  1.10000000E+01  0.00000000E+00
  3.80000000E+01  1.00000000E+01  0.00000000E+00
  3.80000000E+01  9.00000000E+00  0.00000000E+00
  3.80000000E+01  8.00000000E+00  0.00000000E+00
  3.80000000E+01  7.00000000E+00  0.00000000E+00
  3.80000000E+01  6.00000000E+00  0.00000000E+00
  3.80000000E+01  5.00000000E+00  0.00000000E+00
  3.80000000E+01  4.00000000E+00  0.00000000E+00
  3.80000000E+01  3.00000000E+00  0.00000000E+00
  3.80000000E+01  2.00000000E+00  0.00000000E+00
  3.80000000E+01  1.00000000E+00  0.00000000E+00
  3.80000000E+01 -2.66453526E-15  0.00000000E+00
  3.90000000E+01  2.40000000E+01  0.00000000E+00
  3.90000000E+01  2.30000000E+01  0.00000000E+00
  3.90000000E+01  2.20000000E+01  0.00000000E+00
  3.90000000E+01  2.10000000E+01  0.00000000E+00
  3.90000000E+01  2.00000000E+01  0.00000000E+00
  3.90000000E+01  1.90000000E+01  0.00000000E+00
  3.90000000E+01  1.80000000E+01  0.00000000E+00
  3.90000000E+01  1.70000000E+01  0.00000000E+00
  3.90000000E+01  1.60000000E+01  0.00000000E+00
  3.90000000E+01  1.50000000E+01  0.00000000E+00
  3.90000000E+01  1.40000000E+01  0.00000000E+00
  3.90000000E+01  1.30000000E+01  0.00000000E+00
  3.90000000E+01  1.20000000E+01  0.00000000E+00
  3.90000000E+01  1.10000000E+01  0.00000000E+00
  3.90000000E+01  1.00000000E+01  0.00000000E+00
  3.90000000E+01  9.00000000E+00  0.00000000E+00
  3.90000000E+01  8.00000000E+00  0.00000000E+00
  3.90000000E+01  7.00000000E+00  0.00000000E+00
  3.90000000E+01  6.00000000E+00  0.00000000E+00
  3.90000000E+01  5.00000000E+00  0.00000000E+00
  3.90000000E+01  4.00000000E+00  0.00000000E+00
  3.90000000E+01  3.00000000E+00  0.00000000E+00
  3.90000000E+01  2.00000000E+00  0.00000000E+00
  3.90000000E+01  1.00000000E+00  0.00000000E+00
  3.90000000E+01 -2.66453526E-15  0.00000000E+00
  4.00000000E+01  2.40000000E+01  0.00000000E+00
  4.00000000E+01  2.30000000E+01  0.00000000E+00
  4.00000000E+01  2.20000000E+01  0.00000000E+00
  4.00000000E+01  2.10000000E+01  0.00000000E+00
  4.00000000E+01  2.00000000E+01  0.00000000E+00
  4.00000000E+01  1.90000000E+01  0.00000000E+00
  4.00000000E+01  1.80000000E+01  0.00000000E+00
  4.00000000E+01  1.70000000E+01  0.00000000E+00
  4.00000000E+01  1.60000000E+01  0.00000000E+00
  4.00000000E+01  1.50000000E+01  0.00000000E+00
  4.00000000E+01  1.40000000E+01  0.00000000E+00
  4.00000000E+01  1.30000000E+01  0.00000000E+00
  4.00000000E+01  1.20000000E+01  0.00000000E+00
  4.00000000E+01  1.10000000E+01  0.00000000E+00
  4.00000000E+01  1.00000000E+01  0.00000000E+00
  4.00000000E+01  9.00000000E+00  0.00000000E+00
  4.00000000E+01  8.00000000E+00  0.00000000E+00
  4.00000000E+01  7.00000000E+00  0.00000000E+00
  4.00000000E+01  6.00000000E+00  0.00000000E+00
  4.00000000E+01  5.00000000E+00  0.00000000E+00
  4.00000000E+01  4.00000000E+00  0.00000000E+00
  4.00000000E+01  3.00000000E+00  0.00000000E+00
  4.00000000E+01  2.00000000E+00  0.00000000E+00
  4.00000000E+01  1.00000000E+00  0.00000000E+00
  4.00000000E+01 -2.66453526E-15  0.00000000E+00
  4.10000000E+01  2.40000000E+01  0.00000000E+00
  4.10000000E+01  2.30000000E+01  0.00000000E+00
  4.10000000E+01  2.20000000E+01  0.00000000E+00
  4.10000000E+01  2.10000000E+01  0.00000000E+00
  4.10000000E+01  2.00000000E+01  0.00000000E+00
  4.10000000E+01  1.90000000E+01  0.00000000E+00
  4.10000000E+01  1.80000000E+01  0.00000000E+00
  4.10000000E+01  1.70000000E+01  0.00000000E+00
  4.10000000E+01  1.60000000E+01  0.00000000E+00
  4.10000000E+01  1.50000000E+01  0.00000000E+00
  4.10000000E+01  1.40000000E+01  0.00000000E+00
  4.10000000E+01  1.30000000E+01  0.00000000E+00
  4.10000000E+01  1.20000000E+01  0.00000000E+00
  4.10000000E+01  1.10000000E+01  0.00000000E+00
  4.10000000E+01  1.00000000E+01  0.00000000E+00
  4.10000000E+01  9.00000000E+00  0.00000000E+00
  4.10000000E+01  8.00000000E+00  0.00000000E+00
  4.10000000E+01  7.00000000E+00  0.00000000E+00
  4.10000000E+01  6.00000000E+00  0.00000000E+00
  4.10000000E+01  5.00000000E+00  0.00000000E+00
  4.10000000E+01  4.00000000E+00  0.00000000E+00
  4.10000000E+01  3.00000000E+00  0.00000000E+00
  4.10000000E+01  2.00000000E+00  0.00000000E+00
  4.10000000E+01  1.00000000E+00  0.00000000E+00
  4.10000000E+01 -2.66453526E-15  0.00000000E+00
  4.20000000E+01  2.40000000E+01  0.00000000E+00
  4.20000000E+01  2.30000000E+01  0.00000000E+00
  4.20000000E+01  2.20000000E+01  0.00000000E+00
  4.20000000E+01  2.10000000E+01  0.00000000E+00
  4.20000000E+01  2.00000000E+01  0.00000000E+00
  4.20000000E+01  1.90000000E+01  0.00000000E+00
  4.20000000E+01  1.80000000E+01  0.00000000E+00
  4.20000000E+01  1.70000000E+01  0.00000000E+00
  4.20000000E+01  1.60000000E+01  0.00000000E+00
  4.20000000E+01  1.50000000E+01  0.00000000E+00
  4.20000000E+01  1.40000000E+01  0.00000000E+00
  4.20000000E+01  1.30000000E+01  0.00000000E+00
  4.20000000E+01  1.20000000E+01  0.00000000E+00
  4.20000000E+01  1.10000000E+01  0.00000000E+00
  4.20000000E+01  1.00000000E+01  0.00000000E+00
  4.20000000E+01  9.00000000E+00  0.00000000E+00
  4.20000000E+01  8.00000000E+00  0.00000000E+00
  4.20000000E+01  7.00000000E+00  0.00000000E+00
  4.20000000E+01  6.00000000E+00  0.00000000E+00
  4.20000000E+01  5.00000000E+00  0.00000000E+00
  4.20000000E+01  4.00000000E+00  0.00000000E+00
  4.20000000E+01  3.00000000E+00  0.00000000E+00
  4.20000000E+01  2.00000000E+00  0.00000000E+00
  4.20000000E+01  1.00000000E+00  0.00000000E+00
  4.20000000E+01 -2.66453526E-15  0.00000000E+00
  4.30000000E+01  2.40000000E+01  0.00000000E+00
  4.30000000E+01  2.30000000E+01  0.00000000E+00
  4.30000000E+01  2.20000000E+01  0.00000000E+00
  4.30000000E+01  2.10000000E+01  0.00000000E+00
  4.30000000E+01  2.00000000E+01  0.00000000E+00
  4.30000000E+01  1.90000000E+01  0.00000000E+00
  4.30000000E+01  1.80000000E+01  0.00000000E+00
  4.30000000E+01  1.70000000E+01  0.00000000E+00
  4.30000000E+01  1.60000000E+01  0.00000000E+00
  4.30000000E+01  1.50000000E+01  0.00000000E+00
  4.30000000E+01  1.40000000E+01  0.00000000E+00
  4.30000000E+01  1.30000000E+01  0.00000000E+00
  4.30000000E+01  1.20000000E+01  0.00000000E+00
  4.30000000E+01  1.10000000E+01  0.00000000E+00
  4.30000000E+01  1.00000000E+01  0.00000000E+00
  4.30000000E+01  9.00000000E+00  0.00000000E+00
  4.30000000E+01  8.00000000E+00  0.00000000E+00
  4.30000000E+01  7.00000000E+00  0.00000000E+00
  4.30000000E+01  6.00000000E+00  0.00000000E+00
  4.30000000E+01  5.00000000E+00  0.00000000E+00
  4.30000000E+01  4.00000000E+00  0.00000000E+00
  4.30000000E+01  3.00000000E+00  0.00000000E+00
  4.30000000E+01  2.00000000E+00  0.00000000E+00
  4.30000000E+01  1.00000000E+00  0.00000000E+00
  4.30000000E+01 -2.66453526E-15  0.00000000E+00
  4.40000000E+01  2.40000000E+01  0.00000000E+00
  4.40000000E+01  2.30000000E+01  0.00000000E+00
  4.40000000E+01  2.20000000E+01  0.00000000E+00
  4.40000000E+01  2.10000000E+01  0.00000000E+00
  4.40000000E+01  2.00000000E+01  0.00000000E+00
  4.40000000E+01  1.90000000E+01  0.00000000E+00
  4.40000000E+01  1.80000000E+01  0.00000000E+00
  4.40000000E+01  1.70000000E+01  0.00000000E+00
  4.40000000E+01  1.60000000E+01  0.00000000E+00
  4.40000000E+01  1.50000000E+01  0.00000000E+00
  4.40000000E+01  1.40000000E+01  0.00000000E+00
  4.40000000E+01  1.30000000E+01  0.00000000E+00
  4.40000000E+01  1.20000000E+01  0.00000000E+00
  4.40000000E+01  1.10000000E+01  0.00000000E+00
  4.40000000E+01  1.00000000E+01  0.00000000E+00
  4.40000000E+01  9.00000000E+00  0.00000000E+00
  4.40000000E+01  8.00000000E+00  0.00000000E+00
  4.40000000E+01  7.00000000E+00  0.00000000E+00
  4.40000000E+01  6.00000000E+00  0.00000000E+00
  4.40000000E+01  5.00000000E+00  0.00000000E+00
  4.40000000E+01  4.00000000E+00  0.00000000E+00
  4.40000000E+01  3.00000000E+00  0.00000000E+00
  4.40000000E+01  2.00000000E+00  0.00000000E+00
  4.40000000E+01  1.00000000E+00  0.00000000E+00
  4.40000000E+01 -2.66453526E-15  0.00000000E+00
  4.50000000E+01  2.40000000E+01  0.00000000E+00
  4.50000000E+01  2.30000000E+01  0.00000000E+00
  4.50000000E+01  2.20000000E+01  0.00000000E+00
  4.50000000E+01  2.10000000E+01  0.00000000E+00
  4.50000000E+01  2.00000000E+01  0.00000000E+00
  4.50000000E+01  1.90000000E+01  0.00000000E+00
  4.50000000E+01  1.80000000E+01  0.00000000E+00
  4.50000000E+01  1.70000000E+01  0.00000000E+00
  4.50000000E+01  1.60000000E+01  0.00000000E+00
  4.50000000E+01  1.50000000E+01  0.00000000E+00
  4.50000000E+01  1.40000000E+01  0.00000000E+00
  4.50000000E+01  1.30000000E+01  0.00000000E+00
  4.50000000E+01  1.20000000E+01  0.00000000E+00
  4.50000000E+01  1.10000000E+01  0.00000000E+00
  4.50000000E+01  1.00000000E+01  0.00000000E+00
  4.50000000E+01  9.00000000E+00  0.00000000E+00
  4.50000000E+01  8.00000000E+00  0.00000000E+00
  4.50000000E+01  7.00000000E+00  0.00000000E+00
  4.50000000E+01  6.00000000E+00  0.00000000E+00
  4.50000000E+01  5.00000000E+00  0.00000000E+00
  4.50000000E+01  4.00000000E+00  0.00000000E+00
  4.50000000E+01  3.00000000E+00  0.00000000E+00
  4.50000000E+01  2.00000000E+00  0.00000000E+00
  4.50000000E+01  1.00000000E+00  0.00000000E+00
  4.50000000E+01 -2.66453526E-15  0.00000000E+00
  4.60000000E+01  2.40000000E+01  0.00000000E+00
  4.60000000E+01  2.30000000E+01  0.00000000E+00
  4.60000000E+01  2.20000000E+01  0.00000000E+00
  4.60000000E+01  2.10000000E+01  0.00000000E+00
  4.60000000E+01  2.00000000E+01  0.00000000E+00
  4.60000000E+01  1.90000000E+01  0.00000000E+00
  4.60000000E+01  1.80000000E+01  0.00000000E+00
  4.60000000E+01  1.70000000E+01  0.00000000E+00
  4.60000000E+01  1.60000000E+01  0.00000000E+00
  4.60000000E+01  1.50000000E+01  0.00000000E+00
  4.60000000E+01  1.40000000E+01  0.00000000E+00
  4.60000000E+01  1.30000000E+01  0.00000000E+00
  4.60000000E+01  1.20000000E+01  0.00000000E+00
  4.60000000E+01  1.10000000E+01  0.00000000E+00
  4.60000000E+01  1.00000000E+01  0.00000000E+00
  4.60000000E+01  9.00000000E+00  0.00000000E+00
  4.60000000E+01  8.00000000E+00  0.00000000E+00
  4.60000000E+01  7.00000000E+00  0.00000000E+00
  4.60000000E+01  6.00000000E+00  0.00000000E+00
  4.60000000E+01  5.00000000E+00  0.00000000E+00
  4.60000000E+01  4.00000000E+00  0.00000000E+00
  4.60000000E+01  3.00000000E+00  0.00000000E+00
  4.60000000E+01  2.00000000E+00  0.00000000E+00
  4.60000000E+01  1.00000000E+00  0.00000000E+00
  4.60000000E+01 -2.66453526E-15  0.00000000E+00
  4.70000000E+01  2.40000000E+01  0.00000000E+00
  4.70000000E+01  2.30000000E+01  0.00000000E+00
  4.70000000E+01  2.20000000E+01  0.00000000E+00
  4.70000000E+01  2.10000000E+01  0.00000000E+00
  4.70000000E+01  2.00000000E+01  0.00000000E+00
  4.70000000E+01  1.90000000E+01  0.00000000E+00
  4.70000000E+01  1.80000000E+01  0.00000000E+00
  4.70000000E+01  1.70000000E+01  0.00000000E+00
  4.70000000E+01  1.60000000E+01  0.00000000E+00
  4.70000000E+01  1.50000000E+01  0.00000000E+00
  4.70000000E+01  1.40000000E+01  0.00000000E+00
  4.70000000E+01  1.30000000E+01  0.00000000E+00
  4.70000000E+01  1.20000000E+01  0.00000000E+00
  4.70000000E+01  1.10000000E+01  0.00000000E+00
  4.70000000E+01  1.00000000E+01  0.00000000E+00
  4.70000000E+01  9.00000000E+00  0.00000000E+00
  4.70000000E+01  8.00000000E+00  0.00000000E+00
  4.70000000E+01  7.00000000E+00  0.00000000E+00
  4.70000000E+01  6.00000000E+00  0.00000000E+00
  4.70000000E+01  5.00000000E+00  0.00000000E+00
  4.70000000E+01  4.00000000E+00  0.00000000E+00
  4.70000000E+01  3.00000000E+00  0.00000000E+00
  4.70000000E+01  2.00000000E+00  0.00000000E+00
  4.70000000E+01  1.00000000E+00  0.00000000E+00
  4.70000000E+01 -2.66453526E-15  0.00000000E+00
  4.80000000E+01  2.40000000E+01  0.00000000E+00
  4.80000000E+01  2.30000000E+01  0.00000000E+00
  4.80000000E+01  2.20000000E+01  0.00000000E+00
  4.80000000E+01  2.10000000E+01  0.00000000E+00
  4.80000000E+01  2.00000000E+01  0.00000000E+00
  4.80000000E+01  1.90000000E+01  0.00000000E+00
  4.80000000E+01  1.80000000E+01  0.00000000E+00
  4.80000000E+01  1.70000000E+01  0.00000000E+00
  4.80000000E+01  1.60000000E+01  0.00000000E+00
  4.80000000E+01  1.50000000E+01  0.00000000E+00
  4.80000000E+01  1.40000000E+01  0.00000000E+00
  4.80000000E+01  1.30000000E+01  0.00000000E+00
  4.80000000E+01  1.20000000E+01  0.00000000E+00
  4.80000000E+01  1.10000000E+01  0.00000000E+00
  4.80000000E+01  1.00000000E+01  0.00000000E+00
  4.80000000E+01  9.00000000E+00  0.00000000E+00
  4.80000000E+01  8.00000000E+00  0.00000000E+00
  4.80000000E+01  7.00000000E+00  0.00000000E+00
  4.80000000E+01  6.00000000E+00  0.00000000E+00
  4.80000000E+01  5.00000000E+00  0.00000000E+00
  4.80000000E+01  4.00000000E+00  0.00000000E+00
  4.80000000E+01  3.00000000E+00  0.00000000E+00
  4.80000000E+01  2.00000000E+00  0.00000000E+00
  4.80000000E+01  1.00000000E+00  0.00000000E+00
  4.80000000E+01 -2.66453526E-15  0.00000000E+00
CELLS      1152      5760
         4           0           1          26          25
         4           1           2          27          26
         4           2           3          28          27
         4           3           4          29          28
         4           4           5          30          29
         4           5           6          31          30
         4           6           7          32          31
         4           7           8          33          32
         4           8           9          34          33
         4           9          10          35          34
         4          10          11          36          35
         4          11          12          37          36
         4          12          13          38          37
         4          13          14          39          38
         4          14          15          40          39
         4          15          16          41          40
         4          16          17          42          41
         4          17          18          43          42
         4          18          19          44          43
         4          19          20          45          44
         4          20          21          46          45
         4          21          22          47          46
         4          22          23          48          47
         4          23          24          49          48
         4          25          26          51          50
         4          26          27          52          51
         4          27          28          53          52
         4          28          29          54          53
         4          29          30          55          54
         4          30          31          56          55
         4          31          32          57          56
         4          32          33          58          57
         4          33          34          59          58
         4          34          35          60          59
         4          35          36          61          60
         4          36          37          62          61
         4          37          38          63          62
         4          38          39          64          63
         4          39          40          65          64
         4          40          41          66          65
         4          41          42          67          66
         4          42          43          68          67
         4          43          44          69          68
         4          44          45          70          69
         4          45          46          71          70
         4          46          47          72          71
         4          47          48          73          72
         4          48          49          74          73
         4          50          51          76          75
         4          51          52          77          76
         4          52          53          78          77
         4          53          54          79          78
         4          54          55          80          79
         4          55          56          81          80
         4          56          57          82          81
         4          57          58          83          82
         4          58          59          84          83
         4          59          60          85          84
         4          60          61          86          85
         4          61          62          87          86
         4          62          63          88          87
         4          63          64          89          88
         4          64          65          90          89
         4          65          66          91          90
         4          66          67          92          91
         4          67          68          93          92
         4          68          69          94          93
         4          69          70          95          94
         4          70          71          96          95
         4          71          72          97          96
         4          72          73          98          97
         4          73          74          99          98
         4          75          76         101         100
         4          76          77         102         101
         4          77          78         103         102
         4          78          79         104         103
         4          79          80         105         104
         4          80          81         106         105
         4          81          82         107         106
         4          82          83         108         107
         4          83          84         109         108
         4          84          85         110         109
         4          85          86         111         110
         4          86          87         112         111
         4          87          88         113         112
         4          88          89         114         113
         4          89          90         115         114
         4          90          91         116         115
         4          91          92         117         116
         4          92          93         118         117
         4          93          94         119         118
         4          94          95         120         119
         4          95          96         121         120
         4          96          97         122         121
         4          97          98         123         122
         4          98          99         124         123
         4         100         101         126         125
         4         101         102         127         126
         4         102         103         128         127
         4         103         104         129         128
         4         104         105         130         129
         4         105         106         131         130
         4         106         107         132         131
         4         107         108         133         132
         4         108         109         134         133
         4         109         110         135         134
         4         110         111         136         135
         4         111         112         137         136
         4         112         113         138         137
         4         113         114         139         138
         4         114         115         140         139
         4         115         116         141         140
         4         116         117         142         141
         4         117         118         143         142
         4         118         119         144         143
         4         119         120         145         144
         4         120         121         146         145
         4         121         122         147         146
         4         122         123         148         147
         4         123         124         149         148
         4         125         126         151         150
         4         126         127         152         151
         4         127         128         153         152
         4         128         129         154         153
         4         129         130         155         154
         4         130         131         156         155
         4         131         132         157         156
         4         132         133         158         157
         4         133         134         159         158
         4         134         135         160         159
         4         135         136         161         160
         4         136         137         162         161
         4         137         138         163         162
         4         138         139         164         163
         4         139         140         165         164
         4         140         141         166         165
         4         141         142         167         166
         4         142         143         168         167
         4         143         144         169         168
         4         144         145         170         169
         4         145         146         171         170
         4         146         147         172         171
         4         147         148         173         172
         4         148         149         174         173
         4         150         151         176         175
         4         151         152         177         176
         4         152         153         178         177
         4         153         154         179         178
         4         154         155         180         179
         4         155         156         181         180
         4         156         157         182         181
         4         157         158         183         182
         4         158         159         184         183
         4         159         160         185         184
         4         160         161         186         185
         4         161         162         187         186
         4         162         163         188         187
         4         163         164         189         188
         4         164         165         190         189
         4         165         166         191         190
         4         166         167         192         191
         4         167         168         193         192
         4         168         169         194         193
         4         169         170         195         194
         4         170         171         196         195
         4         171         172         197         196
         4         172         173         198         197
         4         173         174         199         198
         4         175         176         201         200
         4         176         177         202         201
         4         177         178         203         202
         4         178         179         204         203
         4         179         180         205         204
         4         180         181         206         205
         4         181         182         207         206
         4         182         183         208         207
         4         183         184         209         208
         4         184         185         210         209
         4         185         186         211         210
         4         186         187         212         211
         4         187         188         213         212
         4         188         189         214         213
         4         189         190         215         214
         4         190         191         216         215
         4         191         192         217         216
         4         192         193         218         217
         4         193         194         219         218
         4         194         195         220         219
         4         195         196         221         220
         4         196         197         222         221
         4         197         198         223         222
         4         198         199         224         223
         4         200         201         226         225
         4         201         202         227         226
         4         202         203         228         227
         4         203         204         229         228
         4         204         205         230         229
         4         205         206         231         230
         4         206         207         232         231
         4         207         208         233         232
         4         208         209         234         233
         4         209         210         235         234
         4         210         211         236         235
         4         211         212         237         236
         4         212         213         238         237
         4         213         214         239         238
         4         214         215         240         239
         4         215         216         241         240
         4         216         217         242         241
         4         217         218         243         242
         4         218         219         244         243
         4         219         220         245         244
         4         220         221         246         245
         4         221         222         247         246
         4         222         223         248         247
         4         223         224         249         248
         4         225         226         251         250
         4         226         227         252         251
         4         227         228         253         252
         4         228         229         254         253
         4         229         230         255         254
         4         230         231         256         255
         4         231         232         257         256
         4         232         233         258         257
         4         233         234         259         258
         4         234         235         260         259
         4         235         236         261         260
         4         236         237         262         261
         4         237         238         263         262
         4         238         239         264         263
         4         239         240         265         264
         4         240         241         266         265
         4         241         242         267         266
         4         242         243         268         267
         4         243         244         269         268
         4         244         245         270         269
         4         245         246         271         270
         4         246         247         272         271
         4         247         248         273         272
         4         248         249         274         273
         4         250         251         276         275
         4         251         252         277         276
         4         252         253         278         277
         4         253         254         279         278
         4         254         255         280         279
         4         255         256         281         280
         4         256         257         282         281
         4         257         258         283         282
         4         258         259         284         283
         4         259         260         285         284
         4         260         261         286         285
         4         261         262         287         286
         4         262         263         288         287
         4         263         264         289         288
         4         264         265         290         289
         4         265         266         291         290
         4         266         267         292         291
         4         267         268         293         292
         4         268         269         294         293
         4         269         270         295         294
         4         270         271         296         295
         4         271         272         297         296
         4         272         273         298         297
         4         273         274         299         298
         4         275         276         301         300
         4         276         277         302         301
         4         277         278         303         302
         4         278         279         304         303
         4         279         280         305         304
         4         280         281         306         305
         4         281         282         307         306
         4         282         283         308         307
         4         283         284         309         308
         4         284         285         310         309
         4         285         286         311         310
         4         286         287         312         311
         4         287         288         313         312
         4         288         289         314         313
         4         289         290         315         314
         4         290         291         316         315
         4         291         292         317         316
         4         292         293         318         317
         4         293         294         319         318
         4         294         295         320         319
         4         295         296         321         320
         4         296         297         322         321
         4         297         298         323         322
         4         298         299         324         323
         4         300         301         326         325
         4         301         302         327         326
         4         302         303         328         327
         4         303         304         329         328
         4         304         305         330         329
         4         305         306         331         330
         4         306         307         332         331
         4         307         308         333         332
         4         308         309         334         333
         4         309         310         335         334
         4         310         311         336         335
         4         311         312         337         336
         4         312         313         338         337
         4         313         314         339         338
         4         314         315         340         339
         4         315         316         341         340
         4         316         317         342         341
         4         317         318         343         342
         4         318         319         344         343
         4         319         320         345         344
         4         320         321         346         345
         4         321         322         347         346
         4         322         323         348         347
         4         323         324         349         348
         4         325         326         351         350
         4         326         327         352         351
         4         327         328         353         352
         4         328         329         354         353
         4         329         330         355         354
         4         330         331         356         355
         4         331         332         357         356
         4         332         333         358         357
         4         333         334         359         358
         4         334         335         360         359
         4         335         336         361         360
         4         336         337         362         361
         4         337         338         363         362
         4         338         339         364         363
         4         339         340         365         364
         4         340         341         366         365
         4         341         342         367         366
         4         342         343         368         367
         4         343         344         369         368
         4         344         345         370         369
         4         345         346         371         370
         4         346         347         372         371
         4         347         348         373         372
         4         348         349         374         373
         4         350         351         376         375
         4         351         352         377         376
         4         352         353         378         377
         4         353         354         379         378
         4         354         355         380         379
         4         355         356         381         380
         4         356         357         382         381
         4         357         358         383         382
         4         358         359         384         383
         4         359         360         385         384
         4         360         361         386         385
         4         361         362         387         386
         4         362         363         388         387
         4         363         364         389         388
         4         364         365         390         389
         4         365         366         391         390
         4         366         367         392         391
         4         367         368         393         392
         4         368         369         394         393
         4         369         370         395         394
         4         370         371         396         395
         4         371         372         397         396
         4         372         373         398         397
         4         373         374         399         398
         4         375         376         401         400
         4         376         377         402         401
         4         377         378         403         402
         4         378         379         404         403
         4         379         380         405         404
         4         380         381         406         405
         4         381         382         407         406
         4         382         383         408         407
         4         383         384         409         408
         4         384         385         410         409
         4         385         386         411         410
         4         386         387         412         411
         4         387         388         413         412
         4         388         389         414         413
         4         389         390         415         414
         4         390         391         416         415
         4         391         392         417         416
         4         392         393         418         417
         4         393         394         419         418
         4         394         395         420         419
         4         395         396         421         420
         4         396         397         422         421
         4         397         398         423         422
         4         398         399         424         423
         4         400         401         426         425
         4         401         402         427         426
         4         402         403         428         427
         4         403         404         429         428
         4         404         405         430         429
         4         405         406         431         430
         4         406         407         432         431
         4         407         408         433         432
         4         408         409         434         433
         4         409         410         435         434
         4         410         411         436         435
         4         411         412         437         436
         4         412         413         438         437
         4         413         414         439         438
         4         414         415         440         439
         4         415         416         441         440
         4         416         417         442         441
         4         417         418         443         442
         4         418         419         444         443
         4         419         420         445         444
         4         420         421         446         445
         4         421         422         447         446
         4         422         423         448         447
         4         423         424         449         448
         4         425         426         451         450
         4         426         427         452         451
         4         427         428         453         452
         4         428         429         454         453
         4         429         430         455         454
         4         430         431         456         455
         4         431         432         457         456
         4         432         433         458         457
         4         433         434         459         458
         4         434         435         460         459
         4         435         436         461         460
         4         436         437         462         461
         4         437         438         463         462
         4         438         439         464         463
         4         439         440         465         464
         4         440         441         466         465
         4         441         442         467         466
         4         442         443         468         467
         4         443         444         469         468
         4         444         445         470         469
         4         445         446         471         470
         4         446         447         472         471
         4         447         448         473         472
         4         448         449         474         473
         4         450         451         476         475
         4         451         452         477         476
         4         452         453         478         477
         4         453         454         479         478
         4         454         455         480         479
         4         455         456         481         480
         4         456         457         482         481
         4         457         458         483         482
         4         458         459         484         483
         4         459         460         485         484
         4         460         461         486         485
         4         461         462         487         486
         4         462         463         488         487
         4         463         464         489         488
         4         464         465         490         489
         4         465         466         491         490
         4         466         467         492         491
         4         467         468         493         492
         4         468         469         494         493
         4         469         470         495         494
         4         470         471         496         495
         4         471         472         497         496
         4         472         473         498         497
         4         473         474         499         498
         4         475         476         501         500
         4         476         477         502         501
         4         477         478         503         502
         4         478         479         504         503
         4         479         480         505         504
         4         480         481         506         505
         4         481         482         507         506
         4         482         483         508         507
         4         483         484         509         508
         4         484         485         510         509
         4         485         486         511         510
         4         486         487         512         511
         4         487         488         513         512
         4         488         489         514         513
         4         489         490         515         514
         4         490         491         516         515
         4         491         492         517         516
         4         492         493         518         517
         4         493         494         519         518
         4         494         495         520         519
         4         495         496         521         520
         4         496         497         522         521
         4         497         498         523         522
         4         498         499         524         523
         4         500         501         526         525
         4         501         502         527         526
         4         502         503         528         527
         4         503         504         529         528
         4         504         505         530         529
         4         505         506         531         530
         4         506         507         532         531
         4         507         508         533         532
         4         508         509         534         533
         4         509         510         535         534
         4         510         511         536         535
         4         511         512         537         536
         4         512         513         538         537
         4         513         514         539         538
         4         514         515         540         539
         4         515         516         541         540
         4         516         517         542         541
         4         517         518         543         542
         4         518         519         544         543
         4         519         520         545         544
         4         520         521         546         545
         4         521         522         547         546
         4         522         523         548         547
         4         523         524         549         548
         4         525         526         551         550
         4         526         527         552         551
         4         527         528         553         552
         4         528         529         554         553
         4         529         530         555         554
         4         530         531         556         555
         4         531         532         557         556
         4         532         533         558         557
         4         533         534         559         558
         4         534         535         560         559
         4         535         536         561         560
         4         536         537         562         561
         4         537         538         563         562
         4         538         539         564         563
         4         539         540         565         564
         4         540         541         566         565
         4         541         542         567         566
         4         542         543         568         567
         4         543         544         569         568
         4         544         545         570         569
         4         545         546         571         570
         4         546         547         572         571
         4         547         548         573         572
         4         548         549         574         573
         4         550         551         576         575
         4         551         552         577         576
         4         552         553         578         577
         4         553         554         579         578
         4         554         555         580         579
         4         555         556         581         580
         4         556         557         582         581
         4         557         558         583         582
         4         558         559         584         583
         4         559         560         585         584
         4         560         561         586         585
         4         561         562         587         586
         4         562         563         588         587
         4         563         564         589         588
         4         564         565         590         589
         4         565         566         591         590
         4         566         567         592         591
         4         567         568         593         592
         4         568         569         594         593
         4         569         570         595         594
         4         570         571         596         595
         4         571         572         597         596
         4         572         573         598         597
         4         573         574         599         598
         4         575         576         601         600
         4         576         577         602         601
         4         577         578         603         602
         4         578         579         604         603
         4         579         580         605         604
         4         580         581         606         605
         4         581         582         607         606
         4         582         583         608         607
         4         583         584         609         608
         4         584         585         610         609
         4         585         586         611         610
         4         586         587         612         611
         4         587         588         613         612
         4         588         589         614         613
         4         589         590         615         614
         4         590         591         616         615
         4         591         592         617         616
         4         592         593         618         617
         4         593         594         619         618
         4         594         595         620         619
         4         595         596         621         620
         4         596         597         622         621
         4         597         598         623         622
         4         598         599         624         623
         4         600         601         626         625
         4         601         602         627         626
         4         602         603         628         627
         4         603         604         629         628
         4         604         605         630         629
         4         605         606         631         630
         4         606         607         632         631
         4         607         608         633         632
         4         608         609         634         633
         4         609         610         635         634
         4         610         611         636         635
         4         611         612         637         636
         4         612         613         638         637
         4         613         614         639         638
         4         614         615         640         639
         4         615         616         641         640
         4         616         617         642         641
         4         617         618         643         642
         4         618         619         644         643
         4         619         620         645         644
         4         620         621         646         645
         4         621         622         647         646
         4         622         623         648         647
         4         623         624         649         648
         4         625         626         651         650
         4         626         627         652         651
         4         627         628         653         652
         4         628         629         654         653
         4         629         630         655         654
         4         630         631         656         655
         4         631         632         657         656
         4         632         633         658         657
         4         633         634         659         658
         4         634         635         660         659
         4         635         636         661         660
         4         636         637         662         661
         4         637         638         663         662
         4         638         639         664         663
         4         639         640         665         664
         4         640         641         666         665
         4         641         642         667         666
         4         642         643         668         667
         4         643         644         669         668
         4         644         645         670         669
         4         645         646         671         670
         4         646         647         672         671
         4         647         648         673         672
         4         648         649         674         673
         4         650         651         676         675
         4         651         652         677         676
         4         652         653         678         677
         4         653         654         679         678
         4         654         655         680         679
         4         655         656         681         680
         4         656         657         682         681
         4         657         658         683         682
         4         658         659         684         683
         4         659         660         685         684
         4         660         661         686         685
         4         661         662         687         686
         4         662         663         688         687
         4         663         664         689         688
         4         664         665         690         689
         4         665         666         691         690
         4         666         667         692         691
         4         667         668         693         692
         4         668         669         694         693
         4         669         670         695         694
         4         670         671         696         695
         4         671         672         697         696
         4         672         673         698         697
         4         673         674         699         698
         4         675         676         701         700
         4         676         677         702         701
         4         677         678         703         702
         4         678         679         704         703
         4         679         680         705         704
         4         680         681         706         705
         4         681         682         707         706
         4         682         683         708         707
         4         683         684         709         708
         4         684         685         710         709
         4         685         686         711         710
         4         686         687         712         711
         4         687         688         713         712
         4         688         689         714         713
         4         689         690         715         714
         4         690         691         716         715
         4         691         692         717         716
         4         692         693         718         717
         4         693         694         719         718
         4         694         695         720         719
         4         695         696         721         720
         4         696         697         722         721
         4         697         698         723         722
         4         698         699         724         723
         4         700         701         726         725
         4         701         702         727         726
         4         702         703         728         727
         4         703         704         729         728
         4         704         705         730         729
         4         705         706         731         730
         4         706         707         732         731
         4         707         708         733         732
         4         708         709         734         733
         4         709         710         735         734
         4         710         711         736         735
         4         711         712         737         736
         4         712         713         738         737
         4         713         714         739         738
         4         714         715         740         739
         4         715         716         741         740
         4         716         717         742         741
         4         717         718         743         742
         4         718         719         744         743
         4         719         720         745         744
         4         720         721         746         745
         4         721         722         747         746
         4         722         723         748         747
         4         723         724         749         748
         4         725         726         751         750
         4         726         727         752         751
         4         727         728         753         752
         4         728         729         754         753
         4         729         730         755         754
         4         730         731         756         755
         4         731         732         757         756
         4         732         733         758         757
         4         733         734         759         758
         4         734         735         760         759
         4         735         736         761         760
         4         736         737         762         761
         4         737         738         763         762
         4         738         739         764         763
         4         739         740         765         764
         4         740         741         766         765
         4         741         742         767         766
         4         742         743         768         767
         4         743         744         769         768
         4         744         745         770         769
         4         745         746         771         770
         4         746         747         772         771
         4         747         748         773         772
         4         748         749         774         773
         4         750         751         776         775
         4         751         752         777         776
         4         752         753         778         777
         4         753         754         779         778
         4         754         755         780         779
         4         755         756         781         780
         4         756         757         782         781
         4         757         758         783         782
         4         758         759         784         783
         4         759         760         785         784
         4         760         761         786         785
         4         761         762         787         786
         4         762         763         788         787
         4         763         764         789         788
         4         764         765         790         789
         4         765         766         791         790
         4         766         767         792         791
         4         767         768         793         792
         4         768         769         794         793
         4         769         770         795         794
         4         770         771         796         795
         4         771         772         797         796
         4         772         773         798         797
         4         773         774         799         798
         4         775         776         801         800
         4         776         777         802         801
         4         777         778         803         802
         4         778         779         804         803
         4         779         780         805         804
         4         780         781         806         805
         4         781         782         807         806
         4         782         783         808         807
         4         783         784         809         808
         4         784         785         810         809
         4         785         786         811         810
         4         786         787         812         811
         4         787         788         813         812
         4         788         789         814         813
         4         789         790         815         814
         4         790         791         816         815
         4         791         792         817         816
         4         792         793         818         817
         4         793         794         819         818
         4         794         795         820         819
         4         795         796         821         820
         4         796         797         822         821
         4         797         798         823         822
         4         798         799         824         823
         4         800         801         826         825
         4         801         802         827         826
         4         802         803         828         827
         4         803         804         829         828
         4         804         805         830         829
         4         805         806         831         830
         4         806         807         832         831
         4         807         808         833         832
         4         808         809         834         833
         4         809         810         835         834
         4         810         811         836         835
         4         811         812         837         836
         4         812         813         838         837
         4         813         814         839         838
         4         814         815         840         839
         4         815         816         841         840
         4         816         817         842         841
         4         817         818         843         842
         4         818         819         844         843
         4         819         820         845         844
         4         820         821         846         845
         4         821         822         847         846
         4         822         823         848         847
         4         823         824         849         848
         4         825         826         851         850
         4         826         827         852         851
         4         827         828         853         852
         4         828         829         854         853
         4         829         830         855         854
         4         830         831         856         855
         4         831         832         857         856
         4         832         833         858         857
         4         833         834         859         858
         4         834         835         860         859
         4         835         836         861         860
         4         836         837         862         861
         4         837         838         863         862
         4         838         839         864         863
         4         839         840         865         864
         4         840         841         866         865
         4         841         842         867         866
         4         842         843         868         867
         4         843         844         869         868
         4         844         845         870         869
         4         845         846         871         870
         4         846         847         872         871
         4         847         848         873         872
         4         848         849         874         873
         4         850         851         876         875
         4         851         852         877         876
         4         852         853         878         877
         4         853         854         879         878
         4         854         855         880         879
         4         855         856         881         880
         4         856         857         882         881
         4         857         858         883         882
         4         858         859         884         883
         4         859         860         885         884
         4         860         861         886         885
         4         861         862         887         886
         4         862         863         888         887
         4         863         864         889         888
         4         864         865         890         889
         4         865         866         891         890
         4         866         867         892         891
         4         867         868         893         892
         4         868         869         894         893
         4         869         870         895         894
         4         870         871         896         895
         4         871         872         897         896
         4         872         873         898         897
         4         873         874         899         898
         4         875         876         901         900
         4         876         877         902         901
         4         877         878         903         902
         4         878         879         904         903
         4         879         880         905         904
         4         880         881         906         905
         4         881         882         907         906
         4         882         883         908         907
         4         883         884         909         908
         4         884         885         910         909
         4         885         886         911         910
         4         886         887         912         911
         4         887         888         913         912
         4         888         889         914         913
         4         889         890         915         914
         4         890         891         916         915
         4         891         892         917         916
         4         892         893         918         917
         4         893         894         919         918
         4         894         895         920         919
         4         895         896         921         920
         4         896         897         922         921
         4         897         898         923         922
         4         898         899         924         923
         4         900         901         926         925
         4         901         902         927         926
         4         902         903         928         927
         4         903         904         929         928
         4         904         905         930         929
         4         905         906         931         930
         4         906         907         932         931
         4         907         908         933         932
         4         908         909         934         933
         4         909         910         935         934
         4         910         911         936         935
         4         911         912         937         936
         4         912         913         938         937
         4         913         914         939         938
         4         914         915         940         939
         4         915         916         941         940
         4         916         917         942         941
         4         917         918         943         942
         4         918         919         944         943
         4         919         920         945         944
         4         920         921         946         945
         4         921         922         947         946
         4         922         923         948         947
         4         923         924         949         948
         4         925         926         951         950
         4         926         927         952         951
         4         927         928         953         952
         4         928         929         954         953
         4         929         930         955         954
         4         930         931         956         955
         4         931         932         957         956
         4         932         933         958         957
         4         933         934         959         958
         4         934         935         960         959
         4         935         936         961         960
         4         936         937         962         961
         4         937         938         963         962
         4         938         939         964         963
         4         939         940         965         964
         4         940         941         966         965
         4         941         942         967         966
         4         942         943         968         967
         4         943         944         969         968
         4         944         945         970         969
         4         945         946         971         970
         4         946         947         972         971
         4         947         948         973         972
         4         948         949         974         973
         4         950         951         976         975
         4         951         952         977         976
         4         952         953         978         977
         4         953         954         979         978
         4         954         955         980         979
         4         955         956         981         980
         4         956         957         982         981
         4         957         958         983         982
         4         958         959         984         983
         4         959         960         985         984
         4         960         961         986         985
         4         961         962         987         986
         4         962         963         988         987
         4         963         964         989         988
         4         964         965         990         989
         4         965         966         991         990
         4         966         967         992         991
         4         967         968         993         992
         4         968         969         994         993
         4         969         970         995         994
         4         970         971         996         995
         4         971         972         997         996
         4         972         973         998         997
         4         973         974         999         998
         4         975         976        1001        1000
         4         976         977        1002        1001
         4         977         978        1003        1002
         4         978         979        1004        1003
         4         979         980        1005        1004
         4         980         981        1006        1005
         4         981         982        1007        1006
         4         982         983        1008        1007
         4         983         984        1009        1008
         4         984         985        1010        1009
         4         985         986        1011        1010
         4         986         987        1012        1011
         4         987         988        1013        1012
         4         988         989        1014        1013
         4         989         990        1015        1014
         4         990         991        1016        1015
         4         991         992        1017        1016
         4         992         993        1018        1017
         4         993         994        1019        1018
         4         994         995        1020        1019
         4         995         996        1021        1020
         4         996         997        1022        1021
         4         997         998        1023        1022
         4         998         999        1024        1023
         4        1000        1001        1026        1025
         4        1001        1002        1027        1026
         4        1002        1003        1028        1027
         4        1003        1004        1029        1028
         4        1004        1005        1030        1029
         4        1005        1006        1031        1030
         4        1006        1007        1032        1031
         4        1007        1008        1033        1032
         4        1008        1009        1034        1033
         4        1009        1010        1035        1034
         4        1010        1011        1036        1035
         4        1011        1012        1037        1036
         4        1012        1013        1038        1037
         4        1013        1014        1039        1038
         4        1014        1015        1040        1039
         4        1015        1016        1041        1040
         4        1016        1017        1042        1041
         4        1017        1018        1043        1042
         4        1018        1019        1044        1043
         4        1019        1020        1045        1044
         4        1020        1021        1046        1045
         4        1021        1022        1047        1046
         4        1022        1023        1048        1047
         4        1023        1024        1049        1048
         4        1025        1026        1051        1050
         4        1026        1027        1052        1051
         4        1027        1028        1053        1052
         4        1028        1029        1054        1053
         4        1029        1030        1055        1054
         4        1030        1031        1056        1055
         4        1031        1032        1057        1056
         4        1032        1033        1058        1057
         4        1033        1034        1059        1058
         4        1034        1035        1060        1059
         4        1035        1036        1061        1060
         4        1036        1037        1062        1061
         4        1037        1038        1063        1062
         4        1038        1039        1064        1063
         4        1039        1040        1065        1064
         4        1040        1041        1066        1065
         4        1041        1042        1067        1066
         4        1042        1043        1068        1067
         4        1043        1044        1069        1068
         4        1044        1045        1070        1069
         4        1045        1046        1071        1070
         4        1046        1047        1072        1071
         4        1047        1048        1073        1072
         4        1048        1049        1074        1073
         4        1050        1051        1076        1075
         4        1051        1052        1077        1076
         4        1052        1053        1078        1077
         4        1053        1054        1079        1078
         4        1054        1055        1080        1079
         4        1055        1056        1081        1080
         4        1056        1057        1082        1081
         4        1057        1058        1083        1082
         4        1058        1059        1084        1083
         4        1059        1060        1085        1084
         4        1060        1061        1086        1085
         4        1061        1062        1087        1086
         4        1062        1063        1088        1087
         4        1063        1064        1089        1088
         4        1064        1065        1090        1089
         4        1065        1066        1091        1090
         4        1066        1067        1092        1091
         4        1067        1068        1093        1092
         4        1068        1069        1094        1093
         4        1069        1070        1095        1094
         4        1070        1071        1096        1095
         4        1071        1072        1097        1096
         4        1072        1073        1098        1097
         4        1073        1074        1099        1098
         4        1075        1076        1101        1100
         4        1076        1077        1102        1101
         4        1077        1078        1103        1102
         4        1078        1079        1104        1103
         4        1079        1080        1105        1104
         4        1080        1081        1106        1105
         4        1081        1082        1107        1106
         4        1082        1083        1108        1107
         4        1083        1084        1109        1108
         4        1084        1085        1110        1109
         4        1085        1086        1111        1110
         4        1086        1087        1112        1111
         4        1087        1088        1113        1112
         4        1088        1089        1114        1113
         4        1089        1090        1115        1114
         4        1090        1091        1116        1115
         4        1091        1092        1117        1116
         4        1092        1093        1118        1117
         4        1093        1094        1119        1118
         4        1094        1095        1120        1119
         4        1095        1096        1121        1120
         4        1096        1097        1122        1121
         4        1097        1098        1123        1122
         4        1098        1099        1124        1123
         4        1100        1101        1126        1125
         4        1101        1102        1127        1126
         4        1102        1103        1128        1127
         4        1103        1104        1129        1128
         4        1104        1105        1130        1129
         4        1105        1106        1131        1130
         4        1106        1107        1132        1131
         4        1107        1108        1133        1132
         4        1108        1109        1134        1133
         4        1109        1110        1135        1134
         4        1110        1111        1136        1135
         4        1111        1112        1137        1136
         4        1112        1113        1138        1137
         4        1113        1114        1139        1138
         4        1114        1115        1140        1139
         4        1115        1116        1141        1140
         4        1116        1117        1142        1141
         4        1117        1118        1143        1142
         4        1118        1119        1144        1143
         4        1119        1120        1145        1144
         4        1120        1121        1146        1145
         4        1121        1122        1147        1146
         4        1122        1123        1148        1147
         4        1123        1124        1149        1148
         4        1125        1126        1151        1150
         4        1126        1127        1152        1151
         4        1127        1128        1153        1152
         4        1128        1129        1154        1153
         4        1129        1130        1155        1154
         4        1130        1131        1156        1155
         4        1131        1132        1157        1156
         4        1132        1133        1158        1157
         4        1133        1134        1159        1158
         4        1134        1135        1160        1159
         4        1135        1136        1161        1160
         4        1136        1137        1162        1161
         4        1137        1138        1163        1162
         4        1138        1139        1164        1163
         4        1139        1140        1165        1164
         4        1140        1141        1166        1165
         4        1141        1142        1167        1166
         4        1142        1143        1168        1167
         4        1143        1144        1169        1168
         4        1144        1145        1170        1169
         4        1145        1146        1171        1170
         4        1146        1147        1172        1171
         4        1147        1148        1173        1172
         4        1148        1149        1174        1173
         4        1150        1151        1176        1175
         4        1151        1152        1177        1176
         4        1152        1153        1178        1177
         4        1153        1154        1179        1178
         4        1154        1155        1180        1179
         4        1155        1156        1181        1180
         4        1156        1157        1182        1181
         4        1157        1158        1183        1182
         4        1158        1159        1184        1183
         4        1159        1160        1185        1184
         4        1160        1161        1186        1185
         4        1161        1162        1187        1186
         4        1162        1163        1188        1187
         4        1163        1164        1189        1188
         4        1164        1165        1190        1189
         4        1165        1166        1191        1190
         4        1166        1167        1192        1191
         4        1167        1168        1193        1192
         4        1168        1169        1194        1193
         4        1169        1170        1195        1194
         4        1170        1171        1196        1195
         4        1171        1172        1197        1196
         4        1172        1173        1198        1197
         4        1173        1174        1199        1198
         4        1175        1176        1201        1200
         4        1176        1177        1202        1201
         4        1177        1178        1203        1202
         4        1178        1179        1204        1203
         4        1179        1180        1205        1204
         4        1180        1181        1206        1205
         4        1181        1182        1207        1206
         4        1182        1183        1208        1207
         4        1183        1184        1209        1208
         4        1184        1185        1210        1209
         4        1185        1186        1211        1210
         4        1186        1187        1212        1211
         4        1187        1188        1213        1212
         4        1188        1189        1214        1213
         4        1189        1190        1215        1214
         4        1190        1191        1216        1215
         4        1191        1192        1217        1216
         4        1192        1193        1218        1217
         4        1193        1194        1219        1218
         4        1194        1195        1220        1219
         4        1195        1196        1221        1220
         4        1196        1197        1222        1221
         4        1197        1198        1223        1222
         4        1198        1199        1224        1223
CELL_TYPES       1152
9
9
9
9
9
9
9
9
9
9
9
9
9
9
9
9
9
9
9
9
9
9
9
9
9
9
9
9
9
9
9
9
9
9
9
9
9
9
9
9
9
9
9
9
9
9
9
9
9
9
9
9
9
9
9
9
9
9
9
9
9
9
9
9
9
9
9
9
9
9
9
9
9
9
9
9
9
9
9
9
9
9
9
9
9
9
9
9
9
9
9
9
9
9
9
9
9
9
9
9
9
9
9
9
9
9
9
9
9
9
9
9
9
9
9
9
9
9
9
9
9
9
9
9
9
9
9
9
9
9
9
9
9
9
9
9
9
9
9
9
9
9
9
9
9
9
9
9
9
9
9
9
9
9
9
9
9
9
9
9
9
9
9
9
9
9
9
9
9
9
9
9
9
9
9
9
9
9
9
9
9
9
9
9
9
9
9
9
9
9
9
9
9
9
9
9
9
9
9
9
9
9
9
9
9
9
9
9
9
9
9
9
9
9
9
9
9
9
9
9
9
9
9
9
9
9
9
9
9
9
9
9
9
9
9
9
9
9
9
9
9
9
9
9
9
9
9
9
9
9
9
9
9
9
9
9
9
9
9
9
9
9
9
9
9
9
9
9
9
9
9
9
9
9
9
9
9
9
9
9
9
9
9
9
9
9
9
9
9
9
9
9
9
9
9
9
9
9
9
9
9
9
9
9
9
9
9
9
9
9
9
9
9
9
9
9
9
9
9
9
9
9
9
9
9
9
9
9
9
9
9
9
9
9
9
9
9
9
9
9
9
9
9
9
9
9
9
9
9
9
9
9
9
9
9
9
9
9
9
9
9
9
9
9
9
9
9
9
9
9
9
9
9
9
9
9
9
9
9
9
9
9
9
9
9
9
9
9
9
9
9
9
9
9
9
9
9
9
9
9
9
9
9
9
9
9
9
9
9
9
9
9
9
9
9
9
9
9
9
9
9
9
9
9
9
9
9
9
9
9
9
9
9
9
9
9
9
9
9
9
9
9
9
9
9
9
9
9
9
9
9
9
9
9
9
9
9
9
9
9
9
9
9
9
9
9
9
9
9
9
9
9
9
9
9
9
9
9
9
9
9
9
9
9
9
9
9
9
9
9
9
9
9
9
9
9
9
9
9
9
9
9
9
9
9
9
9
9
9
9
9
9
9
9
9
9
9
9
9
9
9
9
9
9
9
9
9
9
9
9
9
9
9
9
9
9
9
9
9
9
9
9
9
9
9
9
9
9
9
9
9
9
9
9
9
9
9
9
9
9
9
9
9
9
9
9
9
9
9
9
9
9
9
9
9
9
9
9
9
9
9
9
9
9
9
9
9
9
9
9
9
9
9
9
9
9
9
9
9
9
9
9
9
9
9
9
9
9
9
9
9
9
9
9
9
9
9
9
9
9
9
9
9
9
9
9
9
9
9
9
9
9
9
9
9
9
9
9
9
9
9
9
9
9
9
9
9
9
9
9
9
9
9
9
9
9
9
9
9
9
9
9
9
9
9
9
9
9
9
9
9
9
9
9
9
9
9
9
9
9
9
9
9
9
9
9
9
9
9
9
9
9
9
9
9
9
9
9
9
9
9
9
9
9
9
9
9
9
9
9
9
9
9
9
9
9
9
9
9
9
9
9
9
9
9
9
9
9
9
9
9
9
9
9
9
9
9
9
9
9
9
9
9
9
9
9
9
9
9
9
9
9
9
9
9
9
9
9
9
9
9
9
9
9
9
9
9
9
9
9
9
9
9
9
9
9
9
9
9
9
9
9
9
9
9
9
9
9
9
9
9
9
9
9
9
9
9
9
9
9
9
9
9
9
9
9
9
9
9
9
9
9
9
9
9
9
9
9
9
9
9
9
9
9
9
9
9
9
9
9
9
9
9
9
9
9
9
9
9
9
9
9
9
9
9
9
9
9
9
9
9
9
9
9
9
9
9
9
9
9
9
9
9
9
9
9
9
9
9
9
9
9
9
9
9
9
9
9
9
9
9
9
9
9
9
9
9
9
9
9
9
9
9
9
9
9
9
9
9
9
9
9
9
9
9
9
9
9
9
9
9
9
9
9
9
9
9
9
9
9
9
9
9
9
9
9
9
9
9
9
9
9
9
9
9
9
9
9
9
9
9
9
9
9
9
9
9
9
9
9
9
9
9
9
9
9
9
9
9
9
9
9
9
9
9
9
9
9
9
9
9
9
9
9
9
9
9
9
9
9
9
9
9
9
9
9
9
9
9
9
9
9
9
9
9
9
9
9
9
9
9
9
9
9
9
9
9
9
9
9
9
9
9
9
9
9
9
9
9
9
9
9
9
9
9
9
9
9
9
9
9
9
9
9
9
9
9
9
9
9
9
9
9
9
9
9
9
9
9
9
9
9
9
9
9
9
9
9
9
9
9
9
9
9
9
9
9
9
9
9
9
9
9
9
9
9
9
9
9
9
9
9
9
9
9
9
9
9
9
9
9
9
9
9
9
9
9
9
9
9
9
9
9
9
9
9
9
9
9
9
9
9
9
9
9
9
9
9
9
9
9
9
9
9
9
9
9
9
9
9
9
9
9
9
9
9
9
9
9
9
9
9
9
9
9
9
9
9
9
9
9
9
POINT_DATA      1225
SCALARS p double 
LOOKUP_TABLE default
  3.760965333207839E-016
  5.450136043748227E-016
  6.751540298316058E-016
  4.724586575090256E-016
  3.742376948186647E-016
  4.234260315843077E-016
  3.994272846999904E-016
  3.867490254175310E-016
  4.357479724357241E-016
  4.375713108912583E-016
  3.663814850667222E-016
  3.363650982830249E-016
  3.162344588280806E-016
  3.092741141782885E-016
  2.885046042624549E-016
  2.671145282679109E-016
  2.390342573343553E-016
  2.185918461288114E-016
  2.224595115886623E-016
  2.201788809275938E-016
  2.141475681517679E-016
  2.042540644339739E-016
  1.988373719373690E-016
  1.959400062156474E-016
  1.949913966423440E-016
  2.654224280552779E-016
  4.644144399652720E-016
  5.944037327532656E-016
  4.774257099148393E-016
  4.161932230528229E-016
  4.241082923217046E-016
  4.067279817243900E-016
  3.726512094675145E-016
  3.905865004077099E-016
  3.968957338078712E-016
  3.643890792072643E-016
  3.349896338726547E-016
  3.117673362788254E-016
  2.953586698233121E-016
  2.862157349664947E-016
  2.792702489898555E-016
  2.502237554612251E-016
  2.234926193868849E-016
  2.208513841804006E-016
  2.212697135163117E-016
  2.150766726869698E-016
  2.048746217036948E-016
  1.991998283847112E-016
  1.970046332519783E-016
  1.938233266581368E-016
  2.305854861954928E-016
  3.126822810404961E-016
  3.931782466175828E-016
  3.845241443863540E-016
  3.966162597788111E-016
  4.483380552217313E-016
  3.986300569046485E-016
  3.085805964945205E-016
  3.364219306396775E-016
  3.748199250370248E-016
  3.675263045520468E-016
  3.220655859614018E-016
  2.999305195061103E-016
  2.843507722176859E-016
  2.825450569700228E-016
  2.693516415701569E-016
  2.504118614727460E-016
  2.317906283945494E-016
  2.220440656525730E-016
  2.227755743402212E-016
  2.135914078263480E-016
  2.036591270328771E-016
  2.025872265495862E-016
  1.973137746658458E-016
  1.948937647560193E-016
  0.000000000000000E+000
  1.697406776350030E-016
  2.553519802273061E-016
  3.168513347176680E-016
  3.592212742908540E-016
  3.949492136071259E-016
  3.350116955706352E-016
  2.740301834086731E-016
  3.178989713376161E-016
  3.518566135898460E-016
  3.412648520789941E-016
  2.973265800438868E-016
  2.894968221285629E-016
  2.681227034879029E-016
  2.596350960049398E-016
  2.629148870886005E-016
  2.495134457272853E-016
  2.319111138629009E-016
  2.250483651732177E-016
  2.271072784738121E-016
  2.126445521185180E-016
  2.036434188151454E-016
  2.027541402920763E-016
  2.000819407953908E-016
  1.992147022669277E-016
  0.000000000000000E+000
  8.757432647944649E-017
  1.812915657377758E-016
  2.856966951233540E-016
  3.242145625550129E-016
  3.370502052019056E-016
  3.247609467871854E-016
  3.160319709126102E-016
  3.245110188128765E-016
  3.318508318671437E-016
  3.174654370307790E-016
  2.961595187250164E-016
  2.816414629429508E-016
  2.619366978631311E-016
  2.450514289218117E-016
  2.577300357107518E-016
  2.532627237476515E-016
  2.363964475677469E-016
  2.288641801896369E-016
  2.223372551225373E-016
  2.135467285196658E-016
  2.057948864548963E-016
  2.022555154413233E-016
  1.999286806973938E-016
  1.983381550390791E-016
  0.000000000000000E+000
  8.277576568891055E-017
  1.682189902605244E-016
  2.342313162594990E-016
  2.823463069865700E-016
  3.181325419425679E-016
  3.270724673239927E-016
  3.376605144101345E-016
  3.267674052524616E-016
  3.399879400359386E-016
  3.173088753462585E-016
  2.973821191765429E-016
  2.793984066699312E-016
  2.633034900806272E-016
  2.548655591614503E-016
  2.544515837674546E-016
  2.463473251504133E-016
  2.342456939147322E-016
  2.255542540335218E-016
  2.193537202499807E-016
  2.160211667044536E-016
  2.079353161111909E-016
  1.988213053695284E-016
  1.940078426911279E-016
  1.921383518744462E-016
  0.000000000000000E+000
  6.080943581480457E-017
  1.683658034594624E-016
  2.139295740208384E-016
  2.429960006202229E-016
  2.734285750466916E-016
  3.179428295830970E-016
  3.016684925414983E-016
  3.023879824170007E-016
  3.271258593693085E-016
  3.113957995565975E-016
  3.032936301601094E-016
  2.723889285282744E-016
  2.590761423691990E-016
  2.520637213926949E-016
  2.495847628464395E-016
  2.395143153663648E-016
  2.263672799353819E-016
  2.211510410691521E-016
  2.202925937567819E-016
  2.099294564851039E-016
  1.999425121040324E-016
  1.919960606037259E-016
  1.858089793870900E-016
  1.836226954253267E-016
  0.000000000000000E+000
  7.987320599477620E-017
  1.547528643639637E-016
  1.911409644177325E-016
  2.093524819384152E-016
  2.304925465459568E-016
  2.389060926103786E-016
  2.475927554057695E-016
  2.526212200539077E-016
  2.577107519127850E-016
  3.031378256936147E-016
  3.220141911485525E-016
  2.800080807648240E-016
  2.521593439874843E-016
  2.494413132594048E-016
  2.380573498818785E-016
  2.286997575586725E-016
  2.153415314378021E-016
  2.113634656433860E-016
  2.028631466010706E-016
  1.854511298100370E-016
  1.772748197865269E-016
  1.759370103004788E-016
  1.728776773508756E-016
  1.714477452653483E-016
  0.000000000000000E+000
  6.201546765081120E-017
  8.751688260317903E-017
  1.200879273213338E-016
  1.754289150162463E-016
  1.902099864624451E-016
  1.921218222618056E-016
  1.922474728947584E-016
  2.108882459131876E-016
  2.245286472200218E-016
  2.563684937992818E-016
  2.813774964071872E-016
  2.721823348643455E-016
  2.430559111992289E-016
  2.263014813268660E-016
  2.200079005652312E-016
  2.092627534008298E-016
  1.986212118667488E-016
  1.864091514627421E-016
  1.712527253906246E-016
  1.606957453778296E-016
  1.587431311178415E-016
  1.585414879401335E-016
  1.572505258686747E-016
  1.563909918532768E-016
  0.000000000000000E+000
  3.729781057584244E-018
  1.819635850405863E-017
  5.528918439551908E-017
  1.041173268448121E-016
  1.242795771599457E-016
  1.263793076296165E-016
  1.570158734525464E-016
  1.733625894607211E-016
  2.008267864437357E-016
  2.309052810794791E-016
  2.410090252719396E-016
  2.317953149294195E-016
  2.068525934271433E-016
  1.981022936498603E-016
  1.952329170676480E-016
  1.918069314355968E-016
  1.806437391638722E-016
  1.664464145029477E-016
  1.481285084545400E-016
  1.440390514895401E-016
  1.452919887485634E-016
  1.430349141889119E-016
  1.401905286576312E-016
  1.398900693385837E-016
  0.000000000000000E+000
  5.050988684272655E-018
  3.199190527245448E-017
  6.516905111514606E-017
  6.358786002180795E-017
  9.033360906019513E-017
  9.859265760509515E-017
  1.246302039923488E-016
  1.505323377963680E-016
  1.682763979452588E-016
  1.832315253052790E-016
  1.949765809361422E-016
  1.828918649192065E-016
  1.673050765426040E-016
  1.671256762796534E-016
  1.712263082291490E-016
  1.729296088697558E-016
  1.602119219447155E-016
  1.419715588557215E-016
  1.285869356307833E-016
  1.270086018022197E-016
  1.277207575651150E-016
  1.258885433917123E-016
  1.240978634141152E-016
  1.234560482885482E-016
  0.000000000000000E+000
  9.378931133351256E-018
  3.414040467605977E-017
  4.911598741970759E-017
  6.988407208738306E-017
  8.210303271246669E-017
  9.786104083472053E-017
  1.074709671384745E-016
  1.116739721426423E-016
  1.118804449841603E-016
  1.231934248595958E-016
  1.268859433629746E-016
  1.435374031554657E-016
  1.375918325813127E-016
  1.306330284898167E-016
  1.467040686902173E-016
  1.442585719870506E-016
  1.292731119885782E-016
  1.212161717207924E-016
  1.110358360705841E-016
  1.105899417773905E-016
  1.094149900025508E-016
  1.087776077625281E-016
  1.067255652915883E-016
  1.080981920986569E-016
  0.000000000000000E+000
  2.437445920837501E-017
  3.689253380031837E-017
  3.437628059644902E-017
  5.541541710500601E-017
  8.015877548180680E-017
  9.399218509770151E-017
  1.025173777294842E-016
  7.256269696420680E-017
  6.529919475567777E-017
  7.885127055301199E-017
  9.307766926514353E-017
  1.176286987624852E-016
  1.215517424542700E-016
  1.111946130364728E-016
  1.104916826519060E-016
  1.084291417706751E-016
  9.727745543727387E-017
  1.007208829140310E-016
  9.760693439945383E-017
  9.749634815634544E-017
  9.404165138991182E-017
  9.014643128107278E-017
  9.364216717403340E-017
  9.375636215988742E-017
  0.000000000000000E+000
  2.256449401523106E-017
  3.958575047660789E-017
  5.529579512781158E-017
  6.831862639181843E-017
  8.197294998761983E-017
  9.788949047507811E-017
  9.959686808731313E-017
  7.123791267199059E-017
  6.624477667545091E-017
  7.716041187292793E-017
  9.308186007133652E-017
  1.139764719052401E-016
  1.080235418756142E-016
  1.013852220151322E-016
  9.251358894884841E-017
  7.784042355431191E-017
  6.704509619003057E-017
  6.671681060713508E-017
  7.178215994666554E-017
  7.519711754760662E-017
  7.961028262394780E-017
  7.857012504726882E-017
  8.055873114279590E-017
  8.083308472615481E-017
  0.000000000000000E+000
  1.258300066697889E-017
  3.463159456626800E-017
  5.166516737748142E-017
  6.188856988394105E-017
  9.307964610501846E-017
  1.008793572044498E-016
  8.275090495416316E-017
  8.266763438754550E-017
  7.389941766406753E-017
  8.175999700589689E-017
  8.465855535602685E-017
  9.637705837615045E-017
  9.211933297407094E-017
  8.086137324265022E-017
  6.629058431941645E-017
  4.546526905522730E-017
  4.467839885276704E-017
  4.295972012980361E-017
  4.409752237662211E-017
  5.380793933095578E-017
  6.044207509410487E-017
  6.563002723906276E-017
  6.739330250870313E-017
  6.691344600436385E-017
  0.000000000000000E+000
  1.581993910627939E-017
  2.674411474372785E-017
  2.533224717625579E-017
  5.122984209795192E-017
  9.387875640993958E-017
  1.019684297348709E-016
  1.012639919801645E-016
  8.876886106303993E-017
  8.202003173640109E-017
  6.609301224057876E-017
  7.191646255137072E-017
  8.191587884843369E-017
  7.601953197293066E-017
  5.338857979778987E-017
  4.032229834866412E-017
  2.952871587718238E-017
  2.709675533808809E-017
  3.017072640401569E-017
  3.566555672435801E-017
  4.077716060302905E-017
  4.822600904011525E-017
  4.971262682365166E-017
  5.191719707741969E-017
  5.251270884146381E-017
  0.000000000000000E+000
  1.490144268197756E-017
  1.708022134704942E-017
  2.472997903951534E-017
  4.530688919975631E-017
  6.104583648284439E-017
  9.956269063659478E-017
  1.099601571073201E-016
  1.037157022900902E-016
  9.134902205655892E-017
  7.947540501341383E-017
  7.676368350436865E-017
  7.476810904182844E-017
  6.451250292440871E-017
  5.288223467044862E-017
  3.885002213254939E-017
  2.529441689557300E-017
  1.380988912664533E-017
  2.246584395955597E-017
  2.624438166542599E-017
  3.198995036340036E-017
  3.738734732430232E-017
  3.332829335089311E-017
  3.630725431019564E-017
  3.825109572726863E-017
  0.000000000000000E+000
  2.368877227509705E-017
  3.228100710052317E-017
  4.198451484152777E-017
  4.830266719616675E-017
  5.824035234035300E-017
  8.319149263949959E-017
  9.345558273748237E-017
  1.026669893136025E-016
  1.007334956787515E-016
  8.649866575779817E-017
  7.846239067875321E-017
  6.883890038573682E-017
  5.944714726200884E-017
  5.023580050154395E-017
  3.163709294132072E-017
  1.859535777065561E-017
  4.566228675997590E-018
  2.638109275372783E-018
  1.508134901618695E-017
  2.593088967648465E-017
  2.136986369967576E-017
  2.289294676321321E-017
  2.523565343423706E-017
  2.641430078906751E-017
  0.000000000000000E+000
  2.846132637005967E-017
  4.467497244467201E-017
  5.481784140600527E-017
  5.889164783364674E-017
  5.837293622421807E-017
  6.522687403169827E-017
  8.042829127120840E-017
  8.263551900333124E-017
  9.594967038088406E-017
  8.643000608659230E-017
  8.233851514463964E-017
  6.898533298287373E-017
  5.611085104437969E-017
  5.302801628849550E-017
  3.313491272517309E-017
  1.136565437761910E-017
 -4.318002704245589E-018
 -3.406427918498254E-018
  7.851727426102403E-018
  9.804471612090540E-018
  9.964844529285612E-018
  1.453147101426133E-017
  1.511730954596781E-017
  1.639588818601234E-017
  0.000000000000000E+000
  3.009007029876554E-017
  5.843929975950827E-017
  5.508637243796378E-017
  4.978106358090060E-017
  6.805452345647144E-017
  5.922732666546117E-017
  4.137198774154472E-017
  5.150757581599825E-017
  6.798214216995165E-017
  7.324692295752464E-017
  6.485670643479859E-017
  6.060350760860831E-017
  4.273698291619143E-017
  2.423657444697142E-017
  1.586868661206151E-017
  8.620336629676120E-018
 -2.126512947832996E-020
 -6.076585633274436E-018
 -3.148902128212270E-018
 -4.451544717786937E-018
  5.690520432995946E-020
  3.320631632288649E-018
  6.025290329011108E-018
  6.551798990760267E-018
  0.000000000000000E+000
  2.617016677085468E-017
  4.118004302362034E-017
  3.047105332091952E-017
  3.466290092588162E-017
  1.986410269557254E-017
  1.092176941786471E-017
  1.691603032229640E-017
  2.314325540199653E-017
  3.747625799970536E-017
  3.457710419658867E-017
  3.806321313807402E-017
  2.799031300469244E-017
  1.633331038362539E-017
  2.849561531269319E-019
 -3.594158321041392E-018
 -7.445027969282103E-019
 -2.534251074939178E-018
 -1.136005318969111E-017
 -1.566621353199761E-017
 -1.289723387309494E-017
 -7.498039910717592E-018
 -4.437392444665734E-018
 -3.441894612667538E-018
 -3.661172858893989E-018
  0.000000000000000E+000
  6.601661044945110E-018
  1.609154723758997E-017
 -1.739969774861155E-018
 -1.715979812966978E-018
 -1.368537769001461E-017
 -2.142523512786124E-017
 -7.099487630190122E-018
  5.054331008953320E-018
  5.940095439632573E-018
  6.667072757932263E-018
  1.112608295104432E-017
  1.986893993997113E-018
 -1.182806859259693E-017
 -1.614464858934554E-017
 -2.012662624991378E-017
 -2.013533172659503E-017
 -2.183893117564061E-017
 -2.337623935445220E-017
 -2.444510803119022E-017
 -1.835583982950917E-017
 -1.551266132280280E-017
 -1.546720834938275E-017
 -1.503740172408145E-017
 -1.546647754438030E-017
  0.000000000000000E+000
 -7.762475714465877E-018
  3.736530764246392E-019
  1.529770428931253E-018
 -8.760366364038809E-018
 -2.330675672632010E-017
 -3.042652109844834E-017
 -2.984799123143625E-017
 -3.269461081273182E-017
 -9.253022581582687E-018
  6.805297753989502E-018
  1.185340093066788E-018
 -9.512859347255142E-018
 -2.391874715441138E-017
 -2.804416864478166E-017
 -3.220354305458614E-017
 -3.247478740352806E-017
 -3.042825762269721E-017
 -2.977201127334426E-017
 -2.811119236911363E-017
 -2.268883565702722E-017
 -2.616094928276444E-017
 -2.905387442096583E-017
 -2.822973253516503E-017
 -2.867652240738783E-017
  0.000000000000000E+000
 -7.151223800964301E-018
 -1.690485858831517E-018
  1.814257041069171E-018
 -6.495311490535573E-018
 -2.552463021654248E-017
 -4.116415504832136E-017
 -3.368506952934095E-017
 -2.685174246799169E-017
 -8.320796352966518E-019
  1.412815044642059E-017
  8.193340516407272E-018
 -5.197140903652460E-018
 -2.214183908340888E-017
 -2.128418166220066E-017
 -2.357658244823338E-017
 -2.899008443852230E-017
 -3.117218712972300E-017
 -3.351887143033317E-017
 -3.478745438693082E-017
 -3.547981182397165E-017
 -3.834746037689045E-017
 -4.214226883604701E-017
 -4.049166511484463E-017
 -3.994104692597906E-017
  0.000000000000000E+000
  3.082542537239684E-018
 -1.680138533090038E-018
 -1.732504361560152E-017
 -3.636516089729659E-017
 -4.724075156903259E-017
 -4.101834570060199E-017
 -3.969727089134377E-017
 -2.051967044819569E-017
 -3.208166629778837E-018
  7.109872596881476E-018
 -1.706405599009879E-018
 -1.103545877008870E-017
 -2.299607941506603E-017
 -2.822986881467232E-017
 -2.524628059713029E-017
 -2.605403040927583E-017
 -3.115919033486829E-017
 -3.650283075384387E-017
 -4.083158850128208E-017
 -5.005029118004218E-017
 -5.090190999718954E-017
 -5.045908189104313E-017
 -5.008644468889505E-017
 -4.935156156268764E-017
  0.000000000000000E+000
 -2.335242422355477E-017
 -4.021206911702314E-017
 -4.998490390928533E-017
 -6.329629018076515E-017
 -6.091243933606442E-017
 -5.013812864432834E-017
 -4.210970321268316E-017
 -2.856364204750887E-017
 -1.881437929228145E-017
 -1.601261237106666E-017
 -2.483872778407130E-017
 -3.477897859578228E-017
 -4.103377275053497E-017
 -5.048521895137291E-017
 -4.434295950253599E-017
 -3.156728204150185E-017
 -3.173909541433843E-017
 -3.925607713372829E-017
 -4.452807182736511E-017
 -5.392768260394180E-017
 -5.838202168717877E-017
 -5.721543916376127E-017
 -5.732506338934077E-017
 -5.759048468983342E-017
  0.000000000000000E+000
 -3.833192786847594E-017
 -6.576981081361148E-017
 -6.510575500954566E-017
 -6.895286111891292E-017
 -7.648008725145333E-017
 -6.757311777357960E-017
 -5.139571843859752E-017
 -3.224566941882244E-017
 -2.910774230800877E-017
 -3.188982718404401E-017
 -3.592325986666595E-017
 -4.841277396334522E-017
 -5.726383135328084E-017
 -6.194983640781373E-017
 -5.604836171358629E-017
 -4.699830830891235E-017
 -4.328250031962299E-017
 -4.630149245480376E-017
 -5.519119351796513E-017
 -6.079493054719757E-017
 -6.202361765242227E-017
 -6.346780767458504E-017
 -6.472974264532953E-017
 -6.468336807841879E-017
  0.000000000000000E+000
 -2.394149161853900E-017
 -5.660265849600710E-017
 -7.609115388802127E-017
 -8.066752154308122E-017
 -8.178173806313961E-017
 -7.845526602043141E-017
 -6.642418472929655E-017
 -4.721550566044294E-017
 -3.773746443812675E-017
 -3.527282207788721E-017
 -3.492634914439789E-017
 -4.607260636957994E-017
 -5.509623793236215E-017
 -5.814706993275861E-017
 -6.151892330013042E-017
 -5.722833037856766E-017
 -6.150814014192749E-017
 -6.581165553159766E-017
 -6.810781014781250E-017
 -6.822178497845519E-017
 -6.888836760017160E-017
 -6.914114174232823E-017
 -7.121708775264773E-017
 -7.113950359365441E-017
  0.000000000000000E+000
 -2.503914538410664E-017
 -4.424582937220352E-017
 -6.400006372746677E-017
 -7.972296885468686E-017
 -7.695449912751770E-017
 -6.999390853773085E-017
 -6.322538392026082E-017
 -5.177759080407477E-017
 -2.908079056417254E-017
 -3.376690475601830E-017
 -4.512551628857744E-017
 -4.734538591513504E-017
 -5.077645201017972E-017
 -6.470700053427472E-017
 -7.288789973800286E-017
 -7.419335367530083E-017
 -7.581848522447838E-017
 -7.926465323355074E-017
 -8.075028530134719E-017
 -7.547487268261686E-017
 -7.784093931585254E-017
 -7.613626573273458E-017
 -7.675094436138366E-017
 -7.764024852809245E-017
  0.000000000000000E+000
 -2.488536015444832E-017
 -3.836649484167985E-017
 -4.879372068670828E-017
 -6.834948382337843E-017
 -6.973486937022470E-017
 -5.829207327457191E-017
 -4.777482909659101E-017
 -4.018637698948837E-017
 -3.775847240164726E-017
 -4.563884859213227E-017
 -4.792754725712443E-017
 -5.378062308051766E-017
 -6.173128137441558E-017
 -7.612454775693191E-017
 -8.281875952386039E-017
 -8.472859211619245E-017
 -8.455772525936052E-017
 -8.288203569116655E-017
 -8.400587887541038E-017
 -8.533649510627925E-017
 -8.509274566474236E-017
 -8.520523237140612E-017
 -8.497976308318347E-017
 -8.482952505398474E-017
  0.000000000000000E+000
 -1.432125456915681E-017
 -3.280055070417833E-017
 -4.937042911100797E-017
 -5.154538323963086E-017
 -6.038199510801997E-017
 -5.713742748205392E-017
 -5.183121083574790E-017
 -4.260385529882828E-017
 -4.932660373738305E-017
 -5.897614118164895E-017
 -5.665704239576184E-017
 -6.604262307590981E-017
 -7.867067927257421E-017
 -8.276312365863754E-017
 -8.489809622696368E-017
 -8.176759262270456E-017
 -8.760120978960705E-017
 -8.955890874837662E-017
 -8.607222996381901E-017
 -8.743026494489927E-017
 -8.982860324817427E-017
 -9.218111857650650E-017
 -9.313478405226076E-017
 -9.282207372279227E-017
  0.000000000000000E+000
 -1.360888115204365E-017
 -3.011731698025224E-017
 -3.985984688869355E-017
 -5.279268932864845E-017
 -4.667913259136454E-017
 -5.269266732003948E-017
 -5.990974374267983E-017
 -5.377675241674849E-017
 -5.067246507088957E-017
 -5.972983939292141E-017
 -7.310817987867353E-017
 -7.631202574891051E-017
 -8.650238191755494E-017
 -8.835197749027513E-017
 -8.625064440210810E-017
 -9.112847445668312E-017
 -9.504206998783494E-017
 -9.701369592130719E-017
 -9.386001904004520E-017
 -9.396135261832261E-017
 -9.638911257492156E-017
 -9.841815914566218E-017
 -1.004022918295186E-016
 -1.007243509179379E-016
  0.000000000000000E+000
 -1.751709918283810E-017
 -2.429607737863113E-017
 -3.179535749689954E-017
 -4.493782031887170E-017
 -4.680827431856109E-017
 -4.836428352432060E-017
 -5.431367998853172E-017
 -5.988224640264121E-017
 -5.382351581447367E-017
 -6.129554202893373E-017
 -7.413764356812461E-017
 -8.542079531152791E-017
 -9.355498825574821E-017
 -9.093286400807294E-017
 -9.581730657448652E-017
 -1.006955457914499E-016
 -1.000609203849408E-016
 -1.056733381920186E-016
 -1.082917173059261E-016
 -1.090649266284383E-016
 -1.083238889578042E-016
 -1.074199864327842E-016
 -1.077541660272639E-016
 -1.078585470726002E-016
  0.000000000000000E+000
 -2.008336786607348E-017
 -2.460551490453113E-017
 -4.104913414864682E-017
 -3.821245200641968E-017
 -4.573756416684333E-017
 -5.091424738718192E-017
 -5.342261317453777E-017
 -5.931702759144043E-017
 -5.660901639367144E-017
 -6.477855779270139E-017
 -8.028568781654944E-017
 -9.268820708610079E-017
 -9.752130213761198E-017
 -9.569692695872473E-017
 -1.019940011492430E-016
 -1.055540265563558E-016
 -1.058945470808007E-016
 -1.118301431976776E-016
 -1.197538927822687E-016
 -1.227801236336251E-016
 -1.198110080729224E-016
 -1.171411555337289E-016
 -1.157064976836470E-016
 -1.151996297218299E-016
  0.000000000000000E+000
 -1.301864797213348E-017
 -2.368984846418788E-017
 -3.112127483512567E-017
 -3.268214310217274E-017
 -4.300652658910302E-017
 -5.304798186500688E-017
 -5.249174623569211E-017
 -5.820969832663422E-017
 -6.950844840468780E-017
 -7.381331172637814E-017
 -8.515709483140676E-017
 -1.004999681754413E-016
 -1.021514234192351E-016
 -9.957780237336231E-017
 -1.056722558056607E-016
 -1.098067262773825E-016
 -1.133775542502024E-016
 -1.218879036947129E-016
 -1.260288695790550E-016
 -1.309083566763047E-016
 -1.268704550092333E-016
 -1.238148651392627E-016
 -1.226908017560723E-016
 -1.221389375907059E-016
  0.000000000000000E+000
 -9.638356013194151E-018
 -1.625252826442994E-017
 -2.692093833418678E-017
 -3.909637980328965E-017
 -5.128450246027002E-017
 -6.183500418226184E-017
 -6.362440308483870E-017
 -6.861365375783727E-017
 -8.194867034672491E-017
 -8.742915099925173E-017
 -9.086824204867252E-017
 -1.060589361015690E-016
 -1.136847120909121E-016
 -1.127455412008386E-016
 -1.139788852024337E-016
 -1.166773169058806E-016
 -1.180048891816974E-016
 -1.268856412687889E-016
 -1.304379073392881E-016
 -1.335080237902907E-016
 -1.330085654349994E-016
 -1.300695044314330E-016
 -1.283902094290890E-016
 -1.281656885278139E-016
  0.000000000000000E+000
 -6.095935976996789E-018
 -1.718395065864740E-017
 -3.130119390200017E-017
 -4.524601504109008E-017
 -6.223759533648765E-017
 -6.677706179694013E-017
 -7.151833038247786E-017
 -7.547024668262365E-017
 -8.308781695233976E-017
 -9.104115764496153E-017
 -1.000212825979238E-016
 -1.099220399883363E-016
 -1.198793194861083E-016
 -1.191435451463151E-016
 -1.179518522091840E-016
 -1.213707474132416E-016
 -1.252010040120011E-016
 -1.298318018931757E-016
 -1.331822310373585E-016
 -1.342732015017119E-016
 -1.353695668337972E-016
 -1.353878708158719E-016
 -1.343109836182314E-016
 -1.338242011192352E-016
  0.000000000000000E+000
 -7.930289547444985E-018
 -1.920904137010455E-017
 -3.588786495756594E-017
 -4.946545408736544E-017
 -5.906472646631949E-017
 -6.881855578649387E-017
 -7.169680293424670E-017
 -7.682746561945068E-017
 -8.154028325478745E-017
 -9.086596449708496E-017
 -1.004542347674981E-016
 -1.084163202363114E-016
 -1.082634930180194E-016
 -1.114899840299654E-016
 -1.135215920503154E-016
 -1.217466021304910E-016
 -1.281858885175723E-016
 -1.330061176403573E-016
 -1.355005882329828E-016
 -1.362694525194767E-016
 -1.370971637430540E-016
 -1.388770537216825E-016
 -1.391431439408182E-016
 -1.390729326112696E-016
  0.000000000000000E+000
 -1.974109204306173E-017
 -3.274655014280556E-017
 -4.310483121892090E-017
 -4.867209552359812E-017
 -5.545488316752637E-017
 -6.864806194166483E-017
 -7.810752208606824E-017
 -8.058059383781538E-017
 -8.668717044032384E-017
 -9.152604414949553E-017
 -1.028963252167641E-016
 -1.065101986889223E-016
 -1.089078990536132E-016
 -1.153605951075425E-016
 -1.179616795763468E-016
 -1.226751023391519E-016
 -1.299555237759504E-016
 -1.333470791622166E-016
 -1.373842472253257E-016
 -1.390305503902414E-016
 -1.404578673510347E-016
 -1.428406310912877E-016
 -1.435415286147784E-016
 -1.437221937156208E-016
  0.000000000000000E+000
 -2.961602921682177E-017
 -4.484096397841767E-017
 -5.137446773686778E-017
 -5.138849959630619E-017
 -5.590858539476078E-017
 -7.438944653769125E-017
 -8.535739265824750E-017
 -8.372598494428319E-017
 -8.825622646205687E-017
 -9.348029433824940E-017
 -1.062508317589009E-016
 -1.126613473042210E-016
 -1.192012409670302E-016
 -1.240458937548397E-016
 -1.284310873079230E-016
 -1.292169697887429E-016
 -1.344395315120775E-016
 -1.397655710542799E-016
 -1.423400379779019E-016
 -1.433103533179032E-016
 -1.449642576914718E-016
 -1.463959619464206E-016
 -1.473517018121723E-016
 -1.477694178161141E-016
  0.000000000000000E+000
 -2.709873192231229E-017
 -4.074710144852919E-017
 -5.212031776023569E-017
 -5.744829225900339E-017
 -6.331049971737014E-017
 -7.669835069442610E-017
 -8.567780429542926E-017
 -8.674760399106474E-017
 -9.123100152133825E-017
 -1.013437669006745E-016
 -1.101868373844105E-016
 -1.192158362092422E-016
 -1.247554816374464E-016
 -1.302452447745192E-016
 -1.359553946411892E-016
 -1.365682741054713E-016
 -1.397994377511312E-016
 -1.465064087360644E-016
 -1.476638325927464E-016
 -1.478956334873776E-016
 -1.484645742582472E-016
 -1.496857982284378E-016
 -1.506525836602680E-016
 -1.511177566938268E-016
  0.000000000000000E+000
 -1.887084001897147E-017
 -3.407854818225254E-017
 -4.758454763852000E-017
 -5.839625673800102E-017
 -6.810946693041987E-017
 -7.467926663612663E-017
 -8.182812105411643E-017
 -8.872215808932557E-017
 -9.698661917459768E-017
 -1.058338426299395E-016
 -1.140136245109078E-016
 -1.242911963427185E-016
 -1.295868282945890E-016
 -1.357350560452917E-016
 -1.412404475056013E-016
 -1.447834481146650E-016
 -1.483332705965711E-016
 -1.500140081163025E-016
 -1.518598490259722E-016
 -1.529924068863075E-016
 -1.530678821702657E-016
 -1.534492934193046E-016
 -1.542219864289369E-016
 -1.548283441517370E-016
  0.000000000000000E+000
 -1.514965423564663E-017
 -2.909353160300505E-017
 -4.430656664720336E-017
 -5.837523048352165E-017
 -6.991633349952886E-017
 -7.663295021831563E-017
 -8.196561396287814E-017
 -9.286693427044959E-017
 -1.021156249787261E-016
 -1.108832250740247E-016
 -1.184285851135979E-016
 -1.259069736789388E-016
 -1.324390449587243E-016
 -1.381152350882430E-016
 -1.450201836899802E-016
 -1.498120939666440E-016
 -1.543031022034997E-016
 -1.544636934753594E-016
 -1.560621856129914E-016
 -1.573911694055843E-016
 -1.572178454445981E-016
 -1.577160498224240E-016
 -1.587907273675685E-016
 -1.590935070987910E-016
  0.000000000000000E+000
 -1.503257389014552E-017
 -2.743519029646057E-017
 -4.188046691203890E-017
 -5.542026795003787E-017
 -6.561123096169176E-017
 -7.417766500490760E-017
 -8.480238759620243E-017
 -9.584995133806843E-017
 -1.045762829059387E-016
 -1.127540153799774E-016
 -1.205921639385554E-016
 -1.267167757879195E-016
 -1.350605110687890E-016
 -1.424699021059249E-016
 -1.484057136700170E-016
 -1.532319649821910E-016
 -1.557517897262379E-016
 -1.579510751808974E-016
 -1.591231938470561E-016
 -1.603195121817033E-016
 -1.607202491948126E-016
 -1.621372779529458E-016
 -1.632478538258945E-016
 -1.635353926648060E-016
  0.000000000000000E+000
 -1.405790685710112E-017
 -2.523261362619967E-017
 -3.986619122499987E-017
 -5.445069145624375E-017
 -6.456553479401364E-017
 -7.517031007350517E-017
 -8.710801352653414E-017
 -9.677529798786694E-017
 -1.076038346676665E-016
 -1.160321503156490E-016
 -1.229339187047634E-016
 -1.319010132943320E-016
 -1.384997650717944E-016
 -1.444638685674668E-016
 -1.503487485395209E-016
 -1.542552130577246E-016
 -1.578760603877955E-016
 -1.612112669052696E-016
 -1.629539477873027E-016
 -1.638901691412076E-016
 -1.648878240211086E-016
 -1.662561737770782E-016
 -1.672651428217439E-016
 -1.675529793823762E-016
  0.000000000000000E+000
 -1.191220611930181E-017
 -2.360849727259344E-017
 -3.716210396768297E-017
 -5.209030550172987E-017
 -6.565053431052926E-017
 -7.632255159720624E-017
 -8.640758872521165E-017
 -9.757897553918327E-017
 -1.082077439945855E-016
 -1.181369839014455E-016
 -1.251957442821363E-016
 -1.336696803069198E-016
 -1.414230534287608E-016
 -1.463678954759907E-016
 -1.515683448685450E-016
 -1.555593593934879E-016
 -1.599125055525008E-016
 -1.634566755604841E-016
 -1.653814933123117E-016
 -1.670344595867527E-016
 -1.688088116519538E-016
 -1.695016359700248E-016
 -1.703994184921858E-016
 -1.708007429833922E-016
  0.000000000000000E+000
 -1.050078458368508E-017
 -2.267352902641653E-017
 -3.532600389213098E-017
 -5.074373327372094E-017
 -6.223291694081258E-017
 -7.287051705066829E-017
 -8.542369582390339E-017
 -9.687379614329825E-017
 -1.076683233003810E-016
 -1.180525507496111E-016
 -1.262390393161309E-016
 -1.342616060268308E-016
 -1.426304545599072E-016
 -1.478112683755038E-016
 -1.519771797052581E-016
 -1.567477791083079E-016
 -1.603875180823009E-016
 -1.641740882710185E-016
 -1.668775065848167E-016
 -1.692441835064123E-016
 -1.711452749231797E-016
 -1.722516145252382E-016
 -1.728831723411060E-016
 -1.732031253741989E-016
  0.000000000000000E+000
 -8.626051558746526E-018
 -2.175122381440804E-017
 -3.644751847521937E-017
 -5.071031527579150E-017
 -6.008454631620915E-017
 -7.056831267016043E-017
 -8.508795257249591E-017
 -9.760312024258721E-017
 -1.085006125952105E-016
 -1.184740918837504E-016
 -1.272680115424710E-016
 -1.349804837054659E-016
 -1.421236607728388E-016
 -1.484332455642685E-016
 -1.535857072764932E-016
 -1.581994077099207E-016
 -1.617317009310772E-016
 -1.649284658375566E-016
 -1.681651532393506E-016
 -1.706316975316539E-016
 -1.723358335872744E-016
 -1.736921153058286E-016
 -1.744645787003623E-016
 -1.745231032143284E-016
  0.000000000000000E+000
 -8.715174886200294E-018
 -2.090339695199516E-017
 -3.665826201933533E-017
 -5.003731988138160E-017
 -5.960918487146791E-017
 -6.991996038649879E-017
 -8.486487920979610E-017
 -9.842151932044872E-017
 -1.092825870977651E-016
 -1.190851827920747E-016
 -1.271799702525489E-016
 -1.347146740678707E-016
 -1.417952722794081E-016
 -1.485750224259834E-016
 -1.543343406499501E-016
 -1.587084614831963E-016
 -1.628209501722908E-016
 -1.658634282287296E-016
 -1.685694979339634E-016
 -1.713094884098250E-016
 -1.729393678140597E-016
 -1.741574158462585E-016
 -1.749367431952378E-016
 -1.750243675154587E-016
VECTORS u double 
    0.00000E+00        -0.74038E+00         0.00000E+00
    0.00000E+00        -0.69738E+00         0.00000E+00
    0.00000E+00        -0.63656E+00         0.00000E+00
    0.00000E+00        -0.56776E+00         0.00000E+00
    0.00000E+00        -0.49934E+00         0.00000E+00
    0.00000E+00        -0.43603E+00         0.00000E+00
    0.00000E+00        -0.37960E+00         0.00000E+00
    0.00000E+00        -0.33016E+00         0.00000E+00
    0.00000E+00        -0.28690E+00         0.00000E+00
    0.00000E+00        -0.24878E+00         0.00000E+00
    0.00000E+00        -0.21497E+00         0.00000E+00
    0.00000E+00        -0.18479E+00         0.00000E+00
    0.00000E+00        -0.15783E+00         0.00000E+00
    0.00000E+00        -0.13385E+00         0.00000E+00
    0.00000E+00        -0.11263E+00         0.00000E+00
    0.00000E+00        -0.93929E-01         0.00000E+00
    0.00000E+00        -0.77457E-01         0.00000E+00
    0.00000E+00        -0.63022E-01         0.00000E+00
    0.00000E+00        -0.50422E-01         0.00000E+00
    0.00000E+00        -0.39388E-01         0.00000E+00
    0.00000E+00        -0.29678E-01         0.00000E+00
    0.00000E+00        -0.20974E-01         0.00000E+00
    0.00000E+00        -0.13148E-01         0.00000E+00
    0.00000E+00        -0.61552E-02         0.00000E+00
    0.00000E+00         0.00000E+00         0.00000E+00
   -0.11925E-01        -0.71830E+00         0.00000E+00
    0.31925E-01        -0.67387E+00         0.00000E+00
    0.58397E-01        -0.61143E+00         0.00000E+00
    0.67910E-01        -0.54480E+00         0.00000E+00
    0.66625E-01        -0.48054E+00         0.00000E+00
    0.60326E-01        -0.42140E+00         0.00000E+00
    0.52458E-01        -0.36838E+00         0.00000E+00
    0.44965E-01        -0.32142E+00         0.00000E+00
    0.38755E-01        -0.27994E+00         0.00000E+00
    0.33730E-01        -0.24319E+00         0.00000E+00
    0.29590E-01        -0.21045E+00         0.00000E+00
    0.26019E-01        -0.18119E+00         0.00000E+00
    0.22680E-01        -0.15506E+00         0.00000E+00
    0.19545E-01        -0.13175E+00         0.00000E+00
    0.16625E-01        -0.11106E+00         0.00000E+00
    0.13959E-01        -0.92779E-01         0.00000E+00
    0.11635E-01        -0.76672E-01         0.00000E+00
    0.93747E-02        -0.62523E-01         0.00000E+00
    0.75053E-02        -0.50094E-01         0.00000E+00
    0.59269E-02        -0.39176E-01         0.00000E+00
    0.46030E-02        -0.29541E-01         0.00000E+00
    0.34224E-02        -0.20887E-01         0.00000E+00
    0.23010E-02        -0.13098E-01         0.00000E+00
    0.11759E-02        -0.61340E-02         0.00000E+00
    0.00000E+00         0.00000E+00         0.00000E+00
   -0.19420E-01        -0.64387E+00         0.00000E+00
    0.77748E-01        -0.59159E+00         0.00000E+00
    0.11874E+00        -0.53173E+00         0.00000E+00
    0.12992E+00        -0.47681E+00         0.00000E+00
    0.12565E+00        -0.42610E+00         0.00000E+00
    0.11398E+00        -0.37915E+00         0.00000E+00
    0.10005E+00        -0.33579E+00         0.00000E+00
    0.86582E-01        -0.29599E+00         0.00000E+00
    0.74844E-01        -0.25977E+00         0.00000E+00
    0.65246E-01        -0.22702E+00         0.00000E+00
    0.57157E-01        -0.19752E+00         0.00000E+00
    0.50083E-01        -0.17100E+00         0.00000E+00
    0.43691E-01        -0.14717E+00         0.00000E+00
    0.37702E-01        -0.12579E+00         0.00000E+00
    0.32110E-01        -0.10667E+00         0.00000E+00
    0.27036E-01        -0.89604E-01         0.00000E+00
    0.22388E-01        -0.74462E-01         0.00000E+00
    0.18250E-01        -0.61050E-01         0.00000E+00
    0.14683E-01        -0.49122E-01         0.00000E+00
    0.11650E-01        -0.38541E-01         0.00000E+00
    0.90841E-02        -0.29127E-01         0.00000E+00
    0.67691E-02        -0.20620E-01         0.00000E+00
    0.45566E-02        -0.12944E-01         0.00000E+00
    0.23305E-02        -0.60686E-02         0.00000E+00
    0.00000E+00         0.00000E+00         0.00000E+00
    0.38451E-02        -0.45364E+00         0.00000E+00
    0.13256E+00        -0.41413E+00         0.00000E+00
    0.16851E+00        -0.39158E+00         0.00000E+00
    0.17702E+00        -0.36797E+00         0.00000E+00
    0.17021E+00        -0.34200E+00         0.00000E+00
    0.15584E+00        -0.31394E+00         0.00000E+00
    0.13869E+00        -0.28493E+00         0.00000E+00
    0.12157E+00        -0.25608E+00         0.00000E+00
    0.10588E+00        -0.22830E+00         0.00000E+00
    0.92287E-01        -0.20216E+00         0.00000E+00
    0.80776E-01        -0.17797E+00         0.00000E+00
    0.70699E-01        -0.15580E+00         0.00000E+00
    0.61590E-01        -0.13554E+00         0.00000E+00
    0.53222E-01        -0.11704E+00         0.00000E+00
    0.45499E-01        -0.10019E+00         0.00000E+00
    0.38434E-01        -0.84907E-01         0.00000E+00
    0.31888E-01        -0.71146E-01         0.00000E+00
    0.26196E-01        -0.58743E-01         0.00000E+00
    0.21270E-01        -0.47557E-01         0.00000E+00
    0.16988E-01        -0.37488E-01         0.00000E+00
    0.13332E-01        -0.28409E-01         0.00000E+00
    0.99657E-02        -0.20152E-01         0.00000E+00
    0.67186E-02        -0.12675E-01         0.00000E+00
    0.34403E-02        -0.59546E-02         0.00000E+00
    0.00000E+00         0.00000E+00         0.00000E+00
    0.80675E-01        -0.18150E+00         0.00000E+00
    0.15826E+00        -0.18853E+00         0.00000E+00
    0.19402E+00        -0.21211E+00         0.00000E+00
    0.20258E+00        -0.22768E+00         0.00000E+00
    0.19717E+00        -0.23275E+00         0.00000E+00
    0.18316E+00        -0.22932E+00         0.00000E+00
    0.16538E+00        -0.21961E+00         0.00000E+00
    0.14675E+00        -0.20577E+00         0.00000E+00
    0.12892E+00        -0.18958E+00         0.00000E+00
    0.11277E+00        -0.17236E+00         0.00000E+00
    0.98696E-01        -0.15503E+00         0.00000E+00
    0.86483E-01        -0.13813E+00         0.00000E+00
    0.75575E-01        -0.12199E+00         0.00000E+00
    0.65577E-01        -0.10674E+00         0.00000E+00
    0.56311E-01        -0.92468E-01         0.00000E+00
    0.47708E-01        -0.79240E-01         0.00000E+00
    0.39858E-01        -0.67018E-01         0.00000E+00
    0.33027E-01        -0.55738E-01         0.00000E+00
    0.27073E-01        -0.45421E-01         0.00000E+00
    0.21866E-01        -0.35989E-01         0.00000E+00
    0.17250E-01        -0.27359E-01         0.00000E+00
    0.12936E-01        -0.19466E-01         0.00000E+00
    0.87351E-02        -0.12281E-01         0.00000E+00
    0.44784E-02        -0.57884E-02         0.00000E+00
    0.00000E+00         0.00000E+00         0.00000E+00
    0.92168E-01        -0.11804E+00         0.00000E+00
    0.14336E+00        -0.11560E+00         0.00000E+00
    0.17887E+00        -0.12419E+00         0.00000E+00
    0.19539E+00        -0.14062E+00         0.00000E+00
    0.19702E+00        -0.15455E+00         0.00000E+00
    0.18868E+00        -0.16273E+00         0.00000E+00
    0.17473E+00        -0.16463E+00         0.00000E+00
    0.15828E+00        -0.16125E+00         0.00000E+00
    0.14136E+00        -0.15395E+00         0.00000E+00
    0.12515E+00        -0.14405E+00         0.00000E+00
    0.11040E+00        -0.13261E+00         0.00000E+00
    0.97254E-01        -0.12045E+00         0.00000E+00
    0.85469E-01        -0.10811E+00         0.00000E+00
    0.74649E-01        -0.95945E-01         0.00000E+00
    0.64510E-01        -0.84178E-01         0.00000E+00
    0.55047E-01        -0.72917E-01         0.00000E+00
    0.46473E-01        -0.62194E-01         0.00000E+00
    0.38771E-01        -0.52101E-01         0.00000E+00
    0.32050E-01        -0.42700E-01         0.00000E+00
    0.26186E-01        -0.34009E-01         0.00000E+00
    0.20750E-01        -0.25976E-01         0.00000E+00
    0.15604E-01        -0.18564E-01         0.00000E+00
    0.10554E-01        -0.11764E-01         0.00000E+00
    0.54170E-02        -0.55710E-02         0.00000E+00
    0.00000E+00         0.00000E+00         0.00000E+00
    0.10367E+00        -0.77413E-01         0.00000E+00
    0.13560E+00        -0.77012E-01         0.00000E+00
    0.16290E+00        -0.80395E-01         0.00000E+00
    0.17968E+00        -0.89569E-01         0.00000E+00
    0.18584E+00        -0.10170E+00         0.00000E+00
    0.18286E+00        -0.11230E+00         0.00000E+00
    0.17371E+00        -0.11922E+00         0.00000E+00
    0.16086E+00        -0.12191E+00         0.00000E+00
    0.14639E+00        -0.12074E+00         0.00000E+00
    0.13158E+00        -0.11650E+00         0.00000E+00
    0.11741E+00        -0.11002E+00         0.00000E+00
    0.10434E+00        -0.10207E+00         0.00000E+00
    0.92347E-01        -0.93295E-01         0.00000E+00
    0.81176E-01        -0.84118E-01         0.00000E+00
    0.70727E-01        -0.74800E-01         0.00000E+00
    0.60978E-01        -0.65498E-01         0.00000E+00
    0.51972E-01        -0.56395E-01         0.00000E+00
    0.43709E-01        -0.47652E-01         0.00000E+00
    0.36306E-01        -0.39381E-01         0.00000E+00
    0.29829E-01        -0.31614E-01         0.00000E+00
    0.23750E-01        -0.24311E-01         0.00000E+00
    0.17904E-01        -0.17483E-01         0.00000E+00
    0.12130E-01        -0.11145E-01         0.00000E+00
    0.62316E-02        -0.53100E-02         0.00000E+00
    0.00000E+00         0.00000E+00         0.00000E+00
    0.10951E+00        -0.52917E-01         0.00000E+00
    0.13113E+00        -0.52779E-01         0.00000E+00
    0.15095E+00        -0.55413E-01         0.00000E+00
    0.16498E+00        -0.60333E-01         0.00000E+00
    0.17192E+00        -0.68624E-01         0.00000E+00
    0.17198E+00        -0.77865E-01         0.00000E+00
    0.16662E+00        -0.85533E-01         0.00000E+00
    0.15730E+00        -0.90603E-01         0.00000E+00
    0.14573E+00        -0.92726E-01         0.00000E+00
    0.13303E+00        -0.92141E-01         0.00000E+00
    0.12021E+00        -0.89287E-01         0.00000E+00
    0.10791E+00        -0.84685E-01         0.00000E+00
    0.96329E-01        -0.78855E-01         0.00000E+00
    0.85415E-01        -0.72222E-01         0.00000E+00
    0.75093E-01        -0.65091E-01         0.00000E+00
    0.65311E-01        -0.57712E-01         0.00000E+00
    0.56107E-01        -0.50280E-01         0.00000E+00
    0.47532E-01        -0.42970E-01         0.00000E+00
    0.39752E-01        -0.35843E-01         0.00000E+00
    0.32784E-01        -0.29006E-01         0.00000E+00
    0.26189E-01        -0.22485E-01         0.00000E+00
    0.19798E-01        -0.16291E-01         0.00000E+00
    0.13435E-01        -0.10458E-01         0.00000E+00
    0.69065E-02        -0.50191E-02         0.00000E+00
    0.00000E+00         0.00000E+00         0.00000E+00
    0.11247E+00        -0.36648E-01         0.00000E+00
    0.12741E+00        -0.37095E-01         0.00000E+00
    0.14203E+00        -0.39636E-01         0.00000E+00
    0.15296E+00        -0.43102E-01         0.00000E+00
    0.15898E+00        -0.48467E-01         0.00000E+00
    0.16021E+00        -0.55259E-01         0.00000E+00
    0.15707E+00        -0.62050E-01         0.00000E+00
    0.15043E+00        -0.67456E-01         0.00000E+00
    0.14143E+00        -0.70870E-01         0.00000E+00
    0.13092E+00        -0.72198E-01         0.00000E+00
    0.11979E+00        -0.71565E-01         0.00000E+00
    0.10870E+00        -0.69256E-01         0.00000E+00
    0.97973E-01        -0.65626E-01         0.00000E+00
    0.87621E-01        -0.61053E-01         0.00000E+00
    0.77652E-01        -0.55833E-01         0.00000E+00
    0.68081E-01        -0.50184E-01         0.00000E+00
    0.58901E-01        -0.44309E-01         0.00000E+00
    0.50296E-01        -0.38300E-01         0.00000E+00
    0.42348E-01        -0.32309E-01         0.00000E+00
    0.35028E-01        -0.26411E-01         0.00000E+00
    0.28076E-01        -0.20641E-01         0.00000E+00
    0.21280E-01        -0.15068E-01         0.00000E+00
    0.14463E-01        -0.97461E-02         0.00000E+00
    0.74375E-02        -0.47140E-02         0.00000E+00
    0.00000E+00         0.00000E+00         0.00000E+00
    0.11337E+00        -0.25751E-01         0.00000E+00
    0.12381E+00        -0.26576E-01         0.00000E+00
    0.13465E+00        -0.28952E-01         0.00000E+00
    0.14309E+00        -0.32380E-01         0.00000E+00
    0.14797E+00        -0.36150E-01         0.00000E+00
    0.14926E+00        -0.40940E-01         0.00000E+00
    0.14730E+00        -0.46136E-01         0.00000E+00
    0.14240E+00        -0.50946E-01         0.00000E+00
    0.13537E+00        -0.54565E-01         0.00000E+00
    0.12673E+00        -0.56695E-01         0.00000E+00
    0.11724E+00        -0.57293E-01         0.00000E+00
    0.10743E+00        -0.56458E-01         0.00000E+00
    0.97689E-01        -0.54403E-01         0.00000E+00
    0.88074E-01        -0.51396E-01         0.00000E+00
    0.78630E-01        -0.47688E-01         0.00000E+00
    0.69427E-01        -0.43471E-01         0.00000E+00
    0.60501E-01        -0.38875E-01         0.00000E+00
    0.52018E-01        -0.34060E-01         0.00000E+00
    0.44068E-01        -0.29079E-01         0.00000E+00
    0.36624E-01        -0.23964E-01         0.00000E+00
    0.29453E-01        -0.18868E-01         0.00000E+00
    0.22376E-01        -0.13875E-01         0.00000E+00
    0.15227E-01        -0.90416E-02         0.00000E+00
    0.78307E-02        -0.44081E-02         0.00000E+00
    0.00000E+00         0.00000E+00         0.00000E+00
    0.11269E+00        -0.18196E-01         0.00000E+00
    0.12013E+00        -0.19343E-01         0.00000E+00
    0.12811E+00        -0.21668E-01         0.00000E+00
    0.13468E+00        -0.24905E-01         0.00000E+00
    0.13860E+00        -0.28454E-01         0.00000E+00
    0.13966E+00        -0.32020E-01         0.00000E+00
    0.13812E+00        -0.35934E-01         0.00000E+00
    0.13431E+00        -0.39743E-01         0.00000E+00
    0.12866E+00        -0.42951E-01         0.00000E+00
    0.12147E+00        -0.45263E-01         0.00000E+00
    0.11339E+00        -0.46402E-01         0.00000E+00
    0.10479E+00        -0.46401E-01         0.00000E+00
    0.96025E-01        -0.45371E-01         0.00000E+00
    0.87189E-01        -0.43500E-01         0.00000E+00
    0.78334E-01        -0.40941E-01         0.00000E+00
    0.69630E-01        -0.37823E-01         0.00000E+00
    0.61046E-01        -0.34336E-01         0.00000E+00
    0.52867E-01        -0.30420E-01         0.00000E+00
    0.45105E-01        -0.26146E-01         0.00000E+00
    0.37655E-01        -0.21703E-01         0.00000E+00
    0.30378E-01        -0.17209E-01         0.00000E+00
    0.23126E-01        -0.12744E-01         0.00000E+00
    0.15752E-01        -0.83658E-02         0.00000E+00
    0.80995E-02        -0.41109E-02         0.00000E+00
    0.00000E+00         0.00000E+00         0.00000E+00
    0.11084E+00        -0.12782E-01         0.00000E+00
    0.11626E+00        -0.14176E-01         0.00000E+00
    0.12216E+00        -0.16425E-01         0.00000E+00
    0.12718E+00        -0.19444E-01         0.00000E+00
    0.13035E+00        -0.22881E-01         0.00000E+00
    0.13122E+00        -0.26265E-01         0.00000E+00
    0.12988E+00        -0.29440E-01         0.00000E+00
    0.12669E+00        -0.32434E-01         0.00000E+00
    0.12192E+00        -0.35121E-01         0.00000E+00
    0.11583E+00        -0.37241E-01         0.00000E+00
    0.10888E+00        -0.38531E-01         0.00000E+00
    0.10131E+00        -0.38960E-01         0.00000E+00
    0.93411E-01        -0.38548E-01         0.00000E+00
    0.85343E-01        -0.37414E-01         0.00000E+00
    0.77129E-01        -0.35696E-01         0.00000E+00
    0.68923E-01        -0.33416E-01         0.00000E+00
    0.60915E-01        -0.30522E-01         0.00000E+00
    0.53127E-01        -0.27165E-01         0.00000E+00
    0.45583E-01        -0.23499E-01         0.00000E+00
    0.38210E-01        -0.19637E-01         0.00000E+00
    0.30913E-01        -0.15676E-01         0.00000E+00
    0.23575E-01        -0.11690E-01         0.00000E+00
    0.16069E-01        -0.77289E-02         0.00000E+00
    0.82598E-02        -0.38272E-02         0.00000E+00
    0.00000E+00         0.00000E+00         0.00000E+00
    0.10817E+00        -0.87411E-02         0.00000E+00
    0.11223E+00        -0.10299E-01         0.00000E+00
    0.11663E+00        -0.12478E-01         0.00000E+00
    0.12041E+00        -0.15269E-01         0.00000E+00
    0.12287E+00        -0.18457E-01         0.00000E+00
    0.12358E+00        -0.21751E-01         0.00000E+00
    0.12246E+00        -0.24845E-01         0.00000E+00
    0.11970E+00        -0.27545E-01         0.00000E+00
    0.11553E+00        -0.29865E-01         0.00000E+00
    0.11026E+00        -0.31701E-01         0.00000E+00
    0.10416E+00        -0.32962E-01         0.00000E+00
    0.97441E-01        -0.33597E-01         0.00000E+00
    0.90307E-01        -0.33574E-01         0.00000E+00
    0.82947E-01        -0.32856E-01         0.00000E+00
    0.75411E-01        -0.31492E-01         0.00000E+00
    0.67836E-01        -0.29544E-01         0.00000E+00
    0.60329E-01        -0.27107E-01         0.00000E+00
    0.52918E-01        -0.24265E-01         0.00000E+00
    0.45611E-01        -0.21115E-01         0.00000E+00
    0.38368E-01        -0.17758E-01         0.00000E+00
    0.31116E-01        -0.14270E-01         0.00000E+00
    0.23765E-01        -0.10714E-01         0.00000E+00
    0.16207E-01        -0.71341E-02         0.00000E+00
    0.83274E-02        -0.35592E-02         0.00000E+00
    0.00000E+00         0.00000E+00         0.00000E+00
    0.10494E+00        -0.55856E-02         0.00000E+00
    0.10809E+00        -0.72447E-02         0.00000E+00
    0.11140E+00        -0.93504E-02         0.00000E+00
    0.11424E+00        -0.11927E-01         0.00000E+00
    0.11607E+00        -0.14844E-01         0.00000E+00
    0.11656E+00        -0.17884E-01         0.00000E+00
    0.11559E+00        -0.20819E-01         0.00000E+00
    0.11321E+00        -0.23475E-01         0.00000E+00
    0.10958E+00        -0.25715E-01         0.00000E+00
    0.10494E+00        -0.27462E-01         0.00000E+00
    0.99532E-01        -0.28666E-01         0.00000E+00
    0.93525E-01        -0.29296E-01         0.00000E+00
    0.87100E-01        -0.29333E-01         0.00000E+00
    0.80389E-01        -0.28797E-01         0.00000E+00
    0.73475E-01        -0.27712E-01         0.00000E+00
    0.66448E-01        -0.26116E-01         0.00000E+00
    0.59387E-01        -0.24076E-01         0.00000E+00
    0.52329E-01        -0.21668E-01         0.00000E+00
    0.45274E-01        -0.18969E-01         0.00000E+00
    0.38196E-01        -0.16053E-01         0.00000E+00
    0.31041E-01        -0.12984E-01         0.00000E+00
    0.23736E-01        -0.98146E-02         0.00000E+00
    0.16194E-01        -0.65816E-02         0.00000E+00
    0.83172E-02        -0.33076E-02         0.00000E+00
    0.00000E+00         0.00000E+00         0.00000E+00
    0.10138E+00        -0.30183E-02         0.00000E+00
    0.10389E+00        -0.47284E-02         0.00000E+00
    0.10642E+00        -0.67598E-02         0.00000E+00
    0.10855E+00        -0.91434E-02         0.00000E+00
    0.10988E+00        -0.11796E-01         0.00000E+00
    0.11015E+00        -0.14565E-01         0.00000E+00
    0.10923E+00        -0.17272E-01         0.00000E+00
    0.10714E+00        -0.19752E-01         0.00000E+00
    0.10397E+00        -0.21876E-01         0.00000E+00
    0.99895E-01        -0.23557E-01         0.00000E+00
    0.95082E-01        -0.24743E-01         0.00000E+00
    0.89695E-01        -0.25412E-01         0.00000E+00
    0.83875E-01        -0.25559E-01         0.00000E+00
    0.77733E-01        -0.25198E-01         0.00000E+00
    0.71355E-01        -0.24355E-01         0.00000E+00
    0.64813E-01        -0.23064E-01         0.00000E+00
    0.58163E-01        -0.21375E-01         0.00000E+00
    0.51437E-01        -0.19345E-01         0.00000E+00
    0.44641E-01        -0.17037E-01         0.00000E+00
    0.37753E-01        -0.14509E-01         0.00000E+00
    0.30734E-01        -0.11812E-01         0.00000E+00
    0.23525E-01        -0.89890E-02         0.00000E+00
    0.16054E-01        -0.60699E-02         0.00000E+00
    0.82419E-02        -0.30723E-02         0.00000E+00
    0.00000E+00         0.00000E+00         0.00000E+00
    0.97635E-01        -0.85768E-03         0.00000E+00
    0.99688E-01        -0.25826E-02         0.00000E+00
    0.10166E+00        -0.45393E-02         0.00000E+00
    0.10325E+00        -0.67546E-02         0.00000E+00
    0.10418E+00        -0.91738E-02         0.00000E+00
    0.10426E+00        -0.11686E-01         0.00000E+00
    0.10337E+00        -0.14153E-01         0.00000E+00
    0.10150E+00        -0.16439E-01         0.00000E+00
    0.98698E-01        -0.18428E-01         0.00000E+00
    0.95084E-01        -0.20037E-01         0.00000E+00
    0.90786E-01        -0.21213E-01         0.00000E+00
    0.85932E-01        -0.21933E-01         0.00000E+00
    0.80639E-01        -0.22190E-01         0.00000E+00
    0.75001E-01        -0.21997E-01         0.00000E+00
    0.69096E-01        -0.21373E-01         0.00000E+00
    0.62984E-01        -0.20350E-01         0.00000E+00
    0.56712E-01        -0.18966E-01         0.00000E+00
    0.50305E-01        -0.17266E-01         0.00000E+00
    0.43770E-01        -0.15300E-01         0.00000E+00
    0.37091E-01        -0.13112E-01         0.00000E+00
    0.30237E-01        -0.10746E-01         0.00000E+00
    0.23163E-01        -0.82326E-02         0.00000E+00
    0.15810E-01        -0.55974E-02         0.00000E+00
    0.81131E-02        -0.28528E-02         0.00000E+00
    0.00000E+00         0.00000E+00         0.00000E+00
    0.93813E-01         0.10054E-02         0.00000E+00
    0.95532E-01        -0.70911E-03         0.00000E+00
    0.97087E-01        -0.25926E-02         0.00000E+00
    0.98279E-01        -0.46636E-02         0.00000E+00
    0.98913E-01        -0.68835E-02         0.00000E+00
    0.98835E-01        -0.91705E-02         0.00000E+00
    0.97953E-01        -0.11419E-01         0.00000E+00
    0.96241E-01        -0.13519E-01         0.00000E+00
    0.93732E-01        -0.15374E-01         0.00000E+00
    0.90498E-01        -0.16909E-01         0.00000E+00
    0.86633E-01        -0.18072E-01         0.00000E+00
    0.82238E-01        -0.18837E-01         0.00000E+00
    0.77404E-01        -0.19195E-01         0.00000E+00
    0.72212E-01        -0.19152E-01         0.00000E+00
    0.66730E-01        -0.18725E-01         0.00000E+00
    0.61008E-01        -0.17936E-01         0.00000E+00
    0.55085E-01        -0.16818E-01         0.00000E+00
    0.48983E-01        -0.15407E-01         0.00000E+00
    0.42708E-01        -0.13739E-01         0.00000E+00
    0.36250E-01        -0.11852E-01         0.00000E+00
    0.29586E-01        -0.97770E-02         0.00000E+00
    0.22678E-01        -0.75410E-02         0.00000E+00
    0.15480E-01        -0.51618E-02         0.00000E+00
    0.79405E-02        -0.26486E-02         0.00000E+00
    0.00000E+00         0.00000E+00         0.00000E+00
    0.89988E-01         0.26364E-02         0.00000E+00
    0.91450E-01         0.94873E-03         0.00000E+00
    0.92696E-01        -0.86426E-03         0.00000E+00
    0.93589E-01        -0.28122E-02         0.00000E+00
    0.93992E-01        -0.48656E-02         0.00000E+00
    0.93791E-01        -0.69629E-02         0.00000E+00
    0.92911E-01        -0.90230E-02         0.00000E+00
    0.91324E-01        -0.10959E-01         0.00000E+00
    0.89046E-01        -0.12691E-01         0.00000E+00
    0.86123E-01        -0.14154E-01         0.00000E+00
    0.82623E-01        -0.15299E-01         0.00000E+00
    0.78619E-01        -0.16100E-01         0.00000E+00
    0.74186E-01        -0.16545E-01         0.00000E+00
    0.69390E-01        -0.16633E-01         0.00000E+00
    0.64286E-01        -0.16376E-01         0.00000E+00
    0.58919E-01        -0.15793E-01         0.00000E+00
    0.53320E-01        -0.14907E-01         0.00000E+00
    0.47511E-01        -0.13746E-01         0.00000E+00
    0.41495E-01        -0.12340E-01         0.00000E+00
    0.35268E-01        -0.10715E-01         0.00000E+00
    0.28810E-01        -0.88989E-02         0.00000E+00
    0.22094E-01        -0.69098E-02         0.00000E+00
    0.15082E-01        -0.47614E-02         0.00000E+00
    0.77328E-02        -0.24592E-02         0.00000E+00
    0.00000E+00         0.00000E+00         0.00000E+00
    0.86205E-01         0.40752E-02         0.00000E+00
    0.87461E-01         0.24243E-02         0.00000E+00
    0.88470E-01         0.67832E-03         0.00000E+00
    0.89137E-01        -0.11647E-02         0.00000E+00
    0.89366E-01        -0.30802E-02         0.00000E+00
    0.89070E-01        -0.50207E-02         0.00000E+00
    0.88192E-01        -0.69233E-02         0.00000E+00
    0.86705E-01        -0.87193E-02         0.00000E+00
    0.84613E-01        -0.10343E-01         0.00000E+00
    0.81946E-01        -0.11739E-01         0.00000E+00
    0.78751E-01        -0.12865E-01         0.00000E+00
    0.75083E-01        -0.13693E-01         0.00000E+00
    0.71000E-01        -0.14209E-01         0.00000E+00
    0.66553E-01        -0.14409E-01         0.00000E+00
    0.61790E-01        -0.14299E-01         0.00000E+00
    0.56748E-01        -0.13893E-01         0.00000E+00
    0.51454E-01        -0.13208E-01         0.00000E+00
    0.45924E-01        -0.12265E-01         0.00000E+00
    0.40166E-01        -0.11086E-01         0.00000E+00
    0.34175E-01        -0.96928E-02         0.00000E+00
    0.27937E-01        -0.81043E-02         0.00000E+00
    0.21432E-01        -0.63349E-02         0.00000E+00
    0.14629E-01        -0.43939E-02         0.00000E+00
    0.74974E-02        -0.22840E-02         0.00000E+00
    0.00000E+00         0.00000E+00         0.00000E+00
    0.82493E-01         0.53471E-02         0.00000E+00
    0.83577E-01         0.37381E-02         0.00000E+00
    0.84399E-01         0.20551E-02         0.00000E+00
    0.84893E-01         0.30217E-03         0.00000E+00
    0.84989E-01        -0.14992E-02         0.00000E+00
    0.84623E-01        -0.33109E-02         0.00000E+00
    0.83749E-01        -0.50835E-02         0.00000E+00
    0.82343E-01        -0.67624E-02         0.00000E+00
    0.80404E-01        -0.82939E-02         0.00000E+00
    0.77950E-01        -0.96313E-02         0.00000E+00
    0.75013E-01        -0.10737E-01         0.00000E+00
    0.71634E-01        -0.11584E-01         0.00000E+00
    0.67856E-01        -0.12158E-01         0.00000E+00
    0.63721E-01        -0.12452E-01         0.00000E+00
    0.59266E-01        -0.12467E-01         0.00000E+00
    0.54523E-01        -0.12213E-01         0.00000E+00
    0.49513E-01        -0.11701E-01         0.00000E+00
    0.44253E-01        -0.10946E-01         0.00000E+00
    0.38748E-01        -0.99655E-02         0.00000E+00
    0.32997E-01        -0.87744E-02         0.00000E+00
    0.26989E-01        -0.73866E-02         0.00000E+00
    0.20709E-01        -0.58124E-02         0.00000E+00
    0.14134E-01        -0.40576E-02         0.00000E+00
    0.72405E-02        -0.21222E-02         0.00000E+00
    0.00000E+00         0.00000E+00         0.00000E+00
    0.78867E-01         0.64691E-02         0.00000E+00
    0.79801E-01         0.49041E-02         0.00000E+00
    0.80473E-01         0.32799E-02         0.00000E+00
    0.80832E-01         0.16047E-02         0.00000E+00
    0.80827E-01        -0.10145E-03         0.00000E+00
    0.80409E-01        -0.18074E-02         0.00000E+00
    0.79542E-01        -0.34733E-02         0.00000E+00
    0.78205E-01        -0.50550E-02         0.00000E+00
    0.76395E-01        -0.65090E-02         0.00000E+00
    0.74120E-01        -0.77954E-02         0.00000E+00
    0.71403E-01        -0.88816E-02         0.00000E+00
    0.68274E-01        -0.97430E-02         0.00000E+00
    0.64764E-01        -0.10364E-01         0.00000E+00
    0.60907E-01        -0.10735E-01         0.00000E+00
    0.56732E-01        -0.10856E-01         0.00000E+00
    0.52264E-01        -0.10731E-01         0.00000E+00
    0.47523E-01        -0.10367E-01         0.00000E+00
    0.42522E-01        -0.97750E-02         0.00000E+00
    0.37267E-01        -0.89660E-02         0.00000E+00
    0.31757E-01        -0.79511E-02         0.00000E+00
    0.25985E-01        -0.67397E-02         0.00000E+00
    0.19941E-01        -0.53386E-02         0.00000E+00
    0.13608E-01        -0.37504E-02         0.00000E+00
    0.69675E-02        -0.19733E-02         0.00000E+00
    0.00000E+00         0.00000E+00         0.00000E+00
    0.75332E-01         0.74541E-02         0.00000E+00
    0.76135E-01         0.59330E-02         0.00000E+00
    0.76682E-01         0.43633E-02         0.00000E+00
    0.76933E-01         0.27560E-02         0.00000E+00
    0.76850E-01         0.11299E-02         0.00000E+00
    0.76395E-01        -0.48856E-03         0.00000E+00
    0.75538E-01        -0.20666E-02         0.00000E+00
    0.74262E-01        -0.35682E-02         0.00000E+00
    0.72561E-01        -0.49572E-02         0.00000E+00
    0.70440E-01        -0.62002E-02         0.00000E+00
    0.67914E-01        -0.72685E-02         0.00000E+00
    0.65002E-01        -0.81397E-02         0.00000E+00
    0.61730E-01        -0.87980E-02         0.00000E+00
    0.58122E-01        -0.92339E-02         0.00000E+00
    0.54203E-01        -0.94435E-02         0.00000E+00
    0.49991E-01        -0.94275E-02         0.00000E+00
    0.45503E-01        -0.91899E-02         0.00000E+00
    0.40751E-01        -0.87370E-02         0.00000E+00
    0.35741E-01        -0.80762E-02         0.00000E+00
    0.30472E-01        -0.72146E-02         0.00000E+00
    0.24941E-01        -0.61579E-02         0.00000E+00
    0.19140E-01        -0.49098E-02         0.00000E+00
    0.13059E-01        -0.34705E-02         0.00000E+00
    0.66832E-02        -0.18365E-02         0.00000E+00
    0.00000E+00         0.00000E+00         0.00000E+00
    0.71889E-01         0.83130E-02         0.00000E+00
    0.72575E-01         0.68342E-02         0.00000E+00
    0.73016E-01         0.53148E-02         0.00000E+00
    0.73180E-01         0.37672E-02         0.00000E+00
    0.73036E-01         0.22092E-02         0.00000E+00
    0.72554E-01         0.66386E-03         0.00000E+00
    0.71710E-01        -0.84133E-03         0.00000E+00
    0.70490E-01        -0.22764E-02         0.00000E+00
    0.68885E-01        -0.36112E-02         0.00000E+00
    0.66898E-01        -0.48171E-02         0.00000E+00
    0.64538E-01        -0.58692E-02         0.00000E+00
    0.61819E-01        -0.67472E-02         0.00000E+00
    0.58759E-01        -0.74356E-02         0.00000E+00
    0.55377E-01        -0.79243E-02         0.00000E+00
    0.51691E-01        -0.82075E-02         0.00000E+00
    0.47718E-01        -0.82833E-02         0.00000E+00
    0.43471E-01        -0.81529E-02         0.00000E+00
    0.38958E-01        -0.78191E-02         0.00000E+00
    0.34187E-01        -0.72859E-02         0.00000E+00
    0.29158E-01        -0.65571E-02         0.00000E+00
    0.23870E-01        -0.56356E-02         0.00000E+00
    0.18318E-01        -0.45224E-02         0.00000E+00
    0.12495E-01        -0.32159E-02         0.00000E+00
    0.63914E-02        -0.17113E-02         0.00000E+00
    0.00000E+00         0.00000E+00         0.00000E+00
    0.68537E-01         0.90554E-02         0.00000E+00
    0.69117E-01         0.76168E-02         0.00000E+00
    0.69467E-01         0.61435E-02         0.00000E+00
    0.69558E-01         0.46488E-02         0.00000E+00
    0.69366E-01         0.31495E-02         0.00000E+00
    0.68866E-01         0.16660E-02         0.00000E+00
    0.68038E-01         0.22179E-03         0.00000E+00
    0.66868E-01        -0.11577E-02         0.00000E+00
    0.65349E-01        -0.24468E-02         0.00000E+00
    0.63480E-01        -0.36210E-02         0.00000E+00
    0.61268E-01        -0.46585E-02         0.00000E+00
    0.58721E-01        -0.55407E-02         0.00000E+00
    0.55853E-01        -0.62529E-02         0.00000E+00
    0.52677E-01        -0.67846E-02         0.00000E+00
    0.49207E-01        -0.71287E-02         0.00000E+00
    0.45458E-01        -0.72814E-02         0.00000E+00
    0.41438E-01        -0.72414E-02         0.00000E+00
    0.37157E-01        -0.70090E-02         0.00000E+00
    0.32620E-01        -0.65852E-02         0.00000E+00
    0.27829E-01        -0.59713E-02         0.00000E+00
    0.22784E-01        -0.51677E-02         0.00000E+00
    0.17483E-01        -0.41733E-02         0.00000E+00
    0.11921E-01        -0.29849E-02         0.00000E+00
    0.60952E-02        -0.15968E-02         0.00000E+00
    0.00000E+00         0.00000E+00         0.00000E+00
    0.65269E-01         0.96906E-02         0.00000E+00
    0.65755E-01         0.82896E-02         0.00000E+00
    0.66024E-01         0.68585E-02         0.00000E+00
    0.66055E-01         0.54110E-02         0.00000E+00
    0.65825E-01         0.39628E-02         0.00000E+00
    0.65313E-01         0.25323E-02         0.00000E+00
    0.64502E-01         0.11399E-02         0.00000E+00
    0.63380E-01        -0.19244E-03         0.00000E+00
    0.61939E-01        -0.14427E-02         0.00000E+00
    0.60178E-01        -0.25895E-02         0.00000E+00
    0.58098E-01        -0.36135E-02         0.00000E+00
    0.55707E-01        -0.44979E-02         0.00000E+00
    0.53013E-01        -0.52287E-02         0.00000E+00
    0.50026E-01        -0.57951E-02         0.00000E+00
    0.46758E-01        -0.61894E-02         0.00000E+00
    0.43219E-01        -0.64061E-02         0.00000E+00
    0.39416E-01        -0.64421E-02         0.00000E+00
    0.35359E-01        -0.62955E-02         0.00000E+00
    0.31050E-01        -0.59652E-02         0.00000E+00
    0.26494E-01        -0.54503E-02         0.00000E+00
    0.21691E-01        -0.47492E-02         0.00000E+00
    0.16642E-01        -0.38591E-02         0.00000E+00
    0.11344E-01        -0.27757E-02         0.00000E+00
    0.57973E-02        -0.14923E-02         0.00000E+00
    0.00000E+00         0.00000E+00         0.00000E+00
    0.62081E-01         0.10228E-01         0.00000E+00
    0.62481E-01         0.88615E-02         0.00000E+00
    0.62681E-01         0.74691E-02         0.00000E+00
    0.62661E-01         0.60639E-02         0.00000E+00
    0.62400E-01         0.46607E-02         0.00000E+00
    0.61882E-01         0.32762E-02         0.00000E+00
    0.61089E-01         0.19284E-02         0.00000E+00
    0.60013E-01         0.63652E-03         0.00000E+00
    0.58644E-01        -0.58015E-03         0.00000E+00
    0.56980E-01        -0.17029E-02         0.00000E+00
    0.55022E-01        -0.27144E-02         0.00000E+00
    0.52773E-01        -0.35991E-02         0.00000E+00
    0.50240E-01        -0.43440E-02         0.00000E+00
    0.47429E-01        -0.49382E-02         0.00000E+00
    0.44349E-01        -0.53733E-02         0.00000E+00
    0.41009E-01        -0.56429E-02         0.00000E+00
    0.37414E-01        -0.57424E-02         0.00000E+00
    0.33572E-01        -0.56683E-02         0.00000E+00
    0.29487E-01        -0.54177E-02         0.00000E+00
    0.25162E-01        -0.49878E-02         0.00000E+00
    0.20600E-01        -0.43756E-02         0.00000E+00
    0.15802E-01        -0.35770E-02         0.00000E+00
    0.10768E-01        -0.25866E-02         0.00000E+00
    0.55000E-02        -0.13973E-02         0.00000E+00
    0.00000E+00         0.00000E+00         0.00000E+00
    0.58966E-01         0.10676E-01         0.00000E+00
    0.59289E-01         0.93415E-02         0.00000E+00
    0.59428E-01         0.79844E-02         0.00000E+00
    0.59365E-01         0.66173E-02         0.00000E+00
    0.59080E-01         0.52541E-02         0.00000E+00
    0.58559E-01         0.39100E-02         0.00000E+00
    0.57787E-01         0.26012E-02         0.00000E+00
    0.56754E-01         0.13446E-02         0.00000E+00
    0.55453E-01         0.15743E-03         0.00000E+00
    0.53880E-01        -0.94375E-03         0.00000E+00
    0.52034E-01        -0.19432E-02         0.00000E+00
    0.49916E-01        -0.28267E-02         0.00000E+00
    0.47532E-01        -0.35818E-02         0.00000E+00
    0.44886E-01        -0.41978E-02         0.00000E+00
    0.41984E-01        -0.46659E-02         0.00000E+00
    0.38833E-01        -0.49790E-02         0.00000E+00
    0.35438E-01        -0.51313E-02         0.00000E+00
    0.31805E-01        -0.51180E-02         0.00000E+00
    0.27937E-01        -0.49349E-02         0.00000E+00
    0.23840E-01        -0.45779E-02         0.00000E+00
    0.19516E-01        -0.40426E-02         0.00000E+00
    0.14966E-01        -0.33240E-02         0.00000E+00
    0.10195E-01        -0.24159E-02         0.00000E+00
    0.52049E-02        -0.13109E-02         0.00000E+00
    0.00000E+00         0.00000E+00         0.00000E+00
    0.55919E-01         0.11044E-01         0.00000E+00
    0.56172E-01         0.97384E-02         0.00000E+00
    0.56258E-01         0.84135E-02         0.00000E+00
    0.56158E-01         0.70809E-02         0.00000E+00
    0.55855E-01         0.57536E-02         0.00000E+00
    0.55335E-01         0.44455E-02         0.00000E+00
    0.54585E-01         0.31711E-02         0.00000E+00
    0.53595E-01         0.19458E-02         0.00000E+00
    0.52358E-01         0.78489E-03         0.00000E+00
    0.50869E-01        -0.29658E-03         0.00000E+00
    0.49128E-01        -0.12843E-02         0.00000E+00
    0.47134E-01        -0.21651E-02         0.00000E+00
    0.44890E-01        -0.29271E-02         0.00000E+00
    0.42399E-01        -0.35598E-02         0.00000E+00
    0.39666E-01        -0.40542E-02         0.00000E+00
    0.36695E-01        -0.44026E-02         0.00000E+00
    0.33492E-01        -0.45985E-02         0.00000E+00
    0.30062E-01        -0.46361E-02         0.00000E+00
    0.26407E-01        -0.45100E-02         0.00000E+00
    0.22533E-01        -0.42152E-02         0.00000E+00
    0.18443E-01        -0.37464E-02         0.00000E+00
    0.14140E-01        -0.30975E-02         0.00000E+00
    0.96288E-02        -0.22622E-02         0.00000E+00
    0.49134E-02        -0.12326E-02         0.00000E+00
    0.00000E+00         0.00000E+00         0.00000E+00
    0.52932E-01         0.11340E-01         0.00000E+00
    0.53125E-01         0.10061E-01         0.00000E+00
    0.53165E-01         0.87654E-02         0.00000E+00
    0.53034E-01         0.74642E-02         0.00000E+00
    0.52717E-01         0.61692E-02         0.00000E+00
    0.52201E-01         0.48933E-02         0.00000E+00
    0.51474E-01         0.36498E-02         0.00000E+00
    0.50526E-01         0.24526E-02         0.00000E+00
    0.49350E-01         0.13155E-02         0.00000E+00
    0.47942E-01         0.25237E-03         0.00000E+00
    0.46300E-01        -0.72375E-03         0.00000E+00
    0.44422E-01        -0.16005E-02         0.00000E+00
    0.42311E-01        -0.23665E-02         0.00000E+00
    0.39967E-01        -0.30115E-02         0.00000E+00
    0.37395E-01        -0.35265E-02         0.00000E+00
    0.34598E-01        -0.39034E-02         0.00000E+00
    0.31581E-01        -0.41350E-02         0.00000E+00
    0.28347E-01        -0.42148E-02         0.00000E+00
    0.24900E-01        -0.41367E-02         0.00000E+00
    0.21245E-01        -0.38948E-02         0.00000E+00
    0.17385E-01        -0.34831E-02         0.00000E+00
    0.13326E-01        -0.28951E-02         0.00000E+00
    0.90708E-02        -0.21239E-02         0.00000E+00
    0.46265E-02        -0.11617E-02         0.00000E+00
    0.00000E+00         0.00000E+00         0.00000E+00
    0.50001E-01         0.11572E-01         0.00000E+00
    0.50141E-01         0.10318E-01         0.00000E+00
    0.50141E-01         0.90487E-02         0.00000E+00
    0.49985E-01         0.77760E-02         0.00000E+00
    0.49659E-01         0.65103E-02         0.00000E+00
    0.49149E-01         0.52636E-02         0.00000E+00
    0.48446E-01         0.40481E-02         0.00000E+00
    0.47540E-01         0.28764E-02         0.00000E+00
    0.46424E-01         0.17613E-02         0.00000E+00
    0.45093E-01         0.71537E-03         0.00000E+00
    0.43545E-01        -0.24913E-03         0.00000E+00
    0.41778E-01        -0.11206E-02         0.00000E+00
    0.39793E-01        -0.18882E-02         0.00000E+00
    0.37591E-01        -0.25419E-02         0.00000E+00
    0.35173E-01        -0.30726E-02         0.00000E+00
    0.32544E-01        -0.34720E-02         0.00000E+00
    0.29706E-01        -0.37325E-02         0.00000E+00
    0.26663E-01        -0.38471E-02         0.00000E+00
    0.23419E-01        -0.38092E-02         0.00000E+00
    0.19979E-01        -0.36122E-02         0.00000E+00
    0.16346E-01        -0.32495E-02         0.00000E+00
    0.12525E-01        -0.27144E-02         0.00000E+00
    0.85228E-02        -0.19997E-02         0.00000E+00
    0.43450E-02        -0.10977E-02         0.00000E+00
    0.00000E+00         0.00000E+00         0.00000E+00
    0.47121E-01         0.11749E-01         0.00000E+00
    0.47214E-01         0.10516E-01         0.00000E+00
    0.47181E-01         0.92717E-02         0.00000E+00
    0.47005E-01         0.80249E-02         0.00000E+00
    0.46673E-01         0.67860E-02         0.00000E+00
    0.46173E-01         0.55659E-02         0.00000E+00
    0.45495E-01         0.43758E-02         0.00000E+00
    0.44630E-01         0.32276E-02         0.00000E+00
    0.43573E-01         0.21328E-02         0.00000E+00
    0.42317E-01         0.11034E-02         0.00000E+00
    0.40860E-01         0.15058E-03         0.00000E+00
    0.39199E-01        -0.71455E-03         0.00000E+00
    0.37335E-01        -0.14816E-02         0.00000E+00
    0.35268E-01        -0.21408E-02         0.00000E+00
    0.33000E-01        -0.26831E-02         0.00000E+00
    0.30532E-01        -0.31000E-02         0.00000E+00
    0.27869E-01        -0.33838E-02         0.00000E+00
    0.25012E-01        -0.35269E-02         0.00000E+00
    0.21967E-01        -0.35224E-02         0.00000E+00
    0.18737E-01        -0.33633E-02         0.00000E+00
    0.15326E-01        -0.30426E-02         0.00000E+00
    0.11740E-01        -0.25534E-02         0.00000E+00
    0.79857E-02        -0.18884E-02         0.00000E+00
    0.40693E-02        -0.10399E-02         0.00000E+00
    0.00000E+00         0.00000E+00         0.00000E+00
    0.44286E-01         0.11877E-01         0.00000E+00
    0.44340E-01         0.10665E-01         0.00000E+00
    0.44278E-01         0.94423E-02         0.00000E+00
    0.44087E-01         0.82191E-02         0.00000E+00
    0.43753E-01         0.70046E-02         0.00000E+00
    0.43265E-01         0.58088E-02         0.00000E+00
    0.42614E-01         0.46421E-02         0.00000E+00
    0.41791E-01         0.35155E-02         0.00000E+00
    0.40791E-01         0.24399E-02         0.00000E+00
    0.39608E-01         0.14262E-02         0.00000E+00
    0.38239E-01         0.48516E-03         0.00000E+00
    0.36681E-01        -0.37274E-03         0.00000E+00
    0.34934E-01        -0.11375E-02         0.00000E+00
    0.32998E-01        -0.17996E-02         0.00000E+00
    0.30874E-01        -0.23500E-02         0.00000E+00
    0.28564E-01        -0.27802E-02         0.00000E+00
    0.26070E-01        -0.30823E-02         0.00000E+00
    0.23396E-01        -0.32486E-02         0.00000E+00
    0.20544E-01        -0.32717E-02         0.00000E+00
    0.17520E-01        -0.31444E-02         0.00000E+00
    0.14327E-01        -0.28596E-02         0.00000E+00
    0.10972E-01        -0.24102E-02         0.00000E+00
    0.74601E-02        -0.17888E-02         0.00000E+00
    0.37998E-02        -0.98793E-03         0.00000E+00
    0.00000E+00         0.00000E+00         0.00000E+00
    0.41492E-01         0.11964E-01         0.00000E+00
    0.41513E-01         0.10770E-01         0.00000E+00
    0.41429E-01         0.95676E-02         0.00000E+00
    0.41227E-01         0.83660E-02         0.00000E+00
    0.40894E-01         0.71738E-02         0.00000E+00
    0.40421E-01         0.60003E-02         0.00000E+00
    0.39798E-01         0.48553E-02         0.00000E+00
    0.39018E-01         0.37488E-02         0.00000E+00
    0.38074E-01         0.26911E-02         0.00000E+00
    0.36962E-01         0.16926E-02         0.00000E+00
    0.35679E-01         0.76335E-03         0.00000E+00
    0.34221E-01        -0.86596E-04         0.00000E+00
    0.32587E-01        -0.84759E-03         0.00000E+00
    0.30779E-01        -0.15103E-02         0.00000E+00
    0.28795E-01        -0.20660E-02         0.00000E+00
    0.26638E-01        -0.25060E-02         0.00000E+00
    0.24310E-01        -0.28223E-02         0.00000E+00
    0.21813E-01        -0.30071E-02         0.00000E+00
    0.19151E-01        -0.30529E-02         0.00000E+00
    0.16328E-01        -0.29523E-02         0.00000E+00
    0.13350E-01        -0.26980E-02         0.00000E+00
    0.10220E-01        -0.22829E-02         0.00000E+00
    0.69465E-02        -0.16998E-02         0.00000E+00
    0.35368E-02        -0.94121E-03         0.00000E+00
    0.00000E+00         0.00000E+00         0.00000E+00
    0.38736E-01         0.12017E-01         0.00000E+00
    0.38730E-01         0.10838E-01         0.00000E+00
    0.38628E-01         0.96546E-02         0.00000E+00
    0.38419E-01         0.84727E-02         0.00000E+00
    0.38091E-01         0.73010E-02         0.00000E+00
    0.37634E-01         0.61479E-02         0.00000E+00
    0.37041E-01         0.50228E-02         0.00000E+00
    0.36304E-01         0.39351E-02         0.00000E+00
    0.35417E-01         0.28944E-02         0.00000E+00
    0.34375E-01         0.19104E-02         0.00000E+00
    0.33175E-01         0.99293E-03         0.00000E+00
    0.31815E-01         0.15148E-03         0.00000E+00
    0.30293E-01        -0.60461E-03         0.00000E+00
    0.28608E-01        -0.12663E-02         0.00000E+00
    0.26761E-01        -0.18247E-02         0.00000E+00
    0.24754E-01        -0.22715E-02         0.00000E+00
    0.22587E-01        -0.25986E-02         0.00000E+00
    0.20264E-01        -0.27981E-02         0.00000E+00
    0.17788E-01        -0.28623E-02         0.00000E+00
    0.15163E-01        -0.27840E-02         0.00000E+00
    0.12394E-01        -0.25556E-02         0.00000E+00
    0.94853E-02        -0.21701E-02         0.00000E+00
    0.64449E-02        -0.16204E-02         0.00000E+00
    0.32801E-02        -0.89934E-03         0.00000E+00
    0.00000E+00         0.00000E+00         0.00000E+00
    0.36014E-01         0.12040E-01         0.00000E+00
    0.35986E-01         0.10877E-01         0.00000E+00
    0.35871E-01         0.97095E-02         0.00000E+00
    0.35659E-01         0.85456E-02         0.00000E+00
    0.35338E-01         0.73925E-02         0.00000E+00
    0.34901E-01         0.62583E-02         0.00000E+00
    0.34339E-01         0.51516E-02         0.00000E+00
    0.33646E-01         0.40813E-02         0.00000E+00
    0.32815E-01         0.30566E-02         0.00000E+00
    0.31843E-01         0.20867E-02         0.00000E+00
    0.30726E-01         0.11808E-02         0.00000E+00
    0.29461E-01         0.34822E-03         0.00000E+00
    0.28047E-01        -0.40206E-03         0.00000E+00
    0.26484E-01        -0.10612E-02         0.00000E+00
    0.24771E-01        -0.16205E-02         0.00000E+00
    0.22909E-01        -0.20717E-02         0.00000E+00
    0.20901E-01        -0.24067E-02         0.00000E+00
    0.18749E-01        -0.26176E-02         0.00000E+00
    0.16455E-01        -0.26968E-02         0.00000E+00
    0.14023E-01        -0.26368E-02         0.00000E+00
    0.11459E-01        -0.24304E-02         0.00000E+00
    0.87675E-02        -0.20704E-02         0.00000E+00
    0.59551E-02        -0.15498E-02         0.00000E+00
    0.30297E-02        -0.86189E-03         0.00000E+00
    0.00000E+00         0.00000E+00         0.00000E+00
    0.33323E-01         0.12040E-01         0.00000E+00
    0.33278E-01         0.10890E-01         0.00000E+00
    0.33154E-01         0.97381E-02         0.00000E+00
    0.32942E-01         0.85906E-02         0.00000E+00
    0.32632E-01         0.74545E-02         0.00000E+00
    0.32216E-01         0.63376E-02         0.00000E+00
    0.31687E-01         0.52479E-02         0.00000E+00
    0.31038E-01         0.41938E-02         0.00000E+00
    0.30264E-01         0.31841E-02         0.00000E+00
    0.29361E-01         0.22276E-02         0.00000E+00
    0.28325E-01         0.13331E-02         0.00000E+00
    0.27155E-01         0.50959E-03         0.00000E+00
    0.25848E-01        -0.23425E-03         0.00000E+00
    0.24403E-01        -0.88975E-03         0.00000E+00
    0.22822E-01        -0.14484E-02         0.00000E+00
    0.21104E-01        -0.19021E-02         0.00000E+00
    0.19251E-01        -0.22426E-02         0.00000E+00
    0.17265E-01        -0.24622E-02         0.00000E+00
    0.15150E-01        -0.25533E-02         0.00000E+00
    0.12908E-01        -0.25085E-02         0.00000E+00
    0.10545E-01        -0.23205E-02         0.00000E+00
    0.80660E-02        -0.19823E-02         0.00000E+00
    0.54769E-02        -0.14872E-02         0.00000E+00
    0.27854E-02        -0.82850E-03         0.00000E+00
    0.00000E+00         0.00000E+00         0.00000E+00
    0.30659E-01         0.12021E-01         0.00000E+00
    0.30602E-01         0.10884E-01         0.00000E+00
    0.30473E-01         0.97456E-02         0.00000E+00
    0.30265E-01         0.86129E-02         0.00000E+00
    0.29968E-01         0.74924E-02         0.00000E+00
    0.29576E-01         0.63912E-02         0.00000E+00
    0.29081E-01         0.53172E-02         0.00000E+00
    0.28477E-01         0.42782E-02         0.00000E+00
    0.27760E-01         0.32826E-02         0.00000E+00
    0.26926E-01         0.23388E-02         0.00000E+00
    0.25971E-01         0.14554E-02         0.00000E+00
    0.24893E-01         0.64087E-03         0.00000E+00
    0.23691E-01        -0.96125E-04         0.00000E+00
    0.22364E-01        -0.74721E-03         0.00000E+00
    0.20911E-01        -0.13041E-02         0.00000E+00
    0.19334E-01        -0.17586E-02         0.00000E+00
    0.17634E-01        -0.21028E-02         0.00000E+00
    0.15812E-01        -0.23289E-02         0.00000E+00
    0.13872E-01        -0.24294E-02         0.00000E+00
    0.11817E-01        -0.23969E-02         0.00000E+00
    0.96514E-02        -0.22244E-02         0.00000E+00
    0.73804E-02        -0.19049E-02         0.00000E+00
    0.50098E-02        -0.14318E-02         0.00000E+00
    0.25470E-02        -0.79884E-03         0.00000E+00
    0.00000E+00         0.00000E+00         0.00000E+00
    0.28021E-01         0.11989E-01         0.00000E+00
    0.27955E-01         0.10863E-01         0.00000E+00
    0.27825E-01         0.97367E-02         0.00000E+00
    0.27624E-01         0.86174E-02         0.00000E+00
    0.27343E-01         0.75109E-02         0.00000E+00
    0.26975E-01         0.64242E-02         0.00000E+00
    0.26516E-01         0.53645E-02         0.00000E+00
    0.25959E-01         0.43394E-02         0.00000E+00
    0.25299E-01         0.33569E-02         0.00000E+00
    0.24534E-01         0.24251E-02         0.00000E+00
    0.23659E-01         0.15523E-02         0.00000E+00
    0.22673E-01         0.74672E-03         0.00000E+00
    0.21575E-01         0.16753E-04         0.00000E+00
    0.20363E-01        -0.62938E-03         0.00000E+00
    0.19037E-01        -0.11835E-02         0.00000E+00
    0.17599E-01        -0.16377E-02         0.00000E+00
    0.16048E-01        -0.19840E-02         0.00000E+00
    0.14388E-01        -0.22148E-02         0.00000E+00
    0.12620E-01        -0.23226E-02         0.00000E+00
    0.10748E-01        -0.23002E-02         0.00000E+00
    0.87766E-02        -0.21406E-02         0.00000E+00
    0.67097E-02        -0.18370E-02         0.00000E+00
    0.45533E-02        -0.13830E-02         0.00000E+00
    0.23142E-02        -0.77258E-03         0.00000E+00
    0.00000E+00         0.00000E+00         0.00000E+00
    0.25405E-01         0.11947E-01         0.00000E+00
    0.25334E-01         0.10830E-01         0.00000E+00
    0.25206E-01         0.97155E-02         0.00000E+00
    0.25014E-01         0.86083E-02         0.00000E+00
    0.24751E-01         0.75146E-02         0.00000E+00
    0.24411E-01         0.64409E-02         0.00000E+00
    0.23989E-01         0.53942E-02         0.00000E+00
    0.23479E-01         0.43819E-02         0.00000E+00
    0.22877E-01         0.34115E-02         0.00000E+00
    0.22180E-01         0.24909E-02         0.00000E+00
    0.21386E-01         0.16281E-02         0.00000E+00
    0.20491E-01         0.83121E-03         0.00000E+00
    0.19495E-01         0.10828E-03         0.00000E+00
    0.18397E-01        -0.53262E-03         0.00000E+00
    0.17197E-01        -0.10835E-02         0.00000E+00
    0.15895E-01        -0.15364E-02         0.00000E+00
    0.14492E-01        -0.18837E-02         0.00000E+00
    0.12991E-01        -0.21177E-02         0.00000E+00
    0.11393E-01        -0.22312E-02         0.00000E+00
    0.97010E-02        -0.22168E-02         0.00000E+00
    0.79196E-02        -0.20679E-02         0.00000E+00
    0.60530E-02        -0.17778E-02         0.00000E+00
    0.41066E-02        -0.13403E-02         0.00000E+00
    0.20866E-02        -0.74948E-03         0.00000E+00
    0.00000E+00         0.00000E+00         0.00000E+00
    0.22809E-01         0.11899E-01         0.00000E+00
    0.22736E-01         0.10791E-01         0.00000E+00
    0.22613E-01         0.96860E-02         0.00000E+00
    0.22434E-01         0.85895E-02         0.00000E+00
    0.22191E-01         0.75072E-02         0.00000E+00
    0.21880E-01         0.64452E-02         0.00000E+00
    0.21496E-01         0.54103E-02         0.00000E+00
    0.21034E-01         0.44095E-02         0.00000E+00
    0.20490E-01         0.34502E-02         0.00000E+00
    0.19863E-01         0.25400E-02         0.00000E+00
    0.19148E-01         0.16866E-02         0.00000E+00
    0.18344E-01         0.89793E-03         0.00000E+00
    0.17449E-01         0.18185E-03         0.00000E+00
    0.16464E-01        -0.45373E-03         0.00000E+00
    0.15388E-01        -0.10009E-02         0.00000E+00
    0.14221E-01        -0.14520E-02         0.00000E+00
    0.12964E-01        -0.17994E-02         0.00000E+00
    0.11619E-01        -0.20355E-02         0.00000E+00
    0.10187E-01        -0.21531E-02         0.00000E+00
    0.86731E-02        -0.21453E-02         0.00000E+00
    0.70791E-02        -0.20052E-02         0.00000E+00
    0.54094E-02        -0.17265E-02         0.00000E+00
    0.36691E-02        -0.13031E-02         0.00000E+00
    0.18638E-02        -0.72926E-03         0.00000E+00
    0.00000E+00         0.00000E+00         0.00000E+00
    0.20231E-01         0.11848E-01         0.00000E+00
    0.20159E-01         0.10747E-01         0.00000E+00
    0.20044E-01         0.96512E-02         0.00000E+00
    0.19878E-01         0.85643E-02         0.00000E+00
    0.19658E-01         0.74920E-02         0.00000E+00
    0.19378E-01         0.64405E-02         0.00000E+00
    0.19033E-01         0.54162E-02         0.00000E+00
    0.18620E-01         0.44258E-02         0.00000E+00
    0.18135E-01         0.34765E-02         0.00000E+00
    0.17576E-01         0.25757E-02         0.00000E+00
    0.16941E-01         0.17310E-02         0.00000E+00
    0.16227E-01         0.94998E-03         0.00000E+00
    0.15434E-01         0.24042E-03         0.00000E+00
    0.14560E-01        -0.38993E-03         0.00000E+00
    0.13607E-01        -0.93336E-03         0.00000E+00
    0.12573E-01        -0.13822E-02         0.00000E+00
    0.11460E-01        -0.17290E-02         0.00000E+00
    0.10269E-01        -0.19663E-02         0.00000E+00
    0.90028E-02        -0.20871E-02         0.00000E+00
    0.76632E-02        -0.20844E-02         0.00000E+00
    0.62536E-02        -0.19515E-02         0.00000E+00
    0.47777E-02        -0.16823E-02         0.00000E+00
    0.32399E-02        -0.12709E-02         0.00000E+00
    0.16454E-02        -0.71173E-03         0.00000E+00
    0.00000E+00         0.00000E+00         0.00000E+00
    0.17668E-01         0.11796E-01         0.00000E+00
    0.17601E-01         0.10703E-01         0.00000E+00
    0.17495E-01         0.96142E-02         0.00000E+00
    0.17346E-01         0.85356E-02         0.00000E+00
    0.17149E-01         0.74722E-02         0.00000E+00
    0.16901E-01         0.64298E-02         0.00000E+00
    0.16596E-01         0.54148E-02         0.00000E+00
    0.16233E-01         0.44336E-02         0.00000E+00
    0.15808E-01         0.34933E-02         0.00000E+00
    0.15318E-01         0.26010E-02         0.00000E+00
    0.14762E-01         0.17640E-02         0.00000E+00
    0.14138E-01         0.99005E-03         0.00000E+00
    0.13445E-01         0.28654E-03         0.00000E+00
    0.12683E-01        -0.33885E-03         0.00000E+00
    0.11850E-01        -0.87853E-03         0.00000E+00
    0.10949E-01        -0.13250E-02         0.00000E+00
    0.99780E-02        -0.16708E-02         0.00000E+00
    0.89401E-02        -0.19087E-02         0.00000E+00
    0.78365E-02        -0.20317E-02         0.00000E+00
    0.66694E-02        -0.20330E-02         0.00000E+00
    0.54417E-02        -0.19060E-02         0.00000E+00
    0.41567E-02        -0.16447E-02         0.00000E+00
    0.28182E-02        -0.12434E-02         0.00000E+00
    0.14309E-02        -0.69670E-03         0.00000E+00
    0.00000E+00         0.00000E+00         0.00000E+00
    0.15120E-01         0.11747E-01         0.00000E+00
    0.15058E-01         0.10659E-01         0.00000E+00
    0.14963E-01         0.95773E-02         0.00000E+00
    0.14832E-01         0.85058E-02         0.00000E+00
    0.14661E-01         0.74501E-02         0.00000E+00
    0.14446E-01         0.64157E-02         0.00000E+00
    0.14183E-01         0.54086E-02         0.00000E+00
    0.13870E-01         0.44355E-02         0.00000E+00
    0.13505E-01         0.35030E-02         0.00000E+00
    0.13085E-01         0.26181E-02         0.00000E+00
    0.12608E-01         0.17881E-02         0.00000E+00
    0.12074E-01         0.10204E-02         0.00000E+00
    0.11480E-01         0.32238E-03         0.00000E+00
    0.10828E-01        -0.29845E-03         0.00000E+00
    0.10116E-01        -0.83459E-03         0.00000E+00
    0.93453E-02        -0.12786E-02         0.00000E+00
    0.85159E-02        -0.16232E-02         0.00000E+00
    0.76291E-02        -0.18613E-02         0.00000E+00
    0.66865E-02        -0.19858E-02         0.00000E+00
    0.56899E-02        -0.19902E-02         0.00000E+00
    0.46418E-02        -0.18680E-02         0.00000E+00
    0.35451E-02        -0.16132E-02         0.00000E+00
    0.24031E-02        -0.12202E-02         0.00000E+00
    0.12199E-02        -0.68398E-03         0.00000E+00
    0.00000E+00         0.00000E+00         0.00000E+00
    0.12582E-01         0.11702E-01         0.00000E+00
    0.12528E-01         0.10619E-01         0.00000E+00
    0.12447E-01         0.95427E-02         0.00000E+00
    0.12335E-01         0.84773E-02         0.00000E+00
    0.12191E-01         0.74279E-02         0.00000E+00
    0.12010E-01         0.64002E-02         0.00000E+00
    0.11789E-01         0.54000E-02         0.00000E+00
    0.11528E-01         0.44336E-02         0.00000E+00
    0.11222E-01         0.35078E-02         0.00000E+00
    0.10872E-01         0.26293E-02         0.00000E+00
    0.10475E-01         0.18053E-02         0.00000E+00
    0.10030E-01         0.10430E-02         0.00000E+00
    0.95358E-02         0.34975E-03         0.00000E+00
    0.89930E-02        -0.26702E-03         0.00000E+00
    0.84010E-02        -0.79996E-03         0.00000E+00
    0.77600E-02        -0.12417E-02         0.00000E+00
    0.70706E-02        -0.15851E-02         0.00000E+00
    0.63336E-02        -0.18230E-02         0.00000E+00
    0.55504E-02        -0.19486E-02         0.00000E+00
    0.47226E-02        -0.19553E-02         0.00000E+00
    0.38522E-02        -0.18368E-02         0.00000E+00
    0.29416E-02        -0.15872E-02         0.00000E+00
    0.19938E-02        -0.12011E-02         0.00000E+00
    0.10120E-02        -0.67346E-03         0.00000E+00
    0.00000E+00         0.00000E+00         0.00000E+00
    0.10054E-01         0.11663E-01         0.00000E+00
    0.10009E-01         0.10584E-01         0.00000E+00
    0.99427E-02         0.95121E-02         0.00000E+00
    0.98522E-02         0.84515E-02         0.00000E+00
    0.97351E-02         0.74074E-02         0.00000E+00
    0.95891E-02         0.63852E-02         0.00000E+00
    0.94120E-02         0.53905E-02         0.00000E+00
    0.92020E-02         0.44298E-02         0.00000E+00
    0.89574E-02         0.35094E-02         0.00000E+00
    0.86767E-02         0.26362E-02         0.00000E+00
    0.83588E-02         0.18171E-02         0.00000E+00
    0.80029E-02         0.10594E-02         0.00000E+00
    0.76083E-02         0.37017E-03         0.00000E+00
    0.71746E-02        -0.24316E-03         0.00000E+00
    0.67017E-02        -0.77333E-03         0.00000E+00
    0.61898E-02        -0.12131E-02         0.00000E+00
    0.56394E-02        -0.15552E-02         0.00000E+00
    0.50512E-02        -0.17928E-02         0.00000E+00
    0.44261E-02        -0.19191E-02         0.00000E+00
    0.37656E-02        -0.19275E-02         0.00000E+00
    0.30713E-02        -0.18119E-02         0.00000E+00
    0.23451E-02        -0.15664E-02         0.00000E+00
    0.15893E-02        -0.11857E-02         0.00000E+00
    0.80655E-03        -0.66501E-03         0.00000E+00
    0.00000E+00         0.00000E+00         0.00000E+00
    0.75341E-02         0.11631E-01         0.00000E+00
    0.74992E-02         0.10555E-01         0.00000E+00
    0.74484E-02         0.94869E-02         0.00000E+00
    0.73797E-02         0.84301E-02         0.00000E+00
    0.72911E-02         0.73901E-02         0.00000E+00
    0.71810E-02         0.63720E-02         0.00000E+00
    0.70477E-02         0.53818E-02         0.00000E+00
    0.68898E-02         0.44254E-02         0.00000E+00
    0.67060E-02         0.35093E-02         0.00000E+00
    0.64954E-02         0.26402E-02         0.00000E+00
    0.62570E-02         0.18250E-02         0.00000E+00
    0.59901E-02         0.10708E-02         0.00000E+00
    0.56943E-02         0.38483E-03         0.00000E+00
    0.53693E-02        -0.22575E-03         0.00000E+00
    0.50151E-02        -0.75367E-03         0.00000E+00
    0.46318E-02        -0.11917E-02         0.00000E+00
    0.42196E-02        -0.15329E-02         0.00000E+00
    0.37792E-02        -0.17701E-02         0.00000E+00
    0.33113E-02        -0.18968E-02         0.00000E+00
    0.28169E-02        -0.19065E-02         0.00000E+00
    0.22973E-02        -0.17930E-02         0.00000E+00
    0.17540E-02        -0.15506E-02         0.00000E+00
    0.11886E-02        -0.11740E-02         0.00000E+00
    0.60314E-03        -0.65853E-03         0.00000E+00
    0.00000E+00         0.00000E+00         0.00000E+00
    0.50196E-02         0.11608E-01         0.00000E+00
    0.49959E-02         0.10534E-01         0.00000E+00
    0.49615E-02         0.94681E-02         0.00000E+00
    0.49153E-02         0.84140E-02         0.00000E+00
    0.48559E-02         0.73769E-02         0.00000E+00
    0.47822E-02         0.63619E-02         0.00000E+00
    0.46931E-02         0.53747E-02         0.00000E+00
    0.45876E-02         0.44214E-02         0.00000E+00
    0.44650E-02         0.35084E-02         0.00000E+00
    0.43245E-02         0.26423E-02         0.00000E+00
    0.41655E-02         0.18299E-02         0.00000E+00
    0.39876E-02         0.10783E-02         0.00000E+00
    0.37905E-02         0.39466E-03         0.00000E+00
    0.35740E-02        -0.21391E-03         0.00000E+00
    0.33381E-02        -0.74018E-03         0.00000E+00
    0.30828E-02        -0.11770E-02         0.00000E+00
    0.28083E-02        -0.15174E-02         0.00000E+00
    0.25151E-02        -0.17543E-02         0.00000E+00
    0.22036E-02        -0.18812E-02         0.00000E+00
    0.18745E-02        -0.18917E-02         0.00000E+00
    0.15286E-02        -0.17796E-02         0.00000E+00
    0.11670E-02        -0.15394E-02         0.00000E+00
    0.79076E-03        -0.11657E-02         0.00000E+00
    0.40125E-03        -0.65395E-03         0.00000E+00
    0.00000E+00         0.00000E+00         0.00000E+00
    0.25089E-02         0.11594E-01         0.00000E+00
    0.24968E-02         0.10521E-01         0.00000E+00
    0.24796E-02         0.94565E-02         0.00000E+00
    0.24563E-02         0.84041E-02         0.00000E+00
    0.24265E-02         0.73687E-02         0.00000E+00
    0.23896E-02         0.63555E-02         0.00000E+00
    0.23449E-02         0.53702E-02         0.00000E+00
    0.22921E-02         0.44188E-02         0.00000E+00
    0.22308E-02         0.35076E-02         0.00000E+00
    0.21605E-02         0.26433E-02         0.00000E+00
    0.20810E-02         0.18326E-02         0.00000E+00
    0.19921E-02         0.10826E-02         0.00000E+00
    0.18936E-02         0.40030E-03         0.00000E+00
    0.17854E-02        -0.20704E-03         0.00000E+00
    0.16675E-02        -0.73231E-03         0.00000E+00
    0.15399E-02        -0.11684E-02         0.00000E+00
    0.14027E-02        -0.15082E-02         0.00000E+00
    0.12562E-02        -0.17450E-02         0.00000E+00
    0.11006E-02        -0.18720E-02         0.00000E+00
    0.93620E-03        -0.18830E-02         0.00000E+00
    0.76344E-03        -0.17718E-02         0.00000E+00
    0.58281E-03        -0.15328E-02         0.00000E+00
    0.39489E-03        -0.11608E-02         0.00000E+00
    0.20037E-03        -0.65122E-03         0.00000E+00
    0.00000E+00         0.00000E+00         0.00000E+00
    0.00000E+00         0.11589E-01         0.00000E+00
    0.00000E+00         0.10517E-01         0.00000E+00
    0.00000E+00         0.94526E-02         0.00000E+00
    0.00000E+00         0.84007E-02         0.00000E+00
    0.00000E+00         0.73659E-02         0.00000E+00
    0.00000E+00         0.63533E-02         0.00000E+00
    0.00000E+00         0.53686E-02         0.00000E+00
    0.00000E+00         0.44178E-02         0.00000E+00
    0.00000E+00         0.35073E-02         0.00000E+00
    0.00000E+00         0.26435E-02         0.00000E+00
    0.00000E+00         0.18334E-02         0.00000E+00
    0.00000E+00         0.10839E-02         0.00000E+00
    0.00000E+00         0.40214E-03         0.00000E+00
    0.00000E+00        -0.20480E-03         0.00000E+00
    0.00000E+00        -0.72972E-03         0.00000E+00
    0.00000E+00        -0.11655E-02         0.00000E+00
    0.00000E+00        -0.15052E-02         0.00000E+00
    0.00000E+00        -0.17419E-02         0.00000E+00
    0.00000E+00        -0.18690E-02         0.00000E+00
    0.00000E+00        -0.18801E-02         0.00000E+00
    0.00000E+00        -0.17691E-02         0.00000E+00
    0.00000E+00        -0.15306E-02         0.00000E+00
    0.00000E+00        -0.11592E-02         0.00000E+00
    0.00000E+00        -0.65032E-03         0.00000E+00
    0.00000E+00         0.00000E+00         0.00000E+00
CELL_DATA       1152
VECTORS vDarcy double 
    0.95637E-21         0.18395E-20         0.00000E+00
    0.80675E-21         0.13006E-20         0.00000E+00
    0.37892E-21        -0.15984E-20         0.00000E+00
   -0.23461E-21        -0.79727E-21         0.00000E+00
   -0.21319E-21         0.28552E-21         0.00000E+00
   -0.39915E-22        -0.20690E-21         0.00000E+00
    0.33986E-22        -0.23378E-21         0.00000E+00
    0.29630E-21         0.33467E-21         0.00000E+00
    0.42919E-21         0.40663E-22         0.00000E+00
    0.21334E-21        -0.51848E-21         0.00000E+00
    0.16839E-22        -0.29708E-21         0.00000E+00
    0.29213E-22        -0.21676E-21         0.00000E+00
    0.91913E-22        -0.11685E-21         0.00000E+00
    0.81022E-22        -0.14956E-21         0.00000E+00
   -0.49334E-22        -0.14168E-21         0.00000E+00
   -0.11673E-21        -0.28563E-21         0.00000E+00
   -0.80451E-22        -0.23587E-21         0.00000E+00
   -0.16463E-22         0.61322E-23         0.00000E+00
    0.25865E-23        -0.93115E-23         0.00000E+00
   -0.10100E-22        -0.61122E-22         0.00000E+00
   -0.77483E-23        -0.10048E-21         0.00000E+00
   -0.49151E-23        -0.55457E-22         0.00000E+00
   -0.71354E-23        -0.25463E-22         0.00000E+00
    0.51721E-24        -0.20650E-22         0.00000E+00
    0.93285E-21         0.14054E-20         0.00000E+00
    0.17648E-20         0.10524E-20         0.00000E+00
    0.14706E-20        -0.62816E-21         0.00000E+00
    0.56239E-21        -0.24570E-21         0.00000E+00
   -0.23264E-22         0.29818E-21         0.00000E+00
   -0.80659E-22        -0.33544E-21         0.00000E+00
    0.36084E-21        -0.62063E-21         0.00000E+00
    0.59118E-21         0.22888E-21         0.00000E+00
    0.38120E-21         0.22354E-21         0.00000E+00
    0.94693E-22        -0.19900E-21         0.00000E+00
    0.48934E-22        -0.37430E-21         0.00000E+00
    0.12380E-21        -0.22679E-21         0.00000E+00
    0.11422E-21        -0.15994E-21         0.00000E+00
    0.73393E-22        -0.54743E-22         0.00000E+00
    0.67946E-22        -0.10069E-21         0.00000E+00
    0.48653E-22        -0.23993E-21         0.00000E+00
   -0.42431E-22        -0.22676E-21         0.00000E+00
   -0.47453E-22        -0.61939E-22         0.00000E+00
   -0.13493E-22         0.57492E-23         0.00000E+00
   -0.10298E-24        -0.76886E-22         0.00000E+00
    0.13504E-22        -0.10067E-21         0.00000E+00
   -0.10860E-22        -0.33733E-22         0.00000E+00
   -0.18483E-22        -0.37343E-22         0.00000E+00
   -0.68979E-23        -0.28007E-22         0.00000E+00
    0.18676E-20         0.12592E-20         0.00000E+00
    0.14038E-20         0.83054E-21         0.00000E+00
    0.10275E-20         0.26423E-21         0.00000E+00
    0.52534E-21         0.27231E-21         0.00000E+00
    0.45392E-21         0.43725E-21         0.00000E+00
    0.58504E-21        -0.54823E-21         0.00000E+00
    0.49084E-21        -0.75515E-21         0.00000E+00
    0.26537E-21         0.35855E-21         0.00000E+00
    0.20743E-21         0.36178E-21         0.00000E+00
    0.24612E-21        -0.89427E-22         0.00000E+00
    0.25500E-21        -0.44699E-21         0.00000E+00
    0.17586E-21        -0.14982E-21         0.00000E+00
    0.13331E-21        -0.18477E-21         0.00000E+00
    0.19569E-21        -0.51467E-22         0.00000E+00
    0.14673E-21        -0.49568E-22         0.00000E+00
    0.36676E-22        -0.16171E-21         0.00000E+00
    0.38897E-23        -0.18112E-21         0.00000E+00
   -0.15624E-22        -0.83047E-22         0.00000E+00
   -0.36680E-22         0.13952E-22         0.00000E+00
   -0.16924E-22        -0.11823E-21         0.00000E+00
    0.48128E-23        -0.94667E-22         0.00000E+00
   -0.75603E-24        -0.98059E-23         0.00000E+00
   -0.14675E-22        -0.39728E-22         0.00000E+00
   -0.35446E-22        -0.16436E-22         0.00000E+00
    0.41083E-21         0.12866E-20         0.00000E+00
    0.78113E-21         0.89664E-21         0.00000E+00
    0.52608E-21         0.82952E-21         0.00000E+00
    0.33081E-21         0.40444E-21         0.00000E+00
    0.46453E-21         0.24282E-21         0.00000E+00
    0.34075E-21        -0.36113E-21         0.00000E+00
   -0.15876E-21        -0.34855E-21         0.00000E+00
   -0.24307E-21         0.26174E-21         0.00000E+00
    0.66969E-22         0.20649E-21         0.00000E+00
    0.21903E-21        -0.12489E-21         0.00000E+00
    0.12483E-21        -0.32622E-21         0.00000E+00
    0.45112E-22        -0.11174E-21         0.00000E+00
    0.70207E-22        -0.20539E-21         0.00000E+00
    0.10385E-21        -0.12686E-21         0.00000E+00
    0.98843E-22         0.79792E-22         0.00000E+00
    0.71779E-23        -0.89344E-22         0.00000E+00
   -0.41173E-22        -0.17234E-21         0.00000E+00
   -0.41506E-22        -0.71975E-22         0.00000E+00
    0.47710E-23        -0.22340E-22         0.00000E+00
    0.19339E-22        -0.11627E-21         0.00000E+00
   -0.15268E-22        -0.83765E-22         0.00000E+00
   -0.82642E-23        -0.22143E-22         0.00000E+00
    0.32594E-23        -0.24995E-22         0.00000E+00
    0.51490E-23        -0.12289E-22         0.00000E+00
    0.23993E-22         0.85175E-21         0.00000E+00
    0.89356E-22         0.89580E-21         0.00000E+00
    0.32269E-21         0.85209E-21         0.00000E+00
    0.46667E-21         0.43316E-21         0.00000E+00
    0.30393E-21         0.24311E-21         0.00000E+00
    0.83031E-22        -0.16747E-22         0.00000E+00
   -0.11970E-21         0.92954E-23         0.00000E+00
   -0.11942E-21        -0.12070E-22         0.00000E+00
   -0.51967E-22         0.10280E-21         0.00000E+00
   -0.39903E-22        -0.18532E-21         0.00000E+00
   -0.53302E-23        -0.20616E-21         0.00000E+00
    0.51023E-23        -0.16251E-21         0.00000E+00
    0.43813E-23        -0.17900E-21         0.00000E+00
   -0.55905E-22        -0.12662E-21         0.00000E+00
   -0.32678E-22         0.61323E-22         0.00000E+00
    0.50969E-22        -0.62858E-22         0.00000E+00
    0.45331E-22        -0.14484E-21         0.00000E+00
    0.27303E-22        -0.81119E-22         0.00000E+00
    0.31467E-22        -0.63637E-22         0.00000E+00
    0.25455E-23        -0.60615E-22         0.00000E+00
   -0.23074E-22        -0.79188E-22         0.00000E+00
    0.64689E-23        -0.63267E-22         0.00000E+00
    0.46775E-22        -0.35701E-22         0.00000E+00
    0.60603E-22        -0.17300E-22         0.00000E+00
    0.10983E-21         0.71793E-21         0.00000E+00
    0.10910E-21         0.96500E-21         0.00000E+00
    0.10077E-21         0.55788E-21         0.00000E+00
    0.29826E-21         0.38591E-21         0.00000E+00
    0.42027E-21         0.33109E-21         0.00000E+00
    0.26917E-21         0.26727E-21         0.00000E+00
    0.22561E-21        -0.28431E-22         0.00000E+00
    0.30186E-21        -0.50868E-22         0.00000E+00
    0.18621E-21         0.18979E-21         0.00000E+00
    0.93876E-22        -0.19205E-21         0.00000E+00
    0.78240E-26        -0.14014E-21         0.00000E+00
    0.54898E-23        -0.24444E-21         0.00000E+00
    0.56184E-22        -0.14704E-21         0.00000E+00
    0.35146E-22        -0.77252E-22         0.00000E+00
    0.38343E-22        -0.14465E-22         0.00000E+00
    0.58499E-22        -0.90874E-22         0.00000E+00
    0.73557E-22        -0.12624E-21         0.00000E+00
    0.61408E-22        -0.69538E-22         0.00000E+00
    0.17322E-22        -0.35295E-22         0.00000E+00
    0.25764E-22        -0.68478E-22         0.00000E+00
    0.70423E-22        -0.90364E-22         0.00000E+00
    0.74090E-22        -0.85302E-22         0.00000E+00
    0.75121E-22        -0.55003E-22         0.00000E+00
    0.83573E-22        -0.20279E-22         0.00000E+00
   -0.95319E-22         0.70341E-21         0.00000E+00
   -0.27254E-22         0.91218E-21         0.00000E+00
    0.18201E-21         0.40976E-21         0.00000E+00
    0.28216E-21         0.23639E-21         0.00000E+00
    0.38290E-21         0.25786E-21         0.00000E+00
    0.60986E-21         0.26464E-21         0.00000E+00
    0.66556E-21        -0.37938E-22         0.00000E+00
    0.51921E-21         0.28740E-22         0.00000E+00
    0.59591E-21         0.14914E-21         0.00000E+00
    0.38837E-21         0.14849E-21         0.00000E+00
   -0.52313E-22         0.53871E-22         0.00000E+00
   -0.13170E-21        -0.36455E-21         0.00000E+00
   -0.35118E-23        -0.20581E-21         0.00000E+00
    0.47696E-22        -0.48652E-22         0.00000E+00
    0.70749E-22        -0.69315E-22         0.00000E+00
    0.11171E-21        -0.97140E-22         0.00000E+00
    0.10920E-21        -0.13253E-21         0.00000E+00
    0.10407E-21        -0.45972E-22         0.00000E+00
    0.13609E-21        -0.46794E-22         0.00000E+00
    0.20954E-21        -0.13888E-21         0.00000E+00
    0.23573E-21        -0.90816E-22         0.00000E+00
    0.19363E-21        -0.46421E-22         0.00000E+00
    0.14495E-21        -0.46232E-22         0.00000E+00
    0.12553E-21        -0.18081E-22         0.00000E+00
    0.89289E-22         0.70944E-21         0.00000E+00
    0.42547E-21         0.50191E-21         0.00000E+00
    0.69145E-21         0.34480E-21         0.00000E+00
    0.52488E-21         0.36776E-21         0.00000E+00
    0.37103E-21         0.17961E-21         0.00000E+00
    0.43533E-21         0.51627E-22         0.00000E+00
    0.51065E-21         0.44062E-22         0.00000E+00
    0.48539E-21         0.11835E-21         0.00000E+00
    0.37458E-21         0.93650E-22         0.00000E+00
    0.39976E-21         0.38633E-21         0.00000E+00
    0.43703E-21         0.21943E-21         0.00000E+00
    0.24231E-21        -0.25601E-21         0.00000E+00
    0.84646E-22        -0.28488E-21         0.00000E+00
    0.16122E-21        -0.97362E-22         0.00000E+00
    0.20595E-21        -0.88388E-22         0.00000E+00
    0.18743E-21        -0.10051E-21         0.00000E+00
    0.18079E-21        -0.12000E-21         0.00000E+00
    0.20837E-21        -0.80951E-22         0.00000E+00
    0.28282E-21        -0.11828E-21         0.00000E+00
    0.28183E-21        -0.13984E-21         0.00000E+00
    0.21644E-21        -0.50645E-22         0.00000E+00
    0.17964E-21        -0.76973E-23         0.00000E+00
    0.16511E-21        -0.21751E-22         0.00000E+00
    0.15342E-21        -0.11447E-22         0.00000E+00
    0.29143E-21         0.32873E-21         0.00000E+00
    0.63803E-21         0.19984E-21         0.00000E+00
    0.67060E-21         0.34832E-21         0.00000E+00
    0.68055E-21         0.52085E-21         0.00000E+00
    0.68621E-21         0.17472E-21         0.00000E+00
    0.65836E-21         0.20058E-22         0.00000E+00
    0.50487E-21         0.15381E-21         0.00000E+00
    0.36379E-21         0.17494E-21         0.00000E+00
    0.30614E-21         0.20552E-21         0.00000E+00
    0.24583E-21         0.30959E-21         0.00000E+00
    0.32916E-21         0.17556E-21         0.00000E+00
    0.40378E-21        -0.92044E-22         0.00000E+00
    0.38295E-21        -0.27035E-21         0.00000E+00
    0.32201E-21        -0.12752E-21         0.00000E+00
    0.26487E-21        -0.45815E-22         0.00000E+00
    0.21115E-21        -0.70856E-22         0.00000E+00
    0.17717E-21        -0.10902E-21         0.00000E+00
    0.18970E-21        -0.13205E-21         0.00000E+00
    0.21543E-21        -0.16737E-21         0.00000E+00
    0.19890E-21        -0.73232E-22         0.00000E+00
    0.15054E-21        -0.34984E-23         0.00000E+00
    0.14479E-21        -0.12294E-22         0.00000E+00
    0.16283E-21        -0.20677E-22         0.00000E+00
    0.16780E-21        -0.58000E-23         0.00000E+00
   -0.66060E-23         0.43904E-22         0.00000E+00
   -0.75584E-22         0.20704E-21         0.00000E+00
   -0.11838E-21         0.35135E-21         0.00000E+00
    0.15325E-21         0.23623E-21         0.00000E+00
    0.37238E-21         0.23454E-21         0.00000E+00
    0.30866E-21         0.51794E-22         0.00000E+00
    0.30086E-21         0.28337E-21         0.00000E+00
    0.27608E-21         0.21124E-21         0.00000E+00
    0.27690E-21         0.22604E-21         0.00000E+00
    0.40112E-21         0.22517E-21         0.00000E+00
    0.46853E-21         0.10924E-21         0.00000E+00
    0.47468E-21        -0.10649E-21         0.00000E+00
    0.44225E-21        -0.20265E-21         0.00000E+00
    0.35262E-21        -0.44649E-22         0.00000E+00
    0.27492E-21         0.61563E-23         0.00000E+00
    0.21442E-21        -0.86134E-23         0.00000E+00
    0.19655E-21        -0.11940E-21         0.00000E+00
    0.22453E-21        -0.16219E-21         0.00000E+00
    0.22008E-21        -0.15851E-21         0.00000E+00
    0.18286E-21        -0.28339E-22         0.00000E+00
    0.17301E-21         0.98255E-23         0.00000E+00
    0.17359E-21        -0.20446E-22         0.00000E+00
    0.16620E-21        -0.23175E-22         0.00000E+00
    0.16263E-21        -0.47114E-23         0.00000E+00
   -0.21640E-22         0.72150E-22         0.00000E+00
   -0.32382E-22         0.25851E-21         0.00000E+00
    0.69523E-22         0.24076E-21         0.00000E+00
    0.48784E-22         0.95934E-22         0.00000E+00
    0.96718E-23         0.19482E-21         0.00000E+00
    0.44811E-22         0.12009E-21         0.00000E+00
    0.89454E-22         0.17824E-21         0.00000E+00
    0.28009E-21         0.15053E-21         0.00000E+00
    0.47627E-21         0.89753E-22         0.00000E+00
    0.58217E-21         0.13134E-21         0.00000E+00
    0.64064E-21         0.77188E-22         0.00000E+00
    0.53723E-21         0.22834E-22         0.00000E+00
    0.34534E-21        -0.10766E-21         0.00000E+00
    0.33103E-21        -0.35691E-22         0.00000E+00
    0.30507E-21         0.10086E-21         0.00000E+00
    0.26597E-21        -0.37110E-23         0.00000E+00
    0.29805E-21        -0.13852E-21         0.00000E+00
    0.25847E-21        -0.13149E-21         0.00000E+00
    0.19153E-21        -0.11782E-21         0.00000E+00
    0.16985E-21        -0.10121E-22         0.00000E+00
    0.17362E-21        -0.23140E-23         0.00000E+00
    0.17708E-21        -0.12348E-22         0.00000E+00
    0.17242E-21        -0.19214E-22         0.00000E+00
    0.16365E-21         0.36541E-23         0.00000E+00
   -0.74978E-22         0.16877E-21         0.00000E+00
   -0.88738E-22         0.18640E-21         0.00000E+00
    0.59938E-22         0.62297E-22         0.00000E+00
    0.14604E-21         0.20904E-21         0.00000E+00
    0.82065E-22         0.18481E-21         0.00000E+00
    0.29066E-22         0.14796E-21         0.00000E+00
    0.44112E-22         0.90676E-22         0.00000E+00
    0.22032E-21        -0.12876E-21         0.00000E+00
    0.42846E-21        -0.35285E-22         0.00000E+00
    0.45462E-21         0.12433E-21         0.00000E+00
    0.39075E-21         0.89595E-22         0.00000E+00
    0.29858E-21         0.20601E-21         0.00000E+00
    0.20974E-21        -0.10113E-22         0.00000E+00
    0.17739E-21        -0.86580E-22         0.00000E+00
    0.27825E-21         0.76841E-22         0.00000E+00
    0.36021E-21        -0.22540E-22         0.00000E+00
    0.33913E-21        -0.13069E-21         0.00000E+00
    0.26245E-21        -0.23068E-22         0.00000E+00
    0.16962E-21        -0.66471E-22         0.00000E+00
    0.13261E-21        -0.27824E-23         0.00000E+00
    0.14233E-21        -0.23148E-22         0.00000E+00
    0.17002E-21        -0.22663E-22         0.00000E+00
    0.15857E-21         0.72185E-23         0.00000E+00
    0.13713E-21         0.74341E-23         0.00000E+00
    0.90498E-23         0.23469E-21         0.00000E+00
   -0.44163E-23         0.14770E-21         0.00000E+00
   -0.11806E-21         0.65969E-22         0.00000E+00
   -0.16911E-21         0.17031E-21         0.00000E+00
   -0.73587E-22         0.19199E-21         0.00000E+00
   -0.28557E-22         0.14875E-21         0.00000E+00
   -0.48840E-23         0.51163E-22         0.00000E+00
    0.21226E-22        -0.29157E-21         0.00000E+00
    0.18960E-23        -0.61283E-22         0.00000E+00
    0.37264E-23         0.12234E-21         0.00000E+00
    0.84333E-23         0.15074E-21         0.00000E+00
    0.18240E-22         0.22723E-21         0.00000E+00
    0.85902E-22        -0.10149E-22         0.00000E+00
    0.11669E-21        -0.84977E-22         0.00000E+00
    0.13894E-21        -0.47873E-22         0.00000E+00
    0.24283E-21        -0.83679E-22         0.00000E+00
    0.30411E-21        -0.10974E-21         0.00000E+00
    0.32118E-21         0.15576E-22         0.00000E+00
    0.29914E-21         0.97570E-23         0.00000E+00
    0.24062E-21         0.16522E-22         0.00000E+00
    0.18365E-21         0.47923E-23         0.00000E+00
    0.13004E-21        -0.24677E-22         0.00000E+00
    0.12330E-21         0.27422E-22         0.00000E+00
    0.13003E-21         0.19427E-23         0.00000E+00
    0.49907E-22         0.17574E-21         0.00000E+00
    0.74678E-22         0.19535E-21         0.00000E+00
    0.42924E-22         0.16372E-21         0.00000E+00
    0.50303E-22         0.11623E-21         0.00000E+00
   -0.23383E-22         0.22423E-21         0.00000E+00
   -0.70483E-22         0.11858E-21         0.00000E+00
    0.69280E-22        -0.82105E-22         0.00000E+00
    0.27081E-22        -0.14221E-21         0.00000E+00
   -0.95422E-22        -0.68807E-22         0.00000E+00
   -0.61271E-22         0.93881E-22         0.00000E+00
    0.19119E-22         0.94100E-22         0.00000E+00
    0.13011E-21         0.16307E-21         0.00000E+00
    0.16752E-21        -0.51053E-22         0.00000E+00
    0.18214E-21        -0.89481E-22         0.00000E+00
    0.23373E-21        -0.11721E-21         0.00000E+00
    0.29299E-21        -0.17749E-21         0.00000E+00
    0.27371E-21        -0.57911E-22         0.00000E+00
    0.23062E-21        -0.10235E-22         0.00000E+00
    0.25721E-21         0.31016E-22         0.00000E+00
    0.24537E-21         0.65627E-22         0.00000E+00
    0.20279E-21         0.55237E-22         0.00000E+00
    0.16054E-21         0.20739E-22         0.00000E+00
    0.13053E-21         0.18759E-22         0.00000E+00
    0.13543E-21        -0.10275E-23         0.00000E+00
   -0.16185E-22         0.14201E-21         0.00000E+00
    0.23253E-22         0.16486E-21         0.00000E+00
    0.17110E-21         0.78109E-22         0.00000E+00
    0.18496E-21         0.18060E-21         0.00000E+00
    0.49298E-22         0.36920E-21         0.00000E+00
   -0.94409E-23         0.79447E-22         0.00000E+00
   -0.98011E-22        -0.94164E-22         0.00000E+00
   -0.12307E-21        -0.62892E-22         0.00000E+00
   -0.71109E-22        -0.77585E-22         0.00000E+00
    0.37732E-22        -0.40332E-22         0.00000E+00
    0.14205E-21         0.43610E-22         0.00000E+00
    0.13602E-21         0.10859E-21         0.00000E+00
    0.15280E-21        -0.50770E-22         0.00000E+00
    0.21786E-21        -0.16944E-21         0.00000E+00
    0.26721E-21        -0.13819E-21         0.00000E+00
    0.20952E-21        -0.15809E-21         0.00000E+00
    0.16759E-21        -0.16094E-22         0.00000E+00
    0.15185E-21         0.67765E-23         0.00000E+00
    0.10610E-21         0.33163E-22         0.00000E+00
    0.10731E-21         0.74110E-22         0.00000E+00
    0.12623E-21         0.70415E-22         0.00000E+00
    0.14067E-21         0.33373E-22         0.00000E+00
    0.15697E-21         0.19839E-22         0.00000E+00
    0.14938E-21         0.57828E-24         0.00000E+00
    0.45925E-23         0.15361E-21         0.00000E+00
    0.52912E-22         0.65515E-22         0.00000E+00
    0.51331E-22         0.31189E-22         0.00000E+00
    0.32626E-22         0.23237E-21         0.00000E+00
    0.19378E-21         0.29194E-21         0.00000E+00
    0.17619E-21         0.23303E-21         0.00000E+00
   -0.31452E-22         0.48465E-22         0.00000E+00
   -0.11822E-21        -0.93698E-22         0.00000E+00
   -0.12138E-21        -0.95578E-22         0.00000E+00
   -0.11356E-21        -0.13900E-21         0.00000E+00
   -0.91148E-22         0.15559E-22         0.00000E+00
    0.11503E-22         0.40019E-22         0.00000E+00
    0.93274E-22        -0.80760E-22         0.00000E+00
    0.60067E-22        -0.17131E-21         0.00000E+00
    0.98931E-23        -0.13549E-21         0.00000E+00
    0.28533E-22        -0.12175E-21         0.00000E+00
    0.87606E-22        -0.69582E-22         0.00000E+00
    0.10496E-21         0.58650E-22         0.00000E+00
    0.85630E-22         0.46367E-22         0.00000E+00
    0.91042E-22         0.54286E-22         0.00000E+00
    0.98129E-22         0.64231E-22         0.00000E+00
    0.13611E-21        -0.12862E-22         0.00000E+00
    0.15997E-21         0.25918E-22         0.00000E+00
    0.14936E-21         0.12697E-22         0.00000E+00
   -0.43937E-22         0.19295E-21         0.00000E+00
   -0.11994E-21         0.53855E-22         0.00000E+00
   -0.16228E-21         0.86766E-22         0.00000E+00
   -0.10125E-21         0.13448E-21         0.00000E+00
   -0.95147E-24         0.12838E-21         0.00000E+00
    0.95883E-22         0.31734E-21         0.00000E+00
    0.16438E-21         0.10331E-21         0.00000E+00
    0.87766E-22         0.14835E-22         0.00000E+00
   -0.41679E-22        -0.71501E-22         0.00000E+00
   -0.82039E-22        -0.13054E-21         0.00000E+00
   -0.43610E-22        -0.53740E-22         0.00000E+00
    0.21153E-22        -0.58095E-22         0.00000E+00
    0.54973E-22        -0.98237E-22         0.00000E+00
    0.38559E-22        -0.10421E-21         0.00000E+00
    0.49297E-22        -0.16315E-21         0.00000E+00
    0.69560E-22        -0.13299E-21         0.00000E+00
    0.79714E-22        -0.12757E-21         0.00000E+00
    0.14536E-21         0.33639E-22         0.00000E+00
    0.15495E-21         0.81109E-22         0.00000E+00
    0.86110E-22         0.82976E-22         0.00000E+00
    0.11038E-21         0.41819E-23         0.00000E+00
    0.13226E-21        -0.12680E-22         0.00000E+00
    0.10753E-21         0.26608E-22         0.00000E+00
    0.11454E-21         0.15612E-22         0.00000E+00
   -0.23863E-22         0.26075E-21         0.00000E+00
   -0.85833E-22         0.12403E-21         0.00000E+00
   -0.12614E-21         0.99232E-22         0.00000E+00
   -0.11711E-21         0.51960E-22         0.00000E+00
   -0.53608E-22         0.47095E-22         0.00000E+00
    0.89160E-22         0.15903E-21         0.00000E+00
    0.15496E-21         0.12733E-21         0.00000E+00
    0.16529E-21         0.57093E-22         0.00000E+00
    0.12408E-21         0.56903E-22         0.00000E+00
    0.24262E-22        -0.11877E-21         0.00000E+00
   -0.19037E-22        -0.60639E-22         0.00000E+00
   -0.20113E-22        -0.11488E-21         0.00000E+00
    0.15949E-22        -0.11133E-21         0.00000E+00
    0.27204E-23        -0.61471E-22         0.00000E+00
   -0.21450E-22        -0.19246E-21         0.00000E+00
    0.28659E-22        -0.17405E-21         0.00000E+00
    0.80570E-22        -0.14856E-21         0.00000E+00
    0.74644E-22        -0.50827E-23         0.00000E+00
    0.66371E-22         0.11851E-21         0.00000E+00
    0.11678E-21         0.64011E-22         0.00000E+00
    0.13766E-21        -0.22003E-22         0.00000E+00
    0.98832E-22         0.30449E-22         0.00000E+00
    0.92399E-22         0.14643E-22         0.00000E+00
    0.10068E-21         0.12286E-22         0.00000E+00
   -0.81437E-23         0.29276E-21         0.00000E+00
   -0.76965E-22         0.22281E-21         0.00000E+00
   -0.70164E-22         0.33950E-22         0.00000E+00
    0.44210E-22        -0.61575E-23         0.00000E+00
   -0.28550E-23         0.88774E-22         0.00000E+00
   -0.18410E-22        -0.98663E-23         0.00000E+00
    0.22528E-21        -0.13270E-22         0.00000E+00
    0.35092E-21         0.61714E-22         0.00000E+00
    0.29548E-21         0.14894E-21         0.00000E+00
    0.20575E-21        -0.21274E-22         0.00000E+00
    0.15332E-21        -0.62409E-22         0.00000E+00
    0.12932E-21        -0.88032E-22         0.00000E+00
    0.10878E-21        -0.15371E-21         0.00000E+00
    0.21083E-21        -0.10792E-21         0.00000E+00
    0.23029E-21        -0.14130E-21         0.00000E+00
    0.10006E-21        -0.14509E-21         0.00000E+00
   -0.77571E-23        -0.12163E-21         0.00000E+00
   -0.81329E-23        -0.25719E-22         0.00000E+00
    0.68354E-22         0.70929E-22         0.00000E+00
    0.12628E-21         0.32505E-23         0.00000E+00
    0.12082E-21         0.23344E-22         0.00000E+00
    0.10559E-21         0.39152E-22         0.00000E+00
    0.10151E-21         0.16452E-22         0.00000E+00
    0.94681E-22         0.90254E-23         0.00000E+00
    0.19600E-22         0.28130E-21         0.00000E+00
    0.10590E-21         0.21680E-21         0.00000E+00
    0.20937E-21        -0.70310E-22         0.00000E+00
    0.19867E-21        -0.55673E-23         0.00000E+00
    0.31654E-21         0.17373E-22         0.00000E+00
    0.48248E-21        -0.88848E-22         0.00000E+00
    0.36381E-21        -0.59305E-22         0.00000E+00
    0.26410E-21         0.81814E-22         0.00000E+00
    0.29435E-21         0.15404E-21         0.00000E+00
    0.34588E-21         0.11828E-22         0.00000E+00
    0.32732E-21        -0.24521E-22         0.00000E+00
    0.29703E-21        -0.71630E-22         0.00000E+00
    0.29508E-21        -0.14762E-21         0.00000E+00
    0.25178E-21        -0.17274E-21         0.00000E+00
    0.21707E-21        -0.61235E-22         0.00000E+00
    0.14414E-21        -0.21993E-22         0.00000E+00
    0.59389E-22        -0.52157E-22         0.00000E+00
    0.38982E-22        -0.74406E-22         0.00000E+00
    0.89004E-22        -0.68924E-23         0.00000E+00
    0.10482E-21         0.73317E-23         0.00000E+00
    0.80003E-22         0.49538E-22         0.00000E+00
    0.76565E-22         0.31622E-22         0.00000E+00
    0.86126E-22         0.18501E-22         0.00000E+00
    0.98401E-22         0.15362E-23         0.00000E+00
    0.97843E-22         0.16386E-21         0.00000E+00
    0.22329E-21         0.12250E-21         0.00000E+00
    0.28650E-21        -0.14270E-21         0.00000E+00
    0.34295E-21         0.21079E-22         0.00000E+00
    0.34964E-21        -0.13384E-21         0.00000E+00
    0.32948E-21        -0.83411E-22         0.00000E+00
    0.28181E-21         0.10160E-21         0.00000E+00
    0.21052E-21         0.91905E-22         0.00000E+00
    0.24813E-21         0.76094E-22         0.00000E+00
    0.29723E-21        -0.10861E-22         0.00000E+00
    0.27424E-21         0.39726E-22         0.00000E+00
    0.26470E-21        -0.96060E-22         0.00000E+00
    0.27082E-21        -0.12736E-21         0.00000E+00
    0.22295E-21        -0.10182E-21         0.00000E+00
    0.16481E-21        -0.39305E-22         0.00000E+00
    0.17962E-21         0.14205E-22         0.00000E+00
    0.19348E-21        -0.17467E-22         0.00000E+00
    0.15660E-21        -0.51816E-22         0.00000E+00
    0.10398E-21        -0.26875E-22         0.00000E+00
    0.71188E-22         0.44291E-22         0.00000E+00
    0.67366E-22         0.41212E-22         0.00000E+00
    0.95222E-22         0.15531E-22         0.00000E+00
    0.11313E-21         0.71265E-23         0.00000E+00
    0.11700E-21        -0.32418E-23         0.00000E+00
    0.71821E-22        -0.58041E-23         0.00000E+00
    0.15041E-21         0.88130E-22         0.00000E+00
    0.62241E-22        -0.83377E-22         0.00000E+00
    0.18873E-22        -0.51331E-22         0.00000E+00
    0.83329E-22        -0.13258E-21         0.00000E+00
    0.93113E-22        -0.74298E-22         0.00000E+00
    0.15875E-21         0.74521E-22         0.00000E+00
    0.30249E-21         0.46536E-22         0.00000E+00
    0.26471E-21         0.12164E-21         0.00000E+00
    0.75274E-22         0.83926E-22         0.00000E+00
    0.49013E-22        -0.58047E-23         0.00000E+00
    0.10720E-21        -0.99187E-22         0.00000E+00
    0.11795E-21        -0.14110E-21         0.00000E+00
    0.11995E-21        -0.42210E-22         0.00000E+00
    0.11988E-21        -0.40707E-22         0.00000E+00
    0.12208E-21        -0.13997E-23         0.00000E+00
    0.10464E-21         0.17147E-23         0.00000E+00
    0.74925E-22        -0.44053E-23         0.00000E+00
    0.50309E-22         0.29598E-23         0.00000E+00
    0.39995E-22         0.57558E-22         0.00000E+00
    0.74906E-22        -0.31447E-23         0.00000E+00
    0.12117E-21        -0.14237E-22         0.00000E+00
    0.13389E-21         0.62697E-23         0.00000E+00
    0.13201E-21        -0.43793E-23         0.00000E+00
   -0.30563E-23        -0.74568E-22         0.00000E+00
    0.72644E-23         0.67984E-22         0.00000E+00
    0.88983E-23         0.23304E-22         0.00000E+00
   -0.12748E-22        -0.92999E-22         0.00000E+00
   -0.23591E-24        -0.16788E-21         0.00000E+00
    0.64778E-22        -0.11380E-21         0.00000E+00
    0.72874E-22         0.40288E-22         0.00000E+00
   -0.10029E-22         0.19934E-22         0.00000E+00
   -0.71319E-22         0.24731E-21         0.00000E+00
   -0.78719E-22         0.15509E-21         0.00000E+00
   -0.71654E-22        -0.57774E-22         0.00000E+00
   -0.56619E-22        -0.12044E-21         0.00000E+00
   -0.30463E-22        -0.15675E-21         0.00000E+00
   -0.42684E-22        -0.16339E-22         0.00000E+00
   -0.76935E-22        -0.32259E-22         0.00000E+00
   -0.60558E-22        -0.28424E-22         0.00000E+00
   -0.13704E-22        -0.67786E-24         0.00000E+00
    0.22454E-22        -0.84522E-23         0.00000E+00
    0.52116E-22         0.19612E-23         0.00000E+00
    0.97336E-22         0.23650E-22         0.00000E+00
    0.12489E-21        -0.31699E-22         0.00000E+00
    0.12637E-21        -0.33439E-22         0.00000E+00
    0.12675E-21         0.12374E-22         0.00000E+00
    0.11763E-21         0.51914E-24         0.00000E+00
   -0.51169E-22        -0.20343E-22         0.00000E+00
   -0.51221E-22         0.34903E-23         0.00000E+00
    0.95645E-22        -0.60701E-22         0.00000E+00
    0.24505E-21        -0.13675E-21         0.00000E+00
    0.25793E-21        -0.14952E-21         0.00000E+00
    0.10785E-21        -0.47086E-22         0.00000E+00
    0.29332E-22         0.44001E-22         0.00000E+00
   -0.15994E-23         0.13005E-21         0.00000E+00
   -0.19780E-22         0.21666E-21         0.00000E+00
    0.46972E-22         0.12639E-21         0.00000E+00
    0.84590E-22        -0.73755E-22         0.00000E+00
    0.78690E-22        -0.11360E-21         0.00000E+00
    0.33463E-22        -0.14453E-21         0.00000E+00
    0.39000E-22        -0.21881E-22         0.00000E+00
    0.43077E-22         0.34559E-23         0.00000E+00
   -0.63318E-23        -0.31106E-22         0.00000E+00
   -0.14745E-22        -0.36436E-22         0.00000E+00
    0.14855E-22        -0.38452E-22         0.00000E+00
    0.45140E-22        -0.27987E-22         0.00000E+00
    0.10307E-21        -0.49555E-22         0.00000E+00
    0.13562E-21        -0.18596E-22         0.00000E+00
    0.10436E-21        -0.16760E-22         0.00000E+00
    0.89558E-22         0.10116E-22         0.00000E+00
    0.95026E-22         0.64275E-23         0.00000E+00
    0.13217E-21        -0.10135E-21         0.00000E+00
    0.32483E-21        -0.10811E-21         0.00000E+00
    0.35596E-21        -0.12709E-21         0.00000E+00
    0.29795E-21        -0.16176E-21         0.00000E+00
    0.20301E-21        -0.42459E-22         0.00000E+00
    0.11396E-21         0.84984E-22         0.00000E+00
    0.57661E-22         0.46748E-22         0.00000E+00
    0.52282E-22         0.16362E-21         0.00000E+00
    0.11825E-21         0.13530E-21         0.00000E+00
    0.19364E-21         0.65599E-22         0.00000E+00
    0.23127E-21        -0.88212E-22         0.00000E+00
    0.23438E-21        -0.96347E-22         0.00000E+00
    0.20891E-21        -0.91077E-22         0.00000E+00
    0.20147E-21        -0.73426E-22         0.00000E+00
    0.20676E-21         0.45629E-22         0.00000E+00
    0.12305E-21         0.59840E-22         0.00000E+00
    0.30466E-22        -0.26385E-22         0.00000E+00
    0.16666E-22        -0.64303E-22         0.00000E+00
    0.32249E-22        -0.48004E-22         0.00000E+00
    0.37869E-22        -0.93092E-22         0.00000E+00
    0.56788E-22        -0.26530E-22         0.00000E+00
    0.71182E-22         0.80471E-23         0.00000E+00
    0.69975E-22         0.13151E-23         0.00000E+00
    0.77388E-22         0.23473E-23         0.00000E+00
    0.74898E-22        -0.30842E-21         0.00000E+00
    0.20269E-21        -0.22149E-21         0.00000E+00
    0.20339E-21        -0.45544E-22         0.00000E+00
    0.10389E-21        -0.85792E-22         0.00000E+00
    0.10612E-21        -0.25717E-22         0.00000E+00
    0.16501E-21         0.98406E-22         0.00000E+00
    0.13361E-21         0.12103E-21         0.00000E+00
    0.64840E-22         0.16348E-21         0.00000E+00
    0.69877E-22         0.64436E-22         0.00000E+00
    0.13085E-21         0.98410E-25         0.00000E+00
    0.13481E-21        -0.64298E-22         0.00000E+00
    0.12359E-21        -0.11215E-21         0.00000E+00
    0.14932E-21        -0.75529E-22         0.00000E+00
    0.13847E-21        -0.70687E-22         0.00000E+00
    0.11585E-21         0.60219E-22         0.00000E+00
    0.13568E-21         0.10913E-21         0.00000E+00
    0.13487E-21         0.17720E-22         0.00000E+00
    0.92944E-22        -0.52680E-22         0.00000E+00
    0.88543E-22        -0.70808E-22         0.00000E+00
    0.87652E-22        -0.75017E-22         0.00000E+00
    0.52544E-22        -0.28415E-22         0.00000E+00
    0.49470E-22        -0.13880E-23         0.00000E+00
    0.68285E-22        -0.68578E-23         0.00000E+00
    0.72488E-22        -0.10952E-23         0.00000E+00
   -0.71952E-22        -0.31137E-21         0.00000E+00
   -0.11779E-21        -0.30050E-21         0.00000E+00
    0.90912E-23        -0.94122E-22         0.00000E+00
    0.11350E-21        -0.42117E-22         0.00000E+00
    0.85082E-22        -0.43207E-22         0.00000E+00
    0.80919E-22         0.61167E-22         0.00000E+00
    0.12955E-21         0.14104E-21         0.00000E+00
    0.14999E-21         0.19179E-21         0.00000E+00
    0.11800E-21         0.63080E-22         0.00000E+00
    0.60064E-22        -0.15872E-23         0.00000E+00
    0.11930E-22        -0.18435E-22         0.00000E+00
   -0.16685E-22        -0.11818E-21         0.00000E+00
   -0.22539E-22        -0.89373E-22         0.00000E+00
   -0.29852E-22        -0.38684E-22         0.00000E+00
    0.83390E-23         0.12648E-22         0.00000E+00
    0.78503E-22         0.66703E-22         0.00000E+00
    0.14228E-21        -0.28200E-23         0.00000E+00
    0.18868E-21        -0.36613E-22         0.00000E+00
    0.16213E-21        -0.55929E-22         0.00000E+00
    0.10172E-21        -0.28589E-22         0.00000E+00
    0.71458E-22        -0.94763E-23         0.00000E+00
    0.62690E-22        -0.84848E-23         0.00000E+00
    0.60803E-22        -0.16689E-22         0.00000E+00
    0.64717E-22         0.61979E-24         0.00000E+00
    0.54883E-23        -0.24490E-21         0.00000E+00
   -0.56296E-22        -0.25934E-21         0.00000E+00
   -0.12224E-21        -0.19621E-21         0.00000E+00
   -0.65178E-22        -0.10150E-21         0.00000E+00
   -0.28859E-22         0.82713E-23         0.00000E+00
   -0.66443E-22         0.51435E-22         0.00000E+00
   -0.58301E-22         0.93998E-22         0.00000E+00
    0.68164E-23         0.15328E-21         0.00000E+00
   -0.20473E-22         0.16087E-21         0.00000E+00
   -0.50813E-22        -0.11107E-22         0.00000E+00
    0.43466E-22        -0.55061E-22         0.00000E+00
    0.57360E-22        -0.66831E-22         0.00000E+00
   -0.15235E-22        -0.62273E-22         0.00000E+00
    0.11201E-22        -0.84907E-22         0.00000E+00
    0.89645E-22        -0.57764E-22         0.00000E+00
    0.14167E-21         0.14926E-22         0.00000E+00
    0.15638E-21        -0.29525E-22         0.00000E+00
    0.13882E-21        -0.38748E-22         0.00000E+00
    0.13048E-21        -0.18909E-22         0.00000E+00
    0.99478E-22         0.25807E-22         0.00000E+00
    0.81028E-22        -0.15163E-22         0.00000E+00
    0.79738E-22         0.72595E-23         0.00000E+00
    0.62645E-22        -0.13453E-22         0.00000E+00
    0.60173E-22        -0.40586E-23         0.00000E+00
   -0.76893E-24        -0.24962E-21         0.00000E+00
   -0.30166E-22        -0.16344E-21         0.00000E+00
   -0.10543E-21        -0.15091E-21         0.00000E+00
   -0.13290E-21        -0.17639E-21         0.00000E+00
   -0.92966E-22         0.69154E-23         0.00000E+00
   -0.94607E-22         0.92017E-22         0.00000E+00
   -0.13576E-21         0.86429E-22         0.00000E+00
   -0.13521E-21         0.95181E-22         0.00000E+00
   -0.14568E-22         0.12562E-21         0.00000E+00
    0.10275E-21        -0.62832E-22         0.00000E+00
    0.73370E-22        -0.68237E-22         0.00000E+00
    0.46186E-22        -0.40365E-22         0.00000E+00
    0.86950E-22        -0.56909E-22         0.00000E+00
    0.11186E-21        -0.14162E-21         0.00000E+00
    0.10674E-21        -0.74376E-22         0.00000E+00
    0.10233E-21        -0.16076E-22         0.00000E+00
    0.96372E-22        -0.72713E-23         0.00000E+00
    0.61783E-22        -0.88524E-23         0.00000E+00
    0.34365E-22        -0.13047E-22         0.00000E+00
    0.65586E-22         0.19724E-22         0.00000E+00
    0.85567E-22        -0.10612E-22         0.00000E+00
    0.81604E-22         0.79609E-23         0.00000E+00
    0.86489E-22        -0.19460E-23         0.00000E+00
    0.77090E-22        -0.36953E-23         0.00000E+00
   -0.52821E-22        -0.19603E-21         0.00000E+00
   -0.80650E-22        -0.15980E-21         0.00000E+00
   -0.24946E-22        -0.13499E-21         0.00000E+00
   -0.81137E-22        -0.10865E-21         0.00000E+00
   -0.13078E-21        -0.51110E-22         0.00000E+00
   -0.52538E-22         0.73437E-22         0.00000E+00
    0.14509E-22         0.79117E-22         0.00000E+00
    0.32369E-22         0.84079E-22         0.00000E+00
    0.69928E-22        -0.21474E-22         0.00000E+00
    0.12453E-21        -0.87650E-22         0.00000E+00
    0.11033E-21         0.15200E-24         0.00000E+00
    0.10496E-21        -0.76193E-22         0.00000E+00
    0.14601E-21        -0.10289E-21         0.00000E+00
    0.11789E-21        -0.92429E-22         0.00000E+00
    0.43590E-22        -0.44146E-22         0.00000E+00
   -0.44083E-23         0.61034E-23         0.00000E+00
    0.41243E-24        -0.28314E-22         0.00000E+00
    0.48602E-22        -0.14100E-23         0.00000E+00
    0.43716E-22         0.11814E-22         0.00000E+00
    0.20801E-22        -0.13443E-22         0.00000E+00
    0.34148E-22        -0.10773E-22         0.00000E+00
    0.58559E-22        -0.12325E-22         0.00000E+00
    0.75655E-22        -0.36410E-23         0.00000E+00
    0.80738E-22         0.23147E-23         0.00000E+00
   -0.35619E-23        -0.13965E-21         0.00000E+00
   -0.16978E-22        -0.17494E-21         0.00000E+00
   -0.60969E-22        -0.13156E-21         0.00000E+00
   -0.41316E-22        -0.75539E-22         0.00000E+00
   -0.62278E-22        -0.13615E-22         0.00000E+00
   -0.90738E-22        -0.13845E-22         0.00000E+00
    0.18169E-22        -0.95543E-23         0.00000E+00
    0.96257E-22         0.76802E-22         0.00000E+00
    0.62594E-22        -0.18092E-22         0.00000E+00
    0.10498E-22        -0.93535E-22         0.00000E+00
    0.86024E-22        -0.55296E-22         0.00000E+00
    0.13360E-21        -0.62947E-22         0.00000E+00
    0.90506E-22        -0.11409E-21         0.00000E+00
    0.67103E-22        -0.29710E-22         0.00000E+00
    0.34707E-22        -0.16820E-24         0.00000E+00
    0.53567E-22        -0.87366E-23         0.00000E+00
    0.84009E-22        -0.48736E-22         0.00000E+00
    0.74478E-22        -0.19647E-22         0.00000E+00
    0.76213E-22         0.33202E-22         0.00000E+00
    0.71594E-22        -0.72968E-23         0.00000E+00
    0.65458E-22        -0.24130E-22         0.00000E+00
    0.63988E-22        -0.21908E-22         0.00000E+00
    0.67523E-22        -0.14689E-22         0.00000E+00
    0.75849E-22        -0.46744E-25         0.00000E+00
    0.19541E-22        -0.15563E-21         0.00000E+00
   -0.95651E-23        -0.11644E-21         0.00000E+00
   -0.69429E-22        -0.86209E-22         0.00000E+00
   -0.79597E-22        -0.13038E-21         0.00000E+00
   -0.38629E-22         0.21216E-22         0.00000E+00
   -0.20996E-22        -0.37848E-22         0.00000E+00
   -0.49622E-22        -0.65832E-22         0.00000E+00
    0.25472E-23         0.28221E-23         0.00000E+00
    0.46283E-22         0.45815E-22         0.00000E+00
    0.23584E-22        -0.82647E-22         0.00000E+00
    0.12976E-22        -0.13110E-21         0.00000E+00
    0.50691E-22        -0.72435E-22         0.00000E+00
    0.80807E-22        -0.91623E-22         0.00000E+00
    0.48167E-22         0.38626E-23         0.00000E+00
    0.60738E-22        -0.13916E-22         0.00000E+00
    0.95669E-22        -0.48780E-22         0.00000E+00
    0.72930E-22        -0.16395E-22         0.00000E+00
    0.68392E-22        -0.37920E-22         0.00000E+00
    0.11546E-21         0.26765E-23         0.00000E+00
    0.14768E-21        -0.43727E-23         0.00000E+00
    0.13519E-21        -0.84336E-23         0.00000E+00
    0.10468E-21        -0.56257E-23         0.00000E+00
    0.81769E-22        -0.11592E-22         0.00000E+00
    0.72430E-22        -0.21322E-23         0.00000E+00
    0.12831E-22        -0.18800E-21         0.00000E+00
    0.14379E-22        -0.56506E-22         0.00000E+00
    0.47816E-22        -0.11971E-21         0.00000E+00
    0.12642E-22        -0.51529E-22         0.00000E+00
   -0.38980E-22        -0.46978E-22         0.00000E+00
    0.73963E-23        -0.33663E-22         0.00000E+00
    0.82945E-23        -0.42289E-22         0.00000E+00
   -0.72814E-23        -0.57315E-22         0.00000E+00
    0.11101E-22         0.43834E-22         0.00000E+00
    0.31343E-22        -0.78208E-22         0.00000E+00
    0.48155E-22        -0.14175E-21         0.00000E+00
    0.67077E-22        -0.11843E-21         0.00000E+00
    0.56169E-22        -0.64836E-22         0.00000E+00
    0.43652E-22         0.22232E-22         0.00000E+00
    0.54704E-22        -0.55908E-22         0.00000E+00
    0.55176E-22        -0.42191E-22         0.00000E+00
    0.53461E-22         0.14705E-23         0.00000E+00
    0.59952E-22        -0.57740E-22         0.00000E+00
    0.88095E-22        -0.52711E-22         0.00000E+00
    0.12589E-21        -0.18997E-22         0.00000E+00
    0.12601E-21         0.18551E-22         0.00000E+00
    0.10604E-21         0.17869E-22         0.00000E+00
    0.88368E-22         0.55024E-23         0.00000E+00
    0.76467E-22         0.20124E-23         0.00000E+00
   -0.35324E-22        -0.16551E-21         0.00000E+00
   -0.39902E-22        -0.75967E-22         0.00000E+00
   -0.54218E-22        -0.11938E-21         0.00000E+00
   -0.77291E-22         0.63791E-23         0.00000E+00
   -0.41307E-22        -0.89247E-22         0.00000E+00
   -0.29865E-23        -0.76091E-22         0.00000E+00
    0.60143E-23        -0.97607E-23         0.00000E+00
   -0.10191E-22        -0.58062E-22         0.00000E+00
    0.58961E-22        -0.42954E-22         0.00000E+00
    0.10967E-21        -0.62372E-22         0.00000E+00
    0.69531E-22        -0.13425E-21         0.00000E+00
    0.63416E-22        -0.13873E-21         0.00000E+00
    0.62209E-22        -0.32423E-22         0.00000E+00
    0.42555E-22         0.21990E-22         0.00000E+00
    0.37796E-22        -0.61958E-22         0.00000E+00
    0.39655E-22        -0.38472E-22         0.00000E+00
    0.58679E-22        -0.19557E-22         0.00000E+00
    0.87704E-22        -0.72230E-22         0.00000E+00
    0.81664E-22        -0.60324E-22         0.00000E+00
    0.72016E-22        -0.39529E-22         0.00000E+00
    0.75938E-22         0.35035E-22         0.00000E+00
    0.68666E-22         0.28627E-22         0.00000E+00
    0.68290E-22         0.12794E-22         0.00000E+00
    0.69618E-22         0.52937E-23         0.00000E+00
   -0.16901E-22        -0.11329E-21         0.00000E+00
   -0.54088E-22        -0.86427E-22         0.00000E+00
   -0.58188E-22        -0.90499E-22         0.00000E+00
    0.11070E-22        -0.68682E-22         0.00000E+00
    0.73461E-22        -0.11256E-21         0.00000E+00
    0.85325E-22        -0.10296E-21         0.00000E+00
    0.99598E-22        -0.61658E-23         0.00000E+00
    0.10768E-21        -0.53536E-22         0.00000E+00
    0.11422E-21        -0.12317E-21         0.00000E+00
    0.13028E-21        -0.48927E-22         0.00000E+00
    0.96635E-22        -0.73914E-22         0.00000E+00
    0.56351E-22        -0.15267E-21         0.00000E+00
    0.85461E-22        -0.46386E-22         0.00000E+00
    0.12351E-21         0.17564E-22         0.00000E+00
    0.10737E-21        -0.36639E-22         0.00000E+00
    0.75886E-22        -0.34165E-22         0.00000E+00
    0.57490E-22        -0.24492E-22         0.00000E+00
    0.48125E-22        -0.86956E-22         0.00000E+00
    0.47034E-22        -0.38466E-22         0.00000E+00
    0.35044E-22        -0.39748E-22         0.00000E+00
    0.43689E-22         0.22687E-22         0.00000E+00
    0.61964E-22         0.29973E-22         0.00000E+00
    0.59770E-22         0.14017E-22         0.00000E+00
    0.58631E-22         0.38819E-23         0.00000E+00
   -0.17712E-22        -0.78671E-22         0.00000E+00
   -0.13055E-22        -0.88511E-22         0.00000E+00
    0.26558E-22        -0.12393E-21         0.00000E+00
    0.52649E-22        -0.13060E-21         0.00000E+00
    0.85514E-22        -0.14590E-21         0.00000E+00
    0.79476E-22        -0.75450E-22         0.00000E+00
    0.64180E-22        -0.32653E-22         0.00000E+00
    0.73753E-22        -0.44706E-22         0.00000E+00
    0.39979E-22        -0.10476E-21         0.00000E+00
    0.23756E-22        -0.67169E-22         0.00000E+00
    0.63825E-22        -0.62096E-22         0.00000E+00
    0.65081E-22        -0.12546E-21         0.00000E+00
    0.50289E-22        -0.87915E-22         0.00000E+00
    0.62963E-22         0.83747E-23         0.00000E+00
    0.51855E-22        -0.20826E-24         0.00000E+00
    0.43332E-22        -0.30587E-22         0.00000E+00
    0.59448E-22        -0.25789E-22         0.00000E+00
    0.50711E-22        -0.67558E-22         0.00000E+00
    0.28452E-22        -0.34513E-22         0.00000E+00
    0.17548E-22        -0.20805E-22         0.00000E+00
    0.15631E-22        -0.29845E-23         0.00000E+00
    0.38397E-22         0.14604E-22         0.00000E+00
    0.56196E-22         0.13781E-22         0.00000E+00
    0.57896E-22         0.35565E-23         0.00000E+00
    0.91718E-23        -0.70131E-22         0.00000E+00
    0.19297E-22        -0.11183E-21         0.00000E+00
    0.33059E-22        -0.15398E-21         0.00000E+00
    0.44031E-22        -0.13761E-21         0.00000E+00
    0.52329E-23        -0.13295E-21         0.00000E+00
   -0.56569E-23        -0.71466E-22         0.00000E+00
    0.11100E-22        -0.38098E-22         0.00000E+00
    0.76785E-23        -0.45413E-22         0.00000E+00
   -0.95157E-24        -0.61652E-22         0.00000E+00
   -0.86136E-23        -0.86395E-22         0.00000E+00
    0.12888E-23        -0.92842E-22         0.00000E+00
   -0.53638E-23        -0.89314E-22         0.00000E+00
   -0.65608E-22        -0.49022E-22         0.00000E+00
   -0.96347E-22        -0.12454E-22         0.00000E+00
   -0.60419E-22        -0.41996E-23         0.00000E+00
   -0.20272E-22        -0.58220E-22         0.00000E+00
    0.16804E-22        -0.51348E-22         0.00000E+00
    0.30796E-22        -0.47255E-22         0.00000E+00
    0.27463E-22        -0.29224E-22         0.00000E+00
    0.21573E-22        -0.92992E-23         0.00000E+00
    0.18619E-22        -0.96204E-23         0.00000E+00
    0.26084E-22        -0.89910E-23         0.00000E+00
    0.41607E-22         0.40540E-23         0.00000E+00
    0.50404E-22         0.27850E-23         0.00000E+00
    0.59054E-22        -0.13836E-21         0.00000E+00
    0.12674E-21        -0.12142E-21         0.00000E+00
    0.10377E-21        -0.13519E-21         0.00000E+00
    0.32118E-22        -0.95724E-22         0.00000E+00
   -0.22016E-22        -0.81910E-22         0.00000E+00
   -0.18902E-22        -0.11474E-21         0.00000E+00
    0.31201E-22        -0.61689E-22         0.00000E+00
    0.50819E-22        -0.38019E-22         0.00000E+00
    0.44500E-22        -0.54097E-22         0.00000E+00
    0.29035E-22        -0.70823E-22         0.00000E+00
    0.15511E-22        -0.10479E-21         0.00000E+00
    0.26798E-23        -0.57880E-22         0.00000E+00
   -0.63086E-23        -0.11224E-22         0.00000E+00
    0.22575E-22        -0.48396E-22         0.00000E+00
    0.41553E-22        -0.23163E-22         0.00000E+00
    0.26843E-22        -0.64692E-22         0.00000E+00
    0.13491E-22        -0.68599E-22         0.00000E+00
    0.10553E-22        -0.41059E-22         0.00000E+00
    0.11123E-22        -0.32658E-22         0.00000E+00
    0.23224E-22        -0.12076E-22         0.00000E+00
    0.30609E-22        -0.11275E-22         0.00000E+00
    0.36621E-22        -0.20813E-22         0.00000E+00
    0.41810E-22        -0.48349E-23         0.00000E+00
    0.45238E-22        -0.55227E-24         0.00000E+00
    0.49375E-22        -0.24679E-21         0.00000E+00
    0.10985E-21        -0.14115E-21         0.00000E+00
    0.10182E-21        -0.84459E-22         0.00000E+00
    0.54930E-22        -0.27906E-22         0.00000E+00
    0.15851E-22        -0.56514E-22         0.00000E+00
    0.30975E-22        -0.15837E-21         0.00000E+00
    0.64956E-22        -0.10214E-21         0.00000E+00
    0.51976E-22        -0.42083E-23         0.00000E+00
    0.23572E-22        -0.53184E-22         0.00000E+00
    0.17617E-22        -0.50315E-22         0.00000E+00
    0.26544E-22        -0.12070E-21         0.00000E+00
    0.47528E-22        -0.50122E-22         0.00000E+00
    0.82222E-22        -0.44688E-22         0.00000E+00
    0.94893E-22        -0.56487E-22         0.00000E+00
    0.95774E-22        -0.34931E-22         0.00000E+00
    0.85056E-22        -0.27497E-22         0.00000E+00
    0.55129E-22        -0.62515E-22         0.00000E+00
    0.54512E-22        -0.43588E-22         0.00000E+00
    0.56871E-22        -0.33058E-22         0.00000E+00
    0.46178E-22        -0.13083E-22         0.00000E+00
    0.43931E-22        -0.15406E-22         0.00000E+00
    0.40309E-22        -0.19072E-22         0.00000E+00
    0.36828E-22        -0.82832E-23         0.00000E+00
    0.39287E-22        -0.29919E-23         0.00000E+00
   -0.12586E-22        -0.28357E-21         0.00000E+00
   -0.33056E-22        -0.14437E-21         0.00000E+00
   -0.16740E-22        -0.89534E-22         0.00000E+00
    0.34028E-22        -0.26710E-22         0.00000E+00
    0.67309E-22        -0.51911E-22         0.00000E+00
    0.48554E-22        -0.15934E-21         0.00000E+00
    0.13147E-22        -0.99737E-22         0.00000E+00
    0.16710E-22         0.28080E-23         0.00000E+00
    0.29982E-22        -0.45068E-22         0.00000E+00
    0.54191E-22        -0.76684E-22         0.00000E+00
    0.58997E-22        -0.10807E-21         0.00000E+00
    0.52452E-22        -0.77198E-22         0.00000E+00
    0.60544E-22        -0.60398E-22         0.00000E+00
    0.58768E-22        -0.51672E-22         0.00000E+00
    0.68618E-22        -0.50477E-22         0.00000E+00
    0.74378E-22        -0.69938E-23         0.00000E+00
    0.63556E-22        -0.42269E-22         0.00000E+00
    0.60504E-22        -0.60165E-22         0.00000E+00
    0.60323E-22        -0.18659E-22         0.00000E+00
    0.49545E-22        -0.60106E-23         0.00000E+00
    0.40428E-22        -0.11114E-22         0.00000E+00
    0.33951E-22        -0.13265E-22         0.00000E+00
    0.32954E-22        -0.96126E-23         0.00000E+00
    0.33246E-22        -0.44144E-23         0.00000E+00
   -0.41139E-22        -0.22985E-21         0.00000E+00
   -0.74482E-22        -0.14428E-21         0.00000E+00
   -0.56022E-22        -0.12440E-21         0.00000E+00
   -0.17939E-22        -0.80698E-22         0.00000E+00
    0.28735E-22        -0.77877E-22         0.00000E+00
    0.13899E-22        -0.99788E-22         0.00000E+00
   -0.29344E-22        -0.80642E-22         0.00000E+00
   -0.93756E-23        -0.39819E-22         0.00000E+00
    0.38651E-22        -0.63739E-22         0.00000E+00
    0.51228E-22        -0.94800E-22         0.00000E+00
    0.41584E-22        -0.85114E-22         0.00000E+00
    0.44511E-22        -0.96533E-22         0.00000E+00
    0.49534E-22        -0.54176E-22         0.00000E+00
    0.51606E-22        -0.58190E-22         0.00000E+00
    0.53874E-22        -0.56078E-22         0.00000E+00
    0.67501E-22        -0.20779E-22         0.00000E+00
    0.83745E-22        -0.33905E-22         0.00000E+00
    0.60207E-22        -0.41939E-22         0.00000E+00
    0.38518E-22        -0.15016E-22         0.00000E+00
    0.46464E-22        -0.68218E-23         0.00000E+00
    0.48500E-22        -0.32221E-23         0.00000E+00
    0.41834E-22        -0.80132E-23         0.00000E+00
    0.36664E-22        -0.86974E-23         0.00000E+00
    0.36400E-22        -0.53577E-23         0.00000E+00
   -0.18606E-22        -0.17010E-21         0.00000E+00
   -0.43531E-22        -0.14576E-21         0.00000E+00
   -0.41315E-22        -0.14360E-21         0.00000E+00
   -0.16495E-22        -0.12440E-21         0.00000E+00
    0.89292E-23        -0.10627E-21         0.00000E+00
    0.18803E-22        -0.66432E-22         0.00000E+00
    0.10456E-22        -0.62408E-22         0.00000E+00
    0.21411E-22        -0.88977E-22         0.00000E+00
    0.46369E-22        -0.87566E-22         0.00000E+00
    0.50892E-22        -0.88074E-22         0.00000E+00
    0.47322E-22        -0.78626E-22         0.00000E+00
    0.30154E-22        -0.88780E-22         0.00000E+00
    0.22340E-22        -0.59139E-22         0.00000E+00
    0.26162E-22        -0.59122E-22         0.00000E+00
    0.30800E-22        -0.62052E-22         0.00000E+00
    0.44042E-22        -0.41675E-22         0.00000E+00
    0.54992E-22        -0.40204E-22         0.00000E+00
    0.52098E-22        -0.92066E-23         0.00000E+00
    0.43260E-22        -0.17222E-22         0.00000E+00
    0.43005E-22        -0.12308E-22         0.00000E+00
    0.42744E-22         0.48924E-24         0.00000E+00
    0.42084E-22        -0.43981E-23         0.00000E+00
    0.44177E-22        -0.92369E-23         0.00000E+00
    0.44170E-22        -0.45457E-23         0.00000E+00
   -0.58540E-24        -0.15091E-21         0.00000E+00
   -0.88771E-23        -0.13173E-21         0.00000E+00
   -0.20422E-22        -0.14829E-21         0.00000E+00
   -0.26905E-22        -0.13804E-21         0.00000E+00
   -0.36300E-22        -0.10866E-21         0.00000E+00
   -0.33802E-22        -0.76415E-22         0.00000E+00
    0.19074E-23        -0.79787E-22         0.00000E+00
    0.29099E-22        -0.10974E-21         0.00000E+00
    0.27218E-22        -0.89875E-22         0.00000E+00
    0.21657E-22        -0.84727E-22         0.00000E+00
    0.20172E-22        -0.76918E-22         0.00000E+00
    0.14867E-22        -0.68015E-22         0.00000E+00
    0.17156E-22        -0.74379E-22         0.00000E+00
    0.34881E-22        -0.65428E-22         0.00000E+00
    0.38701E-22        -0.64204E-22         0.00000E+00
    0.34027E-22        -0.48091E-22         0.00000E+00
    0.24343E-22        -0.35054E-22         0.00000E+00
    0.24680E-22        -0.11799E-22         0.00000E+00
    0.32742E-22        -0.13853E-22         0.00000E+00
    0.29947E-22        -0.12627E-22         0.00000E+00
    0.32154E-22        -0.11371E-23         0.00000E+00
    0.39618E-22        -0.95762E-23         0.00000E+00
    0.44392E-22        -0.10926E-22         0.00000E+00
    0.44495E-22        -0.29516E-23         0.00000E+00
   -0.48733E-23        -0.14545E-21         0.00000E+00
   -0.15886E-22        -0.11789E-21         0.00000E+00
   -0.21084E-22        -0.14539E-21         0.00000E+00
   -0.14919E-22        -0.14062E-21         0.00000E+00
   -0.10076E-22        -0.10153E-21         0.00000E+00
   -0.26526E-24        -0.95856E-22         0.00000E+00
    0.16491E-22        -0.11281E-21         0.00000E+00
    0.16155E-22        -0.10357E-21         0.00000E+00
    0.19764E-22        -0.97774E-22         0.00000E+00
    0.31528E-22        -0.83030E-22         0.00000E+00
    0.28099E-22        -0.73700E-22         0.00000E+00
    0.37630E-22        -0.75459E-22         0.00000E+00
    0.43117E-22        -0.74712E-22         0.00000E+00
    0.27166E-22        -0.66867E-22         0.00000E+00
    0.19685E-22        -0.59103E-22         0.00000E+00
    0.14831E-22        -0.43664E-22         0.00000E+00
    0.15738E-22        -0.30703E-22         0.00000E+00
    0.26922E-22        -0.27672E-22         0.00000E+00
    0.35455E-22        -0.14574E-22         0.00000E+00
    0.37007E-22        -0.10663E-22         0.00000E+00
    0.38691E-22        -0.69920E-23         0.00000E+00
    0.41432E-22        -0.13927E-22         0.00000E+00
    0.40681E-22        -0.10598E-22         0.00000E+00
    0.40174E-22        -0.28769E-23         0.00000E+00
   -0.10729E-22        -0.12985E-21         0.00000E+00
   -0.18849E-22        -0.11435E-21         0.00000E+00
   -0.21641E-22        -0.14094E-21         0.00000E+00
   -0.25322E-22        -0.14756E-21         0.00000E+00
   -0.63769E-23        -0.11838E-21         0.00000E+00
    0.11186E-22        -0.10638E-21         0.00000E+00
    0.22591E-23        -0.11011E-21         0.00000E+00
    0.51626E-24        -0.10419E-21         0.00000E+00
    0.70379E-23        -0.10729E-21         0.00000E+00
    0.13544E-22        -0.91788E-22         0.00000E+00
    0.21833E-22        -0.69803E-22         0.00000E+00
    0.20152E-22        -0.87205E-22         0.00000E+00
    0.23460E-22        -0.71761E-22         0.00000E+00
    0.24137E-22        -0.54545E-22         0.00000E+00
    0.15618E-22        -0.55427E-22         0.00000E+00
    0.12619E-22        -0.39487E-22         0.00000E+00
    0.16703E-22        -0.39870E-22         0.00000E+00
    0.21409E-22        -0.34397E-22         0.00000E+00
    0.23365E-22        -0.18337E-22         0.00000E+00
    0.27859E-22        -0.12946E-22         0.00000E+00
    0.35326E-22        -0.13860E-22         0.00000E+00
    0.35832E-22        -0.10306E-22         0.00000E+00
    0.31899E-22        -0.95338E-23         0.00000E+00
    0.31910E-22        -0.34458E-23         0.00000E+00
   -0.70571E-23        -0.11206E-21         0.00000E+00
   -0.11732E-22        -0.11935E-21         0.00000E+00
   -0.13855E-22        -0.13103E-21         0.00000E+00
   -0.15913E-22        -0.15173E-21         0.00000E+00
   -0.23821E-22        -0.12525E-21         0.00000E+00
   -0.34348E-22        -0.10655E-21         0.00000E+00
   -0.22180E-22        -0.11319E-21         0.00000E+00
   -0.84454E-23        -0.11311E-21         0.00000E+00
   -0.62230E-23        -0.10712E-21         0.00000E+00
   -0.31193E-23        -0.10157E-21         0.00000E+00
    0.47943E-23        -0.76226E-22         0.00000E+00
    0.81761E-23        -0.82483E-22         0.00000E+00
    0.89966E-23        -0.80611E-22         0.00000E+00
    0.13254E-22        -0.50628E-22         0.00000E+00
    0.92610E-23        -0.46832E-22         0.00000E+00
    0.79863E-23        -0.43808E-22         0.00000E+00
    0.83172E-23        -0.39964E-22         0.00000E+00
    0.59621E-23        -0.36654E-22         0.00000E+00
    0.11067E-22        -0.23141E-22         0.00000E+00
    0.18529E-22        -0.20098E-22         0.00000E+00
    0.22731E-22        -0.18377E-22         0.00000E+00
    0.25432E-22        -0.89958E-23         0.00000E+00
    0.26169E-22        -0.76467E-23         0.00000E+00
    0.24431E-22        -0.36064E-23         0.00000E+00
   -0.93737E-23        -0.95634E-22         0.00000E+00
   -0.13985E-22        -0.12649E-21         0.00000E+00
    0.99605E-24        -0.13674E-21         0.00000E+00
    0.54405E-23        -0.14840E-21         0.00000E+00
   -0.10909E-22        -0.10432E-21         0.00000E+00
   -0.22253E-22        -0.10561E-21         0.00000E+00
   -0.13190E-22        -0.13536E-21         0.00000E+00
    0.19679E-23        -0.11983E-21         0.00000E+00
    0.78081E-23        -0.10846E-21         0.00000E+00
    0.62692E-23        -0.10179E-21         0.00000E+00
    0.72526E-23        -0.84902E-22         0.00000E+00
    0.87392E-23        -0.78675E-22         0.00000E+00
    0.10604E-23        -0.77560E-22         0.00000E+00
    0.57592E-24        -0.57452E-22         0.00000E+00
    0.11153E-22        -0.46592E-22         0.00000E+00
    0.15301E-22        -0.46921E-22         0.00000E+00
    0.13979E-22        -0.35860E-22         0.00000E+00
    0.10493E-22        -0.34917E-22         0.00000E+00
    0.10210E-22        -0.29701E-22         0.00000E+00
    0.13376E-22        -0.24166E-22         0.00000E+00
    0.12890E-22        -0.18026E-22         0.00000E+00
    0.13155E-22        -0.12313E-22         0.00000E+00
    0.15110E-22        -0.70201E-23         0.00000E+00
    0.14507E-22        -0.18924E-23         0.00000E+00
    0.44562E-24        -0.86706E-22         0.00000E+00
   -0.37935E-23        -0.12657E-21         0.00000E+00
   -0.31854E-23        -0.15226E-21         0.00000E+00
   -0.23113E-23        -0.13821E-21         0.00000E+00
   -0.57418E-23        -0.94730E-22         0.00000E+00
   -0.56186E-23        -0.10397E-21         0.00000E+00
   -0.43571E-23        -0.14732E-21         0.00000E+00
    0.29766E-23        -0.13036E-21         0.00000E+00
    0.80019E-23        -0.10879E-21         0.00000E+00
    0.69653E-23        -0.98880E-22         0.00000E+00
    0.26152E-23        -0.84444E-22         0.00000E+00
   -0.17693E-23        -0.76236E-22         0.00000E+00
   -0.29710E-23        -0.71119E-22         0.00000E+00
   -0.93306E-24        -0.65447E-22         0.00000E+00
    0.44521E-23        -0.54559E-22         0.00000E+00
    0.62884E-23        -0.44939E-22         0.00000E+00
    0.79915E-23        -0.38224E-22         0.00000E+00
    0.10121E-22        -0.31196E-22         0.00000E+00
    0.66965E-23        -0.29714E-22         0.00000E+00
    0.54107E-23        -0.26033E-22         0.00000E+00
    0.64066E-23        -0.16670E-22         0.00000E+00
    0.53442E-23        -0.12872E-22         0.00000E+00
    0.46873E-23        -0.77590E-23         0.00000E+00
    0.48671E-23        -0.73074E-24         0.00000E+00
POINT_DATA       1225
VECTORS vDarcyNodal double 
    0.11067E-20         0.16892E-20         0.00000E+00
    0.80599E-21         0.14953E-20         0.00000E+00
    0.80750E-21        -0.36277E-21         0.00000E+00
   -0.49671E-22        -0.15046E-20         0.00000E+00
   -0.41956E-21        -0.24516E-21         0.00000E+00
   -0.68226E-23         0.12595E-21         0.00000E+00
   -0.73007E-22        -0.18339E-21         0.00000E+00
    0.14098E-21         0.18160E-21         0.00000E+00
    0.45161E-21         0.25411E-21         0.00000E+00
    0.40676E-21        -0.34683E-21         0.00000E+00
    0.19924E-22        -0.50603E-21         0.00000E+00
    0.13755E-22        -0.25074E-21         0.00000E+00
    0.44671E-22        -0.13545E-21         0.00000E+00
    0.13915E-21        -0.13865E-21         0.00000E+00
    0.22889E-22        -0.21080E-21         0.00000E+00
   -0.12156E-21        -0.24735E-21         0.00000E+00
   -0.11189E-21        -0.24261E-21         0.00000E+00
   -0.49008E-22        -0.82874E-22         0.00000E+00
    0.16081E-22         0.79352E-23         0.00000E+00
   -0.10908E-22        -0.41560E-22         0.00000E+00
   -0.92910E-23        -0.79624E-22         0.00000E+00
   -0.62056E-23        -0.76551E-22         0.00000E+00
   -0.36246E-23        -0.41570E-22         0.00000E+00
   -0.10646E-22        -0.19230E-22         0.00000E+00
    0.11681E-22        -0.94861E-23         0.00000E+00
    0.72756E-21         0.19899E-20         0.00000E+00
    0.11617E-20         0.16449E-20         0.00000E+00
    0.14099E-20         0.65056E-22         0.00000E+00
    0.43967E-21        -0.89105E-21         0.00000E+00
   -0.11189E-21        -0.26659E-21         0.00000E+00
   -0.12456E-21        -0.47326E-22         0.00000E+00
    0.39861E-23        -0.25729E-21         0.00000E+00
    0.39084E-21        -0.80707E-22         0.00000E+00
    0.49663E-21         0.12122E-21         0.00000E+00
    0.31376E-21        -0.13099E-21         0.00000E+00
   -0.57241E-23        -0.30953E-21         0.00000E+00
    0.71498E-22        -0.26311E-21         0.00000E+00
    0.81520E-22        -0.19815E-21         0.00000E+00
    0.12462E-21        -0.12776E-21         0.00000E+00
    0.29798E-22        -0.80442E-22         0.00000E+00
   -0.11186E-22        -0.17996E-21         0.00000E+00
   -0.56888E-22        -0.27889E-21         0.00000E+00
   -0.65994E-22        -0.14686E-21         0.00000E+00
    0.20772E-23        -0.11115E-22         0.00000E+00
   -0.12983E-22        -0.28874E-22         0.00000E+00
    0.27808E-23        -0.81975E-22         0.00000E+00
    0.29747E-23        -0.79384E-22         0.00000E+00
   -0.18749E-22        -0.39350E-22         0.00000E+00
   -0.68688E-23        -0.26883E-22         0.00000E+00
    0.48816E-24        -0.31813E-22         0.00000E+00
    0.13271E-20         0.82097E-21         0.00000E+00
    0.14734E-20         0.81296E-21         0.00000E+00
    0.16953E-20         0.35921E-21         0.00000E+00
    0.80287E-21         0.17190E-22         0.00000E+00
    0.28486E-21         0.31907E-21         0.00000E+00
    0.14580E-21         0.10069E-22         0.00000E+00
    0.35858E-21        -0.69879E-21         0.00000E+00
    0.49311E-21        -0.31104E-21         0.00000E+00
    0.36344E-21         0.33120E-21         0.00000E+00
    0.22520E-21         0.15552E-21         0.00000E+00
    0.11562E-21        -0.26377E-21         0.00000E+00
    0.18832E-21        -0.33798E-21         0.00000E+00
    0.11135E-21        -0.18857E-21         0.00000E+00
    0.13618E-21        -0.86927E-22         0.00000E+00
    0.13290E-21        -0.74996E-22         0.00000E+00
    0.81777E-22        -0.16067E-21         0.00000E+00
    0.35515E-23        -0.18781E-21         0.00000E+00
   -0.42092E-22        -0.14184E-21         0.00000E+00
   -0.20985E-22        -0.45075E-22         0.00000E+00
   -0.29188E-22        -0.42263E-22         0.00000E+00
    0.12161E-22        -0.95582E-22         0.00000E+00
    0.61560E-23        -0.55021E-22         0.00000E+00
   -0.17772E-22        -0.31727E-22         0.00000E+00
   -0.15387E-22        -0.38467E-22         0.00000E+00
   -0.26957E-22        -0.24200E-22         0.00000E+00
    0.11529E-20         0.16974E-20         0.00000E+00
    0.11255E-20         0.12768E-20         0.00000E+00
    0.10594E-20         0.73555E-21         0.00000E+00
    0.49414E-21         0.51935E-21         0.00000E+00
    0.36201E-21         0.39049E-21         0.00000E+00
    0.55644E-21        -0.12105E-21         0.00000E+00
    0.36935E-21        -0.60460E-21         0.00000E+00
   -0.37257E-22        -0.85564E-22         0.00000E+00
    0.59555E-22         0.38913E-21         0.00000E+00
    0.21485E-21         0.11683E-21         0.00000E+00
    0.25030E-21        -0.27265E-21         0.00000E+00
    0.12953E-21        -0.25884E-21         0.00000E+00
    0.91445E-22        -0.14602E-21         0.00000E+00
    0.11207E-21        -0.14931E-21         0.00000E+00
    0.18747E-21        -0.26039E-22         0.00000E+00
    0.58108E-22        -0.50608E-22         0.00000E+00
   -0.14254E-22        -0.15502E-21         0.00000E+00
   -0.23029E-22        -0.12233E-21         0.00000E+00
   -0.34101E-22        -0.24019E-22         0.00000E+00
    0.21916E-23        -0.62019E-22         0.00000E+00
    0.22340E-24        -0.11732E-21         0.00000E+00
   -0.10679E-22        -0.49452E-22         0.00000E+00
    0.16586E-23        -0.17807E-22         0.00000E+00
   -0.13075E-22        -0.17697E-22         0.00000E+00
   -0.17222E-22        -0.86724E-23         0.00000E+00
    0.00000E+00         0.87574E-21         0.00000E+00
    0.43482E-21         0.90646E-21         0.00000E+00
    0.43566E-21         0.99061E-21         0.00000E+00
    0.41310E-21         0.71461E-21         0.00000E+00
    0.38437E-21         0.25677E-21         0.00000E+00
    0.38408E-21         0.27319E-23         0.00000E+00
    0.39696E-22        -0.10509E-21         0.00000E+00
   -0.31815E-21        -0.12496E-23         0.00000E+00
   -0.44342E-22         0.79094E-22         0.00000E+00
    0.59343E-22        -0.35228E-22         0.00000E+00
    0.11978E-21        -0.17846E-21         0.00000E+00
   -0.27770E-24        -0.17912E-21         0.00000E+00
    0.50492E-22        -0.17111E-21         0.00000E+00
    0.24096E-22        -0.18295E-21         0.00000E+00
    0.23848E-22        -0.21033E-22         0.00000E+00
    0.42317E-22         0.41056E-22         0.00000E+00
    0.15831E-22        -0.10667E-21         0.00000E+00
   -0.11673E-22        -0.12199E-21         0.00000E+00
   -0.25294E-23        -0.70296E-22         0.00000E+00
    0.38768E-22        -0.76587E-22         0.00000E+00
   -0.16883E-22        -0.82712E-22         0.00000E+00
   -0.21459E-22        -0.56456E-22         0.00000E+00
    0.19664E-22        -0.29331E-22         0.00000E+00
    0.30370E-22        -0.19587E-22         0.00000E+00
    0.35382E-22        -0.15905E-22         0.00000E+00
    0.00000E+00         0.82776E-21         0.00000E+00
    0.13382E-21         0.84109E-21         0.00000E+00
    0.64629E-22         0.75728E-21         0.00000E+00
    0.35884E-21         0.57064E-21         0.00000E+00
    0.40609E-21         0.41951E-21         0.00000E+00
    0.31811E-21         0.22363E-21         0.00000E+00
    0.34091E-22         0.97640E-22         0.00000E+00
    0.71817E-22        -0.15253E-23         0.00000E+00
    0.11062E-21         0.11637E-22         0.00000E+00
    0.23625E-22        -0.47293E-22         0.00000E+00
    0.30348E-22        -0.21303E-21         0.00000E+00
   -0.35671E-22        -0.18955E-21         0.00000E+00
    0.46263E-22        -0.17039E-21         0.00000E+00
    0.14303E-22        -0.12266E-21         0.00000E+00
   -0.35061E-22        -0.44260E-22         0.00000E+00
    0.40726E-22        -0.42591E-22         0.00000E+00
    0.68742E-22        -0.10103E-21         0.00000E+00
    0.50146E-22        -0.10397E-21         0.00000E+00
    0.38566E-22        -0.74460E-22         0.00000E+00
    0.10223E-22        -0.47665E-22         0.00000E+00
    0.18086E-22        -0.57092E-22         0.00000E+00
    0.29262E-22        -0.85999E-22         0.00000E+00
    0.51297E-22        -0.69637E-22         0.00000E+00
    0.70599E-22        -0.33415E-22         0.00000E+00
    0.73577E-22        -0.18695E-22         0.00000E+00
    0.10802E-35         0.60809E-21         0.00000E+00
    0.14513E-22         0.84183E-21         0.00000E+00
    0.67331E-22         0.76560E-21         0.00000E+00
    0.21545E-21         0.37315E-21         0.00000E+00
    0.36497E-21         0.29750E-21         0.00000E+00
    0.43820E-21         0.37473E-21         0.00000E+00
    0.44083E-21         0.14120E-21         0.00000E+00
    0.45034E-21        -0.77774E-22         0.00000E+00
    0.37073E-21         0.12729E-21         0.00000E+00
    0.41139E-21         0.45039E-22         0.00000E+00
    0.70855E-22        -0.11916E-21         0.00000E+00
   -0.12316E-21        -0.19503E-21         0.00000E+00
   -0.30484E-23        -0.22109E-21         0.00000E+00
    0.55721E-22        -0.10163E-21         0.00000E+00
    0.27121E-22        -0.47457E-22         0.00000E+00
    0.81971E-22        -0.62747E-22         0.00000E+00
    0.88238E-22        -0.11609E-21         0.00000E+00
    0.94521E-22        -0.91816E-22         0.00000E+00
    0.70954E-22        -0.30373E-22         0.00000E+00
    0.82453E-22        -0.56108E-22         0.00000E+00
    0.15285E-21        -0.10175E-21         0.00000E+00
    0.15330E-21        -0.89667E-22         0.00000E+00
    0.11442E-21        -0.70668E-22         0.00000E+00
    0.10565E-21        -0.41867E-22         0.00000E+00
    0.10345E-21        -0.21863E-22         0.00000E+00
    0.00000E+00         0.79873E-21         0.00000E+00
   -0.60302E-23         0.77376E-21         0.00000E+00
    0.40424E-21         0.55634E-21         0.00000E+00
    0.46921E-21         0.27300E-21         0.00000E+00
    0.33784E-21         0.19676E-21         0.00000E+00
    0.41609E-21         0.14777E-21         0.00000E+00
    0.62911E-21         0.85501E-22         0.00000E+00
    0.54711E-21         0.68576E-22         0.00000E+00
    0.45750E-21         0.50590E-22         0.00000E+00
    0.51299E-21         0.25258E-21         0.00000E+00
    0.27514E-21         0.32152E-21         0.00000E+00
    0.10958E-21        -0.11565E-21         0.00000E+00
    0.10330E-23        -0.34927E-21         0.00000E+00
    0.80101E-22        -0.15283E-21         0.00000E+00
    0.12881E-21        -0.70510E-22         0.00000E+00
    0.14788E-21        -0.10371E-21         0.00000E+00
    0.15126E-21        -0.11358E-21         0.00000E+00
    0.13873E-21        -0.86681E-22         0.00000E+00
    0.17371E-21        -0.62392E-22         0.00000E+00
    0.24520E-21        -0.12956E-21         0.00000E+00
    0.24617E-21        -0.12794E-21         0.00000E+00
    0.20600E-21        -0.47571E-22         0.00000E+00
    0.16727E-21        -0.21986E-22         0.00000E+00
    0.14279E-21        -0.22446E-22         0.00000E+00
    0.13616E-21        -0.14299E-22         0.00000E+00
   -0.22032E-35         0.62015E-21         0.00000E+00
    0.38072E-21         0.43758E-21         0.00000E+00
    0.68278E-21         0.29036E-21         0.00000E+00
    0.67926E-21         0.43956E-21         0.00000E+00
    0.52618E-21         0.35061E-21         0.00000E+00
    0.53106E-21         0.83465E-22         0.00000E+00
    0.56263E-21         0.10187E-22         0.00000E+00
    0.45288E-21         0.93832E-22         0.00000E+00
    0.39629E-21         0.16141E-21         0.00000E+00
    0.28442E-21         0.22740E-21         0.00000E+00
    0.36116E-21         0.28424E-21         0.00000E+00
    0.40503E-21         0.79069E-22         0.00000E+00
    0.24106E-21        -0.19161E-21         0.00000E+00
    0.22653E-21        -0.22940E-21         0.00000E+00
    0.25670E-21        -0.11524E-21         0.00000E+00
    0.21412E-21        -0.85194E-22         0.00000E+00
    0.18446E-21        -0.10693E-21         0.00000E+00
    0.17349E-21        -0.11427E-21         0.00000E+00
    0.22459E-21        -0.13684E-21         0.00000E+00
    0.27367E-21        -0.12857E-21         0.00000E+00
    0.20706E-21        -0.62548E-22         0.00000E+00
    0.15991E-21        -0.10771E-22         0.00000E+00
    0.16451E-21        -0.74630E-23         0.00000E+00
    0.16344E-21        -0.10752E-22         0.00000E+00
    0.15779E-21        -0.85953E-23         0.00000E+00
    0.10440E-51         0.37298E-22         0.00000E+00
    0.28482E-21         0.90982E-22         0.00000E+00
    0.27762E-21         0.25780E-21         0.00000E+00
    0.27459E-21         0.42960E-21         0.00000E+00
    0.55921E-21         0.34495E-21         0.00000E+00
    0.49938E-21         0.11131E-21         0.00000E+00
    0.46765E-21         0.16368E-21         0.00000E+00
    0.33809E-21         0.23492E-21         0.00000E+00
    0.30178E-21         0.21905E-21         0.00000E+00
    0.28126E-21         0.28771E-21         0.00000E+00
    0.36568E-21         0.20091E-21         0.00000E+00
    0.43200E-21         0.44502E-23         0.00000E+00
    0.44645E-21        -0.17078E-21         0.00000E+00
    0.37875E-21        -0.16847E-21         0.00000E+00
    0.29588E-21        -0.58098E-22         0.00000E+00
    0.24391E-21        -0.31477E-22         0.00000E+00
    0.18167E-21        -0.72946E-22         0.00000E+00
    0.19205E-21        -0.12680E-21         0.00000E+00
    0.22219E-21        -0.16258E-21         0.00000E+00
    0.21333E-21        -0.11204E-21         0.00000E+00
    0.16844E-21        -0.14183E-22         0.00000E+00
    0.15511E-21        -0.50207E-23         0.00000E+00
    0.16326E-21        -0.25507E-22         0.00000E+00
    0.16576E-21        -0.15724E-22         0.00000E+00
    0.16467E-21        -0.30046E-23         0.00000E+00
    0.89724E-37         0.50510E-22         0.00000E+00
   -0.28246E-22         0.15996E-21         0.00000E+00
   -0.79720E-22         0.30059E-21         0.00000E+00
    0.30866E-22         0.15798E-21         0.00000E+00
    0.17117E-21         0.12582E-21         0.00000E+00
    0.21088E-21         0.17502E-21         0.00000E+00
    0.14259E-21         0.17148E-21         0.00000E+00
    0.24772E-21         0.25970E-21         0.00000E+00
    0.30844E-21         0.21823E-21         0.00000E+00
    0.44473E-21         0.16350E-21         0.00000E+00
    0.53856E-21         0.13350E-21         0.00000E+00
    0.57062E-21        -0.16983E-23         0.00000E+00
    0.44129E-21        -0.13836E-21         0.00000E+00
    0.34630E-21        -0.78831E-22         0.00000E+00
    0.33735E-21         0.19606E-22         0.00000E+00
    0.24264E-21         0.29020E-22         0.00000E+00
    0.23774E-21        -0.55072E-22         0.00000E+00
    0.25685E-21        -0.15479E-21         0.00000E+00
    0.22615E-21        -0.15812E-21         0.00000E+00
    0.18546E-21        -0.74815E-22         0.00000E+00
    0.16725E-21        -0.43309E-23         0.00000E+00
    0.17938E-21        -0.56003E-23         0.00000E+00
    0.17129E-21        -0.18114E-22         0.00000E+00
    0.16732E-21        -0.12162E-22         0.00000E+00
    0.15896E-21        -0.64182E-23         0.00000E+00
    0.00000E+00         0.93789E-22         0.00000E+00
   -0.96617E-22         0.17070E-21         0.00000E+00
   -0.24503E-22         0.19869E-21         0.00000E+00
    0.15396E-21         0.17872E-21         0.00000E+00
    0.40862E-22         0.16494E-21         0.00000E+00
    0.50874E-22         0.13988E-21         0.00000E+00
    0.23002E-22         0.12684E-21         0.00000E+00
    0.11056E-21         0.69065E-22         0.00000E+00
    0.38985E-21         0.22047E-22         0.00000E+00
    0.51489E-21         0.57597E-22         0.00000E+00
    0.52190E-21         0.75027E-22         0.00000E+00
    0.50949E-21         0.10172E-21         0.00000E+00
    0.32632E-21         0.53529E-22         0.00000E+00
    0.22877E-21        -0.64522E-22         0.00000E+00
    0.27966E-21         0.45561E-22         0.00000E+00
    0.30367E-21         0.68128E-22         0.00000E+00
    0.32250E-21        -0.87155E-22         0.00000E+00
    0.31467E-21        -0.11521E-21         0.00000E+00
    0.20625E-21        -0.91186E-22         0.00000E+00
    0.15490E-21        -0.53131E-22         0.00000E+00
    0.14756E-21        -0.81042E-23         0.00000E+00
    0.16840E-21        -0.90617E-23         0.00000E+00
    0.17871E-21        -0.13447E-22         0.00000E+00
    0.15228E-21        -0.33971E-23         0.00000E+00
    0.14850E-21         0.13726E-22         0.00000E+00
    0.00000E+00         0.24374E-21         0.00000E+00
   -0.65928E-22         0.18446E-21         0.00000E+00
   -0.27227E-22         0.50009E-22         0.00000E+00
   -0.30899E-22         0.92614E-22         0.00000E+00
    0.78272E-23         0.22891E-21         0.00000E+00
    0.65041E-24         0.19288E-21         0.00000E+00
   -0.14225E-24         0.11179E-21         0.00000E+00
    0.39370E-22        -0.10715E-21         0.00000E+00
    0.20218E-21        -0.18609E-21         0.00000E+00
    0.22818E-21         0.31443E-22         0.00000E+00
    0.23017E-21         0.13889E-21         0.00000E+00
    0.16902E-21         0.19389E-21         0.00000E+00
    0.14780E-21         0.14237E-21         0.00000E+00
    0.14784E-21        -0.32170E-22         0.00000E+00
    0.14624E-21        -0.55300E-22         0.00000E+00
    0.27095E-21        -0.13827E-22         0.00000E+00
    0.33209E-21        -0.66071E-22         0.00000E+00
    0.31114E-21        -0.38541E-22         0.00000E+00
    0.27250E-21         0.16474E-23         0.00000E+00
    0.19627E-21        -0.16123E-22         0.00000E+00
    0.17696E-21        -0.17826E-22         0.00000E+00
    0.14902E-21        -0.36750E-22         0.00000E+00
    0.15104E-21        -0.19974E-23         0.00000E+00
    0.13083E-21         0.18050E-22         0.00000E+00
    0.13633E-21         0.11419E-23         0.00000E+00
    0.00000E+00         0.22564E-21         0.00000E+00
    0.58957E-22         0.19793E-21         0.00000E+00
    0.11305E-22         0.16366E-21         0.00000E+00
   -0.86444E-22         0.14366E-21         0.00000E+00
   -0.32366E-22         0.13339E-21         0.00000E+00
   -0.64604E-22         0.14785E-21         0.00000E+00
   -0.34436E-22         0.88120E-22         0.00000E+00
    0.98832E-22        -0.13326E-21         0.00000E+00
   -0.50525E-22        -0.16676E-21         0.00000E+00
   -0.43001E-22         0.29612E-22         0.00000E+00
   -0.14544E-22         0.13419E-21         0.00000E+00
    0.42096E-22         0.18408E-21         0.00000E+00
    0.10626E-21         0.74708E-22         0.00000E+00
    0.14716E-21        -0.62956E-22         0.00000E+00
    0.15167E-21        -0.77550E-22         0.00000E+00
    0.22101E-21        -0.11772E-21         0.00000E+00
    0.31482E-21        -0.12734E-21         0.00000E+00
    0.26300E-21        -0.55618E-22         0.00000E+00
    0.28881E-21         0.23685E-22         0.00000E+00
    0.26755E-21         0.42402E-22         0.00000E+00
    0.21844E-21         0.39141E-22         0.00000E+00
    0.16800E-21         0.16865E-22         0.00000E+00
    0.12258E-21         0.47422E-23         0.00000E+00
    0.13124E-21         0.11315E-22         0.00000E+00
    0.13421E-21         0.27435E-23         0.00000E+00
    0.00000E+00         0.12583E-21         0.00000E+00
    0.33723E-22         0.17316E-21         0.00000E+00
    0.64208E-22         0.19541E-21         0.00000E+00
    0.14982E-21         0.13628E-21         0.00000E+00
    0.85444E-22         0.20707E-21         0.00000E+00
   -0.59529E-22         0.19495E-21         0.00000E+00
   -0.20395E-22        -0.51644E-22         0.00000E+00
   -0.83356E-23        -0.91059E-22         0.00000E+00
   -0.87655E-22        -0.44257E-22         0.00000E+00
   -0.78876E-22        -0.45382E-23         0.00000E+00
    0.55337E-22         0.53796E-22         0.00000E+00
    0.10583E-21         0.73085E-22         0.00000E+00
    0.16030E-21         0.37304E-22         0.00000E+00
    0.16002E-21        -0.77578E-22         0.00000E+00
    0.23998E-21        -0.12914E-21         0.00000E+00
    0.26096E-21        -0.17698E-21         0.00000E+00
    0.24156E-21        -0.10806E-21         0.00000E+00
    0.19974E-21        -0.12528E-22         0.00000E+00
    0.18273E-21        -0.29044E-23         0.00000E+00
    0.18058E-21         0.54241E-22         0.00000E+00
    0.17210E-21         0.81723E-22         0.00000E+00
    0.15692E-21         0.59110E-22         0.00000E+00
    0.14429E-21         0.34756E-22         0.00000E+00
    0.14321E-21         0.64171E-23         0.00000E+00
    0.14160E-21        -0.47986E-23         0.00000E+00
    0.00000E+00         0.15820E-21         0.00000E+00
   -0.11592E-22         0.13372E-21         0.00000E+00
    0.87757E-22         0.47562E-22         0.00000E+00
    0.13468E-21         0.12243E-21         0.00000E+00
    0.82908E-22         0.34273E-21         0.00000E+00
    0.16017E-21         0.25369E-21         0.00000E+00
    0.65833E-23         0.36926E-22         0.00000E+00
   -0.13605E-21        -0.65998E-22         0.00000E+00
   -0.10524E-21        -0.96220E-22         0.00000E+00
   -0.87248E-22        -0.11338E-21         0.00000E+00
    0.11423E-22        -0.50518E-22         0.00000E+00
    0.39474E-22         0.79114E-22         0.00000E+00
    0.10804E-21         0.20515E-22         0.00000E+00
    0.13803E-21        -0.14264E-21         0.00000E+00
    0.13990E-21        -0.17849E-21         0.00000E+00
    0.13720E-21        -0.11930E-21         0.00000E+00
    0.10085E-21        -0.66128E-22         0.00000E+00
    0.15434E-21         0.32101E-23         0.00000E+00
    0.10247E-21         0.42844E-22         0.00000E+00
    0.89266E-22         0.53032E-22         0.00000E+00
    0.10909E-21         0.62802E-22         0.00000E+00
    0.11527E-21         0.44677E-22         0.00000E+00
    0.16151E-21         0.18456E-22         0.00000E+00
    0.15543E-21         0.14000E-22         0.00000E+00
    0.14331E-21         0.59551E-23         0.00000E+00
    0.00000E+00         0.14901E-21         0.00000E+00
   -0.39344E-22         0.85401E-22         0.00000E+00
   -0.27684E-22         0.49143E-22         0.00000E+00
   -0.83261E-22         0.14113E-21         0.00000E+00
    0.14636E-22         0.18158E-21         0.00000E+00
    0.17819E-21         0.27128E-21         0.00000E+00
    0.93885E-22         0.24457E-21         0.00000E+00
    0.39042E-22         0.20765E-22         0.00000E+00
   -0.69491E-22        -0.93056E-22         0.00000E+00
   -0.93567E-22        -0.12120E-21         0.00000E+00
   -0.10203E-21        -0.72927E-22         0.00000E+00
   -0.32730E-22        -0.23536E-22         0.00000E+00
    0.65385E-22        -0.61256E-22         0.00000E+00
    0.82862E-22        -0.10943E-21         0.00000E+00
    0.15764E-22        -0.12831E-21         0.00000E+00
    0.43426E-22        -0.13794E-21         0.00000E+00
    0.54667E-22        -0.12520E-21         0.00000E+00
    0.11265E-21        -0.14143E-22         0.00000E+00
    0.13766E-21         0.62172E-22         0.00000E+00
    0.10292E-21         0.47621E-22         0.00000E+00
    0.74231E-22         0.55715E-22         0.00000E+00
    0.13428E-21         0.66917E-23         0.00000E+00
    0.13410E-21        -0.54005E-23         0.00000E+00
    0.13341E-21         0.24614E-22         0.00000E+00
    0.13049E-21         0.19438E-22         0.00000E+00
    0.00000E+00         0.23689E-21         0.00000E+00
   -0.67799E-22         0.16141E-21         0.00000E+00
   -0.13797E-21         0.91479E-22         0.00000E+00
   -0.15044E-21         0.80108E-22         0.00000E+00
   -0.67924E-22         0.81279E-22         0.00000E+00
    0.13365E-22         0.17444E-21         0.00000E+00
    0.17168E-21         0.17608E-21         0.00000E+00
    0.14766E-21         0.97377E-22         0.00000E+00
    0.10540E-21         0.36390E-22         0.00000E+00
   -0.23003E-22        -0.80842E-22         0.00000E+00
   -0.34773E-22        -0.11136E-21         0.00000E+00
   -0.27874E-22        -0.88299E-22         0.00000E+00
    0.28914E-22        -0.95076E-22         0.00000E+00
    0.42008E-22        -0.93015E-22         0.00000E+00
   -0.72891E-24        -0.13905E-21         0.00000E+00
    0.28576E-22        -0.15820E-21         0.00000E+00
    0.69644E-22        -0.13535E-21         0.00000E+00
    0.90639E-22        -0.79786E-22         0.00000E+00
    0.12936E-21         0.52576E-22         0.00000E+00
    0.91963E-22         0.11646E-21         0.00000E+00
    0.11093E-21         0.31443E-22         0.00000E+00
    0.13711E-21        -0.15190E-22         0.00000E+00
    0.93984E-22         0.19329E-22         0.00000E+00
    0.10595E-21         0.17607E-22         0.00000E+00
    0.10928E-21         0.11786E-22         0.00000E+00
    0.00000E+00         0.28461E-21         0.00000E+00
   -0.32006E-22         0.22337E-21         0.00000E+00
   -0.13079E-21         0.13178E-21         0.00000E+00
   -0.65509E-22         0.71083E-22         0.00000E+00
   -0.73920E-23         0.17775E-22         0.00000E+00
   -0.49071E-22         0.31676E-22         0.00000E+00
    0.11982E-21         0.11028E-21         0.00000E+00
    0.26042E-21         0.87043E-22         0.00000E+00
    0.25580E-21         0.77607E-22         0.00000E+00
    0.16376E-21         0.18972E-22         0.00000E+00
    0.66259E-22        -0.68056E-22         0.00000E+00
    0.68028E-22        -0.87223E-22         0.00000E+00
    0.41177E-22        -0.13114E-21         0.00000E+00
    0.83551E-22        -0.79787E-22         0.00000E+00
    0.13000E-21        -0.11488E-21         0.00000E+00
    0.78842E-22        -0.20831E-21         0.00000E+00
    0.49875E-22        -0.18726E-21         0.00000E+00
    0.22937E-22        -0.73860E-22         0.00000E+00
    0.43573E-22         0.60849E-22         0.00000E+00
    0.91151E-22         0.66054E-22         0.00000E+00
    0.15191E-21         0.10566E-22         0.00000E+00
    0.10656E-21         0.23635E-22         0.00000E+00
    0.97862E-22         0.25762E-22         0.00000E+00
    0.96052E-22         0.93221E-23         0.00000E+00
    0.99313E-22         0.12786E-22         0.00000E+00
    0.00000E+00         0.30090E-21         0.00000E+00
    0.11456E-22         0.29220E-21         0.00000E+00
    0.17475E-22         0.12498E-21         0.00000E+00
    0.12173E-21        -0.43291E-22         0.00000E+00
    0.12114E-21         0.64841E-22         0.00000E+00
    0.19254E-21         0.47231E-22         0.00000E+00
    0.27153E-21        -0.13341E-21         0.00000E+00
    0.31756E-21        -0.38599E-22         0.00000E+00
    0.29746E-21         0.13305E-21         0.00000E+00
    0.29237E-21         0.10870E-21         0.00000E+00
    0.25926E-21        -0.15627E-22         0.00000E+00
    0.22138E-21        -0.63217E-22         0.00000E+00
    0.20498E-21        -0.11060E-21         0.00000E+00
    0.19889E-21        -0.18183E-21         0.00000E+00
    0.26372E-21        -0.13434E-21         0.00000E+00
    0.18365E-21        -0.78081E-22         0.00000E+00
    0.60551E-22        -0.79450E-22         0.00000E+00
   -0.89188E-23        -0.73485E-22         0.00000E+00
    0.39768E-22        -0.15638E-22         0.00000E+00
    0.11759E-21         0.81252E-23         0.00000E+00
    0.11351E-21         0.16029E-22         0.00000E+00
    0.87314E-22         0.38861E-22         0.00000E+00
    0.94844E-22         0.29842E-22         0.00000E+00
    0.92796E-22         0.16156E-22         0.00000E+00
    0.10029E-21         0.52651E-23         0.00000E+00
    0.00000E+00         0.26170E-21         0.00000E+00
    0.11744E-21         0.20590E-21         0.00000E+00
    0.21174E-21         0.21504E-22         0.00000E+00
    0.28413E-21        -0.32586E-22         0.00000E+00
    0.25749E-21        -0.53035E-22         0.00000E+00
    0.40870E-21        -0.11871E-21         0.00000E+00
    0.40326E-21        -0.14740E-22         0.00000E+00
    0.24236E-21         0.61107E-22         0.00000E+00
    0.23227E-21         0.10280E-21         0.00000E+00
    0.31021E-21         0.57169E-22         0.00000E+00
    0.33290E-21         0.29348E-23         0.00000E+00
    0.26865E-21        -0.32934E-22         0.00000E+00
    0.29308E-21        -0.10865E-21         0.00000E+00
    0.27283E-21        -0.13853E-21         0.00000E+00
    0.20191E-21        -0.99637E-22         0.00000E+00
    0.17998E-21        -0.51473E-23         0.00000E+00
    0.14378E-21         0.52995E-23         0.00000E+00
    0.10909E-21        -0.53078E-22         0.00000E+00
    0.86498E-22        -0.65660E-22         0.00000E+00
    0.10648E-21        -0.76859E-23         0.00000E+00
    0.69521E-22         0.40841E-22         0.00000E+00
    0.77848E-22         0.42299E-22         0.00000E+00
    0.93939E-22         0.20281E-22         0.00000E+00
    0.10531E-21         0.38811E-23         0.00000E+00
    0.11009E-21        -0.21928E-23         0.00000E+00
    0.00000E+00         0.66017E-22         0.00000E+00
    0.16966E-21         0.80458E-22         0.00000E+00
    0.20403E-21        -0.41708E-22         0.00000E+00
    0.14471E-21        -0.89038E-22         0.00000E+00
    0.21712E-21        -0.59727E-22         0.00000E+00
    0.21585E-21        -0.98546E-22         0.00000E+00
    0.20674E-21         0.32929E-22         0.00000E+00
    0.23382E-21         0.13240E-21         0.00000E+00
    0.27919E-21         0.65198E-22         0.00000E+00
    0.23365E-21         0.80637E-23         0.00000E+00
    0.13886E-21         0.25930E-22         0.00000E+00
    0.18439E-21        -0.23401E-22         0.00000E+00
    0.18752E-21        -0.11477E-21         0.00000E+00
    0.20126E-21        -0.90658E-22         0.00000E+00
    0.14165E-21        -0.41493E-22         0.00000E+00
    0.14305E-21        -0.19953E-22         0.00000E+00
    0.15865E-21        -0.85615E-23         0.00000E+00
    0.13947E-21        -0.16205E-22         0.00000E+00
    0.92060E-22        -0.13031E-22         0.00000E+00
    0.62225E-22         0.25102E-22         0.00000E+00
    0.48958E-22         0.44662E-22         0.00000E+00
    0.93315E-22         0.14443E-22         0.00000E+00
    0.12308E-21         0.23763E-23         0.00000E+00
    0.12394E-21         0.36540E-26         0.00000E+00
    0.12508E-21        -0.42908E-23         0.00000E+00
    0.00000E+00        -0.77625E-22         0.00000E+00
    0.68764E-22         0.18683E-23         0.00000E+00
    0.88910E-22         0.46461E-22         0.00000E+00
   -0.17771E-22        -0.45670E-22         0.00000E+00
    0.23897E-22        -0.12418E-21         0.00000E+00
    0.59196E-22        -0.10833E-21         0.00000E+00
    0.98695E-22        -0.32706E-22         0.00000E+00
    0.13293E-21        -0.11340E-22         0.00000E+00
    0.15953E-21         0.10297E-21         0.00000E+00
    0.33861E-22         0.19750E-21         0.00000E+00
   -0.37305E-22         0.52192E-22         0.00000E+00
    0.14664E-22        -0.81591E-22         0.00000E+00
    0.35920E-22        -0.12552E-21         0.00000E+00
    0.51569E-22        -0.92657E-22         0.00000E+00
    0.25698E-22        -0.41424E-22         0.00000E+00
    0.17250E-22        -0.22153E-22         0.00000E+00
    0.44274E-22         0.88764E-23         0.00000E+00
    0.46666E-22         0.13514E-22         0.00000E+00
    0.50713E-22         0.11585E-22         0.00000E+00
    0.51712E-22         0.35416E-22         0.00000E+00
    0.85620E-22         0.97512E-23         0.00000E+00
    0.11417E-21        -0.31825E-22         0.00000E+00
    0.13338E-21        -0.10344E-22         0.00000E+00
    0.12727E-21         0.18868E-23         0.00000E+00
    0.12237E-21        -0.44679E-23         0.00000E+00
    0.00000E+00        -0.71512E-22         0.00000E+00
   -0.54225E-22        -0.84524E-23         0.00000E+00
    0.10269E-22         0.44827E-22         0.00000E+00
    0.94274E-22        -0.24024E-22         0.00000E+00
    0.13802E-21        -0.13669E-21         0.00000E+00
    0.11967E-21        -0.17334E-21         0.00000E+00
    0.52959E-22        -0.40802E-22         0.00000E+00
    0.49246E-22         0.71562E-22         0.00000E+00
   -0.60875E-22         0.16426E-21         0.00000E+00
   -0.30224E-22         0.20490E-21         0.00000E+00
   -0.15229E-23         0.45127E-22         0.00000E+00
    0.14459E-22        -0.96626E-22         0.00000E+00
    0.76130E-23        -0.15168E-21         0.00000E+00
   -0.46133E-23        -0.80435E-22         0.00000E+00
    0.92850E-24        -0.71737E-23         0.00000E+00
   -0.34786E-22        -0.38530E-22         0.00000E+00
   -0.32104E-22        -0.37978E-22         0.00000E+00
    0.36547E-23        -0.22644E-22         0.00000E+00
    0.33654E-22        -0.18076E-22         0.00000E+00
    0.63602E-22        -0.98047E-23         0.00000E+00
    0.13681E-21        -0.17800E-22         0.00000E+00
    0.12370E-21        -0.33312E-22         0.00000E+00
    0.10703E-21        -0.10721E-22         0.00000E+00
    0.10928E-21         0.11006E-22         0.00000E+00
    0.10338E-21         0.55062E-23         0.00000E+00
    0.00000E+00         0.30825E-22         0.00000E+00
    0.81006E-22        -0.84007E-23         0.00000E+00
    0.19261E-21        -0.10204E-21         0.00000E+00
    0.25900E-21        -0.17343E-21         0.00000E+00
    0.28400E-21        -0.14958E-21         0.00000E+00
    0.17694E-21        -0.23266E-22         0.00000E+00
    0.44870E-22         0.37717E-22         0.00000E+00
    0.42123E-22         0.10249E-21         0.00000E+00
    0.85595E-23         0.18245E-21         0.00000E+00
    0.89911E-22         0.13815E-21         0.00000E+00
    0.15070E-21         0.75088E-23         0.00000E+00
    0.16516E-21        -0.90727E-22         0.00000E+00
    0.14791E-21        -0.10645E-21         0.00000E+00
    0.94460E-22        -0.85972E-22         0.00000E+00
    0.14601E-21        -0.11251E-22         0.00000E+00
    0.10383E-21         0.10879E-22         0.00000E+00
    0.12886E-22        -0.29565E-22         0.00000E+00
    0.28345E-23        -0.52244E-22         0.00000E+00
    0.28686E-22        -0.48362E-22         0.00000E+00
    0.48703E-22        -0.67737E-22         0.00000E+00
    0.92239E-22        -0.50352E-22         0.00000E+00
    0.10017E-21        -0.20440E-23         0.00000E+00
    0.75366E-22         0.40773E-23         0.00000E+00
    0.84167E-22         0.55376E-23         0.00000E+00
    0.88247E-22         0.73488E-23         0.00000E+00
    0.00000E+00        -0.23352E-21         0.00000E+00
    0.20707E-21        -0.20106E-21         0.00000E+00
    0.32045E-21        -0.13316E-21         0.00000E+00
    0.23890E-21        -0.11542E-21         0.00000E+00
    0.16294E-21        -0.54638E-22         0.00000E+00
    0.14620E-21         0.65791E-22         0.00000E+00
    0.13277E-21         0.94014E-22         0.00000E+00
    0.58492E-22         0.10787E-21         0.00000E+00
    0.58630E-22         0.11648E-21         0.00000E+00
    0.12950E-21         0.62755E-22         0.00000E+00
    0.19500E-21        -0.30122E-22         0.00000E+00
    0.17108E-21        -0.93832E-22         0.00000E+00
    0.18689E-21        -0.80975E-22         0.00000E+00
    0.17134E-21        -0.78531E-22         0.00000E+00
    0.16860E-21        -0.16546E-22         0.00000E+00
    0.15401E-21         0.94590E-22         0.00000E+00
    0.10472E-21         0.63019E-22         0.00000E+00
    0.60617E-22        -0.38444E-22         0.00000E+00
    0.48993E-22        -0.63945E-22         0.00000E+00
    0.71798E-22        -0.73358E-22         0.00000E+00
    0.53723E-22        -0.69270E-22         0.00000E+00
    0.55609E-22        -0.16439E-22         0.00000E+00
    0.65044E-22         0.52848E-23         0.00000E+00
    0.73216E-22        -0.18752E-23         0.00000E+00
    0.76659E-22        -0.26542E-23         0.00000E+00
    0.00000E+00        -0.38332E-21         0.00000E+00
    0.29453E-23        -0.32885E-21         0.00000E+00
    0.81953E-22        -0.13387E-21         0.00000E+00
    0.13053E-21        -0.15915E-22         0.00000E+00
    0.86856E-22        -0.56872E-22         0.00000E+00
    0.10435E-21         0.68987E-23         0.00000E+00
    0.14159E-21         0.12542E-21         0.00000E+00
    0.12157E-21         0.17664E-21         0.00000E+00
    0.93259E-22         0.11144E-21         0.00000E+00
    0.94615E-22         0.17792E-23         0.00000E+00
    0.96301E-22        -0.34078E-22         0.00000E+00
    0.50438E-22        -0.82615E-22         0.00000E+00
    0.56468E-22        -0.10670E-21         0.00000E+00
    0.70312E-22        -0.67685E-22         0.00000E+00
    0.38309E-22         0.60773E-23         0.00000E+00
    0.85880E-22         0.74758E-22         0.00000E+00
    0.12831E-21         0.63829E-22         0.00000E+00
    0.14885E-21         0.34841E-23         0.00000E+00
    0.13278E-21        -0.59543E-22         0.00000E+00
    0.11790E-21        -0.72467E-22         0.00000E+00
    0.71471E-22        -0.34162E-22         0.00000E+00
    0.52532E-22        -0.13364E-22         0.00000E+00
    0.59629E-22        -0.13531E-22         0.00000E+00
    0.69460E-22        -0.60778E-23         0.00000E+00
    0.67745E-22         0.46375E-24         0.00000E+00
    0.00000E+00        -0.23941E-21         0.00000E+00
   -0.66464E-22        -0.28301E-21         0.00000E+00
   -0.10762E-21        -0.26075E-21         0.00000E+00
   -0.55285E-23        -0.12032E-21         0.00000E+00
    0.53851E-22        -0.28453E-22         0.00000E+00
    0.23721E-23         0.11061E-22         0.00000E+00
    0.12104E-22         0.76788E-22         0.00000E+00
    0.59148E-22         0.15620E-21         0.00000E+00
    0.97660E-22         0.14343E-21         0.00000E+00
   -0.13476E-24         0.59713E-22         0.00000E+00
    0.93854E-23         0.14056E-22         0.00000E+00
    0.46011E-22        -0.53999E-22         0.00000E+00
   -0.53369E-23        -0.10085E-21         0.00000E+00
   -0.32437E-22        -0.60372E-22         0.00000E+00
    0.13786E-22        -0.32113E-22         0.00000E+00
    0.84198E-22         0.45937E-23         0.00000E+00
    0.13598E-21         0.53916E-25         0.00000E+00
    0.16268E-21        -0.42917E-22         0.00000E+00
    0.16482E-21        -0.32998E-22         0.00000E+00
    0.12780E-21        -0.12051E-22         0.00000E+00
    0.73400E-22        -0.39028E-23         0.00000E+00
    0.79087E-22        -0.45968E-23         0.00000E+00
    0.63342E-22        -0.11644E-22         0.00000E+00
    0.60106E-22        -0.99918E-23         0.00000E+00
    0.64784E-22         0.77584E-24         0.00000E+00
    0.00000E+00        -0.25039E-21         0.00000E+00
    0.47193E-23        -0.22123E-21         0.00000E+00
   -0.91181E-22        -0.19480E-21         0.00000E+00
   -0.13649E-21        -0.17739E-21         0.00000E+00
   -0.61590E-22        -0.64772E-22         0.00000E+00
   -0.60234E-22         0.48645E-22         0.00000E+00
   -0.10082E-21         0.68646E-22         0.00000E+00
   -0.93247E-22         0.91082E-22         0.00000E+00
   -0.35146E-22         0.17072E-21         0.00000E+00
    0.10504E-24         0.90053E-22         0.00000E+00
    0.51830E-22        -0.80224E-22         0.00000E+00
    0.65006E-22        -0.67892E-22         0.00000E+00
    0.38540E-22        -0.28255E-22         0.00000E+00
    0.33175E-22        -0.86808E-22         0.00000E+00
    0.89887E-22        -0.11056E-21         0.00000E+00
    0.10650E-21        -0.47432E-22         0.00000E+00
    0.13750E-21        -0.14653E-22         0.00000E+00
    0.11525E-21        -0.25356E-22         0.00000E+00
    0.85352E-22        -0.24659E-22         0.00000E+00
    0.79490E-22         0.18949E-22         0.00000E+00
    0.85574E-22         0.14547E-22         0.00000E+00
    0.81022E-22        -0.33070E-23         0.00000E+00
    0.80320E-22         0.54500E-23         0.00000E+00
    0.68813E-22        -0.75199E-23         0.00000E+00
    0.68450E-22        -0.88930E-23         0.00000E+00
    0.00000E+00        -0.24885E-21         0.00000E+00
   -0.53589E-22        -0.19183E-21         0.00000E+00
   -0.57226E-22        -0.11954E-21         0.00000E+00
   -0.73148E-22        -0.14991E-21         0.00000E+00
   -0.14089E-21        -0.10471E-21         0.00000E+00
   -0.82863E-22         0.50287E-22         0.00000E+00
   -0.64282E-22         0.10980E-21         0.00000E+00
   -0.56971E-22         0.90528E-22         0.00000E+00
   -0.45869E-22         0.50082E-22         0.00000E+00
    0.10123E-21        -0.27262E-22         0.00000E+00
    0.12605E-21        -0.50845E-22         0.00000E+00
    0.57658E-22        -0.40709E-22         0.00000E+00
    0.93486E-22        -0.69019E-22         0.00000E+00
    0.13947E-21        -0.11172E-21         0.00000E+00
    0.90281E-22        -0.10544E-21         0.00000E+00
    0.60051E-22        -0.43020E-22         0.00000E+00
    0.37871E-22        -0.86948E-23         0.00000E+00
    0.58914E-22         0.92328E-23         0.00000E+00
    0.51471E-22         0.27592E-23         0.00000E+00
    0.26610E-22        -0.12272E-22         0.00000E+00
    0.59777E-22        -0.54343E-23         0.00000E+00
    0.59938E-22         0.65631E-24         0.00000E+00
    0.80224E-22         0.56491E-24         0.00000E+00
    0.81919E-22         0.18785E-23         0.00000E+00
    0.75909E-22         0.15024E-23         0.00000E+00
    0.00000E+00        -0.14321E-21         0.00000E+00
   -0.56382E-22        -0.16400E-21         0.00000E+00
   -0.41246E-22        -0.17525E-21         0.00000E+00
   -0.44669E-22        -0.93724E-22         0.00000E+00
   -0.77784E-22        -0.55058E-22         0.00000E+00
   -0.11528E-21        -0.27960E-22         0.00000E+00
   -0.27997E-22         0.42754E-22         0.00000E+00
    0.60675E-22         0.72668E-22         0.00000E+00
    0.67952E-22         0.12523E-22         0.00000E+00
    0.64570E-22        -0.81861E-22         0.00000E+00
    0.70455E-22        -0.36652E-22         0.00000E+00
    0.12590E-21        -0.35332E-22         0.00000E+00
    0.11266E-21        -0.11007E-21         0.00000E+00
    0.12386E-21        -0.83603E-22         0.00000E+00
    0.61137E-22        -0.31137E-22         0.00000E+00
    0.17159E-22         0.49777E-23         0.00000E+00
    0.31999E-22        -0.13516E-22         0.00000E+00
    0.52422E-22        -0.38957E-22         0.00000E+00
    0.70658E-22         0.76449E-23         0.00000E+00
    0.49271E-22         0.10643E-22         0.00000E+00
    0.43124E-22        -0.18782E-22         0.00000E+00
    0.56482E-22        -0.23754E-22         0.00000E+00
    0.66065E-22        -0.16531E-22         0.00000E+00
    0.77113E-22        -0.32048E-23         0.00000E+00
    0.79474E-22         0.31271E-23         0.00000E+00
    0.00000E+00        -0.13609E-21         0.00000E+00
    0.15979E-22        -0.15059E-21         0.00000E+00
   -0.42522E-22        -0.13125E-21         0.00000E+00
   -0.87875E-22        -0.11338E-21         0.00000E+00
   -0.33038E-22        -0.34096E-22         0.00000E+00
   -0.67869E-22         0.50011E-24         0.00000E+00
   -0.43866E-22        -0.66153E-22         0.00000E+00
    0.12412E-22        -0.54204E-23         0.00000E+00
    0.86392E-22         0.46186E-22         0.00000E+00
    0.22485E-22        -0.29765E-22         0.00000E+00
    0.11597E-22        -0.11218E-21         0.00000E+00
    0.87403E-22        -0.82911E-22         0.00000E+00
    0.96891E-22        -0.66971E-22         0.00000E+00
    0.74422E-22        -0.60200E-22         0.00000E+00
    0.40849E-22         0.12587E-23         0.00000E+00
    0.54596E-22        -0.13882E-22         0.00000E+00
    0.94640E-22        -0.43957E-22         0.00000E+00
    0.62299E-22        -0.29426E-22         0.00000E+00
    0.80572E-22         0.59103E-23         0.00000E+00
    0.11110E-21         0.15262E-22         0.00000E+00
    0.10817E-21        -0.12645E-22         0.00000E+00
    0.92476E-22        -0.22284E-22         0.00000E+00
    0.76194E-22        -0.20066E-22         0.00000E+00
    0.73097E-22        -0.11531E-22         0.00000E+00
    0.75182E-22        -0.32206E-23         0.00000E+00
    0.00000E+00        -0.17517E-21         0.00000E+00
    0.32372E-22        -0.12148E-21         0.00000E+00
   -0.27559E-22        -0.71391E-22         0.00000E+00
    0.59464E-23        -0.10321E-21         0.00000E+00
   -0.72901E-22        -0.75065E-22         0.00000E+00
   -0.47078E-23        -0.17132E-22         0.00000E+00
   -0.88921E-23        -0.37527E-22         0.00000E+00
   -0.32436E-22        -0.57590E-22         0.00000E+00
    0.27701E-22         0.24508E-23         0.00000E+00
    0.29683E-22        -0.70665E-23         0.00000E+00
    0.25244E-22        -0.10157E-21         0.00000E+00
    0.35888E-22        -0.12063E-21         0.00000E+00
    0.81881E-22        -0.97087E-22         0.00000E+00
    0.55095E-22        -0.27560E-22         0.00000E+00
    0.36725E-22        -0.11312E-22         0.00000E+00
    0.78717E-22        -0.48813E-22         0.00000E+00
    0.72128E-22        -0.21218E-22         0.00000E+00
    0.54262E-22        -0.24889E-22         0.00000E+00
    0.74082E-22        -0.41154E-22         0.00000E+00
    0.12947E-21        -0.16958E-22         0.00000E+00
    0.14409E-21        -0.16086E-24         0.00000E+00
    0.11711E-21         0.82247E-23         0.00000E+00
    0.93615E-22         0.28486E-23         0.00000E+00
    0.76521E-22        -0.21928E-23         0.00000E+00
    0.72376E-22        -0.10438E-23         0.00000E+00
    0.00000E+00        -0.20083E-21         0.00000E+00
   -0.22492E-22        -0.12303E-21         0.00000E+00
   -0.30311E-23        -0.10483E-21         0.00000E+00
   -0.33704E-23        -0.68035E-22         0.00000E+00
   -0.61278E-22        -0.23442E-22         0.00000E+00
   -0.19009E-22        -0.63509E-22         0.00000E+00
    0.23418E-22        -0.38425E-22         0.00000E+00
   -0.91097E-23        -0.42014E-22         0.00000E+00
   -0.83627E-23        -0.15932E-22         0.00000E+00
    0.78425E-22        -0.27308E-22         0.00000E+00
    0.62589E-22        -0.11838E-21         0.00000E+00
    0.55097E-22        -0.13955E-21         0.00000E+00
    0.75396E-22        -0.86178E-22         0.00000E+00
    0.42982E-22        -0.15044E-22         0.00000E+00
    0.43225E-22        -0.22363E-22         0.00000E+00
    0.49275E-22        -0.49285E-22         0.00000E+00
    0.45556E-22        -0.19503E-22         0.00000E+00
    0.66583E-22        -0.31381E-22         0.00000E+00
    0.81073E-22        -0.69297E-22         0.00000E+00
    0.88686E-22        -0.54750E-22         0.00000E+00
    0.10922E-21        -0.28558E-24         0.00000E+00
    0.92733E-22         0.28195E-22         0.00000E+00
    0.81974E-22         0.20523E-22         0.00000E+00
    0.74683E-22         0.97076E-23         0.00000E+00
    0.71402E-22         0.50687E-23         0.00000E+00
    0.00000E+00        -0.13019E-21         0.00000E+00
   -0.52225E-22        -0.11845E-21         0.00000E+00
   -0.41765E-22        -0.90513E-22         0.00000E+00
   -0.70641E-22        -0.44961E-22         0.00000E+00
    0.44196E-23        -0.59426E-22         0.00000E+00
    0.27735E-22        -0.10183E-21         0.00000E+00
    0.54604E-22        -0.47426E-22         0.00000E+00
    0.51009E-22        -0.25809E-22         0.00000E+00
    0.46483E-22        -0.85084E-22         0.00000E+00
    0.12670E-21        -0.78018E-22         0.00000E+00
    0.11325E-21        -0.78243E-22         0.00000E+00
    0.52913E-22        -0.13343E-21         0.00000E+00
    0.66854E-22        -0.84972E-22         0.00000E+00
    0.80817E-22         0.46108E-23         0.00000E+00
    0.85243E-22        -0.17604E-22         0.00000E+00
    0.59924E-22        -0.51145E-22         0.00000E+00
    0.55616E-22        -0.38526E-22         0.00000E+00
    0.60552E-22        -0.60406E-22         0.00000E+00
    0.75277E-22        -0.63257E-22         0.00000E+00
    0.53420E-22        -0.45102E-22         0.00000E+00
    0.53640E-22        -0.42079E-23         0.00000E+00
    0.65988E-22         0.35467E-22         0.00000E+00
    0.64642E-22         0.20898E-22         0.00000E+00
    0.63419E-22         0.83796E-23         0.00000E+00
    0.64830E-22         0.55186E-23         0.00000E+00
   -0.17121E-36        -0.96384E-22         0.00000E+00
   -0.34614E-22        -0.81263E-22         0.00000E+00
   -0.32529E-22        -0.86413E-22         0.00000E+00
    0.89960E-24        -0.11422E-21         0.00000E+00
    0.62819E-22        -0.12182E-21         0.00000E+00
    0.96155E-22        -0.11369E-21         0.00000E+00
    0.68645E-22        -0.61700E-22         0.00000E+00
    0.95133E-22        -0.33893E-22         0.00000E+00
    0.86303E-22        -0.91621E-22         0.00000E+00
    0.67897E-22        -0.94077E-22         0.00000E+00
    0.86139E-22        -0.44598E-22         0.00000E+00
    0.74321E-22        -0.93149E-22         0.00000E+00
    0.47110E-22        -0.11408E-21         0.00000E+00
    0.88639E-22        -0.33433E-22         0.00000E+00
    0.97829E-22        -0.14709E-23         0.00000E+00
    0.61398E-22        -0.19659E-22         0.00000E+00
    0.57820E-22        -0.20130E-22         0.00000E+00
    0.59117E-22        -0.51042E-22         0.00000E+00
    0.39719E-22        -0.62165E-22         0.00000E+00
    0.35767E-22        -0.33112E-22         0.00000E+00
    0.16824E-22        -0.12853E-22         0.00000E+00
    0.42496E-22         0.17193E-22         0.00000E+00
    0.57865E-22         0.23092E-22         0.00000E+00
    0.58101E-22         0.95191E-23         0.00000E+00
    0.58426E-22         0.22452E-23         0.00000E+00
   -0.15243E-50        -0.60959E-22         0.00000E+00
   -0.85403E-23        -0.85920E-22         0.00000E+00
    0.14783E-22        -0.12603E-21         0.00000E+00
    0.44835E-22        -0.14031E-21         0.00000E+00
    0.51845E-22        -0.15468E-21         0.00000E+00
    0.38901E-22        -0.10766E-21         0.00000E+00
    0.34918E-22        -0.46404E-22         0.00000E+00
    0.40362E-22        -0.43466E-22         0.00000E+00
    0.41069E-22        -0.57847E-22         0.00000E+00
   -0.20419E-23        -0.77855E-22         0.00000E+00
    0.17184E-22        -0.84667E-22         0.00000E+00
    0.47930E-22        -0.94404E-22         0.00000E+00
    0.11787E-22        -0.99290E-22         0.00000E+00
   -0.27106E-22        -0.46108E-22         0.00000E+00
   -0.62778E-23         0.96373E-23         0.00000E+00
   -0.22865E-23        -0.11136E-22         0.00000E+00
    0.25346E-22        -0.36246E-22         0.00000E+00
    0.50905E-22        -0.42305E-22         0.00000E+00
    0.30602E-22        -0.39906E-22         0.00000E+00
    0.25313E-22        -0.22207E-22         0.00000E+00
    0.13807E-22        -0.10937E-22         0.00000E+00
    0.20443E-22        -0.55733E-23         0.00000E+00
    0.44038E-22         0.52929E-23         0.00000E+00
    0.53765E-22         0.78183E-23         0.00000E+00
    0.54536E-22         0.48678E-23         0.00000E+00
    0.14087E-36        -0.79303E-22         0.00000E+00
    0.68226E-22        -0.96045E-22         0.00000E+00
    0.77813E-22        -0.13979E-21         0.00000E+00
    0.59018E-22        -0.15128E-21         0.00000E+00
    0.17130E-22        -0.11588E-21         0.00000E+00
   -0.33914E-22        -0.96766E-22         0.00000E+00
    0.93550E-23        -0.63160E-22         0.00000E+00
    0.32946E-22        -0.40045E-22         0.00000E+00
    0.25552E-22        -0.49217E-22         0.00000E+00
    0.17997E-22        -0.70192E-22         0.00000E+00
    0.24244E-23        -0.94570E-22         0.00000E+00
    0.14375E-22        -0.87752E-22         0.00000E+00
   -0.17059E-22        -0.39046E-22         0.00000E+00
   -0.54857E-22        -0.15368E-22         0.00000E+00
   -0.18915E-22        -0.26290E-22         0.00000E+00
    0.49137E-25        -0.51283E-22         0.00000E+00
    0.65218E-23        -0.73321E-22         0.00000E+00
    0.23773E-22        -0.56298E-22         0.00000E+00
    0.17576E-22        -0.36573E-22         0.00000E+00
    0.21010E-22        -0.16317E-22         0.00000E+00
    0.23787E-22        -0.79829E-23         0.00000E+00
    0.25442E-22        -0.13038E-22         0.00000E+00
    0.37264E-22        -0.10230E-22         0.00000E+00
    0.46153E-22        -0.97939E-24         0.00000E+00
    0.49490E-22         0.70211E-24         0.00000E+00
    0.00000E+00        -0.19741E-21         0.00000E+00
    0.10843E-21        -0.16373E-21         0.00000E+00
    0.12816E-21        -0.11682E-21         0.00000E+00
    0.77433E-22        -0.79628E-22         0.00000E+00
    0.96152E-23        -0.61750E-22         0.00000E+00
   -0.15781E-22        -0.99880E-22         0.00000E+00
    0.27854E-22        -0.11326E-21         0.00000E+00
    0.68303E-22        -0.59663E-22         0.00000E+00
    0.34493E-22        -0.42898E-22         0.00000E+00
    0.33580E-22        -0.54727E-22         0.00000E+00
    0.13072E-22        -0.81046E-22         0.00000E+00
    0.28983E-22        -0.74921E-22         0.00000E+00
    0.21225E-22        -0.30058E-22         0.00000E+00
    0.54689E-22        -0.44252E-22         0.00000E+00
    0.62780E-22        -0.45269E-22         0.00000E+00
    0.74547E-22        -0.36573E-22         0.00000E+00
    0.37352E-22        -0.59969E-22         0.00000E+00
    0.31268E-22        -0.53360E-22         0.00000E+00
    0.33797E-22        -0.37144E-22         0.00000E+00
    0.34197E-22        -0.28417E-22         0.00000E+00
    0.35205E-22        -0.15368E-22         0.00000E+00
    0.39335E-22        -0.19050E-22         0.00000E+00
    0.37595E-22        -0.15418E-22         0.00000E+00
    0.41043E-22        -0.44078E-23         0.00000E+00
    0.43482E-22        -0.18067E-23         0.00000E+00
    0.00000E+00        -0.29616E-21         0.00000E+00
    0.36788E-22        -0.22420E-21         0.00000E+00
    0.40003E-22        -0.10879E-21         0.00000E+00
    0.45077E-22        -0.32738E-22         0.00000E+00
    0.43881E-22        -0.22671E-22         0.00000E+00
    0.39278E-22        -0.11500E-21         0.00000E+00
    0.40251E-22        -0.14724E-21         0.00000E+00
    0.37851E-22        -0.46683E-22         0.00000E+00
    0.30835E-22        -0.14494E-22         0.00000E+00
    0.22719E-22        -0.48772E-22         0.00000E+00
    0.49089E-22        -0.89973E-22         0.00000E+00
    0.36453E-22        -0.95905E-22         0.00000E+00
    0.63528E-22        -0.64752E-22         0.00000E+00
    0.79238E-22        -0.56923E-22         0.00000E+00
    0.74423E-22        -0.46149E-22         0.00000E+00
    0.89969E-22        -0.25855E-22         0.00000E+00
    0.69466E-22        -0.30042E-22         0.00000E+00
    0.49220E-22        -0.52743E-22         0.00000E+00
    0.65797E-22        -0.39503E-22         0.00000E+00
    0.51398E-22        -0.17724E-22         0.00000E+00
    0.44325E-22        -0.13121E-22         0.00000E+00
    0.40034E-22        -0.15428E-22         0.00000E+00
    0.34226E-22        -0.11937E-22         0.00000E+00
    0.35555E-22        -0.68673E-23         0.00000E+00
    0.36978E-22        -0.41772E-23         0.00000E+00
    0.00000E+00        -0.27099E-21         0.00000E+00
   -0.53726E-22        -0.20374E-21         0.00000E+00
   -0.53812E-22        -0.12511E-21         0.00000E+00
   -0.18950E-22        -0.83506E-22         0.00000E+00
    0.35039E-22        -0.55951E-22         0.00000E+00
    0.61004E-22        -0.96250E-22         0.00000E+00
    0.14491E-23        -0.11184E-21         0.00000E+00
   -0.17646E-22        -0.50246E-22         0.00000E+00
    0.24981E-22        -0.27766E-22         0.00000E+00
    0.43652E-22        -0.72981E-22         0.00000E+00
    0.61768E-22        -0.94779E-22         0.00000E+00
    0.38814E-22        -0.89360E-22         0.00000E+00
    0.58149E-22        -0.72843E-22         0.00000E+00
    0.51928E-22        -0.55147E-22         0.00000E+00
    0.58446E-22        -0.56000E-22         0.00000E+00
    0.64047E-22        -0.31615E-22         0.00000E+00
    0.77832E-22        -0.19220E-22         0.00000E+00
    0.69469E-22        -0.49691E-22         0.00000E+00
    0.51242E-22        -0.39322E-22         0.00000E+00
    0.47599E-22        -0.69461E-23         0.00000E+00
    0.48410E-22        -0.40037E-23         0.00000E+00
    0.40518E-22        -0.89508E-23         0.00000E+00
    0.35267E-22        -0.10940E-22         0.00000E+00
    0.34351E-22        -0.71598E-23         0.00000E+00
    0.35295E-22        -0.46517E-23         0.00000E+00
    0.00000E+00        -0.18871E-21         0.00000E+00
   -0.59745E-22        -0.17039E-21         0.00000E+00
   -0.58268E-22        -0.14357E-21         0.00000E+00
   -0.39069E-22        -0.12159E-21         0.00000E+00
    0.46347E-23        -0.10262E-21         0.00000E+00
    0.33029E-22        -0.81415E-22         0.00000E+00
   -0.32700E-24        -0.68593E-22         0.00000E+00
   -0.18561E-22        -0.70214E-22         0.00000E+00
    0.30597E-22        -0.75792E-22         0.00000E+00
    0.54423E-22        -0.85558E-22         0.00000E+00
    0.47697E-22        -0.85135E-22         0.00000E+00
    0.41209E-22        -0.92287E-22         0.00000E+00
    0.33456E-22        -0.77866E-22         0.00000E+00
    0.38418E-22        -0.57219E-22         0.00000E+00
    0.39350E-22        -0.58268E-22         0.00000E+00
    0.45324E-22        -0.45242E-22         0.00000E+00
    0.66219E-22        -0.35464E-22         0.00000E+00
    0.72518E-22        -0.26153E-22         0.00000E+00
    0.39786E-22        -0.17633E-22         0.00000E+00
    0.41992E-22        -0.14892E-22         0.00000E+00
    0.47478E-22        -0.60402E-23         0.00000E+00
    0.43766E-22        -0.22844E-23         0.00000E+00
    0.40151E-22        -0.57705E-23         0.00000E+00
    0.40691E-22        -0.68953E-23         0.00000E+00
    0.39879E-22        -0.60636E-23         0.00000E+00
    0.00000E+00        -0.15150E-21         0.00000E+00
   -0.19191E-22        -0.14547E-21         0.00000E+00
   -0.33217E-22        -0.14578E-21         0.00000E+00
   -0.28520E-22        -0.14641E-21         0.00000E+00
   -0.14880E-22        -0.12805E-21         0.00000E+00
   -0.12491E-22        -0.91289E-22         0.00000E+00
   -0.25080E-23        -0.60246E-22         0.00000E+00
    0.14871E-22        -0.81170E-22         0.00000E+00
    0.35639E-22        -0.10075E-21         0.00000E+00
    0.37948E-22        -0.90081E-22         0.00000E+00
    0.34601E-22        -0.81565E-22         0.00000E+00
    0.32893E-22        -0.75119E-22         0.00000E+00
    0.12128E-22        -0.70052E-22         0.00000E+00
    0.27368E-22        -0.61041E-22         0.00000E+00
    0.33674E-22        -0.62906E-22         0.00000E+00
    0.35826E-22        -0.58484E-22         0.00000E+00
    0.42243E-22        -0.46415E-22         0.00000E+00
    0.37093E-22        -0.23258E-22         0.00000E+00
    0.39685E-22        -0.87954E-23         0.00000E+00
    0.36317E-22        -0.14637E-22         0.00000E+00
    0.36636E-22        -0.57783E-23         0.00000E+00
    0.38262E-22        -0.16244E-23         0.00000E+00
    0.43440E-22        -0.78644E-23         0.00000E+00
    0.45129E-22        -0.68873E-23         0.00000E+00
    0.43535E-22        -0.30278E-23         0.00000E+00
    0.00000E+00        -0.15033E-21         0.00000E+00
   -0.54587E-23        -0.13718E-21         0.00000E+00
   -0.19305E-22        -0.13424E-21         0.00000E+00
   -0.22202E-22        -0.13993E-21         0.00000E+00
   -0.19623E-22        -0.11865E-21         0.00000E+00
   -0.26754E-22        -0.93787E-22         0.00000E+00
   -0.73132E-23        -0.95956E-22         0.00000E+00
    0.25712E-22        -0.10836E-21         0.00000E+00
    0.19542E-22        -0.98869E-22         0.00000E+00
    0.27441E-22        -0.84520E-22         0.00000E+00
    0.25745E-22        -0.80079E-22         0.00000E+00
    0.22527E-22        -0.69814E-22         0.00000E+00
    0.29970E-22        -0.72342E-22         0.00000E+00
    0.30304E-22        -0.78766E-22         0.00000E+00
    0.31743E-22        -0.66726E-22         0.00000E+00
    0.26643E-22        -0.53810E-22         0.00000E+00
    0.22216E-22        -0.36730E-22         0.00000E+00
    0.17865E-22        -0.23596E-22         0.00000E+00
    0.33738E-22        -0.16857E-22         0.00000E+00
    0.34459E-22        -0.11842E-22         0.00000E+00
    0.32495E-22        -0.79853E-23         0.00000E+00
    0.38350E-22        -0.90888E-23         0.00000E+00
    0.42701E-22        -0.12638E-22         0.00000E+00
    0.42372E-22        -0.69906E-23         0.00000E+00
    0.42297E-22        -0.28754E-23         0.00000E+00
    0.00000E+00        -0.14058E-21         0.00000E+00
   -0.15602E-22        -0.12616E-21         0.00000E+00
   -0.19133E-22        -0.12904E-21         0.00000E+00
   -0.23592E-22        -0.14609E-21         0.00000E+00
   -0.16650E-22        -0.12350E-21         0.00000E+00
    0.19652E-24        -0.10360E-21         0.00000E+00
    0.10724E-22        -0.11271E-21         0.00000E+00
    0.80260E-23        -0.10802E-21         0.00000E+00
    0.86451E-23        -0.10248E-21         0.00000E+00
    0.18157E-22        -0.96284E-22         0.00000E+00
    0.26915E-22        -0.76650E-22         0.00000E+00
    0.23018E-22        -0.79344E-22         0.00000E+00
    0.34765E-22        -0.77829E-22         0.00000E+00
    0.31813E-22        -0.62814E-22         0.00000E+00
    0.19490E-22        -0.59245E-22         0.00000E+00
    0.15813E-22        -0.48957E-22         0.00000E+00
    0.11637E-22        -0.37637E-22         0.00000E+00
    0.20804E-22        -0.34780E-22         0.00000E+00
    0.27528E-22        -0.25389E-22         0.00000E+00
    0.31291E-22        -0.13395E-22         0.00000E+00
    0.33575E-22        -0.96694E-23         0.00000E+00
    0.40443E-22        -0.11830E-22         0.00000E+00
    0.36822E-22        -0.11887E-22         0.00000E+00
    0.35758E-22        -0.64840E-23         0.00000E+00
    0.36327E-22        -0.28784E-23         0.00000E+00
    0.00000E+00        -0.11912E-21         0.00000E+00
   -0.17786E-22        -0.11804E-21         0.00000E+00
   -0.12795E-22        -0.12625E-21         0.00000E+00
   -0.22701E-22        -0.14241E-21         0.00000E+00
   -0.18535E-22        -0.14244E-21         0.00000E+00
   -0.11663E-22        -0.12116E-21         0.00000E+00
   -0.11499E-22        -0.10379E-21         0.00000E+00
   -0.84216E-23        -0.10628E-21         0.00000E+00
    0.49249E-24        -0.10900E-21         0.00000E+00
    0.32244E-24        -0.10279E-21         0.00000E+00
    0.10102E-22        -0.84940E-22         0.00000E+00
    0.16526E-22        -0.77663E-22         0.00000E+00
    0.11803E-22        -0.81137E-22         0.00000E+00
    0.20653E-22        -0.63491E-22         0.00000E+00
    0.16737E-22        -0.50726E-22         0.00000E+00
    0.81422E-23        -0.45957E-22         0.00000E+00
    0.12463E-22        -0.41721E-22         0.00000E+00
    0.12557E-22        -0.39487E-22         0.00000E+00
    0.14814E-22        -0.27345E-22         0.00000E+00
    0.19618E-22        -0.17889E-22         0.00000E+00
    0.26770E-22        -0.17137E-22         0.00000E+00
    0.31287E-22        -0.12336E-22         0.00000E+00
    0.29977E-22        -0.79530E-23         0.00000E+00
    0.28090E-22        -0.64955E-23         0.00000E+00
    0.28251E-22        -0.40132E-23         0.00000E+00
    0.00000E+00        -0.10501E-21         0.00000E+00
   -0.16431E-22        -0.11337E-21         0.00000E+00
   -0.92864E-23        -0.12413E-21         0.00000E+00
   -0.35729E-23        -0.14035E-21         0.00000E+00
   -0.69000E-23        -0.13453E-21         0.00000E+00
   -0.27830E-22        -0.11063E-21         0.00000E+00
   -0.28771E-22        -0.11595E-21         0.00000E+00
   -0.65982E-23        -0.12002E-21         0.00000E+00
    0.12072E-24        -0.11122E-21         0.00000E+00
    0.14643E-23        -0.10589E-21         0.00000E+00
    0.16855E-23        -0.92854E-22         0.00000E+00
    0.10361E-22        -0.81045E-22         0.00000E+00
    0.65540E-23        -0.81957E-22         0.00000E+00
    0.35030E-23        -0.67748E-22         0.00000E+00
    0.10327E-22        -0.46734E-22         0.00000E+00
    0.10087E-22        -0.44683E-22         0.00000E+00
    0.13200E-22        -0.42052E-22         0.00000E+00
    0.90960E-23        -0.37132E-22         0.00000E+00
    0.73590E-23        -0.32450E-22         0.00000E+00
    0.13918E-22        -0.25350E-22         0.00000E+00
    0.17986E-22        -0.21339E-22         0.00000E+00
    0.17635E-22        -0.15037E-22         0.00000E+00
    0.20952E-22        -0.86895E-23         0.00000E+00
    0.20326E-22        -0.47576E-23         0.00000E+00
    0.18612E-22        -0.31995E-23         0.00000E+00
    0.00000E+00        -0.86261E-22         0.00000E+00
   -0.89280E-23        -0.10876E-21         0.00000E+00
   -0.88507E-23        -0.13911E-21         0.00000E+00
    0.66613E-23        -0.14480E-21         0.00000E+00
   -0.35321E-23        -0.11819E-21         0.00000E+00
   -0.13119E-22        -0.99290E-22         0.00000E+00
   -0.14753E-22        -0.12502E-21         0.00000E+00
   -0.27941E-23        -0.13517E-21         0.00000E+00
    0.77386E-23        -0.11706E-21         0.00000E+00
    0.80713E-23        -0.10435E-21         0.00000E+00
    0.51632E-23        -0.93837E-22         0.00000E+00
    0.47047E-23        -0.82532E-22         0.00000E+00
    0.22653E-23        -0.74278E-22         0.00000E+00
   -0.41759E-23        -0.67264E-22         0.00000E+00
    0.38188E-23        -0.57310E-22         0.00000E+00
    0.11786E-22        -0.48831E-22         0.00000E+00
    0.98034E-23        -0.40730E-22         0.00000E+00
    0.12167E-22        -0.33645E-22         0.00000E+00
    0.84467E-23        -0.32167E-22         0.00000E+00
    0.84600E-23        -0.28516E-22         0.00000E+00
    0.10327E-22        -0.20853E-22         0.00000E+00
    0.89705E-23        -0.15302E-22         0.00000E+00
    0.95290E-23        -0.10644E-22         0.00000E+00
    0.10268E-22        -0.41549E-23         0.00000E+00
    0.91062E-23        -0.58525E-24         0.00000E+00
    0.00000E+00        -0.87152E-22         0.00000E+00
    0.89123E-24        -0.10452E-21         0.00000E+00
   -0.84783E-23        -0.13972E-21         0.00000E+00
    0.21074E-23        -0.14567E-21         0.00000E+00
   -0.67300E-23        -0.11475E-21         0.00000E+00
   -0.47536E-23        -0.99413E-22         0.00000E+00
   -0.64835E-23        -0.12628E-21         0.00000E+00
   -0.22307E-23        -0.14251E-21         0.00000E+00
    0.81840E-23        -0.12209E-21         0.00000E+00
    0.78197E-23        -0.10332E-21         0.00000E+00
    0.61109E-23        -0.89487E-22         0.00000E+00
   -0.88041E-24        -0.78147E-22         0.00000E+00
   -0.26581E-23        -0.73077E-22         0.00000E+00
   -0.32839E-23        -0.69302E-22         0.00000E+00
    0.14178E-23        -0.62695E-22         0.00000E+00
    0.74863E-23        -0.50667E-22         0.00000E+00
    0.50905E-23        -0.42433E-22         0.00000E+00
    0.10892E-22        -0.35775E-22         0.00000E+00
    0.93496E-23        -0.28743E-22         0.00000E+00
    0.40434E-23        -0.27230E-22         0.00000E+00
    0.67779E-23        -0.21849E-22         0.00000E+00
    0.60353E-23        -0.14240E-22         0.00000E+00
    0.46530E-23        -0.99869E-23         0.00000E+00
    0.47216E-23        -0.43348E-23         0.00000E+00
    0.50126E-23        -0.87624E-24         0.00000E+00
CELL_DATA       1152
TENSORS stressef double 
   -0.50391E+05         0.36730E+03         0.00000E+00
    0.36730E+03        -0.10022E+06         0.00000E+00
    0.00000E+00         0.00000E+00        -0.56226E+05
 
   -0.40546E+05         0.26486E+04         0.00000E+00
    0.26486E+04        -0.96900E+05         0.00000E+00
    0.00000E+00         0.00000E+00        -0.65782E+05
 
   -0.34885E+05         0.38063E+04         0.00000E+00
    0.38063E+04        -0.88952E+05         0.00000E+00
    0.00000E+00         0.00000E+00        -0.63209E+05
 
   -0.29645E+05         0.40509E+04         0.00000E+00
    0.40509E+04        -0.80509E+05         0.00000E+00
    0.00000E+00         0.00000E+00        -0.57496E+05
 
   -0.24761E+05         0.38935E+04         0.00000E+00
    0.38935E+04        -0.72692E+05         0.00000E+00
    0.00000E+00         0.00000E+00        -0.51282E+05
 
   -0.20330E+05         0.35934E+04         0.00000E+00
    0.35934E+04        -0.65568E+05         0.00000E+00
    0.00000E+00         0.00000E+00        -0.45219E+05
 
   -0.16348E+05         0.32081E+04         0.00000E+00
    0.32081E+04        -0.59151E+05         0.00000E+00
    0.00000E+00         0.00000E+00        -0.39561E+05
 
   -0.13259E+05         0.27880E+04         0.00000E+00
    0.27880E+04        -0.53412E+05         0.00000E+00
    0.00000E+00         0.00000E+00        -0.34605E+05
 
   -0.10653E+05         0.24213E+04         0.00000E+00
    0.24213E+04        -0.48357E+05         0.00000E+00
    0.00000E+00         0.00000E+00        -0.30293E+05
 
   -0.83767E+04         0.20929E+04         0.00000E+00
    0.20929E+04        -0.43954E+05         0.00000E+00
    0.00000E+00         0.00000E+00        -0.26573E+05
 
   -0.64942E+04         0.18174E+04         0.00000E+00
    0.18174E+04        -0.40076E+05         0.00000E+00
    0.00000E+00         0.00000E+00        -0.23398E+05
 
   -0.48386E+04         0.16290E+04         0.00000E+00
    0.16290E+04        -0.36660E+05         0.00000E+00
    0.00000E+00         0.00000E+00        -0.20596E+05
 
   -0.33193E+04         0.14654E+04         0.00000E+00
    0.14654E+04        -0.33629E+05         0.00000E+00
    0.00000E+00         0.00000E+00        -0.18044E+05
 
   -0.19102E+04         0.13215E+04         0.00000E+00
    0.13215E+04        -0.30891E+05         0.00000E+00
    0.00000E+00         0.00000E+00        -0.15675E+05
 
   -0.62664E+03         0.11691E+04         0.00000E+00
    0.11691E+04        -0.28436E+05         0.00000E+00
    0.00000E+00         0.00000E+00        -0.13468E+05
 
    0.38828E+03         0.10430E+04         0.00000E+00
    0.10430E+04        -0.26254E+05         0.00000E+00
    0.00000E+00         0.00000E+00        -0.11469E+05
 
    0.12312E+04         0.89577E+03         0.00000E+00
    0.89577E+03        -0.24359E+05         0.00000E+00
    0.00000E+00         0.00000E+00        -0.96121E+04
 
    0.19401E+04         0.79589E+03         0.00000E+00
    0.79589E+03        -0.22703E+05         0.00000E+00
    0.00000E+00         0.00000E+00        -0.79618E+04
 
    0.25345E+04         0.70734E+03         0.00000E+00
    0.70734E+03        -0.21226E+05         0.00000E+00
    0.00000E+00         0.00000E+00        -0.64142E+04
 
    0.27045E+04         0.63230E+03         0.00000E+00
    0.63230E+03        -0.19901E+05         0.00000E+00
    0.00000E+00         0.00000E+00        -0.52517E+04
 
    0.78899E+03         0.54023E+03         0.00000E+00
    0.54023E+03        -0.18737E+05         0.00000E+00
    0.00000E+00         0.00000E+00        -0.53843E+04
 
   -0.13049E+04         0.48390E+03         0.00000E+00
    0.48390E+03        -0.17720E+05         0.00000E+00
    0.00000E+00         0.00000E+00        -0.57075E+04
 
   -0.33711E+04         0.46006E+03         0.00000E+00
    0.46006E+03        -0.16781E+05         0.00000E+00
    0.00000E+00         0.00000E+00        -0.60456E+04
 
   -0.55070E+04         0.46042E+03         0.00000E+00
    0.46042E+03        -0.15865E+05         0.00000E+00
    0.00000E+00         0.00000E+00        -0.64115E+04
 
   -0.46905E+05         0.27391E+04         0.00000E+00
    0.27391E+04        -0.99614E+05         0.00000E+00
    0.00000E+00         0.00000E+00        -0.59029E+05
 
   -0.37182E+05         0.97166E+04         0.00000E+00
    0.97166E+04        -0.88863E+05         0.00000E+00
    0.00000E+00         0.00000E+00        -0.63738E+05
 
   -0.33484E+05         0.11696E+05         0.00000E+00
    0.11696E+05        -0.80360E+05         0.00000E+00
    0.00000E+00         0.00000E+00        -0.59430E+05
 
   -0.29650E+05         0.11870E+05         0.00000E+00
    0.11870E+05        -0.73326E+05         0.00000E+00
    0.00000E+00         0.00000E+00        -0.54320E+05
 
   -0.25346E+05         0.11185E+05         0.00000E+00
    0.11185E+05        -0.66651E+05         0.00000E+00
    0.00000E+00         0.00000E+00        -0.48714E+05
 
   -0.21103E+05         0.10180E+05         0.00000E+00
    0.10180E+05        -0.60606E+05         0.00000E+00
    0.00000E+00         0.00000E+00        -0.43217E+05
 
   -0.17293E+05         0.90435E+04         0.00000E+00
    0.90435E+04        -0.55212E+05         0.00000E+00
    0.00000E+00         0.00000E+00        -0.38134E+05
 
   -0.14047E+05         0.79392E+04         0.00000E+00
    0.79392E+04        -0.50454E+05         0.00000E+00
    0.00000E+00         0.00000E+00        -0.33598E+05
 
   -0.11359E+05         0.69290E+04         0.00000E+00
    0.69290E+04        -0.46145E+05         0.00000E+00
    0.00000E+00         0.00000E+00        -0.29593E+05
 
   -0.89791E+04         0.60580E+04         0.00000E+00
    0.60580E+04        -0.42208E+05         0.00000E+00
    0.00000E+00         0.00000E+00        -0.26015E+05
 
   -0.69214E+04         0.53488E+04         0.00000E+00
    0.53488E+04        -0.38725E+05         0.00000E+00
    0.00000E+00         0.00000E+00        -0.22876E+05
 
   -0.51691E+04         0.47850E+04         0.00000E+00
    0.47850E+04        -0.35551E+05         0.00000E+00
    0.00000E+00         0.00000E+00        -0.20117E+05
 
   -0.36323E+04         0.42983E+04         0.00000E+00
    0.42983E+04        -0.32658E+05         0.00000E+00
    0.00000E+00         0.00000E+00        -0.17626E+05
 
   -0.21938E+04         0.38774E+04         0.00000E+00
    0.38774E+04        -0.30101E+05         0.00000E+00
    0.00000E+00         0.00000E+00        -0.15307E+05
 
   -0.92462E+03         0.34478E+04         0.00000E+00
    0.34478E+04        -0.27827E+05         0.00000E+00
    0.00000E+00         0.00000E+00        -0.13185E+05
 
    0.11973E+03         0.30234E+04         0.00000E+00
    0.30234E+04        -0.25818E+05         0.00000E+00
    0.00000E+00         0.00000E+00        -0.11265E+05
 
    0.99390E+03         0.26574E+04         0.00000E+00
    0.26574E+04        -0.24029E+05         0.00000E+00
    0.00000E+00         0.00000E+00        -0.94461E+04
 
    0.17507E+04         0.23527E+04         0.00000E+00
    0.23527E+04        -0.22425E+05         0.00000E+00
    0.00000E+00         0.00000E+00        -0.78184E+04
 
    0.23768E+04         0.21001E+04         0.00000E+00
    0.21001E+04        -0.21004E+05         0.00000E+00
    0.00000E+00         0.00000E+00        -0.63129E+04
 
    0.25249E+04         0.18769E+04         0.00000E+00
    0.18769E+04        -0.19710E+05         0.00000E+00
    0.00000E+00         0.00000E+00        -0.52244E+04
 
    0.63689E+03         0.16069E+04         0.00000E+00
    0.16069E+04        -0.18585E+05         0.00000E+00
    0.00000E+00         0.00000E+00        -0.53845E+04
 
   -0.13809E+04         0.14443E+04         0.00000E+00
    0.14443E+04        -0.17587E+05         0.00000E+00
    0.00000E+00         0.00000E+00        -0.56904E+04
 
   -0.33933E+04         0.13733E+04         0.00000E+00
    0.13733E+04        -0.16662E+05         0.00000E+00
    0.00000E+00         0.00000E+00        -0.60165E+04
 
   -0.54856E+04         0.13738E+04         0.00000E+00
    0.13738E+04        -0.15760E+05         0.00000E+00
    0.00000E+00         0.00000E+00        -0.63738E+04
 
   -0.34308E+05         0.16166E+05         0.00000E+00
    0.16166E+05        -0.75384E+05         0.00000E+00
    0.00000E+00         0.00000E+00        -0.55713E+05
 
   -0.33389E+05         0.18376E+05         0.00000E+00
    0.18376E+05        -0.64371E+05         0.00000E+00
    0.00000E+00         0.00000E+00        -0.52842E+05
 
   -0.33536E+05         0.18913E+05         0.00000E+00
    0.18913E+05        -0.61966E+05         0.00000E+00
    0.00000E+00         0.00000E+00        -0.51523E+05
 
   -0.30579E+05         0.17942E+05         0.00000E+00
    0.17942E+05        -0.58431E+05         0.00000E+00
    0.00000E+00         0.00000E+00        -0.47919E+05
 
   -0.26760E+05         0.16566E+05         0.00000E+00
    0.16566E+05        -0.55017E+05         0.00000E+00
    0.00000E+00         0.00000E+00        -0.43895E+05
 
   -0.22640E+05         0.14973E+05         0.00000E+00
    0.14973E+05        -0.51500E+05         0.00000E+00
    0.00000E+00         0.00000E+00        -0.39628E+05
 
   -0.18792E+05         0.13368E+05         0.00000E+00
    0.13368E+05        -0.48055E+05         0.00000E+00
    0.00000E+00         0.00000E+00        -0.35481E+05
 
   -0.15435E+05         0.11880E+05         0.00000E+00
    0.11880E+05        -0.44737E+05         0.00000E+00
    0.00000E+00         0.00000E+00        -0.31594E+05
 
   -0.12522E+05         0.10622E+05         0.00000E+00
    0.10622E+05        -0.41612E+05         0.00000E+00
    0.00000E+00         0.00000E+00        -0.28020E+05
 
   -0.99566E+04         0.94652E+04         0.00000E+00
    0.94652E+04        -0.38612E+05         0.00000E+00
    0.00000E+00         0.00000E+00        -0.24768E+05
 
   -0.77452E+04         0.84419E+04         0.00000E+00
    0.84419E+04        -0.35718E+05         0.00000E+00
    0.00000E+00         0.00000E+00        -0.21794E+05
 
   -0.58439E+04         0.75695E+04         0.00000E+00
    0.75695E+04        -0.33140E+05         0.00000E+00
    0.00000E+00         0.00000E+00        -0.19138E+05
 
   -0.42040E+04         0.68304E+04         0.00000E+00
    0.68304E+04        -0.30829E+05         0.00000E+00
    0.00000E+00         0.00000E+00        -0.16768E+05
 
   -0.27501E+04         0.61366E+04         0.00000E+00
    0.61366E+04        -0.28684E+05         0.00000E+00
    0.00000E+00         0.00000E+00        -0.14613E+05
 
   -0.14931E+04         0.54808E+04         0.00000E+00
    0.54808E+04        -0.26720E+05         0.00000E+00
    0.00000E+00         0.00000E+00        -0.12623E+05
 
   -0.38869E+03         0.48451E+04         0.00000E+00
    0.48451E+04        -0.24951E+05         0.00000E+00
    0.00000E+00         0.00000E+00        -0.10746E+05
 
    0.57353E+03         0.42774E+04         0.00000E+00
    0.42774E+04        -0.23346E+05         0.00000E+00
    0.00000E+00         0.00000E+00        -0.90464E+04
 
    0.13887E+04         0.38061E+04         0.00000E+00
    0.38061E+04        -0.21894E+05         0.00000E+00
    0.00000E+00         0.00000E+00        -0.75201E+04
 
    0.20778E+04         0.34279E+04         0.00000E+00
    0.34279E+04        -0.20566E+05         0.00000E+00
    0.00000E+00         0.00000E+00        -0.61163E+04
 
    0.21726E+04         0.30632E+04         0.00000E+00
    0.30632E+04        -0.19352E+05         0.00000E+00
    0.00000E+00         0.00000E+00        -0.51739E+04
 
    0.34950E+03         0.26406E+04         0.00000E+00
    0.26406E+04        -0.18272E+05         0.00000E+00
    0.00000E+00         0.00000E+00        -0.53767E+04
 
   -0.15292E+04         0.23831E+04         0.00000E+00
    0.23831E+04        -0.17308E+05         0.00000E+00
    0.00000E+00         0.00000E+00        -0.56512E+04
 
   -0.34392E+04         0.22644E+04         0.00000E+00
    0.22644E+04        -0.16414E+05         0.00000E+00
    0.00000E+00         0.00000E+00        -0.59559E+04
 
   -0.54425E+04         0.22634E+04         0.00000E+00
    0.22634E+04        -0.15545E+05         0.00000E+00
    0.00000E+00         0.00000E+00        -0.62962E+04
 
   -0.13667E+05         0.14261E+05         0.00000E+00
    0.14261E+05        -0.27519E+05         0.00000E+00
    0.00000E+00         0.00000E+00        -0.24696E+05
 
   -0.33315E+05         0.19993E+05         0.00000E+00
    0.19993E+05        -0.37879E+05         0.00000E+00
    0.00000E+00         0.00000E+00        -0.41094E+05
 
   -0.33834E+05         0.19630E+05         0.00000E+00
    0.19630E+05        -0.37797E+05         0.00000E+00
    0.00000E+00         0.00000E+00        -0.40565E+05
 
   -0.31843E+05         0.19156E+05         0.00000E+00
    0.19156E+05        -0.38809E+05         0.00000E+00
    0.00000E+00         0.00000E+00        -0.39546E+05
 
   -0.28267E+05         0.18222E+05         0.00000E+00
    0.18222E+05        -0.38968E+05         0.00000E+00
    0.00000E+00         0.00000E+00        -0.37283E+05
 
   -0.24305E+05         0.17046E+05         0.00000E+00
    0.17046E+05        -0.38593E+05         0.00000E+00
    0.00000E+00         0.00000E+00        -0.34534E+05
 
   -0.20436E+05         0.15706E+05         0.00000E+00
    0.15706E+05        -0.37658E+05         0.00000E+00
    0.00000E+00         0.00000E+00        -0.31522E+05
 
   -0.16926E+05         0.14338E+05         0.00000E+00
    0.14338E+05        -0.36332E+05         0.00000E+00
    0.00000E+00         0.00000E+00        -0.28473E+05
 
   -0.13889E+05         0.13037E+05         0.00000E+00
    0.13037E+05        -0.34814E+05         0.00000E+00
    0.00000E+00         0.00000E+00        -0.25514E+05
 
   -0.11146E+05         0.11875E+05         0.00000E+00
    0.11875E+05        -0.33248E+05         0.00000E+00
    0.00000E+00         0.00000E+00        -0.22674E+05
 
   -0.87931E+04         0.10766E+05         0.00000E+00
    0.10766E+05        -0.31607E+05         0.00000E+00
    0.00000E+00         0.00000E+00        -0.20065E+05
 
   -0.67725E+04         0.96977E+04         0.00000E+00
    0.96977E+04        -0.29870E+05         0.00000E+00
    0.00000E+00         0.00000E+00        -0.17688E+05
 
   -0.50155E+04         0.87620E+04         0.00000E+00
    0.87620E+04        -0.28192E+05         0.00000E+00
    0.00000E+00         0.00000E+00        -0.15537E+05
 
   -0.35112E+04         0.79189E+04         0.00000E+00
    0.79189E+04        -0.26640E+05         0.00000E+00
    0.00000E+00         0.00000E+00        -0.13603E+05
 
   -0.22066E+04         0.71244E+04         0.00000E+00
    0.71244E+04        -0.25200E+05         0.00000E+00
    0.00000E+00         0.00000E+00        -0.11804E+05
 
   -0.10641E+04         0.63871E+04         0.00000E+00
    0.63871E+04        -0.23832E+05         0.00000E+00
    0.00000E+00         0.00000E+00        -0.10128E+05
 
   -0.26000E+02         0.57347E+04         0.00000E+00
    0.57347E+04        -0.22452E+05         0.00000E+00
    0.00000E+00         0.00000E+00        -0.85749E+04
 
    0.91722E+03         0.51302E+04         0.00000E+00
    0.51302E+04        -0.21118E+05         0.00000E+00
    0.00000E+00         0.00000E+00        -0.71372E+04
 
    0.17001E+04         0.46607E+04         0.00000E+00
    0.46607E+04        -0.19885E+05         0.00000E+00
    0.00000E+00         0.00000E+00        -0.58498E+04
 
    0.16256E+04         0.41619E+04         0.00000E+00
    0.41619E+04        -0.18763E+05         0.00000E+00
    0.00000E+00         0.00000E+00        -0.51412E+04
 
   -0.43840E+02         0.36219E+04         0.00000E+00
    0.36219E+04        -0.17765E+05         0.00000E+00
    0.00000E+00         0.00000E+00        -0.53427E+04
 
   -0.17473E+04         0.32798E+04         0.00000E+00
    0.32798E+04        -0.16863E+05         0.00000E+00
    0.00000E+00         0.00000E+00        -0.55830E+04
 
   -0.35104E+04         0.31135E+04         0.00000E+00
    0.31135E+04        -0.16023E+05         0.00000E+00
    0.00000E+00         0.00000E+00        -0.58602E+04
 
   -0.53774E+04         0.31096E+04         0.00000E+00
    0.31096E+04        -0.15209E+05         0.00000E+00
    0.00000E+00         0.00000E+00        -0.61759E+04
 
   -0.53469E+04         0.32349E+04         0.00000E+00
    0.32349E+04         0.36723E+04         0.00000E+00
    0.00000E+00         0.00000E+00         0.23212E+03
 
   -0.27103E+05         0.11085E+05         0.00000E+00
    0.11085E+05        -0.97059E+04         0.00000E+00
    0.00000E+00         0.00000E+00        -0.19807E+05
 
   -0.32124E+05         0.14176E+05         0.00000E+00
    0.14176E+05        -0.17695E+05         0.00000E+00
    0.00000E+00         0.00000E+00        -0.27674E+05
 
   -0.30963E+05         0.15562E+05         0.00000E+00
    0.15562E+05        -0.21987E+05         0.00000E+00
    0.00000E+00         0.00000E+00        -0.29206E+05
 
   -0.28342E+05         0.16162E+05         0.00000E+00
    0.16162E+05        -0.24972E+05         0.00000E+00
    0.00000E+00         0.00000E+00        -0.29112E+05
 
   -0.24962E+05         0.16103E+05         0.00000E+00
    0.16103E+05        -0.26821E+05         0.00000E+00
    0.00000E+00         0.00000E+00        -0.27933E+05
 
   -0.21430E+05         0.15590E+05         0.00000E+00
    0.15590E+05        -0.27861E+05         0.00000E+00
    0.00000E+00         0.00000E+00        -0.26198E+05
 
   -0.18058E+05         0.14789E+05         0.00000E+00
    0.14789E+05        -0.28262E+05         0.00000E+00
    0.00000E+00         0.00000E+00        -0.24178E+05
 
   -0.15009E+05         0.13853E+05         0.00000E+00
    0.13853E+05        -0.28171E+05         0.00000E+00
    0.00000E+00         0.00000E+00        -0.22050E+05
 
   -0.12272E+05         0.12870E+05         0.00000E+00
    0.12870E+05        -0.27744E+05         0.00000E+00
    0.00000E+00         0.00000E+00        -0.19909E+05
 
   -0.98618E+04         0.11908E+05         0.00000E+00
    0.11908E+05        -0.27142E+05         0.00000E+00
    0.00000E+00         0.00000E+00        -0.17841E+05
 
   -0.77535E+04         0.10979E+05         0.00000E+00
    0.10979E+05        -0.26368E+05         0.00000E+00
    0.00000E+00         0.00000E+00        -0.15892E+05
 
   -0.59144E+04         0.10067E+05         0.00000E+00
    0.10067E+05        -0.25391E+05         0.00000E+00
    0.00000E+00         0.00000E+00        -0.14077E+05
 
   -0.43694E+04         0.91818E+04         0.00000E+00
    0.91818E+04        -0.24354E+05         0.00000E+00
    0.00000E+00         0.00000E+00        -0.12417E+05
 
   -0.29850E+04         0.83396E+04         0.00000E+00
    0.83396E+04        -0.23314E+05         0.00000E+00
    0.00000E+00         0.00000E+00        -0.10870E+05
 
   -0.17770E+04         0.76113E+04         0.00000E+00
    0.76113E+04        -0.22205E+05         0.00000E+00
    0.00000E+00         0.00000E+00        -0.94383E+04
 
   -0.69009E+03         0.69418E+04         0.00000E+00
    0.69418E+04        -0.21129E+05         0.00000E+00
    0.00000E+00         0.00000E+00        -0.80770E+04
 
    0.34342E+03         0.63231E+04         0.00000E+00
    0.63231E+04        -0.20069E+05         0.00000E+00
    0.00000E+00         0.00000E+00        -0.67235E+04
 
    0.12771E+04         0.57860E+04         0.00000E+00
    0.57860E+04        -0.18954E+05         0.00000E+00
    0.00000E+00         0.00000E+00        -0.55141E+04
 
    0.91327E+03         0.51595E+04         0.00000E+00
    0.51595E+04        -0.17920E+05         0.00000E+00
    0.00000E+00         0.00000E+00        -0.51021E+04
 
   -0.52612E+03         0.45179E+04         0.00000E+00
    0.45179E+04        -0.17043E+05         0.00000E+00
    0.00000E+00         0.00000E+00        -0.52707E+04
 
   -0.20290E+04         0.41035E+04         0.00000E+00
    0.41035E+04        -0.16239E+05         0.00000E+00
    0.00000E+00         0.00000E+00        -0.54804E+04
 
   -0.36066E+04         0.38952E+04         0.00000E+00
    0.38952E+04        -0.15486E+05         0.00000E+00
    0.00000E+00         0.00000E+00        -0.57277E+04
 
   -0.52900E+04         0.38895E+04         0.00000E+00
    0.38895E+04        -0.14750E+05         0.00000E+00
    0.00000E+00         0.00000E+00        -0.60120E+04
 
    0.33639E+03        -0.11882E+04         0.00000E+00
   -0.11882E+04        -0.16838E+04         0.00000E+00
    0.00000E+00         0.00000E+00        -0.16420E+03
 
   -0.24262E+05         0.58099E+04         0.00000E+00
    0.58099E+04        -0.31118E+04         0.00000E+00
    0.00000E+00         0.00000E+00        -0.10025E+05
 
   -0.28863E+05         0.95685E+04         0.00000E+00
    0.95685E+04        -0.92097E+04         0.00000E+00
    0.00000E+00         0.00000E+00        -0.18316E+05
 
   -0.29153E+05         0.11881E+05         0.00000E+00
    0.11881E+05        -0.13479E+05         0.00000E+00
    0.00000E+00         0.00000E+00        -0.21768E+05
 
   -0.27273E+05         0.13319E+05         0.00000E+00
    0.13319E+05        -0.16587E+05         0.00000E+00
    0.00000E+00         0.00000E+00        -0.22791E+05
 
   -0.24636E+05         0.14068E+05         0.00000E+00
    0.14068E+05        -0.18911E+05         0.00000E+00
    0.00000E+00         0.00000E+00        -0.22591E+05
 
   -0.21632E+05         0.14282E+05         0.00000E+00
    0.14282E+05        -0.20587E+05         0.00000E+00
    0.00000E+00         0.00000E+00        -0.21711E+05
 
   -0.18606E+05         0.14091E+05         0.00000E+00
    0.14091E+05        -0.21700E+05         0.00000E+00
    0.00000E+00         0.00000E+00        -0.20427E+05
 
   -0.15747E+05         0.13634E+05         0.00000E+00
    0.13634E+05        -0.22353E+05         0.00000E+00
    0.00000E+00         0.00000E+00        -0.18938E+05
 
   -0.13116E+05         0.13006E+05         0.00000E+00
    0.13006E+05        -0.22633E+05         0.00000E+00
    0.00000E+00         0.00000E+00        -0.17346E+05
 
   -0.10738E+05         0.12268E+05         0.00000E+00
    0.12268E+05        -0.22615E+05         0.00000E+00
    0.00000E+00         0.00000E+00        -0.15732E+05
 
   -0.86043E+04         0.11540E+05         0.00000E+00
    0.11540E+05        -0.22382E+05         0.00000E+00
    0.00000E+00         0.00000E+00        -0.14132E+05
 
   -0.67729E+04         0.10766E+05         0.00000E+00
    0.10766E+05        -0.22038E+05         0.00000E+00
    0.00000E+00         0.00000E+00        -0.12647E+05
 
   -0.51816E+04         0.99913E+04         0.00000E+00
    0.99913E+04        -0.21522E+05         0.00000E+00
    0.00000E+00         0.00000E+00        -0.11256E+05
 
   -0.37702E+04         0.92553E+04         0.00000E+00
    0.92553E+04        -0.20804E+05         0.00000E+00
    0.00000E+00         0.00000E+00        -0.99528E+04
 
   -0.24763E+04         0.85359E+04         0.00000E+00
    0.85359E+04        -0.20024E+05         0.00000E+00
    0.00000E+00         0.00000E+00        -0.86863E+04
 
   -0.13432E+04         0.78591E+04         0.00000E+00
    0.78591E+04        -0.19230E+05         0.00000E+00
    0.00000E+00         0.00000E+00        -0.74664E+04
 
   -0.22848E+03         0.72841E+04         0.00000E+00
    0.72841E+04        -0.18419E+05         0.00000E+00
    0.00000E+00         0.00000E+00        -0.62236E+04
 
    0.76161E+03         0.67704E+04         0.00000E+00
    0.67704E+04        -0.17586E+05         0.00000E+00
    0.00000E+00         0.00000E+00        -0.51440E+04
 
    0.94004E+02         0.59908E+04         0.00000E+00
    0.59908E+04        -0.16813E+05         0.00000E+00
    0.00000E+00         0.00000E+00        -0.50157E+04
 
   -0.10801E+04         0.52840E+04         0.00000E+00
    0.52840E+04        -0.16111E+05         0.00000E+00
    0.00000E+00         0.00000E+00        -0.51572E+04
 
   -0.23610E+04         0.48173E+04         0.00000E+00
    0.48173E+04        -0.15450E+05         0.00000E+00
    0.00000E+00         0.00000E+00        -0.53432E+04
 
   -0.37207E+04         0.45829E+04         0.00000E+00
    0.45829E+04        -0.14812E+05         0.00000E+00
    0.00000E+00         0.00000E+00        -0.55597E+04
 
   -0.51809E+04         0.45806E+04         0.00000E+00
    0.45806E+04        -0.14178E+05         0.00000E+00
    0.00000E+00         0.00000E+00        -0.58075E+04
 
    0.94886E+03        -0.17039E+04         0.00000E+00
   -0.17039E+04         0.49000E+02         0.00000E+00
    0.00000E+00         0.00000E+00         0.35061E+03
 
   -0.18633E+05         0.80513E+03         0.00000E+00
    0.80513E+03        -0.13738E+04         0.00000E+00
    0.00000E+00         0.00000E+00        -0.60021E+04
 
   -0.26652E+05         0.61350E+04         0.00000E+00
    0.61350E+04        -0.49879E+04         0.00000E+00
    0.00000E+00         0.00000E+00        -0.12163E+05
 
   -0.26866E+05         0.88909E+04         0.00000E+00
    0.88909E+04        -0.83077E+04         0.00000E+00
    0.00000E+00         0.00000E+00        -0.15722E+05
 
   -0.25819E+05         0.10756E+05         0.00000E+00
    0.10756E+05        -0.11200E+05         0.00000E+00
    0.00000E+00         0.00000E+00        -0.17432E+05
 
   -0.23743E+05         0.12012E+05         0.00000E+00
    0.12012E+05        -0.13532E+05         0.00000E+00
    0.00000E+00         0.00000E+00        -0.17925E+05
 
   -0.21274E+05         0.12691E+05         0.00000E+00
    0.12691E+05        -0.15312E+05         0.00000E+00
    0.00000E+00         0.00000E+00        -0.17677E+05
 
   -0.18639E+05         0.12948E+05         0.00000E+00
    0.12948E+05        -0.16671E+05         0.00000E+00
    0.00000E+00         0.00000E+00        -0.16960E+05
 
   -0.16062E+05         0.12881E+05         0.00000E+00
    0.12881E+05        -0.17656E+05         0.00000E+00
    0.00000E+00         0.00000E+00        -0.15976E+05
 
   -0.13629E+05         0.12588E+05         0.00000E+00
    0.12588E+05        -0.18329E+05         0.00000E+00
    0.00000E+00         0.00000E+00        -0.14829E+05
 
   -0.11342E+05         0.12166E+05         0.00000E+00
    0.12166E+05        -0.18723E+05         0.00000E+00
    0.00000E+00         0.00000E+00        -0.13573E+05
 
   -0.92757E+04         0.11624E+05         0.00000E+00
    0.11624E+05        -0.18892E+05         0.00000E+00
    0.00000E+00         0.00000E+00        -0.12303E+05
 
   -0.74748E+04         0.11037E+05         0.00000E+00
    0.11037E+05        -0.18828E+05         0.00000E+00
    0.00000E+00         0.00000E+00        -0.11097E+05
 
   -0.58745E+04         0.10419E+05         0.00000E+00
    0.10419E+05        -0.18585E+05         0.00000E+00
    0.00000E+00         0.00000E+00        -0.99498E+04
 
   -0.44468E+04         0.97933E+04         0.00000E+00
    0.97933E+04        -0.18255E+05         0.00000E+00
    0.00000E+00         0.00000E+00        -0.88637E+04
 
   -0.31403E+04         0.91719E+04         0.00000E+00
    0.91719E+04        -0.17824E+05         0.00000E+00
    0.00000E+00         0.00000E+00        -0.77694E+04
 
   -0.19320E+04         0.85745E+04         0.00000E+00
    0.85745E+04        -0.17271E+05         0.00000E+00
    0.00000E+00         0.00000E+00        -0.66786E+04
 
   -0.77438E+03         0.80332E+04         0.00000E+00
    0.80332E+04        -0.16616E+05         0.00000E+00
    0.00000E+00         0.00000E+00        -0.56677E+04
 
    0.49807E+02         0.74566E+04         0.00000E+00
    0.74566E+04        -0.15971E+05         0.00000E+00
    0.00000E+00         0.00000E+00        -0.48140E+04
 
   -0.71328E+03         0.65799E+04         0.00000E+00
    0.65799E+04        -0.15497E+05         0.00000E+00
    0.00000E+00         0.00000E+00        -0.48631E+04
 
   -0.16787E+04         0.58665E+04         0.00000E+00
    0.58665E+04        -0.15029E+05         0.00000E+00
    0.00000E+00         0.00000E+00        -0.50124E+04
 
   -0.27151E+04         0.53907E+04         0.00000E+00
    0.53907E+04        -0.14538E+05         0.00000E+00
    0.00000E+00         0.00000E+00        -0.51760E+04
 
   -0.38388E+04         0.51553E+04         0.00000E+00
    0.51553E+04        -0.14034E+05         0.00000E+00
    0.00000E+00         0.00000E+00        -0.53619E+04
 
   -0.50506E+04         0.51650E+04         0.00000E+00
    0.51650E+04        -0.13515E+05         0.00000E+00
    0.00000E+00         0.00000E+00        -0.55698E+04
 
   -0.85879E+03        -0.17690E+04         0.00000E+00
   -0.17690E+04        -0.28083E+02         0.00000E+00
    0.00000E+00         0.00000E+00        -0.26606E+03
 
   -0.14035E+05        -0.11455E+04         0.00000E+00
   -0.11455E+04        -0.32864E+03         0.00000E+00
    0.00000E+00         0.00000E+00        -0.43091E+04
 
   -0.23208E+05         0.29835E+04         0.00000E+00
    0.29835E+04        -0.14805E+04         0.00000E+00
    0.00000E+00         0.00000E+00        -0.76369E+04
 
   -0.24778E+05         0.62787E+04         0.00000E+00
    0.62787E+04        -0.46971E+04         0.00000E+00
    0.00000E+00         0.00000E+00        -0.11370E+05
 
   -0.24089E+05         0.84507E+04         0.00000E+00
    0.84507E+04        -0.71061E+04         0.00000E+00
    0.00000E+00         0.00000E+00        -0.13210E+05
 
   -0.22523E+05         0.10024E+05         0.00000E+00
    0.10024E+05        -0.92865E+04         0.00000E+00
    0.00000E+00         0.00000E+00        -0.13934E+05
 
   -0.20561E+05         0.11079E+05         0.00000E+00
    0.11079E+05        -0.11179E+05         0.00000E+00
    0.00000E+00         0.00000E+00        -0.14109E+05
 
   -0.18317E+05         0.11676E+05         0.00000E+00
    0.11676E+05        -0.12665E+05         0.00000E+00
    0.00000E+00         0.00000E+00        -0.13789E+05
 
   -0.16049E+05         0.11923E+05         0.00000E+00
    0.11923E+05        -0.13809E+05         0.00000E+00
    0.00000E+00         0.00000E+00        -0.13195E+05
 
   -0.13819E+05         0.11917E+05         0.00000E+00
    0.11917E+05        -0.14651E+05         0.00000E+00
    0.00000E+00         0.00000E+00        -0.12395E+05
 
   -0.11692E+05         0.11738E+05         0.00000E+00
    0.11738E+05        -0.15235E+05         0.00000E+00
    0.00000E+00         0.00000E+00        -0.11466E+05
 
   -0.97379E+04         0.11432E+05         0.00000E+00
    0.11432E+05        -0.15589E+05         0.00000E+00
    0.00000E+00         0.00000E+00        -0.10482E+05
 
   -0.79966E+04         0.11021E+05         0.00000E+00
    0.11021E+05        -0.15783E+05         0.00000E+00
    0.00000E+00         0.00000E+00        -0.95297E+04
 
   -0.64293E+04         0.10558E+05         0.00000E+00
    0.10558E+05        -0.15833E+05         0.00000E+00
    0.00000E+00         0.00000E+00        -0.86046E+04
 
   -0.50032E+04         0.10065E+05         0.00000E+00
    0.10065E+05        -0.15714E+05         0.00000E+00
    0.00000E+00         0.00000E+00        -0.76959E+04
 
   -0.37032E+04         0.95621E+04         0.00000E+00
    0.95621E+04        -0.15459E+05         0.00000E+00
    0.00000E+00         0.00000E+00        -0.68247E+04
 
   -0.24583E+04         0.90654E+04         0.00000E+00
    0.90654E+04        -0.15114E+05         0.00000E+00
    0.00000E+00         0.00000E+00        -0.59392E+04
 
   -0.12849E+04         0.85754E+04         0.00000E+00
    0.85754E+04        -0.14687E+05         0.00000E+00
    0.00000E+00         0.00000E+00        -0.50593E+04
 
   -0.83313E+03         0.78527E+04         0.00000E+00
    0.78527E+04        -0.14352E+05         0.00000E+00
    0.00000E+00         0.00000E+00        -0.45556E+04
 
   -0.15300E+04         0.69179E+04         0.00000E+00
    0.69179E+04        -0.14162E+05         0.00000E+00
    0.00000E+00         0.00000E+00        -0.47076E+04
 
   -0.22529E+04         0.62514E+04         0.00000E+00
    0.62514E+04        -0.13896E+05         0.00000E+00
    0.00000E+00         0.00000E+00        -0.48446E+04
 
   -0.30572E+04         0.58140E+04         0.00000E+00
    0.58140E+04        -0.13569E+05         0.00000E+00
    0.00000E+00         0.00000E+00        -0.49877E+04
 
   -0.39429E+04         0.56042E+04         0.00000E+00
    0.56042E+04        -0.13197E+05         0.00000E+00
    0.00000E+00         0.00000E+00        -0.51419E+04
 
   -0.49005E+04         0.56343E+04         0.00000E+00
    0.56343E+04        -0.12796E+05         0.00000E+00
    0.00000E+00         0.00000E+00        -0.53089E+04
 
   -0.28933E+04        -0.15202E+04         0.00000E+00
   -0.15202E+04         0.15846E+03         0.00000E+00
    0.00000E+00         0.00000E+00        -0.82044E+03
 
   -0.11935E+05        -0.16427E+04         0.00000E+00
   -0.16427E+04         0.28788E+03         0.00000E+00
    0.00000E+00         0.00000E+00        -0.34942E+04
 
   -0.19235E+05         0.78366E+03         0.00000E+00
    0.78366E+03        -0.66784E+03         0.00000E+00
    0.00000E+00         0.00000E+00        -0.59710E+04
 
   -0.22452E+05         0.41344E+04         0.00000E+00
    0.41344E+04        -0.20292E+04         0.00000E+00
    0.00000E+00         0.00000E+00        -0.80266E+04
 
   -0.22272E+05         0.65008E+04         0.00000E+00
    0.65008E+04        -0.41139E+04         0.00000E+00
    0.00000E+00         0.00000E+00        -0.99064E+04
 
   -0.21132E+05         0.82004E+04         0.00000E+00
    0.82004E+04        -0.59006E+04         0.00000E+00
    0.00000E+00         0.00000E+00        -0.10847E+05
 
   -0.19582E+05         0.94568E+04         0.00000E+00
    0.94568E+04        -0.75618E+04         0.00000E+00
    0.00000E+00         0.00000E+00        -0.11158E+05
 
   -0.17718E+05         0.10347E+05         0.00000E+00
    0.10347E+05        -0.90534E+04         0.00000E+00
    0.00000E+00         0.00000E+00        -0.11095E+05
 
   -0.15778E+05         0.10864E+05         0.00000E+00
    0.10864E+05        -0.10293E+05         0.00000E+00
    0.00000E+00         0.00000E+00        -0.10763E+05
 
   -0.13763E+05         0.11108E+05         0.00000E+00
    0.11108E+05        -0.11265E+05         0.00000E+00
    0.00000E+00         0.00000E+00        -0.10221E+05
 
   -0.11810E+05         0.11158E+05         0.00000E+00
    0.11158E+05        -0.12011E+05         0.00000E+00
    0.00000E+00         0.00000E+00        -0.95412E+04
 
   -0.99983E+04         0.11044E+05         0.00000E+00
    0.11044E+05        -0.12561E+05         0.00000E+00
    0.00000E+00         0.00000E+00        -0.88017E+04
 
   -0.83532E+04         0.10809E+05         0.00000E+00
    0.10809E+05        -0.12920E+05         0.00000E+00
    0.00000E+00         0.00000E+00        -0.80669E+04
 
   -0.68353E+04         0.10502E+05         0.00000E+00
    0.10502E+05        -0.13103E+05         0.00000E+00
    0.00000E+00         0.00000E+00        -0.73334E+04
 
   -0.54348E+04         0.10142E+05         0.00000E+00
    0.10142E+05        -0.13176E+05         0.00000E+00
    0.00000E+00         0.00000E+00        -0.65981E+04
 
   -0.41538E+04         0.97446E+04         0.00000E+00
    0.97446E+04        -0.13151E+05         0.00000E+00
    0.00000E+00         0.00000E+00        -0.58851E+04
 
   -0.29116E+04         0.93335E+04         0.00000E+00
    0.93335E+04        -0.12983E+05         0.00000E+00
    0.00000E+00         0.00000E+00        -0.51328E+04
 
   -0.18341E+04         0.88775E+04         0.00000E+00
    0.88775E+04        -0.12817E+05         0.00000E+00
    0.00000E+00         0.00000E+00        -0.44384E+04
 
   -0.18899E+04         0.78617E+04         0.00000E+00
    0.78617E+04        -0.12913E+05         0.00000E+00
    0.00000E+00         0.00000E+00        -0.44409E+04
 
   -0.22673E+04         0.70549E+04         0.00000E+00
    0.70549E+04        -0.12911E+05         0.00000E+00
    0.00000E+00         0.00000E+00        -0.45536E+04
 
   -0.27675E+04         0.64762E+04         0.00000E+00
    0.64762E+04        -0.12796E+05         0.00000E+00
    0.00000E+00         0.00000E+00        -0.46691E+04
 
   -0.33558E+04         0.61020E+04         0.00000E+00
    0.61020E+04        -0.12599E+05         0.00000E+00
    0.00000E+00         0.00000E+00        -0.47864E+04
 
   -0.40186E+04         0.59351E+04         0.00000E+00
    0.59351E+04        -0.12344E+05         0.00000E+00
    0.00000E+00         0.00000E+00        -0.49087E+04
 
   -0.47333E+04         0.59900E+04         0.00000E+00
    0.59900E+04        -0.12053E+05         0.00000E+00
    0.00000E+00         0.00000E+00        -0.50359E+04
 
   -0.47269E+04        -0.11862E+04         0.00000E+00
   -0.11862E+04         0.14245E+03         0.00000E+00
    0.00000E+00         0.00000E+00        -0.13753E+04
 
   -0.11047E+05        -0.16568E+04         0.00000E+00
   -0.16568E+04         0.43173E+03         0.00000E+00
    0.00000E+00         0.00000E+00        -0.31847E+04
 
   -0.16292E+05        -0.95858E+02         0.00000E+00
   -0.95858E+02         0.34137E+03         0.00000E+00
    0.00000E+00         0.00000E+00        -0.47852E+04
 
   -0.19717E+05         0.24489E+04         0.00000E+00
    0.24489E+04        -0.40740E+03         0.00000E+00
    0.00000E+00         0.00000E+00        -0.60373E+04
 
   -0.20417E+05         0.48762E+04         0.00000E+00
    0.48762E+04        -0.18355E+04         0.00000E+00
    0.00000E+00         0.00000E+00        -0.72832E+04
 
   -0.19683E+05         0.66865E+04         0.00000E+00
    0.66865E+04        -0.34016E+04         0.00000E+00
    0.00000E+00         0.00000E+00        -0.82663E+04
 
   -0.18455E+05         0.80361E+04         0.00000E+00
    0.80361E+04        -0.47981E+04         0.00000E+00
    0.00000E+00         0.00000E+00        -0.87344E+04
 
   -0.16919E+05         0.90457E+04         0.00000E+00
    0.90457E+04        -0.60913E+04         0.00000E+00
    0.00000E+00         0.00000E+00        -0.88335E+04
 
   -0.15274E+05         0.97703E+04         0.00000E+00
    0.97703E+04        -0.72626E+04         0.00000E+00
    0.00000E+00         0.00000E+00        -0.86739E+04
 
   -0.13502E+05         0.10223E+05         0.00000E+00
    0.10223E+05        -0.82791E+04         0.00000E+00
    0.00000E+00         0.00000E+00        -0.83371E+04
 
   -0.11742E+05         0.10460E+05         0.00000E+00
    0.10460E+05        -0.90917E+04         0.00000E+00
    0.00000E+00         0.00000E+00        -0.78551E+04
 
   -0.10087E+05         0.10516E+05         0.00000E+00
    0.10516E+05        -0.97327E+04         0.00000E+00
    0.00000E+00         0.00000E+00        -0.73021E+04
 
   -0.85416E+04         0.10444E+05         0.00000E+00
    0.10444E+05        -0.10234E+05         0.00000E+00
    0.00000E+00         0.00000E+00        -0.67062E+04
 
   -0.70980E+04         0.10280E+05         0.00000E+00
    0.10280E+05        -0.10625E+05         0.00000E+00
    0.00000E+00         0.00000E+00        -0.61321E+04
 
   -0.57467E+04         0.10048E+05         0.00000E+00
    0.10048E+05        -0.10834E+05         0.00000E+00
    0.00000E+00         0.00000E+00        -0.55334E+04
 
   -0.45157E+04         0.97447E+04         0.00000E+00
    0.97447E+04        -0.10909E+05         0.00000E+00
    0.00000E+00         0.00000E+00        -0.49475E+04
 
   -0.32800E+04         0.94363E+04         0.00000E+00
    0.94363E+04        -0.11002E+05         0.00000E+00
    0.00000E+00         0.00000E+00        -0.43277E+04
 
   -0.28000E+04         0.85713E+04         0.00000E+00
    0.85713E+04        -0.11370E+05         0.00000E+00
    0.00000E+00         0.00000E+00        -0.42511E+04
 
   -0.27299E+04         0.77261E+04         0.00000E+00
    0.77261E+04        -0.11674E+05         0.00000E+00
    0.00000E+00         0.00000E+00        -0.43211E+04
 
   -0.28983E+04         0.70649E+04         0.00000E+00
    0.70649E+04        -0.11780E+05         0.00000E+00
    0.00000E+00         0.00000E+00        -0.44034E+04
 
   -0.32011E+04         0.65839E+04         0.00000E+00
    0.65839E+04        -0.11765E+05         0.00000E+00
    0.00000E+00         0.00000E+00        -0.44897E+04
 
   -0.35979E+04         0.62810E+04         0.00000E+00
    0.62810E+04        -0.11665E+05         0.00000E+00
    0.00000E+00         0.00000E+00        -0.45790E+04
 
   -0.40587E+04         0.61621E+04         0.00000E+00
    0.61621E+04        -0.11507E+05         0.00000E+00
    0.00000E+00         0.00000E+00        -0.46697E+04
 
   -0.45530E+04         0.62414E+04         0.00000E+00
    0.62414E+04        -0.11313E+05         0.00000E+00
    0.00000E+00         0.00000E+00        -0.47597E+04
 
   -0.62296E+04        -0.87760E+03         0.00000E+00
   -0.87760E+03         0.12298E+03         0.00000E+00
    0.00000E+00         0.00000E+00        -0.18320E+04
 
   -0.10573E+05        -0.13323E+04         0.00000E+00
   -0.13323E+04         0.49511E+03         0.00000E+00
    0.00000E+00         0.00000E+00        -0.30234E+04
 
   -0.14492E+05        -0.34043E+03         0.00000E+00
   -0.34043E+03         0.66362E+03         0.00000E+00
    0.00000E+00         0.00000E+00        -0.41485E+04
 
   -0.17174E+05         0.15172E+04         0.00000E+00
    0.15172E+04         0.31660E+03         0.00000E+00
    0.00000E+00         0.00000E+00        -0.50574E+04
 
   -0.18455E+05         0.36122E+04         0.00000E+00
    0.36122E+04        -0.27224E+03         0.00000E+00
    0.00000E+00         0.00000E+00        -0.56182E+04
 
   -0.18199E+05         0.53906E+04         0.00000E+00
    0.53906E+04        -0.13932E+04         0.00000E+00
    0.00000E+00         0.00000E+00        -0.62368E+04
 
   -0.17279E+05         0.68192E+04         0.00000E+00
    0.68192E+04        -0.26544E+04         0.00000E+00
    0.00000E+00         0.00000E+00        -0.67050E+04
 
   -0.16024E+05         0.79157E+04         0.00000E+00
    0.79157E+04        -0.37929E+04         0.00000E+00
    0.00000E+00         0.00000E+00        -0.68947E+04
 
   -0.14609E+05         0.87133E+04         0.00000E+00
    0.87133E+04        -0.48589E+04         0.00000E+00
    0.00000E+00         0.00000E+00        -0.68866E+04
 
   -0.13078E+05         0.93270E+04         0.00000E+00
    0.93270E+04        -0.57892E+04         0.00000E+00
    0.00000E+00         0.00000E+00        -0.66458E+04
 
   -0.11514E+05         0.97069E+04         0.00000E+00
    0.97069E+04        -0.66270E+04         0.00000E+00
    0.00000E+00         0.00000E+00        -0.63117E+04
 
   -0.10016E+05         0.99219E+04         0.00000E+00
    0.99219E+04        -0.73432E+04         0.00000E+00
    0.00000E+00         0.00000E+00        -0.59045E+04
 
   -0.85960E+04         0.99736E+04         0.00000E+00
    0.99736E+04        -0.78915E+04         0.00000E+00
    0.00000E+00         0.00000E+00        -0.54619E+04
 
   -0.72245E+04         0.99317E+04         0.00000E+00
    0.99317E+04        -0.82713E+04         0.00000E+00
    0.00000E+00         0.00000E+00        -0.49872E+04
 
   -0.59829E+04         0.98139E+04         0.00000E+00
    0.98139E+04        -0.86439E+04         0.00000E+00
    0.00000E+00         0.00000E+00        -0.45277E+04
 
   -0.48085E+04         0.95438E+04         0.00000E+00
    0.95438E+04        -0.90728E+04         0.00000E+00
    0.00000E+00         0.00000E+00        -0.41644E+04
 
   -0.40217E+04         0.88593E+04         0.00000E+00
    0.88593E+04        -0.97152E+04         0.00000E+00
    0.00000E+00         0.00000E+00        -0.41211E+04
 
   -0.35873E+04         0.81566E+04         0.00000E+00
    0.81566E+04        -0.10263E+05         0.00000E+00
    0.00000E+00         0.00000E+00        -0.41552E+04
 
   -0.34007E+04         0.75135E+04         0.00000E+00
    0.75135E+04        -0.10584E+05         0.00000E+00
    0.00000E+00         0.00000E+00        -0.41955E+04
 
   -0.34103E+04         0.69899E+04         0.00000E+00
    0.69899E+04        -0.10752E+05         0.00000E+00
    0.00000E+00         0.00000E+00        -0.42488E+04
 
   -0.35516E+04         0.66068E+04         0.00000E+00
    0.66068E+04        -0.10809E+05         0.00000E+00
    0.00000E+00         0.00000E+00        -0.43081E+04
 
   -0.37808E+04         0.63737E+04         0.00000E+00
    0.63737E+04        -0.10785E+05         0.00000E+00
    0.00000E+00         0.00000E+00        -0.43696E+04
 
   -0.40633E+04         0.63009E+04         0.00000E+00
    0.63009E+04        -0.10705E+05         0.00000E+00
    0.00000E+00         0.00000E+00        -0.44304E+04
 
   -0.43639E+04         0.64011E+04         0.00000E+00
    0.64011E+04        -0.10593E+05         0.00000E+00
    0.00000E+00         0.00000E+00        -0.44872E+04
 
   -0.73281E+04        -0.60329E+03         0.00000E+00
   -0.60329E+03         0.10361E+03         0.00000E+00
    0.00000E+00         0.00000E+00        -0.21674E+04
 
   -0.10325E+05        -0.94944E+03         0.00000E+00
   -0.94944E+03         0.43993E+03         0.00000E+00
    0.00000E+00         0.00000E+00        -0.29656E+04
 
   -0.13209E+05        -0.26268E+03         0.00000E+00
   -0.26268E+03         0.72374E+03         0.00000E+00
    0.00000E+00         0.00000E+00        -0.37454E+04
 
   -0.15356E+05         0.11436E+04         0.00000E+00
    0.11436E+04         0.69969E+03         0.00000E+00
    0.00000E+00         0.00000E+00        -0.43968E+04
 
   -0.16508E+05         0.28279E+04         0.00000E+00
    0.28279E+04         0.26371E+03         0.00000E+00
    0.00000E+00         0.00000E+00        -0.48734E+04
 
   -0.16675E+05         0.44510E+04         0.00000E+00
    0.44510E+04        -0.25740E+03         0.00000E+00
    0.00000E+00         0.00000E+00        -0.50797E+04
 
   -0.16101E+05         0.58299E+04         0.00000E+00
    0.58299E+04        -0.93854E+03         0.00000E+00
    0.00000E+00         0.00000E+00        -0.51867E+04
 
   -0.15094E+05         0.69051E+04         0.00000E+00
    0.69051E+04        -0.19088E+04         0.00000E+00
    0.00000E+00         0.00000E+00        -0.53480E+04
 
   -0.13870E+05         0.78024E+04         0.00000E+00
    0.78024E+04        -0.28345E+04         0.00000E+00
    0.00000E+00         0.00000E+00        -0.53552E+04
 
   -0.12534E+05         0.84782E+04         0.00000E+00
    0.84782E+04        -0.37027E+04         0.00000E+00
    0.00000E+00         0.00000E+00        -0.52132E+04
 
   -0.11162E+05         0.89547E+04         0.00000E+00
    0.89547E+04        -0.44695E+04         0.00000E+00
    0.00000E+00         0.00000E+00        -0.49794E+04
 
   -0.98216E+04         0.92662E+04         0.00000E+00
    0.92662E+04        -0.51508E+04         0.00000E+00
    0.00000E+00         0.00000E+00        -0.46734E+04
 
   -0.85344E+04         0.94674E+04         0.00000E+00
    0.94674E+04        -0.57953E+04         0.00000E+00
    0.00000E+00         0.00000E+00        -0.43468E+04
 
   -0.73175E+04         0.94252E+04         0.00000E+00
    0.94252E+04        -0.65246E+04         0.00000E+00
    0.00000E+00         0.00000E+00        -0.41537E+04
 
   -0.62163E+04         0.91762E+04         0.00000E+00
    0.91762E+04        -0.73106E+04         0.00000E+00
    0.00000E+00         0.00000E+00        -0.40581E+04
 
   -0.53287E+04         0.87700E+04         0.00000E+00
    0.87700E+04        -0.81417E+04         0.00000E+00
    0.00000E+00         0.00000E+00        -0.40411E+04
 
   -0.46466E+04         0.82748E+04         0.00000E+00
    0.82748E+04        -0.88033E+04         0.00000E+00
    0.00000E+00         0.00000E+00        -0.40350E+04
 
   -0.41769E+04         0.77446E+04         0.00000E+00
    0.77446E+04        -0.92796E+04         0.00000E+00
    0.00000E+00         0.00000E+00        -0.40369E+04
 
   -0.39173E+04         0.72612E+04         0.00000E+00
    0.72612E+04        -0.96135E+04         0.00000E+00
    0.00000E+00         0.00000E+00        -0.40592E+04
 
   -0.38119E+04         0.68594E+04         0.00000E+00
    0.68594E+04        -0.98191E+04         0.00000E+00
    0.00000E+00         0.00000E+00        -0.40893E+04
 
   -0.38220E+04         0.65663E+04         0.00000E+00
    0.65663E+04        -0.99264E+04         0.00000E+00
    0.00000E+00         0.00000E+00        -0.41245E+04
 
   -0.39085E+04         0.63977E+04         0.00000E+00
    0.63977E+04        -0.99609E+04         0.00000E+00
    0.00000E+00         0.00000E+00        -0.41608E+04
 
   -0.40364E+04         0.63660E+04         0.00000E+00
    0.63660E+04        -0.99458E+04         0.00000E+00
    0.00000E+00         0.00000E+00        -0.41947E+04
 
   -0.41703E+04         0.64827E+04         0.00000E+00
    0.64827E+04        -0.99042E+04         0.00000E+00
    0.00000E+00         0.00000E+00        -0.42224E+04
 
   -0.80647E+04        -0.38413E+03         0.00000E+00
   -0.38413E+03         0.79132E+02         0.00000E+00
    0.00000E+00         0.00000E+00        -0.23957E+04
 
   -0.10146E+05        -0.58713E+03         0.00000E+00
   -0.58713E+03         0.35939E+03         0.00000E+00
    0.00000E+00         0.00000E+00        -0.29361E+04
 
   -0.12251E+05        -0.60532E+02         0.00000E+00
   -0.60532E+02         0.64815E+03         0.00000E+00
    0.00000E+00         0.00000E+00        -0.34808E+04
 
   -0.13935E+05         0.10248E+04         0.00000E+00
    0.10248E+04         0.73677E+03         0.00000E+00
    0.00000E+00         0.00000E+00        -0.39595E+04
 
   -0.14937E+05         0.24159E+04         0.00000E+00
    0.24159E+04         0.55900E+03         0.00000E+00
    0.00000E+00         0.00000E+00        -0.43133E+04
 
   -0.15207E+05         0.38420E+04         0.00000E+00
    0.38420E+04         0.10876E+03         0.00000E+00
    0.00000E+00         0.00000E+00        -0.45293E+04
 
   -0.14893E+05         0.50911E+04         0.00000E+00
    0.50911E+04        -0.49709E+03         0.00000E+00
    0.00000E+00         0.00000E+00        -0.46170E+04
 
   -0.14127E+05         0.61596E+04         0.00000E+00
    0.61596E+04        -0.10431E+04         0.00000E+00
    0.00000E+00         0.00000E+00        -0.45511E+04
 
   -0.13103E+05         0.70370E+04         0.00000E+00
    0.70370E+04        -0.16792E+04         0.00000E+00
    0.00000E+00         0.00000E+00        -0.44346E+04
 
   -0.11960E+05         0.77096E+04         0.00000E+00
    0.77096E+04        -0.24165E+04         0.00000E+00
    0.00000E+00         0.00000E+00        -0.43131E+04
 
   -0.10772E+05         0.82009E+04         0.00000E+00
    0.82009E+04        -0.32268E+04         0.00000E+00
    0.00000E+00         0.00000E+00        -0.41996E+04
 
   -0.95799E+04         0.85001E+04         0.00000E+00
    0.85001E+04        -0.40904E+04         0.00000E+00
    0.00000E+00         0.00000E+00        -0.41011E+04
 
   -0.84849E+04         0.86037E+04         0.00000E+00
    0.86037E+04        -0.50147E+04         0.00000E+00
    0.00000E+00         0.00000E+00        -0.40499E+04
 
   -0.74644E+04         0.85728E+04         0.00000E+00
    0.85728E+04        -0.58906E+04         0.00000E+00
    0.00000E+00         0.00000E+00        -0.40065E+04
 
   -0.65193E+04         0.83886E+04         0.00000E+00
    0.83886E+04        -0.66870E+04         0.00000E+00
    0.00000E+00         0.00000E+00        -0.39619E+04
 
   -0.57193E+04         0.80869E+04         0.00000E+00
    0.80869E+04        -0.73717E+04         0.00000E+00
    0.00000E+00         0.00000E+00        -0.39273E+04
 
   -0.50903E+04         0.77297E+04         0.00000E+00
    0.77297E+04        -0.79507E+04         0.00000E+00
    0.00000E+00         0.00000E+00        -0.39123E+04
 
   -0.46212E+04         0.73483E+04         0.00000E+00
    0.73483E+04        -0.84074E+04         0.00000E+00
    0.00000E+00         0.00000E+00        -0.39086E+04
 
   -0.43047E+04         0.69894E+04         0.00000E+00
    0.69894E+04        -0.87397E+04         0.00000E+00
    0.00000E+00         0.00000E+00        -0.39133E+04
 
   -0.41155E+04         0.66910E+04         0.00000E+00
    0.66910E+04        -0.89688E+04         0.00000E+00
    0.00000E+00         0.00000E+00        -0.39253E+04
 
   -0.40200E+04         0.64773E+04         0.00000E+00
    0.64773E+04        -0.91134E+04         0.00000E+00
    0.00000E+00         0.00000E+00        -0.39400E+04
 
   -0.39865E+04         0.63658E+04         0.00000E+00
    0.63658E+04        -0.91946E+04         0.00000E+00
    0.00000E+00         0.00000E+00        -0.39543E+04
 
   -0.39828E+04         0.63695E+04         0.00000E+00
    0.63695E+04        -0.92330E+04         0.00000E+00
    0.00000E+00         0.00000E+00        -0.39647E+04
 
   -0.39755E+04         0.64985E+04         0.00000E+00
    0.64985E+04        -0.92498E+04         0.00000E+00
    0.00000E+00         0.00000E+00        -0.39676E+04
 
   -0.85028E+04        -0.21785E+03         0.00000E+00
   -0.21785E+03         0.58385E+02         0.00000E+00
    0.00000E+00         0.00000E+00        -0.25333E+04
 
   -0.99670E+04        -0.28460E+03         0.00000E+00
   -0.28460E+03         0.27468E+03         0.00000E+00
    0.00000E+00         0.00000E+00        -0.29077E+04
 
   -0.11504E+05         0.15677E+03         0.00000E+00
    0.15677E+03         0.51984E+03         0.00000E+00
    0.00000E+00         0.00000E+00        -0.32954E+04
 
   -0.12792E+05         0.10248E+04         0.00000E+00
    0.10248E+04         0.63897E+03         0.00000E+00
    0.00000E+00         0.00000E+00        -0.36459E+04
 
   -0.13625E+05         0.21560E+04         0.00000E+00
    0.21560E+04         0.54336E+03         0.00000E+00
    0.00000E+00         0.00000E+00        -0.39245E+04
 
   -0.13935E+05         0.33665E+04         0.00000E+00
    0.33665E+04         0.22791E+03         0.00000E+00
    0.00000E+00         0.00000E+00        -0.41122E+04
 
   -0.13756E+05         0.45189E+04         0.00000E+00
    0.45189E+04        -0.25085E+03         0.00000E+00
    0.00000E+00         0.00000E+00        -0.42022E+04
 
   -0.13190E+05         0.55226E+04         0.00000E+00
    0.55226E+04        -0.85678E+03         0.00000E+00
    0.00000E+00         0.00000E+00        -0.42139E+04
 
   -0.12364E+05         0.63284E+04         0.00000E+00
    0.63284E+04        -0.15334E+04         0.00000E+00
    0.00000E+00         0.00000E+00        -0.41693E+04
 
   -0.11408E+05         0.69439E+04         0.00000E+00
    0.69439E+04        -0.22614E+04         0.00000E+00
    0.00000E+00         0.00000E+00        -0.41009E+04
 
   -0.10397E+05         0.73850E+04         0.00000E+00
    0.73850E+04        -0.30292E+04         0.00000E+00
    0.00000E+00         0.00000E+00        -0.40278E+04
 
   -0.93906E+04         0.76556E+04         0.00000E+00
    0.76556E+04        -0.38223E+04         0.00000E+00
    0.00000E+00         0.00000E+00        -0.39639E+04
 
   -0.84338E+04         0.77791E+04         0.00000E+00
    0.77791E+04        -0.46000E+04         0.00000E+00
    0.00000E+00         0.00000E+00        -0.39101E+04
 
   -0.75409E+04         0.77877E+04         0.00000E+00
    0.77877E+04        -0.53509E+04         0.00000E+00
    0.00000E+00         0.00000E+00        -0.38675E+04
 
   -0.67194E+04         0.76837E+04         0.00000E+00
    0.76837E+04        -0.60510E+04         0.00000E+00
    0.00000E+00         0.00000E+00        -0.38311E+04
 
   -0.60015E+04         0.74860E+04         0.00000E+00
    0.74860E+04        -0.66710E+04         0.00000E+00
    0.00000E+00         0.00000E+00        -0.38017E+04
 
   -0.54081E+04         0.72339E+04         0.00000E+00
    0.72339E+04        -0.71943E+04         0.00000E+00
    0.00000E+00         0.00000E+00        -0.37807E+04
 
   -0.49405E+04         0.69639E+04         0.00000E+00
    0.69639E+04        -0.76199E+04         0.00000E+00
    0.00000E+00         0.00000E+00        -0.37681E+04
 
   -0.45885E+04         0.67082E+04         0.00000E+00
    0.67082E+04        -0.79496E+04         0.00000E+00
    0.00000E+00         0.00000E+00        -0.37614E+04
 
   -0.43344E+04         0.64962E+04         0.00000E+00
    0.64962E+04        -0.81930E+04         0.00000E+00
    0.00000E+00         0.00000E+00        -0.37582E+04
 
   -0.41545E+04         0.63507E+04         0.00000E+00
    0.63507E+04        -0.83656E+04         0.00000E+00
    0.00000E+00         0.00000E+00        -0.37560E+04
 
   -0.40216E+04         0.62883E+04         0.00000E+00
    0.62883E+04        -0.84841E+04         0.00000E+00
    0.00000E+00         0.00000E+00        -0.37517E+04
 
   -0.39075E+04         0.63216E+04         0.00000E+00
    0.63216E+04        -0.85665E+04         0.00000E+00
    0.00000E+00         0.00000E+00        -0.37422E+04
 
   -0.37820E+04         0.64594E+04         0.00000E+00
    0.64594E+04        -0.86318E+04         0.00000E+00
    0.00000E+00         0.00000E+00        -0.37241E+04
 
   -0.87116E+04        -0.97278E+02         0.00000E+00
   -0.97278E+02         0.41219E+02         0.00000E+00
    0.00000E+00         0.00000E+00        -0.26011E+04
 
   -0.97628E+04        -0.52517E+02         0.00000E+00
   -0.52517E+02         0.19847E+03         0.00000E+00
    0.00000E+00         0.00000E+00        -0.28693E+04
 
   -0.10891E+05         0.34354E+03         0.00000E+00
    0.34354E+03         0.38622E+03         0.00000E+00
    0.00000E+00         0.00000E+00        -0.31513E+04
 
   -0.11869E+05         0.10547E+04         0.00000E+00
    0.10547E+04         0.48744E+03         0.00000E+00
    0.00000E+00         0.00000E+00        -0.34143E+04
 
   -0.12538E+05         0.19811E+04         0.00000E+00
    0.19811E+04         0.42912E+03         0.00000E+00
    0.00000E+00         0.00000E+00        -0.36328E+04
 
   -0.12826E+05         0.30007E+04         0.00000E+00
    0.30007E+04         0.18863E+03         0.00000E+00
    0.00000E+00         0.00000E+00        -0.37913E+04
 
   -0.12735E+05         0.40005E+04         0.00000E+00
    0.40005E+04        -0.22070E+03         0.00000E+00
    0.00000E+00         0.00000E+00        -0.38868E+04
 
   -0.12323E+05         0.48961E+04         0.00000E+00
    0.48961E+04        -0.76090E+03         0.00000E+00
    0.00000E+00         0.00000E+00        -0.39252E+04
 
   -0.11680E+05         0.56390E+04         0.00000E+00
    0.56390E+04        -0.13915E+04         0.00000E+00
    0.00000E+00         0.00000E+00        -0.39214E+04
 
   -0.10897E+05         0.62160E+04         0.00000E+00
    0.62160E+04        -0.20733E+04         0.00000E+00
    0.00000E+00         0.00000E+00        -0.38911E+04
 
   -0.10049E+05         0.66344E+04         0.00000E+00
    0.66344E+04        -0.27815E+04         0.00000E+00
    0.00000E+00         0.00000E+00        -0.38492E+04
 
   -0.91892E+04         0.69083E+04         0.00000E+00
    0.69083E+04        -0.34934E+04         0.00000E+00
    0.00000E+00         0.00000E+00        -0.38048E+04
 
   -0.83547E+04         0.70575E+04         0.00000E+00
    0.70575E+04        -0.41896E+04         0.00000E+00
    0.00000E+00         0.00000E+00        -0.37633E+04
 
   -0.75656E+04         0.71025E+04         0.00000E+00
    0.71025E+04        -0.48540E+04         0.00000E+00
    0.00000E+00         0.00000E+00        -0.37259E+04
 
   -0.68373E+04         0.70578E+04         0.00000E+00
    0.70578E+04        -0.54732E+04         0.00000E+00
    0.00000E+00         0.00000E+00        -0.36932E+04
 
   -0.61869E+04         0.69407E+04         0.00000E+00
    0.69407E+04        -0.60293E+04         0.00000E+00
    0.00000E+00         0.00000E+00        -0.36649E+04
 
   -0.56277E+04         0.67771E+04         0.00000E+00
    0.67771E+04        -0.65098E+04         0.00000E+00
    0.00000E+00         0.00000E+00        -0.36412E+04
 
   -0.51627E+04         0.65955E+04         0.00000E+00
    0.65955E+04        -0.69101E+04         0.00000E+00
    0.00000E+00         0.00000E+00        -0.36219E+04
 
   -0.47855E+04         0.64230E+04         0.00000E+00
    0.64230E+04        -0.72329E+04         0.00000E+00
    0.00000E+00         0.00000E+00        -0.36055E+04
 
   -0.44824E+04         0.62829E+04         0.00000E+00
    0.62829E+04        -0.74853E+04         0.00000E+00
    0.00000E+00         0.00000E+00        -0.35903E+04
 
   -0.42348E+04         0.61948E+04         0.00000E+00
    0.61948E+04        -0.76786E+04         0.00000E+00
    0.00000E+00         0.00000E+00        -0.35740E+04
 
   -0.40205E+04         0.61739E+04         0.00000E+00
    0.61739E+04        -0.78268E+04         0.00000E+00
    0.00000E+00         0.00000E+00        -0.35542E+04
 
   -0.38150E+04         0.62314E+04         0.00000E+00
    0.62314E+04        -0.79451E+04         0.00000E+00
    0.00000E+00         0.00000E+00        -0.35280E+04
 
   -0.35917E+04         0.63748E+04         0.00000E+00
    0.63748E+04        -0.80504E+04         0.00000E+00
    0.00000E+00         0.00000E+00        -0.34926E+04
 
   -0.87539E+04        -0.13730E+02         0.00000E+00
   -0.13730E+02         0.27824E+02         0.00000E+00
    0.00000E+00         0.00000E+00        -0.26178E+04
 
   -0.95299E+04         0.11397E+03         0.00000E+00
    0.11397E+03         0.13588E+03         0.00000E+00
    0.00000E+00         0.00000E+00        -0.28182E+04
 
   -0.10367E+05         0.48279E+03         0.00000E+00
    0.48279E+03         0.26701E+03         0.00000E+00
    0.00000E+00         0.00000E+00        -0.30300E+04
 
   -0.11109E+05         0.10808E+04         0.00000E+00
    0.10808E+04         0.33707E+03         0.00000E+00
    0.00000E+00         0.00000E+00        -0.32315E+04
 
   -0.11637E+05         0.18479E+04         0.00000E+00
    0.18479E+04         0.28655E+03         0.00000E+00
    0.00000E+00         0.00000E+00        -0.34050E+04
 
   -0.11886E+05         0.27005E+04         0.00000E+00
    0.27005E+04         0.87910E+02         0.00000E+00
    0.00000E+00         0.00000E+00        -0.35393E+04
 
   -0.11845E+05         0.35541E+04         0.00000E+00
    0.35541E+04        -0.25642E+03         0.00000E+00
    0.00000E+00         0.00000E+00        -0.36303E+04
 
   -0.11546E+05         0.43394E+04         0.00000E+00
    0.43394E+04        -0.72376E+03         0.00000E+00
    0.00000E+00         0.00000E+00        -0.36808E+04
 
   -0.11046E+05         0.50114E+04         0.00000E+00
    0.50114E+04        -0.12801E+04         0.00000E+00
    0.00000E+00         0.00000E+00        -0.36979E+04
 
   -0.10413E+05         0.55505E+04         0.00000E+00
    0.55505E+04        -0.18914E+04         0.00000E+00
    0.00000E+00         0.00000E+00        -0.36914E+04
 
   -0.97061E+04         0.59559E+04         0.00000E+00
    0.59559E+04        -0.25284E+04         0.00000E+00
    0.00000E+00         0.00000E+00        -0.36703E+04
 
   -0.89719E+04         0.62375E+04         0.00000E+00
    0.62375E+04        -0.31683E+04         0.00000E+00
    0.00000E+00         0.00000E+00        -0.36421E+04
 
   -0.82441E+04         0.64109E+04         0.00000E+00
    0.64109E+04        -0.37931E+04         0.00000E+00
    0.00000E+00         0.00000E+00        -0.36112E+04
 
   -0.75454E+04         0.64926E+04         0.00000E+00
    0.64926E+04        -0.43892E+04         0.00000E+00
    0.00000E+00         0.00000E+00        -0.35804E+04
 
   -0.68915E+04         0.64983E+04         0.00000E+00
    0.64983E+04        -0.49444E+04         0.00000E+00
    0.00000E+00         0.00000E+00        -0.35508E+04
 
   -0.62957E+04         0.64447E+04         0.00000E+00
    0.64447E+04        -0.54476E+04         0.00000E+00
    0.00000E+00         0.00000E+00        -0.35230E+04
 
   -0.57666E+04         0.63521E+04         0.00000E+00
    0.63521E+04        -0.58900E+04         0.00000E+00
    0.00000E+00         0.00000E+00        -0.34970E+04
 
   -0.53068E+04         0.62425E+04         0.00000E+00
    0.62425E+04        -0.62680E+04         0.00000E+00
    0.00000E+00         0.00000E+00        -0.34724E+04
 
   -0.49117E+04         0.61375E+04         0.00000E+00
    0.61375E+04        -0.65827E+04         0.00000E+00
    0.00000E+00         0.00000E+00        -0.34483E+04
 
   -0.45711E+04         0.60567E+04         0.00000E+00
    0.60567E+04        -0.68400E+04         0.00000E+00
    0.00000E+00         0.00000E+00        -0.34233E+04
 
   -0.42698E+04         0.60163E+04         0.00000E+00
    0.60163E+04        -0.70487E+04         0.00000E+00
    0.00000E+00         0.00000E+00        -0.33956E+04
 
   -0.39896E+04         0.60296E+04         0.00000E+00
    0.60296E+04        -0.72201E+04         0.00000E+00
    0.00000E+00         0.00000E+00        -0.33629E+04
 
   -0.37094E+04         0.61064E+04         0.00000E+00
    0.61064E+04        -0.73675E+04         0.00000E+00
    0.00000E+00         0.00000E+00        -0.33231E+04
 
   -0.34062E+04         0.62530E+04         0.00000E+00
    0.62530E+04        -0.75053E+04         0.00000E+00
    0.00000E+00         0.00000E+00        -0.32734E+04
 
   -0.86818E+04         0.41390E+02         0.00000E+00
    0.41390E+02         0.17830E+02         0.00000E+00
    0.00000E+00         0.00000E+00        -0.25992E+04
 
   -0.92744E+04         0.22544E+03         0.00000E+00
    0.22544E+03         0.87376E+02         0.00000E+00
    0.00000E+00         0.00000E+00        -0.27561E+04
 
   -0.99069E+04         0.57488E+03         0.00000E+00
    0.57488E+03         0.17054E+03         0.00000E+00
    0.00000E+00         0.00000E+00        -0.29209E+04
 
   -0.10473E+05         0.10893E+04         0.00000E+00
    0.10893E+04         0.20775E+03         0.00000E+00
    0.00000E+00         0.00000E+00        -0.30794E+04
 
   -0.10885E+05         0.17326E+04         0.00000E+00
    0.17326E+04         0.15290E+03         0.00000E+00
    0.00000E+00         0.00000E+00        -0.32196E+04
 
   -0.11092E+05         0.24482E+04         0.00000E+00
    0.24482E+04        -0.19062E+02         0.00000E+00
    0.00000E+00         0.00000E+00        -0.33333E+04
 
   -0.11077E+05         0.31747E+04         0.00000E+00
    0.31747E+04        -0.31170E+03         0.00000E+00
    0.00000E+00         0.00000E+00        -0.34167E+04
 
   -0.10857E+05         0.38580E+04         0.00000E+00
    0.38580E+04        -0.71105E+03         0.00000E+00
    0.00000E+00         0.00000E+00        -0.34703E+04
 
   -0.10467E+05         0.44597E+04         0.00000E+00
    0.44597E+04        -0.11927E+04         0.00000E+00
    0.00000E+00         0.00000E+00        -0.34979E+04
 
   -0.99550E+04         0.49588E+04         0.00000E+00
    0.49588E+04        -0.17287E+04         0.00000E+00
    0.00000E+00         0.00000E+00        -0.35051E+04
 
   -0.93661E+04         0.53494E+04         0.00000E+00
    0.53494E+04        -0.22930E+04         0.00000E+00
    0.00000E+00         0.00000E+00        -0.34977E+04
 
   -0.87394E+04         0.56363E+04         0.00000E+00
    0.56363E+04        -0.28637E+04         0.00000E+00
    0.00000E+00         0.00000E+00        -0.34809E+04
 
   -0.81049E+04         0.58301E+04         0.00000E+00
    0.58301E+04        -0.34238E+04         0.00000E+00
    0.00000E+00         0.00000E+00        -0.34586E+04
 
   -0.74843E+04         0.59442E+04         0.00000E+00
    0.59442E+04        -0.39600E+04         0.00000E+00
    0.00000E+00         0.00000E+00        -0.34333E+04
 
   -0.68934E+04         0.59928E+04         0.00000E+00
    0.59928E+04        -0.44617E+04         0.00000E+00
    0.00000E+00         0.00000E+00        -0.34065E+04
 
   -0.63431E+04         0.59909E+04         0.00000E+00
    0.59909E+04        -0.49204E+04         0.00000E+00
    0.00000E+00         0.00000E+00        -0.33791E+04
 
   -0.58405E+04         0.59555E+04         0.00000E+00
    0.59555E+04        -0.53298E+04         0.00000E+00
    0.00000E+00         0.00000E+00        -0.33511E+04
 
   -0.53873E+04         0.59042E+04         0.00000E+00
    0.59042E+04        -0.56870E+04         0.00000E+00
    0.00000E+00         0.00000E+00        -0.33223E+04
 
   -0.49801E+04         0.58543E+04         0.00000E+00
    0.58543E+04        -0.59931E+04         0.00000E+00
    0.00000E+00         0.00000E+00        -0.32920E+04
 
   -0.46109E+04         0.58218E+04         0.00000E+00
    0.58218E+04        -0.62524E+04         0.00000E+00
    0.00000E+00         0.00000E+00        -0.32590E+04
 
   -0.42675E+04         0.58206E+04         0.00000E+00
    0.58206E+04        -0.64720E+04         0.00000E+00
    0.00000E+00         0.00000E+00        -0.32218E+04
 
   -0.39345E+04         0.58618E+04         0.00000E+00
    0.58618E+04        -0.66615E+04         0.00000E+00
    0.00000E+00         0.00000E+00        -0.31788E+04
 
   -0.35940E+04         0.59535E+04         0.00000E+00
    0.59535E+04        -0.68319E+04         0.00000E+00
    0.00000E+00         0.00000E+00        -0.31278E+04
 
   -0.32264E+04         0.61011E+04         0.00000E+00
    0.61011E+04        -0.69958E+04         0.00000E+00
    0.00000E+00         0.00000E+00        -0.30667E+04
 
   -0.85357E+04         0.75553E+02         0.00000E+00
    0.75553E+02         0.10632E+02         0.00000E+00
    0.00000E+00         0.00000E+00        -0.25575E+04
 
   -0.90052E+04         0.29401E+03         0.00000E+00
    0.29401E+03         0.51549E+02         0.00000E+00
    0.00000E+00         0.00000E+00        -0.26861E+04
 
   -0.94939E+04         0.62659E+03         0.00000E+00
    0.62659E+03         0.97058E+02         0.00000E+00
    0.00000E+00         0.00000E+00        -0.28191E+04
 
   -0.99301E+04         0.10774E+04         0.00000E+00
    0.10774E+04         0.10576E+03         0.00000E+00
    0.00000E+00         0.00000E+00        -0.29473E+04
 
   -0.10252E+05         0.16248E+04         0.00000E+00
    0.16248E+04         0.43315E+02         0.00000E+00
    0.00000E+00         0.00000E+00        -0.30627E+04
 
   -0.10420E+05         0.22308E+04         0.00000E+00
    0.22308E+04        -0.11117E+03         0.00000E+00
    0.00000E+00         0.00000E+00        -0.31594E+04
 
   -0.10417E+05         0.28513E+04         0.00000E+00
    0.28513E+04        -0.36325E+03         0.00000E+00
    0.00000E+00         0.00000E+00        -0.32341E+04
 
   -0.10250E+05         0.34454E+04         0.00000E+00
    0.34454E+04        -0.70512E+03         0.00000E+00
    0.00000E+00         0.00000E+00        -0.32866E+04
 
   -0.99418E+04         0.39815E+04         0.00000E+00
    0.39815E+04        -0.11197E+04         0.00000E+00
    0.00000E+00         0.00000E+00        -0.33184E+04
 
   -0.95245E+04         0.44400E+04         0.00000E+00
    0.44400E+04        -0.15854E+04         0.00000E+00
    0.00000E+00         0.00000E+00        -0.33330E+04
 
   -0.90322E+04         0.48125E+04         0.00000E+00
    0.48125E+04        -0.20808E+04         0.00000E+00
    0.00000E+00         0.00000E+00        -0.33339E+04
 
   -0.84961E+04         0.50999E+04         0.00000E+00
    0.50999E+04        -0.25865E+04         0.00000E+00
    0.00000E+00         0.00000E+00        -0.33248E+04
 
   -0.79417E+04         0.53089E+04         0.00000E+00
    0.53089E+04        -0.30868E+04         0.00000E+00
    0.00000E+00         0.00000E+00        -0.33086E+04
 
   -0.73888E+04         0.54494E+04         0.00000E+00
    0.54494E+04        -0.35692E+04         0.00000E+00
    0.00000E+00         0.00000E+00        -0.32874E+04
 
   -0.68519E+04         0.55333E+04         0.00000E+00
    0.55333E+04        -0.40241E+04         0.00000E+00
    0.00000E+00         0.00000E+00        -0.32628E+04
 
   -0.63410E+04         0.55737E+04         0.00000E+00
    0.55737E+04        -0.44440E+04         0.00000E+00
    0.00000E+00         0.00000E+00        -0.32355E+04
 
   -0.58619E+04         0.55845E+04         0.00000E+00
    0.55845E+04        -0.48241E+04         0.00000E+00
    0.00000E+00         0.00000E+00        -0.32058E+04
 
   -0.54162E+04         0.55801E+04         0.00000E+00
    0.55801E+04        -0.51622E+04         0.00000E+00
    0.00000E+00         0.00000E+00        -0.31735E+04
 
   -0.50014E+04         0.55749E+04         0.00000E+00
    0.55749E+04        -0.54590E+04         0.00000E+00
    0.00000E+00         0.00000E+00        -0.31381E+04
 
   -0.46109E+04         0.55817E+04         0.00000E+00
    0.55817E+04        -0.57180E+04         0.00000E+00
    0.00000E+00         0.00000E+00        -0.30987E+04
 
   -0.42348E+04         0.56122E+04         0.00000E+00
    0.56122E+04        -0.59451E+04         0.00000E+00
    0.00000E+00         0.00000E+00        -0.30540E+04
 
   -0.38602E+04         0.56755E+04         0.00000E+00
    0.56755E+04        -0.61481E+04         0.00000E+00
    0.00000E+00         0.00000E+00        -0.30025E+04
 
   -0.34720E+04         0.57784E+04         0.00000E+00
    0.57784E+04        -0.63365E+04         0.00000E+00
    0.00000E+00         0.00000E+00        -0.29426E+04
 
   -0.30534E+04         0.59252E+04         0.00000E+00
    0.59252E+04        -0.65209E+04         0.00000E+00
    0.00000E+00         0.00000E+00        -0.28723E+04
 
   -0.83457E+04         0.94825E+02         0.00000E+00
    0.94825E+02         0.56205E+01         0.00000E+00
    0.00000E+00         0.00000E+00        -0.25020E+04
 
   -0.87311E+04         0.33080E+03         0.00000E+00
    0.33080E+03         0.26092E+02         0.00000E+00
    0.00000E+00         0.00000E+00        -0.26115E+04
 
   -0.91184E+04         0.64666E+03         0.00000E+00
    0.64666E+03         0.43735E+02         0.00000E+00
    0.00000E+00         0.00000E+00        -0.27224E+04
 
   -0.94600E+04         0.10475E+04         0.00000E+00
    0.10475E+04         0.30232E+02         0.00000E+00
    0.00000E+00         0.00000E+00        -0.28289E+04
 
   -0.97129E+04         0.15202E+04         0.00000E+00
    0.15202E+04        -0.39344E+02         0.00000E+00
    0.00000E+00         0.00000E+00        -0.29257E+04
 
   -0.98469E+04         0.20391E+04         0.00000E+00
    0.20391E+04        -0.18143E+03         0.00000E+00
    0.00000E+00         0.00000E+00        -0.30085E+04
 
   -0.98475E+04         0.25730E+04         0.00000E+00
    0.25730E+04        -0.40189E+03         0.00000E+00
    0.00000E+00         0.00000E+00        -0.30748E+04
 
   -0.97164E+04         0.30913E+04         0.00000E+00
    0.30913E+04        -0.69659E+03         0.00000E+00
    0.00000E+00         0.00000E+00        -0.31239E+04
 
   -0.94677E+04         0.35686E+04         0.00000E+00
    0.35686E+04        -0.10539E+04         0.00000E+00
    0.00000E+00         0.00000E+00        -0.31565E+04
 
   -0.91234E+04         0.39878E+04         0.00000E+00
    0.39878E+04        -0.14578E+04         0.00000E+00
    0.00000E+00         0.00000E+00        -0.31743E+04
 
   -0.87084E+04         0.43400E+04         0.00000E+00
    0.43400E+04        -0.18911E+04         0.00000E+00
    0.00000E+00         0.00000E+00        -0.31798E+04
 
   -0.82471E+04         0.46235E+04         0.00000E+00
    0.46235E+04        -0.23376E+04         0.00000E+00
    0.00000E+00         0.00000E+00        -0.31754E+04
 
   -0.77604E+04         0.48420E+04         0.00000E+00
    0.48420E+04        -0.27833E+04         0.00000E+00
    0.00000E+00         0.00000E+00        -0.31631E+04
 
   -0.72655E+04         0.50025E+04         0.00000E+00
    0.50025E+04        -0.32170E+04         0.00000E+00
    0.00000E+00         0.00000E+00        -0.31448E+04
 
   -0.67754E+04         0.51145E+04         0.00000E+00
    0.51145E+04        -0.36298E+04         0.00000E+00
    0.00000E+00         0.00000E+00        -0.31215E+04
 
   -0.62988E+04         0.51887E+04         0.00000E+00
    0.51887E+04        -0.40151E+04         0.00000E+00
    0.00000E+00         0.00000E+00        -0.30942E+04
 
   -0.58410E+04         0.52365E+04         0.00000E+00
    0.52365E+04        -0.43688E+04         0.00000E+00
    0.00000E+00         0.00000E+00        -0.30629E+04
 
   -0.54036E+04         0.52700E+04         0.00000E+00
    0.52700E+04        -0.46889E+04         0.00000E+00
    0.00000E+00         0.00000E+00        -0.30278E+04
 
   -0.49847E+04         0.53006E+04         0.00000E+00
    0.53006E+04        -0.49761E+04         0.00000E+00
    0.00000E+00         0.00000E+00        -0.29882E+04
 
   -0.45788E+04         0.53390E+04         0.00000E+00
    0.53390E+04        -0.52331E+04         0.00000E+00
    0.00000E+00         0.00000E+00        -0.29436E+04
 
   -0.41779E+04         0.53947E+04         0.00000E+00
    0.53947E+04        -0.54647E+04         0.00000E+00
    0.00000E+00         0.00000E+00        -0.28928E+04
 
   -0.37711E+04         0.54753E+04         0.00000E+00
    0.54753E+04        -0.56775E+04         0.00000E+00
    0.00000E+00         0.00000E+00        -0.28346E+04
 
   -0.33459E+04         0.55861E+04         0.00000E+00
    0.55861E+04        -0.58795E+04         0.00000E+00
    0.00000E+00         0.00000E+00        -0.27676E+04
 
   -0.28878E+04         0.57306E+04         0.00000E+00
    0.57306E+04        -0.60796E+04         0.00000E+00
    0.00000E+00         0.00000E+00        -0.26902E+04
 
   -0.81333E+04         0.10386E+03         0.00000E+00
    0.10386E+03         0.22419E+01         0.00000E+00
    0.00000E+00         0.00000E+00        -0.24393E+04
 
   -0.84595E+04         0.34503E+03         0.00000E+00
    0.34503E+03         0.86606E+01         0.00000E+00
    0.00000E+00         0.00000E+00        -0.25353E+04
 
   -0.87744E+04         0.64353E+03         0.00000E+00
    0.64353E+03         0.67064E+01         0.00000E+00
    0.00000E+00         0.00000E+00        -0.26303E+04
 
   -0.90468E+04         0.10037E+04         0.00000E+00
    0.10037E+04        -0.22747E+02         0.00000E+00
    0.00000E+00         0.00000E+00        -0.27209E+04
 
   -0.92470E+04         0.14174E+04         0.00000E+00
    0.14174E+04        -0.97437E+02         0.00000E+00
    0.00000E+00         0.00000E+00        -0.28033E+04
 
   -0.93529E+04         0.18672E+04         0.00000E+00
    0.18672E+04        -0.22984E+03         0.00000E+00
    0.00000E+00         0.00000E+00        -0.28748E+04
 
   -0.93527E+04         0.23309E+04         0.00000E+00
    0.23309E+04        -0.42522E+03         0.00000E+00
    0.00000E+00         0.00000E+00        -0.29334E+04
 
   -0.92456E+04         0.27855E+04         0.00000E+00
    0.27855E+04        -0.68162E+03         0.00000E+00
    0.00000E+00         0.00000E+00        -0.29782E+04
 
   -0.90402E+04         0.32114E+04         0.00000E+00
    0.32114E+04        -0.99115E+03         0.00000E+00
    0.00000E+00         0.00000E+00        -0.30094E+04
 
   -0.87515E+04         0.35941E+04         0.00000E+00
    0.35941E+04        -0.13421E+04         0.00000E+00
    0.00000E+00         0.00000E+00        -0.30281E+04
 
   -0.83976E+04         0.39251E+04         0.00000E+00
    0.39251E+04        -0.17211E+04         0.00000E+00
    0.00000E+00         0.00000E+00        -0.30356E+04
 
   -0.79971E+04         0.42013E+04         0.00000E+00
    0.42013E+04        -0.21150E+04         0.00000E+00
    0.00000E+00         0.00000E+00        -0.30336E+04
 
   -0.75668E+04         0.44243E+04         0.00000E+00
    0.44243E+04        -0.25118E+04         0.00000E+00
    0.00000E+00         0.00000E+00        -0.30236E+04
 
   -0.71212E+04         0.45989E+04         0.00000E+00
    0.45989E+04        -0.29016E+04         0.00000E+00
    0.00000E+00         0.00000E+00        -0.30068E+04
 
   -0.66712E+04         0.47323E+04         0.00000E+00
    0.47323E+04        -0.32764E+04         0.00000E+00
    0.00000E+00         0.00000E+00        -0.29843E+04
 
   -0.62247E+04         0.48328E+04         0.00000E+00
    0.48328E+04        -0.36304E+04         0.00000E+00
    0.00000E+00         0.00000E+00        -0.29565E+04
 
   -0.57864E+04         0.49100E+04         0.00000E+00
    0.49100E+04        -0.39598E+04         0.00000E+00
    0.00000E+00         0.00000E+00        -0.29239E+04
 
   -0.53578E+04         0.49734E+04         0.00000E+00
    0.49734E+04        -0.42630E+04         0.00000E+00
    0.00000E+00         0.00000E+00        -0.28863E+04
 
   -0.49375E+04         0.50324E+04         0.00000E+00
    0.50324E+04        -0.45403E+04         0.00000E+00
    0.00000E+00         0.00000E+00        -0.28433E+04
 
   -0.45211E+04         0.50958E+04         0.00000E+00
    0.50958E+04        -0.47938E+04         0.00000E+00
    0.00000E+00         0.00000E+00        -0.27945E+04
 
   -0.41020E+04         0.51713E+04         0.00000E+00
    0.51713E+04        -0.50276E+04         0.00000E+00
    0.00000E+00         0.00000E+00        -0.27389E+04
 
   -0.36712E+04         0.52649E+04         0.00000E+00
    0.52649E+04        -0.52470E+04         0.00000E+00
    0.00000E+00         0.00000E+00        -0.26754E+04
 
   -0.32179E+04         0.53809E+04         0.00000E+00
    0.53809E+04        -0.54588E+04         0.00000E+00
    0.00000E+00         0.00000E+00        -0.26030E+04
 
   -0.27302E+04         0.55219E+04         0.00000E+00
    0.55219E+04        -0.56706E+04         0.00000E+00
    0.00000E+00         0.00000E+00        -0.25202E+04
 
   -0.79132E+04         0.10609E+03         0.00000E+00
    0.10609E+03         0.44625E-01         0.00000E+00
    0.00000E+00         0.00000E+00        -0.23740E+04
 
   -0.81959E+04         0.34395E+03         0.00000E+00
    0.34395E+03        -0.28050E+01         0.00000E+00
    0.00000E+00         0.00000E+00        -0.24596E+04
 
   -0.84581E+04         0.62437E+03         0.00000E+00
    0.62437E+03        -0.17832E+02         0.00000E+00
    0.00000E+00         0.00000E+00        -0.25428E+04
 
   -0.86794E+04         0.95043E+03         0.00000E+00
    0.95043E+03        -0.57834E+02         0.00000E+00
    0.00000E+00         0.00000E+00        -0.26212E+04
 
   -0.88396E+04         0.13167E+04         0.00000E+00
    0.13167E+04        -0.13524E+03         0.00000E+00
    0.00000E+00         0.00000E+00        -0.26924E+04
 
   -0.89226E+04         0.17112E+04         0.00000E+00
    0.17112E+04        -0.25926E+03         0.00000E+00
    0.00000E+00         0.00000E+00        -0.27546E+04
 
   -0.89194E+04         0.21177E+04         0.00000E+00
    0.21177E+04        -0.43426E+03         0.00000E+00
    0.00000E+00         0.00000E+00        -0.28061E+04
 
   -0.88283E+04         0.25194E+04         0.00000E+00
    0.25194E+04        -0.65943E+03         0.00000E+00
    0.00000E+00         0.00000E+00        -0.28463E+04
 
   -0.86543E+04         0.29011E+04         0.00000E+00
    0.29011E+04        -0.92943E+03         0.00000E+00
    0.00000E+00         0.00000E+00        -0.28751E+04
 
   -0.84077E+04         0.32506E+04         0.00000E+00
    0.32506E+04        -0.12357E+04         0.00000E+00
    0.00000E+00         0.00000E+00        -0.28930E+04
 
   -0.81015E+04         0.35605E+04         0.00000E+00
    0.35605E+04        -0.15681E+04         0.00000E+00
    0.00000E+00         0.00000E+00        -0.29009E+04
 
   -0.77499E+04         0.38271E+04         0.00000E+00
    0.38271E+04        -0.19160E+04         0.00000E+00
    0.00000E+00         0.00000E+00        -0.28998E+04
 
   -0.73660E+04         0.40507E+04         0.00000E+00
    0.40507E+04        -0.22695E+04         0.00000E+00
    0.00000E+00         0.00000E+00        -0.28907E+04
 
   -0.69616E+04         0.42343E+04         0.00000E+00
    0.42343E+04        -0.26200E+04         0.00000E+00
    0.00000E+00         0.00000E+00        -0.28745E+04
 
   -0.65460E+04         0.43830E+04         0.00000E+00
    0.43830E+04        -0.29607E+04         0.00000E+00
    0.00000E+00         0.00000E+00        -0.28520E+04
 
   -0.61259E+04         0.45036E+04         0.00000E+00
    0.45036E+04        -0.32864E+04         0.00000E+00
    0.00000E+00         0.00000E+00        -0.28237E+04
 
   -0.57054E+04         0.46033E+04         0.00000E+00
    0.46033E+04        -0.35935E+04         0.00000E+00
    0.00000E+00         0.00000E+00        -0.27897E+04
 
   -0.52859E+04         0.46900E+04         0.00000E+00
    0.46900E+04        -0.38806E+04         0.00000E+00
    0.00000E+00         0.00000E+00        -0.27500E+04
 
   -0.48665E+04         0.47712E+04         0.00000E+00
    0.47712E+04        -0.41478E+04         0.00000E+00
    0.00000E+00         0.00000E+00        -0.27043E+04
 
   -0.44436E+04         0.48540E+04         0.00000E+00
    0.48540E+04        -0.43967E+04         0.00000E+00
    0.00000E+00         0.00000E+00        -0.26521E+04
 
   -0.40117E+04         0.49444E+04         0.00000E+00
    0.49444E+04        -0.46306E+04         0.00000E+00
    0.00000E+00         0.00000E+00        -0.25927E+04
 
   -0.35634E+04         0.50475E+04         0.00000E+00
    0.50475E+04        -0.48541E+04         0.00000E+00
    0.00000E+00         0.00000E+00        -0.25253E+04
 
   -0.30898E+04         0.51664E+04         0.00000E+00
    0.51664E+04        -0.50726E+04         0.00000E+00
    0.00000E+00         0.00000E+00        -0.24487E+04
 
   -0.25807E+04         0.53029E+04         0.00000E+00
    0.53029E+04        -0.52927E+04         0.00000E+00
    0.00000E+00         0.00000E+00        -0.23620E+04
 
   -0.76952E+04         0.10398E+03         0.00000E+00
    0.10398E+03        -0.13200E+01         0.00000E+00
    0.00000E+00         0.00000E+00        -0.23089E+04
 
   -0.79442E+04         0.33294E+03         0.00000E+00
    0.33294E+03        -0.99733E+01         0.00000E+00
    0.00000E+00         0.00000E+00        -0.23862E+04
 
   -0.81668E+04         0.59489E+03         0.00000E+00
    0.59489E+03        -0.33159E+02         0.00000E+00
    0.00000E+00         0.00000E+00        -0.24600E+04
 
   -0.83497E+04         0.89152E+03         0.00000E+00
    0.89152E+03        -0.79395E+02         0.00000E+00
    0.00000E+00         0.00000E+00        -0.25287E+04
 
   -0.84792E+04         0.12189E+04         0.00000E+00
    0.12189E+04        -0.15729E+03         0.00000E+00
    0.00000E+00         0.00000E+00        -0.25909E+04
 
   -0.85438E+04         0.15684E+04         0.00000E+00
    0.15684E+04        -0.27350E+03         0.00000E+00
    0.00000E+00         0.00000E+00        -0.26452E+04
 
   -0.85367E+04         0.19283E+04         0.00000E+00
    0.19283E+04        -0.43144E+03         0.00000E+00
    0.00000E+00         0.00000E+00        -0.26905E+04
 
   -0.84560E+04         0.22860E+04         0.00000E+00
    0.22860E+04        -0.63086E+03         0.00000E+00
    0.00000E+00         0.00000E+00        -0.27261E+04
 
   -0.83048E+04         0.26297E+04         0.00000E+00
    0.26297E+04        -0.86810E+03         0.00000E+00
    0.00000E+00         0.00000E+00        -0.27519E+04
 
   -0.80899E+04         0.29496E+04         0.00000E+00
    0.29496E+04        -0.11370E+04         0.00000E+00
    0.00000E+00         0.00000E+00        -0.27681E+04
 
   -0.78209E+04         0.32392E+04         0.00000E+00
    0.32392E+04        -0.14296E+04         0.00000E+00
    0.00000E+00         0.00000E+00        -0.27752E+04
 
   -0.75082E+04         0.34949E+04         0.00000E+00
    0.34949E+04        -0.17378E+04         0.00000E+00
    0.00000E+00         0.00000E+00        -0.27738E+04
 
   -0.71621E+04         0.37160E+04         0.00000E+00
    0.37160E+04        -0.20535E+04         0.00000E+00
    0.00000E+00         0.00000E+00        -0.27647E+04
 
   -0.67921E+04         0.39043E+04         0.00000E+00
    0.39043E+04        -0.23694E+04         0.00000E+00
    0.00000E+00         0.00000E+00        -0.27484E+04
 
   -0.64056E+04         0.40635E+04         0.00000E+00
    0.40635E+04        -0.26796E+04         0.00000E+00
    0.00000E+00         0.00000E+00        -0.27255E+04
 
   -0.60084E+04         0.41985E+04         0.00000E+00
    0.41985E+04        -0.29795E+04         0.00000E+00
    0.00000E+00         0.00000E+00        -0.26964E+04
 
   -0.56041E+04         0.43151E+04         0.00000E+00
    0.43151E+04        -0.32662E+04         0.00000E+00
    0.00000E+00         0.00000E+00        -0.26611E+04
 
   -0.51939E+04         0.44194E+04         0.00000E+00
    0.44194E+04        -0.35380E+04         0.00000E+00
    0.00000E+00         0.00000E+00        -0.26196E+04
 
   -0.47770E+04         0.45174E+04         0.00000E+00
    0.45174E+04        -0.37950E+04         0.00000E+00
    0.00000E+00         0.00000E+00        -0.25716E+04
 
   -0.43509E+04         0.46148E+04         0.00000E+00
    0.46148E+04        -0.40385E+04         0.00000E+00
    0.00000E+00         0.00000E+00        -0.25168E+04
 
   -0.39108E+04         0.47163E+04         0.00000E+00
    0.47163E+04        -0.42710E+04         0.00000E+00
    0.00000E+00         0.00000E+00        -0.24545E+04
 
   -0.34508E+04         0.48258E+04         0.00000E+00
    0.48258E+04        -0.44963E+04         0.00000E+00
    0.00000E+00         0.00000E+00        -0.23841E+04
 
   -0.29632E+04         0.49456E+04         0.00000E+00
    0.49456E+04        -0.47189E+04         0.00000E+00
    0.00000E+00         0.00000E+00        -0.23046E+04
 
   -0.24397E+04         0.50769E+04         0.00000E+00
    0.50769E+04        -0.49443E+04         0.00000E+00
    0.00000E+00         0.00000E+00        -0.22152E+04
 
   -0.74852E+04         0.99252E+02         0.00000E+00
    0.99252E+02        -0.21112E+01         0.00000E+00
    0.00000E+00         0.00000E+00        -0.22462E+04
 
   -0.77067E+04         0.31593E+03         0.00000E+00
    0.31593E+03        -0.14128E+02         0.00000E+00
    0.00000E+00         0.00000E+00        -0.23163E+04
 
   -0.78985E+04         0.55937E+03         0.00000E+00
    0.55937E+03        -0.41906E+02         0.00000E+00
    0.00000E+00         0.00000E+00        -0.23821E+04
 
   -0.80519E+04         0.83007E+03         0.00000E+00
    0.83007E+03        -0.91113E+02         0.00000E+00
    0.00000E+00         0.00000E+00        -0.24429E+04
 
   -0.81574E+04         0.11249E+04         0.00000E+00
    0.11249E+04        -0.16767E+03         0.00000E+00
    0.00000E+00         0.00000E+00        -0.24975E+04
 
   -0.82071E+04         0.14373E+04         0.00000E+00
    0.14373E+04        -0.27630E+03         0.00000E+00
    0.00000E+00         0.00000E+00        -0.25450E+04
 
   -0.81958E+04         0.17587E+04         0.00000E+00
    0.17587E+04        -0.41957E+03         0.00000E+00
    0.00000E+00         0.00000E+00        -0.25846E+04
 
   -0.81219E+04         0.20796E+04         0.00000E+00
    0.20796E+04        -0.59746E+03         0.00000E+00
    0.00000E+00         0.00000E+00        -0.26158E+04
 
   -0.79870E+04         0.23907E+04         0.00000E+00
    0.23907E+04        -0.80742E+03         0.00000E+00
    0.00000E+00         0.00000E+00        -0.26383E+04
 
   -0.77960E+04         0.26844E+04         0.00000E+00
    0.26844E+04        -0.10449E+04         0.00000E+00
    0.00000E+00         0.00000E+00        -0.26523E+04
 
   -0.75557E+04         0.29550E+04         0.00000E+00
    0.29550E+04        -0.13040E+04         0.00000E+00
    0.00000E+00         0.00000E+00        -0.26579E+04
 
   -0.72738E+04         0.31990E+04         0.00000E+00
    0.31990E+04        -0.15781E+04         0.00000E+00
    0.00000E+00         0.00000E+00        -0.26556E+04
 
   -0.69584E+04         0.34155E+04         0.00000E+00
    0.34155E+04        -0.18609E+04         0.00000E+00
    0.00000E+00         0.00000E+00        -0.26458E+04
 
   -0.66166E+04         0.36052E+04         0.00000E+00
    0.36052E+04        -0.21463E+04         0.00000E+00
    0.00000E+00         0.00000E+00        -0.26289E+04
 
   -0.62548E+04         0.37707E+04         0.00000E+00
    0.37707E+04        -0.24295E+04         0.00000E+00
    0.00000E+00         0.00000E+00        -0.26053E+04
 
   -0.58775E+04         0.39155E+04         0.00000E+00
    0.39155E+04        -0.27063E+04         0.00000E+00
    0.00000E+00         0.00000E+00        -0.25751E+04
 
   -0.54878E+04         0.40442E+04         0.00000E+00
    0.40442E+04        -0.29742E+04         0.00000E+00
    0.00000E+00         0.00000E+00        -0.25386E+04
 
   -0.50868E+04         0.41613E+04         0.00000E+00
    0.41613E+04        -0.32317E+04         0.00000E+00
    0.00000E+00         0.00000E+00        -0.24955E+04
 
   -0.46740E+04         0.42716E+04         0.00000E+00
    0.42716E+04        -0.34786E+04         0.00000E+00
    0.00000E+00         0.00000E+00        -0.24458E+04
 
   -0.42472E+04         0.43795E+04         0.00000E+00
    0.43795E+04        -0.37159E+04         0.00000E+00
    0.00000E+00         0.00000E+00        -0.23889E+04
 
   -0.38026E+04         0.44886E+04         0.00000E+00
    0.44886E+04        -0.39457E+04         0.00000E+00
    0.00000E+00         0.00000E+00        -0.23245E+04
 
   -0.33354E+04         0.46020E+04         0.00000E+00
    0.46020E+04        -0.41711E+04         0.00000E+00
    0.00000E+00         0.00000E+00        -0.22519E+04
 
   -0.28392E+04         0.47211E+04         0.00000E+00
    0.47211E+04        -0.43957E+04         0.00000E+00
    0.00000E+00         0.00000E+00        -0.21705E+04
 
   -0.23072E+04         0.48466E+04         0.00000E+00
    0.48466E+04        -0.46240E+04         0.00000E+00
    0.00000E+00         0.00000E+00        -0.20794E+04
 
   -0.72869E+04         0.93090E+02         0.00000E+00
    0.93090E+02        -0.25167E+01         0.00000E+00
    0.00000E+00         0.00000E+00        -0.21868E+04
 
   -0.74849E+04         0.29567E+03         0.00000E+00
    0.29567E+03        -0.16224E+02         0.00000E+00
    0.00000E+00         0.00000E+00        -0.22503E+04
 
   -0.76517E+04         0.52092E+03         0.00000E+00
    0.52092E+03        -0.46091E+02         0.00000E+00
    0.00000E+00         0.00000E+00        -0.23093E+04
 
   -0.77816E+04         0.76842E+03         0.00000E+00
    0.76842E+03        -0.95917E+02         0.00000E+00
    0.00000E+00         0.00000E+00        -0.23632E+04
 
   -0.78680E+04         0.10354E+04         0.00000E+00
    0.10354E+04        -0.16976E+03         0.00000E+00
    0.00000E+00         0.00000E+00        -0.24113E+04
 
   -0.79054E+04         0.13168E+04         0.00000E+00
    0.13168E+04        -0.27095E+03         0.00000E+00
    0.00000E+00         0.00000E+00        -0.24529E+04
 
   -0.78898E+04         0.16060E+04         0.00000E+00
    0.16060E+04        -0.40134E+03         0.00000E+00
    0.00000E+00         0.00000E+00        -0.24873E+04
 
   -0.78200E+04         0.18958E+04         0.00000E+00
    0.18958E+04        -0.56096E+03         0.00000E+00
    0.00000E+00         0.00000E+00        -0.25143E+04
 
   -0.76969E+04         0.21790E+04         0.00000E+00
    0.21790E+04        -0.74800E+03         0.00000E+00
    0.00000E+00         0.00000E+00        -0.25335E+04
 
   -0.75238E+04         0.24494E+04         0.00000E+00
    0.24494E+04        -0.95907E+03         0.00000E+00
    0.00000E+00         0.00000E+00        -0.25449E+04
 
   -0.73056E+04         0.27022E+04         0.00000E+00
    0.27022E+04        -0.11897E+04         0.00000E+00
    0.00000E+00         0.00000E+00        -0.25486E+04
 
   -0.70480E+04         0.29344E+04         0.00000E+00
    0.29344E+04        -0.14348E+04         0.00000E+00
    0.00000E+00         0.00000E+00        -0.25448E+04
 
   -0.67572E+04         0.31446E+04         0.00000E+00
    0.31446E+04        -0.16892E+04         0.00000E+00
    0.00000E+00         0.00000E+00        -0.25339E+04
 
   -0.64388E+04         0.33332E+04         0.00000E+00
    0.33332E+04        -0.19481E+04         0.00000E+00
    0.00000E+00         0.00000E+00        -0.25161E+04
 
   -0.60976E+04         0.35016E+04         0.00000E+00
    0.35016E+04        -0.22073E+04         0.00000E+00
    0.00000E+00         0.00000E+00        -0.24915E+04
 
   -0.57376E+04         0.36525E+04         0.00000E+00
    0.36525E+04        -0.24634E+04         0.00000E+00
    0.00000E+00         0.00000E+00        -0.24603E+04
 
   -0.53610E+04         0.37891E+04         0.00000E+00
    0.37891E+04        -0.27141E+04         0.00000E+00
    0.00000E+00         0.00000E+00        -0.24225E+04
 
   -0.49690E+04         0.39150E+04         0.00000E+00
    0.39150E+04        -0.29582E+04         0.00000E+00
    0.00000E+00         0.00000E+00        -0.23782E+04
 
   -0.45612E+04         0.40338E+04         0.00000E+00
    0.40338E+04        -0.31952E+04         0.00000E+00
    0.00000E+00         0.00000E+00        -0.23269E+04
 
   -0.41358E+04         0.41488E+04         0.00000E+00
    0.41488E+04        -0.34260E+04         0.00000E+00
    0.00000E+00         0.00000E+00        -0.22686E+04
 
   -0.36899E+04         0.42628E+04         0.00000E+00
    0.42628E+04        -0.36522E+04         0.00000E+00
    0.00000E+00         0.00000E+00        -0.22026E+04
 
   -0.32192E+04         0.43778E+04         0.00000E+00
    0.43778E+04        -0.38762E+04         0.00000E+00
    0.00000E+00         0.00000E+00        -0.21286E+04
 
   -0.27189E+04         0.44950E+04         0.00000E+00
    0.44950E+04        -0.41010E+04         0.00000E+00
    0.00000E+00         0.00000E+00        -0.20460E+04
 
   -0.21831E+04         0.46142E+04         0.00000E+00
    0.46142E+04        -0.43302E+04         0.00000E+00
    0.00000E+00         0.00000E+00        -0.19540E+04
 
   -0.71021E+04         0.86273E+02         0.00000E+00
    0.86273E+02        -0.26694E+01         0.00000E+00
    0.00000E+00         0.00000E+00        -0.21314E+04
 
   -0.72791E+04         0.27404E+03         0.00000E+00
    0.27404E+03        -0.16953E+02         0.00000E+00
    0.00000E+00         0.00000E+00        -0.21888E+04
 
   -0.74249E+04         0.48172E+03         0.00000E+00
    0.48172E+03        -0.47211E+02         0.00000E+00
    0.00000E+00         0.00000E+00        -0.22416E+04
 
   -0.75354E+04         0.70824E+03         0.00000E+00
    0.70824E+03        -0.96044E+02         0.00000E+00
    0.00000E+00         0.00000E+00        -0.22894E+04
 
   -0.76061E+04         0.95099E+03         0.00000E+00
    0.95099E+03        -0.16625E+03         0.00000E+00
    0.00000E+00         0.00000E+00        -0.23317E+04
 
   -0.76330E+04         0.12059E+04         0.00000E+00
    0.12059E+04        -0.26014E+03         0.00000E+00
    0.00000E+00         0.00000E+00        -0.23679E+04
 
   -0.76132E+04         0.14679E+04         0.00000E+00
    0.14679E+04        -0.37905E+03         0.00000E+00
    0.00000E+00         0.00000E+00        -0.23977E+04
 
   -0.75456E+04         0.17312E+04         0.00000E+00
    0.17312E+04        -0.52297E+03         0.00000E+00
    0.00000E+00         0.00000E+00        -0.24206E+04
 
   -0.74309E+04         0.19901E+04         0.00000E+00
    0.19901E+04        -0.69059E+03         0.00000E+00
    0.00000E+00         0.00000E+00        -0.24364E+04
 
   -0.72711E+04         0.22398E+04         0.00000E+00
    0.22398E+04        -0.87936E+03         0.00000E+00
    0.00000E+00         0.00000E+00        -0.24451E+04
 
   -0.70699E+04         0.24762E+04         0.00000E+00
    0.24762E+04        -0.10859E+04         0.00000E+00
    0.00000E+00         0.00000E+00        -0.24467E+04
 
   -0.68315E+04         0.26966E+04         0.00000E+00
    0.26966E+04        -0.13062E+04         0.00000E+00
    0.00000E+00         0.00000E+00        -0.24413E+04
 
   -0.65604E+04         0.28995E+04         0.00000E+00
    0.28995E+04        -0.15362E+04         0.00000E+00
    0.00000E+00         0.00000E+00        -0.24290E+04
 
   -0.62611E+04         0.30849E+04         0.00000E+00
    0.30849E+04        -0.17720E+04         0.00000E+00
    0.00000E+00         0.00000E+00        -0.24099E+04
 
   -0.59373E+04         0.32537E+04         0.00000E+00
    0.32537E+04        -0.20101E+04         0.00000E+00
    0.00000E+00         0.00000E+00        -0.23842E+04
 
   -0.55921E+04         0.34075E+04         0.00000E+00
    0.34075E+04        -0.22477E+04         0.00000E+00
    0.00000E+00         0.00000E+00        -0.23519E+04
 
   -0.52274E+04         0.35488E+04         0.00000E+00
    0.35488E+04        -0.24829E+04         0.00000E+00
    0.00000E+00         0.00000E+00        -0.23131E+04
 
   -0.48442E+04         0.36801E+04         0.00000E+00
    0.36801E+04        -0.27144E+04         0.00000E+00
    0.00000E+00         0.00000E+00        -0.22676E+04
 
   -0.44421E+04         0.38042E+04         0.00000E+00
    0.38042E+04        -0.29419E+04         0.00000E+00
    0.00000E+00         0.00000E+00        -0.22152E+04
 
   -0.40198E+04         0.39234E+04         0.00000E+00
    0.39234E+04        -0.31660E+04         0.00000E+00
    0.00000E+00         0.00000E+00        -0.21557E+04
 
   -0.35748E+04         0.40398E+04         0.00000E+00
    0.40398E+04        -0.33877E+04         0.00000E+00
    0.00000E+00         0.00000E+00        -0.20888E+04
 
   -0.31039E+04         0.41548E+04         0.00000E+00
    0.41548E+04        -0.36092E+04         0.00000E+00
    0.00000E+00         0.00000E+00        -0.20139E+04
 
   -0.26029E+04         0.42689E+04         0.00000E+00
    0.42689E+04        -0.38328E+04         0.00000E+00
    0.00000E+00         0.00000E+00        -0.19307E+04
 
   -0.20673E+04         0.43817E+04         0.00000E+00
    0.43817E+04        -0.40614E+04         0.00000E+00
    0.00000E+00         0.00000E+00        -0.18386E+04
 
   -0.69315E+04         0.79309E+02         0.00000E+00
    0.79309E+02        -0.26622E+01         0.00000E+00
    0.00000E+00         0.00000E+00        -0.20802E+04
 
   -0.70892E+04         0.25226E+03         0.00000E+00
    0.25226E+03        -0.16807E+02         0.00000E+00
    0.00000E+00         0.00000E+00        -0.21318E+04
 
   -0.72166E+04         0.44322E+03         0.00000E+00
    0.44322E+03        -0.46357E+02         0.00000E+00
    0.00000E+00         0.00000E+00        -0.21789E+04
 
   -0.73106E+04         0.65064E+03         0.00000E+00
    0.65064E+03        -0.93154E+02         0.00000E+00
    0.00000E+00         0.00000E+00        -0.22211E+04
 
   -0.73679E+04         0.87206E+03         0.00000E+00
    0.87206E+03        -0.15916E+03         0.00000E+00
    0.00000E+00         0.00000E+00        -0.22581E+04
 
   -0.73857E+04         0.11041E+04         0.00000E+00
    0.11041E+04        -0.24598E+03         0.00000E+00
    0.00000E+00         0.00000E+00        -0.22895E+04
 
   -0.73618E+04         0.13425E+04         0.00000E+00
    0.13425E+04        -0.35456E+03         0.00000E+00
    0.00000E+00         0.00000E+00        -0.23149E+04
 
   -0.72951E+04         0.15829E+04         0.00000E+00
    0.15829E+04        -0.48486E+03         0.00000E+00
    0.00000E+00         0.00000E+00        -0.23340E+04
 
   -0.71861E+04         0.18207E+04         0.00000E+00
    0.18207E+04        -0.63588E+03         0.00000E+00
    0.00000E+00         0.00000E+00        -0.23466E+04
 
   -0.70363E+04         0.20518E+04         0.00000E+00
    0.20518E+04        -0.80572E+03         0.00000E+00
    0.00000E+00         0.00000E+00        -0.23526E+04
 
   -0.68480E+04         0.22729E+04         0.00000E+00
    0.22729E+04        -0.99173E+03         0.00000E+00
    0.00000E+00         0.00000E+00        -0.23519E+04
 
   -0.66246E+04         0.24817E+04         0.00000E+00
    0.24817E+04        -0.11909E+04         0.00000E+00
    0.00000E+00         0.00000E+00        -0.23446E+04
 
   -0.63694E+04         0.26766E+04         0.00000E+00
    0.26766E+04        -0.13998E+04         0.00000E+00
    0.00000E+00         0.00000E+00        -0.23308E+04
 
   -0.60856E+04         0.28574E+04         0.00000E+00
    0.28574E+04        -0.16156E+04         0.00000E+00
    0.00000E+00         0.00000E+00        -0.23104E+04
 
   -0.57764E+04         0.30244E+04         0.00000E+00
    0.30244E+04        -0.18352E+04         0.00000E+00
    0.00000E+00         0.00000E+00        -0.22835E+04
 
   -0.54440E+04         0.31786E+04         0.00000E+00
    0.31786E+04        -0.20565E+04         0.00000E+00
    0.00000E+00         0.00000E+00        -0.22502E+04
 
   -0.50901E+04         0.33219E+04         0.00000E+00
    0.33219E+04        -0.22776E+04         0.00000E+00
    0.00000E+00         0.00000E+00        -0.22103E+04
 
   -0.47153E+04         0.34559E+04         0.00000E+00
    0.34559E+04        -0.24975E+04         0.00000E+00
    0.00000E+00         0.00000E+00        -0.21638E+04
 
   -0.43195E+04         0.35826E+04         0.00000E+00
    0.35826E+04        -0.27158E+04         0.00000E+00
    0.00000E+00         0.00000E+00        -0.21106E+04
 
   -0.39014E+04         0.37037E+04         0.00000E+00
    0.37037E+04        -0.29330E+04         0.00000E+00
    0.00000E+00         0.00000E+00        -0.20503E+04
 
   -0.34594E+04         0.38206E+04         0.00000E+00
    0.38206E+04        -0.31499E+04         0.00000E+00
    0.00000E+00         0.00000E+00        -0.19828E+04
 
   -0.29906E+04         0.39341E+04         0.00000E+00
    0.39341E+04        -0.33680E+04         0.00000E+00
    0.00000E+00         0.00000E+00        -0.19076E+04
 
   -0.24919E+04         0.40443E+04         0.00000E+00
    0.40443E+04        -0.35892E+04         0.00000E+00
    0.00000E+00         0.00000E+00        -0.18243E+04
 
   -0.19597E+04         0.41505E+04         0.00000E+00
    0.41505E+04        -0.38159E+04         0.00000E+00
    0.00000E+00         0.00000E+00        -0.17327E+04
 
   -0.67748E+04         0.72512E+02         0.00000E+00
    0.72512E+02        -0.25588E+01         0.00000E+00
    0.00000E+00         0.00000E+00        -0.20332E+04
 
   -0.69146E+04         0.23113E+03         0.00000E+00
    0.23113E+03        -0.16130E+02         0.00000E+00
    0.00000E+00         0.00000E+00        -0.20792E+04
 
   -0.70255E+04         0.40632E+03         0.00000E+00
    0.40632E+03        -0.44303E+02         0.00000E+00
    0.00000E+00         0.00000E+00        -0.21209E+04
 
   -0.71050E+04         0.59629E+03         0.00000E+00
    0.59629E+03        -0.88452E+02         0.00000E+00
    0.00000E+00         0.00000E+00        -0.21580E+04
 
   -0.71507E+04         0.79868E+03         0.00000E+00
    0.79868E+03        -0.14999E+03         0.00000E+00
    0.00000E+00         0.00000E+00        -0.21902E+04
 
   -0.71603E+04         0.10106E+04         0.00000E+00
    0.10106E+04        -0.23006E+03         0.00000E+00
    0.00000E+00         0.00000E+00        -0.22171E+04
 
   -0.71322E+04         0.12285E+04         0.00000E+00
    0.12285E+04        -0.32931E+03         0.00000E+00
    0.00000E+00         0.00000E+00        -0.22384E+04
 
   -0.70654E+04         0.14488E+04         0.00000E+00
    0.14488E+04        -0.44770E+03         0.00000E+00
    0.00000E+00         0.00000E+00        -0.22539E+04
 
   -0.69602E+04         0.16678E+04         0.00000E+00
    0.16678E+04        -0.58445E+03         0.00000E+00
    0.00000E+00         0.00000E+00        -0.22634E+04
 
   -0.68176E+04         0.18821E+04         0.00000E+00
    0.18821E+04        -0.73809E+03         0.00000E+00
    0.00000E+00         0.00000E+00        -0.22667E+04
 
   -0.66393E+04         0.20891E+04         0.00000E+00
    0.20891E+04        -0.90661E+03         0.00000E+00
    0.00000E+00         0.00000E+00        -0.22638E+04
 
   -0.64276E+04         0.22865E+04         0.00000E+00
    0.22865E+04        -0.10876E+04         0.00000E+00
    0.00000E+00         0.00000E+00        -0.22546E+04
 
   -0.61850E+04         0.24730E+04         0.00000E+00
    0.24730E+04        -0.12785E+04         0.00000E+00
    0.00000E+00         0.00000E+00        -0.22391E+04
 
   -0.59141E+04         0.26479E+04         0.00000E+00
    0.26479E+04        -0.14769E+04         0.00000E+00
    0.00000E+00         0.00000E+00        -0.22173E+04
 
   -0.56171E+04         0.28115E+04         0.00000E+00
    0.28115E+04        -0.16803E+04         0.00000E+00
    0.00000E+00         0.00000E+00        -0.21892E+04
 
   -0.52958E+04         0.29643E+04         0.00000E+00
    0.29643E+04        -0.18870E+04         0.00000E+00
    0.00000E+00         0.00000E+00        -0.21548E+04
 
   -0.49515E+04         0.31072E+04         0.00000E+00
    0.31072E+04        -0.20954E+04         0.00000E+00
    0.00000E+00         0.00000E+00        -0.21141E+04
 
   -0.45848E+04         0.32417E+04         0.00000E+00
    0.32417E+04        -0.23046E+04         0.00000E+00
    0.00000E+00         0.00000E+00        -0.20668E+04
 
   -0.41955E+04         0.33688E+04         0.00000E+00
    0.33688E+04        -0.25143E+04         0.00000E+00
    0.00000E+00         0.00000E+00        -0.20129E+04
 
   -0.37828E+04         0.34899E+04         0.00000E+00
    0.34899E+04        -0.27246E+04         0.00000E+00
    0.00000E+00         0.00000E+00        -0.19522E+04
 
   -0.33451E+04         0.36056E+04         0.00000E+00
    0.36056E+04        -0.29363E+04         0.00000E+00
    0.00000E+00         0.00000E+00        -0.18844E+04
 
   -0.28805E+04         0.37165E+04         0.00000E+00
    0.37165E+04        -0.31504E+04         0.00000E+00
    0.00000E+00         0.00000E+00        -0.18093E+04
 
   -0.23863E+04         0.38222E+04         0.00000E+00
    0.38222E+04        -0.33684E+04         0.00000E+00
    0.00000E+00         0.00000E+00        -0.17264E+04
 
   -0.18598E+04         0.39218E+04         0.00000E+00
    0.39218E+04        -0.35921E+04         0.00000E+00
    0.00000E+00         0.00000E+00        -0.16356E+04
 
   -0.66317E+04         0.66064E+02         0.00000E+00
    0.66064E+02        -0.24026E+01         0.00000E+00
    0.00000E+00         0.00000E+00        -0.19902E+04
 
   -0.67547E+04         0.21109E+03         0.00000E+00
    0.21109E+03        -0.15160E+02         0.00000E+00
    0.00000E+00         0.00000E+00        -0.20309E+04
 
   -0.68504E+04         0.37155E+03         0.00000E+00
    0.37155E+03        -0.41591E+02         0.00000E+00
    0.00000E+00         0.00000E+00        -0.20676E+04
 
   -0.69169E+04         0.54553E+03         0.00000E+00
    0.54553E+03        -0.82789E+02         0.00000E+00
    0.00000E+00         0.00000E+00        -0.20999E+04
 
   -0.69521E+04         0.73078E+03         0.00000E+00
    0.73078E+03        -0.13982E+03         0.00000E+00
    0.00000E+00         0.00000E+00        -0.21276E+04
 
   -0.69542E+04         0.92472E+03         0.00000E+00
    0.92472E+03        -0.21352E+03         0.00000E+00
    0.00000E+00         0.00000E+00        -0.21503E+04
 
   -0.69218E+04         0.11244E+04         0.00000E+00
    0.11244E+04        -0.30436E+03         0.00000E+00
    0.00000E+00         0.00000E+00        -0.21678E+04
 
   -0.68542E+04         0.13269E+04         0.00000E+00
    0.13269E+04        -0.41228E+03         0.00000E+00
    0.00000E+00         0.00000E+00        -0.21799E+04
 
   -0.67513E+04         0.15291E+04         0.00000E+00
    0.15291E+04        -0.53668E+03         0.00000E+00
    0.00000E+00         0.00000E+00        -0.21864E+04
 
   -0.66139E+04         0.17282E+04         0.00000E+00
    0.17282E+04        -0.67643E+03         0.00000E+00
    0.00000E+00         0.00000E+00        -0.21871E+04
 
   -0.64431E+04         0.19218E+04         0.00000E+00
    0.19218E+04        -0.82996E+03         0.00000E+00
    0.00000E+00         0.00000E+00        -0.21819E+04
 
   -0.62405E+04         0.21082E+04         0.00000E+00
    0.21082E+04        -0.99541E+03         0.00000E+00
    0.00000E+00         0.00000E+00        -0.21708E+04
 
   -0.60081E+04         0.22859E+04         0.00000E+00
    0.22859E+04        -0.11708E+04         0.00000E+00
    0.00000E+00         0.00000E+00        -0.21536E+04
 
   -0.57476E+04         0.24542E+04         0.00000E+00
    0.24542E+04        -0.13540E+04         0.00000E+00
    0.00000E+00         0.00000E+00        -0.21305E+04
 
   -0.54609E+04         0.26131E+04         0.00000E+00
    0.26131E+04        -0.15433E+04         0.00000E+00
    0.00000E+00         0.00000E+00        -0.21013E+04
 
   -0.51492E+04         0.27628E+04         0.00000E+00
    0.27628E+04        -0.17371E+04         0.00000E+00
    0.00000E+00         0.00000E+00        -0.20659E+04
 
   -0.48137E+04         0.29037E+04         0.00000E+00
    0.29037E+04        -0.19341E+04         0.00000E+00
    0.00000E+00         0.00000E+00        -0.20243E+04
 
   -0.44547E+04         0.30368E+04         0.00000E+00
    0.30368E+04        -0.21335E+04         0.00000E+00
    0.00000E+00         0.00000E+00        -0.19764E+04
 
   -0.40721E+04         0.31627E+04         0.00000E+00
    0.31627E+04        -0.23350E+04         0.00000E+00
    0.00000E+00         0.00000E+00        -0.19221E+04
 
   -0.36654E+04         0.32821E+04         0.00000E+00
    0.32821E+04        -0.25386E+04         0.00000E+00
    0.00000E+00         0.00000E+00        -0.18612E+04
 
   -0.32333E+04         0.33954E+04         0.00000E+00
    0.33954E+04        -0.27448E+04         0.00000E+00
    0.00000E+00         0.00000E+00        -0.17934E+04
 
   -0.27742E+04         0.35027E+04         0.00000E+00
    0.35027E+04        -0.29544E+04         0.00000E+00
    0.00000E+00         0.00000E+00        -0.17186E+04
 
   -0.22864E+04         0.36034E+04         0.00000E+00
    0.36034E+04        -0.31686E+04         0.00000E+00
    0.00000E+00         0.00000E+00        -0.16365E+04
 
   -0.17676E+04         0.36965E+04         0.00000E+00
    0.36965E+04        -0.33886E+04         0.00000E+00
    0.00000E+00         0.00000E+00        -0.15469E+04
 
   -0.65012E+04         0.60059E+02         0.00000E+00
    0.60059E+02        -0.22221E+01         0.00000E+00
    0.00000E+00         0.00000E+00        -0.19510E+04
 
   -0.66083E+04         0.19239E+03         0.00000E+00
    0.19239E+03        -0.14055E+02         0.00000E+00
    0.00000E+00         0.00000E+00        -0.19867E+04
 
   -0.66901E+04         0.33916E+03         0.00000E+00
    0.33916E+03        -0.38588E+02         0.00000E+00
    0.00000E+00         0.00000E+00        -0.20186E+04
 
   -0.67447E+04         0.49845E+03         0.00000E+00
    0.49845E+03        -0.76754E+02         0.00000E+00
    0.00000E+00         0.00000E+00        -0.20464E+04
 
   -0.67702E+04         0.66815E+03         0.00000E+00
    0.66815E+03        -0.12940E+03         0.00000E+00
    0.00000E+00         0.00000E+00        -0.20699E+04
 
   -0.67652E+04         0.84595E+03         0.00000E+00
    0.84595E+03        -0.19719E+03         0.00000E+00
    0.00000E+00         0.00000E+00        -0.20887E+04
 
   -0.67285E+04         0.10293E+04         0.00000E+00
    0.10293E+04        -0.28045E+03         0.00000E+00
    0.00000E+00         0.00000E+00        -0.21027E+04
 
   -0.66594E+04         0.12158E+04         0.00000E+00
    0.12158E+04        -0.37915E+03         0.00000E+00
    0.00000E+00         0.00000E+00        -0.21116E+04
 
   -0.65578E+04         0.14027E+04         0.00000E+00
    0.14027E+04        -0.49282E+03         0.00000E+00
    0.00000E+00         0.00000E+00        -0.21152E+04
 
   -0.64240E+04         0.15877E+04         0.00000E+00
    0.15877E+04        -0.62059E+03         0.00000E+00
    0.00000E+00         0.00000E+00        -0.21134E+04
 
   -0.62588E+04         0.17688E+04         0.00000E+00
    0.17688E+04        -0.76124E+03         0.00000E+00
    0.00000E+00         0.00000E+00        -0.21060E+04
 
   -0.60633E+04         0.19444E+04         0.00000E+00
    0.19444E+04        -0.91331E+03         0.00000E+00
    0.00000E+00         0.00000E+00        -0.20930E+04
 
   -0.58390E+04         0.21131E+04         0.00000E+00
    0.21131E+04        -0.10752E+04         0.00000E+00
    0.00000E+00         0.00000E+00        -0.20743E+04
 
   -0.55871E+04         0.22743E+04         0.00000E+00
    0.22743E+04        -0.12454E+04         0.00000E+00
    0.00000E+00         0.00000E+00        -0.20498E+04
 
   -0.53091E+04         0.24275E+04         0.00000E+00
    0.24275E+04        -0.14223E+04         0.00000E+00
    0.00000E+00         0.00000E+00        -0.20194E+04
 
   -0.50059E+04         0.25728E+04         0.00000E+00
    0.25728E+04        -0.16046E+04         0.00000E+00
    0.00000E+00         0.00000E+00        -0.19831E+04
 
   -0.46782E+04         0.27104E+04         0.00000E+00
    0.27104E+04        -0.17913E+04         0.00000E+00
    0.00000E+00         0.00000E+00        -0.19409E+04
 
   -0.43266E+04         0.28406E+04         0.00000E+00
    0.28406E+04        -0.19817E+04         0.00000E+00
    0.00000E+00         0.00000E+00        -0.18925E+04
 
   -0.39508E+04         0.29638E+04         0.00000E+00
    0.29638E+04        -0.21755E+04         0.00000E+00
    0.00000E+00         0.00000E+00        -0.18379E+04
 
   -0.35505E+04         0.30803E+04         0.00000E+00
    0.30803E+04        -0.23726E+04         0.00000E+00
    0.00000E+00         0.00000E+00        -0.17769E+04
 
   -0.31248E+04         0.31902E+04         0.00000E+00
    0.31902E+04        -0.25733E+04         0.00000E+00
    0.00000E+00         0.00000E+00        -0.17094E+04
 
   -0.26725E+04         0.32932E+04         0.00000E+00
    0.32932E+04        -0.27782E+04         0.00000E+00
    0.00000E+00         0.00000E+00        -0.16352E+04
 
   -0.21923E+04         0.33886E+04         0.00000E+00
    0.33886E+04        -0.29881E+04         0.00000E+00
    0.00000E+00         0.00000E+00        -0.15541E+04
 
   -0.16825E+04         0.34752E+04         0.00000E+00
    0.34752E+04        -0.32039E+04         0.00000E+00
    0.00000E+00         0.00000E+00        -0.14659E+04
 
   -0.63825E+04         0.54530E+02         0.00000E+00
    0.54530E+02        -0.20362E+01         0.00000E+00
    0.00000E+00         0.00000E+00        -0.19154E+04
 
   -0.64747E+04         0.17510E+03         0.00000E+00
    0.17510E+03        -0.12921E+02         0.00000E+00
    0.00000E+00         0.00000E+00        -0.19463E+04
 
   -0.65435E+04         0.30921E+03         0.00000E+00
    0.30921E+03        -0.35542E+02         0.00000E+00
    0.00000E+00         0.00000E+00        -0.19737E+04
 
   -0.65869E+04         0.45498E+03         0.00000E+00
    0.45498E+03        -0.70742E+02         0.00000E+00
    0.00000E+00         0.00000E+00        -0.19973E+04
 
   -0.66035E+04         0.61047E+03         0.00000E+00
    0.61047E+03        -0.11925E+03         0.00000E+00
    0.00000E+00         0.00000E+00        -0.20168E+04
 
   -0.65918E+04         0.77359E+03         0.00000E+00
    0.77359E+03        -0.18159E+03         0.00000E+00
    0.00000E+00         0.00000E+00        -0.20320E+04
 
   -0.65508E+04         0.94216E+03         0.00000E+00
    0.94216E+03        -0.25807E+03         0.00000E+00
    0.00000E+00         0.00000E+00        -0.20427E+04
 
   -0.64797E+04         0.11140E+04         0.00000E+00
    0.11140E+04        -0.34864E+03         0.00000E+00
    0.00000E+00         0.00000E+00        -0.20485E+04
 
   -0.63784E+04         0.12869E+04         0.00000E+00
    0.12869E+04        -0.45296E+03         0.00000E+00
    0.00000E+00         0.00000E+00        -0.20494E+04
 
   -0.62470E+04         0.14588E+04         0.00000E+00
    0.14588E+04        -0.57036E+03         0.00000E+00
    0.00000E+00         0.00000E+00        -0.20452E+04
 
   -0.60859E+04         0.16281E+04         0.00000E+00
    0.16281E+04        -0.69990E+03         0.00000E+00
    0.00000E+00         0.00000E+00        -0.20357E+04
 
   -0.58960E+04         0.17931E+04         0.00000E+00
    0.17931E+04        -0.84044E+03         0.00000E+00
    0.00000E+00         0.00000E+00        -0.20209E+04
 
   -0.56781E+04         0.19528E+04         0.00000E+00
    0.19528E+04        -0.99073E+03         0.00000E+00
    0.00000E+00         0.00000E+00        -0.20007E+04
 
   -0.54334E+04         0.21063E+04         0.00000E+00
    0.21063E+04        -0.11495E+04         0.00000E+00
    0.00000E+00         0.00000E+00        -0.19749E+04
 
   -0.51627E+04         0.22531E+04         0.00000E+00
    0.22531E+04        -0.13155E+04         0.00000E+00
    0.00000E+00         0.00000E+00        -0.19435E+04
 
   -0.48669E+04         0.23931E+04         0.00000E+00
    0.23931E+04        -0.14877E+04         0.00000E+00
    0.00000E+00         0.00000E+00        -0.19064E+04
 
   -0.45465E+04         0.25261E+04         0.00000E+00
    0.25261E+04        -0.16652E+04         0.00000E+00
    0.00000E+00         0.00000E+00        -0.18635E+04
 
   -0.42018E+04         0.26523E+04         0.00000E+00
    0.26523E+04        -0.18474E+04         0.00000E+00
    0.00000E+00         0.00000E+00        -0.18148E+04
 
   -0.38328E+04         0.27718E+04         0.00000E+00
    0.27718E+04        -0.20340E+04         0.00000E+00
    0.00000E+00         0.00000E+00        -0.17600E+04
 
   -0.34393E+04         0.28844E+04         0.00000E+00
    0.28844E+04        -0.22248E+04         0.00000E+00
    0.00000E+00         0.00000E+00        -0.16992E+04
 
   -0.30205E+04         0.29901E+04         0.00000E+00
    0.29901E+04        -0.24201E+04         0.00000E+00
    0.00000E+00         0.00000E+00        -0.16322E+04
 
   -0.25758E+04         0.30883E+04         0.00000E+00
    0.30883E+04        -0.26201E+04         0.00000E+00
    0.00000E+00         0.00000E+00        -0.15588E+04
 
   -0.21041E+04         0.31782E+04         0.00000E+00
    0.31782E+04        -0.28254E+04         0.00000E+00
    0.00000E+00         0.00000E+00        -0.14788E+04
 
   -0.16043E+04         0.32585E+04         0.00000E+00
    0.32585E+04        -0.30366E+04         0.00000E+00
    0.00000E+00         0.00000E+00        -0.13923E+04
 
   -0.62746E+04         0.49474E+02         0.00000E+00
    0.49474E+02        -0.18563E+01         0.00000E+00
    0.00000E+00         0.00000E+00        -0.18829E+04
 
   -0.63529E+04         0.15921E+03         0.00000E+00
    0.15921E+03        -0.11823E+02         0.00000E+00
    0.00000E+00         0.00000E+00        -0.19094E+04
 
   -0.64094E+04         0.28162E+03         0.00000E+00
    0.28162E+03        -0.32607E+02         0.00000E+00
    0.00000E+00         0.00000E+00        -0.19326E+04
 
   -0.64425E+04         0.41494E+03         0.00000E+00
    0.41494E+03        -0.65005E+02         0.00000E+00
    0.00000E+00         0.00000E+00        -0.19523E+04
 
   -0.64507E+04         0.55737E+03         0.00000E+00
    0.55737E+03        -0.10967E+03         0.00000E+00
    0.00000E+00         0.00000E+00        -0.19681E+04
 
   -0.64325E+04         0.70703E+03         0.00000E+00
    0.70703E+03        -0.16708E+03         0.00000E+00
    0.00000E+00         0.00000E+00        -0.19799E+04
 
   -0.63872E+04         0.86202E+03         0.00000E+00
    0.86202E+03        -0.23749E+03         0.00000E+00
    0.00000E+00         0.00000E+00        -0.19874E+04
 
   -0.63138E+04         0.10204E+04         0.00000E+00
    0.10204E+04        -0.32091E+03         0.00000E+00
    0.00000E+00         0.00000E+00        -0.19904E+04
 
   -0.62121E+04         0.11803E+04         0.00000E+00
    0.11803E+04        -0.41708E+03         0.00000E+00
    0.00000E+00         0.00000E+00        -0.19888E+04
 
   -0.60821E+04         0.13400E+04         0.00000E+00
    0.13400E+04        -0.52550E+03         0.00000E+00
    0.00000E+00         0.00000E+00        -0.19823E+04
 
   -0.59240E+04         0.14979E+04         0.00000E+00
    0.14979E+04        -0.64544E+03         0.00000E+00
    0.00000E+00         0.00000E+00        -0.19708E+04
 
   -0.57384E+04         0.16527E+04         0.00000E+00
    0.16527E+04        -0.77600E+03         0.00000E+00
    0.00000E+00         0.00000E+00        -0.19543E+04
 
   -0.55257E+04         0.18032E+04         0.00000E+00
    0.18032E+04        -0.91621E+03         0.00000E+00
    0.00000E+00         0.00000E+00        -0.19326E+04
 
   -0.52869E+04         0.19487E+04         0.00000E+00
    0.19487E+04        -0.10650E+04         0.00000E+00
    0.00000E+00         0.00000E+00        -0.19056E+04
 
   -0.50225E+04         0.20886E+04         0.00000E+00
    0.20886E+04        -0.12215E+04         0.00000E+00
    0.00000E+00         0.00000E+00        -0.18732E+04
 
   -0.47332E+04         0.22225E+04         0.00000E+00
    0.22225E+04        -0.13847E+04         0.00000E+00
    0.00000E+00         0.00000E+00        -0.18354E+04
 
   -0.44193E+04         0.23502E+04         0.00000E+00
    0.23502E+04        -0.15540E+04         0.00000E+00
    0.00000E+00         0.00000E+00        -0.17920E+04
 
   -0.40813E+04         0.24715E+04         0.00000E+00
    0.24715E+04        -0.17287E+04         0.00000E+00
    0.00000E+00         0.00000E+00        -0.17430E+04
 
   -0.37190E+04         0.25863E+04         0.00000E+00
    0.25863E+04        -0.19086E+04         0.00000E+00
    0.00000E+00         0.00000E+00        -0.16883E+04
 
   -0.33324E+04         0.26943E+04         0.00000E+00
    0.26943E+04        -0.20935E+04         0.00000E+00
    0.00000E+00         0.00000E+00        -0.16277E+04
 
   -0.29210E+04         0.27951E+04         0.00000E+00
    0.27951E+04        -0.22833E+04         0.00000E+00
    0.00000E+00         0.00000E+00        -0.15613E+04
 
   -0.24843E+04         0.28882E+04         0.00000E+00
    0.28882E+04        -0.24784E+04         0.00000E+00
    0.00000E+00         0.00000E+00        -0.14888E+04
 
   -0.20217E+04         0.29724E+04         0.00000E+00
    0.29724E+04        -0.26789E+04         0.00000E+00
    0.00000E+00         0.00000E+00        -0.14102E+04
 
   -0.15326E+04         0.30466E+04         0.00000E+00
    0.30466E+04        -0.28853E+04         0.00000E+00
    0.00000E+00         0.00000E+00        -0.13254E+04
 
   -0.61767E+04         0.44868E+02         0.00000E+00
    0.44868E+02        -0.16894E+01         0.00000E+00
    0.00000E+00         0.00000E+00        -0.18535E+04
 
   -0.62418E+04         0.14466E+03         0.00000E+00
    0.14466E+03        -0.10802E+02         0.00000E+00
    0.00000E+00         0.00000E+00        -0.18758E+04
 
   -0.62870E+04         0.25627E+03         0.00000E+00
    0.25627E+03        -0.29879E+02         0.00000E+00
    0.00000E+00         0.00000E+00        -0.18951E+04
 
   -0.63104E+04         0.37808E+03         0.00000E+00
    0.37808E+03        -0.59694E+02         0.00000E+00
    0.00000E+00         0.00000E+00        -0.19110E+04
 
   -0.63106E+04         0.50844E+03         0.00000E+00
    0.50844E+03        -0.10087E+03         0.00000E+00
    0.00000E+00         0.00000E+00        -0.19234E+04
 
   -0.62863E+04         0.64568E+03         0.00000E+00
    0.64568E+03        -0.15384E+03         0.00000E+00
    0.00000E+00         0.00000E+00        -0.19320E+04
 
   -0.62366E+04         0.78810E+03         0.00000E+00
    0.78810E+03        -0.21887E+03         0.00000E+00
    0.00000E+00         0.00000E+00        -0.19366E+04
 
   -0.61607E+04         0.93401E+03         0.00000E+00
    0.93401E+03        -0.29601E+03         0.00000E+00
    0.00000E+00         0.00000E+00        -0.19370E+04
 
   -0.60581E+04         0.10818E+04         0.00000E+00
    0.10818E+04        -0.38507E+03         0.00000E+00
    0.00000E+00         0.00000E+00        -0.19330E+04
 
   -0.59288E+04         0.12299E+04         0.00000E+00
    0.12299E+04        -0.48569E+03         0.00000E+00
    0.00000E+00         0.00000E+00        -0.19244E+04
 
   -0.57728E+04         0.13769E+04         0.00000E+00
    0.13769E+04        -0.59731E+03         0.00000E+00
    0.00000E+00         0.00000E+00        -0.19110E+04
 
   -0.55904E+04         0.15216E+04         0.00000E+00
    0.15216E+04        -0.71923E+03         0.00000E+00
    0.00000E+00         0.00000E+00        -0.18929E+04
 
   -0.53819E+04         0.16630E+04         0.00000E+00
    0.16630E+04        -0.85069E+03         0.00000E+00
    0.00000E+00         0.00000E+00        -0.18698E+04
 
   -0.51480E+04         0.18003E+04         0.00000E+00
    0.18003E+04        -0.99086E+03         0.00000E+00
    0.00000E+00         0.00000E+00        -0.18417E+04
 
   -0.48890E+04         0.19328E+04         0.00000E+00
    0.19328E+04        -0.11390E+04         0.00000E+00
    0.00000E+00         0.00000E+00        -0.18084E+04
 
   -0.46055E+04         0.20601E+04         0.00000E+00
    0.20601E+04        -0.12942E+04         0.00000E+00
    0.00000E+00         0.00000E+00        -0.17699E+04
 
   -0.42977E+04         0.21818E+04         0.00000E+00
    0.21818E+04        -0.14561E+04         0.00000E+00
    0.00000E+00         0.00000E+00        -0.17261E+04
 
   -0.39659E+04         0.22975E+04         0.00000E+00
    0.22975E+04        -0.16240E+04         0.00000E+00
    0.00000E+00         0.00000E+00        -0.16770E+04
 
   -0.36102E+04         0.24070E+04         0.00000E+00
    0.24070E+04        -0.17976E+04         0.00000E+00
    0.00000E+00         0.00000E+00        -0.16224E+04
 
   -0.32305E+04         0.25097E+04         0.00000E+00
    0.25097E+04        -0.19768E+04         0.00000E+00
    0.00000E+00         0.00000E+00        -0.15622E+04
 
   -0.28266E+04         0.26053E+04         0.00000E+00
    0.26053E+04        -0.21614E+04         0.00000E+00
    0.00000E+00         0.00000E+00        -0.14964E+04
 
   -0.23983E+04         0.26928E+04         0.00000E+00
    0.26928E+04        -0.23516E+04         0.00000E+00
    0.00000E+00         0.00000E+00        -0.14250E+04
 
   -0.19452E+04         0.27714E+04         0.00000E+00
    0.27714E+04        -0.25473E+04         0.00000E+00
    0.00000E+00         0.00000E+00        -0.13477E+04
 
   -0.14671E+04         0.28397E+04         0.00000E+00
    0.28397E+04        -0.27487E+04         0.00000E+00
    0.00000E+00         0.00000E+00        -0.12647E+04
 
   -0.60878E+04         0.40671E+02         0.00000E+00
    0.40671E+02        -0.15390E+01         0.00000E+00
    0.00000E+00         0.00000E+00        -0.18268E+04
 
   -0.61408E+04         0.13132E+03         0.00000E+00
    0.13132E+03        -0.98779E+01         0.00000E+00
    0.00000E+00         0.00000E+00        -0.18452E+04
 
   -0.61753E+04         0.23295E+03         0.00000E+00
    0.23295E+03        -0.27408E+02         0.00000E+00
    0.00000E+00         0.00000E+00        -0.18608E+04
 
   -0.61896E+04         0.34410E+03         0.00000E+00
    0.34410E+03        -0.54889E+02         0.00000E+00
    0.00000E+00         0.00000E+00        -0.18733E+04
 
   -0.61823E+04         0.46326E+03         0.00000E+00
    0.46326E+03        -0.92925E+02         0.00000E+00
    0.00000E+00         0.00000E+00        -0.18826E+04
 
   -0.61521E+04         0.58895E+03         0.00000E+00
    0.58895E+03        -0.14195E+03         0.00000E+00
    0.00000E+00         0.00000E+00        -0.18882E+04
 
   -0.60981E+04         0.71966E+03         0.00000E+00
    0.71966E+03        -0.20224E+03         0.00000E+00
    0.00000E+00         0.00000E+00        -0.18901E+04
 
   -0.60195E+04         0.85390E+03         0.00000E+00
    0.85390E+03        -0.27386E+03         0.00000E+00
    0.00000E+00         0.00000E+00        -0.18880E+04
 
   -0.59157E+04         0.99022E+03         0.00000E+00
    0.99022E+03        -0.35673E+03         0.00000E+00
    0.00000E+00         0.00000E+00        -0.18817E+04
 
   -0.57865E+04         0.11273E+04         0.00000E+00
    0.11273E+04        -0.45058E+03         0.00000E+00
    0.00000E+00         0.00000E+00        -0.18711E+04
 
   -0.56319E+04         0.12638E+04         0.00000E+00
    0.12638E+04        -0.55499E+03         0.00000E+00
    0.00000E+00         0.00000E+00        -0.18561E+04
 
   -0.54519E+04         0.13987E+04         0.00000E+00
    0.13987E+04        -0.66943E+03         0.00000E+00
    0.00000E+00         0.00000E+00        -0.18364E+04
 
   -0.52469E+04         0.15310E+04         0.00000E+00
    0.15310E+04        -0.79328E+03         0.00000E+00
    0.00000E+00         0.00000E+00        -0.18120E+04
 
   -0.50170E+04         0.16599E+04         0.00000E+00
    0.16599E+04        -0.92589E+03         0.00000E+00
    0.00000E+00         0.00000E+00        -0.17829E+04
 
   -0.47627E+04         0.17848E+04         0.00000E+00
    0.17848E+04        -0.10666E+04         0.00000E+00
    0.00000E+00         0.00000E+00        -0.17488E+04
 
   -0.44843E+04         0.19050E+04         0.00000E+00
    0.19050E+04        -0.12148E+04         0.00000E+00
    0.00000E+00         0.00000E+00        -0.17098E+04
 
   -0.41821E+04         0.20201E+04         0.00000E+00
    0.20201E+04        -0.13700E+04         0.00000E+00
    0.00000E+00         0.00000E+00        -0.16656E+04
 
   -0.38562E+04         0.21297E+04         0.00000E+00
    0.21297E+04        -0.15318E+04         0.00000E+00
    0.00000E+00         0.00000E+00        -0.16164E+04
 
   -0.35069E+04         0.22333E+04         0.00000E+00
    0.22333E+04        -0.16996E+04         0.00000E+00
    0.00000E+00         0.00000E+00        -0.15620E+04
 
   -0.31340E+04         0.23304E+04         0.00000E+00
    0.23304E+04        -0.18735E+04         0.00000E+00
    0.00000E+00         0.00000E+00        -0.15023E+04
 
   -0.27377E+04         0.24204E+04         0.00000E+00
    0.24204E+04        -0.20531E+04         0.00000E+00
    0.00000E+00         0.00000E+00        -0.14372E+04
 
   -0.23179E+04         0.25024E+04         0.00000E+00
    0.25024E+04        -0.22383E+04         0.00000E+00
    0.00000E+00         0.00000E+00        -0.13669E+04
 
   -0.18744E+04         0.25753E+04         0.00000E+00
    0.25753E+04        -0.24293E+04         0.00000E+00
    0.00000E+00         0.00000E+00        -0.12911E+04
 
   -0.14074E+04         0.26380E+04         0.00000E+00
    0.26380E+04        -0.26258E+04         0.00000E+00
    0.00000E+00         0.00000E+00        -0.12100E+04
 
   -0.60072E+04         0.36839E+02         0.00000E+00
    0.36839E+02        -0.14067E+01         0.00000E+00
    0.00000E+00         0.00000E+00        -0.18026E+04
 
   -0.60489E+04         0.11908E+03         0.00000E+00
    0.11908E+03        -0.90605E+01         0.00000E+00
    0.00000E+00         0.00000E+00        -0.18174E+04
 
   -0.60736E+04         0.21147E+03         0.00000E+00
    0.21147E+03        -0.25215E+02         0.00000E+00
    0.00000E+00         0.00000E+00        -0.18296E+04
 
   -0.60794E+04         0.31269E+03         0.00000E+00
    0.31269E+03        -0.50622E+02         0.00000E+00
    0.00000E+00         0.00000E+00        -0.18390E+04
 
   -0.60651E+04         0.42142E+03         0.00000E+00
    0.42142E+03        -0.85877E+02         0.00000E+00
    0.00000E+00         0.00000E+00        -0.18453E+04
 
   -0.60293E+04         0.53631E+03         0.00000E+00
    0.53631E+03        -0.13142E+03         0.00000E+00
    0.00000E+00         0.00000E+00        -0.18482E+04
 
   -0.59710E+04         0.65603E+03         0.00000E+00
    0.65603E+03        -0.18754E+03         0.00000E+00
    0.00000E+00         0.00000E+00        -0.18476E+04
 
   -0.58895E+04         0.77926E+03         0.00000E+00
    0.77926E+03        -0.25436E+03         0.00000E+00
    0.00000E+00         0.00000E+00        -0.18432E+04
 
   -0.57842E+04         0.90473E+03         0.00000E+00
    0.90473E+03        -0.33184E+03         0.00000E+00
    0.00000E+00         0.00000E+00        -0.18348E+04
 
   -0.56548E+04         0.10312E+04         0.00000E+00
    0.10312E+04        -0.41981E+03         0.00000E+00
    0.00000E+00         0.00000E+00        -0.18224E+04
 
   -0.55010E+04         0.11576E+04         0.00000E+00
    0.11576E+04        -0.51797E+03         0.00000E+00
    0.00000E+00         0.00000E+00        -0.18057E+04
 
   -0.53229E+04         0.12828E+04         0.00000E+00
    0.12828E+04        -0.62591E+03         0.00000E+00
    0.00000E+00         0.00000E+00        -0.17846E+04
 
   -0.51206E+04         0.14061E+04         0.00000E+00
    0.14061E+04        -0.74314E+03         0.00000E+00
    0.00000E+00         0.00000E+00        -0.17591E+04
 
   -0.48942E+04         0.15265E+04         0.00000E+00
    0.15265E+04        -0.86915E+03         0.00000E+00
    0.00000E+00         0.00000E+00        -0.17290E+04
 
   -0.46439E+04         0.16435E+04         0.00000E+00
    0.16435E+04        -0.10034E+04         0.00000E+00
    0.00000E+00         0.00000E+00        -0.16942E+04
 
   -0.43701E+04         0.17563E+04         0.00000E+00
    0.17563E+04        -0.11454E+04         0.00000E+00
    0.00000E+00         0.00000E+00        -0.16547E+04
 
   -0.40730E+04         0.18646E+04         0.00000E+00
    0.18646E+04        -0.12946E+04         0.00000E+00
    0.00000E+00         0.00000E+00        -0.16103E+04
 
   -0.37527E+04         0.19677E+04         0.00000E+00
    0.19677E+04        -0.14507E+04         0.00000E+00
    0.00000E+00         0.00000E+00        -0.15610E+04
 
   -0.34095E+04         0.20651E+04         0.00000E+00
    0.20651E+04        -0.16133E+04         0.00000E+00
    0.00000E+00         0.00000E+00        -0.15068E+04
 
   -0.30434E+04         0.21562E+04         0.00000E+00
    0.21562E+04        -0.17821E+04         0.00000E+00
    0.00000E+00         0.00000E+00        -0.14476E+04
 
   -0.26545E+04         0.22403E+04         0.00000E+00
    0.22403E+04        -0.19569E+04         0.00000E+00
    0.00000E+00         0.00000E+00        -0.13834E+04
 
   -0.22431E+04         0.23166E+04         0.00000E+00
    0.23166E+04        -0.21375E+04         0.00000E+00
    0.00000E+00         0.00000E+00        -0.13142E+04
 
   -0.18092E+04         0.23840E+04         0.00000E+00
    0.23840E+04        -0.23237E+04         0.00000E+00
    0.00000E+00         0.00000E+00        -0.12399E+04
 
   -0.13532E+04         0.24412E+04         0.00000E+00
    0.24412E+04        -0.25153E+04         0.00000E+00
    0.00000E+00         0.00000E+00        -0.11606E+04
 
   -0.59342E+04         0.33325E+02         0.00000E+00
    0.33325E+02        -0.12923E+01         0.00000E+00
    0.00000E+00         0.00000E+00        -0.17806E+04
 
   -0.59656E+04         0.10781E+03         0.00000E+00
    0.10781E+03        -0.83502E+01         0.00000E+00
    0.00000E+00         0.00000E+00        -0.17922E+04
 
   -0.59811E+04         0.19160E+03         0.00000E+00
    0.19160E+03        -0.23301E+02         0.00000E+00
    0.00000E+00         0.00000E+00        -0.18013E+04
 
   -0.59791E+04         0.28356E+03         0.00000E+00
    0.28356E+03        -0.46889E+02         0.00000E+00
    0.00000E+00         0.00000E+00        -0.18078E+04
 
   -0.59581E+04         0.38251E+03         0.00000E+00
    0.38251E+03        -0.79708E+02         0.00000E+00
    0.00000E+00         0.00000E+00        -0.18113E+04
 
   -0.59170E+04         0.48725E+03         0.00000E+00
    0.48725E+03        -0.12221E+03         0.00000E+00
    0.00000E+00         0.00000E+00        -0.18118E+04
 
   -0.58546E+04         0.59661E+03         0.00000E+00
    0.59661E+03        -0.17469E+03         0.00000E+00
    0.00000E+00         0.00000E+00        -0.18088E+04
 
   -0.57703E+04         0.70940E+03         0.00000E+00
    0.70940E+03        -0.23733E+03         0.00000E+00
    0.00000E+00         0.00000E+00        -0.18023E+04
 
   -0.56633E+04         0.82449E+03         0.00000E+00
    0.82449E+03        -0.31014E+03         0.00000E+00
    0.00000E+00         0.00000E+00        -0.17920E+04
 
   -0.55333E+04         0.94081E+03         0.00000E+00
    0.94081E+03        -0.39302E+03         0.00000E+00
    0.00000E+00         0.00000E+00        -0.17779E+04
 
   -0.53799E+04         0.10573E+04         0.00000E+00
    0.10573E+04        -0.48576E+03         0.00000E+00
    0.00000E+00         0.00000E+00        -0.17597E+04
 
   -0.52032E+04         0.11731E+04         0.00000E+00
    0.11731E+04        -0.58805E+03         0.00000E+00
    0.00000E+00         0.00000E+00        -0.17374E+04
 
   -0.50030E+04         0.12874E+04         0.00000E+00
    0.12874E+04        -0.69952E+03         0.00000E+00
    0.00000E+00         0.00000E+00        -0.17108E+04
 
   -0.47795E+04         0.13993E+04         0.00000E+00
    0.13993E+04        -0.81976E+03         0.00000E+00
    0.00000E+00         0.00000E+00        -0.16798E+04
 
   -0.45329E+04         0.15082E+04         0.00000E+00
    0.15082E+04        -0.94831E+03         0.00000E+00
    0.00000E+00         0.00000E+00        -0.16444E+04
 
   -0.42632E+04         0.16134E+04         0.00000E+00
    0.16134E+04        -0.10847E+04         0.00000E+00
    0.00000E+00         0.00000E+00        -0.16044E+04
 
   -0.39707E+04         0.17145E+04         0.00000E+00
    0.17145E+04        -0.12286E+04         0.00000E+00
    0.00000E+00         0.00000E+00        -0.15598E+04
 
   -0.36557E+04         0.18108E+04         0.00000E+00
    0.18108E+04        -0.13796E+04         0.00000E+00
    0.00000E+00         0.00000E+00        -0.15106E+04
 
   -0.33183E+04         0.19018E+04         0.00000E+00
    0.19018E+04        -0.15373E+04         0.00000E+00
    0.00000E+00         0.00000E+00        -0.14567E+04
 
   -0.29587E+04         0.19867E+04         0.00000E+00
    0.19867E+04        -0.17015E+04         0.00000E+00
    0.00000E+00         0.00000E+00        -0.13980E+04
 
   -0.25772E+04         0.20649E+04         0.00000E+00
    0.20649E+04        -0.18717E+04         0.00000E+00
    0.00000E+00         0.00000E+00        -0.13347E+04
 
   -0.21739E+04         0.21354E+04         0.00000E+00
    0.21354E+04        -0.20478E+04         0.00000E+00
    0.00000E+00         0.00000E+00        -0.12665E+04
 
   -0.17494E+04         0.21973E+04         0.00000E+00
    0.21973E+04        -0.22295E+04         0.00000E+00
    0.00000E+00         0.00000E+00        -0.11937E+04
 
   -0.13041E+04         0.22494E+04         0.00000E+00
    0.22494E+04        -0.24165E+04         0.00000E+00
    0.00000E+00         0.00000E+00        -0.11162E+04
 
   -0.58682E+04         0.30084E+02         0.00000E+00
    0.30084E+02        -0.11952E+01         0.00000E+00
    0.00000E+00         0.00000E+00        -0.17608E+04
 
   -0.58901E+04         0.97362E+02         0.00000E+00
    0.97362E+02        -0.77424E+01         0.00000E+00
    0.00000E+00         0.00000E+00        -0.17694E+04
 
   -0.58973E+04         0.17314E+03         0.00000E+00
    0.17314E+03        -0.21655E+02         0.00000E+00
    0.00000E+00         0.00000E+00        -0.17757E+04
 
   -0.58880E+04         0.25642E+03         0.00000E+00
    0.25642E+03        -0.43667E+02         0.00000E+00
    0.00000E+00         0.00000E+00        -0.17795E+04
 
   -0.58609E+04         0.34616E+03         0.00000E+00
    0.34616E+03        -0.74372E+02         0.00000E+00
    0.00000E+00         0.00000E+00        -0.17806E+04
 
   -0.58147E+04         0.44131E+03         0.00000E+00
    0.44131E+03        -0.11423E+03         0.00000E+00
    0.00000E+00         0.00000E+00        -0.17787E+04
 
   -0.57484E+04         0.54083E+03         0.00000E+00
    0.54083E+03        -0.16357E+03         0.00000E+00
    0.00000E+00         0.00000E+00        -0.17736E+04
 
   -0.56612E+04         0.64366E+03         0.00000E+00
    0.64366E+03        -0.22258E+03         0.00000E+00
    0.00000E+00         0.00000E+00        -0.17651E+04
 
   -0.55524E+04         0.74882E+03         0.00000E+00
    0.74882E+03        -0.29134E+03         0.00000E+00
    0.00000E+00         0.00000E+00        -0.17531E+04
 
   -0.54216E+04         0.85531E+03         0.00000E+00
    0.85531E+03        -0.36982E+03         0.00000E+00
    0.00000E+00         0.00000E+00        -0.17374E+04
 
   -0.52684E+04         0.96224E+03         0.00000E+00
    0.96224E+03        -0.45787E+03         0.00000E+00
    0.00000E+00         0.00000E+00        -0.17179E+04
 
   -0.50927E+04         0.10687E+04         0.00000E+00
    0.10687E+04        -0.55527E+03         0.00000E+00
    0.00000E+00         0.00000E+00        -0.16944E+04
 
   -0.48943E+04         0.11740E+04         0.00000E+00
    0.11740E+04        -0.66174E+03         0.00000E+00
    0.00000E+00         0.00000E+00        -0.16668E+04
 
   -0.46732E+04         0.12774E+04         0.00000E+00
    0.12774E+04        -0.77693E+03         0.00000E+00
    0.00000E+00         0.00000E+00        -0.16350E+04
 
   -0.44297E+04         0.13781E+04         0.00000E+00
    0.13781E+04        -0.90047E+03         0.00000E+00
    0.00000E+00         0.00000E+00        -0.15990E+04
 
   -0.41637E+04         0.14757E+04         0.00000E+00
    0.14757E+04        -0.10320E+04         0.00000E+00
    0.00000E+00         0.00000E+00        -0.15587E+04
 
   -0.38755E+04         0.15694E+04         0.00000E+00
    0.15694E+04        -0.11711E+04         0.00000E+00
    0.00000E+00         0.00000E+00        -0.15140E+04
 
   -0.35654E+04         0.16587E+04         0.00000E+00
    0.16587E+04        -0.13175E+04         0.00000E+00
    0.00000E+00         0.00000E+00        -0.14649E+04
 
   -0.32335E+04         0.17430E+04         0.00000E+00
    0.17430E+04        -0.14707E+04         0.00000E+00
    0.00000E+00         0.00000E+00        -0.14113E+04
 
   -0.28801E+04         0.18216E+04         0.00000E+00
    0.18216E+04        -0.16305E+04         0.00000E+00
    0.00000E+00         0.00000E+00        -0.13532E+04
 
   -0.25056E+04         0.18938E+04         0.00000E+00
    0.18938E+04        -0.17965E+04         0.00000E+00
    0.00000E+00         0.00000E+00        -0.12906E+04
 
   -0.21104E+04         0.19586E+04         0.00000E+00
    0.19586E+04        -0.19684E+04         0.00000E+00
    0.00000E+00         0.00000E+00        -0.12236E+04
 
   -0.16949E+04         0.20152E+04         0.00000E+00
    0.20152E+04        -0.21458E+04         0.00000E+00
    0.00000E+00         0.00000E+00        -0.11522E+04
 
   -0.12598E+04         0.20623E+04         0.00000E+00
    0.20623E+04        -0.23282E+04         0.00000E+00
    0.00000E+00         0.00000E+00        -0.10764E+04
 
   -0.58087E+04         0.27075E+02         0.00000E+00
    0.27075E+02        -0.11139E+01         0.00000E+00
    0.00000E+00         0.00000E+00        -0.17429E+04
 
   -0.58221E+04         0.87631E+02         0.00000E+00
    0.87631E+02        -0.72296E+01         0.00000E+00
    0.00000E+00         0.00000E+00        -0.17488E+04
 
   -0.58216E+04         0.15589E+03         0.00000E+00
    0.15589E+03        -0.20257E+02         0.00000E+00
    0.00000E+00         0.00000E+00        -0.17526E+04
 
   -0.58056E+04         0.23099E+03         0.00000E+00
    0.23099E+03        -0.40919E+02         0.00000E+00
    0.00000E+00         0.00000E+00        -0.17540E+04
 
   -0.57728E+04         0.31202E+03         0.00000E+00
    0.31202E+03        -0.69808E+02         0.00000E+00
    0.00000E+00         0.00000E+00        -0.17528E+04
 
   -0.57219E+04         0.39806E+03         0.00000E+00
    0.39806E+03        -0.10739E+03         0.00000E+00
    0.00000E+00         0.00000E+00        -0.17488E+04
 
   -0.56518E+04         0.48820E+03         0.00000E+00
    0.48820E+03        -0.15401E+03         0.00000E+00
    0.00000E+00         0.00000E+00        -0.17418E+04
 
   -0.55619E+04         0.58150E+03         0.00000E+00
    0.58150E+03        -0.20990E+03         0.00000E+00
    0.00000E+00         0.00000E+00        -0.17315E+04
 
   -0.54513E+04         0.67708E+03         0.00000E+00
    0.67708E+03        -0.27518E+03         0.00000E+00
    0.00000E+00         0.00000E+00        -0.17179E+04
 
   -0.53195E+04         0.77406E+03         0.00000E+00
    0.77406E+03        -0.34986E+03         0.00000E+00
    0.00000E+00         0.00000E+00        -0.17008E+04
 
   -0.51663E+04         0.87162E+03         0.00000E+00
    0.87162E+03        -0.43386E+03         0.00000E+00
    0.00000E+00         0.00000E+00        -0.16800E+04
 
   -0.49912E+04         0.96898E+03         0.00000E+00
    0.96898E+03        -0.52703E+03         0.00000E+00
    0.00000E+00         0.00000E+00        -0.16555E+04
 
   -0.47942E+04         0.10654E+04         0.00000E+00
    0.10654E+04        -0.62915E+03         0.00000E+00
    0.00000E+00         0.00000E+00        -0.16270E+04
 
   -0.45753E+04         0.11602E+04         0.00000E+00
    0.11602E+04        -0.73993E+03         0.00000E+00
    0.00000E+00         0.00000E+00        -0.15946E+04
 
   -0.43344E+04         0.12528E+04         0.00000E+00
    0.12528E+04        -0.85908E+03         0.00000E+00
    0.00000E+00         0.00000E+00        -0.15581E+04
 
   -0.40718E+04         0.13425E+04         0.00000E+00
    0.13425E+04        -0.98627E+03         0.00000E+00
    0.00000E+00         0.00000E+00        -0.15174E+04
 
   -0.37876E+04         0.14288E+04         0.00000E+00
    0.14288E+04        -0.11211E+04         0.00000E+00
    0.00000E+00         0.00000E+00        -0.14726E+04
 
   -0.34820E+04         0.15110E+04         0.00000E+00
    0.15110E+04        -0.12634E+04         0.00000E+00
    0.00000E+00         0.00000E+00        -0.14236E+04
 
   -0.31553E+04         0.15885E+04         0.00000E+00
    0.15885E+04        -0.14125E+04         0.00000E+00
    0.00000E+00         0.00000E+00        -0.13703E+04
 
   -0.28078E+04         0.16607E+04         0.00000E+00
    0.16607E+04        -0.15684E+04         0.00000E+00
    0.00000E+00         0.00000E+00        -0.13128E+04
 
   -0.24399E+04         0.17268E+04         0.00000E+00
    0.17268E+04        -0.17304E+04         0.00000E+00
    0.00000E+00         0.00000E+00        -0.12511E+04
 
   -0.20523E+04         0.17860E+04         0.00000E+00
    0.17860E+04        -0.18983E+04         0.00000E+00
    0.00000E+00         0.00000E+00        -0.11852E+04
 
   -0.16454E+04         0.18373E+04         0.00000E+00
    0.18373E+04        -0.20716E+04         0.00000E+00
    0.00000E+00         0.00000E+00        -0.11151E+04
 
   -0.12200E+04         0.18798E+04         0.00000E+00
    0.18798E+04        -0.22497E+04         0.00000E+00
    0.00000E+00         0.00000E+00        -0.10409E+04
 
   -0.57553E+04         0.24257E+02         0.00000E+00
    0.24257E+02        -0.10467E+01         0.00000E+00
    0.00000E+00         0.00000E+00        -0.17269E+04
 
   -0.57610E+04         0.78499E+02         0.00000E+00
    0.78499E+02        -0.68025E+01         0.00000E+00
    0.00000E+00         0.00000E+00        -0.17303E+04
 
   -0.57536E+04         0.13967E+03         0.00000E+00
    0.13967E+03        -0.19085E+02         0.00000E+00
    0.00000E+00         0.00000E+00        -0.17318E+04
 
   -0.57315E+04         0.20702E+03         0.00000E+00
    0.20702E+03        -0.38602E+02         0.00000E+00
    0.00000E+00         0.00000E+00        -0.17310E+04
 
   -0.56934E+04         0.27977E+03         0.00000E+00
    0.27977E+03        -0.65943E+02         0.00000E+00
    0.00000E+00         0.00000E+00        -0.17278E+04
 
   -0.56381E+04         0.35713E+03         0.00000E+00
    0.35713E+03        -0.10158E+03         0.00000E+00
    0.00000E+00         0.00000E+00        -0.17219E+04
 
   -0.55646E+04         0.43828E+03         0.00000E+00
    0.43828E+03        -0.14588E+03         0.00000E+00
    0.00000E+00         0.00000E+00        -0.17131E+04
 
   -0.54720E+04         0.52241E+03         0.00000E+00
    0.52241E+03        -0.19910E+03         0.00000E+00
    0.00000E+00         0.00000E+00        -0.17013E+04
 
   -0.53596E+04         0.60873E+03         0.00000E+00
    0.60873E+03        -0.26138E+03         0.00000E+00
    0.00000E+00         0.00000E+00        -0.16863E+04
 
   -0.52268E+04         0.69646E+03         0.00000E+00
    0.69646E+03        -0.33280E+03         0.00000E+00
    0.00000E+00         0.00000E+00        -0.16679E+04
 
   -0.50733E+04         0.78486E+03         0.00000E+00
    0.78486E+03        -0.41331E+03         0.00000E+00
    0.00000E+00         0.00000E+00        -0.16460E+04
 
   -0.48987E+04         0.87322E+03         0.00000E+00
    0.87322E+03        -0.50283E+03         0.00000E+00
    0.00000E+00         0.00000E+00        -0.16204E+04
 
   -0.47028E+04         0.96088E+03         0.00000E+00
    0.96088E+03        -0.60118E+03         0.00000E+00
    0.00000E+00         0.00000E+00        -0.15912E+04
 
   -0.44857E+04         0.10472E+04         0.00000E+00
    0.10472E+04        -0.70813E+03         0.00000E+00
    0.00000E+00         0.00000E+00        -0.15581E+04
 
   -0.42473E+04         0.11316E+04         0.00000E+00
    0.11316E+04        -0.82344E+03         0.00000E+00
    0.00000E+00         0.00000E+00        -0.15212E+04
 
   -0.39876E+04         0.12134E+04         0.00000E+00
    0.12134E+04        -0.94680E+03         0.00000E+00
    0.00000E+00         0.00000E+00        -0.14803E+04
 
   -0.37070E+04         0.12921E+04         0.00000E+00
    0.12921E+04        -0.10779E+04         0.00000E+00
    0.00000E+00         0.00000E+00        -0.14355E+04
 
   -0.34055E+04         0.13671E+04         0.00000E+00
    0.13671E+04        -0.12164E+04         0.00000E+00
    0.00000E+00         0.00000E+00        -0.13866E+04
 
   -0.30836E+04         0.14378E+04         0.00000E+00
    0.14378E+04        -0.13619E+04         0.00000E+00
    0.00000E+00         0.00000E+00        -0.13337E+04
 
   -0.27417E+04         0.15035E+04         0.00000E+00
    0.15035E+04        -0.15141E+04         0.00000E+00
    0.00000E+00         0.00000E+00        -0.12767E+04
 
   -0.23801E+04         0.15636E+04         0.00000E+00
    0.15636E+04        -0.16725E+04         0.00000E+00
    0.00000E+00         0.00000E+00        -0.12158E+04
 
   -0.19996E+04         0.16172E+04         0.00000E+00
    0.16172E+04        -0.18366E+04         0.00000E+00
    0.00000E+00         0.00000E+00        -0.11509E+04
 
   -0.16007E+04         0.16635E+04         0.00000E+00
    0.16635E+04        -0.20061E+04         0.00000E+00
    0.00000E+00         0.00000E+00        -0.10820E+04
 
   -0.11845E+04         0.17015E+04         0.00000E+00
    0.17015E+04        -0.21802E+04         0.00000E+00
    0.00000E+00         0.00000E+00        -0.10094E+04
 
   -0.57075E+04         0.21598E+02         0.00000E+00
    0.21598E+02        -0.99205E+00         0.00000E+00
    0.00000E+00         0.00000E+00        -0.17126E+04
 
   -0.57064E+04         0.69868E+02         0.00000E+00
    0.69868E+02        -0.64512E+01         0.00000E+00
    0.00000E+00         0.00000E+00        -0.17138E+04
 
   -0.56928E+04         0.12431E+03         0.00000E+00
    0.12431E+03        -0.18113E+02         0.00000E+00
    0.00000E+00         0.00000E+00        -0.17133E+04
 
   -0.56652E+04         0.18428E+03         0.00000E+00
    0.18428E+03        -0.36670E+02         0.00000E+00
    0.00000E+00         0.00000E+00        -0.17106E+04
 
   -0.56223E+04         0.24914E+03         0.00000E+00
    0.24914E+03        -0.62704E+02         0.00000E+00
    0.00000E+00         0.00000E+00        -0.17055E+04
 
   -0.55630E+04         0.31817E+03         0.00000E+00
    0.31817E+03        -0.96696E+02         0.00000E+00
    0.00000E+00         0.00000E+00        -0.16979E+04
 
   -0.54863E+04         0.39067E+03         0.00000E+00
    0.39067E+03        -0.13902E+03         0.00000E+00
    0.00000E+00         0.00000E+00        -0.16876E+04
 
   -0.53911E+04         0.46594E+03         0.00000E+00
    0.46594E+03        -0.18996E+03         0.00000E+00
    0.00000E+00         0.00000E+00        -0.16743E+04
 
   -0.52770E+04         0.54328E+03         0.00000E+00
    0.54328E+03        -0.24969E+03         0.00000E+00
    0.00000E+00         0.00000E+00        -0.16580E+04
 
   -0.51432E+04         0.62199E+03         0.00000E+00
    0.62199E+03        -0.31831E+03         0.00000E+00
    0.00000E+00         0.00000E+00        -0.16384E+04
 
   -0.49893E+04         0.70141E+03         0.00000E+00
    0.70141E+03        -0.39584E+03         0.00000E+00
    0.00000E+00         0.00000E+00        -0.16155E+04
 
   -0.48150E+04         0.78092E+03         0.00000E+00
    0.78092E+03        -0.48222E+03         0.00000E+00
    0.00000E+00         0.00000E+00        -0.15892E+04
 
   -0.46201E+04         0.85989E+03         0.00000E+00
    0.85989E+03        -0.57731E+03         0.00000E+00
    0.00000E+00         0.00000E+00        -0.15592E+04
 
   -0.44045E+04         0.93774E+03         0.00000E+00
    0.93774E+03        -0.68095E+03         0.00000E+00
    0.00000E+00         0.00000E+00        -0.15256E+04
 
   -0.41681E+04         0.10139E+04         0.00000E+00
    0.10139E+04        -0.79290E+03         0.00000E+00
    0.00000E+00         0.00000E+00        -0.14883E+04
 
   -0.39112E+04         0.10878E+04         0.00000E+00
    0.10878E+04        -0.91291E+03         0.00000E+00
    0.00000E+00         0.00000E+00        -0.14472E+04
 
   -0.36337E+04         0.11590E+04         0.00000E+00
    0.11590E+04        -0.10407E+04         0.00000E+00
    0.00000E+00         0.00000E+00        -0.14023E+04
 
   -0.33361E+04         0.12267E+04         0.00000E+00
    0.12267E+04        -0.11758E+04         0.00000E+00
    0.00000E+00         0.00000E+00        -0.13536E+04
 
   -0.30187E+04         0.12906E+04         0.00000E+00
    0.12906E+04        -0.13180E+04         0.00000E+00
    0.00000E+00         0.00000E+00        -0.13010E+04
 
   -0.26818E+04         0.13499E+04         0.00000E+00
    0.13499E+04        -0.14669E+04         0.00000E+00
    0.00000E+00         0.00000E+00        -0.12446E+04
 
   -0.23261E+04         0.14039E+04         0.00000E+00
    0.14039E+04        -0.16220E+04         0.00000E+00
    0.00000E+00         0.00000E+00        -0.11844E+04
 
   -0.19521E+04         0.14520E+04         0.00000E+00
    0.14520E+04        -0.17828E+04         0.00000E+00
    0.00000E+00         0.00000E+00        -0.11205E+04
 
   -0.15608E+04         0.14934E+04         0.00000E+00
    0.14934E+04        -0.19487E+04         0.00000E+00
    0.00000E+00         0.00000E+00        -0.10528E+04
 
   -0.11530E+04         0.15271E+04         0.00000E+00
    0.15271E+04        -0.21191E+04         0.00000E+00
    0.00000E+00         0.00000E+00        -0.98165E+03
 
   -0.56652E+04         0.19066E+02         0.00000E+00
    0.19066E+02        -0.94813E+00         0.00000E+00
    0.00000E+00         0.00000E+00        -0.16999E+04
 
   -0.56580E+04         0.61647E+02         0.00000E+00
    0.61647E+02        -0.61660E+01         0.00000E+00
    0.00000E+00         0.00000E+00        -0.16993E+04
 
   -0.56389E+04         0.10966E+03         0.00000E+00
    0.10966E+03        -0.17317E+02         0.00000E+00
    0.00000E+00         0.00000E+00        -0.16969E+04
 
   -0.56064E+04         0.16259E+03         0.00000E+00
    0.16259E+03        -0.35076E+02         0.00000E+00
    0.00000E+00         0.00000E+00        -0.16924E+04
 
   -0.55592E+04         0.21985E+03         0.00000E+00
    0.21985E+03        -0.60018E+02         0.00000E+00
    0.00000E+00         0.00000E+00        -0.16858E+04
 
   -0.54963E+04         0.28087E+03         0.00000E+00
    0.28087E+03        -0.92626E+02         0.00000E+00
    0.00000E+00         0.00000E+00        -0.16767E+04
 
   -0.54165E+04         0.34503E+03         0.00000E+00
    0.34503E+03        -0.13329E+03         0.00000E+00
    0.00000E+00         0.00000E+00        -0.16649E+04
 
   -0.53191E+04         0.41171E+03         0.00000E+00
    0.41171E+03        -0.18230E+03         0.00000E+00
    0.00000E+00         0.00000E+00        -0.16504E+04
 
   -0.52033E+04         0.48030E+03         0.00000E+00
    0.48030E+03        -0.23987E+03         0.00000E+00
    0.00000E+00         0.00000E+00        -0.16329E+04
 
   -0.50684E+04         0.55019E+03         0.00000E+00
    0.55019E+03        -0.30612E+03         0.00000E+00
    0.00000E+00         0.00000E+00        -0.16124E+04
 
   -0.49141E+04         0.62081E+03         0.00000E+00
    0.62081E+03        -0.38110E+03         0.00000E+00
    0.00000E+00         0.00000E+00        -0.15886E+04
 
   -0.47400E+04         0.69158E+03         0.00000E+00
    0.69158E+03        -0.46479E+03         0.00000E+00
    0.00000E+00         0.00000E+00        -0.15614E+04
 
   -0.45458E+04         0.76195E+03         0.00000E+00
    0.76195E+03        -0.55709E+03         0.00000E+00
    0.00000E+00         0.00000E+00        -0.15309E+04
 
   -0.43315E+04         0.83139E+03         0.00000E+00
    0.83139E+03        -0.65787E+03         0.00000E+00
    0.00000E+00         0.00000E+00        -0.14968E+04
 
   -0.40970E+04         0.89938E+03         0.00000E+00
    0.89938E+03        -0.76692E+03         0.00000E+00
    0.00000E+00         0.00000E+00        -0.14592E+04
 
   -0.38424E+04         0.96540E+03         0.00000E+00
    0.96540E+03        -0.88400E+03         0.00000E+00
    0.00000E+00         0.00000E+00        -0.14179E+04
 
   -0.35679E+04         0.10289E+04         0.00000E+00
    0.10289E+04        -0.10088E+04         0.00000E+00
    0.00000E+00         0.00000E+00        -0.13730E+04
 
   -0.32738E+04         0.10895E+04         0.00000E+00
    0.10895E+04        -0.11410E+04         0.00000E+00
    0.00000E+00         0.00000E+00        -0.13244E+04
 
   -0.29603E+04         0.11465E+04         0.00000E+00
    0.11465E+04        -0.12803E+04         0.00000E+00
    0.00000E+00         0.00000E+00        -0.12722E+04
 
   -0.26281E+04         0.11993E+04         0.00000E+00
    0.11993E+04        -0.14262E+04         0.00000E+00
    0.00000E+00         0.00000E+00        -0.12163E+04
 
   -0.22777E+04         0.12475E+04         0.00000E+00
    0.12475E+04        -0.15783E+04         0.00000E+00
    0.00000E+00         0.00000E+00        -0.11568E+04
 
   -0.19098E+04         0.12902E+04         0.00000E+00
    0.12902E+04        -0.17360E+04         0.00000E+00
    0.00000E+00         0.00000E+00        -0.10937E+04
 
   -0.15254E+04         0.13268E+04         0.00000E+00
    0.13268E+04        -0.18987E+04         0.00000E+00
    0.00000E+00         0.00000E+00        -0.10272E+04
 
   -0.11253E+04         0.13564E+04         0.00000E+00
    0.13564E+04        -0.20658E+04         0.00000E+00
    0.00000E+00         0.00000E+00        -0.95734E+03
 
   -0.56281E+04         0.16637E+02         0.00000E+00
    0.16637E+02        -0.91333E+00         0.00000E+00
    0.00000E+00         0.00000E+00        -0.16887E+04
 
   -0.56156E+04         0.53761E+02         0.00000E+00
    0.53761E+02        -0.59373E+01         0.00000E+00
    0.00000E+00         0.00000E+00        -0.16865E+04
 
   -0.55916E+04         0.95609E+02         0.00000E+00
    0.95609E+02        -0.16673E+02         0.00000E+00
    0.00000E+00         0.00000E+00        -0.16825E+04
 
   -0.55548E+04         0.14175E+03         0.00000E+00
    0.14175E+03        -0.33776E+02         0.00000E+00
    0.00000E+00         0.00000E+00        -0.16766E+04
 
   -0.55038E+04         0.19170E+03         0.00000E+00
    0.19170E+03        -0.57815E+02         0.00000E+00
    0.00000E+00         0.00000E+00        -0.16685E+04
 
   -0.54376E+04         0.24497E+03         0.00000E+00
    0.24497E+03        -0.89273E+02         0.00000E+00
    0.00000E+00         0.00000E+00        -0.16581E+04
 
   -0.53552E+04         0.30103E+03         0.00000E+00
    0.30103E+03        -0.12854E+03         0.00000E+00
    0.00000E+00         0.00000E+00        -0.16451E+04
 
   -0.52556E+04         0.35935E+03         0.00000E+00
    0.35935E+03        -0.17594E+03         0.00000E+00
    0.00000E+00         0.00000E+00        -0.16295E+04
 
   -0.51383E+04         0.41940E+03         0.00000E+00
    0.41940E+03        -0.23169E+03         0.00000E+00
    0.00000E+00         0.00000E+00        -0.16110E+04
 
   -0.50024E+04         0.48067E+03         0.00000E+00
    0.48067E+03        -0.29594E+03         0.00000E+00
    0.00000E+00         0.00000E+00        -0.15895E+04
 
   -0.48477E+04         0.54263E+03         0.00000E+00
    0.54263E+03        -0.36877E+03         0.00000E+00
    0.00000E+00         0.00000E+00        -0.15649E+04
 
   -0.46737E+04         0.60478E+03         0.00000E+00
    0.60478E+03        -0.45018E+03         0.00000E+00
    0.00000E+00         0.00000E+00        -0.15372E+04
 
   -0.44801E+04         0.66664E+03         0.00000E+00
    0.66664E+03        -0.54011E+03         0.00000E+00
    0.00000E+00         0.00000E+00        -0.15061E+04
 
   -0.42669E+04         0.72773E+03         0.00000E+00
    0.72773E+03        -0.63844E+03         0.00000E+00
    0.00000E+00         0.00000E+00        -0.14716E+04
 
   -0.40340E+04         0.78757E+03         0.00000E+00
    0.78757E+03        -0.74499E+03         0.00000E+00
    0.00000E+00         0.00000E+00        -0.14337E+04
 
   -0.37815E+04         0.84571E+03         0.00000E+00
    0.84571E+03        -0.85954E+03         0.00000E+00
    0.00000E+00         0.00000E+00        -0.13923E+04
 
   -0.35095E+04         0.90168E+03         0.00000E+00
    0.90168E+03        -0.98181E+03         0.00000E+00
    0.00000E+00         0.00000E+00        -0.13474E+04
 
   -0.32185E+04         0.95499E+03         0.00000E+00
    0.95499E+03        -0.11115E+04         0.00000E+00
    0.00000E+00         0.00000E+00        -0.12990E+04
 
   -0.29086E+04         0.10051E+04         0.00000E+00
    0.10051E+04        -0.12482E+04         0.00000E+00
    0.00000E+00         0.00000E+00        -0.12470E+04
 
   -0.25806E+04         0.10516E+04         0.00000E+00
    0.10516E+04        -0.13914E+04         0.00000E+00
    0.00000E+00         0.00000E+00        -0.11916E+04
 
   -0.22350E+04         0.10939E+04         0.00000E+00
    0.10939E+04        -0.15408E+04         0.00000E+00
    0.00000E+00         0.00000E+00        -0.11328E+04
 
   -0.18726E+04         0.11313E+04         0.00000E+00
    0.11313E+04        -0.16958E+04         0.00000E+00
    0.00000E+00         0.00000E+00        -0.10705E+04
 
   -0.14943E+04         0.11632E+04         0.00000E+00
    0.11632E+04        -0.18556E+04         0.00000E+00
    0.00000E+00         0.00000E+00        -0.10050E+04
 
   -0.11012E+04         0.11890E+04         0.00000E+00
    0.11890E+04        -0.20197E+04         0.00000E+00
    0.00000E+00         0.00000E+00        -0.93628E+03
 
   -0.55959E+04         0.14289E+02         0.00000E+00
    0.14289E+02        -0.88619E+00         0.00000E+00
    0.00000E+00         0.00000E+00        -0.16790E+04
 
   -0.55789E+04         0.46143E+02         0.00000E+00
    0.46143E+02        -0.57566E+01         0.00000E+00
    0.00000E+00         0.00000E+00        -0.16754E+04
 
   -0.55507E+04         0.82036E+02         0.00000E+00
    0.82036E+02        -0.16159E+02         0.00000E+00
    0.00000E+00         0.00000E+00        -0.16701E+04
 
   -0.55101E+04         0.12161E+03         0.00000E+00
    0.12161E+03        -0.32731E+02         0.00000E+00
    0.00000E+00         0.00000E+00        -0.16628E+04
 
   -0.54558E+04         0.16448E+03         0.00000E+00
    0.16448E+03        -0.56032E+02         0.00000E+00
    0.00000E+00         0.00000E+00        -0.16536E+04
 
   -0.53868E+04         0.21023E+03         0.00000E+00
    0.21023E+03        -0.86544E+02         0.00000E+00
    0.00000E+00         0.00000E+00        -0.16420E+04
 
   -0.53020E+04         0.25840E+03         0.00000E+00
    0.25840E+03        -0.12467E+03         0.00000E+00
    0.00000E+00         0.00000E+00        -0.16280E+04
 
   -0.52005E+04         0.30856E+03         0.00000E+00
    0.30856E+03        -0.17073E+03         0.00000E+00
    0.00000E+00         0.00000E+00        -0.16114E+04
 
   -0.50818E+04         0.36026E+03         0.00000E+00
    0.36026E+03        -0.22496E+03         0.00000E+00
    0.00000E+00         0.00000E+00        -0.15920E+04
 
   -0.49450E+04         0.41305E+03         0.00000E+00
    0.41305E+03        -0.28755E+03         0.00000E+00
    0.00000E+00         0.00000E+00        -0.15698E+04
 
   -0.47898E+04         0.46648E+03         0.00000E+00
    0.46648E+03        -0.35858E+03         0.00000E+00
    0.00000E+00         0.00000E+00        -0.15445E+04
 
   -0.46158E+04         0.52012E+03         0.00000E+00
    0.52012E+03        -0.43807E+03         0.00000E+00
    0.00000E+00         0.00000E+00        -0.15162E+04
 
   -0.44228E+04         0.57355E+03         0.00000E+00
    0.57355E+03        -0.52600E+03         0.00000E+00
    0.00000E+00         0.00000E+00        -0.14846E+04
 
   -0.42105E+04         0.62634E+03         0.00000E+00
    0.62634E+03        -0.62226E+03         0.00000E+00
    0.00000E+00         0.00000E+00        -0.14498E+04
 
   -0.39789E+04         0.67809E+03         0.00000E+00
    0.67809E+03        -0.72670E+03         0.00000E+00
    0.00000E+00         0.00000E+00        -0.14117E+04
 
   -0.37282E+04         0.72838E+03         0.00000E+00
    0.72838E+03        -0.83909E+03         0.00000E+00
    0.00000E+00         0.00000E+00        -0.13702E+04
 
   -0.34585E+04         0.77679E+03         0.00000E+00
    0.77679E+03        -0.95917E+03         0.00000E+00
    0.00000E+00         0.00000E+00        -0.13253E+04
 
   -0.31702E+04         0.82290E+03         0.00000E+00
    0.82290E+03        -0.10866E+04         0.00000E+00
    0.00000E+00         0.00000E+00        -0.12770E+04
 
   -0.28635E+04         0.86626E+03         0.00000E+00
    0.86626E+03        -0.12211E+04         0.00000E+00
    0.00000E+00         0.00000E+00        -0.12254E+04
 
   -0.25392E+04         0.90641E+03         0.00000E+00
    0.90641E+03        -0.13621E+04         0.00000E+00
    0.00000E+00         0.00000E+00        -0.11704E+04
 
   -0.21979E+04         0.94285E+03         0.00000E+00
    0.94285E+03        -0.15091E+04         0.00000E+00
    0.00000E+00         0.00000E+00        -0.11121E+04
 
   -0.18403E+04         0.97505E+03         0.00000E+00
    0.97505E+03        -0.16616E+04         0.00000E+00
    0.00000E+00         0.00000E+00        -0.10506E+04
 
   -0.14675E+04         0.10025E+04         0.00000E+00
    0.10025E+04        -0.18189E+04         0.00000E+00
    0.00000E+00         0.00000E+00        -0.98592E+03
 
   -0.10805E+04         0.10245E+04         0.00000E+00
    0.10245E+04        -0.19803E+04         0.00000E+00
    0.00000E+00         0.00000E+00        -0.91826E+03
 
   -0.55686E+04         0.12003E+02         0.00000E+00
    0.12003E+02        -0.86538E+00         0.00000E+00
    0.00000E+00         0.00000E+00        -0.16708E+04
 
   -0.55477E+04         0.38738E+02         0.00000E+00
    0.38738E+02        -0.56162E+01         0.00000E+00
    0.00000E+00         0.00000E+00        -0.16660E+04
 
   -0.55160E+04         0.68847E+02         0.00000E+00
    0.68847E+02        -0.15755E+02         0.00000E+00
    0.00000E+00         0.00000E+00        -0.16595E+04
 
   -0.54721E+04         0.10205E+03         0.00000E+00
    0.10205E+03        -0.31903E+02         0.00000E+00
    0.00000E+00         0.00000E+00        -0.16512E+04
 
   -0.54150E+04         0.13802E+03         0.00000E+00
    0.13802E+03        -0.54611E+02         0.00000E+00
    0.00000E+00         0.00000E+00        -0.16409E+04
 
   -0.53435E+04         0.17643E+03         0.00000E+00
    0.17643E+03        -0.84358E+02         0.00000E+00
    0.00000E+00         0.00000E+00        -0.16284E+04
 
   -0.52567E+04         0.21690E+03         0.00000E+00
    0.21690E+03        -0.12155E+03         0.00000E+00
    0.00000E+00         0.00000E+00        -0.16135E+04
 
   -0.51536E+04         0.25907E+03         0.00000E+00
    0.25907E+03        -0.16652E+03         0.00000E+00
    0.00000E+00         0.00000E+00        -0.15960E+04
 
   -0.50336E+04         0.30256E+03         0.00000E+00
    0.30256E+03        -0.21952E+03         0.00000E+00
    0.00000E+00         0.00000E+00        -0.15759E+04
 
   -0.48961E+04         0.34701E+03         0.00000E+00
    0.34701E+03        -0.28073E+03         0.00000E+00
    0.00000E+00         0.00000E+00        -0.15530E+04
 
   -0.47405E+04         0.39202E+03         0.00000E+00
    0.39202E+03        -0.35028E+03         0.00000E+00
    0.00000E+00         0.00000E+00        -0.15272E+04
 
   -0.45665E+04         0.43725E+03         0.00000E+00
    0.43725E+03        -0.42820E+03         0.00000E+00
    0.00000E+00         0.00000E+00        -0.14984E+04
 
   -0.43738E+04         0.48232E+03         0.00000E+00
    0.48232E+03        -0.51447E+03         0.00000E+00
    0.00000E+00         0.00000E+00        -0.14665E+04
 
   -0.41622E+04         0.52688E+03         0.00000E+00
    0.52688E+03        -0.60901E+03         0.00000E+00
    0.00000E+00         0.00000E+00        -0.14314E+04
 
   -0.39318E+04         0.57057E+03         0.00000E+00
    0.57057E+03        -0.71167E+03         0.00000E+00
    0.00000E+00         0.00000E+00        -0.13931E+04
 
   -0.36827E+04         0.61304E+03         0.00000E+00
    0.61304E+03        -0.82225E+03         0.00000E+00
    0.00000E+00         0.00000E+00        -0.13515E+04
 
   -0.34149E+04         0.65393E+03         0.00000E+00
    0.65393E+03        -0.94049E+03         0.00000E+00
    0.00000E+00         0.00000E+00        -0.13066E+04
 
   -0.31289E+04         0.69286E+03         0.00000E+00
    0.69286E+03        -0.10661E+04         0.00000E+00
    0.00000E+00         0.00000E+00        -0.12585E+04
 
   -0.28250E+04         0.72946E+03         0.00000E+00
    0.72946E+03        -0.11986E+04         0.00000E+00
    0.00000E+00         0.00000E+00        -0.12071E+04
 
   -0.25039E+04         0.76333E+03         0.00000E+00
    0.76333E+03        -0.13376E+04         0.00000E+00
    0.00000E+00         0.00000E+00        -0.11525E+04
 
   -0.21662E+04         0.79403E+03         0.00000E+00
    0.79403E+03        -0.14826E+04         0.00000E+00
    0.00000E+00         0.00000E+00        -0.10947E+04
 
   -0.18128E+04         0.82111E+03         0.00000E+00
    0.82111E+03        -0.16331E+04         0.00000E+00
    0.00000E+00         0.00000E+00        -0.10338E+04
 
   -0.14447E+04         0.84410E+03         0.00000E+00
    0.84410E+03        -0.17882E+04         0.00000E+00
    0.00000E+00         0.00000E+00        -0.96988E+03
 
   -0.10631E+04         0.86249E+03         0.00000E+00
    0.86249E+03        -0.19473E+04         0.00000E+00
    0.00000E+00         0.00000E+00        -0.90312E+03
 
   -0.55460E+04         0.97649E+01         0.00000E+00
    0.97649E+01        -0.84978E+00         0.00000E+00
    0.00000E+00         0.00000E+00        -0.16640E+04
 
   -0.55219E+04         0.31496E+02         0.00000E+00
    0.31496E+02        -0.55094E+01         0.00000E+00
    0.00000E+00         0.00000E+00        -0.16582E+04
 
   -0.54873E+04         0.55959E+02         0.00000E+00
    0.55959E+02        -0.15445E+02         0.00000E+00
    0.00000E+00         0.00000E+00        -0.16508E+04
 
   -0.54408E+04         0.82932E+02         0.00000E+00
    0.82932E+02        -0.31262E+02         0.00000E+00
    0.00000E+00         0.00000E+00        -0.16416E+04
 
   -0.53813E+04         0.11217E+03         0.00000E+00
    0.11217E+03        -0.53502E+02         0.00000E+00
    0.00000E+00         0.00000E+00        -0.16304E+04
 
   -0.53077E+04         0.14339E+03         0.00000E+00
    0.14339E+03        -0.82645E+02         0.00000E+00
    0.00000E+00         0.00000E+00        -0.16171E+04
 
   -0.52192E+04         0.17631E+03         0.00000E+00
    0.17631E+03        -0.11910E+03         0.00000E+00
    0.00000E+00         0.00000E+00        -0.16015E+04
 
   -0.51147E+04         0.21063E+03         0.00000E+00
    0.21063E+03        -0.16319E+03         0.00000E+00
    0.00000E+00         0.00000E+00        -0.15834E+04
 
   -0.49937E+04         0.24604E+03         0.00000E+00
    0.24604E+03        -0.21520E+03         0.00000E+00
    0.00000E+00         0.00000E+00        -0.15627E+04
 
   -0.48554E+04         0.28225E+03         0.00000E+00
    0.28225E+03        -0.27532E+03         0.00000E+00
    0.00000E+00         0.00000E+00        -0.15392E+04
 
   -0.46995E+04         0.31895E+03         0.00000E+00
    0.31895E+03        -0.34367E+03         0.00000E+00
    0.00000E+00         0.00000E+00        -0.15129E+04
 
   -0.45254E+04         0.35584E+03         0.00000E+00
    0.35584E+03        -0.42032E+03         0.00000E+00
    0.00000E+00         0.00000E+00        -0.14837E+04
 
   -0.43330E+04         0.39262E+03         0.00000E+00
    0.39262E+03        -0.50524E+03         0.00000E+00
    0.00000E+00         0.00000E+00        -0.14515E+04
 
   -0.41221E+04         0.42899E+03         0.00000E+00
    0.42899E+03        -0.59839E+03         0.00000E+00
    0.00000E+00         0.00000E+00        -0.14161E+04
 
   -0.38927E+04         0.46467E+03         0.00000E+00
    0.46467E+03        -0.69960E+03         0.00000E+00
    0.00000E+00         0.00000E+00        -0.13777E+04
 
   -0.36448E+04         0.49936E+03         0.00000E+00
    0.49936E+03        -0.80871E+03         0.00000E+00
    0.00000E+00         0.00000E+00        -0.13360E+04
 
   -0.33786E+04         0.53276E+03         0.00000E+00
    0.53276E+03        -0.92543E+03         0.00000E+00
    0.00000E+00         0.00000E+00        -0.12912E+04
 
   -0.30945E+04         0.56456E+03         0.00000E+00
    0.56456E+03        -0.10495E+04         0.00000E+00
    0.00000E+00         0.00000E+00        -0.12432E+04
 
   -0.27930E+04         0.59444E+03         0.00000E+00
    0.59444E+03        -0.11804E+04         0.00000E+00
    0.00000E+00         0.00000E+00        -0.11920E+04
 
   -0.24745E+04         0.62206E+03         0.00000E+00
    0.62206E+03        -0.13178E+04         0.00000E+00
    0.00000E+00         0.00000E+00        -0.11377E+04
 
   -0.21399E+04         0.64709E+03         0.00000E+00
    0.64709E+03        -0.14611E+04         0.00000E+00
    0.00000E+00         0.00000E+00        -0.10803E+04
 
   -0.17901E+04         0.66914E+03         0.00000E+00
    0.66914E+03        -0.16098E+04         0.00000E+00
    0.00000E+00         0.00000E+00        -0.10200E+04
 
   -0.14259E+04         0.68781E+03         0.00000E+00
    0.68781E+03        -0.17631E+04         0.00000E+00
    0.00000E+00         0.00000E+00        -0.95672E+03
 
   -0.10487E+04         0.70269E+03         0.00000E+00
    0.70269E+03        -0.19203E+04         0.00000E+00
    0.00000E+00         0.00000E+00        -0.89071E+03
 
   -0.55280E+04         0.75623E+01         0.00000E+00
    0.75623E+01        -0.83843E+00         0.00000E+00
    0.00000E+00         0.00000E+00        -0.16586E+04
 
   -0.55014E+04         0.24380E+02         0.00000E+00
    0.24380E+02        -0.54306E+01         0.00000E+00
    0.00000E+00         0.00000E+00        -0.16520E+04
 
   -0.54644E+04         0.43302E+02         0.00000E+00
    0.43302E+02        -0.15214E+02         0.00000E+00
    0.00000E+00         0.00000E+00        -0.16439E+04
 
   -0.54158E+04         0.64165E+02         0.00000E+00
    0.64165E+02        -0.30780E+02         0.00000E+00
    0.00000E+00         0.00000E+00        -0.16340E+04
 
   -0.53545E+04         0.86780E+02         0.00000E+00
    0.86780E+02        -0.52666E+02         0.00000E+00
    0.00000E+00         0.00000E+00        -0.16221E+04
 
   -0.52793E+04         0.11094E+03         0.00000E+00
    0.11094E+03        -0.81345E+02         0.00000E+00
    0.00000E+00         0.00000E+00        -0.16082E+04
 
   -0.51893E+04         0.13642E+03         0.00000E+00
    0.13642E+03        -0.11723E+03         0.00000E+00
    0.00000E+00         0.00000E+00        -0.15920E+04
 
   -0.50838E+04         0.16300E+03         0.00000E+00
    0.16300E+03        -0.16065E+03         0.00000E+00
    0.00000E+00         0.00000E+00        -0.15733E+04
 
   -0.49619E+04         0.19044E+03         0.00000E+00
    0.19044E+03        -0.21190E+03         0.00000E+00
    0.00000E+00         0.00000E+00        -0.15521E+04
 
   -0.48231E+04         0.21851E+03         0.00000E+00
    0.21851E+03        -0.27116E+03         0.00000E+00
    0.00000E+00         0.00000E+00        -0.15283E+04
 
   -0.46668E+04         0.24697E+03         0.00000E+00
    0.24697E+03        -0.33859E+03         0.00000E+00
    0.00000E+00         0.00000E+00        -0.15016E+04
 
   -0.44927E+04         0.27559E+03         0.00000E+00
    0.27559E+03        -0.41424E+03         0.00000E+00
    0.00000E+00         0.00000E+00        -0.14721E+04
 
   -0.43005E+04         0.30414E+03         0.00000E+00
    0.30414E+03        -0.49812E+03         0.00000E+00
    0.00000E+00         0.00000E+00        -0.14396E+04
 
   -0.40901E+04         0.33238E+03         0.00000E+00
    0.33238E+03        -0.59016E+03         0.00000E+00
    0.00000E+00         0.00000E+00        -0.14041E+04
 
   -0.38614E+04         0.36008E+03         0.00000E+00
    0.36008E+03        -0.69025E+03         0.00000E+00
    0.00000E+00         0.00000E+00        -0.13655E+04
 
   -0.36145E+04         0.38702E+03         0.00000E+00
    0.38702E+03        -0.79818E+03         0.00000E+00
    0.00000E+00         0.00000E+00        -0.13238E+04
 
   -0.33496E+04         0.41296E+03         0.00000E+00
    0.41296E+03        -0.91371E+03         0.00000E+00
    0.00000E+00         0.00000E+00        -0.12790E+04
 
   -0.30671E+04         0.43765E+03         0.00000E+00
    0.43765E+03        -0.10365E+04         0.00000E+00
    0.00000E+00         0.00000E+00        -0.12311E+04
 
   -0.27674E+04         0.46085E+03         0.00000E+00
    0.46085E+03        -0.11662E+04         0.00000E+00
    0.00000E+00         0.00000E+00        -0.11801E+04
 
   -0.24511E+04         0.48229E+03         0.00000E+00
    0.48229E+03        -0.13023E+04         0.00000E+00
    0.00000E+00         0.00000E+00        -0.11260E+04
 
   -0.21190E+04         0.50169E+03         0.00000E+00
    0.50169E+03        -0.14443E+04         0.00000E+00
    0.00000E+00         0.00000E+00        -0.10690E+04
 
   -0.17720E+04         0.51876E+03         0.00000E+00
    0.51876E+03        -0.15916E+04         0.00000E+00
    0.00000E+00         0.00000E+00        -0.10091E+04
 
   -0.14110E+04         0.53320E+03         0.00000E+00
    0.53320E+03        -0.17434E+04         0.00000E+00
    0.00000E+00         0.00000E+00        -0.94633E+03
 
   -0.10374E+04         0.54468E+03         0.00000E+00
    0.54468E+03        -0.18990E+04         0.00000E+00
    0.00000E+00         0.00000E+00        -0.88093E+03
 
   -0.55145E+04         0.53850E+01         0.00000E+00
    0.53850E+01        -0.83057E+00         0.00000E+00
    0.00000E+00         0.00000E+00        -0.16546E+04
 
   -0.54861E+04         0.17353E+02         0.00000E+00
    0.17353E+02        -0.53754E+01         0.00000E+00
    0.00000E+00         0.00000E+00        -0.16474E+04
 
   -0.54474E+04         0.30815E+02         0.00000E+00
    0.30815E+02        -0.15050E+02         0.00000E+00
    0.00000E+00         0.00000E+00        -0.16387E+04
 
   -0.53972E+04         0.45656E+02         0.00000E+00
    0.45656E+02        -0.30437E+02         0.00000E+00
    0.00000E+00         0.00000E+00        -0.16283E+04
 
   -0.53344E+04         0.61745E+02         0.00000E+00
    0.61745E+02        -0.52067E+02         0.00000E+00
    0.00000E+00         0.00000E+00        -0.16159E+04
 
   -0.52580E+04         0.78937E+02         0.00000E+00
    0.78937E+02        -0.80412E+02         0.00000E+00
    0.00000E+00         0.00000E+00        -0.16015E+04
 
   -0.51670E+04         0.97076E+02         0.00000E+00
    0.97076E+02        -0.11588E+03         0.00000E+00
    0.00000E+00         0.00000E+00        -0.15849E+04
 
   -0.50606E+04         0.11600E+03         0.00000E+00
    0.11600E+03        -0.15882E+03         0.00000E+00
    0.00000E+00         0.00000E+00        -0.15658E+04
 
   -0.49381E+04         0.13555E+03         0.00000E+00
    0.13555E+03        -0.20950E+03         0.00000E+00
    0.00000E+00         0.00000E+00        -0.15443E+04
 
   -0.47988E+04         0.15554E+03         0.00000E+00
    0.15554E+03        -0.26815E+03         0.00000E+00
    0.00000E+00         0.00000E+00        -0.15201E+04
 
   -0.46423E+04         0.17583E+03         0.00000E+00
    0.17583E+03        -0.33489E+03         0.00000E+00
    0.00000E+00         0.00000E+00        -0.14932E+04
 
   -0.44682E+04         0.19623E+03         0.00000E+00
    0.19623E+03        -0.40981E+03         0.00000E+00
    0.00000E+00         0.00000E+00        -0.14634E+04
 
   -0.42762E+04         0.21659E+03         0.00000E+00
    0.21659E+03        -0.49292E+03         0.00000E+00
    0.00000E+00         0.00000E+00        -0.14307E+04
 
   -0.40661E+04         0.23673E+03         0.00000E+00
    0.23673E+03        -0.58416E+03         0.00000E+00
    0.00000E+00         0.00000E+00        -0.13951E+04
 
   -0.38379E+04         0.25650E+03         0.00000E+00
    0.25650E+03        -0.68340E+03         0.00000E+00
    0.00000E+00         0.00000E+00        -0.13564E+04
 
   -0.35918E+04         0.27572E+03         0.00000E+00
    0.27572E+03        -0.79047E+03         0.00000E+00
    0.00000E+00         0.00000E+00        -0.13147E+04
 
   -0.33279E+04         0.29422E+03         0.00000E+00
    0.29422E+03        -0.90511E+03         0.00000E+00
    0.00000E+00         0.00000E+00        -0.12699E+04
 
   -0.30466E+04         0.31184E+03         0.00000E+00
    0.31184E+03        -0.10270E+04         0.00000E+00
    0.00000E+00         0.00000E+00        -0.12221E+04
 
   -0.27483E+04         0.32838E+03         0.00000E+00
    0.32838E+03        -0.11557E+04         0.00000E+00
    0.00000E+00         0.00000E+00        -0.11712E+04
 
   -0.24336E+04         0.34367E+03         0.00000E+00
    0.34367E+03        -0.12909E+04         0.00000E+00
    0.00000E+00         0.00000E+00        -0.11173E+04
 
   -0.21034E+04         0.35749E+03         0.00000E+00
    0.35749E+03        -0.14318E+04         0.00000E+00
    0.00000E+00         0.00000E+00        -0.10606E+04
 
   -0.17585E+04         0.36965E+03         0.00000E+00
    0.36965E+03        -0.15781E+04         0.00000E+00
    0.00000E+00         0.00000E+00        -0.10010E+04
 
   -0.13999E+04         0.37992E+03         0.00000E+00
    0.37992E+03        -0.17288E+04         0.00000E+00
    0.00000E+00         0.00000E+00        -0.93861E+03
 
   -0.10290E+04         0.38806E+03         0.00000E+00
    0.38806E+03        -0.18833E+04         0.00000E+00
    0.00000E+00         0.00000E+00        -0.87367E+03
 
   -0.55056E+04         0.32246E+01         0.00000E+00
    0.32246E+01        -0.82565E+00         0.00000E+00
    0.00000E+00         0.00000E+00        -0.16519E+04
 
   -0.54759E+04         0.10388E+02         0.00000E+00
    0.10388E+02        -0.53405E+01         0.00000E+00
    0.00000E+00         0.00000E+00        -0.16444E+04
 
   -0.54361E+04         0.18444E+02         0.00000E+00
    0.18444E+02        -0.14946E+02         0.00000E+00
    0.00000E+00         0.00000E+00        -0.16353E+04
 
   -0.53848E+04         0.27325E+02         0.00000E+00
    0.27325E+02        -0.30218E+02         0.00000E+00
    0.00000E+00         0.00000E+00        -0.16245E+04
 
   -0.53211E+04         0.36953E+02         0.00000E+00
    0.36953E+02        -0.51682E+02         0.00000E+00
    0.00000E+00         0.00000E+00        -0.16118E+04
 
   -0.52439E+04         0.47242E+02         0.00000E+00
    0.47242E+02        -0.79809E+02         0.00000E+00
    0.00000E+00         0.00000E+00        -0.15971E+04
 
   -0.51522E+04         0.58100E+02         0.00000E+00
    0.58100E+02        -0.11501E+03         0.00000E+00
    0.00000E+00         0.00000E+00        -0.15802E+04
 
   -0.50452E+04         0.69430E+02         0.00000E+00
    0.69430E+02        -0.15763E+03         0.00000E+00
    0.00000E+00         0.00000E+00        -0.15609E+04
 
   -0.49223E+04         0.81135E+02         0.00000E+00
    0.81135E+02        -0.20795E+03         0.00000E+00
    0.00000E+00         0.00000E+00        -0.15391E+04
 
   -0.47827E+04         0.93114E+02         0.00000E+00
    0.93114E+02        -0.26618E+03         0.00000E+00
    0.00000E+00         0.00000E+00        -0.15147E+04
 
   -0.46260E+04         0.10527E+03         0.00000E+00
    0.10527E+03        -0.33248E+03         0.00000E+00
    0.00000E+00         0.00000E+00        -0.14876E+04
 
   -0.44519E+04         0.11749E+03         0.00000E+00
    0.11749E+03        -0.40692E+03         0.00000E+00
    0.00000E+00         0.00000E+00        -0.14576E+04
 
   -0.42600E+04         0.12969E+03         0.00000E+00
    0.12969E+03        -0.48952E+03         0.00000E+00
    0.00000E+00         0.00000E+00        -0.14248E+04
 
   -0.40501E+04         0.14177E+03         0.00000E+00
    0.14177E+03        -0.58023E+03         0.00000E+00
    0.00000E+00         0.00000E+00        -0.13891E+04
 
   -0.38223E+04         0.15362E+03         0.00000E+00
    0.15362E+03        -0.67892E+03         0.00000E+00
    0.00000E+00         0.00000E+00        -0.13504E+04
 
   -0.35767E+04         0.16514E+03         0.00000E+00
    0.16514E+03        -0.78541E+03         0.00000E+00
    0.00000E+00         0.00000E+00        -0.13086E+04
 
   -0.33134E+04         0.17624E+03         0.00000E+00
    0.17624E+03        -0.89946E+03         0.00000E+00
    0.00000E+00         0.00000E+00        -0.12639E+04
 
   -0.30329E+04         0.18680E+03         0.00000E+00
    0.18680E+03        -0.10207E+04         0.00000E+00
    0.00000E+00         0.00000E+00        -0.12161E+04
 
   -0.27355E+04         0.19671E+03         0.00000E+00
    0.19671E+03        -0.11488E+04         0.00000E+00
    0.00000E+00         0.00000E+00        -0.11653E+04
 
   -0.24220E+04         0.20587E+03         0.00000E+00
    0.20587E+03        -0.12833E+04         0.00000E+00
    0.00000E+00         0.00000E+00        -0.11116E+04
 
   -0.20930E+04         0.21415E+03         0.00000E+00
    0.21415E+03        -0.14236E+04         0.00000E+00
    0.00000E+00         0.00000E+00        -0.10550E+04
 
   -0.17495E+04         0.22143E+03         0.00000E+00
    0.22143E+03        -0.15692E+04         0.00000E+00
    0.00000E+00         0.00000E+00        -0.99559E+03
 
   -0.13925E+04         0.22757E+03         0.00000E+00
    0.22757E+03        -0.17192E+04         0.00000E+00
    0.00000E+00         0.00000E+00        -0.93351E+03
 
   -0.10234E+04         0.23244E+03         0.00000E+00
    0.23244E+03        -0.18729E+04         0.00000E+00
    0.00000E+00         0.00000E+00        -0.86888E+03
 
   -0.55011E+04         0.10738E+01         0.00000E+00
    0.10738E+01        -0.82328E+00         0.00000E+00
    0.00000E+00         0.00000E+00        -0.16506E+04
 
   -0.54709E+04         0.34590E+01         0.00000E+00
    0.34590E+01        -0.53236E+01         0.00000E+00
    0.00000E+00         0.00000E+00        -0.16429E+04
 
   -0.54304E+04         0.61406E+01         0.00000E+00
    0.61406E+01        -0.14895E+02         0.00000E+00
    0.00000E+00         0.00000E+00        -0.16336E+04
 
   -0.53787E+04         0.90968E+01         0.00000E+00
    0.90968E+01        -0.30111E+02         0.00000E+00
    0.00000E+00         0.00000E+00        -0.16226E+04
 
   -0.53145E+04         0.12302E+02         0.00000E+00
    0.12302E+02        -0.51494E+02         0.00000E+00
    0.00000E+00         0.00000E+00        -0.16098E+04
 
   -0.52368E+04         0.15727E+02         0.00000E+00
    0.15727E+02        -0.79514E+02         0.00000E+00
    0.00000E+00         0.00000E+00        -0.15949E+04
 
   -0.51448E+04         0.19343E+02         0.00000E+00
    0.19343E+02        -0.11458E+03         0.00000E+00
    0.00000E+00         0.00000E+00        -0.15778E+04
 
   -0.50375E+04         0.23115E+02         0.00000E+00
    0.23115E+02        -0.15704E+03         0.00000E+00
    0.00000E+00         0.00000E+00        -0.15584E+04
 
   -0.49144E+04         0.27013E+02         0.00000E+00
    0.27013E+02        -0.20718E+03         0.00000E+00
    0.00000E+00         0.00000E+00        -0.15365E+04
 
   -0.47747E+04         0.31003E+02         0.00000E+00
    0.31003E+02        -0.26522E+03         0.00000E+00
    0.00000E+00         0.00000E+00        -0.15120E+04
 
   -0.46179E+04         0.35051E+02         0.00000E+00
    0.35051E+02        -0.33130E+03         0.00000E+00
    0.00000E+00         0.00000E+00        -0.14848E+04
 
   -0.44437E+04         0.39123E+02         0.00000E+00
    0.39123E+02        -0.40550E+03         0.00000E+00
    0.00000E+00         0.00000E+00        -0.14548E+04
 
   -0.42519E+04         0.43188E+02         0.00000E+00
    0.43188E+02        -0.48785E+03         0.00000E+00
    0.00000E+00         0.00000E+00        -0.14219E+04
 
   -0.40421E+04         0.47211E+02         0.00000E+00
    0.47211E+02        -0.57829E+03         0.00000E+00
    0.00000E+00         0.00000E+00        -0.13861E+04
 
   -0.38145E+04         0.51159E+02         0.00000E+00
    0.51159E+02        -0.67670E+03         0.00000E+00
    0.00000E+00         0.00000E+00        -0.13474E+04
 
   -0.35692E+04         0.54999E+02         0.00000E+00
    0.54999E+02        -0.78291E+03         0.00000E+00
    0.00000E+00         0.00000E+00        -0.13056E+04
 
   -0.33062E+04         0.58695E+02         0.00000E+00
    0.58695E+02        -0.89666E+03         0.00000E+00
    0.00000E+00         0.00000E+00        -0.12609E+04
 
   -0.30260E+04         0.62214E+02         0.00000E+00
    0.62214E+02        -0.10176E+04         0.00000E+00
    0.00000E+00         0.00000E+00        -0.12131E+04
 
   -0.27291E+04         0.65518E+02         0.00000E+00
    0.65518E+02        -0.11454E+04         0.00000E+00
    0.00000E+00         0.00000E+00        -0.11624E+04
 
   -0.24161E+04         0.68569E+02         0.00000E+00
    0.68569E+02        -0.12796E+04         0.00000E+00
    0.00000E+00         0.00000E+00        -0.11087E+04
 
   -0.20878E+04         0.71327E+02         0.00000E+00
    0.71327E+02        -0.14196E+04         0.00000E+00
    0.00000E+00         0.00000E+00        -0.10522E+04
 
   -0.17450E+04         0.73750E+02         0.00000E+00
    0.73750E+02        -0.15647E+04         0.00000E+00
    0.00000E+00         0.00000E+00        -0.99292E+03
 
   -0.13889E+04         0.75794E+02         0.00000E+00
    0.75794E+02        -0.17144E+04         0.00000E+00
    0.00000E+00         0.00000E+00        -0.93097E+03
 
   -0.10206E+04         0.77413E+02         0.00000E+00
    0.77413E+02        -0.18677E+04         0.00000E+00
    0.00000E+00         0.00000E+00        -0.86649E+03
 
TENSORS stresstot double 
   -0.50391E+05         0.36730E+03         0.00000E+00
    0.36730E+03        -0.10022E+06         0.00000E+00
    0.00000E+00         0.00000E+00        -0.56226E+05
 
   -0.40546E+05         0.26486E+04         0.00000E+00
    0.26486E+04        -0.96900E+05         0.00000E+00
    0.00000E+00         0.00000E+00        -0.65782E+05
 
   -0.34885E+05         0.38063E+04         0.00000E+00
    0.38063E+04        -0.88952E+05         0.00000E+00
    0.00000E+00         0.00000E+00        -0.63209E+05
 
   -0.29645E+05         0.40509E+04         0.00000E+00
    0.40509E+04        -0.80509E+05         0.00000E+00
    0.00000E+00         0.00000E+00        -0.57496E+05
 
   -0.24761E+05         0.38935E+04         0.00000E+00
    0.38935E+04        -0.72692E+05         0.00000E+00
    0.00000E+00         0.00000E+00        -0.51282E+05
 
   -0.20330E+05         0.35934E+04         0.00000E+00
    0.35934E+04        -0.65568E+05         0.00000E+00
    0.00000E+00         0.00000E+00        -0.45219E+05
 
   -0.16348E+05         0.32081E+04         0.00000E+00
    0.32081E+04        -0.59151E+05         0.00000E+00
    0.00000E+00         0.00000E+00        -0.39561E+05
 
   -0.13259E+05         0.27880E+04         0.00000E+00
    0.27880E+04        -0.53412E+05         0.00000E+00
    0.00000E+00         0.00000E+00        -0.34605E+05
 
   -0.10653E+05         0.24213E+04         0.00000E+00
    0.24213E+04        -0.48357E+05         0.00000E+00
    0.00000E+00         0.00000E+00        -0.30293E+05
 
   -0.83767E+04         0.20929E+04         0.00000E+00
    0.20929E+04        -0.43954E+05         0.00000E+00
    0.00000E+00         0.00000E+00        -0.26573E+05
 
   -0.64942E+04         0.18174E+04         0.00000E+00
    0.18174E+04        -0.40076E+05         0.00000E+00
    0.00000E+00         0.00000E+00        -0.23398E+05
 
   -0.48386E+04         0.16290E+04         0.00000E+00
    0.16290E+04        -0.36660E+05         0.00000E+00
    0.00000E+00         0.00000E+00        -0.20596E+05
 
   -0.33193E+04         0.14654E+04         0.00000E+00
    0.14654E+04        -0.33629E+05         0.00000E+00
    0.00000E+00         0.00000E+00        -0.18044E+05
 
   -0.19102E+04         0.13215E+04         0.00000E+00
    0.13215E+04        -0.30891E+05         0.00000E+00
    0.00000E+00         0.00000E+00        -0.15675E+05
 
   -0.62664E+03         0.11691E+04         0.00000E+00
    0.11691E+04        -0.28436E+05         0.00000E+00
    0.00000E+00         0.00000E+00        -0.13468E+05
 
    0.38828E+03         0.10430E+04         0.00000E+00
    0.10430E+04        -0.26254E+05         0.00000E+00
    0.00000E+00         0.00000E+00        -0.11469E+05
 
    0.12312E+04         0.89577E+03         0.00000E+00
    0.89577E+03        -0.24359E+05         0.00000E+00
    0.00000E+00         0.00000E+00        -0.96121E+04
 
    0.19401E+04         0.79589E+03         0.00000E+00
    0.79589E+03        -0.22703E+05         0.00000E+00
    0.00000E+00         0.00000E+00        -0.79618E+04
 
    0.25345E+04         0.70734E+03         0.00000E+00
    0.70734E+03        -0.21226E+05         0.00000E+00
    0.00000E+00         0.00000E+00        -0.64142E+04
 
    0.27045E+04         0.63230E+03         0.00000E+00
    0.63230E+03        -0.19901E+05         0.00000E+00
    0.00000E+00         0.00000E+00        -0.52517E+04
 
    0.78899E+03         0.54023E+03         0.00000E+00
    0.54023E+03        -0.18737E+05         0.00000E+00
    0.00000E+00         0.00000E+00        -0.53843E+04
 
   -0.13049E+04         0.48390E+03         0.00000E+00
    0.48390E+03        -0.17720E+05         0.00000E+00
    0.00000E+00         0.00000E+00        -0.57075E+04
 
   -0.33711E+04         0.46006E+03         0.00000E+00
    0.46006E+03        -0.16781E+05         0.00000E+00
    0.00000E+00         0.00000E+00        -0.60456E+04
 
   -0.55070E+04         0.46042E+03         0.00000E+00
    0.46042E+03        -0.15865E+05         0.00000E+00
    0.00000E+00         0.00000E+00        -0.64115E+04
 
   -0.46905E+05         0.27391E+04         0.00000E+00
    0.27391E+04        -0.99614E+05         0.00000E+00
    0.00000E+00         0.00000E+00        -0.59029E+05
 
   -0.37182E+05         0.97166E+04         0.00000E+00
    0.97166E+04        -0.88863E+05         0.00000E+00
    0.00000E+00         0.00000E+00        -0.63738E+05
 
   -0.33484E+05         0.11696E+05         0.00000E+00
    0.11696E+05        -0.80360E+05         0.00000E+00
    0.00000E+00         0.00000E+00        -0.59430E+05
 
   -0.29650E+05         0.11870E+05         0.00000E+00
    0.11870E+05        -0.73326E+05         0.00000E+00
    0.00000E+00         0.00000E+00        -0.54320E+05
 
   -0.25346E+05         0.11185E+05         0.00000E+00
    0.11185E+05        -0.66651E+05         0.00000E+00
    0.00000E+00         0.00000E+00        -0.48714E+05
 
   -0.21103E+05         0.10180E+05         0.00000E+00
    0.10180E+05        -0.60606E+05         0.00000E+00
    0.00000E+00         0.00000E+00        -0.43217E+05
 
   -0.17293E+05         0.90435E+04         0.00000E+00
    0.90435E+04        -0.55212E+05         0.00000E+00
    0.00000E+00         0.00000E+00        -0.38134E+05
 
   -0.14047E+05         0.79392E+04         0.00000E+00
    0.79392E+04        -0.50454E+05         0.00000E+00
    0.00000E+00         0.00000E+00        -0.33598E+05
 
   -0.11359E+05         0.69290E+04         0.00000E+00
    0.69290E+04        -0.46145E+05         0.00000E+00
    0.00000E+00         0.00000E+00        -0.29593E+05
 
   -0.89791E+04         0.60580E+04         0.00000E+00
    0.60580E+04        -0.42208E+05         0.00000E+00
    0.00000E+00         0.00000E+00        -0.26015E+05
 
   -0.69214E+04         0.53488E+04         0.00000E+00
    0.53488E+04        -0.38725E+05         0.00000E+00
    0.00000E+00         0.00000E+00        -0.22876E+05
 
   -0.51691E+04         0.47850E+04         0.00000E+00
    0.47850E+04        -0.35551E+05         0.00000E+00
    0.00000E+00         0.00000E+00        -0.20117E+05
 
   -0.36323E+04         0.42983E+04         0.00000E+00
    0.42983E+04        -0.32658E+05         0.00000E+00
    0.00000E+00         0.00000E+00        -0.17626E+05
 
   -0.21938E+04         0.38774E+04         0.00000E+00
    0.38774E+04        -0.30101E+05         0.00000E+00
    0.00000E+00         0.00000E+00        -0.15307E+05
 
   -0.92462E+03         0.34478E+04         0.00000E+00
    0.34478E+04        -0.27827E+05         0.00000E+00
    0.00000E+00         0.00000E+00        -0.13185E+05
 
    0.11973E+03         0.30234E+04         0.00000E+00
    0.30234E+04        -0.25818E+05         0.00000E+00
    0.00000E+00         0.00000E+00        -0.11265E+05
 
    0.99390E+03         0.26574E+04         0.00000E+00
    0.26574E+04        -0.24029E+05         0.00000E+00
    0.00000E+00         0.00000E+00        -0.94461E+04
 
    0.17507E+04         0.23527E+04         0.00000E+00
    0.23527E+04        -0.22425E+05         0.00000E+00
    0.00000E+00         0.00000E+00        -0.78184E+04
 
    0.23768E+04         0.21001E+04         0.00000E+00
    0.21001E+04        -0.21004E+05         0.00000E+00
    0.00000E+00         0.00000E+00        -0.63129E+04
 
    0.25249E+04         0.18769E+04         0.00000E+00
    0.18769E+04        -0.19710E+05         0.00000E+00
    0.00000E+00         0.00000E+00        -0.52244E+04
 
    0.63689E+03         0.16069E+04         0.00000E+00
    0.16069E+04        -0.18585E+05         0.00000E+00
    0.00000E+00         0.00000E+00        -0.53845E+04
 
   -0.13809E+04         0.14443E+04         0.00000E+00
    0.14443E+04        -0.17587E+05         0.00000E+00
    0.00000E+00         0.00000E+00        -0.56904E+04
 
   -0.33933E+04         0.13733E+04         0.00000E+00
    0.13733E+04        -0.16662E+05         0.00000E+00
    0.00000E+00         0.00000E+00        -0.60165E+04
 
   -0.54856E+04         0.13738E+04         0.00000E+00
    0.13738E+04        -0.15760E+05         0.00000E+00
    0.00000E+00         0.00000E+00        -0.63738E+04
 
   -0.34308E+05         0.16166E+05         0.00000E+00
    0.16166E+05        -0.75384E+05         0.00000E+00
    0.00000E+00         0.00000E+00        -0.55713E+05
 
   -0.33389E+05         0.18376E+05         0.00000E+00
    0.18376E+05        -0.64371E+05         0.00000E+00
    0.00000E+00         0.00000E+00        -0.52842E+05
 
   -0.33536E+05         0.18913E+05         0.00000E+00
    0.18913E+05        -0.61966E+05         0.00000E+00
    0.00000E+00         0.00000E+00        -0.51523E+05
 
   -0.30579E+05         0.17942E+05         0.00000E+00
    0.17942E+05        -0.58431E+05         0.00000E+00
    0.00000E+00         0.00000E+00        -0.47919E+05
 
   -0.26760E+05         0.16566E+05         0.00000E+00
    0.16566E+05        -0.55017E+05         0.00000E+00
    0.00000E+00         0.00000E+00        -0.43895E+05
 
   -0.22640E+05         0.14973E+05         0.00000E+00
    0.14973E+05        -0.51500E+05         0.00000E+00
    0.00000E+00         0.00000E+00        -0.39628E+05
 
   -0.18792E+05         0.13368E+05         0.00000E+00
    0.13368E+05        -0.48055E+05         0.00000E+00
    0.00000E+00         0.00000E+00        -0.35481E+05
 
   -0.15435E+05         0.11880E+05         0.00000E+00
    0.11880E+05        -0.44737E+05         0.00000E+00
    0.00000E+00         0.00000E+00        -0.31594E+05
 
   -0.12522E+05         0.10622E+05         0.00000E+00
    0.10622E+05        -0.41612E+05         0.00000E+00
    0.00000E+00         0.00000E+00        -0.28020E+05
 
   -0.99566E+04         0.94652E+04         0.00000E+00
    0.94652E+04        -0.38612E+05         0.00000E+00
    0.00000E+00         0.00000E+00        -0.24768E+05
 
   -0.77452E+04         0.84419E+04         0.00000E+00
    0.84419E+04        -0.35718E+05         0.00000E+00
    0.00000E+00         0.00000E+00        -0.21794E+05
 
   -0.58439E+04         0.75695E+04         0.00000E+00
    0.75695E+04        -0.33140E+05         0.00000E+00
    0.00000E+00         0.00000E+00        -0.19138E+05
 
   -0.42040E+04         0.68304E+04         0.00000E+00
    0.68304E+04        -0.30829E+05         0.00000E+00
    0.00000E+00         0.00000E+00        -0.16768E+05
 
   -0.27501E+04         0.61366E+04         0.00000E+00
    0.61366E+04        -0.28684E+05         0.00000E+00
    0.00000E+00         0.00000E+00        -0.14613E+05
 
   -0.14931E+04         0.54808E+04         0.00000E+00
    0.54808E+04        -0.26720E+05         0.00000E+00
    0.00000E+00         0.00000E+00        -0.12623E+05
 
   -0.38869E+03         0.48451E+04         0.00000E+00
    0.48451E+04        -0.24951E+05         0.00000E+00
    0.00000E+00         0.00000E+00        -0.10746E+05
 
    0.57353E+03         0.42774E+04         0.00000E+00
    0.42774E+04        -0.23346E+05         0.00000E+00
    0.00000E+00         0.00000E+00        -0.90464E+04
 
    0.13887E+04         0.38061E+04         0.00000E+00
    0.38061E+04        -0.21894E+05         0.00000E+00
    0.00000E+00         0.00000E+00        -0.75201E+04
 
    0.20778E+04         0.34279E+04         0.00000E+00
    0.34279E+04        -0.20566E+05         0.00000E+00
    0.00000E+00         0.00000E+00        -0.61163E+04
 
    0.21726E+04         0.30632E+04         0.00000E+00
    0.30632E+04        -0.19352E+05         0.00000E+00
    0.00000E+00         0.00000E+00        -0.51739E+04
 
    0.34950E+03         0.26406E+04         0.00000E+00
    0.26406E+04        -0.18272E+05         0.00000E+00
    0.00000E+00         0.00000E+00        -0.53767E+04
 
   -0.15292E+04         0.23831E+04         0.00000E+00
    0.23831E+04        -0.17308E+05         0.00000E+00
    0.00000E+00         0.00000E+00        -0.56512E+04
 
   -0.34392E+04         0.22644E+04         0.00000E+00
    0.22644E+04        -0.16414E+05         0.00000E+00
    0.00000E+00         0.00000E+00        -0.59559E+04
 
   -0.54425E+04         0.22634E+04         0.00000E+00
    0.22634E+04        -0.15545E+05         0.00000E+00
    0.00000E+00         0.00000E+00        -0.62962E+04
 
   -0.13667E+05         0.14261E+05         0.00000E+00
    0.14261E+05        -0.27519E+05         0.00000E+00
    0.00000E+00         0.00000E+00        -0.24696E+05
 
   -0.33315E+05         0.19993E+05         0.00000E+00
    0.19993E+05        -0.37879E+05         0.00000E+00
    0.00000E+00         0.00000E+00        -0.41094E+05
 
   -0.33834E+05         0.19630E+05         0.00000E+00
    0.19630E+05        -0.37797E+05         0.00000E+00
    0.00000E+00         0.00000E+00        -0.40565E+05
 
   -0.31843E+05         0.19156E+05         0.00000E+00
    0.19156E+05        -0.38809E+05         0.00000E+00
    0.00000E+00         0.00000E+00        -0.39546E+05
 
   -0.28267E+05         0.18222E+05         0.00000E+00
    0.18222E+05        -0.38968E+05         0.00000E+00
    0.00000E+00         0.00000E+00        -0.37283E+05
 
   -0.24305E+05         0.17046E+05         0.00000E+00
    0.17046E+05        -0.38593E+05         0.00000E+00
    0.00000E+00         0.00000E+00        -0.34534E+05
 
   -0.20436E+05         0.15706E+05         0.00000E+00
    0.15706E+05        -0.37658E+05         0.00000E+00
    0.00000E+00         0.00000E+00        -0.31522E+05
 
   -0.16926E+05         0.14338E+05         0.00000E+00
    0.14338E+05        -0.36332E+05         0.00000E+00
    0.00000E+00         0.00000E+00        -0.28473E+05
 
   -0.13889E+05         0.13037E+05         0.00000E+00
    0.13037E+05        -0.34814E+05         0.00000E+00
    0.00000E+00         0.00000E+00        -0.25514E+05
 
   -0.11146E+05         0.11875E+05         0.00000E+00
    0.11875E+05        -0.33248E+05         0.00000E+00
    0.00000E+00         0.00000E+00        -0.22674E+05
 
   -0.87931E+04         0.10766E+05         0.00000E+00
    0.10766E+05        -0.31607E+05         0.00000E+00
    0.00000E+00         0.00000E+00        -0.20065E+05
 
   -0.67725E+04         0.96977E+04         0.00000E+00
    0.96977E+04        -0.29870E+05         0.00000E+00
    0.00000E+00         0.00000E+00        -0.17688E+05
 
   -0.50155E+04         0.87620E+04         0.00000E+00
    0.87620E+04        -0.28192E+05         0.00000E+00
    0.00000E+00         0.00000E+00        -0.15537E+05
 
   -0.35112E+04         0.79189E+04         0.00000E+00
    0.79189E+04        -0.26640E+05         0.00000E+00
    0.00000E+00         0.00000E+00        -0.13603E+05
 
   -0.22066E+04         0.71244E+04         0.00000E+00
    0.71244E+04        -0.25200E+05         0.00000E+00
    0.00000E+00         0.00000E+00        -0.11804E+05
 
   -0.10641E+04         0.63871E+04         0.00000E+00
    0.63871E+04        -0.23832E+05         0.00000E+00
    0.00000E+00         0.00000E+00        -0.10128E+05
 
   -0.26000E+02         0.57347E+04         0.00000E+00
    0.57347E+04        -0.22452E+05         0.00000E+00
    0.00000E+00         0.00000E+00        -0.85749E+04
 
    0.91722E+03         0.51302E+04         0.00000E+00
    0.51302E+04        -0.21118E+05         0.00000E+00
    0.00000E+00         0.00000E+00        -0.71372E+04
 
    0.17001E+04         0.46607E+04         0.00000E+00
    0.46607E+04        -0.19885E+05         0.00000E+00
    0.00000E+00         0.00000E+00        -0.58498E+04
 
    0.16256E+04         0.41619E+04         0.00000E+00
    0.41619E+04        -0.18763E+05         0.00000E+00
    0.00000E+00         0.00000E+00        -0.51412E+04
 
   -0.43840E+02         0.36219E+04         0.00000E+00
    0.36219E+04        -0.17765E+05         0.00000E+00
    0.00000E+00         0.00000E+00        -0.53427E+04
 
   -0.17473E+04         0.32798E+04         0.00000E+00
    0.32798E+04        -0.16863E+05         0.00000E+00
    0.00000E+00         0.00000E+00        -0.55830E+04
 
   -0.35104E+04         0.31135E+04         0.00000E+00
    0.31135E+04        -0.16023E+05         0.00000E+00
    0.00000E+00         0.00000E+00        -0.58602E+04
 
   -0.53774E+04         0.31096E+04         0.00000E+00
    0.31096E+04        -0.15209E+05         0.00000E+00
    0.00000E+00         0.00000E+00        -0.61759E+04
 
   -0.53469E+04         0.32349E+04         0.00000E+00
    0.32349E+04         0.36723E+04         0.00000E+00
    0.00000E+00         0.00000E+00         0.23212E+03
 
   -0.27103E+05         0.11085E+05         0.00000E+00
    0.11085E+05        -0.97059E+04         0.00000E+00
    0.00000E+00         0.00000E+00        -0.19807E+05
 
   -0.32124E+05         0.14176E+05         0.00000E+00
    0.14176E+05        -0.17695E+05         0.00000E+00
    0.00000E+00         0.00000E+00        -0.27674E+05
 
   -0.30963E+05         0.15562E+05         0.00000E+00
    0.15562E+05        -0.21987E+05         0.00000E+00
    0.00000E+00         0.00000E+00        -0.29206E+05
 
   -0.28342E+05         0.16162E+05         0.00000E+00
    0.16162E+05        -0.24972E+05         0.00000E+00
    0.00000E+00         0.00000E+00        -0.29112E+05
 
   -0.24962E+05         0.16103E+05         0.00000E+00
    0.16103E+05        -0.26821E+05         0.00000E+00
    0.00000E+00         0.00000E+00        -0.27933E+05
 
   -0.21430E+05         0.15590E+05         0.00000E+00
    0.15590E+05        -0.27861E+05         0.00000E+00
    0.00000E+00         0.00000E+00        -0.26198E+05
 
   -0.18058E+05         0.14789E+05         0.00000E+00
    0.14789E+05        -0.28262E+05         0.00000E+00
    0.00000E+00         0.00000E+00        -0.24178E+05
 
   -0.15009E+05         0.13853E+05         0.00000E+00
    0.13853E+05        -0.28171E+05         0.00000E+00
    0.00000E+00         0.00000E+00        -0.22050E+05
 
   -0.12272E+05         0.12870E+05         0.00000E+00
    0.12870E+05        -0.27744E+05         0.00000E+00
    0.00000E+00         0.00000E+00        -0.19909E+05
 
   -0.98618E+04         0.11908E+05         0.00000E+00
    0.11908E+05        -0.27142E+05         0.00000E+00
    0.00000E+00         0.00000E+00        -0.17841E+05
 
   -0.77535E+04         0.10979E+05         0.00000E+00
    0.10979E+05        -0.26368E+05         0.00000E+00
    0.00000E+00         0.00000E+00        -0.15892E+05
 
   -0.59144E+04         0.10067E+05         0.00000E+00
    0.10067E+05        -0.25391E+05         0.00000E+00
    0.00000E+00         0.00000E+00        -0.14077E+05
 
   -0.43694E+04         0.91818E+04         0.00000E+00
    0.91818E+04        -0.24354E+05         0.00000E+00
    0.00000E+00         0.00000E+00        -0.12417E+05
 
   -0.29850E+04         0.83396E+04         0.00000E+00
    0.83396E+04        -0.23314E+05         0.00000E+00
    0.00000E+00         0.00000E+00        -0.10870E+05
 
   -0.17770E+04         0.76113E+04         0.00000E+00
    0.76113E+04        -0.22205E+05         0.00000E+00
    0.00000E+00         0.00000E+00        -0.94383E+04
 
   -0.69009E+03         0.69418E+04         0.00000E+00
    0.69418E+04        -0.21129E+05         0.00000E+00
    0.00000E+00         0.00000E+00        -0.80770E+04
 
    0.34342E+03         0.63231E+04         0.00000E+00
    0.63231E+04        -0.20069E+05         0.00000E+00
    0.00000E+00         0.00000E+00        -0.67235E+04
 
    0.12771E+04         0.57860E+04         0.00000E+00
    0.57860E+04        -0.18954E+05         0.00000E+00
    0.00000E+00         0.00000E+00        -0.55141E+04
 
    0.91327E+03         0.51595E+04         0.00000E+00
    0.51595E+04        -0.17920E+05         0.00000E+00
    0.00000E+00         0.00000E+00        -0.51021E+04
 
   -0.52612E+03         0.45179E+04         0.00000E+00
    0.45179E+04        -0.17043E+05         0.00000E+00
    0.00000E+00         0.00000E+00        -0.52707E+04
 
   -0.20290E+04         0.41035E+04         0.00000E+00
    0.41035E+04        -0.16239E+05         0.00000E+00
    0.00000E+00         0.00000E+00        -0.54804E+04
 
   -0.36066E+04         0.38952E+04         0.00000E+00
    0.38952E+04        -0.15486E+05         0.00000E+00
    0.00000E+00         0.00000E+00        -0.57277E+04
 
   -0.52900E+04         0.38895E+04         0.00000E+00
    0.38895E+04        -0.14750E+05         0.00000E+00
    0.00000E+00         0.00000E+00        -0.60120E+04
 
    0.33639E+03        -0.11882E+04         0.00000E+00
   -0.11882E+04        -0.16838E+04         0.00000E+00
    0.00000E+00         0.00000E+00        -0.16420E+03
 
   -0.24262E+05         0.58099E+04         0.00000E+00
    0.58099E+04        -0.31118E+04         0.00000E+00
    0.00000E+00         0.00000E+00        -0.10025E+05
 
   -0.28863E+05         0.95685E+04         0.00000E+00
    0.95685E+04        -0.92097E+04         0.00000E+00
    0.00000E+00         0.00000E+00        -0.18316E+05
 
   -0.29153E+05         0.11881E+05         0.00000E+00
    0.11881E+05        -0.13479E+05         0.00000E+00
    0.00000E+00         0.00000E+00        -0.21768E+05
 
   -0.27273E+05         0.13319E+05         0.00000E+00
    0.13319E+05        -0.16587E+05         0.00000E+00
    0.00000E+00         0.00000E+00        -0.22791E+05
 
   -0.24636E+05         0.14068E+05         0.00000E+00
    0.14068E+05        -0.18911E+05         0.00000E+00
    0.00000E+00         0.00000E+00        -0.22591E+05
 
   -0.21632E+05         0.14282E+05         0.00000E+00
    0.14282E+05        -0.20587E+05         0.00000E+00
    0.00000E+00         0.00000E+00        -0.21711E+05
 
   -0.18606E+05         0.14091E+05         0.00000E+00
    0.14091E+05        -0.21700E+05         0.00000E+00
    0.00000E+00         0.00000E+00        -0.20427E+05
 
   -0.15747E+05         0.13634E+05         0.00000E+00
    0.13634E+05        -0.22353E+05         0.00000E+00
    0.00000E+00         0.00000E+00        -0.18938E+05
 
   -0.13116E+05         0.13006E+05         0.00000E+00
    0.13006E+05        -0.22633E+05         0.00000E+00
    0.00000E+00         0.00000E+00        -0.17346E+05
 
   -0.10738E+05         0.12268E+05         0.00000E+00
    0.12268E+05        -0.22615E+05         0.00000E+00
    0.00000E+00         0.00000E+00        -0.15732E+05
 
   -0.86043E+04         0.11540E+05         0.00000E+00
    0.11540E+05        -0.22382E+05         0.00000E+00
    0.00000E+00         0.00000E+00        -0.14132E+05
 
   -0.67729E+04         0.10766E+05         0.00000E+00
    0.10766E+05        -0.22038E+05         0.00000E+00
    0.00000E+00         0.00000E+00        -0.12647E+05
 
   -0.51816E+04         0.99913E+04         0.00000E+00
    0.99913E+04        -0.21522E+05         0.00000E+00
    0.00000E+00         0.00000E+00        -0.11256E+05
 
   -0.37702E+04         0.92553E+04         0.00000E+00
    0.92553E+04        -0.20804E+05         0.00000E+00
    0.00000E+00         0.00000E+00        -0.99528E+04
 
   -0.24763E+04         0.85359E+04         0.00000E+00
    0.85359E+04        -0.20024E+05         0.00000E+00
    0.00000E+00         0.00000E+00        -0.86863E+04
 
   -0.13432E+04         0.78591E+04         0.00000E+00
    0.78591E+04        -0.19230E+05         0.00000E+00
    0.00000E+00         0.00000E+00        -0.74664E+04
 
   -0.22848E+03         0.72841E+04         0.00000E+00
    0.72841E+04        -0.18419E+05         0.00000E+00
    0.00000E+00         0.00000E+00        -0.62236E+04
 
    0.76161E+03         0.67704E+04         0.00000E+00
    0.67704E+04        -0.17586E+05         0.00000E+00
    0.00000E+00         0.00000E+00        -0.51440E+04
 
    0.94004E+02         0.59908E+04         0.00000E+00
    0.59908E+04        -0.16813E+05         0.00000E+00
    0.00000E+00         0.00000E+00        -0.50157E+04
 
   -0.10801E+04         0.52840E+04         0.00000E+00
    0.52840E+04        -0.16111E+05         0.00000E+00
    0.00000E+00         0.00000E+00        -0.51572E+04
 
   -0.23610E+04         0.48173E+04         0.00000E+00
    0.48173E+04        -0.15450E+05         0.00000E+00
    0.00000E+00         0.00000E+00        -0.53432E+04
 
   -0.37207E+04         0.45829E+04         0.00000E+00
    0.45829E+04        -0.14812E+05         0.00000E+00
    0.00000E+00         0.00000E+00        -0.55597E+04
 
   -0.51809E+04         0.45806E+04         0.00000E+00
    0.45806E+04        -0.14178E+05         0.00000E+00
    0.00000E+00         0.00000E+00        -0.58075E+04
 
    0.94886E+03        -0.17039E+04         0.00000E+00
   -0.17039E+04         0.49000E+02         0.00000E+00
    0.00000E+00         0.00000E+00         0.35061E+03
 
   -0.18633E+05         0.80513E+03         0.00000E+00
    0.80513E+03        -0.13738E+04         0.00000E+00
    0.00000E+00         0.00000E+00        -0.60021E+04
 
   -0.26652E+05         0.61350E+04         0.00000E+00
    0.61350E+04        -0.49879E+04         0.00000E+00
    0.00000E+00         0.00000E+00        -0.12163E+05
 
   -0.26866E+05         0.88909E+04         0.00000E+00
    0.88909E+04        -0.83077E+04         0.00000E+00
    0.00000E+00         0.00000E+00        -0.15722E+05
 
   -0.25819E+05         0.10756E+05         0.00000E+00
    0.10756E+05        -0.11200E+05         0.00000E+00
    0.00000E+00         0.00000E+00        -0.17432E+05
 
   -0.23743E+05         0.12012E+05         0.00000E+00
    0.12012E+05        -0.13532E+05         0.00000E+00
    0.00000E+00         0.00000E+00        -0.17925E+05
 
   -0.21274E+05         0.12691E+05         0.00000E+00
    0.12691E+05        -0.15312E+05         0.00000E+00
    0.00000E+00         0.00000E+00        -0.17677E+05
 
   -0.18639E+05         0.12948E+05         0.00000E+00
    0.12948E+05        -0.16671E+05         0.00000E+00
    0.00000E+00         0.00000E+00        -0.16960E+05
 
   -0.16062E+05         0.12881E+05         0.00000E+00
    0.12881E+05        -0.17656E+05         0.00000E+00
    0.00000E+00         0.00000E+00        -0.15976E+05
 
   -0.13629E+05         0.12588E+05         0.00000E+00
    0.12588E+05        -0.18329E+05         0.00000E+00
    0.00000E+00         0.00000E+00        -0.14829E+05
 
   -0.11342E+05         0.12166E+05         0.00000E+00
    0.12166E+05        -0.18723E+05         0.00000E+00
    0.00000E+00         0.00000E+00        -0.13573E+05
 
   -0.92757E+04         0.11624E+05         0.00000E+00
    0.11624E+05        -0.18892E+05         0.00000E+00
    0.00000E+00         0.00000E+00        -0.12303E+05
 
   -0.74748E+04         0.11037E+05         0.00000E+00
    0.11037E+05        -0.18828E+05         0.00000E+00
    0.00000E+00         0.00000E+00        -0.11097E+05
 
   -0.58745E+04         0.10419E+05         0.00000E+00
    0.10419E+05        -0.18585E+05         0.00000E+00
    0.00000E+00         0.00000E+00        -0.99498E+04
 
   -0.44468E+04         0.97933E+04         0.00000E+00
    0.97933E+04        -0.18255E+05         0.00000E+00
    0.00000E+00         0.00000E+00        -0.88637E+04
 
   -0.31403E+04         0.91719E+04         0.00000E+00
    0.91719E+04        -0.17824E+05         0.00000E+00
    0.00000E+00         0.00000E+00        -0.77694E+04
 
   -0.19320E+04         0.85745E+04         0.00000E+00
    0.85745E+04        -0.17271E+05         0.00000E+00
    0.00000E+00         0.00000E+00        -0.66786E+04
 
   -0.77438E+03         0.80332E+04         0.00000E+00
    0.80332E+04        -0.16616E+05         0.00000E+00
    0.00000E+00         0.00000E+00        -0.56677E+04
 
    0.49807E+02         0.74566E+04         0.00000E+00
    0.74566E+04        -0.15971E+05         0.00000E+00
    0.00000E+00         0.00000E+00        -0.48140E+04
 
   -0.71328E+03         0.65799E+04         0.00000E+00
    0.65799E+04        -0.15497E+05         0.00000E+00
    0.00000E+00         0.00000E+00        -0.48631E+04
 
   -0.16787E+04         0.58665E+04         0.00000E+00
    0.58665E+04        -0.15029E+05         0.00000E+00
    0.00000E+00         0.00000E+00        -0.50124E+04
 
   -0.27151E+04         0.53907E+04         0.00000E+00
    0.53907E+04        -0.14538E+05         0.00000E+00
    0.00000E+00         0.00000E+00        -0.51760E+04
 
   -0.38388E+04         0.51553E+04         0.00000E+00
    0.51553E+04        -0.14034E+05         0.00000E+00
    0.00000E+00         0.00000E+00        -0.53619E+04
 
   -0.50506E+04         0.51650E+04         0.00000E+00
    0.51650E+04        -0.13515E+05         0.00000E+00
    0.00000E+00         0.00000E+00        -0.55698E+04
 
   -0.85879E+03        -0.17690E+04         0.00000E+00
   -0.17690E+04        -0.28083E+02         0.00000E+00
    0.00000E+00         0.00000E+00        -0.26606E+03
 
   -0.14035E+05        -0.11455E+04         0.00000E+00
   -0.11455E+04        -0.32864E+03         0.00000E+00
    0.00000E+00         0.00000E+00        -0.43091E+04
 
   -0.23208E+05         0.29835E+04         0.00000E+00
    0.29835E+04        -0.14805E+04         0.00000E+00
    0.00000E+00         0.00000E+00        -0.76369E+04
 
   -0.24778E+05         0.62787E+04         0.00000E+00
    0.62787E+04        -0.46971E+04         0.00000E+00
    0.00000E+00         0.00000E+00        -0.11370E+05
 
   -0.24089E+05         0.84507E+04         0.00000E+00
    0.84507E+04        -0.71061E+04         0.00000E+00
    0.00000E+00         0.00000E+00        -0.13210E+05
 
   -0.22523E+05         0.10024E+05         0.00000E+00
    0.10024E+05        -0.92865E+04         0.00000E+00
    0.00000E+00         0.00000E+00        -0.13934E+05
 
   -0.20561E+05         0.11079E+05         0.00000E+00
    0.11079E+05        -0.11179E+05         0.00000E+00
    0.00000E+00         0.00000E+00        -0.14109E+05
 
   -0.18317E+05         0.11676E+05         0.00000E+00
    0.11676E+05        -0.12665E+05         0.00000E+00
    0.00000E+00         0.00000E+00        -0.13789E+05
 
   -0.16049E+05         0.11923E+05         0.00000E+00
    0.11923E+05        -0.13809E+05         0.00000E+00
    0.00000E+00         0.00000E+00        -0.13195E+05
 
   -0.13819E+05         0.11917E+05         0.00000E+00
    0.11917E+05        -0.14651E+05         0.00000E+00
    0.00000E+00         0.00000E+00        -0.12395E+05
 
   -0.11692E+05         0.11738E+05         0.00000E+00
    0.11738E+05        -0.15235E+05         0.00000E+00
    0.00000E+00         0.00000E+00        -0.11466E+05
 
   -0.97379E+04         0.11432E+05         0.00000E+00
    0.11432E+05        -0.15589E+05         0.00000E+00
    0.00000E+00         0.00000E+00        -0.10482E+05
 
   -0.79966E+04         0.11021E+05         0.00000E+00
    0.11021E+05        -0.15783E+05         0.00000E+00
    0.00000E+00         0.00000E+00        -0.95297E+04
 
   -0.64293E+04         0.10558E+05         0.00000E+00
    0.10558E+05        -0.15833E+05         0.00000E+00
    0.00000E+00         0.00000E+00        -0.86046E+04
 
   -0.50032E+04         0.10065E+05         0.00000E+00
    0.10065E+05        -0.15714E+05         0.00000E+00
    0.00000E+00         0.00000E+00        -0.76959E+04
 
   -0.37032E+04         0.95621E+04         0.00000E+00
    0.95621E+04        -0.15459E+05         0.00000E+00
    0.00000E+00         0.00000E+00        -0.68247E+04
 
   -0.24583E+04         0.90654E+04         0.00000E+00
    0.90654E+04        -0.15114E+05         0.00000E+00
    0.00000E+00         0.00000E+00        -0.59392E+04
 
   -0.12849E+04         0.85754E+04         0.00000E+00
    0.85754E+04        -0.14687E+05         0.00000E+00
    0.00000E+00         0.00000E+00        -0.50593E+04
 
   -0.83313E+03         0.78527E+04         0.00000E+00
    0.78527E+04        -0.14352E+05         0.00000E+00
    0.00000E+00         0.00000E+00        -0.45556E+04
 
   -0.15300E+04         0.69179E+04         0.00000E+00
    0.69179E+04        -0.14162E+05         0.00000E+00
    0.00000E+00         0.00000E+00        -0.47076E+04
 
   -0.22529E+04         0.62514E+04         0.00000E+00
    0.62514E+04        -0.13896E+05         0.00000E+00
    0.00000E+00         0.00000E+00        -0.48446E+04
 
   -0.30572E+04         0.58140E+04         0.00000E+00
    0.58140E+04        -0.13569E+05         0.00000E+00
    0.00000E+00         0.00000E+00        -0.49877E+04
 
   -0.39429E+04         0.56042E+04         0.00000E+00
    0.56042E+04        -0.13197E+05         0.00000E+00
    0.00000E+00         0.00000E+00        -0.51419E+04
 
   -0.49005E+04         0.56343E+04         0.00000E+00
    0.56343E+04        -0.12796E+05         0.00000E+00
    0.00000E+00         0.00000E+00        -0.53089E+04
 
   -0.28933E+04        -0.15202E+04         0.00000E+00
   -0.15202E+04         0.15846E+03         0.00000E+00
    0.00000E+00         0.00000E+00        -0.82044E+03
 
   -0.11935E+05        -0.16427E+04         0.00000E+00
   -0.16427E+04         0.28788E+03         0.00000E+00
    0.00000E+00         0.00000E+00        -0.34942E+04
 
   -0.19235E+05         0.78366E+03         0.00000E+00
    0.78366E+03        -0.66784E+03         0.00000E+00
    0.00000E+00         0.00000E+00        -0.59710E+04
 
   -0.22452E+05         0.41344E+04         0.00000E+00
    0.41344E+04        -0.20292E+04         0.00000E+00
    0.00000E+00         0.00000E+00        -0.80266E+04
 
   -0.22272E+05         0.65008E+04         0.00000E+00
    0.65008E+04        -0.41139E+04         0.00000E+00
    0.00000E+00         0.00000E+00        -0.99064E+04
 
   -0.21132E+05         0.82004E+04         0.00000E+00
    0.82004E+04        -0.59006E+04         0.00000E+00
    0.00000E+00         0.00000E+00        -0.10847E+05
 
   -0.19582E+05         0.94568E+04         0.00000E+00
    0.94568E+04        -0.75618E+04         0.00000E+00
    0.00000E+00         0.00000E+00        -0.11158E+05
 
   -0.17718E+05         0.10347E+05         0.00000E+00
    0.10347E+05        -0.90534E+04         0.00000E+00
    0.00000E+00         0.00000E+00        -0.11095E+05
 
   -0.15778E+05         0.10864E+05         0.00000E+00
    0.10864E+05        -0.10293E+05         0.00000E+00
    0.00000E+00         0.00000E+00        -0.10763E+05
 
   -0.13763E+05         0.11108E+05         0.00000E+00
    0.11108E+05        -0.11265E+05         0.00000E+00
    0.00000E+00         0.00000E+00        -0.10221E+05
 
   -0.11810E+05         0.11158E+05         0.00000E+00
    0.11158E+05        -0.12011E+05         0.00000E+00
    0.00000E+00         0.00000E+00        -0.95412E+04
 
   -0.99983E+04         0.11044E+05         0.00000E+00
    0.11044E+05        -0.12561E+05         0.00000E+00
    0.00000E+00         0.00000E+00        -0.88017E+04
 
   -0.83532E+04         0.10809E+05         0.00000E+00
    0.10809E+05        -0.12920E+05         0.00000E+00
    0.00000E+00         0.00000E+00        -0.80669E+04
 
   -0.68353E+04         0.10502E+05         0.00000E+00
    0.10502E+05        -0.13103E+05         0.00000E+00
    0.00000E+00         0.00000E+00        -0.73334E+04
 
   -0.54348E+04         0.10142E+05         0.00000E+00
    0.10142E+05        -0.13176E+05         0.00000E+00
    0.00000E+00         0.00000E+00        -0.65981E+04
 
   -0.41538E+04         0.97446E+04         0.00000E+00
    0.97446E+04        -0.13151E+05         0.00000E+00
    0.00000E+00         0.00000E+00        -0.58851E+04
 
   -0.29116E+04         0.93335E+04         0.00000E+00
    0.93335E+04        -0.12983E+05         0.00000E+00
    0.00000E+00         0.00000E+00        -0.51328E+04
 
   -0.18341E+04         0.88775E+04         0.00000E+00
    0.88775E+04        -0.12817E+05         0.00000E+00
    0.00000E+00         0.00000E+00        -0.44384E+04
 
   -0.18899E+04         0.78617E+04         0.00000E+00
    0.78617E+04        -0.12913E+05         0.00000E+00
    0.00000E+00         0.00000E+00        -0.44409E+04
 
   -0.22673E+04         0.70549E+04         0.00000E+00
    0.70549E+04        -0.12911E+05         0.00000E+00
    0.00000E+00         0.00000E+00        -0.45536E+04
 
   -0.27675E+04         0.64762E+04         0.00000E+00
    0.64762E+04        -0.12796E+05         0.00000E+00
    0.00000E+00         0.00000E+00        -0.46691E+04
 
   -0.33558E+04         0.61020E+04         0.00000E+00
    0.61020E+04        -0.12599E+05         0.00000E+00
    0.00000E+00         0.00000E+00        -0.47864E+04
 
   -0.40186E+04         0.59351E+04         0.00000E+00
    0.59351E+04        -0.12344E+05         0.00000E+00
    0.00000E+00         0.00000E+00        -0.49087E+04
 
   -0.47333E+04         0.59900E+04         0.00000E+00
    0.59900E+04        -0.12053E+05         0.00000E+00
    0.00000E+00         0.00000E+00        -0.50359E+04
 
   -0.47269E+04        -0.11862E+04         0.00000E+00
   -0.11862E+04         0.14245E+03         0.00000E+00
    0.00000E+00         0.00000E+00        -0.13753E+04
 
   -0.11047E+05        -0.16568E+04         0.00000E+00
   -0.16568E+04         0.43173E+03         0.00000E+00
    0.00000E+00         0.00000E+00        -0.31847E+04
 
   -0.16292E+05        -0.95858E+02         0.00000E+00
   -0.95858E+02         0.34137E+03         0.00000E+00
    0.00000E+00         0.00000E+00        -0.47852E+04
 
   -0.19717E+05         0.24489E+04         0.00000E+00
    0.24489E+04        -0.40740E+03         0.00000E+00
    0.00000E+00         0.00000E+00        -0.60373E+04
 
   -0.20417E+05         0.48762E+04         0.00000E+00
    0.48762E+04        -0.18355E+04         0.00000E+00
    0.00000E+00         0.00000E+00        -0.72832E+04
 
   -0.19683E+05         0.66865E+04         0.00000E+00
    0.66865E+04        -0.34016E+04         0.00000E+00
    0.00000E+00         0.00000E+00        -0.82663E+04
 
   -0.18455E+05         0.80361E+04         0.00000E+00
    0.80361E+04        -0.47981E+04         0.00000E+00
    0.00000E+00         0.00000E+00        -0.87344E+04
 
   -0.16919E+05         0.90457E+04         0.00000E+00
    0.90457E+04        -0.60913E+04         0.00000E+00
    0.00000E+00         0.00000E+00        -0.88335E+04
 
   -0.15274E+05         0.97703E+04         0.00000E+00
    0.97703E+04        -0.72626E+04         0.00000E+00
    0.00000E+00         0.00000E+00        -0.86739E+04
 
   -0.13502E+05         0.10223E+05         0.00000E+00
    0.10223E+05        -0.82791E+04         0.00000E+00
    0.00000E+00         0.00000E+00        -0.83371E+04
 
   -0.11742E+05         0.10460E+05         0.00000E+00
    0.10460E+05        -0.90917E+04         0.00000E+00
    0.00000E+00         0.00000E+00        -0.78551E+04
 
   -0.10087E+05         0.10516E+05         0.00000E+00
    0.10516E+05        -0.97327E+04         0.00000E+00
    0.00000E+00         0.00000E+00        -0.73021E+04
 
   -0.85416E+04         0.10444E+05         0.00000E+00
    0.10444E+05        -0.10234E+05         0.00000E+00
    0.00000E+00         0.00000E+00        -0.67062E+04
 
   -0.70980E+04         0.10280E+05         0.00000E+00
    0.10280E+05        -0.10625E+05         0.00000E+00
    0.00000E+00         0.00000E+00        -0.61321E+04
 
   -0.57467E+04         0.10048E+05         0.00000E+00
    0.10048E+05        -0.10834E+05         0.00000E+00
    0.00000E+00         0.00000E+00        -0.55334E+04
 
   -0.45157E+04         0.97447E+04         0.00000E+00
    0.97447E+04        -0.10909E+05         0.00000E+00
    0.00000E+00         0.00000E+00        -0.49475E+04
 
   -0.32800E+04         0.94363E+04         0.00000E+00
    0.94363E+04        -0.11002E+05         0.00000E+00
    0.00000E+00         0.00000E+00        -0.43277E+04
 
   -0.28000E+04         0.85713E+04         0.00000E+00
    0.85713E+04        -0.11370E+05         0.00000E+00
    0.00000E+00         0.00000E+00        -0.42511E+04
 
   -0.27299E+04         0.77261E+04         0.00000E+00
    0.77261E+04        -0.11674E+05         0.00000E+00
    0.00000E+00         0.00000E+00        -0.43211E+04
 
   -0.28983E+04         0.70649E+04         0.00000E+00
    0.70649E+04        -0.11780E+05         0.00000E+00
    0.00000E+00         0.00000E+00        -0.44034E+04
 
   -0.32011E+04         0.65839E+04         0.00000E+00
    0.65839E+04        -0.11765E+05         0.00000E+00
    0.00000E+00         0.00000E+00        -0.44897E+04
 
   -0.35979E+04         0.62810E+04         0.00000E+00
    0.62810E+04        -0.11665E+05         0.00000E+00
    0.00000E+00         0.00000E+00        -0.45790E+04
 
   -0.40587E+04         0.61621E+04         0.00000E+00
    0.61621E+04        -0.11507E+05         0.00000E+00
    0.00000E+00         0.00000E+00        -0.46697E+04
 
   -0.45530E+04         0.62414E+04         0.00000E+00
    0.62414E+04        -0.11313E+05         0.00000E+00
    0.00000E+00         0.00000E+00        -0.47597E+04
 
   -0.62296E+04        -0.87760E+03         0.00000E+00
   -0.87760E+03         0.12298E+03         0.00000E+00
    0.00000E+00         0.00000E+00        -0.18320E+04
 
   -0.10573E+05        -0.13323E+04         0.00000E+00
   -0.13323E+04         0.49511E+03         0.00000E+00
    0.00000E+00         0.00000E+00        -0.30234E+04
 
   -0.14492E+05        -0.34043E+03         0.00000E+00
   -0.34043E+03         0.66362E+03         0.00000E+00
    0.00000E+00         0.00000E+00        -0.41485E+04
 
   -0.17174E+05         0.15172E+04         0.00000E+00
    0.15172E+04         0.31660E+03         0.00000E+00
    0.00000E+00         0.00000E+00        -0.50574E+04
 
   -0.18455E+05         0.36122E+04         0.00000E+00
    0.36122E+04        -0.27224E+03         0.00000E+00
    0.00000E+00         0.00000E+00        -0.56182E+04
 
   -0.18199E+05         0.53906E+04         0.00000E+00
    0.53906E+04        -0.13932E+04         0.00000E+00
    0.00000E+00         0.00000E+00        -0.62368E+04
 
   -0.17279E+05         0.68192E+04         0.00000E+00
    0.68192E+04        -0.26544E+04         0.00000E+00
    0.00000E+00         0.00000E+00        -0.67050E+04
 
   -0.16024E+05         0.79157E+04         0.00000E+00
    0.79157E+04        -0.37929E+04         0.00000E+00
    0.00000E+00         0.00000E+00        -0.68947E+04
 
   -0.14609E+05         0.87133E+04         0.00000E+00
    0.87133E+04        -0.48589E+04         0.00000E+00
    0.00000E+00         0.00000E+00        -0.68866E+04
 
   -0.13078E+05         0.93270E+04         0.00000E+00
    0.93270E+04        -0.57892E+04         0.00000E+00
    0.00000E+00         0.00000E+00        -0.66458E+04
 
   -0.11514E+05         0.97069E+04         0.00000E+00
    0.97069E+04        -0.66270E+04         0.00000E+00
    0.00000E+00         0.00000E+00        -0.63117E+04
 
   -0.10016E+05         0.99219E+04         0.00000E+00
    0.99219E+04        -0.73432E+04         0.00000E+00
    0.00000E+00         0.00000E+00        -0.59045E+04
 
   -0.85960E+04         0.99736E+04         0.00000E+00
    0.99736E+04        -0.78915E+04         0.00000E+00
    0.00000E+00         0.00000E+00        -0.54619E+04
 
   -0.72245E+04         0.99317E+04         0.00000E+00
    0.99317E+04        -0.82713E+04         0.00000E+00
    0.00000E+00         0.00000E+00        -0.49872E+04
 
   -0.59829E+04         0.98139E+04         0.00000E+00
    0.98139E+04        -0.86439E+04         0.00000E+00
    0.00000E+00         0.00000E+00        -0.45277E+04
 
   -0.48085E+04         0.95438E+04         0.00000E+00
    0.95438E+04        -0.90728E+04         0.00000E+00
    0.00000E+00         0.00000E+00        -0.41644E+04
 
   -0.40217E+04         0.88593E+04         0.00000E+00
    0.88593E+04        -0.97152E+04         0.00000E+00
    0.00000E+00         0.00000E+00        -0.41211E+04
 
   -0.35873E+04         0.81566E+04         0.00000E+00
    0.81566E+04        -0.10263E+05         0.00000E+00
    0.00000E+00         0.00000E+00        -0.41552E+04
 
   -0.34007E+04         0.75135E+04         0.00000E+00
    0.75135E+04        -0.10584E+05         0.00000E+00
    0.00000E+00         0.00000E+00        -0.41955E+04
 
   -0.34103E+04         0.69899E+04         0.00000E+00
    0.69899E+04        -0.10752E+05         0.00000E+00
    0.00000E+00         0.00000E+00        -0.42488E+04
 
   -0.35516E+04         0.66068E+04         0.00000E+00
    0.66068E+04        -0.10809E+05         0.00000E+00
    0.00000E+00         0.00000E+00        -0.43081E+04
 
   -0.37808E+04         0.63737E+04         0.00000E+00
    0.63737E+04        -0.10785E+05         0.00000E+00
    0.00000E+00         0.00000E+00        -0.43696E+04
 
   -0.40633E+04         0.63009E+04         0.00000E+00
    0.63009E+04        -0.10705E+05         0.00000E+00
    0.00000E+00         0.00000E+00        -0.44304E+04
 
   -0.43639E+04         0.64011E+04         0.00000E+00
    0.64011E+04        -0.10593E+05         0.00000E+00
    0.00000E+00         0.00000E+00        -0.44872E+04
 
   -0.73281E+04        -0.60329E+03         0.00000E+00
   -0.60329E+03         0.10361E+03         0.00000E+00
    0.00000E+00         0.00000E+00        -0.21674E+04
 
   -0.10325E+05        -0.94944E+03         0.00000E+00
   -0.94944E+03         0.43993E+03         0.00000E+00
    0.00000E+00         0.00000E+00        -0.29656E+04
 
   -0.13209E+05        -0.26268E+03         0.00000E+00
   -0.26268E+03         0.72374E+03         0.00000E+00
    0.00000E+00         0.00000E+00        -0.37454E+04
 
   -0.15356E+05         0.11436E+04         0.00000E+00
    0.11436E+04         0.69969E+03         0.00000E+00
    0.00000E+00         0.00000E+00        -0.43968E+04
 
   -0.16508E+05         0.28279E+04         0.00000E+00
    0.28279E+04         0.26371E+03         0.00000E+00
    0.00000E+00         0.00000E+00        -0.48734E+04
 
   -0.16675E+05         0.44510E+04         0.00000E+00
    0.44510E+04        -0.25740E+03         0.00000E+00
    0.00000E+00         0.00000E+00        -0.50797E+04
 
   -0.16101E+05         0.58299E+04         0.00000E+00
    0.58299E+04        -0.93854E+03         0.00000E+00
    0.00000E+00         0.00000E+00        -0.51867E+04
 
   -0.15094E+05         0.69051E+04         0.00000E+00
    0.69051E+04        -0.19088E+04         0.00000E+00
    0.00000E+00         0.00000E+00        -0.53480E+04
 
   -0.13870E+05         0.78024E+04         0.00000E+00
    0.78024E+04        -0.28345E+04         0.00000E+00
    0.00000E+00         0.00000E+00        -0.53552E+04
 
   -0.12534E+05         0.84782E+04         0.00000E+00
    0.84782E+04        -0.37027E+04         0.00000E+00
    0.00000E+00         0.00000E+00        -0.52132E+04
 
   -0.11162E+05         0.89547E+04         0.00000E+00
    0.89547E+04        -0.44695E+04         0.00000E+00
    0.00000E+00         0.00000E+00        -0.49794E+04
 
   -0.98216E+04         0.92662E+04         0.00000E+00
    0.92662E+04        -0.51508E+04         0.00000E+00
    0.00000E+00         0.00000E+00        -0.46734E+04
 
   -0.85344E+04         0.94674E+04         0.00000E+00
    0.94674E+04        -0.57953E+04         0.00000E+00
    0.00000E+00         0.00000E+00        -0.43468E+04
 
   -0.73175E+04         0.94252E+04         0.00000E+00
    0.94252E+04        -0.65246E+04         0.00000E+00
    0.00000E+00         0.00000E+00        -0.41537E+04
 
   -0.62163E+04         0.91762E+04         0.00000E+00
    0.91762E+04        -0.73106E+04         0.00000E+00
    0.00000E+00         0.00000E+00        -0.40581E+04
 
   -0.53287E+04         0.87700E+04         0.00000E+00
    0.87700E+04        -0.81417E+04         0.00000E+00
    0.00000E+00         0.00000E+00        -0.40411E+04
 
   -0.46466E+04         0.82748E+04         0.00000E+00
    0.82748E+04        -0.88033E+04         0.00000E+00
    0.00000E+00         0.00000E+00        -0.40350E+04
 
   -0.41769E+04         0.77446E+04         0.00000E+00
    0.77446E+04        -0.92796E+04         0.00000E+00
    0.00000E+00         0.00000E+00        -0.40369E+04
 
   -0.39173E+04         0.72612E+04         0.00000E+00
    0.72612E+04        -0.96135E+04         0.00000E+00
    0.00000E+00         0.00000E+00        -0.40592E+04
 
   -0.38119E+04         0.68594E+04         0.00000E+00
    0.68594E+04        -0.98191E+04         0.00000E+00
    0.00000E+00         0.00000E+00        -0.40893E+04
 
   -0.38220E+04         0.65663E+04         0.00000E+00
    0.65663E+04        -0.99264E+04         0.00000E+00
    0.00000E+00         0.00000E+00        -0.41245E+04
 
   -0.39085E+04         0.63977E+04         0.00000E+00
    0.63977E+04        -0.99609E+04         0.00000E+00
    0.00000E+00         0.00000E+00        -0.41608E+04
 
   -0.40364E+04         0.63660E+04         0.00000E+00
    0.63660E+04        -0.99458E+04         0.00000E+00
    0.00000E+00         0.00000E+00        -0.41947E+04
 
   -0.41703E+04         0.64827E+04         0.00000E+00
    0.64827E+04        -0.99042E+04         0.00000E+00
    0.00000E+00         0.00000E+00        -0.42224E+04
 
   -0.80647E+04        -0.38413E+03         0.00000E+00
   -0.38413E+03         0.79132E+02         0.00000E+00
    0.00000E+00         0.00000E+00        -0.23957E+04
 
   -0.10146E+05        -0.58713E+03         0.00000E+00
   -0.58713E+03         0.35939E+03         0.00000E+00
    0.00000E+00         0.00000E+00        -0.29361E+04
 
   -0.12251E+05        -0.60532E+02         0.00000E+00
   -0.60532E+02         0.64815E+03         0.00000E+00
    0.00000E+00         0.00000E+00        -0.34808E+04
 
   -0.13935E+05         0.10248E+04         0.00000E+00
    0.10248E+04         0.73677E+03         0.00000E+00
    0.00000E+00         0.00000E+00        -0.39595E+04
 
   -0.14937E+05         0.24159E+04         0.00000E+00
    0.24159E+04         0.55900E+03         0.00000E+00
    0.00000E+00         0.00000E+00        -0.43133E+04
 
   -0.15207E+05         0.38420E+04         0.00000E+00
    0.38420E+04         0.10876E+03         0.00000E+00
    0.00000E+00         0.00000E+00        -0.45293E+04
 
   -0.14893E+05         0.50911E+04         0.00000E+00
    0.50911E+04        -0.49709E+03         0.00000E+00
    0.00000E+00         0.00000E+00        -0.46170E+04
 
   -0.14127E+05         0.61596E+04         0.00000E+00
    0.61596E+04        -0.10431E+04         0.00000E+00
    0.00000E+00         0.00000E+00        -0.45511E+04
 
   -0.13103E+05         0.70370E+04         0.00000E+00
    0.70370E+04        -0.16792E+04         0.00000E+00
    0.00000E+00         0.00000E+00        -0.44346E+04
 
   -0.11960E+05         0.77096E+04         0.00000E+00
    0.77096E+04        -0.24165E+04         0.00000E+00
    0.00000E+00         0.00000E+00        -0.43131E+04
 
   -0.10772E+05         0.82009E+04         0.00000E+00
    0.82009E+04        -0.32268E+04         0.00000E+00
    0.00000E+00         0.00000E+00        -0.41996E+04
 
   -0.95799E+04         0.85001E+04         0.00000E+00
    0.85001E+04        -0.40904E+04         0.00000E+00
    0.00000E+00         0.00000E+00        -0.41011E+04
 
   -0.84849E+04         0.86037E+04         0.00000E+00
    0.86037E+04        -0.50147E+04         0.00000E+00
    0.00000E+00         0.00000E+00        -0.40499E+04
 
   -0.74644E+04         0.85728E+04         0.00000E+00
    0.85728E+04        -0.58906E+04         0.00000E+00
    0.00000E+00         0.00000E+00        -0.40065E+04
 
   -0.65193E+04         0.83886E+04         0.00000E+00
    0.83886E+04        -0.66870E+04         0.00000E+00
    0.00000E+00         0.00000E+00        -0.39619E+04
 
   -0.57193E+04         0.80869E+04         0.00000E+00
    0.80869E+04        -0.73717E+04         0.00000E+00
    0.00000E+00         0.00000E+00        -0.39273E+04
 
   -0.50903E+04         0.77297E+04         0.00000E+00
    0.77297E+04        -0.79507E+04         0.00000E+00
    0.00000E+00         0.00000E+00        -0.39123E+04
 
   -0.46212E+04         0.73483E+04         0.00000E+00
    0.73483E+04        -0.84074E+04         0.00000E+00
    0.00000E+00         0.00000E+00        -0.39086E+04
 
   -0.43047E+04         0.69894E+04         0.00000E+00
    0.69894E+04        -0.87397E+04         0.00000E+00
    0.00000E+00         0.00000E+00        -0.39133E+04
 
   -0.41155E+04         0.66910E+04         0.00000E+00
    0.66910E+04        -0.89688E+04         0.00000E+00
    0.00000E+00         0.00000E+00        -0.39253E+04
 
   -0.40200E+04         0.64773E+04         0.00000E+00
    0.64773E+04        -0.91134E+04         0.00000E+00
    0.00000E+00         0.00000E+00        -0.39400E+04
 
   -0.39865E+04         0.63658E+04         0.00000E+00
    0.63658E+04        -0.91946E+04         0.00000E+00
    0.00000E+00         0.00000E+00        -0.39543E+04
 
   -0.39828E+04         0.63695E+04         0.00000E+00
    0.63695E+04        -0.92330E+04         0.00000E+00
    0.00000E+00         0.00000E+00        -0.39647E+04
 
   -0.39755E+04         0.64985E+04         0.00000E+00
    0.64985E+04        -0.92498E+04         0.00000E+00
    0.00000E+00         0.00000E+00        -0.39676E+04
 
   -0.85028E+04        -0.21785E+03         0.00000E+00
   -0.21785E+03         0.58385E+02         0.00000E+00
    0.00000E+00         0.00000E+00        -0.25333E+04
 
   -0.99670E+04        -0.28460E+03         0.00000E+00
   -0.28460E+03         0.27468E+03         0.00000E+00
    0.00000E+00         0.00000E+00        -0.29077E+04
 
   -0.11504E+05         0.15677E+03         0.00000E+00
    0.15677E+03         0.51984E+03         0.00000E+00
    0.00000E+00         0.00000E+00        -0.32954E+04
 
   -0.12792E+05         0.10248E+04         0.00000E+00
    0.10248E+04         0.63897E+03         0.00000E+00
    0.00000E+00         0.00000E+00        -0.36459E+04
 
   -0.13625E+05         0.21560E+04         0.00000E+00
    0.21560E+04         0.54336E+03         0.00000E+00
    0.00000E+00         0.00000E+00        -0.39245E+04
 
   -0.13935E+05         0.33665E+04         0.00000E+00
    0.33665E+04         0.22791E+03         0.00000E+00
    0.00000E+00         0.00000E+00        -0.41122E+04
 
   -0.13756E+05         0.45189E+04         0.00000E+00
    0.45189E+04        -0.25085E+03         0.00000E+00
    0.00000E+00         0.00000E+00        -0.42022E+04
 
   -0.13190E+05         0.55226E+04         0.00000E+00
    0.55226E+04        -0.85678E+03         0.00000E+00
    0.00000E+00         0.00000E+00        -0.42139E+04
 
   -0.12364E+05         0.63284E+04         0.00000E+00
    0.63284E+04        -0.15334E+04         0.00000E+00
    0.00000E+00         0.00000E+00        -0.41693E+04
 
   -0.11408E+05         0.69439E+04         0.00000E+00
    0.69439E+04        -0.22614E+04         0.00000E+00
    0.00000E+00         0.00000E+00        -0.41009E+04
 
   -0.10397E+05         0.73850E+04         0.00000E+00
    0.73850E+04        -0.30292E+04         0.00000E+00
    0.00000E+00         0.00000E+00        -0.40278E+04
 
   -0.93906E+04         0.76556E+04         0.00000E+00
    0.76556E+04        -0.38223E+04         0.00000E+00
    0.00000E+00         0.00000E+00        -0.39639E+04
 
   -0.84338E+04         0.77791E+04         0.00000E+00
    0.77791E+04        -0.46000E+04         0.00000E+00
    0.00000E+00         0.00000E+00        -0.39101E+04
 
   -0.75409E+04         0.77877E+04         0.00000E+00
    0.77877E+04        -0.53509E+04         0.00000E+00
    0.00000E+00         0.00000E+00        -0.38675E+04
 
   -0.67194E+04         0.76837E+04         0.00000E+00
    0.76837E+04        -0.60510E+04         0.00000E+00
    0.00000E+00         0.00000E+00        -0.38311E+04
 
   -0.60015E+04         0.74860E+04         0.00000E+00
    0.74860E+04        -0.66710E+04         0.00000E+00
    0.00000E+00         0.00000E+00        -0.38017E+04
 
   -0.54081E+04         0.72339E+04         0.00000E+00
    0.72339E+04        -0.71943E+04         0.00000E+00
    0.00000E+00         0.00000E+00        -0.37807E+04
 
   -0.49405E+04         0.69639E+04         0.00000E+00
    0.69639E+04        -0.76199E+04         0.00000E+00
    0.00000E+00         0.00000E+00        -0.37681E+04
 
   -0.45885E+04         0.67082E+04         0.00000E+00
    0.67082E+04        -0.79496E+04         0.00000E+00
    0.00000E+00         0.00000E+00        -0.37614E+04
 
   -0.43344E+04         0.64962E+04         0.00000E+00
    0.64962E+04        -0.81930E+04         0.00000E+00
    0.00000E+00         0.00000E+00        -0.37582E+04
 
   -0.41545E+04         0.63507E+04         0.00000E+00
    0.63507E+04        -0.83656E+04         0.00000E+00
    0.00000E+00         0.00000E+00        -0.37560E+04
 
   -0.40216E+04         0.62883E+04         0.00000E+00
    0.62883E+04        -0.84841E+04         0.00000E+00
    0.00000E+00         0.00000E+00        -0.37517E+04
 
   -0.39075E+04         0.63216E+04         0.00000E+00
    0.63216E+04        -0.85665E+04         0.00000E+00
    0.00000E+00         0.00000E+00        -0.37422E+04
 
   -0.37820E+04         0.64594E+04         0.00000E+00
    0.64594E+04        -0.86318E+04         0.00000E+00
    0.00000E+00         0.00000E+00        -0.37241E+04
 
   -0.87116E+04        -0.97278E+02         0.00000E+00
   -0.97278E+02         0.41219E+02         0.00000E+00
    0.00000E+00         0.00000E+00        -0.26011E+04
 
   -0.97628E+04        -0.52517E+02         0.00000E+00
   -0.52517E+02         0.19847E+03         0.00000E+00
    0.00000E+00         0.00000E+00        -0.28693E+04
 
   -0.10891E+05         0.34354E+03         0.00000E+00
    0.34354E+03         0.38622E+03         0.00000E+00
    0.00000E+00         0.00000E+00        -0.31513E+04
 
   -0.11869E+05         0.10547E+04         0.00000E+00
    0.10547E+04         0.48744E+03         0.00000E+00
    0.00000E+00         0.00000E+00        -0.34143E+04
 
   -0.12538E+05         0.19811E+04         0.00000E+00
    0.19811E+04         0.42912E+03         0.00000E+00
    0.00000E+00         0.00000E+00        -0.36328E+04
 
   -0.12826E+05         0.30007E+04         0.00000E+00
    0.30007E+04         0.18863E+03         0.00000E+00
    0.00000E+00         0.00000E+00        -0.37913E+04
 
   -0.12735E+05         0.40005E+04         0.00000E+00
    0.40005E+04        -0.22070E+03         0.00000E+00
    0.00000E+00         0.00000E+00        -0.38868E+04
 
   -0.12323E+05         0.48961E+04         0.00000E+00
    0.48961E+04        -0.76090E+03         0.00000E+00
    0.00000E+00         0.00000E+00        -0.39252E+04
 
   -0.11680E+05         0.56390E+04         0.00000E+00
    0.56390E+04        -0.13915E+04         0.00000E+00
    0.00000E+00         0.00000E+00        -0.39214E+04
 
   -0.10897E+05         0.62160E+04         0.00000E+00
    0.62160E+04        -0.20733E+04         0.00000E+00
    0.00000E+00         0.00000E+00        -0.38911E+04
 
   -0.10049E+05         0.66344E+04         0.00000E+00
    0.66344E+04        -0.27815E+04         0.00000E+00
    0.00000E+00         0.00000E+00        -0.38492E+04
 
   -0.91892E+04         0.69083E+04         0.00000E+00
    0.69083E+04        -0.34934E+04         0.00000E+00
    0.00000E+00         0.00000E+00        -0.38048E+04
 
   -0.83547E+04         0.70575E+04         0.00000E+00
    0.70575E+04        -0.41896E+04         0.00000E+00
    0.00000E+00         0.00000E+00        -0.37633E+04
 
   -0.75656E+04         0.71025E+04         0.00000E+00
    0.71025E+04        -0.48540E+04         0.00000E+00
    0.00000E+00         0.00000E+00        -0.37259E+04
 
   -0.68373E+04         0.70578E+04         0.00000E+00
    0.70578E+04        -0.54732E+04         0.00000E+00
    0.00000E+00         0.00000E+00        -0.36932E+04
 
   -0.61869E+04         0.69407E+04         0.00000E+00
    0.69407E+04        -0.60293E+04         0.00000E+00
    0.00000E+00         0.00000E+00        -0.36649E+04
 
   -0.56277E+04         0.67771E+04         0.00000E+00
    0.67771E+04        -0.65098E+04         0.00000E+00
    0.00000E+00         0.00000E+00        -0.36412E+04
 
   -0.51627E+04         0.65955E+04         0.00000E+00
    0.65955E+04        -0.69101E+04         0.00000E+00
    0.00000E+00         0.00000E+00        -0.36219E+04
 
   -0.47855E+04         0.64230E+04         0.00000E+00
    0.64230E+04        -0.72329E+04         0.00000E+00
    0.00000E+00         0.00000E+00        -0.36055E+04
 
   -0.44824E+04         0.62829E+04         0.00000E+00
    0.62829E+04        -0.74853E+04         0.00000E+00
    0.00000E+00         0.00000E+00        -0.35903E+04
 
   -0.42348E+04         0.61948E+04         0.00000E+00
    0.61948E+04        -0.76786E+04         0.00000E+00
    0.00000E+00         0.00000E+00        -0.35740E+04
 
   -0.40205E+04         0.61739E+04         0.00000E+00
    0.61739E+04        -0.78268E+04         0.00000E+00
    0.00000E+00         0.00000E+00        -0.35542E+04
 
   -0.38150E+04         0.62314E+04         0.00000E+00
    0.62314E+04        -0.79451E+04         0.00000E+00
    0.00000E+00         0.00000E+00        -0.35280E+04
 
   -0.35917E+04         0.63748E+04         0.00000E+00
    0.63748E+04        -0.80504E+04         0.00000E+00
    0.00000E+00         0.00000E+00        -0.34926E+04
 
   -0.87539E+04        -0.13730E+02         0.00000E+00
   -0.13730E+02         0.27824E+02         0.00000E+00
    0.00000E+00         0.00000E+00        -0.26178E+04
 
   -0.95299E+04         0.11397E+03         0.00000E+00
    0.11397E+03         0.13588E+03         0.00000E+00
    0.00000E+00         0.00000E+00        -0.28182E+04
 
   -0.10367E+05         0.48279E+03         0.00000E+00
    0.48279E+03         0.26701E+03         0.00000E+00
    0.00000E+00         0.00000E+00        -0.30300E+04
 
   -0.11109E+05         0.10808E+04         0.00000E+00
    0.10808E+04         0.33707E+03         0.00000E+00
    0.00000E+00         0.00000E+00        -0.32315E+04
 
   -0.11637E+05         0.18479E+04         0.00000E+00
    0.18479E+04         0.28655E+03         0.00000E+00
    0.00000E+00         0.00000E+00        -0.34050E+04
 
   -0.11886E+05         0.27005E+04         0.00000E+00
    0.27005E+04         0.87910E+02         0.00000E+00
    0.00000E+00         0.00000E+00        -0.35393E+04
 
   -0.11845E+05         0.35541E+04         0.00000E+00
    0.35541E+04        -0.25642E+03         0.00000E+00
    0.00000E+00         0.00000E+00        -0.36303E+04
 
   -0.11546E+05         0.43394E+04         0.00000E+00
    0.43394E+04        -0.72376E+03         0.00000E+00
    0.00000E+00         0.00000E+00        -0.36808E+04
 
   -0.11046E+05         0.50114E+04         0.00000E+00
    0.50114E+04        -0.12801E+04         0.00000E+00
    0.00000E+00         0.00000E+00        -0.36979E+04
 
   -0.10413E+05         0.55505E+04         0.00000E+00
    0.55505E+04        -0.18914E+04         0.00000E+00
    0.00000E+00         0.00000E+00        -0.36914E+04
 
   -0.97061E+04         0.59559E+04         0.00000E+00
    0.59559E+04        -0.25284E+04         0.00000E+00
    0.00000E+00         0.00000E+00        -0.36703E+04
 
   -0.89719E+04         0.62375E+04         0.00000E+00
    0.62375E+04        -0.31683E+04         0.00000E+00
    0.00000E+00         0.00000E+00        -0.36421E+04
 
   -0.82441E+04         0.64109E+04         0.00000E+00
    0.64109E+04        -0.37931E+04         0.00000E+00
    0.00000E+00         0.00000E+00        -0.36112E+04
 
   -0.75454E+04         0.64926E+04         0.00000E+00
    0.64926E+04        -0.43892E+04         0.00000E+00
    0.00000E+00         0.00000E+00        -0.35804E+04
 
   -0.68915E+04         0.64983E+04         0.00000E+00
    0.64983E+04        -0.49444E+04         0.00000E+00
    0.00000E+00         0.00000E+00        -0.35508E+04
 
   -0.62957E+04         0.64447E+04         0.00000E+00
    0.64447E+04        -0.54476E+04         0.00000E+00
    0.00000E+00         0.00000E+00        -0.35230E+04
 
   -0.57666E+04         0.63521E+04         0.00000E+00
    0.63521E+04        -0.58900E+04         0.00000E+00
    0.00000E+00         0.00000E+00        -0.34970E+04
 
   -0.53068E+04         0.62425E+04         0.00000E+00
    0.62425E+04        -0.62680E+04         0.00000E+00
    0.00000E+00         0.00000E+00        -0.34724E+04
 
   -0.49117E+04         0.61375E+04         0.00000E+00
    0.61375E+04        -0.65827E+04         0.00000E+00
    0.00000E+00         0.00000E+00        -0.34483E+04
 
   -0.45711E+04         0.60567E+04         0.00000E+00
    0.60567E+04        -0.68400E+04         0.00000E+00
    0.00000E+00         0.00000E+00        -0.34233E+04
 
   -0.42698E+04         0.60163E+04         0.00000E+00
    0.60163E+04        -0.70487E+04         0.00000E+00
    0.00000E+00         0.00000E+00        -0.33956E+04
 
   -0.39896E+04         0.60296E+04         0.00000E+00
    0.60296E+04        -0.72201E+04         0.00000E+00
    0.00000E+00         0.00000E+00        -0.33629E+04
 
   -0.37094E+04         0.61064E+04         0.00000E+00
    0.61064E+04        -0.73675E+04         0.00000E+00
    0.00000E+00         0.00000E+00        -0.33231E+04
 
   -0.34062E+04         0.62530E+04         0.00000E+00
    0.62530E+04        -0.75053E+04         0.00000E+00
    0.00000E+00         0.00000E+00        -0.32734E+04
 
   -0.86818E+04         0.41390E+02         0.00000E+00
    0.41390E+02         0.17830E+02         0.00000E+00
    0.00000E+00         0.00000E+00        -0.25992E+04
 
   -0.92744E+04         0.22544E+03         0.00000E+00
    0.22544E+03         0.87376E+02         0.00000E+00
    0.00000E+00         0.00000E+00        -0.27561E+04
 
   -0.99069E+04         0.57488E+03         0.00000E+00
    0.57488E+03         0.17054E+03         0.00000E+00
    0.00000E+00         0.00000E+00        -0.29209E+04
 
   -0.10473E+05         0.10893E+04         0.00000E+00
    0.10893E+04         0.20775E+03         0.00000E+00
    0.00000E+00         0.00000E+00        -0.30794E+04
 
   -0.10885E+05         0.17326E+04         0.00000E+00
    0.17326E+04         0.15290E+03         0.00000E+00
    0.00000E+00         0.00000E+00        -0.32196E+04
 
   -0.11092E+05         0.24482E+04         0.00000E+00
    0.24482E+04        -0.19062E+02         0.00000E+00
    0.00000E+00         0.00000E+00        -0.33333E+04
 
   -0.11077E+05         0.31747E+04         0.00000E+00
    0.31747E+04        -0.31170E+03         0.00000E+00
    0.00000E+00         0.00000E+00        -0.34167E+04
 
   -0.10857E+05         0.38580E+04         0.00000E+00
    0.38580E+04        -0.71105E+03         0.00000E+00
    0.00000E+00         0.00000E+00        -0.34703E+04
 
   -0.10467E+05         0.44597E+04         0.00000E+00
    0.44597E+04        -0.11927E+04         0.00000E+00
    0.00000E+00         0.00000E+00        -0.34979E+04
 
   -0.99550E+04         0.49588E+04         0.00000E+00
    0.49588E+04        -0.17287E+04         0.00000E+00
    0.00000E+00         0.00000E+00        -0.35051E+04
 
   -0.93661E+04         0.53494E+04         0.00000E+00
    0.53494E+04        -0.22930E+04         0.00000E+00
    0.00000E+00         0.00000E+00        -0.34977E+04
 
   -0.87394E+04         0.56363E+04         0.00000E+00
    0.56363E+04        -0.28637E+04         0.00000E+00
    0.00000E+00         0.00000E+00        -0.34809E+04
 
   -0.81049E+04         0.58301E+04         0.00000E+00
    0.58301E+04        -0.34238E+04         0.00000E+00
    0.00000E+00         0.00000E+00        -0.34586E+04
 
   -0.74843E+04         0.59442E+04         0.00000E+00
    0.59442E+04        -0.39600E+04         0.00000E+00
    0.00000E+00         0.00000E+00        -0.34333E+04
 
   -0.68934E+04         0.59928E+04         0.00000E+00
    0.59928E+04        -0.44617E+04         0.00000E+00
    0.00000E+00         0.00000E+00        -0.34065E+04
 
   -0.63431E+04         0.59909E+04         0.00000E+00
    0.59909E+04        -0.49204E+04         0.00000E+00
    0.00000E+00         0.00000E+00        -0.33791E+04
 
   -0.58405E+04         0.59555E+04         0.00000E+00
    0.59555E+04        -0.53298E+04         0.00000E+00
    0.00000E+00         0.00000E+00        -0.33511E+04
 
   -0.53873E+04         0.59042E+04         0.00000E+00
    0.59042E+04        -0.56870E+04         0.00000E+00
    0.00000E+00         0.00000E+00        -0.33223E+04
 
   -0.49801E+04         0.58543E+04         0.00000E+00
    0.58543E+04        -0.59931E+04         0.00000E+00
    0.00000E+00         0.00000E+00        -0.32920E+04
 
   -0.46109E+04         0.58218E+04         0.00000E+00
    0.58218E+04        -0.62524E+04         0.00000E+00
    0.00000E+00         0.00000E+00        -0.32590E+04
 
   -0.42675E+04         0.58206E+04         0.00000E+00
    0.58206E+04        -0.64720E+04         0.00000E+00
    0.00000E+00         0.00000E+00        -0.32218E+04
 
   -0.39345E+04         0.58618E+04         0.00000E+00
    0.58618E+04        -0.66615E+04         0.00000E+00
    0.00000E+00         0.00000E+00        -0.31788E+04
 
   -0.35940E+04         0.59535E+04         0.00000E+00
    0.59535E+04        -0.68319E+04         0.00000E+00
    0.00000E+00         0.00000E+00        -0.31278E+04
 
   -0.32264E+04         0.61011E+04         0.00000E+00
    0.61011E+04        -0.69958E+04         0.00000E+00
    0.00000E+00         0.00000E+00        -0.30667E+04
 
   -0.85357E+04         0.75553E+02         0.00000E+00
    0.75553E+02         0.10632E+02         0.00000E+00
    0.00000E+00         0.00000E+00        -0.25575E+04
 
   -0.90052E+04         0.29401E+03         0.00000E+00
    0.29401E+03         0.51549E+02         0.00000E+00
    0.00000E+00         0.00000E+00        -0.26861E+04
 
   -0.94939E+04         0.62659E+03         0.00000E+00
    0.62659E+03         0.97058E+02         0.00000E+00
    0.00000E+00         0.00000E+00        -0.28191E+04
 
   -0.99301E+04         0.10774E+04         0.00000E+00
    0.10774E+04         0.10576E+03         0.00000E+00
    0.00000E+00         0.00000E+00        -0.29473E+04
 
   -0.10252E+05         0.16248E+04         0.00000E+00
    0.16248E+04         0.43315E+02         0.00000E+00
    0.00000E+00         0.00000E+00        -0.30627E+04
 
   -0.10420E+05         0.22308E+04         0.00000E+00
    0.22308E+04        -0.11117E+03         0.00000E+00
    0.00000E+00         0.00000E+00        -0.31594E+04
 
   -0.10417E+05         0.28513E+04         0.00000E+00
    0.28513E+04        -0.36325E+03         0.00000E+00
    0.00000E+00         0.00000E+00        -0.32341E+04
 
   -0.10250E+05         0.34454E+04         0.00000E+00
    0.34454E+04        -0.70512E+03         0.00000E+00
    0.00000E+00         0.00000E+00        -0.32866E+04
 
   -0.99418E+04         0.39815E+04         0.00000E+00
    0.39815E+04        -0.11197E+04         0.00000E+00
    0.00000E+00         0.00000E+00        -0.33184E+04
 
   -0.95245E+04         0.44400E+04         0.00000E+00
    0.44400E+04        -0.15854E+04         0.00000E+00
    0.00000E+00         0.00000E+00        -0.33330E+04
 
   -0.90322E+04         0.48125E+04         0.00000E+00
    0.48125E+04        -0.20808E+04         0.00000E+00
    0.00000E+00         0.00000E+00        -0.33339E+04
 
   -0.84961E+04         0.50999E+04         0.00000E+00
    0.50999E+04        -0.25865E+04         0.00000E+00
    0.00000E+00         0.00000E+00        -0.33248E+04
 
   -0.79417E+04         0.53089E+04         0.00000E+00
    0.53089E+04        -0.30868E+04         0.00000E+00
    0.00000E+00         0.00000E+00        -0.33086E+04
 
   -0.73888E+04         0.54494E+04         0.00000E+00
    0.54494E+04        -0.35692E+04         0.00000E+00
    0.00000E+00         0.00000E+00        -0.32874E+04
 
   -0.68519E+04         0.55333E+04         0.00000E+00
    0.55333E+04        -0.40241E+04         0.00000E+00
    0.00000E+00         0.00000E+00        -0.32628E+04
 
   -0.63410E+04         0.55737E+04         0.00000E+00
    0.55737E+04        -0.44440E+04         0.00000E+00
    0.00000E+00         0.00000E+00        -0.32355E+04
 
   -0.58619E+04         0.55845E+04         0.00000E+00
    0.55845E+04        -0.48241E+04         0.00000E+00
    0.00000E+00         0.00000E+00        -0.32058E+04
 
   -0.54162E+04         0.55801E+04         0.00000E+00
    0.55801E+04        -0.51622E+04         0.00000E+00
    0.00000E+00         0.00000E+00        -0.31735E+04
 
   -0.50014E+04         0.55749E+04         0.00000E+00
    0.55749E+04        -0.54590E+04         0.00000E+00
    0.00000E+00         0.00000E+00        -0.31381E+04
 
   -0.46109E+04         0.55817E+04         0.00000E+00
    0.55817E+04        -0.57180E+04         0.00000E+00
    0.00000E+00         0.00000E+00        -0.30987E+04
 
   -0.42348E+04         0.56122E+04         0.00000E+00
    0.56122E+04        -0.59451E+04         0.00000E+00
    0.00000E+00         0.00000E+00        -0.30540E+04
 
   -0.38602E+04         0.56755E+04         0.00000E+00
    0.56755E+04        -0.61481E+04         0.00000E+00
    0.00000E+00         0.00000E+00        -0.30025E+04
 
   -0.34720E+04         0.57784E+04         0.00000E+00
    0.57784E+04        -0.63365E+04         0.00000E+00
    0.00000E+00         0.00000E+00        -0.29426E+04
 
   -0.30534E+04         0.59252E+04         0.00000E+00
    0.59252E+04        -0.65209E+04         0.00000E+00
    0.00000E+00         0.00000E+00        -0.28723E+04
 
   -0.83457E+04         0.94825E+02         0.00000E+00
    0.94825E+02         0.56205E+01         0.00000E+00
    0.00000E+00         0.00000E+00        -0.25020E+04
 
   -0.87311E+04         0.33080E+03         0.00000E+00
    0.33080E+03         0.26092E+02         0.00000E+00
    0.00000E+00         0.00000E+00        -0.26115E+04
 
   -0.91184E+04         0.64666E+03         0.00000E+00
    0.64666E+03         0.43735E+02         0.00000E+00
    0.00000E+00         0.00000E+00        -0.27224E+04
 
   -0.94600E+04         0.10475E+04         0.00000E+00
    0.10475E+04         0.30232E+02         0.00000E+00
    0.00000E+00         0.00000E+00        -0.28289E+04
 
   -0.97129E+04         0.15202E+04         0.00000E+00
    0.15202E+04        -0.39344E+02         0.00000E+00
    0.00000E+00         0.00000E+00        -0.29257E+04
 
   -0.98469E+04         0.20391E+04         0.00000E+00
    0.20391E+04        -0.18143E+03         0.00000E+00
    0.00000E+00         0.00000E+00        -0.30085E+04
 
   -0.98475E+04         0.25730E+04         0.00000E+00
    0.25730E+04        -0.40189E+03         0.00000E+00
    0.00000E+00         0.00000E+00        -0.30748E+04
 
   -0.97164E+04         0.30913E+04         0.00000E+00
    0.30913E+04        -0.69659E+03         0.00000E+00
    0.00000E+00         0.00000E+00        -0.31239E+04
 
   -0.94677E+04         0.35686E+04         0.00000E+00
    0.35686E+04        -0.10539E+04         0.00000E+00
    0.00000E+00         0.00000E+00        -0.31565E+04
 
   -0.91234E+04         0.39878E+04         0.00000E+00
    0.39878E+04        -0.14578E+04         0.00000E+00
    0.00000E+00         0.00000E+00        -0.31743E+04
 
   -0.87084E+04         0.43400E+04         0.00000E+00
    0.43400E+04        -0.18911E+04         0.00000E+00
    0.00000E+00         0.00000E+00        -0.31798E+04
 
   -0.82471E+04         0.46235E+04         0.00000E+00
    0.46235E+04        -0.23376E+04         0.00000E+00
    0.00000E+00         0.00000E+00        -0.31754E+04
 
   -0.77604E+04         0.48420E+04         0.00000E+00
    0.48420E+04        -0.27833E+04         0.00000E+00
    0.00000E+00         0.00000E+00        -0.31631E+04
 
   -0.72655E+04         0.50025E+04         0.00000E+00
    0.50025E+04        -0.32170E+04         0.00000E+00
    0.00000E+00         0.00000E+00        -0.31448E+04
 
   -0.67754E+04         0.51145E+04         0.00000E+00
    0.51145E+04        -0.36298E+04         0.00000E+00
    0.00000E+00         0.00000E+00        -0.31215E+04
 
   -0.62988E+04         0.51887E+04         0.00000E+00
    0.51887E+04        -0.40151E+04         0.00000E+00
    0.00000E+00         0.00000E+00        -0.30942E+04
 
   -0.58410E+04         0.52365E+04         0.00000E+00
    0.52365E+04        -0.43688E+04         0.00000E+00
    0.00000E+00         0.00000E+00        -0.30629E+04
 
   -0.54036E+04         0.52700E+04         0.00000E+00
    0.52700E+04        -0.46889E+04         0.00000E+00
    0.00000E+00         0.00000E+00        -0.30278E+04
 
   -0.49847E+04         0.53006E+04         0.00000E+00
    0.53006E+04        -0.49761E+04         0.00000E+00
    0.00000E+00         0.00000E+00        -0.29882E+04
 
   -0.45788E+04         0.53390E+04         0.00000E+00
    0.53390E+04        -0.52331E+04         0.00000E+00
    0.00000E+00         0.00000E+00        -0.29436E+04
 
   -0.41779E+04         0.53947E+04         0.00000E+00
    0.53947E+04        -0.54647E+04         0.00000E+00
    0.00000E+00         0.00000E+00        -0.28928E+04
 
   -0.37711E+04         0.54753E+04         0.00000E+00
    0.54753E+04        -0.56775E+04         0.00000E+00
    0.00000E+00         0.00000E+00        -0.28346E+04
 
   -0.33459E+04         0.55861E+04         0.00000E+00
    0.55861E+04        -0.58795E+04         0.00000E+00
    0.00000E+00         0.00000E+00        -0.27676E+04
 
   -0.28878E+04         0.57306E+04         0.00000E+00
    0.57306E+04        -0.60796E+04         0.00000E+00
    0.00000E+00         0.00000E+00        -0.26902E+04
 
   -0.81333E+04         0.10386E+03         0.00000E+00
    0.10386E+03         0.22419E+01         0.00000E+00
    0.00000E+00         0.00000E+00        -0.24393E+04
 
   -0.84595E+04         0.34503E+03         0.00000E+00
    0.34503E+03         0.86606E+01         0.00000E+00
    0.00000E+00         0.00000E+00        -0.25353E+04
 
   -0.87744E+04         0.64353E+03         0.00000E+00
    0.64353E+03         0.67064E+01         0.00000E+00
    0.00000E+00         0.00000E+00        -0.26303E+04
 
   -0.90468E+04         0.10037E+04         0.00000E+00
    0.10037E+04        -0.22747E+02         0.00000E+00
    0.00000E+00         0.00000E+00        -0.27209E+04
 
   -0.92470E+04         0.14174E+04         0.00000E+00
    0.14174E+04        -0.97437E+02         0.00000E+00
    0.00000E+00         0.00000E+00        -0.28033E+04
 
   -0.93529E+04         0.18672E+04         0.00000E+00
    0.18672E+04        -0.22984E+03         0.00000E+00
    0.00000E+00         0.00000E+00        -0.28748E+04
 
   -0.93527E+04         0.23309E+04         0.00000E+00
    0.23309E+04        -0.42522E+03         0.00000E+00
    0.00000E+00         0.00000E+00        -0.29334E+04
 
   -0.92456E+04         0.27855E+04         0.00000E+00
    0.27855E+04        -0.68162E+03         0.00000E+00
    0.00000E+00         0.00000E+00        -0.29782E+04
 
   -0.90402E+04         0.32114E+04         0.00000E+00
    0.32114E+04        -0.99115E+03         0.00000E+00
    0.00000E+00         0.00000E+00        -0.30094E+04
 
   -0.87515E+04         0.35941E+04         0.00000E+00
    0.35941E+04        -0.13421E+04         0.00000E+00
    0.00000E+00         0.00000E+00        -0.30281E+04
 
   -0.83976E+04         0.39251E+04         0.00000E+00
    0.39251E+04        -0.17211E+04         0.00000E+00
    0.00000E+00         0.00000E+00        -0.30356E+04
 
   -0.79971E+04         0.42013E+04         0.00000E+00
    0.42013E+04        -0.21150E+04         0.00000E+00
    0.00000E+00         0.00000E+00        -0.30336E+04
 
   -0.75668E+04         0.44243E+04         0.00000E+00
    0.44243E+04        -0.25118E+04         0.00000E+00
    0.00000E+00         0.00000E+00        -0.30236E+04
 
   -0.71212E+04         0.45989E+04         0.00000E+00
    0.45989E+04        -0.29016E+04         0.00000E+00
    0.00000E+00         0.00000E+00        -0.30068E+04
 
   -0.66712E+04         0.47323E+04         0.00000E+00
    0.47323E+04        -0.32764E+04         0.00000E+00
    0.00000E+00         0.00000E+00        -0.29843E+04
 
   -0.62247E+04         0.48328E+04         0.00000E+00
    0.48328E+04        -0.36304E+04         0.00000E+00
    0.00000E+00         0.00000E+00        -0.29565E+04
 
   -0.57864E+04         0.49100E+04         0.00000E+00
    0.49100E+04        -0.39598E+04         0.00000E+00
    0.00000E+00         0.00000E+00        -0.29239E+04
 
   -0.53578E+04         0.49734E+04         0.00000E+00
    0.49734E+04        -0.42630E+04         0.00000E+00
    0.00000E+00         0.00000E+00        -0.28863E+04
 
   -0.49375E+04         0.50324E+04         0.00000E+00
    0.50324E+04        -0.45403E+04         0.00000E+00
    0.00000E+00         0.00000E+00        -0.28433E+04
 
   -0.45211E+04         0.50958E+04         0.00000E+00
    0.50958E+04        -0.47938E+04         0.00000E+00
    0.00000E+00         0.00000E+00        -0.27945E+04
 
   -0.41020E+04         0.51713E+04         0.00000E+00
    0.51713E+04        -0.50276E+04         0.00000E+00
    0.00000E+00         0.00000E+00        -0.27389E+04
 
   -0.36712E+04         0.52649E+04         0.00000E+00
    0.52649E+04        -0.52470E+04         0.00000E+00
    0.00000E+00         0.00000E+00        -0.26754E+04
 
   -0.32179E+04         0.53809E+04         0.00000E+00
    0.53809E+04        -0.54588E+04         0.00000E+00
    0.00000E+00         0.00000E+00        -0.26030E+04
 
   -0.27302E+04         0.55219E+04         0.00000E+00
    0.55219E+04        -0.56706E+04         0.00000E+00
    0.00000E+00         0.00000E+00        -0.25202E+04
 
   -0.79132E+04         0.10609E+03         0.00000E+00
    0.10609E+03         0.44625E-01         0.00000E+00
    0.00000E+00         0.00000E+00        -0.23740E+04
 
   -0.81959E+04         0.34395E+03         0.00000E+00
    0.34395E+03        -0.28050E+01         0.00000E+00
    0.00000E+00         0.00000E+00        -0.24596E+04
 
   -0.84581E+04         0.62437E+03         0.00000E+00
    0.62437E+03        -0.17832E+02         0.00000E+00
    0.00000E+00         0.00000E+00        -0.25428E+04
 
   -0.86794E+04         0.95043E+03         0.00000E+00
    0.95043E+03        -0.57834E+02         0.00000E+00
    0.00000E+00         0.00000E+00        -0.26212E+04
 
   -0.88396E+04         0.13167E+04         0.00000E+00
    0.13167E+04        -0.13524E+03         0.00000E+00
    0.00000E+00         0.00000E+00        -0.26924E+04
 
   -0.89226E+04         0.17112E+04         0.00000E+00
    0.17112E+04        -0.25926E+03         0.00000E+00
    0.00000E+00         0.00000E+00        -0.27546E+04
 
   -0.89194E+04         0.21177E+04         0.00000E+00
    0.21177E+04        -0.43426E+03         0.00000E+00
    0.00000E+00         0.00000E+00        -0.28061E+04
 
   -0.88283E+04         0.25194E+04         0.00000E+00
    0.25194E+04        -0.65943E+03         0.00000E+00
    0.00000E+00         0.00000E+00        -0.28463E+04
 
   -0.86543E+04         0.29011E+04         0.00000E+00
    0.29011E+04        -0.92943E+03         0.00000E+00
    0.00000E+00         0.00000E+00        -0.28751E+04
 
   -0.84077E+04         0.32506E+04         0.00000E+00
    0.32506E+04        -0.12357E+04         0.00000E+00
    0.00000E+00         0.00000E+00        -0.28930E+04
 
   -0.81015E+04         0.35605E+04         0.00000E+00
    0.35605E+04        -0.15681E+04         0.00000E+00
    0.00000E+00         0.00000E+00        -0.29009E+04
 
   -0.77499E+04         0.38271E+04         0.00000E+00
    0.38271E+04        -0.19160E+04         0.00000E+00
    0.00000E+00         0.00000E+00        -0.28998E+04
 
   -0.73660E+04         0.40507E+04         0.00000E+00
    0.40507E+04        -0.22695E+04         0.00000E+00
    0.00000E+00         0.00000E+00        -0.28907E+04
 
   -0.69616E+04         0.42343E+04         0.00000E+00
    0.42343E+04        -0.26200E+04         0.00000E+00
    0.00000E+00         0.00000E+00        -0.28745E+04
 
   -0.65460E+04         0.43830E+04         0.00000E+00
    0.43830E+04        -0.29607E+04         0.00000E+00
    0.00000E+00         0.00000E+00        -0.28520E+04
 
   -0.61259E+04         0.45036E+04         0.00000E+00
    0.45036E+04        -0.32864E+04         0.00000E+00
    0.00000E+00         0.00000E+00        -0.28237E+04
 
   -0.57054E+04         0.46033E+04         0.00000E+00
    0.46033E+04        -0.35935E+04         0.00000E+00
    0.00000E+00         0.00000E+00        -0.27897E+04
 
   -0.52859E+04         0.46900E+04         0.00000E+00
    0.46900E+04        -0.38806E+04         0.00000E+00
    0.00000E+00         0.00000E+00        -0.27500E+04
 
   -0.48665E+04         0.47712E+04         0.00000E+00
    0.47712E+04        -0.41478E+04         0.00000E+00
    0.00000E+00         0.00000E+00        -0.27043E+04
 
   -0.44436E+04         0.48540E+04         0.00000E+00
    0.48540E+04        -0.43967E+04         0.00000E+00
    0.00000E+00         0.00000E+00        -0.26521E+04
 
   -0.40117E+04         0.49444E+04         0.00000E+00
    0.49444E+04        -0.46306E+04         0.00000E+00
    0.00000E+00         0.00000E+00        -0.25927E+04
 
   -0.35634E+04         0.50475E+04         0.00000E+00
    0.50475E+04        -0.48541E+04         0.00000E+00
    0.00000E+00         0.00000E+00        -0.25253E+04
 
   -0.30898E+04         0.51664E+04         0.00000E+00
    0.51664E+04        -0.50726E+04         0.00000E+00
    0.00000E+00         0.00000E+00        -0.24487E+04
 
   -0.25807E+04         0.53029E+04         0.00000E+00
    0.53029E+04        -0.52927E+04         0.00000E+00
    0.00000E+00         0.00000E+00        -0.23620E+04
 
   -0.76952E+04         0.10398E+03         0.00000E+00
    0.10398E+03        -0.13200E+01         0.00000E+00
    0.00000E+00         0.00000E+00        -0.23089E+04
 
   -0.79442E+04         0.33294E+03         0.00000E+00
    0.33294E+03        -0.99733E+01         0.00000E+00
    0.00000E+00         0.00000E+00        -0.23862E+04
 
   -0.81668E+04         0.59489E+03         0.00000E+00
    0.59489E+03        -0.33159E+02         0.00000E+00
    0.00000E+00         0.00000E+00        -0.24600E+04
 
   -0.83497E+04         0.89152E+03         0.00000E+00
    0.89152E+03        -0.79395E+02         0.00000E+00
    0.00000E+00         0.00000E+00        -0.25287E+04
 
   -0.84792E+04         0.12189E+04         0.00000E+00
    0.12189E+04        -0.15729E+03         0.00000E+00
    0.00000E+00         0.00000E+00        -0.25909E+04
 
   -0.85438E+04         0.15684E+04         0.00000E+00
    0.15684E+04        -0.27350E+03         0.00000E+00
    0.00000E+00         0.00000E+00        -0.26452E+04
 
   -0.85367E+04         0.19283E+04         0.00000E+00
    0.19283E+04        -0.43144E+03         0.00000E+00
    0.00000E+00         0.00000E+00        -0.26905E+04
 
   -0.84560E+04         0.22860E+04         0.00000E+00
    0.22860E+04        -0.63086E+03         0.00000E+00
    0.00000E+00         0.00000E+00        -0.27261E+04
 
   -0.83048E+04         0.26297E+04         0.00000E+00
    0.26297E+04        -0.86810E+03         0.00000E+00
    0.00000E+00         0.00000E+00        -0.27519E+04
 
   -0.80899E+04         0.29496E+04         0.00000E+00
    0.29496E+04        -0.11370E+04         0.00000E+00
    0.00000E+00         0.00000E+00        -0.27681E+04
 
   -0.78209E+04         0.32392E+04         0.00000E+00
    0.32392E+04        -0.14296E+04         0.00000E+00
    0.00000E+00         0.00000E+00        -0.27752E+04
 
   -0.75082E+04         0.34949E+04         0.00000E+00
    0.34949E+04        -0.17378E+04         0.00000E+00
    0.00000E+00         0.00000E+00        -0.27738E+04
 
   -0.71621E+04         0.37160E+04         0.00000E+00
    0.37160E+04        -0.20535E+04         0.00000E+00
    0.00000E+00         0.00000E+00        -0.27647E+04
 
   -0.67921E+04         0.39043E+04         0.00000E+00
    0.39043E+04        -0.23694E+04         0.00000E+00
    0.00000E+00         0.00000E+00        -0.27484E+04
 
   -0.64056E+04         0.40635E+04         0.00000E+00
    0.40635E+04        -0.26796E+04         0.00000E+00
    0.00000E+00         0.00000E+00        -0.27255E+04
 
   -0.60084E+04         0.41985E+04         0.00000E+00
    0.41985E+04        -0.29795E+04         0.00000E+00
    0.00000E+00         0.00000E+00        -0.26964E+04
 
   -0.56041E+04         0.43151E+04         0.00000E+00
    0.43151E+04        -0.32662E+04         0.00000E+00
    0.00000E+00         0.00000E+00        -0.26611E+04
 
   -0.51939E+04         0.44194E+04         0.00000E+00
    0.44194E+04        -0.35380E+04         0.00000E+00
    0.00000E+00         0.00000E+00        -0.26196E+04
 
   -0.47770E+04         0.45174E+04         0.00000E+00
    0.45174E+04        -0.37950E+04         0.00000E+00
    0.00000E+00         0.00000E+00        -0.25716E+04
 
   -0.43509E+04         0.46148E+04         0.00000E+00
    0.46148E+04        -0.40385E+04         0.00000E+00
    0.00000E+00         0.00000E+00        -0.25168E+04
 
   -0.39108E+04         0.47163E+04         0.00000E+00
    0.47163E+04        -0.42710E+04         0.00000E+00
    0.00000E+00         0.00000E+00        -0.24545E+04
 
   -0.34508E+04         0.48258E+04         0.00000E+00
    0.48258E+04        -0.44963E+04         0.00000E+00
    0.00000E+00         0.00000E+00        -0.23841E+04
 
   -0.29632E+04         0.49456E+04         0.00000E+00
    0.49456E+04        -0.47189E+04         0.00000E+00
    0.00000E+00         0.00000E+00        -0.23046E+04
 
   -0.24397E+04         0.50769E+04         0.00000E+00
    0.50769E+04        -0.49443E+04         0.00000E+00
    0.00000E+00         0.00000E+00        -0.22152E+04
 
   -0.74852E+04         0.99252E+02         0.00000E+00
    0.99252E+02        -0.21112E+01         0.00000E+00
    0.00000E+00         0.00000E+00        -0.22462E+04
 
   -0.77067E+04         0.31593E+03         0.00000E+00
    0.31593E+03        -0.14128E+02         0.00000E+00
    0.00000E+00         0.00000E+00        -0.23163E+04
 
   -0.78985E+04         0.55937E+03         0.00000E+00
    0.55937E+03        -0.41906E+02         0.00000E+00
    0.00000E+00         0.00000E+00        -0.23821E+04
 
   -0.80519E+04         0.83007E+03         0.00000E+00
    0.83007E+03        -0.91113E+02         0.00000E+00
    0.00000E+00         0.00000E+00        -0.24429E+04
 
   -0.81574E+04         0.11249E+04         0.00000E+00
    0.11249E+04        -0.16767E+03         0.00000E+00
    0.00000E+00         0.00000E+00        -0.24975E+04
 
   -0.82071E+04         0.14373E+04         0.00000E+00
    0.14373E+04        -0.27630E+03         0.00000E+00
    0.00000E+00         0.00000E+00        -0.25450E+04
 
   -0.81958E+04         0.17587E+04         0.00000E+00
    0.17587E+04        -0.41957E+03         0.00000E+00
    0.00000E+00         0.00000E+00        -0.25846E+04
 
   -0.81219E+04         0.20796E+04         0.00000E+00
    0.20796E+04        -0.59746E+03         0.00000E+00
    0.00000E+00         0.00000E+00        -0.26158E+04
 
   -0.79870E+04         0.23907E+04         0.00000E+00
    0.23907E+04        -0.80742E+03         0.00000E+00
    0.00000E+00         0.00000E+00        -0.26383E+04
 
   -0.77960E+04         0.26844E+04         0.00000E+00
    0.26844E+04        -0.10449E+04         0.00000E+00
    0.00000E+00         0.00000E+00        -0.26523E+04
 
   -0.75557E+04         0.29550E+04         0.00000E+00
    0.29550E+04        -0.13040E+04         0.00000E+00
    0.00000E+00         0.00000E+00        -0.26579E+04
 
   -0.72738E+04         0.31990E+04         0.00000E+00
    0.31990E+04        -0.15781E+04         0.00000E+00
    0.00000E+00         0.00000E+00        -0.26556E+04
 
   -0.69584E+04         0.34155E+04         0.00000E+00
    0.34155E+04        -0.18609E+04         0.00000E+00
    0.00000E+00         0.00000E+00        -0.26458E+04
 
   -0.66166E+04         0.36052E+04         0.00000E+00
    0.36052E+04        -0.21463E+04         0.00000E+00
    0.00000E+00         0.00000E+00        -0.26289E+04
 
   -0.62548E+04         0.37707E+04         0.00000E+00
    0.37707E+04        -0.24295E+04         0.00000E+00
    0.00000E+00         0.00000E+00        -0.26053E+04
 
   -0.58775E+04         0.39155E+04         0.00000E+00
    0.39155E+04        -0.27063E+04         0.00000E+00
    0.00000E+00         0.00000E+00        -0.25751E+04
 
   -0.54878E+04         0.40442E+04         0.00000E+00
    0.40442E+04        -0.29742E+04         0.00000E+00
    0.00000E+00         0.00000E+00        -0.25386E+04
 
   -0.50868E+04         0.41613E+04         0.00000E+00
    0.41613E+04        -0.32317E+04         0.00000E+00
    0.00000E+00         0.00000E+00        -0.24955E+04
 
   -0.46740E+04         0.42716E+04         0.00000E+00
    0.42716E+04        -0.34786E+04         0.00000E+00
    0.00000E+00         0.00000E+00        -0.24458E+04
 
   -0.42472E+04         0.43795E+04         0.00000E+00
    0.43795E+04        -0.37159E+04         0.00000E+00
    0.00000E+00         0.00000E+00        -0.23889E+04
 
   -0.38026E+04         0.44886E+04         0.00000E+00
    0.44886E+04        -0.39457E+04         0.00000E+00
    0.00000E+00         0.00000E+00        -0.23245E+04
 
   -0.33354E+04         0.46020E+04         0.00000E+00
    0.46020E+04        -0.41711E+04         0.00000E+00
    0.00000E+00         0.00000E+00        -0.22519E+04
 
   -0.28392E+04         0.47211E+04         0.00000E+00
    0.47211E+04        -0.43957E+04         0.00000E+00
    0.00000E+00         0.00000E+00        -0.21705E+04
 
   -0.23072E+04         0.48466E+04         0.00000E+00
    0.48466E+04        -0.46240E+04         0.00000E+00
    0.00000E+00         0.00000E+00        -0.20794E+04
 
   -0.72869E+04         0.93090E+02         0.00000E+00
    0.93090E+02        -0.25167E+01         0.00000E+00
    0.00000E+00         0.00000E+00        -0.21868E+04
 
   -0.74849E+04         0.29567E+03         0.00000E+00
    0.29567E+03        -0.16224E+02         0.00000E+00
    0.00000E+00         0.00000E+00        -0.22503E+04
 
   -0.76517E+04         0.52092E+03         0.00000E+00
    0.52092E+03        -0.46091E+02         0.00000E+00
    0.00000E+00         0.00000E+00        -0.23093E+04
 
   -0.77816E+04         0.76842E+03         0.00000E+00
    0.76842E+03        -0.95917E+02         0.00000E+00
    0.00000E+00         0.00000E+00        -0.23632E+04
 
   -0.78680E+04         0.10354E+04         0.00000E+00
    0.10354E+04        -0.16976E+03         0.00000E+00
    0.00000E+00         0.00000E+00        -0.24113E+04
 
   -0.79054E+04         0.13168E+04         0.00000E+00
    0.13168E+04        -0.27095E+03         0.00000E+00
    0.00000E+00         0.00000E+00        -0.24529E+04
 
   -0.78898E+04         0.16060E+04         0.00000E+00
    0.16060E+04        -0.40134E+03         0.00000E+00
    0.00000E+00         0.00000E+00        -0.24873E+04
 
   -0.78200E+04         0.18958E+04         0.00000E+00
    0.18958E+04        -0.56096E+03         0.00000E+00
    0.00000E+00         0.00000E+00        -0.25143E+04
 
   -0.76969E+04         0.21790E+04         0.00000E+00
    0.21790E+04        -0.74800E+03         0.00000E+00
    0.00000E+00         0.00000E+00        -0.25335E+04
 
   -0.75238E+04         0.24494E+04         0.00000E+00
    0.24494E+04        -0.95907E+03         0.00000E+00
    0.00000E+00         0.00000E+00        -0.25449E+04
 
   -0.73056E+04         0.27022E+04         0.00000E+00
    0.27022E+04        -0.11897E+04         0.00000E+00
    0.00000E+00         0.00000E+00        -0.25486E+04
 
   -0.70480E+04         0.29344E+04         0.00000E+00
    0.29344E+04        -0.14348E+04         0.00000E+00
    0.00000E+00         0.00000E+00        -0.25448E+04
 
   -0.67572E+04         0.31446E+04         0.00000E+00
    0.31446E+04        -0.16892E+04         0.00000E+00
    0.00000E+00         0.00000E+00        -0.25339E+04
 
   -0.64388E+04         0.33332E+04         0.00000E+00
    0.33332E+04        -0.19481E+04         0.00000E+00
    0.00000E+00         0.00000E+00        -0.25161E+04
 
   -0.60976E+04         0.35016E+04         0.00000E+00
    0.35016E+04        -0.22073E+04         0.00000E+00
    0.00000E+00         0.00000E+00        -0.24915E+04
 
   -0.57376E+04         0.36525E+04         0.00000E+00
    0.36525E+04        -0.24634E+04         0.00000E+00
    0.00000E+00         0.00000E+00        -0.24603E+04
 
   -0.53610E+04         0.37891E+04         0.00000E+00
    0.37891E+04        -0.27141E+04         0.00000E+00
    0.00000E+00         0.00000E+00        -0.24225E+04
 
   -0.49690E+04         0.39150E+04         0.00000E+00
    0.39150E+04        -0.29582E+04         0.00000E+00
    0.00000E+00         0.00000E+00        -0.23782E+04
 
   -0.45612E+04         0.40338E+04         0.00000E+00
    0.40338E+04        -0.31952E+04         0.00000E+00
    0.00000E+00         0.00000E+00        -0.23269E+04
 
   -0.41358E+04         0.41488E+04         0.00000E+00
    0.41488E+04        -0.34260E+04         0.00000E+00
    0.00000E+00         0.00000E+00        -0.22686E+04
 
   -0.36899E+04         0.42628E+04         0.00000E+00
    0.42628E+04        -0.36522E+04         0.00000E+00
    0.00000E+00         0.00000E+00        -0.22026E+04
 
   -0.32192E+04         0.43778E+04         0.00000E+00
    0.43778E+04        -0.38762E+04         0.00000E+00
    0.00000E+00         0.00000E+00        -0.21286E+04
 
   -0.27189E+04         0.44950E+04         0.00000E+00
    0.44950E+04        -0.41010E+04         0.00000E+00
    0.00000E+00         0.00000E+00        -0.20460E+04
 
   -0.21831E+04         0.46142E+04         0.00000E+00
    0.46142E+04        -0.43302E+04         0.00000E+00
    0.00000E+00         0.00000E+00        -0.19540E+04
 
   -0.71021E+04         0.86273E+02         0.00000E+00
    0.86273E+02        -0.26694E+01         0.00000E+00
    0.00000E+00         0.00000E+00        -0.21314E+04
 
   -0.72791E+04         0.27404E+03         0.00000E+00
    0.27404E+03        -0.16953E+02         0.00000E+00
    0.00000E+00         0.00000E+00        -0.21888E+04
 
   -0.74249E+04         0.48172E+03         0.00000E+00
    0.48172E+03        -0.47211E+02         0.00000E+00
    0.00000E+00         0.00000E+00        -0.22416E+04
 
   -0.75354E+04         0.70824E+03         0.00000E+00
    0.70824E+03        -0.96044E+02         0.00000E+00
    0.00000E+00         0.00000E+00        -0.22894E+04
 
   -0.76061E+04         0.95099E+03         0.00000E+00
    0.95099E+03        -0.16625E+03         0.00000E+00
    0.00000E+00         0.00000E+00        -0.23317E+04
 
   -0.76330E+04         0.12059E+04         0.00000E+00
    0.12059E+04        -0.26014E+03         0.00000E+00
    0.00000E+00         0.00000E+00        -0.23679E+04
 
   -0.76132E+04         0.14679E+04         0.00000E+00
    0.14679E+04        -0.37905E+03         0.00000E+00
    0.00000E+00         0.00000E+00        -0.23977E+04
 
   -0.75456E+04         0.17312E+04         0.00000E+00
    0.17312E+04        -0.52297E+03         0.00000E+00
    0.00000E+00         0.00000E+00        -0.24206E+04
 
   -0.74309E+04         0.19901E+04         0.00000E+00
    0.19901E+04        -0.69059E+03         0.00000E+00
    0.00000E+00         0.00000E+00        -0.24364E+04
 
   -0.72711E+04         0.22398E+04         0.00000E+00
    0.22398E+04        -0.87936E+03         0.00000E+00
    0.00000E+00         0.00000E+00        -0.24451E+04
 
   -0.70699E+04         0.24762E+04         0.00000E+00
    0.24762E+04        -0.10859E+04         0.00000E+00
    0.00000E+00         0.00000E+00        -0.24467E+04
 
   -0.68315E+04         0.26966E+04         0.00000E+00
    0.26966E+04        -0.13062E+04         0.00000E+00
    0.00000E+00         0.00000E+00        -0.24413E+04
 
   -0.65604E+04         0.28995E+04         0.00000E+00
    0.28995E+04        -0.15362E+04         0.00000E+00
    0.00000E+00         0.00000E+00        -0.24290E+04
 
   -0.62611E+04         0.30849E+04         0.00000E+00
    0.30849E+04        -0.17720E+04         0.00000E+00
    0.00000E+00         0.00000E+00        -0.24099E+04
 
   -0.59373E+04         0.32537E+04         0.00000E+00
    0.32537E+04        -0.20101E+04         0.00000E+00
    0.00000E+00         0.00000E+00        -0.23842E+04
 
   -0.55921E+04         0.34075E+04         0.00000E+00
    0.34075E+04        -0.22477E+04         0.00000E+00
    0.00000E+00         0.00000E+00        -0.23519E+04
 
   -0.52274E+04         0.35488E+04         0.00000E+00
    0.35488E+04        -0.24829E+04         0.00000E+00
    0.00000E+00         0.00000E+00        -0.23131E+04
 
   -0.48442E+04         0.36801E+04         0.00000E+00
    0.36801E+04        -0.27144E+04         0.00000E+00
    0.00000E+00         0.00000E+00        -0.22676E+04
 
   -0.44421E+04         0.38042E+04         0.00000E+00
    0.38042E+04        -0.29419E+04         0.00000E+00
    0.00000E+00         0.00000E+00        -0.22152E+04
 
   -0.40198E+04         0.39234E+04         0.00000E+00
    0.39234E+04        -0.31660E+04         0.00000E+00
    0.00000E+00         0.00000E+00        -0.21557E+04
 
   -0.35748E+04         0.40398E+04         0.00000E+00
    0.40398E+04        -0.33877E+04         0.00000E+00
    0.00000E+00         0.00000E+00        -0.20888E+04
 
   -0.31039E+04         0.41548E+04         0.00000E+00
    0.41548E+04        -0.36092E+04         0.00000E+00
    0.00000E+00         0.00000E+00        -0.20139E+04
 
   -0.26029E+04         0.42689E+04         0.00000E+00
    0.42689E+04        -0.38328E+04         0.00000E+00
    0.00000E+00         0.00000E+00        -0.19307E+04
 
   -0.20673E+04         0.43817E+04         0.00000E+00
    0.43817E+04        -0.40614E+04         0.00000E+00
    0.00000E+00         0.00000E+00        -0.18386E+04
 
   -0.69315E+04         0.79309E+02         0.00000E+00
    0.79309E+02        -0.26622E+01         0.00000E+00
    0.00000E+00         0.00000E+00        -0.20802E+04
 
   -0.70892E+04         0.25226E+03         0.00000E+00
    0.25226E+03        -0.16807E+02         0.00000E+00
    0.00000E+00         0.00000E+00        -0.21318E+04
 
   -0.72166E+04         0.44322E+03         0.00000E+00
    0.44322E+03        -0.46357E+02         0.00000E+00
    0.00000E+00         0.00000E+00        -0.21789E+04
 
   -0.73106E+04         0.65064E+03         0.00000E+00
    0.65064E+03        -0.93154E+02         0.00000E+00
    0.00000E+00         0.00000E+00        -0.22211E+04
 
   -0.73679E+04         0.87206E+03         0.00000E+00
    0.87206E+03        -0.15916E+03         0.00000E+00
    0.00000E+00         0.00000E+00        -0.22581E+04
 
   -0.73857E+04         0.11041E+04         0.00000E+00
    0.11041E+04        -0.24598E+03         0.00000E+00
    0.00000E+00         0.00000E+00        -0.22895E+04
 
   -0.73618E+04         0.13425E+04         0.00000E+00
    0.13425E+04        -0.35456E+03         0.00000E+00
    0.00000E+00         0.00000E+00        -0.23149E+04
 
   -0.72951E+04         0.15829E+04         0.00000E+00
    0.15829E+04        -0.48486E+03         0.00000E+00
    0.00000E+00         0.00000E+00        -0.23340E+04
 
   -0.71861E+04         0.18207E+04         0.00000E+00
    0.18207E+04        -0.63588E+03         0.00000E+00
    0.00000E+00         0.00000E+00        -0.23466E+04
 
   -0.70363E+04         0.20518E+04         0.00000E+00
    0.20518E+04        -0.80572E+03         0.00000E+00
    0.00000E+00         0.00000E+00        -0.23526E+04
 
   -0.68480E+04         0.22729E+04         0.00000E+00
    0.22729E+04        -0.99173E+03         0.00000E+00
    0.00000E+00         0.00000E+00        -0.23519E+04
 
   -0.66246E+04         0.24817E+04         0.00000E+00
    0.24817E+04        -0.11909E+04         0.00000E+00
    0.00000E+00         0.00000E+00        -0.23446E+04
 
   -0.63694E+04         0.26766E+04         0.00000E+00
    0.26766E+04        -0.13998E+04         0.00000E+00
    0.00000E+00         0.00000E+00        -0.23308E+04
 
   -0.60856E+04         0.28574E+04         0.00000E+00
    0.28574E+04        -0.16156E+04         0.00000E+00
    0.00000E+00         0.00000E+00        -0.23104E+04
 
   -0.57764E+04         0.30244E+04         0.00000E+00
    0.30244E+04        -0.18352E+04         0.00000E+00
    0.00000E+00         0.00000E+00        -0.22835E+04
 
   -0.54440E+04         0.31786E+04         0.00000E+00
    0.31786E+04        -0.20565E+04         0.00000E+00
    0.00000E+00         0.00000E+00        -0.22502E+04
 
   -0.50901E+04         0.33219E+04         0.00000E+00
    0.33219E+04        -0.22776E+04         0.00000E+00
    0.00000E+00         0.00000E+00        -0.22103E+04
 
   -0.47153E+04         0.34559E+04         0.00000E+00
    0.34559E+04        -0.24975E+04         0.00000E+00
    0.00000E+00         0.00000E+00        -0.21638E+04
 
   -0.43195E+04         0.35826E+04         0.00000E+00
    0.35826E+04        -0.27158E+04         0.00000E+00
    0.00000E+00         0.00000E+00        -0.21106E+04
 
   -0.39014E+04         0.37037E+04         0.00000E+00
    0.37037E+04        -0.29330E+04         0.00000E+00
    0.00000E+00         0.00000E+00        -0.20503E+04
 
   -0.34594E+04         0.38206E+04         0.00000E+00
    0.38206E+04        -0.31499E+04         0.00000E+00
    0.00000E+00         0.00000E+00        -0.19828E+04
 
   -0.29906E+04         0.39341E+04         0.00000E+00
    0.39341E+04        -0.33680E+04         0.00000E+00
    0.00000E+00         0.00000E+00        -0.19076E+04
 
   -0.24919E+04         0.40443E+04         0.00000E+00
    0.40443E+04        -0.35892E+04         0.00000E+00
    0.00000E+00         0.00000E+00        -0.18243E+04
 
   -0.19597E+04         0.41505E+04         0.00000E+00
    0.41505E+04        -0.38159E+04         0.00000E+00
    0.00000E+00         0.00000E+00        -0.17327E+04
 
   -0.67748E+04         0.72512E+02         0.00000E+00
    0.72512E+02        -0.25588E+01         0.00000E+00
    0.00000E+00         0.00000E+00        -0.20332E+04
 
   -0.69146E+04         0.23113E+03         0.00000E+00
    0.23113E+03        -0.16130E+02         0.00000E+00
    0.00000E+00         0.00000E+00        -0.20792E+04
 
   -0.70255E+04         0.40632E+03         0.00000E+00
    0.40632E+03        -0.44303E+02         0.00000E+00
    0.00000E+00         0.00000E+00        -0.21209E+04
 
   -0.71050E+04         0.59629E+03         0.00000E+00
    0.59629E+03        -0.88452E+02         0.00000E+00
    0.00000E+00         0.00000E+00        -0.21580E+04
 
   -0.71507E+04         0.79868E+03         0.00000E+00
    0.79868E+03        -0.14999E+03         0.00000E+00
    0.00000E+00         0.00000E+00        -0.21902E+04
 
   -0.71603E+04         0.10106E+04         0.00000E+00
    0.10106E+04        -0.23006E+03         0.00000E+00
    0.00000E+00         0.00000E+00        -0.22171E+04
 
   -0.71322E+04         0.12285E+04         0.00000E+00
    0.12285E+04        -0.32931E+03         0.00000E+00
    0.00000E+00         0.00000E+00        -0.22384E+04
 
   -0.70654E+04         0.14488E+04         0.00000E+00
    0.14488E+04        -0.44770E+03         0.00000E+00
    0.00000E+00         0.00000E+00        -0.22539E+04
 
   -0.69602E+04         0.16678E+04         0.00000E+00
    0.16678E+04        -0.58445E+03         0.00000E+00
    0.00000E+00         0.00000E+00        -0.22634E+04
 
   -0.68176E+04         0.18821E+04         0.00000E+00
    0.18821E+04        -0.73809E+03         0.00000E+00
    0.00000E+00         0.00000E+00        -0.22667E+04
 
   -0.66393E+04         0.20891E+04         0.00000E+00
    0.20891E+04        -0.90661E+03         0.00000E+00
    0.00000E+00         0.00000E+00        -0.22638E+04
 
   -0.64276E+04         0.22865E+04         0.00000E+00
    0.22865E+04        -0.10876E+04         0.00000E+00
    0.00000E+00         0.00000E+00        -0.22546E+04
 
   -0.61850E+04         0.24730E+04         0.00000E+00
    0.24730E+04        -0.12785E+04         0.00000E+00
    0.00000E+00         0.00000E+00        -0.22391E+04
 
   -0.59141E+04         0.26479E+04         0.00000E+00
    0.26479E+04        -0.14769E+04         0.00000E+00
    0.00000E+00         0.00000E+00        -0.22173E+04
 
   -0.56171E+04         0.28115E+04         0.00000E+00
    0.28115E+04        -0.16803E+04         0.00000E+00
    0.00000E+00         0.00000E+00        -0.21892E+04
 
   -0.52958E+04         0.29643E+04         0.00000E+00
    0.29643E+04        -0.18870E+04         0.00000E+00
    0.00000E+00         0.00000E+00        -0.21548E+04
 
   -0.49515E+04         0.31072E+04         0.00000E+00
    0.31072E+04        -0.20954E+04         0.00000E+00
    0.00000E+00         0.00000E+00        -0.21141E+04
 
   -0.45848E+04         0.32417E+04         0.00000E+00
    0.32417E+04        -0.23046E+04         0.00000E+00
    0.00000E+00         0.00000E+00        -0.20668E+04
 
   -0.41955E+04         0.33688E+04         0.00000E+00
    0.33688E+04        -0.25143E+04         0.00000E+00
    0.00000E+00         0.00000E+00        -0.20129E+04
 
   -0.37828E+04         0.34899E+04         0.00000E+00
    0.34899E+04        -0.27246E+04         0.00000E+00
    0.00000E+00         0.00000E+00        -0.19522E+04
 
   -0.33451E+04         0.36056E+04         0.00000E+00
    0.36056E+04        -0.29363E+04         0.00000E+00
    0.00000E+00         0.00000E+00        -0.18844E+04
 
   -0.28805E+04         0.37165E+04         0.00000E+00
    0.37165E+04        -0.31504E+04         0.00000E+00
    0.00000E+00         0.00000E+00        -0.18093E+04
 
   -0.23863E+04         0.38222E+04         0.00000E+00
    0.38222E+04        -0.33684E+04         0.00000E+00
    0.00000E+00         0.00000E+00        -0.17264E+04
 
   -0.18598E+04         0.39218E+04         0.00000E+00
    0.39218E+04        -0.35921E+04         0.00000E+00
    0.00000E+00         0.00000E+00        -0.16356E+04
 
   -0.66317E+04         0.66064E+02         0.00000E+00
    0.66064E+02        -0.24026E+01         0.00000E+00
    0.00000E+00         0.00000E+00        -0.19902E+04
 
   -0.67547E+04         0.21109E+03         0.00000E+00
    0.21109E+03        -0.15160E+02         0.00000E+00
    0.00000E+00         0.00000E+00        -0.20309E+04
 
   -0.68504E+04         0.37155E+03         0.00000E+00
    0.37155E+03        -0.41591E+02         0.00000E+00
    0.00000E+00         0.00000E+00        -0.20676E+04
 
   -0.69169E+04         0.54553E+03         0.00000E+00
    0.54553E+03        -0.82789E+02         0.00000E+00
    0.00000E+00         0.00000E+00        -0.20999E+04
 
   -0.69521E+04         0.73078E+03         0.00000E+00
    0.73078E+03        -0.13982E+03         0.00000E+00
    0.00000E+00         0.00000E+00        -0.21276E+04
 
   -0.69542E+04         0.92472E+03         0.00000E+00
    0.92472E+03        -0.21352E+03         0.00000E+00
    0.00000E+00         0.00000E+00        -0.21503E+04
 
   -0.69218E+04         0.11244E+04         0.00000E+00
    0.11244E+04        -0.30436E+03         0.00000E+00
    0.00000E+00         0.00000E+00        -0.21678E+04
 
   -0.68542E+04         0.13269E+04         0.00000E+00
    0.13269E+04        -0.41228E+03         0.00000E+00
    0.00000E+00         0.00000E+00        -0.21799E+04
 
   -0.67513E+04         0.15291E+04         0.00000E+00
    0.15291E+04        -0.53668E+03         0.00000E+00
    0.00000E+00         0.00000E+00        -0.21864E+04
 
   -0.66139E+04         0.17282E+04         0.00000E+00
    0.17282E+04        -0.67643E+03         0.00000E+00
    0.00000E+00         0.00000E+00        -0.21871E+04
 
   -0.64431E+04         0.19218E+04         0.00000E+00
    0.19218E+04        -0.82996E+03         0.00000E+00
    0.00000E+00         0.00000E+00        -0.21819E+04
 
   -0.62405E+04         0.21082E+04         0.00000E+00
    0.21082E+04        -0.99541E+03         0.00000E+00
    0.00000E+00         0.00000E+00        -0.21708E+04
 
   -0.60081E+04         0.22859E+04         0.00000E+00
    0.22859E+04        -0.11708E+04         0.00000E+00
    0.00000E+00         0.00000E+00        -0.21536E+04
 
   -0.57476E+04         0.24542E+04         0.00000E+00
    0.24542E+04        -0.13540E+04         0.00000E+00
    0.00000E+00         0.00000E+00        -0.21305E+04
 
   -0.54609E+04         0.26131E+04         0.00000E+00
    0.26131E+04        -0.15433E+04         0.00000E+00
    0.00000E+00         0.00000E+00        -0.21013E+04
 
   -0.51492E+04         0.27628E+04         0.00000E+00
    0.27628E+04        -0.17371E+04         0.00000E+00
    0.00000E+00         0.00000E+00        -0.20659E+04
 
   -0.48137E+04         0.29037E+04         0.00000E+00
    0.29037E+04        -0.19341E+04         0.00000E+00
    0.00000E+00         0.00000E+00        -0.20243E+04
 
   -0.44547E+04         0.30368E+04         0.00000E+00
    0.30368E+04        -0.21335E+04         0.00000E+00
    0.00000E+00         0.00000E+00        -0.19764E+04
 
   -0.40721E+04         0.31627E+04         0.00000E+00
    0.31627E+04        -0.23350E+04         0.00000E+00
    0.00000E+00         0.00000E+00        -0.19221E+04
 
   -0.36654E+04         0.32821E+04         0.00000E+00
    0.32821E+04        -0.25386E+04         0.00000E+00
    0.00000E+00         0.00000E+00        -0.18612E+04
 
   -0.32333E+04         0.33954E+04         0.00000E+00
    0.33954E+04        -0.27448E+04         0.00000E+00
    0.00000E+00         0.00000E+00        -0.17934E+04
 
   -0.27742E+04         0.35027E+04         0.00000E+00
    0.35027E+04        -0.29544E+04         0.00000E+00
    0.00000E+00         0.00000E+00        -0.17186E+04
 
   -0.22864E+04         0.36034E+04         0.00000E+00
    0.36034E+04        -0.31686E+04         0.00000E+00
    0.00000E+00         0.00000E+00        -0.16365E+04
 
   -0.17676E+04         0.36965E+04         0.00000E+00
    0.36965E+04        -0.33886E+04         0.00000E+00
    0.00000E+00         0.00000E+00        -0.15469E+04
 
   -0.65012E+04         0.60059E+02         0.00000E+00
    0.60059E+02        -0.22221E+01         0.00000E+00
    0.00000E+00         0.00000E+00        -0.19510E+04
 
   -0.66083E+04         0.19239E+03         0.00000E+00
    0.19239E+03        -0.14055E+02         0.00000E+00
    0.00000E+00         0.00000E+00        -0.19867E+04
 
   -0.66901E+04         0.33916E+03         0.00000E+00
    0.33916E+03        -0.38588E+02         0.00000E+00
    0.00000E+00         0.00000E+00        -0.20186E+04
 
   -0.67447E+04         0.49845E+03         0.00000E+00
    0.49845E+03        -0.76754E+02         0.00000E+00
    0.00000E+00         0.00000E+00        -0.20464E+04
 
   -0.67702E+04         0.66815E+03         0.00000E+00
    0.66815E+03        -0.12940E+03         0.00000E+00
    0.00000E+00         0.00000E+00        -0.20699E+04
 
   -0.67652E+04         0.84595E+03         0.00000E+00
    0.84595E+03        -0.19719E+03         0.00000E+00
    0.00000E+00         0.00000E+00        -0.20887E+04
 
   -0.67285E+04         0.10293E+04         0.00000E+00
    0.10293E+04        -0.28045E+03         0.00000E+00
    0.00000E+00         0.00000E+00        -0.21027E+04
 
   -0.66594E+04         0.12158E+04         0.00000E+00
    0.12158E+04        -0.37915E+03         0.00000E+00
    0.00000E+00         0.00000E+00        -0.21116E+04
 
   -0.65578E+04         0.14027E+04         0.00000E+00
    0.14027E+04        -0.49282E+03         0.00000E+00
    0.00000E+00         0.00000E+00        -0.21152E+04
 
   -0.64240E+04         0.15877E+04         0.00000E+00
    0.15877E+04        -0.62059E+03         0.00000E+00
    0.00000E+00         0.00000E+00        -0.21134E+04
 
   -0.62588E+04         0.17688E+04         0.00000E+00
    0.17688E+04        -0.76124E+03         0.00000E+00
    0.00000E+00         0.00000E+00        -0.21060E+04
 
   -0.60633E+04         0.19444E+04         0.00000E+00
    0.19444E+04        -0.91331E+03         0.00000E+00
    0.00000E+00         0.00000E+00        -0.20930E+04
 
   -0.58390E+04         0.21131E+04         0.00000E+00
    0.21131E+04        -0.10752E+04         0.00000E+00
    0.00000E+00         0.00000E+00        -0.20743E+04
 
   -0.55871E+04         0.22743E+04         0.00000E+00
    0.22743E+04        -0.12454E+04         0.00000E+00
    0.00000E+00         0.00000E+00        -0.20498E+04
 
   -0.53091E+04         0.24275E+04         0.00000E+00
    0.24275E+04        -0.14223E+04         0.00000E+00
    0.00000E+00         0.00000E+00        -0.20194E+04
 
   -0.50059E+04         0.25728E+04         0.00000E+00
    0.25728E+04        -0.16046E+04         0.00000E+00
    0.00000E+00         0.00000E+00        -0.19831E+04
 
   -0.46782E+04         0.27104E+04         0.00000E+00
    0.27104E+04        -0.17913E+04         0.00000E+00
    0.00000E+00         0.00000E+00        -0.19409E+04
 
   -0.43266E+04         0.28406E+04         0.00000E+00
    0.28406E+04        -0.19817E+04         0.00000E+00
    0.00000E+00         0.00000E+00        -0.18925E+04
 
   -0.39508E+04         0.29638E+04         0.00000E+00
    0.29638E+04        -0.21755E+04         0.00000E+00
    0.00000E+00         0.00000E+00        -0.18379E+04
 
   -0.35505E+04         0.30803E+04         0.00000E+00
    0.30803E+04        -0.23726E+04         0.00000E+00
    0.00000E+00         0.00000E+00        -0.17769E+04
 
   -0.31248E+04         0.31902E+04         0.00000E+00
    0.31902E+04        -0.25733E+04         0.00000E+00
    0.00000E+00         0.00000E+00        -0.17094E+04
 
   -0.26725E+04         0.32932E+04         0.00000E+00
    0.32932E+04        -0.27782E+04         0.00000E+00
    0.00000E+00         0.00000E+00        -0.16352E+04
 
   -0.21923E+04         0.33886E+04         0.00000E+00
    0.33886E+04        -0.29881E+04         0.00000E+00
    0.00000E+00         0.00000E+00        -0.15541E+04
 
   -0.16825E+04         0.34752E+04         0.00000E+00
    0.34752E+04        -0.32039E+04         0.00000E+00
    0.00000E+00         0.00000E+00        -0.14659E+04
 
   -0.63825E+04         0.54530E+02         0.00000E+00
    0.54530E+02        -0.20362E+01         0.00000E+00
    0.00000E+00         0.00000E+00        -0.19154E+04
 
   -0.64747E+04         0.17510E+03         0.00000E+00
    0.17510E+03        -0.12921E+02         0.00000E+00
    0.00000E+00         0.00000E+00        -0.19463E+04
 
   -0.65435E+04         0.30921E+03         0.00000E+00
    0.30921E+03        -0.35542E+02         0.00000E+00
    0.00000E+00         0.00000E+00        -0.19737E+04
 
   -0.65869E+04         0.45498E+03         0.00000E+00
    0.45498E+03        -0.70742E+02         0.00000E+00
    0.00000E+00         0.00000E+00        -0.19973E+04
 
   -0.66035E+04         0.61047E+03         0.00000E+00
    0.61047E+03        -0.11925E+03         0.00000E+00
    0.00000E+00         0.00000E+00        -0.20168E+04
 
   -0.65918E+04         0.77359E+03         0.00000E+00
    0.77359E+03        -0.18159E+03         0.00000E+00
    0.00000E+00         0.00000E+00        -0.20320E+04
 
   -0.65508E+04         0.94216E+03         0.00000E+00
    0.94216E+03        -0.25807E+03         0.00000E+00
    0.00000E+00         0.00000E+00        -0.20427E+04
 
   -0.64797E+04         0.11140E+04         0.00000E+00
    0.11140E+04        -0.34864E+03         0.00000E+00
    0.00000E+00         0.00000E+00        -0.20485E+04
 
   -0.63784E+04         0.12869E+04         0.00000E+00
    0.12869E+04        -0.45296E+03         0.00000E+00
    0.00000E+00         0.00000E+00        -0.20494E+04
 
   -0.62470E+04         0.14588E+04         0.00000E+00
    0.14588E+04        -0.57036E+03         0.00000E+00
    0.00000E+00         0.00000E+00        -0.20452E+04
 
   -0.60859E+04         0.16281E+04         0.00000E+00
    0.16281E+04        -0.69990E+03         0.00000E+00
    0.00000E+00         0.00000E+00        -0.20357E+04
 
   -0.58960E+04         0.17931E+04         0.00000E+00
    0.17931E+04        -0.84044E+03         0.00000E+00
    0.00000E+00         0.00000E+00        -0.20209E+04
 
   -0.56781E+04         0.19528E+04         0.00000E+00
    0.19528E+04        -0.99073E+03         0.00000E+00
    0.00000E+00         0.00000E+00        -0.20007E+04
 
   -0.54334E+04         0.21063E+04         0.00000E+00
    0.21063E+04        -0.11495E+04         0.00000E+00
    0.00000E+00         0.00000E+00        -0.19749E+04
 
   -0.51627E+04         0.22531E+04         0.00000E+00
    0.22531E+04        -0.13155E+04         0.00000E+00
    0.00000E+00         0.00000E+00        -0.19435E+04
 
   -0.48669E+04         0.23931E+04         0.00000E+00
    0.23931E+04        -0.14877E+04         0.00000E+00
    0.00000E+00         0.00000E+00        -0.19064E+04
 
   -0.45465E+04         0.25261E+04         0.00000E+00
    0.25261E+04        -0.16652E+04         0.00000E+00
    0.00000E+00         0.00000E+00        -0.18635E+04
 
   -0.42018E+04         0.26523E+04         0.00000E+00
    0.26523E+04        -0.18474E+04         0.00000E+00
    0.00000E+00         0.00000E+00        -0.18148E+04
 
   -0.38328E+04         0.27718E+04         0.00000E+00
    0.27718E+04        -0.20340E+04         0.00000E+00
    0.00000E+00         0.00000E+00        -0.17600E+04
 
   -0.34393E+04         0.28844E+04         0.00000E+00
    0.28844E+04        -0.22248E+04         0.00000E+00
    0.00000E+00         0.00000E+00        -0.16992E+04
 
   -0.30205E+04         0.29901E+04         0.00000E+00
    0.29901E+04        -0.24201E+04         0.00000E+00
    0.00000E+00         0.00000E+00        -0.16322E+04
 
   -0.25758E+04         0.30883E+04         0.00000E+00
    0.30883E+04        -0.26201E+04         0.00000E+00
    0.00000E+00         0.00000E+00        -0.15588E+04
 
   -0.21041E+04         0.31782E+04         0.00000E+00
    0.31782E+04        -0.28254E+04         0.00000E+00
    0.00000E+00         0.00000E+00        -0.14788E+04
 
   -0.16043E+04         0.32585E+04         0.00000E+00
    0.32585E+04        -0.30366E+04         0.00000E+00
    0.00000E+00         0.00000E+00        -0.13923E+04
 
   -0.62746E+04         0.49474E+02         0.00000E+00
    0.49474E+02        -0.18563E+01         0.00000E+00
    0.00000E+00         0.00000E+00        -0.18829E+04
 
   -0.63529E+04         0.15921E+03         0.00000E+00
    0.15921E+03        -0.11823E+02         0.00000E+00
    0.00000E+00         0.00000E+00        -0.19094E+04
 
   -0.64094E+04         0.28162E+03         0.00000E+00
    0.28162E+03        -0.32607E+02         0.00000E+00
    0.00000E+00         0.00000E+00        -0.19326E+04
 
   -0.64425E+04         0.41494E+03         0.00000E+00
    0.41494E+03        -0.65005E+02         0.00000E+00
    0.00000E+00         0.00000E+00        -0.19523E+04
 
   -0.64507E+04         0.55737E+03         0.00000E+00
    0.55737E+03        -0.10967E+03         0.00000E+00
    0.00000E+00         0.00000E+00        -0.19681E+04
 
   -0.64325E+04         0.70703E+03         0.00000E+00
    0.70703E+03        -0.16708E+03         0.00000E+00
    0.00000E+00         0.00000E+00        -0.19799E+04
 
   -0.63872E+04         0.86202E+03         0.00000E+00
    0.86202E+03        -0.23749E+03         0.00000E+00
    0.00000E+00         0.00000E+00        -0.19874E+04
 
   -0.63138E+04         0.10204E+04         0.00000E+00
    0.10204E+04        -0.32091E+03         0.00000E+00
    0.00000E+00         0.00000E+00        -0.19904E+04
 
   -0.62121E+04         0.11803E+04         0.00000E+00
    0.11803E+04        -0.41708E+03         0.00000E+00
    0.00000E+00         0.00000E+00        -0.19888E+04
 
   -0.60821E+04         0.13400E+04         0.00000E+00
    0.13400E+04        -0.52550E+03         0.00000E+00
    0.00000E+00         0.00000E+00        -0.19823E+04
 
   -0.59240E+04         0.14979E+04         0.00000E+00
    0.14979E+04        -0.64544E+03         0.00000E+00
    0.00000E+00         0.00000E+00        -0.19708E+04
 
   -0.57384E+04         0.16527E+04         0.00000E+00
    0.16527E+04        -0.77600E+03         0.00000E+00
    0.00000E+00         0.00000E+00        -0.19543E+04
 
   -0.55257E+04         0.18032E+04         0.00000E+00
    0.18032E+04        -0.91621E+03         0.00000E+00
    0.00000E+00         0.00000E+00        -0.19326E+04
 
   -0.52869E+04         0.19487E+04         0.00000E+00
    0.19487E+04        -0.10650E+04         0.00000E+00
    0.00000E+00         0.00000E+00        -0.19056E+04
 
   -0.50225E+04         0.20886E+04         0.00000E+00
    0.20886E+04        -0.12215E+04         0.00000E+00
    0.00000E+00         0.00000E+00        -0.18732E+04
 
   -0.47332E+04         0.22225E+04         0.00000E+00
    0.22225E+04        -0.13847E+04         0.00000E+00
    0.00000E+00         0.00000E+00        -0.18354E+04
 
   -0.44193E+04         0.23502E+04         0.00000E+00
    0.23502E+04        -0.15540E+04         0.00000E+00
    0.00000E+00         0.00000E+00        -0.17920E+04
 
   -0.40813E+04         0.24715E+04         0.00000E+00
    0.24715E+04        -0.17287E+04         0.00000E+00
    0.00000E+00         0.00000E+00        -0.17430E+04
 
   -0.37190E+04         0.25863E+04         0.00000E+00
    0.25863E+04        -0.19086E+04         0.00000E+00
    0.00000E+00         0.00000E+00        -0.16883E+04
 
   -0.33324E+04         0.26943E+04         0.00000E+00
    0.26943E+04        -0.20935E+04         0.00000E+00
    0.00000E+00         0.00000E+00        -0.16277E+04
 
   -0.29210E+04         0.27951E+04         0.00000E+00
    0.27951E+04        -0.22833E+04         0.00000E+00
    0.00000E+00         0.00000E+00        -0.15613E+04
 
   -0.24843E+04         0.28882E+04         0.00000E+00
    0.28882E+04        -0.24784E+04         0.00000E+00
    0.00000E+00         0.00000E+00        -0.14888E+04
 
   -0.20217E+04         0.29724E+04         0.00000E+00
    0.29724E+04        -0.26789E+04         0.00000E+00
    0.00000E+00         0.00000E+00        -0.14102E+04
 
   -0.15326E+04         0.30466E+04         0.00000E+00
    0.30466E+04        -0.28853E+04         0.00000E+00
    0.00000E+00         0.00000E+00        -0.13254E+04
 
   -0.61767E+04         0.44868E+02         0.00000E+00
    0.44868E+02        -0.16894E+01         0.00000E+00
    0.00000E+00         0.00000E+00        -0.18535E+04
 
   -0.62418E+04         0.14466E+03         0.00000E+00
    0.14466E+03        -0.10802E+02         0.00000E+00
    0.00000E+00         0.00000E+00        -0.18758E+04
 
   -0.62870E+04         0.25627E+03         0.00000E+00
    0.25627E+03        -0.29879E+02         0.00000E+00
    0.00000E+00         0.00000E+00        -0.18951E+04
 
   -0.63104E+04         0.37808E+03         0.00000E+00
    0.37808E+03        -0.59694E+02         0.00000E+00
    0.00000E+00         0.00000E+00        -0.19110E+04
 
   -0.63106E+04         0.50844E+03         0.00000E+00
    0.50844E+03        -0.10087E+03         0.00000E+00
    0.00000E+00         0.00000E+00        -0.19234E+04
 
   -0.62863E+04         0.64568E+03         0.00000E+00
    0.64568E+03        -0.15384E+03         0.00000E+00
    0.00000E+00         0.00000E+00        -0.19320E+04
 
   -0.62366E+04         0.78810E+03         0.00000E+00
    0.78810E+03        -0.21887E+03         0.00000E+00
    0.00000E+00         0.00000E+00        -0.19366E+04
 
   -0.61607E+04         0.93401E+03         0.00000E+00
    0.93401E+03        -0.29601E+03         0.00000E+00
    0.00000E+00         0.00000E+00        -0.19370E+04
 
   -0.60581E+04         0.10818E+04         0.00000E+00
    0.10818E+04        -0.38507E+03         0.00000E+00
    0.00000E+00         0.00000E+00        -0.19330E+04
 
   -0.59288E+04         0.12299E+04         0.00000E+00
    0.12299E+04        -0.48569E+03         0.00000E+00
    0.00000E+00         0.00000E+00        -0.19244E+04
 
   -0.57728E+04         0.13769E+04         0.00000E+00
    0.13769E+04        -0.59731E+03         0.00000E+00
    0.00000E+00         0.00000E+00        -0.19110E+04
 
   -0.55904E+04         0.15216E+04         0.00000E+00
    0.15216E+04        -0.71923E+03         0.00000E+00
    0.00000E+00         0.00000E+00        -0.18929E+04
 
   -0.53819E+04         0.16630E+04         0.00000E+00
    0.16630E+04        -0.85069E+03         0.00000E+00
    0.00000E+00         0.00000E+00        -0.18698E+04
 
   -0.51480E+04         0.18003E+04         0.00000E+00
    0.18003E+04        -0.99086E+03         0.00000E+00
    0.00000E+00         0.00000E+00        -0.18417E+04
 
   -0.48890E+04         0.19328E+04         0.00000E+00
    0.19328E+04        -0.11390E+04         0.00000E+00
    0.00000E+00         0.00000E+00        -0.18084E+04
 
   -0.46055E+04         0.20601E+04         0.00000E+00
    0.20601E+04        -0.12942E+04         0.00000E+00
    0.00000E+00         0.00000E+00        -0.17699E+04
 
   -0.42977E+04         0.21818E+04         0.00000E+00
    0.21818E+04        -0.14561E+04         0.00000E+00
    0.00000E+00         0.00000E+00        -0.17261E+04
 
   -0.39659E+04         0.22975E+04         0.00000E+00
    0.22975E+04        -0.16240E+04         0.00000E+00
    0.00000E+00         0.00000E+00        -0.16770E+04
 
   -0.36102E+04         0.24070E+04         0.00000E+00
    0.24070E+04        -0.17976E+04         0.00000E+00
    0.00000E+00         0.00000E+00        -0.16224E+04
 
   -0.32305E+04         0.25097E+04         0.00000E+00
    0.25097E+04        -0.19768E+04         0.00000E+00
    0.00000E+00         0.00000E+00        -0.15622E+04
 
   -0.28266E+04         0.26053E+04         0.00000E+00
    0.26053E+04        -0.21614E+04         0.00000E+00
    0.00000E+00         0.00000E+00        -0.14964E+04
 
   -0.23983E+04         0.26928E+04         0.00000E+00
    0.26928E+04        -0.23516E+04         0.00000E+00
    0.00000E+00         0.00000E+00        -0.14250E+04
 
   -0.19452E+04         0.27714E+04         0.00000E+00
    0.27714E+04        -0.25473E+04         0.00000E+00
    0.00000E+00         0.00000E+00        -0.13477E+04
 
   -0.14671E+04         0.28397E+04         0.00000E+00
    0.28397E+04        -0.27487E+04         0.00000E+00
    0.00000E+00         0.00000E+00        -0.12647E+04
 
   -0.60878E+04         0.40671E+02         0.00000E+00
    0.40671E+02        -0.15390E+01         0.00000E+00
    0.00000E+00         0.00000E+00        -0.18268E+04
 
   -0.61408E+04         0.13132E+03         0.00000E+00
    0.13132E+03        -0.98779E+01         0.00000E+00
    0.00000E+00         0.00000E+00        -0.18452E+04
 
   -0.61753E+04         0.23295E+03         0.00000E+00
    0.23295E+03        -0.27408E+02         0.00000E+00
    0.00000E+00         0.00000E+00        -0.18608E+04
 
   -0.61896E+04         0.34410E+03         0.00000E+00
    0.34410E+03        -0.54889E+02         0.00000E+00
    0.00000E+00         0.00000E+00        -0.18733E+04
 
   -0.61823E+04         0.46326E+03         0.00000E+00
    0.46326E+03        -0.92925E+02         0.00000E+00
    0.00000E+00         0.00000E+00        -0.18826E+04
 
   -0.61521E+04         0.58895E+03         0.00000E+00
    0.58895E+03        -0.14195E+03         0.00000E+00
    0.00000E+00         0.00000E+00        -0.18882E+04
 
   -0.60981E+04         0.71966E+03         0.00000E+00
    0.71966E+03        -0.20224E+03         0.00000E+00
    0.00000E+00         0.00000E+00        -0.18901E+04
 
   -0.60195E+04         0.85390E+03         0.00000E+00
    0.85390E+03        -0.27386E+03         0.00000E+00
    0.00000E+00         0.00000E+00        -0.18880E+04
 
   -0.59157E+04         0.99022E+03         0.00000E+00
    0.99022E+03        -0.35673E+03         0.00000E+00
    0.00000E+00         0.00000E+00        -0.18817E+04
 
   -0.57865E+04         0.11273E+04         0.00000E+00
    0.11273E+04        -0.45058E+03         0.00000E+00
    0.00000E+00         0.00000E+00        -0.18711E+04
 
   -0.56319E+04         0.12638E+04         0.00000E+00
    0.12638E+04        -0.55499E+03         0.00000E+00
    0.00000E+00         0.00000E+00        -0.18561E+04
 
   -0.54519E+04         0.13987E+04         0.00000E+00
    0.13987E+04        -0.66943E+03         0.00000E+00
    0.00000E+00         0.00000E+00        -0.18364E+04
 
   -0.52469E+04         0.15310E+04         0.00000E+00
    0.15310E+04        -0.79328E+03         0.00000E+00
    0.00000E+00         0.00000E+00        -0.18120E+04
 
   -0.50170E+04         0.16599E+04         0.00000E+00
    0.16599E+04        -0.92589E+03         0.00000E+00
    0.00000E+00         0.00000E+00        -0.17829E+04
 
   -0.47627E+04         0.17848E+04         0.00000E+00
    0.17848E+04        -0.10666E+04         0.00000E+00
    0.00000E+00         0.00000E+00        -0.17488E+04
 
   -0.44843E+04         0.19050E+04         0.00000E+00
    0.19050E+04        -0.12148E+04         0.00000E+00
    0.00000E+00         0.00000E+00        -0.17098E+04
 
   -0.41821E+04         0.20201E+04         0.00000E+00
    0.20201E+04        -0.13700E+04         0.00000E+00
    0.00000E+00         0.00000E+00        -0.16656E+04
 
   -0.38562E+04         0.21297E+04         0.00000E+00
    0.21297E+04        -0.15318E+04         0.00000E+00
    0.00000E+00         0.00000E+00        -0.16164E+04
 
   -0.35069E+04         0.22333E+04         0.00000E+00
    0.22333E+04        -0.16996E+04         0.00000E+00
    0.00000E+00         0.00000E+00        -0.15620E+04
 
   -0.31340E+04         0.23304E+04         0.00000E+00
    0.23304E+04        -0.18735E+04         0.00000E+00
    0.00000E+00         0.00000E+00        -0.15023E+04
 
   -0.27377E+04         0.24204E+04         0.00000E+00
    0.24204E+04        -0.20531E+04         0.00000E+00
    0.00000E+00         0.00000E+00        -0.14372E+04
 
   -0.23179E+04         0.25024E+04         0.00000E+00
    0.25024E+04        -0.22383E+04         0.00000E+00
    0.00000E+00         0.00000E+00        -0.13669E+04
 
   -0.18744E+04         0.25753E+04         0.00000E+00
    0.25753E+04        -0.24293E+04         0.00000E+00
    0.00000E+00         0.00000E+00        -0.12911E+04
 
   -0.14074E+04         0.26380E+04         0.00000E+00
    0.26380E+04        -0.26258E+04         0.00000E+00
    0.00000E+00         0.00000E+00        -0.12100E+04
 
   -0.60072E+04         0.36839E+02         0.00000E+00
    0.36839E+02        -0.14067E+01         0.00000E+00
    0.00000E+00         0.00000E+00        -0.18026E+04
 
   -0.60489E+04         0.11908E+03         0.00000E+00
    0.11908E+03        -0.90605E+01         0.00000E+00
    0.00000E+00         0.00000E+00        -0.18174E+04
 
   -0.60736E+04         0.21147E+03         0.00000E+00
    0.21147E+03        -0.25215E+02         0.00000E+00
    0.00000E+00         0.00000E+00        -0.18296E+04
 
   -0.60794E+04         0.31269E+03         0.00000E+00
    0.31269E+03        -0.50622E+02         0.00000E+00
    0.00000E+00         0.00000E+00        -0.18390E+04
 
   -0.60651E+04         0.42142E+03         0.00000E+00
    0.42142E+03        -0.85877E+02         0.00000E+00
    0.00000E+00         0.00000E+00        -0.18453E+04
 
   -0.60293E+04         0.53631E+03         0.00000E+00
    0.53631E+03        -0.13142E+03         0.00000E+00
    0.00000E+00         0.00000E+00        -0.18482E+04
 
   -0.59710E+04         0.65603E+03         0.00000E+00
    0.65603E+03        -0.18754E+03         0.00000E+00
    0.00000E+00         0.00000E+00        -0.18476E+04
 
   -0.58895E+04         0.77926E+03         0.00000E+00
    0.77926E+03        -0.25436E+03         0.00000E+00
    0.00000E+00         0.00000E+00        -0.18432E+04
 
   -0.57842E+04         0.90473E+03         0.00000E+00
    0.90473E+03        -0.33184E+03         0.00000E+00
    0.00000E+00         0.00000E+00        -0.18348E+04
 
   -0.56548E+04         0.10312E+04         0.00000E+00
    0.10312E+04        -0.41981E+03         0.00000E+00
    0.00000E+00         0.00000E+00        -0.18224E+04
 
   -0.55010E+04         0.11576E+04         0.00000E+00
    0.11576E+04        -0.51797E+03         0.00000E+00
    0.00000E+00         0.00000E+00        -0.18057E+04
 
   -0.53229E+04         0.12828E+04         0.00000E+00
    0.12828E+04        -0.62591E+03         0.00000E+00
    0.00000E+00         0.00000E+00        -0.17846E+04
 
   -0.51206E+04         0.14061E+04         0.00000E+00
    0.14061E+04        -0.74314E+03         0.00000E+00
    0.00000E+00         0.00000E+00        -0.17591E+04
 
   -0.48942E+04         0.15265E+04         0.00000E+00
    0.15265E+04        -0.86915E+03         0.00000E+00
    0.00000E+00         0.00000E+00        -0.17290E+04
 
   -0.46439E+04         0.16435E+04         0.00000E+00
    0.16435E+04        -0.10034E+04         0.00000E+00
    0.00000E+00         0.00000E+00        -0.16942E+04
 
   -0.43701E+04         0.17563E+04         0.00000E+00
    0.17563E+04        -0.11454E+04         0.00000E+00
    0.00000E+00         0.00000E+00        -0.16547E+04
 
   -0.40730E+04         0.18646E+04         0.00000E+00
    0.18646E+04        -0.12946E+04         0.00000E+00
    0.00000E+00         0.00000E+00        -0.16103E+04
 
   -0.37527E+04         0.19677E+04         0.00000E+00
    0.19677E+04        -0.14507E+04         0.00000E+00
    0.00000E+00         0.00000E+00        -0.15610E+04
 
   -0.34095E+04         0.20651E+04         0.00000E+00
    0.20651E+04        -0.16133E+04         0.00000E+00
    0.00000E+00         0.00000E+00        -0.15068E+04
 
   -0.30434E+04         0.21562E+04         0.00000E+00
    0.21562E+04        -0.17821E+04         0.00000E+00
    0.00000E+00         0.00000E+00        -0.14476E+04
 
   -0.26545E+04         0.22403E+04         0.00000E+00
    0.22403E+04        -0.19569E+04         0.00000E+00
    0.00000E+00         0.00000E+00        -0.13834E+04
 
   -0.22431E+04         0.23166E+04         0.00000E+00
    0.23166E+04        -0.21375E+04         0.00000E+00
    0.00000E+00         0.00000E+00        -0.13142E+04
 
   -0.18092E+04         0.23840E+04         0.00000E+00
    0.23840E+04        -0.23237E+04         0.00000E+00
    0.00000E+00         0.00000E+00        -0.12399E+04
 
   -0.13532E+04         0.24412E+04         0.00000E+00
    0.24412E+04        -0.25153E+04         0.00000E+00
    0.00000E+00         0.00000E+00        -0.11606E+04
 
   -0.59342E+04         0.33325E+02         0.00000E+00
    0.33325E+02        -0.12923E+01         0.00000E+00
    0.00000E+00         0.00000E+00        -0.17806E+04
 
   -0.59656E+04         0.10781E+03         0.00000E+00
    0.10781E+03        -0.83502E+01         0.00000E+00
    0.00000E+00         0.00000E+00        -0.17922E+04
 
   -0.59811E+04         0.19160E+03         0.00000E+00
    0.19160E+03        -0.23301E+02         0.00000E+00
    0.00000E+00         0.00000E+00        -0.18013E+04
 
   -0.59791E+04         0.28356E+03         0.00000E+00
    0.28356E+03        -0.46889E+02         0.00000E+00
    0.00000E+00         0.00000E+00        -0.18078E+04
 
   -0.59581E+04         0.38251E+03         0.00000E+00
    0.38251E+03        -0.79708E+02         0.00000E+00
    0.00000E+00         0.00000E+00        -0.18113E+04
 
   -0.59170E+04         0.48725E+03         0.00000E+00
    0.48725E+03        -0.12221E+03         0.00000E+00
    0.00000E+00         0.00000E+00        -0.18118E+04
 
   -0.58546E+04         0.59661E+03         0.00000E+00
    0.59661E+03        -0.17469E+03         0.00000E+00
    0.00000E+00         0.00000E+00        -0.18088E+04
 
   -0.57703E+04         0.70940E+03         0.00000E+00
    0.70940E+03        -0.23733E+03         0.00000E+00
    0.00000E+00         0.00000E+00        -0.18023E+04
 
   -0.56633E+04         0.82449E+03         0.00000E+00
    0.82449E+03        -0.31014E+03         0.00000E+00
    0.00000E+00         0.00000E+00        -0.17920E+04
 
   -0.55333E+04         0.94081E+03         0.00000E+00
    0.94081E+03        -0.39302E+03         0.00000E+00
    0.00000E+00         0.00000E+00        -0.17779E+04
 
   -0.53799E+04         0.10573E+04         0.00000E+00
    0.10573E+04        -0.48576E+03         0.00000E+00
    0.00000E+00         0.00000E+00        -0.17597E+04
 
   -0.52032E+04         0.11731E+04         0.00000E+00
    0.11731E+04        -0.58805E+03         0.00000E+00
    0.00000E+00         0.00000E+00        -0.17374E+04
 
   -0.50030E+04         0.12874E+04         0.00000E+00
    0.12874E+04        -0.69952E+03         0.00000E+00
    0.00000E+00         0.00000E+00        -0.17108E+04
 
   -0.47795E+04         0.13993E+04         0.00000E+00
    0.13993E+04        -0.81976E+03         0.00000E+00
    0.00000E+00         0.00000E+00        -0.16798E+04
 
   -0.45329E+04         0.15082E+04         0.00000E+00
    0.15082E+04        -0.94831E+03         0.00000E+00
    0.00000E+00         0.00000E+00        -0.16444E+04
 
   -0.42632E+04         0.16134E+04         0.00000E+00
    0.16134E+04        -0.10847E+04         0.00000E+00
    0.00000E+00         0.00000E+00        -0.16044E+04
 
   -0.39707E+04         0.17145E+04         0.00000E+00
    0.17145E+04        -0.12286E+04         0.00000E+00
    0.00000E+00         0.00000E+00        -0.15598E+04
 
   -0.36557E+04         0.18108E+04         0.00000E+00
    0.18108E+04        -0.13796E+04         0.00000E+00
    0.00000E+00         0.00000E+00        -0.15106E+04
 
   -0.33183E+04         0.19018E+04         0.00000E+00
    0.19018E+04        -0.15373E+04         0.00000E+00
    0.00000E+00         0.00000E+00        -0.14567E+04
 
   -0.29587E+04         0.19867E+04         0.00000E+00
    0.19867E+04        -0.17015E+04         0.00000E+00
    0.00000E+00         0.00000E+00        -0.13980E+04
 
   -0.25772E+04         0.20649E+04         0.00000E+00
    0.20649E+04        -0.18717E+04         0.00000E+00
    0.00000E+00         0.00000E+00        -0.13347E+04
 
   -0.21739E+04         0.21354E+04         0.00000E+00
    0.21354E+04        -0.20478E+04         0.00000E+00
    0.00000E+00         0.00000E+00        -0.12665E+04
 
   -0.17494E+04         0.21973E+04         0.00000E+00
    0.21973E+04        -0.22295E+04         0.00000E+00
    0.00000E+00         0.00000E+00        -0.11937E+04
 
   -0.13041E+04         0.22494E+04         0.00000E+00
    0.22494E+04        -0.24165E+04         0.00000E+00
    0.00000E+00         0.00000E+00        -0.11162E+04
 
   -0.58682E+04         0.30084E+02         0.00000E+00
    0.30084E+02        -0.11952E+01         0.00000E+00
    0.00000E+00         0.00000E+00        -0.17608E+04
 
   -0.58901E+04         0.97362E+02         0.00000E+00
    0.97362E+02        -0.77424E+01         0.00000E+00
    0.00000E+00         0.00000E+00        -0.17694E+04
 
   -0.58973E+04         0.17314E+03         0.00000E+00
    0.17314E+03        -0.21655E+02         0.00000E+00
    0.00000E+00         0.00000E+00        -0.17757E+04
 
   -0.58880E+04         0.25642E+03         0.00000E+00
    0.25642E+03        -0.43667E+02         0.00000E+00
    0.00000E+00         0.00000E+00        -0.17795E+04
 
   -0.58609E+04         0.34616E+03         0.00000E+00
    0.34616E+03        -0.74372E+02         0.00000E+00
    0.00000E+00         0.00000E+00        -0.17806E+04
 
   -0.58147E+04         0.44131E+03         0.00000E+00
    0.44131E+03        -0.11423E+03         0.00000E+00
    0.00000E+00         0.00000E+00        -0.17787E+04
 
   -0.57484E+04         0.54083E+03         0.00000E+00
    0.54083E+03        -0.16357E+03         0.00000E+00
    0.00000E+00         0.00000E+00        -0.17736E+04
 
   -0.56612E+04         0.64366E+03         0.00000E+00
    0.64366E+03        -0.22258E+03         0.00000E+00
    0.00000E+00         0.00000E+00        -0.17651E+04
 
   -0.55524E+04         0.74882E+03         0.00000E+00
    0.74882E+03        -0.29134E+03         0.00000E+00
    0.00000E+00         0.00000E+00        -0.17531E+04
 
   -0.54216E+04         0.85531E+03         0.00000E+00
    0.85531E+03        -0.36982E+03         0.00000E+00
    0.00000E+00         0.00000E+00        -0.17374E+04
 
   -0.52684E+04         0.96224E+03         0.00000E+00
    0.96224E+03        -0.45787E+03         0.00000E+00
    0.00000E+00         0.00000E+00        -0.17179E+04
 
   -0.50927E+04         0.10687E+04         0.00000E+00
    0.10687E+04        -0.55527E+03         0.00000E+00
    0.00000E+00         0.00000E+00        -0.16944E+04
 
   -0.48943E+04         0.11740E+04         0.00000E+00
    0.11740E+04        -0.66174E+03         0.00000E+00
    0.00000E+00         0.00000E+00        -0.16668E+04
 
   -0.46732E+04         0.12774E+04         0.00000E+00
    0.12774E+04        -0.77693E+03         0.00000E+00
    0.00000E+00         0.00000E+00        -0.16350E+04
 
   -0.44297E+04         0.13781E+04         0.00000E+00
    0.13781E+04        -0.90047E+03         0.00000E+00
    0.00000E+00         0.00000E+00        -0.15990E+04
 
   -0.41637E+04         0.14757E+04         0.00000E+00
    0.14757E+04        -0.10320E+04         0.00000E+00
    0.00000E+00         0.00000E+00        -0.15587E+04
 
   -0.38755E+04         0.15694E+04         0.00000E+00
    0.15694E+04        -0.11711E+04         0.00000E+00
    0.00000E+00         0.00000E+00        -0.15140E+04
 
   -0.35654E+04         0.16587E+04         0.00000E+00
    0.16587E+04        -0.13175E+04         0.00000E+00
    0.00000E+00         0.00000E+00        -0.14649E+04
 
   -0.32335E+04         0.17430E+04         0.00000E+00
    0.17430E+04        -0.14707E+04         0.00000E+00
    0.00000E+00         0.00000E+00        -0.14113E+04
 
   -0.28801E+04         0.18216E+04         0.00000E+00
    0.18216E+04        -0.16305E+04         0.00000E+00
    0.00000E+00         0.00000E+00        -0.13532E+04
 
   -0.25056E+04         0.18938E+04         0.00000E+00
    0.18938E+04        -0.17965E+04         0.00000E+00
    0.00000E+00         0.00000E+00        -0.12906E+04
 
   -0.21104E+04         0.19586E+04         0.00000E+00
    0.19586E+04        -0.19684E+04         0.00000E+00
    0.00000E+00         0.00000E+00        -0.12236E+04
 
   -0.16949E+04         0.20152E+04         0.00000E+00
    0.20152E+04        -0.21458E+04         0.00000E+00
    0.00000E+00         0.00000E+00        -0.11522E+04
 
   -0.12598E+04         0.20623E+04         0.00000E+00
    0.20623E+04        -0.23282E+04         0.00000E+00
    0.00000E+00         0.00000E+00        -0.10764E+04
 
   -0.58087E+04         0.27075E+02         0.00000E+00
    0.27075E+02        -0.11139E+01         0.00000E+00
    0.00000E+00         0.00000E+00        -0.17429E+04
 
   -0.58221E+04         0.87631E+02         0.00000E+00
    0.87631E+02        -0.72296E+01         0.00000E+00
    0.00000E+00         0.00000E+00        -0.17488E+04
 
   -0.58216E+04         0.15589E+03         0.00000E+00
    0.15589E+03        -0.20257E+02         0.00000E+00
    0.00000E+00         0.00000E+00        -0.17526E+04
 
   -0.58056E+04         0.23099E+03         0.00000E+00
    0.23099E+03        -0.40919E+02         0.00000E+00
    0.00000E+00         0.00000E+00        -0.17540E+04
 
   -0.57728E+04         0.31202E+03         0.00000E+00
    0.31202E+03        -0.69808E+02         0.00000E+00
    0.00000E+00         0.00000E+00        -0.17528E+04
 
   -0.57219E+04         0.39806E+03         0.00000E+00
    0.39806E+03        -0.10739E+03         0.00000E+00
    0.00000E+00         0.00000E+00        -0.17488E+04
 
   -0.56518E+04         0.48820E+03         0.00000E+00
    0.48820E+03        -0.15401E+03         0.00000E+00
    0.00000E+00         0.00000E+00        -0.17418E+04
 
   -0.55619E+04         0.58150E+03         0.00000E+00
    0.58150E+03        -0.20990E+03         0.00000E+00
    0.00000E+00         0.00000E+00        -0.17315E+04
 
   -0.54513E+04         0.67708E+03         0.00000E+00
    0.67708E+03        -0.27518E+03         0.00000E+00
    0.00000E+00         0.00000E+00        -0.17179E+04
 
   -0.53195E+04         0.77406E+03         0.00000E+00
    0.77406E+03        -0.34986E+03         0.00000E+00
    0.00000E+00         0.00000E+00        -0.17008E+04
 
   -0.51663E+04         0.87162E+03         0.00000E+00
    0.87162E+03        -0.43386E+03         0.00000E+00
    0.00000E+00         0.00000E+00        -0.16800E+04
 
   -0.49912E+04         0.96898E+03         0.00000E+00
    0.96898E+03        -0.52703E+03         0.00000E+00
    0.00000E+00         0.00000E+00        -0.16555E+04
 
   -0.47942E+04         0.10654E+04         0.00000E+00
    0.10654E+04        -0.62915E+03         0.00000E+00
    0.00000E+00         0.00000E+00        -0.16270E+04
 
   -0.45753E+04         0.11602E+04         0.00000E+00
    0.11602E+04        -0.73993E+03         0.00000E+00
    0.00000E+00         0.00000E+00        -0.15946E+04
 
   -0.43344E+04         0.12528E+04         0.00000E+00
    0.12528E+04        -0.85908E+03         0.00000E+00
    0.00000E+00         0.00000E+00        -0.15581E+04
 
   -0.40718E+04         0.13425E+04         0.00000E+00
    0.13425E+04        -0.98627E+03         0.00000E+00
    0.00000E+00         0.00000E+00        -0.15174E+04
 
   -0.37876E+04         0.14288E+04         0.00000E+00
    0.14288E+04        -0.11211E+04         0.00000E+00
    0.00000E+00         0.00000E+00        -0.14726E+04
 
   -0.34820E+04         0.15110E+04         0.00000E+00
    0.15110E+04        -0.12634E+04         0.00000E+00
    0.00000E+00         0.00000E+00        -0.14236E+04
 
   -0.31553E+04         0.15885E+04         0.00000E+00
    0.15885E+04        -0.14125E+04         0.00000E+00
    0.00000E+00         0.00000E+00        -0.13703E+04
 
   -0.28078E+04         0.16607E+04         0.00000E+00
    0.16607E+04        -0.15684E+04         0.00000E+00
    0.00000E+00         0.00000E+00        -0.13128E+04
 
   -0.24399E+04         0.17268E+04         0.00000E+00
    0.17268E+04        -0.17304E+04         0.00000E+00
    0.00000E+00         0.00000E+00        -0.12511E+04
 
   -0.20523E+04         0.17860E+04         0.00000E+00
    0.17860E+04        -0.18983E+04         0.00000E+00
    0.00000E+00         0.00000E+00        -0.11852E+04
 
   -0.16454E+04         0.18373E+04         0.00000E+00
    0.18373E+04        -0.20716E+04         0.00000E+00
    0.00000E+00         0.00000E+00        -0.11151E+04
 
   -0.12200E+04         0.18798E+04         0.00000E+00
    0.18798E+04        -0.22497E+04         0.00000E+00
    0.00000E+00         0.00000E+00        -0.10409E+04
 
   -0.57553E+04         0.24257E+02         0.00000E+00
    0.24257E+02        -0.10467E+01         0.00000E+00
    0.00000E+00         0.00000E+00        -0.17269E+04
 
   -0.57610E+04         0.78499E+02         0.00000E+00
    0.78499E+02        -0.68025E+01         0.00000E+00
    0.00000E+00         0.00000E+00        -0.17303E+04
 
   -0.57536E+04         0.13967E+03         0.00000E+00
    0.13967E+03        -0.19085E+02         0.00000E+00
    0.00000E+00         0.00000E+00        -0.17318E+04
 
   -0.57315E+04         0.20702E+03         0.00000E+00
    0.20702E+03        -0.38602E+02         0.00000E+00
    0.00000E+00         0.00000E+00        -0.17310E+04
 
   -0.56934E+04         0.27977E+03         0.00000E+00
    0.27977E+03        -0.65943E+02         0.00000E+00
    0.00000E+00         0.00000E+00        -0.17278E+04
 
   -0.56381E+04         0.35713E+03         0.00000E+00
    0.35713E+03        -0.10158E+03         0.00000E+00
    0.00000E+00         0.00000E+00        -0.17219E+04
 
   -0.55646E+04         0.43828E+03         0.00000E+00
    0.43828E+03        -0.14588E+03         0.00000E+00
    0.00000E+00         0.00000E+00        -0.17131E+04
 
   -0.54720E+04         0.52241E+03         0.00000E+00
    0.52241E+03        -0.19910E+03         0.00000E+00
    0.00000E+00         0.00000E+00        -0.17013E+04
 
   -0.53596E+04         0.60873E+03         0.00000E+00
    0.60873E+03        -0.26138E+03         0.00000E+00
    0.00000E+00         0.00000E+00        -0.16863E+04
 
   -0.52268E+04         0.69646E+03         0.00000E+00
    0.69646E+03        -0.33280E+03         0.00000E+00
    0.00000E+00         0.00000E+00        -0.16679E+04
 
   -0.50733E+04         0.78486E+03         0.00000E+00
    0.78486E+03        -0.41331E+03         0.00000E+00
    0.00000E+00         0.00000E+00        -0.16460E+04
 
   -0.48987E+04         0.87322E+03         0.00000E+00
    0.87322E+03        -0.50283E+03         0.00000E+00
    0.00000E+00         0.00000E+00        -0.16204E+04
 
   -0.47028E+04         0.96088E+03         0.00000E+00
    0.96088E+03        -0.60118E+03         0.00000E+00
    0.00000E+00         0.00000E+00        -0.15912E+04
 
   -0.44857E+04         0.10472E+04         0.00000E+00
    0.10472E+04        -0.70813E+03         0.00000E+00
    0.00000E+00         0.00000E+00        -0.15581E+04
 
   -0.42473E+04         0.11316E+04         0.00000E+00
    0.11316E+04        -0.82344E+03         0.00000E+00
    0.00000E+00         0.00000E+00        -0.15212E+04
 
   -0.39876E+04         0.12134E+04         0.00000E+00
    0.12134E+04        -0.94680E+03         0.00000E+00
    0.00000E+00         0.00000E+00        -0.14803E+04
 
   -0.37070E+04         0.12921E+04         0.00000E+00
    0.12921E+04        -0.10779E+04         0.00000E+00
    0.00000E+00         0.00000E+00        -0.14355E+04
 
   -0.34055E+04         0.13671E+04         0.00000E+00
    0.13671E+04        -0.12164E+04         0.00000E+00
    0.00000E+00         0.00000E+00        -0.13866E+04
 
   -0.30836E+04         0.14378E+04         0.00000E+00
    0.14378E+04        -0.13619E+04         0.00000E+00
    0.00000E+00         0.00000E+00        -0.13337E+04
 
   -0.27417E+04         0.15035E+04         0.00000E+00
    0.15035E+04        -0.15141E+04         0.00000E+00
    0.00000E+00         0.00000E+00        -0.12767E+04
 
   -0.23801E+04         0.15636E+04         0.00000E+00
    0.15636E+04        -0.16725E+04         0.00000E+00
    0.00000E+00         0.00000E+00        -0.12158E+04
 
   -0.19996E+04         0.16172E+04         0.00000E+00
    0.16172E+04        -0.18366E+04         0.00000E+00
    0.00000E+00         0.00000E+00        -0.11509E+04
 
   -0.16007E+04         0.16635E+04         0.00000E+00
    0.16635E+04        -0.20061E+04         0.00000E+00
    0.00000E+00         0.00000E+00        -0.10820E+04
 
   -0.11845E+04         0.17015E+04         0.00000E+00
    0.17015E+04        -0.21802E+04         0.00000E+00
    0.00000E+00         0.00000E+00        -0.10094E+04
 
   -0.57075E+04         0.21598E+02         0.00000E+00
    0.21598E+02        -0.99205E+00         0.00000E+00
    0.00000E+00         0.00000E+00        -0.17126E+04
 
   -0.57064E+04         0.69868E+02         0.00000E+00
    0.69868E+02        -0.64512E+01         0.00000E+00
    0.00000E+00         0.00000E+00        -0.17138E+04
 
   -0.56928E+04         0.12431E+03         0.00000E+00
    0.12431E+03        -0.18113E+02         0.00000E+00
    0.00000E+00         0.00000E+00        -0.17133E+04
 
   -0.56652E+04         0.18428E+03         0.00000E+00
    0.18428E+03        -0.36670E+02         0.00000E+00
    0.00000E+00         0.00000E+00        -0.17106E+04
 
   -0.56223E+04         0.24914E+03         0.00000E+00
    0.24914E+03        -0.62704E+02         0.00000E+00
    0.00000E+00         0.00000E+00        -0.17055E+04
 
   -0.55630E+04         0.31817E+03         0.00000E+00
    0.31817E+03        -0.96696E+02         0.00000E+00
    0.00000E+00         0.00000E+00        -0.16979E+04
 
   -0.54863E+04         0.39067E+03         0.00000E+00
    0.39067E+03        -0.13902E+03         0.00000E+00
    0.00000E+00         0.00000E+00        -0.16876E+04
 
   -0.53911E+04         0.46594E+03         0.00000E+00
    0.46594E+03        -0.18996E+03         0.00000E+00
    0.00000E+00         0.00000E+00        -0.16743E+04
 
   -0.52770E+04         0.54328E+03         0.00000E+00
    0.54328E+03        -0.24969E+03         0.00000E+00
    0.00000E+00         0.00000E+00        -0.16580E+04
 
   -0.51432E+04         0.62199E+03         0.00000E+00
    0.62199E+03        -0.31831E+03         0.00000E+00
    0.00000E+00         0.00000E+00        -0.16384E+04
 
   -0.49893E+04         0.70141E+03         0.00000E+00
    0.70141E+03        -0.39584E+03         0.00000E+00
    0.00000E+00         0.00000E+00        -0.16155E+04
 
   -0.48150E+04         0.78092E+03         0.00000E+00
    0.78092E+03        -0.48222E+03         0.00000E+00
    0.00000E+00         0.00000E+00        -0.15892E+04
 
   -0.46201E+04         0.85989E+03         0.00000E+00
    0.85989E+03        -0.57731E+03         0.00000E+00
    0.00000E+00         0.00000E+00        -0.15592E+04
 
   -0.44045E+04         0.93774E+03         0.00000E+00
    0.93774E+03        -0.68095E+03         0.00000E+00
    0.00000E+00         0.00000E+00        -0.15256E+04
 
   -0.41681E+04         0.10139E+04         0.00000E+00
    0.10139E+04        -0.79290E+03         0.00000E+00
    0.00000E+00         0.00000E+00        -0.14883E+04
 
   -0.39112E+04         0.10878E+04         0.00000E+00
    0.10878E+04        -0.91291E+03         0.00000E+00
    0.00000E+00         0.00000E+00        -0.14472E+04
 
   -0.36337E+04         0.11590E+04         0.00000E+00
    0.11590E+04        -0.10407E+04         0.00000E+00
    0.00000E+00         0.00000E+00        -0.14023E+04
 
   -0.33361E+04         0.12267E+04         0.00000E+00
    0.12267E+04        -0.11758E+04         0.00000E+00
    0.00000E+00         0.00000E+00        -0.13536E+04
 
   -0.30187E+04         0.12906E+04         0.00000E+00
    0.12906E+04        -0.13180E+04         0.00000E+00
    0.00000E+00         0.00000E+00        -0.13010E+04
 
   -0.26818E+04         0.13499E+04         0.00000E+00
    0.13499E+04        -0.14669E+04         0.00000E+00
    0.00000E+00         0.00000E+00        -0.12446E+04
 
   -0.23261E+04         0.14039E+04         0.00000E+00
    0.14039E+04        -0.16220E+04         0.00000E+00
    0.00000E+00         0.00000E+00        -0.11844E+04
 
   -0.19521E+04         0.14520E+04         0.00000E+00
    0.14520E+04        -0.17828E+04         0.00000E+00
    0.00000E+00         0.00000E+00        -0.11205E+04
 
   -0.15608E+04         0.14934E+04         0.00000E+00
    0.14934E+04        -0.19487E+04         0.00000E+00
    0.00000E+00         0.00000E+00        -0.10528E+04
 
   -0.11530E+04         0.15271E+04         0.00000E+00
    0.15271E+04        -0.21191E+04         0.00000E+00
    0.00000E+00         0.00000E+00        -0.98165E+03
 
   -0.56652E+04         0.19066E+02         0.00000E+00
    0.19066E+02        -0.94813E+00         0.00000E+00
    0.00000E+00         0.00000E+00        -0.16999E+04
 
   -0.56580E+04         0.61647E+02         0.00000E+00
    0.61647E+02        -0.61660E+01         0.00000E+00
    0.00000E+00         0.00000E+00        -0.16993E+04
 
   -0.56389E+04         0.10966E+03         0.00000E+00
    0.10966E+03        -0.17317E+02         0.00000E+00
    0.00000E+00         0.00000E+00        -0.16969E+04
 
   -0.56064E+04         0.16259E+03         0.00000E+00
    0.16259E+03        -0.35076E+02         0.00000E+00
    0.00000E+00         0.00000E+00        -0.16924E+04
 
   -0.55592E+04         0.21985E+03         0.00000E+00
    0.21985E+03        -0.60018E+02         0.00000E+00
    0.00000E+00         0.00000E+00        -0.16858E+04
 
   -0.54963E+04         0.28087E+03         0.00000E+00
    0.28087E+03        -0.92626E+02         0.00000E+00
    0.00000E+00         0.00000E+00        -0.16767E+04
 
   -0.54165E+04         0.34503E+03         0.00000E+00
    0.34503E+03        -0.13329E+03         0.00000E+00
    0.00000E+00         0.00000E+00        -0.16649E+04
 
   -0.53191E+04         0.41171E+03         0.00000E+00
    0.41171E+03        -0.18230E+03         0.00000E+00
    0.00000E+00         0.00000E+00        -0.16504E+04
 
   -0.52033E+04         0.48030E+03         0.00000E+00
    0.48030E+03        -0.23987E+03         0.00000E+00
    0.00000E+00         0.00000E+00        -0.16329E+04
 
   -0.50684E+04         0.55019E+03         0.00000E+00
    0.55019E+03        -0.30612E+03         0.00000E+00
    0.00000E+00         0.00000E+00        -0.16124E+04
 
   -0.49141E+04         0.62081E+03         0.00000E+00
    0.62081E+03        -0.38110E+03         0.00000E+00
    0.00000E+00         0.00000E+00        -0.15886E+04
 
   -0.47400E+04         0.69158E+03         0.00000E+00
    0.69158E+03        -0.46479E+03         0.00000E+00
    0.00000E+00         0.00000E+00        -0.15614E+04
 
   -0.45458E+04         0.76195E+03         0.00000E+00
    0.76195E+03        -0.55709E+03         0.00000E+00
    0.00000E+00         0.00000E+00        -0.15309E+04
 
   -0.43315E+04         0.83139E+03         0.00000E+00
    0.83139E+03        -0.65787E+03         0.00000E+00
    0.00000E+00         0.00000E+00        -0.14968E+04
 
   -0.40970E+04         0.89938E+03         0.00000E+00
    0.89938E+03        -0.76692E+03         0.00000E+00
    0.00000E+00         0.00000E+00        -0.14592E+04
 
   -0.38424E+04         0.96540E+03         0.00000E+00
    0.96540E+03        -0.88400E+03         0.00000E+00
    0.00000E+00         0.00000E+00        -0.14179E+04
 
   -0.35679E+04         0.10289E+04         0.00000E+00
    0.10289E+04        -0.10088E+04         0.00000E+00
    0.00000E+00         0.00000E+00        -0.13730E+04
 
   -0.32738E+04         0.10895E+04         0.00000E+00
    0.10895E+04        -0.11410E+04         0.00000E+00
    0.00000E+00         0.00000E+00        -0.13244E+04
 
   -0.29603E+04         0.11465E+04         0.00000E+00
    0.11465E+04        -0.12803E+04         0.00000E+00
    0.00000E+00         0.00000E+00        -0.12722E+04
 
   -0.26281E+04         0.11993E+04         0.00000E+00
    0.11993E+04        -0.14262E+04         0.00000E+00
    0.00000E+00         0.00000E+00        -0.12163E+04
 
   -0.22777E+04         0.12475E+04         0.00000E+00
    0.12475E+04        -0.15783E+04         0.00000E+00
    0.00000E+00         0.00000E+00        -0.11568E+04
 
   -0.19098E+04         0.12902E+04         0.00000E+00
    0.12902E+04        -0.17360E+04         0.00000E+00
    0.00000E+00         0.00000E+00        -0.10937E+04
 
   -0.15254E+04         0.13268E+04         0.00000E+00
    0.13268E+04        -0.18987E+04         0.00000E+00
    0.00000E+00         0.00000E+00        -0.10272E+04
 
   -0.11253E+04         0.13564E+04         0.00000E+00
    0.13564E+04        -0.20658E+04         0.00000E+00
    0.00000E+00         0.00000E+00        -0.95734E+03
 
   -0.56281E+04         0.16637E+02         0.00000E+00
    0.16637E+02        -0.91333E+00         0.00000E+00
    0.00000E+00         0.00000E+00        -0.16887E+04
 
   -0.56156E+04         0.53761E+02         0.00000E+00
    0.53761E+02        -0.59373E+01         0.00000E+00
    0.00000E+00         0.00000E+00        -0.16865E+04
 
   -0.55916E+04         0.95609E+02         0.00000E+00
    0.95609E+02        -0.16673E+02         0.00000E+00
    0.00000E+00         0.00000E+00        -0.16825E+04
 
   -0.55548E+04         0.14175E+03         0.00000E+00
    0.14175E+03        -0.33776E+02         0.00000E+00
    0.00000E+00         0.00000E+00        -0.16766E+04
 
   -0.55038E+04         0.19170E+03         0.00000E+00
    0.19170E+03        -0.57815E+02         0.00000E+00
    0.00000E+00         0.00000E+00        -0.16685E+04
 
   -0.54376E+04         0.24497E+03         0.00000E+00
    0.24497E+03        -0.89273E+02         0.00000E+00
    0.00000E+00         0.00000E+00        -0.16581E+04
 
   -0.53552E+04         0.30103E+03         0.00000E+00
    0.30103E+03        -0.12854E+03         0.00000E+00
    0.00000E+00         0.00000E+00        -0.16451E+04
 
   -0.52556E+04         0.35935E+03         0.00000E+00
    0.35935E+03        -0.17594E+03         0.00000E+00
    0.00000E+00         0.00000E+00        -0.16295E+04
 
   -0.51383E+04         0.41940E+03         0.00000E+00
    0.41940E+03        -0.23169E+03         0.00000E+00
    0.00000E+00         0.00000E+00        -0.16110E+04
 
   -0.50024E+04         0.48067E+03         0.00000E+00
    0.48067E+03        -0.29594E+03         0.00000E+00
    0.00000E+00         0.00000E+00        -0.15895E+04
 
   -0.48477E+04         0.54263E+03         0.00000E+00
    0.54263E+03        -0.36877E+03         0.00000E+00
    0.00000E+00         0.00000E+00        -0.15649E+04
 
   -0.46737E+04         0.60478E+03         0.00000E+00
    0.60478E+03        -0.45018E+03         0.00000E+00
    0.00000E+00         0.00000E+00        -0.15372E+04
 
   -0.44801E+04         0.66664E+03         0.00000E+00
    0.66664E+03        -0.54011E+03         0.00000E+00
    0.00000E+00         0.00000E+00        -0.15061E+04
 
   -0.42669E+04         0.72773E+03         0.00000E+00
    0.72773E+03        -0.63844E+03         0.00000E+00
    0.00000E+00         0.00000E+00        -0.14716E+04
 
   -0.40340E+04         0.78757E+03         0.00000E+00
    0.78757E+03        -0.74499E+03         0.00000E+00
    0.00000E+00         0.00000E+00        -0.14337E+04
 
   -0.37815E+04         0.84571E+03         0.00000E+00
    0.84571E+03        -0.85954E+03         0.00000E+00
    0.00000E+00         0.00000E+00        -0.13923E+04
 
   -0.35095E+04         0.90168E+03         0.00000E+00
    0.90168E+03        -0.98181E+03         0.00000E+00
    0.00000E+00         0.00000E+00        -0.13474E+04
 
   -0.32185E+04         0.95499E+03         0.00000E+00
    0.95499E+03        -0.11115E+04         0.00000E+00
    0.00000E+00         0.00000E+00        -0.12990E+04
 
   -0.29086E+04         0.10051E+04         0.00000E+00
    0.10051E+04        -0.12482E+04         0.00000E+00
    0.00000E+00         0.00000E+00        -0.12470E+04
 
   -0.25806E+04         0.10516E+04         0.00000E+00
    0.10516E+04        -0.13914E+04         0.00000E+00
    0.00000E+00         0.00000E+00        -0.11916E+04
 
   -0.22350E+04         0.10939E+04         0.00000E+00
    0.10939E+04        -0.15408E+04         0.00000E+00
    0.00000E+00         0.00000E+00        -0.11328E+04
 
   -0.18726E+04         0.11313E+04         0.00000E+00
    0.11313E+04        -0.16958E+04         0.00000E+00
    0.00000E+00         0.00000E+00        -0.10705E+04
 
   -0.14943E+04         0.11632E+04         0.00000E+00
    0.11632E+04        -0.18556E+04         0.00000E+00
    0.00000E+00         0.00000E+00        -0.10050E+04
 
   -0.11012E+04         0.11890E+04         0.00000E+00
    0.11890E+04        -0.20197E+04         0.00000E+00
    0.00000E+00         0.00000E+00        -0.93628E+03
 
   -0.55959E+04         0.14289E+02         0.00000E+00
    0.14289E+02        -0.88619E+00         0.00000E+00
    0.00000E+00         0.00000E+00        -0.16790E+04
 
   -0.55789E+04         0.46143E+02         0.00000E+00
    0.46143E+02        -0.57566E+01         0.00000E+00
    0.00000E+00         0.00000E+00        -0.16754E+04
 
   -0.55507E+04         0.82036E+02         0.00000E+00
    0.82036E+02        -0.16159E+02         0.00000E+00
    0.00000E+00         0.00000E+00        -0.16701E+04
 
   -0.55101E+04         0.12161E+03         0.00000E+00
    0.12161E+03        -0.32731E+02         0.00000E+00
    0.00000E+00         0.00000E+00        -0.16628E+04
 
   -0.54558E+04         0.16448E+03         0.00000E+00
    0.16448E+03        -0.56032E+02         0.00000E+00
    0.00000E+00         0.00000E+00        -0.16536E+04
 
   -0.53868E+04         0.21023E+03         0.00000E+00
    0.21023E+03        -0.86544E+02         0.00000E+00
    0.00000E+00         0.00000E+00        -0.16420E+04
 
   -0.53020E+04         0.25840E+03         0.00000E+00
    0.25840E+03        -0.12467E+03         0.00000E+00
    0.00000E+00         0.00000E+00        -0.16280E+04
 
   -0.52005E+04         0.30856E+03         0.00000E+00
    0.30856E+03        -0.17073E+03         0.00000E+00
    0.00000E+00         0.00000E+00        -0.16114E+04
 
   -0.50818E+04         0.36026E+03         0.00000E+00
    0.36026E+03        -0.22496E+03         0.00000E+00
    0.00000E+00         0.00000E+00        -0.15920E+04
 
   -0.49450E+04         0.41305E+03         0.00000E+00
    0.41305E+03        -0.28755E+03         0.00000E+00
    0.00000E+00         0.00000E+00        -0.15698E+04
 
   -0.47898E+04         0.46648E+03         0.00000E+00
    0.46648E+03        -0.35858E+03         0.00000E+00
    0.00000E+00         0.00000E+00        -0.15445E+04
 
   -0.46158E+04         0.52012E+03         0.00000E+00
    0.52012E+03        -0.43807E+03         0.00000E+00
    0.00000E+00         0.00000E+00        -0.15162E+04
 
   -0.44228E+04         0.57355E+03         0.00000E+00
    0.57355E+03        -0.52600E+03         0.00000E+00
    0.00000E+00         0.00000E+00        -0.14846E+04
 
   -0.42105E+04         0.62634E+03         0.00000E+00
    0.62634E+03        -0.62226E+03         0.00000E+00
    0.00000E+00         0.00000E+00        -0.14498E+04
 
   -0.39789E+04         0.67809E+03         0.00000E+00
    0.67809E+03        -0.72670E+03         0.00000E+00
    0.00000E+00         0.00000E+00        -0.14117E+04
 
   -0.37282E+04         0.72838E+03         0.00000E+00
    0.72838E+03        -0.83909E+03         0.00000E+00
    0.00000E+00         0.00000E+00        -0.13702E+04
 
   -0.34585E+04         0.77679E+03         0.00000E+00
    0.77679E+03        -0.95917E+03         0.00000E+00
    0.00000E+00         0.00000E+00        -0.13253E+04
 
   -0.31702E+04         0.82290E+03         0.00000E+00
    0.82290E+03        -0.10866E+04         0.00000E+00
    0.00000E+00         0.00000E+00        -0.12770E+04
 
   -0.28635E+04         0.86626E+03         0.00000E+00
    0.86626E+03        -0.12211E+04         0.00000E+00
    0.00000E+00         0.00000E+00        -0.12254E+04
 
   -0.25392E+04         0.90641E+03         0.00000E+00
    0.90641E+03        -0.13621E+04         0.00000E+00
    0.00000E+00         0.00000E+00        -0.11704E+04
 
   -0.21979E+04         0.94285E+03         0.00000E+00
    0.94285E+03        -0.15091E+04         0.00000E+00
    0.00000E+00         0.00000E+00        -0.11121E+04
 
   -0.18403E+04         0.97505E+03         0.00000E+00
    0.97505E+03        -0.16616E+04         0.00000E+00
    0.00000E+00         0.00000E+00        -0.10506E+04
 
   -0.14675E+04         0.10025E+04         0.00000E+00
    0.10025E+04        -0.18189E+04         0.00000E+00
    0.00000E+00         0.00000E+00        -0.98592E+03
 
   -0.10805E+04         0.10245E+04         0.00000E+00
    0.10245E+04        -0.19803E+04         0.00000E+00
    0.00000E+00         0.00000E+00        -0.91826E+03
 
   -0.55686E+04         0.12003E+02         0.00000E+00
    0.12003E+02        -0.86538E+00         0.00000E+00
    0.00000E+00         0.00000E+00        -0.16708E+04
 
   -0.55477E+04         0.38738E+02         0.00000E+00
    0.38738E+02        -0.56162E+01         0.00000E+00
    0.00000E+00         0.00000E+00        -0.16660E+04
 
   -0.55160E+04         0.68847E+02         0.00000E+00
    0.68847E+02        -0.15755E+02         0.00000E+00
    0.00000E+00         0.00000E+00        -0.16595E+04
 
   -0.54721E+04         0.10205E+03         0.00000E+00
    0.10205E+03        -0.31903E+02         0.00000E+00
    0.00000E+00         0.00000E+00        -0.16512E+04
 
   -0.54150E+04         0.13802E+03         0.00000E+00
    0.13802E+03        -0.54611E+02         0.00000E+00
    0.00000E+00         0.00000E+00        -0.16409E+04
 
   -0.53435E+04         0.17643E+03         0.00000E+00
    0.17643E+03        -0.84358E+02         0.00000E+00
    0.00000E+00         0.00000E+00        -0.16284E+04
 
   -0.52567E+04         0.21690E+03         0.00000E+00
    0.21690E+03        -0.12155E+03         0.00000E+00
    0.00000E+00         0.00000E+00        -0.16135E+04
 
   -0.51536E+04         0.25907E+03         0.00000E+00
    0.25907E+03        -0.16652E+03         0.00000E+00
    0.00000E+00         0.00000E+00        -0.15960E+04
 
   -0.50336E+04         0.30256E+03         0.00000E+00
    0.30256E+03        -0.21952E+03         0.00000E+00
    0.00000E+00         0.00000E+00        -0.15759E+04
 
   -0.48961E+04         0.34701E+03         0.00000E+00
    0.34701E+03        -0.28073E+03         0.00000E+00
    0.00000E+00         0.00000E+00        -0.15530E+04
 
   -0.47405E+04         0.39202E+03         0.00000E+00
    0.39202E+03        -0.35028E+03         0.00000E+00
    0.00000E+00         0.00000E+00        -0.15272E+04
 
   -0.45665E+04         0.43725E+03         0.00000E+00
    0.43725E+03        -0.42820E+03         0.00000E+00
    0.00000E+00         0.00000E+00        -0.14984E+04
 
   -0.43738E+04         0.48232E+03         0.00000E+00
    0.48232E+03        -0.51447E+03         0.00000E+00
    0.00000E+00         0.00000E+00        -0.14665E+04
 
   -0.41622E+04         0.52688E+03         0.00000E+00
    0.52688E+03        -0.60901E+03         0.00000E+00
    0.00000E+00         0.00000E+00        -0.14314E+04
 
   -0.39318E+04         0.57057E+03         0.00000E+00
    0.57057E+03        -0.71167E+03         0.00000E+00
    0.00000E+00         0.00000E+00        -0.13931E+04
 
   -0.36827E+04         0.61304E+03         0.00000E+00
    0.61304E+03        -0.82225E+03         0.00000E+00
    0.00000E+00         0.00000E+00        -0.13515E+04
 
   -0.34149E+04         0.65393E+03         0.00000E+00
    0.65393E+03        -0.94049E+03         0.00000E+00
    0.00000E+00         0.00000E+00        -0.13066E+04
 
   -0.31289E+04         0.69286E+03         0.00000E+00
    0.69286E+03        -0.10661E+04         0.00000E+00
    0.00000E+00         0.00000E+00        -0.12585E+04
 
   -0.28250E+04         0.72946E+03         0.00000E+00
    0.72946E+03        -0.11986E+04         0.00000E+00
    0.00000E+00         0.00000E+00        -0.12071E+04
 
   -0.25039E+04         0.76333E+03         0.00000E+00
    0.76333E+03        -0.13376E+04         0.00000E+00
    0.00000E+00         0.00000E+00        -0.11525E+04
 
   -0.21662E+04         0.79403E+03         0.00000E+00
    0.79403E+03        -0.14826E+04         0.00000E+00
    0.00000E+00         0.00000E+00        -0.10947E+04
 
   -0.18128E+04         0.82111E+03         0.00000E+00
    0.82111E+03        -0.16331E+04         0.00000E+00
    0.00000E+00         0.00000E+00        -0.10338E+04
 
   -0.14447E+04         0.84410E+03         0.00000E+00
    0.84410E+03        -0.17882E+04         0.00000E+00
    0.00000E+00         0.00000E+00        -0.96988E+03
 
   -0.10631E+04         0.86249E+03         0.00000E+00
    0.86249E+03        -0.19473E+04         0.00000E+00
    0.00000E+00         0.00000E+00        -0.90312E+03
 
   -0.55460E+04         0.97649E+01         0.00000E+00
    0.97649E+01        -0.84978E+00         0.00000E+00
    0.00000E+00         0.00000E+00        -0.16640E+04
 
   -0.55219E+04         0.31496E+02         0.00000E+00
    0.31496E+02        -0.55094E+01         0.00000E+00
    0.00000E+00         0.00000E+00        -0.16582E+04
 
   -0.54873E+04         0.55959E+02         0.00000E+00
    0.55959E+02        -0.15445E+02         0.00000E+00
    0.00000E+00         0.00000E+00        -0.16508E+04
 
   -0.54408E+04         0.82932E+02         0.00000E+00
    0.82932E+02        -0.31262E+02         0.00000E+00
    0.00000E+00         0.00000E+00        -0.16416E+04
 
   -0.53813E+04         0.11217E+03         0.00000E+00
    0.11217E+03        -0.53502E+02         0.00000E+00
    0.00000E+00         0.00000E+00        -0.16304E+04
 
   -0.53077E+04         0.14339E+03         0.00000E+00
    0.14339E+03        -0.82645E+02         0.00000E+00
    0.00000E+00         0.00000E+00        -0.16171E+04
 
   -0.52192E+04         0.17631E+03         0.00000E+00
    0.17631E+03        -0.11910E+03         0.00000E+00
    0.00000E+00         0.00000E+00        -0.16015E+04
 
   -0.51147E+04         0.21063E+03         0.00000E+00
    0.21063E+03        -0.16319E+03         0.00000E+00
    0.00000E+00         0.00000E+00        -0.15834E+04
 
   -0.49937E+04         0.24604E+03         0.00000E+00
    0.24604E+03        -0.21520E+03         0.00000E+00
    0.00000E+00         0.00000E+00        -0.15627E+04
 
   -0.48554E+04         0.28225E+03         0.00000E+00
    0.28225E+03        -0.27532E+03         0.00000E+00
    0.00000E+00         0.00000E+00        -0.15392E+04
 
   -0.46995E+04         0.31895E+03         0.00000E+00
    0.31895E+03        -0.34367E+03         0.00000E+00
    0.00000E+00         0.00000E+00        -0.15129E+04
 
   -0.45254E+04         0.35584E+03         0.00000E+00
    0.35584E+03        -0.42032E+03         0.00000E+00
    0.00000E+00         0.00000E+00        -0.14837E+04
 
   -0.43330E+04         0.39262E+03         0.00000E+00
    0.39262E+03        -0.50524E+03         0.00000E+00
    0.00000E+00         0.00000E+00        -0.14515E+04
 
   -0.41221E+04         0.42899E+03         0.00000E+00
    0.42899E+03        -0.59839E+03         0.00000E+00
    0.00000E+00         0.00000E+00        -0.14161E+04
 
   -0.38927E+04         0.46467E+03         0.00000E+00
    0.46467E+03        -0.69960E+03         0.00000E+00
    0.00000E+00         0.00000E+00        -0.13777E+04
 
   -0.36448E+04         0.49936E+03         0.00000E+00
    0.49936E+03        -0.80871E+03         0.00000E+00
    0.00000E+00         0.00000E+00        -0.13360E+04
 
   -0.33786E+04         0.53276E+03         0.00000E+00
    0.53276E+03        -0.92543E+03         0.00000E+00
    0.00000E+00         0.00000E+00        -0.12912E+04
 
   -0.30945E+04         0.56456E+03         0.00000E+00
    0.56456E+03        -0.10495E+04         0.00000E+00
    0.00000E+00         0.00000E+00        -0.12432E+04
 
   -0.27930E+04         0.59444E+03         0.00000E+00
    0.59444E+03        -0.11804E+04         0.00000E+00
    0.00000E+00         0.00000E+00        -0.11920E+04
 
   -0.24745E+04         0.62206E+03         0.00000E+00
    0.62206E+03        -0.13178E+04         0.00000E+00
    0.00000E+00         0.00000E+00        -0.11377E+04
 
   -0.21399E+04         0.64709E+03         0.00000E+00
    0.64709E+03        -0.14611E+04         0.00000E+00
    0.00000E+00         0.00000E+00        -0.10803E+04
 
   -0.17901E+04         0.66914E+03         0.00000E+00
    0.66914E+03        -0.16098E+04         0.00000E+00
    0.00000E+00         0.00000E+00        -0.10200E+04
 
   -0.14259E+04         0.68781E+03         0.00000E+00
    0.68781E+03        -0.17631E+04         0.00000E+00
    0.00000E+00         0.00000E+00        -0.95672E+03
 
   -0.10487E+04         0.70269E+03         0.00000E+00
    0.70269E+03        -0.19203E+04         0.00000E+00
    0.00000E+00         0.00000E+00        -0.89071E+03
 
   -0.55280E+04         0.75623E+01         0.00000E+00
    0.75623E+01        -0.83843E+00         0.00000E+00
    0.00000E+00         0.00000E+00        -0.16586E+04
 
   -0.55014E+04         0.24380E+02         0.00000E+00
    0.24380E+02        -0.54306E+01         0.00000E+00
    0.00000E+00         0.00000E+00        -0.16520E+04
 
   -0.54644E+04         0.43302E+02         0.00000E+00
    0.43302E+02        -0.15214E+02         0.00000E+00
    0.00000E+00         0.00000E+00        -0.16439E+04
 
   -0.54158E+04         0.64165E+02         0.00000E+00
    0.64165E+02        -0.30780E+02         0.00000E+00
    0.00000E+00         0.00000E+00        -0.16340E+04
 
   -0.53545E+04         0.86780E+02         0.00000E+00
    0.86780E+02        -0.52666E+02         0.00000E+00
    0.00000E+00         0.00000E+00        -0.16221E+04
 
   -0.52793E+04         0.11094E+03         0.00000E+00
    0.11094E+03        -0.81345E+02         0.00000E+00
    0.00000E+00         0.00000E+00        -0.16082E+04
 
   -0.51893E+04         0.13642E+03         0.00000E+00
    0.13642E+03        -0.11723E+03         0.00000E+00
    0.00000E+00         0.00000E+00        -0.15920E+04
 
   -0.50838E+04         0.16300E+03         0.00000E+00
    0.16300E+03        -0.16065E+03         0.00000E+00
    0.00000E+00         0.00000E+00        -0.15733E+04
 
   -0.49619E+04         0.19044E+03         0.00000E+00
    0.19044E+03        -0.21190E+03         0.00000E+00
    0.00000E+00         0.00000E+00        -0.15521E+04
 
   -0.48231E+04         0.21851E+03         0.00000E+00
    0.21851E+03        -0.27116E+03         0.00000E+00
    0.00000E+00         0.00000E+00        -0.15283E+04
 
   -0.46668E+04         0.24697E+03         0.00000E+00
    0.24697E+03        -0.33859E+03         0.00000E+00
    0.00000E+00         0.00000E+00        -0.15016E+04
 
   -0.44927E+04         0.27559E+03         0.00000E+00
    0.27559E+03        -0.41424E+03         0.00000E+00
    0.00000E+00         0.00000E+00        -0.14721E+04
 
   -0.43005E+04         0.30414E+03         0.00000E+00
    0.30414E+03        -0.49812E+03         0.00000E+00
    0.00000E+00         0.00000E+00        -0.14396E+04
 
   -0.40901E+04         0.33238E+03         0.00000E+00
    0.33238E+03        -0.59016E+03         0.00000E+00
    0.00000E+00         0.00000E+00        -0.14041E+04
 
   -0.38614E+04         0.36008E+03         0.00000E+00
    0.36008E+03        -0.69025E+03         0.00000E+00
    0.00000E+00         0.00000E+00        -0.13655E+04
 
   -0.36145E+04         0.38702E+03         0.00000E+00
    0.38702E+03        -0.79818E+03         0.00000E+00
    0.00000E+00         0.00000E+00        -0.13238E+04
 
   -0.33496E+04         0.41296E+03         0.00000E+00
    0.41296E+03        -0.91371E+03         0.00000E+00
    0.00000E+00         0.00000E+00        -0.12790E+04
 
   -0.30671E+04         0.43765E+03         0.00000E+00
    0.43765E+03        -0.10365E+04         0.00000E+00
    0.00000E+00         0.00000E+00        -0.12311E+04
 
   -0.27674E+04         0.46085E+03         0.00000E+00
    0.46085E+03        -0.11662E+04         0.00000E+00
    0.00000E+00         0.00000E+00        -0.11801E+04
 
   -0.24511E+04         0.48229E+03         0.00000E+00
    0.48229E+03        -0.13023E+04         0.00000E+00
    0.00000E+00         0.00000E+00        -0.11260E+04
 
   -0.21190E+04         0.50169E+03         0.00000E+00
    0.50169E+03        -0.14443E+04         0.00000E+00
    0.00000E+00         0.00000E+00        -0.10690E+04
 
   -0.17720E+04         0.51876E+03         0.00000E+00
    0.51876E+03        -0.15916E+04         0.00000E+00
    0.00000E+00         0.00000E+00        -0.10091E+04
 
   -0.14110E+04         0.53320E+03         0.00000E+00
    0.53320E+03        -0.17434E+04         0.00000E+00
    0.00000E+00         0.00000E+00        -0.94633E+03
 
   -0.10374E+04         0.54468E+03         0.00000E+00
    0.54468E+03        -0.18990E+04         0.00000E+00
    0.00000E+00         0.00000E+00        -0.88093E+03
 
   -0.55145E+04         0.53850E+01         0.00000E+00
    0.53850E+01        -0.83057E+00         0.00000E+00
    0.00000E+00         0.00000E+00        -0.16546E+04
 
   -0.54861E+04         0.17353E+02         0.00000E+00
    0.17353E+02        -0.53754E+01         0.00000E+00
    0.00000E+00         0.00000E+00        -0.16474E+04
 
   -0.54474E+04         0.30815E+02         0.00000E+00
    0.30815E+02        -0.15050E+02         0.00000E+00
    0.00000E+00         0.00000E+00        -0.16387E+04
 
   -0.53972E+04         0.45656E+02         0.00000E+00
    0.45656E+02        -0.30437E+02         0.00000E+00
    0.00000E+00         0.00000E+00        -0.16283E+04
 
   -0.53344E+04         0.61745E+02         0.00000E+00
    0.61745E+02        -0.52067E+02         0.00000E+00
    0.00000E+00         0.00000E+00        -0.16159E+04
 
   -0.52580E+04         0.78937E+02         0.00000E+00
    0.78937E+02        -0.80412E+02         0.00000E+00
    0.00000E+00         0.00000E+00        -0.16015E+04
 
   -0.51670E+04         0.97076E+02         0.00000E+00
    0.97076E+02        -0.11588E+03         0.00000E+00
    0.00000E+00         0.00000E+00        -0.15849E+04
 
   -0.50606E+04         0.11600E+03         0.00000E+00
    0.11600E+03        -0.15882E+03         0.00000E+00
    0.00000E+00         0.00000E+00        -0.15658E+04
 
   -0.49381E+04         0.13555E+03         0.00000E+00
    0.13555E+03        -0.20950E+03         0.00000E+00
    0.00000E+00         0.00000E+00        -0.15443E+04
 
   -0.47988E+04         0.15554E+03         0.00000E+00
    0.15554E+03        -0.26815E+03         0.00000E+00
    0.00000E+00         0.00000E+00        -0.15201E+04
 
   -0.46423E+04         0.17583E+03         0.00000E+00
    0.17583E+03        -0.33489E+03         0.00000E+00
    0.00000E+00         0.00000E+00        -0.14932E+04
 
   -0.44682E+04         0.19623E+03         0.00000E+00
    0.19623E+03        -0.40981E+03         0.00000E+00
    0.00000E+00         0.00000E+00        -0.14634E+04
 
   -0.42762E+04         0.21659E+03         0.00000E+00
    0.21659E+03        -0.49292E+03         0.00000E+00
    0.00000E+00         0.00000E+00        -0.14307E+04
 
   -0.40661E+04         0.23673E+03         0.00000E+00
    0.23673E+03        -0.58416E+03         0.00000E+00
    0.00000E+00         0.00000E+00        -0.13951E+04
 
   -0.38379E+04         0.25650E+03         0.00000E+00
    0.25650E+03        -0.68340E+03         0.00000E+00
    0.00000E+00         0.00000E+00        -0.13564E+04
 
   -0.35918E+04         0.27572E+03         0.00000E+00
    0.27572E+03        -0.79047E+03         0.00000E+00
    0.00000E+00         0.00000E+00        -0.13147E+04
 
   -0.33279E+04         0.29422E+03         0.00000E+00
    0.29422E+03        -0.90511E+03         0.00000E+00
    0.00000E+00         0.00000E+00        -0.12699E+04
 
   -0.30466E+04         0.31184E+03         0.00000E+00
    0.31184E+03        -0.10270E+04         0.00000E+00
    0.00000E+00         0.00000E+00        -0.12221E+04
 
   -0.27483E+04         0.32838E+03         0.00000E+00
    0.32838E+03        -0.11557E+04         0.00000E+00
    0.00000E+00         0.00000E+00        -0.11712E+04
 
   -0.24336E+04         0.34367E+03         0.00000E+00
    0.34367E+03        -0.12909E+04         0.00000E+00
    0.00000E+00         0.00000E+00        -0.11173E+04
 
   -0.21034E+04         0.35749E+03         0.00000E+00
    0.35749E+03        -0.14318E+04         0.00000E+00
    0.00000E+00         0.00000E+00        -0.10606E+04
 
   -0.17585E+04         0.36965E+03         0.00000E+00
    0.36965E+03        -0.15781E+04         0.00000E+00
    0.00000E+00         0.00000E+00        -0.10010E+04
 
   -0.13999E+04         0.37992E+03         0.00000E+00
    0.37992E+03        -0.17288E+04         0.00000E+00
    0.00000E+00         0.00000E+00        -0.93861E+03
 
   -0.10290E+04         0.38806E+03         0.00000E+00
    0.38806E+03        -0.18833E+04         0.00000E+00
    0.00000E+00         0.00000E+00        -0.87367E+03
 
   -0.55056E+04         0.32246E+01         0.00000E+00
    0.32246E+01        -0.82565E+00         0.00000E+00
    0.00000E+00         0.00000E+00        -0.16519E+04
 
   -0.54759E+04         0.10388E+02         0.00000E+00
    0.10388E+02        -0.53405E+01         0.00000E+00
    0.00000E+00         0.00000E+00        -0.16444E+04
 
   -0.54361E+04         0.18444E+02         0.00000E+00
    0.18444E+02        -0.14946E+02         0.00000E+00
    0.00000E+00         0.00000E+00        -0.16353E+04
 
   -0.53848E+04         0.27325E+02         0.00000E+00
    0.27325E+02        -0.30218E+02         0.00000E+00
    0.00000E+00         0.00000E+00        -0.16245E+04
 
   -0.53211E+04         0.36953E+02         0.00000E+00
    0.36953E+02        -0.51682E+02         0.00000E+00
    0.00000E+00         0.00000E+00        -0.16118E+04
 
   -0.52439E+04         0.47242E+02         0.00000E+00
    0.47242E+02        -0.79809E+02         0.00000E+00
    0.00000E+00         0.00000E+00        -0.15971E+04
 
   -0.51522E+04         0.58100E+02         0.00000E+00
    0.58100E+02        -0.11501E+03         0.00000E+00
    0.00000E+00         0.00000E+00        -0.15802E+04
 
   -0.50452E+04         0.69430E+02         0.00000E+00
    0.69430E+02        -0.15763E+03         0.00000E+00
    0.00000E+00         0.00000E+00        -0.15609E+04
 
   -0.49223E+04         0.81135E+02         0.00000E+00
    0.81135E+02        -0.20795E+03         0.00000E+00
    0.00000E+00         0.00000E+00        -0.15391E+04
 
   -0.47827E+04         0.93114E+02         0.00000E+00
    0.93114E+02        -0.26618E+03         0.00000E+00
    0.00000E+00         0.00000E+00        -0.15147E+04
 
   -0.46260E+04         0.10527E+03         0.00000E+00
    0.10527E+03        -0.33248E+03         0.00000E+00
    0.00000E+00         0.00000E+00        -0.14876E+04
 
   -0.44519E+04         0.11749E+03         0.00000E+00
    0.11749E+03        -0.40692E+03         0.00000E+00
    0.00000E+00         0.00000E+00        -0.14576E+04
 
   -0.42600E+04         0.12969E+03         0.00000E+00
    0.12969E+03        -0.48952E+03         0.00000E+00
    0.00000E+00         0.00000E+00        -0.14248E+04
 
   -0.40501E+04         0.14177E+03         0.00000E+00
    0.14177E+03        -0.58023E+03         0.00000E+00
    0.00000E+00         0.00000E+00        -0.13891E+04
 
   -0.38223E+04         0.15362E+03         0.00000E+00
    0.15362E+03        -0.67892E+03         0.00000E+00
    0.00000E+00         0.00000E+00        -0.13504E+04
 
   -0.35767E+04         0.16514E+03         0.00000E+00
    0.16514E+03        -0.78541E+03         0.00000E+00
    0.00000E+00         0.00000E+00        -0.13086E+04
 
   -0.33134E+04         0.17624E+03         0.00000E+00
    0.17624E+03        -0.89946E+03         0.00000E+00
    0.00000E+00         0.00000E+00        -0.12639E+04
 
   -0.30329E+04         0.18680E+03         0.00000E+00
    0.18680E+03        -0.10207E+04         0.00000E+00
    0.00000E+00         0.00000E+00        -0.12161E+04
 
   -0.27355E+04         0.19671E+03         0.00000E+00
    0.19671E+03        -0.11488E+04         0.00000E+00
    0.00000E+00         0.00000E+00        -0.11653E+04
 
   -0.24220E+04         0.20587E+03         0.00000E+00
    0.20587E+03        -0.12833E+04         0.00000E+00
    0.00000E+00         0.00000E+00        -0.11116E+04
 
   -0.20930E+04         0.21415E+03         0.00000E+00
    0.21415E+03        -0.14236E+04         0.00000E+00
    0.00000E+00         0.00000E+00        -0.10550E+04
 
   -0.17495E+04         0.22143E+03         0.00000E+00
    0.22143E+03        -0.15692E+04         0.00000E+00
    0.00000E+00         0.00000E+00        -0.99559E+03
 
   -0.13925E+04         0.22757E+03         0.00000E+00
    0.22757E+03        -0.17192E+04         0.00000E+00
    0.00000E+00         0.00000E+00        -0.93351E+03
 
   -0.10234E+04         0.23244E+03         0.00000E+00
    0.23244E+03        -0.18729E+04         0.00000E+00
    0.00000E+00         0.00000E+00        -0.86888E+03
 
   -0.55011E+04         0.10738E+01         0.00000E+00
    0.10738E+01        -0.82328E+00         0.00000E+00
    0.00000E+00         0.00000E+00        -0.16506E+04
 
   -0.54709E+04         0.34590E+01         0.00000E+00
    0.34590E+01        -0.53236E+01         0.00000E+00
    0.00000E+00         0.00000E+00        -0.16429E+04
 
   -0.54304E+04         0.61406E+01         0.00000E+00
    0.61406E+01        -0.14895E+02         0.00000E+00
    0.00000E+00         0.00000E+00        -0.16336E+04
 
   -0.53787E+04         0.90968E+01         0.00000E+00
    0.90968E+01        -0.30111E+02         0.00000E+00
    0.00000E+00         0.00000E+00        -0.16226E+04
 
   -0.53145E+04         0.12302E+02         0.00000E+00
    0.12302E+02        -0.51494E+02         0.00000E+00
    0.00000E+00         0.00000E+00        -0.16098E+04
 
   -0.52368E+04         0.15727E+02         0.00000E+00
    0.15727E+02        -0.79514E+02         0.00000E+00
    0.00000E+00         0.00000E+00        -0.15949E+04
 
   -0.51448E+04         0.19343E+02         0.00000E+00
    0.19343E+02        -0.11458E+03         0.00000E+00
    0.00000E+00         0.00000E+00        -0.15778E+04
 
   -0.50375E+04         0.23115E+02         0.00000E+00
    0.23115E+02        -0.15704E+03         0.00000E+00
    0.00000E+00         0.00000E+00        -0.15584E+04
 
   -0.49144E+04         0.27013E+02         0.00000E+00
    0.27013E+02        -0.20718E+03         0.00000E+00
    0.00000E+00         0.00000E+00        -0.15365E+04
 
   -0.47747E+04         0.31003E+02         0.00000E+00
    0.31003E+02        -0.26522E+03         0.00000E+00
    0.00000E+00         0.00000E+00        -0.15120E+04
 
   -0.46179E+04         0.35051E+02         0.00000E+00
    0.35051E+02        -0.33130E+03         0.00000E+00
    0.00000E+00         0.00000E+00        -0.14848E+04
 
   -0.44437E+04         0.39123E+02         0.00000E+00
    0.39123E+02        -0.40550E+03         0.00000E+00
    0.00000E+00         0.00000E+00        -0.14548E+04
 
   -0.42519E+04         0.43188E+02         0.00000E+00
    0.43188E+02        -0.48785E+03         0.00000E+00
    0.00000E+00         0.00000E+00        -0.14219E+04
 
   -0.40421E+04         0.47211E+02         0.00000E+00
    0.47211E+02        -0.57829E+03         0.00000E+00
    0.00000E+00         0.00000E+00        -0.13861E+04
 
   -0.38145E+04         0.51159E+02         0.00000E+00
    0.51159E+02        -0.67670E+03         0.00000E+00
    0.00000E+00         0.00000E+00        -0.13474E+04
 
   -0.35692E+04         0.54999E+02         0.00000E+00
    0.54999E+02        -0.78291E+03         0.00000E+00
    0.00000E+00         0.00000E+00        -0.13056E+04
 
   -0.33062E+04         0.58695E+02         0.00000E+00
    0.58695E+02        -0.89666E+03         0.00000E+00
    0.00000E+00         0.00000E+00        -0.12609E+04
 
   -0.30260E+04         0.62214E+02         0.00000E+00
    0.62214E+02        -0.10176E+04         0.00000E+00
    0.00000E+00         0.00000E+00        -0.12131E+04
 
   -0.27291E+04         0.65518E+02         0.00000E+00
    0.65518E+02        -0.11454E+04         0.00000E+00
    0.00000E+00         0.00000E+00        -0.11624E+04
 
   -0.24161E+04         0.68569E+02         0.00000E+00
    0.68569E+02        -0.12796E+04         0.00000E+00
    0.00000E+00         0.00000E+00        -0.11087E+04
 
   -0.20878E+04         0.71327E+02         0.00000E+00
    0.71327E+02        -0.14196E+04         0.00000E+00
    0.00000E+00         0.00000E+00        -0.10522E+04
 
   -0.17450E+04         0.73750E+02         0.00000E+00
    0.73750E+02        -0.15647E+04         0.00000E+00
    0.00000E+00         0.00000E+00        -0.99292E+03
 
   -0.13889E+04         0.75794E+02         0.00000E+00
    0.75794E+02        -0.17144E+04         0.00000E+00
    0.00000E+00         0.00000E+00        -0.93097E+03
 
   -0.10206E+04         0.77413E+02         0.00000E+00
    0.77413E+02        -0.18677E+04         0.00000E+00
    0.00000E+00         0.00000E+00        -0.86649E+03
 
SCALARS stresss double 
LOOKUP_TABLE default
  -68946.3284073660     
  -67742.3782816388     
  -62348.4927774687     
  -55883.6438384251     
  -49578.4524050858     
  -43705.5834839603     
  -38353.3390967078     
  -33758.7621826056     
  -29767.6302774373     
  -26301.2412808941     
  -23322.7669498390     
  -20698.1090816254     
  -18330.9822583611     
  -16158.8313048191     
  -14176.8234540682     
  -12444.8509794866     
  -10913.1629896857     
  -9574.83671758170     
  -8368.64807373268     
  -7482.68857031146     
  -7777.38462652902     
  -8244.12372964139     
  -8732.57139789475     
  -9261.12743708987     
  -68516.0009353668     
  -63260.7682255476     
  -57758.1142742542     
  -52431.6604907948     
  -46903.7632855559     
  -41642.1575304103     
  -36879.8352266003     
  -32699.5808655568     
  -29032.0333024760     
  -25734.2535530874     
  -22840.9120820354     
  -20279.1011879021     
  -17971.9096076509     
  -15867.4587386073     
  -13979.0132451938     
  -12321.0521990533     
  -10827.1962561458     
  -9497.55904192405     
  -8313.28733237184     
  -7469.89738008838     
  -7777.61438354918     
  -8219.43539374410     
  -8690.54984009602     
  -9206.64258757111     
  -55134.8503102632     
  -50200.5025722465     
  -49008.4871073856     
  -45643.0845327082     
  -41890.6267632719     
  -37922.5606485396     
  -34109.5268041437     
  -30588.7401389895     
  -27384.8481274226     
  -24445.7391462522     
  -21752.3111238250     
  -19373.7015563961     
  -17267.1631497721     
  -15348.8813647077     
  -13612.0197753437     
  -12028.5003632611     
  -10606.1627381494     
  -9341.83768025414     
  -8201.43247176107     
  -7450.95476967521     
  -7766.32020995436     
  -8162.78800843130     
  -8602.91931146652     
  -9094.50418688019     
  -21960.6030429094     
  -37429.4236921880     
  -37398.7668949253     
  -36732.8004230173     
  -34839.3575388397     
  -32477.0118084758     
  -29871.9232043157     
  -27243.7204454770     
  -24738.6693994763     
  -22355.9527893816     
  -20155.0579051171     
  -18110.2117152338     
  -16248.0908683526     
  -14584.8478896185     
  -13070.1218061077     
  -11674.4112760627     
  -10351.0134011053     
  -9112.52797472151     
  -8011.52814915933     
  -7426.21971865983     
  -7717.24530219305     
  -8064.39220220771     
  -8464.69791680653     
  -8920.73649524430     
  -480.825868362369     
  -18872.0281522551     
  -25831.2700543106     
  -27385.5606985133     
  -27475.3758328760     
  -26571.6313816139     
  -25162.7168417589     
  -23499.2474656887     
  -21743.4287312426     
  -19974.9855529891     
  -18281.5594054634     
  -16671.1450180868     
  -15127.3833193226     
  -13713.5548016802     
  -12389.7219965140     
  -11140.1511958268     
  -9965.33469499225     
  -8816.36397359862     
  -7730.41398788382     
  -7369.65749895254     
  -7613.27207690368     
  -7916.10190995401     
  -8273.27666765858     
  -8684.01592049644     
  -503.873210752299     
  -12466.3425369112     
  -18796.3230041890     
  -21466.3937100815     
  -22216.9224565789     
  -22046.2527241471     
  -21310.0013461919     
  -20244.0406236633     
  -19012.7169091229     
  -17698.2003714368     
  -16361.6671873288     
  -15039.4324547413     
  -13819.3887534209     
  -12653.3987794827     
  -11509.0580472527     
  -10395.4750797289     
  -9346.36586806333     
  -8290.45138730732     
  -7322.81002246464     
  -7244.93047794562     
  -7449.28483354798     
  -7717.98159769279     
  -8030.71691200661     
  -8388.67310896447     
   449.488634691550     
  -8669.74049001146     
  -14600.7107869462     
  -16965.2324332217     
  -18150.4303577284     
  -18400.0670869996     
  -18087.8800038641     
  -17423.4794609836     
  -16564.8181012434     
  -15595.7614367619     
  -14546.3169412678     
  -13490.3133094187     
  -12466.8303718290     
  -11469.6677426835     
  -10521.7597912494     
  -9578.06457003593     
  -8627.25882760314     
  -7686.12459344605     
  -6911.66477185157     
  -7024.46085745527     
  -7240.11875869434     
  -7476.46620762405     
  -7744.90790259013     
  -8045.20817601765     
  -384.312091125113     
  -6224.21808440243     
  -10775.0125515627     
  -13615.2236446933     
  -14801.8104184488     
  -15247.8463105672     
  -15282.9097518355     
  -14923.5608751488     
  -14350.8699803808     
  -13621.5481689977     
  -12797.7748919913     
  -11936.1991985602     
  -11102.9734495126     
  -10289.0619175564     
  -9470.98559723467     
  -8662.22219925840     
  -7837.30442569704     
  -7010.42986943159     
  -6580.33478951314     
  -6799.88858850891     
  -6997.72482776028     
  -7204.51344793358     
  -7427.23450640967     
  -7668.46662393471     
  -1185.07962318855     
  -5047.24969568125     
  -8624.76641707882     
  -10835.7784106895     
  -12097.3328363660     
  -12626.5456037706     
  -12767.3138621840     
  -12622.0233697129     
  -12278.1637994570     
  -11749.5007100660     
  -11120.6260780925     
  -10453.5904403667     
  -9780.09262678230     
  -9090.71160880301     
  -8403.09367038161     
  -7729.97317373611     
  -7009.05595637108     
  -6363.15663810882     
  -6414.68296621699     
  -6577.47924453381     
  -6744.30158214911     
  -6913.62587438532     
  -7090.36320769435     
  -7274.01240951309     
  -1986.60551908923     
  -4600.12626707045     
  -6911.90195757493     
  -8720.60805140662     
  -9845.11436446368     
  -10450.4241977313     
  -10662.5473824197     
  -10614.4701609388     
  -10403.5454718172     
  -10039.2787264860     
  -9562.97010612111     
  -9040.53515713602     
  -8493.86598109123     
  -7951.82589149105     
  -7371.41366370079     
  -6790.87223685955     
  -6203.33079397213     
  -6140.46936111845     
  -6241.58578139224     
  -6360.44650048565     
  -6485.14285625571     
  -6614.12153293811     
  -6745.05788538444     
  -6875.18149238097     
  -2646.19423393852     
  -4367.12654860978     
  -5992.25825625385     
  -7305.07952039432     
  -8115.19995473099     
  -8609.70351924916     
  -8879.48705726699     
  -8903.71628654808     
  -8784.93478180478     
  -8504.36680919624     
  -8150.95383544490     
  -7754.70423043469     
  -7316.46694385142     
  -6827.65317824701     
  -6384.83233538240     
  -6015.19638268520     
  -5952.65089999519     
  -6001.91346160116     
  -6060.16100225110     
  -6137.15052130220     
  -6222.87368684826     
  -6311.67657894794     
  -6399.48380239473     
  -6481.50659112573     
  -3130.61986258198     
  -4283.62823227571     
  -5410.08751241165     
  -6350.94546663971     
  -7039.39584757020     
  -7337.35217916114     
  -7408.78930107195     
  -7450.14767025144     
  -7353.22900230603     
  -7149.86908084710     
  -6870.32484007926     
  -6548.59964185939     
  -6225.51803126379     
  -5998.60585370522     
  -5861.66774398512     
  -5837.16532472580     
  -5828.29243427946     
  -5831.12841200479     
  -5863.30652520480     
  -5906.79303694317     
  -5957.65484527273     
  -6010.06273827034     
  -6058.94048633721     
  -6098.98053750788     
  -3460.39688444687     
  -4241.04078414911     
  -5027.82985701852     
  -5719.29678056184     
  -6230.26954707598     
  -6542.37185716771     
  -6668.99470727333     
  -6573.84882160964     
  -6405.50314331082     
  -6229.99056889034     
  -6066.06165360195     
  -5923.79162085744     
  -5849.82207264992     
  -5787.19824150545     
  -5722.75628581050     
  -5672.76205918856     
  -5651.09884909847     
  -5645.73033434846     
  -5652.56883808457     
  -5669.83622622315     
  -5691.14536409951     
  -5711.81672094289     
  -5726.83663878284     
  -5730.97926981937     
  -3659.26111999016     
  -4199.99672389331     
  -4760.00088104631     
  -5266.32726157713     
  -5668.69287572986     
  -5939.90100489383     
  -6069.77846657079     
  -6086.73582245894     
  -6022.28824479378     
  -5923.51018256736     
  -5817.96796701564     
  -5725.61477086360     
  -5647.96265628973     
  -5586.44450287411     
  -5533.84455968940     
  -5491.40736309915     
  -5461.03645190226     
  -5442.82563293236     
  -5433.17661979301     
  -5428.56044142284     
  -5425.35812789988     
  -5419.11916852139     
  -5405.36959195130     
  -5379.31528505755     
  -3757.17083254884     
  -4144.54827291207     
  -4551.93614200042     
  -4931.79779912358     
  -5247.37570558462     
  -5476.34032995063     
  -5614.28432699934     
  -5669.75176918671     
  -5664.31165098405     
  -5620.52119031790     
  -5559.94942378276     
  -5495.78803558608     
  -5435.87073544107     
  -5381.85375084474     
  -5334.55735568612     
  -5293.68022246685     
  -5259.56577588309     
  -5231.56311156662     
  -5207.95780363734     
  -5186.00976872192     
  -5162.49395426270     
  -5133.83175023499     
  -5096.05552588038     
  -5044.93339929688     
  -3781.30708214720     
  -4070.73626458373     
  -4376.72571498567     
  -4667.77808154787     
  -4918.37572788750     
  -5112.38525049069     
  -5243.83153970576     
  -5316.71624974487     
  -5341.45011289084     
  -5332.04905102705     
  -5301.61359270432     
  -5260.75473222222     
  -5216.13291544433     
  -5171.62107231321     
  -5128.88651035422     
  -5088.73705503394     
  -5051.20064437520     
  -5015.71996513308     
  -4980.93869493080     
  -4944.80318571761     
  -4904.68764490794     
  -4857.54130790867     
  -4799.97547856274     
  -4728.30736938425     
  -3754.36706407616     
  -3981.04176194530     
  -4219.10132498845     
  -4448.07014241029     
  -4650.59530368220     
  -4814.76840565349     
  -4935.22657411405     
  -5012.67315810896     
  -5052.58340274784     
  -5062.93075052760     
  -5052.26839441223     
  -5027.99590495288     
  -4995.74227354441     
  -4959.19006944253     
  -4920.54358449054     
  -4880.86943896806     
  -4840.45136078766     
  -4798.86894304282     
  -4755.07317474254     
  -4707.42240211517     
  -4653.77193687948     
  -4591.56312848504     
  -4517.90230339971     
  -4429.62567678567     
  -3694.18004349511     
  -3879.92414719425     
  -4071.97506911978     
  -4257.19914016933     
  -4423.89863178652     
  -4563.52872815240     
  -4671.51559569303     
  -4747.24930295641     
  -4793.30471298580     
  -4814.30530352383     
  -4815.63650192920     
  -4802.45366953133     
  -4779.01763706167     
  -4748.48465680701     
  -4712.92431888176     
  -4673.49737216196     
  -4630.60176411463     
  -4583.99540681253     
  -4532.86332222085     
  -4475.88287039447     
  -4411.28636861565     
  -4336.93031262126     
  -4250.36119628893     
  -4148.87589649001     
  -3614.03724934120     
  -3772.18697766999     
  -3932.36153394204     
  -4086.22728364529     
  -4225.98863463665     
  -4345.59199753078     
  -4441.39909941983     
  -4512.29719136781     
  -4559.35534663675     
  -4585.16802252708     
  -4593.11292091231     
  -4586.67263116575     
  -4568.95945453771     
  -4542.44675749978     
  -4508.88959338741     
  -4469.34486526029     
  -4424.24082348577     
  -4373.44495093865     
  -4316.32680292495     
  -4251.81246588249     
  -4178.43970670926     
  -4094.41328590250     
  -3997.66036051093     
  -3885.88410060098     
  -3523.46912543225     
  -3662.03411443090     
  -3799.33687214485     
  -3930.13597025832     
  -4049.27521002540     
  -4152.52419936217     
  -4237.09345910106     
  -4301.80225120090     
  -4346.93832419534     
  -4373.90805730463     
  -4384.78734830572     
  -4381.88675131937     
  -4367.40052556404     
  -4343.17652241663     
  -4310.59553186467     
  -4270.53449491486     
  -4223.37630641160     
  -4169.04260580893     
  -4107.03340994704     
  -4036.46981743529     
  -3956.13803514613     
  -3864.53510163528     
  -3759.91535926831     
  -3640.33694946970     
  -3429.05231824375     
  -3552.77081639789     
  -3672.88862860308     
  -3786.12272432712     
  -3889.07696979186     
  -3978.81796153620     
  -4053.26018592163     
  -4111.33292260583     
  -4152.94734057100     
  -4178.81350631775     
  -4190.17572721077     
  -4188.53119856279     
  -4175.38361262354     
  -4152.05829395076     
  -4119.58523682002     
  -4078.63927252231     
  -4029.52160065746     
  -3972.16651916842     
  -3906.16259804204     
  -3830.78160320415     
  -3745.01221055287     
  -3647.59676973268     
  -3537.07010503611     
  -3411.79941924869     
  -3335.14854153474     
  -3446.79359152805     
  -3553.30033345366     
  -3652.60380260711     
  -3742.46149589255     
  -3820.84235460490     
  -3886.20611919701     
  -3937.64845556182     
  -3974.91567365782     
  -3998.31547212977     
  -4008.56218532379     
  -4006.59735736182     
  -3993.41910545885     
  -3969.94217955517     
  -3936.89744439970     
  -3894.76978923480     
  -3843.76742657438     
  -3783.81417337299     
  -3714.55716944556     
  -3635.38471758899     
  -3545.45074511287     
  -3443.70376319688     
  -3328.91888404501     
  -3199.73187194246     
  -3244.51241678411     
  -3345.70770157800     
  -3440.85571510744     
  -3528.63259840383     
  -3607.53829239034     
  -3676.15518885371     
  -3733.34596282873     
  -3778.36977717664     
  -3810.91451271315     
  -3831.05753234315     
  -3839.17684850236     
  -3835.83741466640     
  -3821.67480043902     
  -3797.29231748585     
  -3763.18046302475     
  -3719.66104398397     
  -3666.85402159636     
  -3604.66293686063     
  -3532.77445943766     
  -3450.66819818932     
  -3357.63386836200     
  -3252.79372973483     
  -3135.12882747040     
  -3003.50796393700     
  -3158.76487011462     
  -3250.48528248943     
  -3335.71731597424     
  -3413.57558981624     
  -3483.02779031005     
  -3543.06383858834     
  -3592.83279019824     
  -3631.73100759032     
  -3659.43680020580     
  -3675.89671600844     
  -3681.27542292271     
  -3675.88412419305     
  -3660.10196032523     
  -3634.30194272959     
  -3598.78887841138     
  -3553.75275938925     
  -3499.23795892716     
  -3435.12666622795     
  -3361.13415257232     
  -3276.81339729679     
  -3181.56691657480     
  -3074.66407745776     
  -2955.26258181697     
  -2822.43313383788     
  -3078.74800857809     
  -3161.62064667624     
  -3237.89622345955     
  -3306.93910979751     
  -3368.00424364162     
  -3420.34564425978     
  -3463.30900498267     
  -3496.39583057720     
  -3519.29391285671     
  -3531.87554344693     
  -3534.16971638794     
  -3526.31717574299     
  -3508.51759859650     
  -3480.97695631996     
  -3443.86090433587     
  -3397.25761994636     
  -3341.15139566629     
  -3275.40677646064     
  -3199.76215553393     
  -3113.83138884753     
  -3017.11197840077     
  -2908.99853759038     
  -2788.80047784192     
  -2655.76308363836     
  -3004.78399455552     
  -3079.26466012263     
  -3147.26463081805     
  -3208.28291990389     
  -3261.74531792532     
  -3307.07232386203     
  -3343.74022367708     
  -3371.32604873639     
  -3389.53169812374     
  -3398.18684949521     
  -3397.23369564786     
  -3386.69864555942     
  -3366.65687038613     
  -3337.19519005578     
  -3298.37767410000     
  -3250.21690075027     
  -3192.65243360714     
  -3125.53696196516     
  -3048.62979334462     
  -2961.59696623343     
  -2864.01708813029     
  -2755.39200850241     
  -2635.16153192600     
  -2502.72151505833     
  -2936.85999092926     
  -3003.33304366012     
  -3063.58514013124     
  -3117.18185749539     
  -3163.64648888090     
  -3202.50118491918     
  -3233.30606230657     
  -3255.68957394521     
  -3269.36623404810     
  -3274.14061581214     
  -3269.89890466088     
  -3256.59090203739     
  -3234.20614718690     
  -3202.74784752373     
  -3162.20778931841     
  -3112.54458821333     
  -3053.66676120827     
  -2985.42132153841     
  -2907.58800249388     
  -2819.87882497854     
  -2721.94251194116     
  -2613.37317607383     
  -2493.72272052895     
  -2362.51646082277     
  -2874.75795399434     
  -2933.58968620401     
  -2986.54343013806     
  -3033.21289342905     
  -3073.17404435645     
  -3106.00884605258     
  -3131.32934566770     
  -3148.79735113007     
  -3158.13662807214     
  -3159.13637059762     
  -3151.64631655760     
  -3135.56507403962     
  -3110.82390921398     
  -3077.36843886714     
  -3035.14047712211     
  -2984.06184777203     
  -2924.02143373558     
  -2854.86620765760     
  -2776.39654519106     
  -2688.36579680454     
  -2590.48388548882     
  -2482.42458882049     
  -2363.83613029690     
  -2234.35472409621     
  -2818.14415027758     
  -2869.70851379443     
  -2915.77808342113     
  -2955.95462416603     
  -2989.84056177025     
  -3017.05163118687     
  -3037.23091384178     
  -3050.06092498668     
  -3055.27142987765     
  -3052.64183025457     
  -3041.99805472775     
  -3023.20475205606     
  -2996.15414392480     
  -2960.75313496832     
  -2916.91024956960     
  -2864.52374667101     
  -2803.47194299876     
  -2733.60642868626     
  -2654.74854291811     
  -2566.68922241021     
  -2469.19215303748     
  -2362.00004104813     
  -2244.84376379670     
  -2117.45414721300     
  -2766.62969889757     
  -2811.31804427138     
  -2850.90520360427     
  -2884.99201631558     
  -2913.19305950795     
  -2935.14243011853     
  -2950.50122410505     
  -2958.96440774998     
  -2960.26537338211     
  -2954.17720611395     
  -2940.51041738897     
  -2919.10751506194     
  -2889.83521259287     
  -2852.57531147656     
  -2807.21533878168     
  -2753.63992783644     
  -2691.72374713955     
  -2621.32656096310     
  -2542.29078515565     
  -2454.44171000862     
  -2357.59041209918     
  -2251.53927166371     
  -2136.08994732987     
  -2011.05362840583     
  -2719.81051104956     
  -2758.03249131332     
  -2791.53739750596     
  -2819.92260672676     
  -2842.80797052352     
  -2859.83751739067     
  -2870.68279522048     
  -2875.04628621387     
  -2872.66366786675     
  -2863.30415130243     
  -2846.76860950785     
  -2822.88563638519     
  -2791.50600217349     
  -2752.49616936268     
  -2705.73160852970     
  -2651.09062651437     
  -2588.44932055996     
  -2517.67813370468     
  -2438.64033692080     
  -2351.19262299162     
  -2255.18787845509     
  -2150.48010843681     
  -2036.93142467877     
  -1914.42096577122     
  -2677.29272912924     
  -2709.47270159004     
  -2737.29759407833     
  -2760.36229746568     
  -2778.28952158719     
  -2790.72923467510     
  -2797.35952201254     
  -2797.88781624367     
  -2792.05163868732     
  -2779.61827147651     
  -2760.38309406659     
  -2734.16661204533     
  -2700.81044335720     
  -2660.17268665341     
  -2612.12317469218     
  -2556.53912166220     
  -2493.30162406360     
  -2422.29339040590     
  -2343.39797444302     
  -2256.50068524462     
  -2161.49125554358     
  -2058.26827313023     
  -1946.74532013068     
  -1826.85872026798     
  -2638.70806789513     
  -2665.27957231962     
  -2687.82851328381     
  -2705.94996039061     
  -2719.26958513842     
  -2727.44200104771     
  -2730.15024781557     
  -2727.10573472264     
  -2718.04805407458     
  -2702.74424346730     
  -2680.98727721083     
  -2652.59376658003     
  -2617.40101808492     
  -2575.26372172180     
  -2526.05061099629     
  -2469.64145622102     
  -2405.92473119429     
  -2334.79624295912     
  -2256.15894737752     
  -2169.92410056564     
  -2076.01382591666     
  -1974.36511350443     
  -1864.93521523697     
  -1747.70835492415     
  -2603.72221090759     
  -2625.12201502313     
  -2642.79865961052     
  -2656.35063909429     
  -2665.40796078474     
  -2669.63011299683     
  -2668.70490356902     
  -2662.34773457050     
  -2650.30092163236     
  -2632.33276371058     
  -2608.23619624485     
  -2577.82699351156     
  -2540.94160472468     
  -2497.43479974178     
  -2447.17735760993     
  -2390.05405433154     
  -2325.96219944549     
  -2254.81094133459     
  -2176.52151653395     
  -2091.02856616592     
  -1998.28258895544     
  -1898.25354917908     
  -1790.93561150883     
  -1676.35293339593     
  -2572.03850846717     
  -2588.70104260732     
  -2601.90564752681     
  -2611.25742140489     
  -2616.39256725707     
  -2616.97642683340     
  -2612.70213891403     
  -2603.28965893369     
  -2588.48488989102     
  -2568.05872810548     
  -2541.80590569807     
  -2509.54359856205     
  -2471.10985010764     
  -2426.36192700910     
  -2375.17476772455     
  -2317.43970602175     
  -2253.06365178992     
  -2181.96889392457     
  -2104.09365996309     
  -2019.39352939263     
  -1927.84375643333     
  -1829.44251679182     
  -1724.21505328704     
  -1612.21865805289     
  -2543.39856938272     
  -2555.75116484331     
  -2564.87754938424     
  -2570.39218047393     
  -2571.93932562227     
  -2569.19140976303     
  -2561.84777830444     
  -2549.63372815243     
  -2532.29965634179     
  -2509.62020288554     
  -2481.39331105930     
  -2447.43918385947     
  -2407.59917007656     
  -2361.73465971313     
  -2309.72610148848     
  -2251.47227280392     
  -2186.88993505422     
  -2115.91399653340     
  -2038.49828434317     
  -1954.61699890470     
  -1864.26689288529     
  -1767.47018296079     
  -1664.27816943977     
  -1554.77550616955     
  -2517.58086955194     
  -2526.03997155855     
  -2531.47283006758     
  -2533.50542085279     
  -2531.79167957055     
  -2526.01228726587     
  -2515.87370114293     
  -2501.10735940950     
  -2481.46897881827     
  -2456.73787471114     
  -2426.71625967546     
  -2391.22851128688     
  -2350.12043511292     
  -2303.25858063715     
  -2250.52969116628     
  -2191.84038203829     
  -2127.11714414200     
  -2056.30676274919     
  -1979.37722663629     
  -1896.31918148913     
  -1807.14795668168     
  -1711.90616744611     
  -1610.66686650301     
  -1503.53719119848     
  -2494.39816442443     
  -2499.36654885136     
  -2501.47931554465     
  -2500.37546042721     
  -2495.71978351735     
  -2487.20215908564     
  -2474.53691589287     
  -2457.46230595190     
  -2435.74002722933     
  -2409.15476787298     
  -2377.51375308268     
  -2340.64629602669     
  -2298.40337664157     
  -2250.65729274851     
  -2197.30144369166     
  -2138.25031584112     
  -2073.43974111874     
  -2002.82749444826     
  -1926.39428460979     
  -1844.14517667001     
  -1756.11146433489     
  -1662.35298850286     
  -1562.96087501689     
  -1458.06064087564     
  -2473.69425256667     
  -2475.55919689441     
  -2474.71254157378     
  -2470.80715355941     
  -2463.51942771583     
  -2452.54903999328     
  -2437.61870591683     
  -2418.47395407052     
  -2394.88291095073     
  -2366.63609090259     
  -2333.54619053806     
  -2295.44789809418     
  -2252.19774150837     
  -2203.67401173156     
  -2149.77680772941     
  -2090.42825524042     
  -2025.57295193151     
  -1955.17868705363     
  -1879.23747449867     
  -1797.76692506683     
  -1710.81196768854     
  -1618.44691122645     
  -1520.77781913118     
  -1417.94514931739     
  -2455.34046673227     
  -2454.47278576334     
  -2451.01374568857     
  -2444.63032831216     
  -2435.01078196455     
  -2421.86482767215     
  -2404.92379109799     
  -2383.94068874636     
  -2358.69028463441     
  -2328.96912866772     
  -2294.59558898086     
  -2255.40989563503     
  -2211.27422021807     
  -2162.07282308588     
  -2107.71230556808     
  -2048.12200725261     
  -1983.25458778700     
  -1913.08682828930     
  -1837.62067963363     
  -1756.88457402210     
  -1670.93500299152     
  -1579.85834999615     
  -1483.77294961000     
  -1382.83132879770     
  -2439.23214762173     
  -2435.98598781191     
  -2430.24769906909     
  -2421.69807796266     
  -2410.03703802089     
  -2394.98422332679     
  -2376.27948865652     
  -2353.68328521961     
  -2326.97698035021     
  -2295.96313370267     
  -2260.46575089567     
  -2220.33053696233     
  -2175.42517502599     
  -2125.63965896623     
  -2070.88671127587     
  -2011.10231793152     
  -1946.24641033736     
  -1876.30372001542     
  -1801.28482475376     
  -1721.22739565536     
  -1636.19764336985     
  -1546.29194922989     
  -1451.63865357324     
  -1352.39995972542     
  -2425.28526995109     
  -2419.99855317938     
  -2412.30052284705     
  -2401.88501736666     
  -2388.46302266783     
  -2371.76364027534     
  -2351.53487867617     
  -2327.54431228070     
  -2299.57964329423     
  -2267.44919600603     
  -2230.98237002359     
  -2190.03007813568     
  -2144.46519489423     
  -2094.18304273633     
  -2039.10194267952     
  -1979.16385564218     
  -1914.33513781042     
  -1844.60742896812     
  -1769.99868631054     
  -1690.55436813558     
  -1606.34876223493     
  -1517.48644316251     
  -1424.10383125645     
  -1326.37081477542     
  -2413.43333054286     
  -2406.42874266254     
  -2397.07759336284     
  -2385.08558935668     
  -2370.17384263152     
  -2352.08013768532     
  -2330.55999110801     
  -2305.38754977337     
  -2276.35636654957     
  -2243.28008702151     
  -2205.99307712801     
  -2164.35101946001     
  -2118.23150469447     
  -2067.53464363443     
  -2012.18372400583     
  -1952.12593403568     
  -1887.33317155596     
  -1817.80295275257     
  -1743.55942867097     
  -1664.65451029902     
  -1581.16909467997     
  -1493.21437535097     
  -1400.93321079668     
  -1304.50151492933     
  -2403.62456672521     
  -2395.21099452063     
  -2384.50161060562     
  -2371.21248546438     
  -2355.07361145242     
  -2335.83041434540     
  -2313.24503560725     
  -2287.09743172509     
  -2257.18633102322     
  -2223.33008350603     
  -2185.36743550667     
  -2143.15825804624     
  -2096.58425550774     
  -2045.54967910407     
  -1989.98206727274     
  -1929.83303221398     
  -1865.07910804810     
  -1795.72267135068     
  -1721.79293909460     
  -1643.34704235340     
  -1560.47116665940     
  -1473.28174189142     
  -1381.92665627487     
  -1286.58646083470     
  -2395.81954521058     
  -2386.29387507957     
  -2374.51088151690     
  -2360.19522853701     
  -2343.08429811306     
  -2322.92989309720     
  -2299.49969618687     
  -2272.57853045328     
  -2241.96946217040     
  -2207.49478237658     
  -2168.99689986494     
  -2126.33917506755     
  -2079.40672139375     
  -2028.10719775572     
  -1972.37161300169     
  -1912.15515953719     
  -1847.43808936274     
  -1778.22664098095     
  -1704.55402010025     
  -1626.48143083847     
  -1544.09914733808     
  -1457.52760853537     
  -1366.91851152099     
  -1272.45587176875     
  -2389.98914309028     
  -2379.63834444490     
  -2367.05785332913     
  -2351.97895173748     
  -2334.14472820605     
  -2313.31192153749     
  -2289.25251105364     
  -2261.75509779555     
  -2230.62611718461     
  -2195.69091982433     
  -2156.79475350491     
  -2113.80367608536     
  -2066.60542568540     
  -2015.11027137130     
  -1959.25186409448     
  -1898.98810387008     
  -1834.30203493361     
  -1765.20277580771     
  -1691.72648583065     
  -1613.93736379269     
  -1531.92866800711     
  -1445.82374057588     
  -1355.77701200836     
  -1261.97495596194     
  -2386.11293091390     
  -2375.21635607804     
  -2362.10792024876     
  -2346.52339836835     
  -2328.20976080361     
  -2306.92710953026     
  -2282.45035518977     
  -2254.57067850011     
  -2223.09681617543     
  -2187.85620801173     
  -2148.69603829721     
  -2105.48420126253     
  -2058.11021686974     
  -2006.48611975842     
  -1950.54734050612     
  -1890.25359439683     
  -1825.58978852883     
  -1756.56695327314     
  -1683.22319880945     
  -1605.62469176413     
  -1523.86664095775     
  -1438.07427508900     
  -1348.40378903053     
  -1255.04322951889     
  -2384.17796103656     
  -2373.00980081077     
  -2359.63851843468     
  -2343.80215933906     
  -2325.24965787327     
  -2303.74281927484     
  -2279.05803988741     
  -2250.98780858085     
  -2219.34202928872     
  -2183.94920125547     
  -2144.65749015662     
  -2101.33571979809     
  -2053.87431061213     
  -2002.18618758446     
  -1946.20767647914     
  -1885.89940317805     
  -1821.24720653697     
  -1752.26307033660     
  -1678.98607466946     
  -1601.48336150105     
  -1519.85110327415     
  -1434.21545743227     
  -1344.73348380795     
  -1251.59399616908     
SCALARS 2waySource double 
LOOKUP_TABLE default
 -5.092295492137631E-018
  1.036170972204455E-017
  3.940852095085769E-018
 -1.486966075880357E-018
  2.184536959836523E-019
  7.576206388805224E-019
 -9.094947017729255E-020
  2.119238178167683E-019
  2.880358168211181E-018
  2.719735727411339E-020
 -1.364242052659391E-019
  0.000000000000000E+000
  0.000000000000000E+000
  3.343705285701625E-019
 -7.979949585281732E-020
  7.395619705136779E-019
 -7.572418230050369E-019
  0.000000000000000E+000
  6.323464079390609E-020
  1.523622334917342E-019
 -7.958078640513113E-020
 -2.129587620353150E-019
  1.159168325865111E-019
 -7.653455676937568E-020
 -3.429319928358369E-018
  4.147995710317163E-018
  0.000000000000000E+000
  0.000000000000000E+000
 -1.275042258063589E-019
  5.146690206685877E-018
 -2.197362304090745E-018
 -1.067023805041467E-018
 -4.791171879725069E-019
  9.273346606920898E-019
 -2.712159409901574E-019
  0.000000000000000E+000
 -1.652540320817733E-019
 -3.122306863490140E-019
  2.592497318948212E-019
  5.087632495592028E-019
 -8.541163584092296E-021
 -6.070588326742385E-020
 -1.697140218115636E-019
  2.444267011014744E-019
 -1.977276138565373E-019
  6.171152597602834E-020
  1.289179859003936E-020
 -1.333779756301837E-019
  1.818989403545857E-019
 -1.957163284393284E-019
 -3.459579217900092E-019
 -1.451926583753248E-018
  0.000000000000000E+000
  3.771575492169580E-018
 -5.035073257401355E-018
  0.000000000000000E+000
 -1.460846563212823E-018
  2.055720477344047E-018
 -1.009364151409799E-018
  0.000000000000000E+000
  8.648948044750245E-020
 -4.794960038479963E-019
  9.736256305515936E-019
 -3.039082322126077E-019
 -3.410605131648479E-020
 -4.137326055276072E-019
  2.576172623531010E-019
  2.004750808307058E-019
 -2.664571885987803E-019
 -2.801359204497379E-020
  8.322454136406095E-021
 -5.684341886080800E-020
 -2.200861655253730E-019
 -3.240453690941529E-018
  1.717050065471887E-018
  1.415371828124182E-018
 -2.955857780762014E-019
  2.063007987261892E-018
 -1.830416690337901E-018
  0.000000000000000E+000
  0.000000000000000E+000
  3.459579217900111E-019
 -9.976166517621491E-019
  0.000000000000000E+000
  0.000000000000000E+000
 -8.975284926775932E-019
 -1.237932877499379E-018
  4.001339268905507E-019
  0.000000000000000E+000
 -1.380566748076598E-019
  2.050444252843391E-019
  3.436986254151734E-019
 -3.023851173947299E-019
  9.138688907266518E-021
  8.730571521836312E-021
  1.220092918580221E-019
  1.254577785772194E-018
  1.442350475950603E-018
  0.000000000000000E+000
  7.920197052964355E-020
  3.183231456205256E-019
 -6.886509044965784E-019
  1.713464913532832E-019
  0.000000000000000E+000
  0.000000000000000E+000
  0.000000000000000E+000
  0.000000000000000E+000
  0.000000000000000E+000
  0.000000000000000E+000
  0.000000000000000E+000
  3.046229635755589E-021
  6.396925208768045E-019
  0.000000000000000E+000
  1.827737781453302E-020
 -1.697140218115635E-019
 -2.834008595331797E-019
  1.458616568347928E-019
 -9.622569467794340E-020
 -1.969113790856772E-020
 -1.136868377216159E-020
 -8.891767370312469E-019
 -6.193745561351214E-019
  4.985896164333903E-019
 -3.492228608734524E-020
  5.595142091484993E-019
  2.356523876901007E-018
  2.636718400370628E-018
 -7.880829352380781E-019
  2.391067347112857E-018
  6.630274137443057E-019
  0.000000000000000E+000
  0.000000000000000E+000
  0.000000000000000E+000
  0.000000000000000E+000
 -8.648948044750256E-020
  4.522986465738838E-019
 -3.227831353503150E-019
  0.000000000000000E+000
  4.547473508864642E-020
  3.538429570310444E-019
  4.615466902049924E-019
  2.314548492975342E-020
  0.000000000000000E+000
  0.000000000000000E+000
  1.675347786506257E-019
  1.847557620525966E-019
  1.598087003249621E-018
  1.209321760131230E-018
 -6.870184349548603E-019
 -1.626479411170081E-018
 -8.323040166604943E-019
 -1.957163284393282E-019
  3.516129621661474E-019
  1.056033937144800E-018
  2.128552676134603E-018
 -1.752089557599002E-019
 -1.077576254042768E-018
  0.000000000000000E+000
  0.000000000000000E+000
  5.018545555168308E-019
  2.708078236047270E-019
  0.000000000000000E+000
  2.467660506902125E-019
  3.793277915495363E-019
 -1.310386260414456E-019
  2.345811321471905E-019
  1.292167485619806E-019
  0.000000000000000E+000
  9.033075385325432E-019
  1.441130049452276E-018
  1.812678234826661E-018
 -2.393398845385669E-019
  4.149862591938431E-019
  5.540192752001619E-019
  5.483056318041377E-019
  0.000000000000000E+000
 -2.718720693332146E-019
 -1.391439409933506E-018
  5.219831123207707E-019
  1.283466215607913E-018
  5.407994124385930E-019
  5.503755202412323E-019
 -2.496736240921816E-020
 -6.821210263296954E-020
 -3.409511584410044E-019
 -7.683331943096288E-020
  6.127939262642781E-019
 -3.837877812793260E-019
 -2.721415304848607E-019
 -1.565234605599371E-019
 -1.428154271990373E-019
 -4.242850545289090E-020
 -7.609177532549958E-020
 -1.064480396760018E-018
 -2.038448742238110E-018
 -5.564093764928627E-019
  1.610271921792651E-018
 -9.153684515967495E-019
 -5.625604387842550E-019
  4.242850545289087E-020
 -3.258293649860702E-019
  4.023639217554467E-019
 -3.652116408032063E-019
  5.765965363166854E-020
 -3.660278755740666E-019
  5.825717895484267E-020
 -5.727848236140274E-019
  4.512930038652792E-019
  2.747796427351866E-019
 -6.304523285616218E-020
 -2.323511372822959E-019
 -5.956315458821937E-019
  0.000000000000000E+000
  1.762145984685047E-019
  1.857614047612014E-020
  4.242850545289086E-020
  1.151774790480538E-019
 -1.113274748294027E-018
 -1.814908229691548E-019
 -7.136182669057988E-019
 -1.513827517667019E-018
 -7.533950612302681E-020
 -1.255394020543050E-018
 -3.016782373477128E-019
 -8.344325081174699E-020
 -3.225487232707790E-020
  1.597270768478760E-018
  4.714215606692173E-019
 -5.710723008584026E-019
  1.900319865532473E-019
 -1.096349653772556E-019
 -7.330613938567360E-019
  2.042281905134784E-019
 -1.487985317467047E-019
  2.019981956485833E-019
 -1.924513893558867E-019
  3.708959826892870E-019
 -6.059652854358088E-020
 -4.283662283832113E-020
 -1.075943784501050E-019
  1.209963237719316E-019
 -2.994482424828214E-020
  1.348304024433599E-018
  8.033140834168558E-019
  2.719228210371745E-019
 -2.326498999438827E-019
  1.924513893558868E-019
 -4.525602564095979E-020
  7.186757819587611E-019
  2.511967389100613E-019
 -3.905578190879119E-019
 -5.045219692770982E-020
  6.663724060416453E-019
 -9.456413400165640E-019
 -8.296659044101670E-019
  9.146615715497374E-019
  5.325062598121307E-019
  4.090539063501302E-020
 -1.214117665348477E-019
 -5.793696609923925E-021
 -3.026838800563170E-019
  1.500228839029959E-019
  8.374201347333434E-020
  5.684341886080798E-021
 -1.212223585971036E-019
 -1.199980064408138E-019
 -2.125799461598267E-019
 -1.589545839665534E-018
  5.186888717273877E-019
 -4.547473508864624E-020
  3.076105901914215E-020
 -2.111368845558502E-019
 -3.532747332178122E-019
 -6.512506125867134E-019
  7.143758986567742E-019
 -1.578913337450334E-018
  5.811072777504305E-019
 -3.444055054621911E-019
  3.221563085171980E-019
  6.868797787210749E-019
 -7.780479583460525E-019
  1.845370526049110E-019
  1.271761616348293E-019
 -1.430555868407419E-020
  2.064581853783741E-019
 -3.144606812139097E-019
 -6.598210776807448E-020
 -1.132787203361859E-019
  2.609368787984637E-019
  9.008588342199667E-019
  6.732811000840155E-019
  2.221989543504952E-020
 -6.671886408125077E-019
 -9.135758756272284E-020
  2.059700147790432E-019
  7.283826946792588E-019
 -1.938141873705867E-018
 -2.127693540975719E-019
 -2.192304789037790E-018
  1.602765702427100E-019
  3.513141995045615E-019
 -2.209824535101343E-019
 -8.215914612313910E-019
 -3.782928473309885E-019
 -1.136868377216153E-020
 -1.105312533620175E-019
  1.133880750600292E-019
  2.027050756956018E-019
  1.402866696725555E-019
  2.110489800260247E-020
 -8.292577870247402E-020
  8.221889865545671E-020
 -1.420553348655957E-018
 -2.525597473001370E-019
  1.886982796731137E-019
  6.952022328574766E-019
  5.637554894306061E-019
  1.084106132209647E-019
  9.135758756272306E-020
 -2.536454432226410E-019
  5.966371885907992E-019
  2.217186350670928E-019
  1.410503721008952E-018
  1.544985762646347E-020
  7.187558351726609E-019
  7.563826878461406E-020
  9.227946177483980E-019
  9.515951430542916E-019
 -4.252106440236136E-019
  9.753010004813471E-020
  1.114997432447555E-020
 -3.463367376654985E-019
  7.207456703958537E-021
  1.394704349016944E-019
  1.598684528572796E-019
  0.000000000000000E+000
  2.786421071418029E-020
  2.889504708434363E-019
  3.202543778238322E-019
 -8.236027466485995E-019
  2.751877601206185E-019
  1.646199850588588E-018
 -3.180243829589377E-019
  1.141750083209475E-019
 -1.677827896082554E-019
 -1.068248157197759E-018
 -1.168824486881651E-018
 -7.066080694555095E-020
  2.190512213068252E-019
 -1.853532873757712E-019
 -1.049672016721640E-018
 -8.810729923425223E-019
 -2.602553746034256E-019
 -2.815789820537145E-019
 -3.948577023899005E-019
 -3.247143675536236E-019
  4.547473508864643E-020
 -2.652328364424899E-019
  1.931232203307997E-021
  8.069578383757880E-020
  4.603223380487027E-020
 -1.161208912792264E-019
 -7.840310628937218E-019
 -1.553319148208000E-018
  4.317912738944582E-019
 -4.589886311685670E-019
  7.813929506433981E-019
  4.510742944175944E-019
 -4.191103334361781E-020
  5.383800096359555E-019
 -1.523622334917346E-019
  1.758064810830749E-019
  1.084106132209652E-019
  0.000000000000000E+000
  1.735764862181797E-019
  2.989307703735444E-019
 -3.929264701865938E-019
  1.129799576745991E-019
  6.009077703828456E-019
  1.306305086560163E-019
  1.569315779453675E-019
  2.167118717180882E-019
 -7.278144708660311E-020
  5.379718922505264E-020
  9.739536947231288E-020
  6.780398524753935E-020
 -1.119596642110234E-019
  6.652574086091999E-019
 -1.010996620951527E-018
  5.581805022683653E-019
  3.269229122245012E-020
  5.237756882902945E-019
  9.642975337065855E-019
 -7.850367056023288E-019
 -2.314548492975350E-020
  4.892908210983227E-020
 -1.898132771055615E-019
 -8.069578383757907E-020
 -4.815365907751475E-019
 -2.124412899260426E-019
  3.173975561258216E-019
 -3.645047607561884E-019
 -6.175526786556581E-019
 -3.439973880767608E-019
  2.383342418299644E-019
 -4.418555522964258E-019
 -1.329991597546963E-020
 -3.258293649860719E-020
  1.125318136822184E-019
  6.643464698694678E-019
  1.075943784501051E-019
 -3.580842373131487E-019
  7.396864641702584E-021
 -1.131861613867155E-018
  4.047032713441845E-019
  8.240830659320072E-020
  7.797761837335258E-020
  8.346726677591748E-019
 -1.289179859003934E-020
  1.163249499719414E-019
 -3.756039833767047E-020
  1.065887357415007E-019
  3.645047607561885E-019
 -2.473635760133869E-019
 -5.430587088134319E-019
 -4.201238274607061E-019
  1.602765702427100E-019
  2.660490712133502E-019
  1.333779756301837E-019
  1.674840269466684E-019
  1.417004297665894E-019
  6.100464592901092E-020
  1.119691346079107E-018
  3.466355003270844E-020
  2.540828621180141E-019
 -2.927797080821496E-020
  1.423272565997065E-019
  4.494418248758689E-019
 -1.026169166110416E-019
  2.006937902783914E-019
  7.377400930342110E-019
  4.311937485712799E-019
  9.369693715146131E-020
  9.105003444815357E-019
  2.099125323995594E-019
  2.680896581405014E-019
  7.044502764885890E-019
  4.705760243884143E-019
 -1.091174932679824E-019
 -1.691164964883893E-019
  1.818989403545860E-019
 -5.643530147537792E-020
 -1.828098790943180E-019
 -1.602765702427102E-019
 -7.313488711011197E-020
 -3.750572097574915E-020
 -1.386024529199071E-018
  9.474632174960310E-019
  1.474758655266446E-018
  2.286927315683941E-019
  6.333012989437088E-019
  1.155145755030692E-018
  2.731471731934657E-019
 -9.829830289065467E-019
 -1.233064770384166E-018
  1.782551853956563E-019
  3.139432091046356E-019
 -2.444989029994491E-020
  3.949670571137431E-019
 -4.006513989998246E-019
 -1.218161686376914E-018
 -4.144394855746275E-019
  4.258081693467895E-019
  4.347427995613394E-019
 -1.256676975719230E-019
  3.426236545896768E-019
 -1.695099631188484E-019
  1.047522075070651E-019
  2.438145250233297E-019
  4.187100673666723E-020
  1.963652084076332E-018
 -6.669299047578713E-019
 -3.793678181564850E-019
 -1.005242950948549E-018
 -1.811120070936659E-019
 -9.618381042969917E-019
 -1.453136285154564E-018
  5.390068364690710E-019
  6.273181943960391E-019
 -4.288837004924847E-019
 -6.340882322046255E-019
  6.884429201459018E-019
 -2.963473354851400E-019
  1.708436699989821E-019
  4.223684730805721E-019
  2.434064076378990E-019
  4.421543149580097E-019
  3.887945446283306E-020
 -1.073502931504393E-019
 -1.551497270728530E-019
 -2.664972152057308E-019
  1.079478184736135E-019
  7.615574089388736E-022
  2.766015202146508E-020
 -1.058850732235860E-018
  2.948788980291834E-019
  9.115860404040342E-019
 -7.156549281749864E-019
 -2.923794420126436E-020
  3.939692657210670E-020
  8.551253630766809E-019
 -5.759404079736246E-019
 -2.881488868275477E-019
  1.131293390053921E-019
 -6.387669313821014E-019
 -7.215433287537798E-019
 -4.389186773845118E-019
 -6.834947598167805E-019
 -4.408499095878200E-019
 -4.126722854570807E-019
 -4.335330981600195E-019
 -6.015199464609910E-019
 -7.389644451905047E-020
 -4.993472481843659E-020
  1.161755686411477E-019
  1.034331513819017E-019
  3.035294163371199E-020
 -2.974076555556668E-020
 -4.447924272083360E-019
 -1.178834087921696E-018
 -5.653586574623825E-019
  7.493528621060430E-019
  9.856504426668127E-020
 -5.924652364255822E-019
 -1.100353648194037E-018
 -3.836677014584735E-019
 -5.773541680676592E-019
  8.557854170777014E-020
  3.778593540935794E-019
  3.843999573574719E-019
 -4.720190859923903E-020
 -1.735764862181791E-019
  3.672375769753826E-019
 -1.899226318294044E-019
  3.686659878243907E-019
  3.624241472220843E-019
  5.968558980384828E-020
  6.770928127866741E-020
  2.669053325911603E-019
 -2.599566119418390E-019
 -7.008865747435608E-020
 -7.237332970117246E-020
  9.300821276662646E-019
  4.084710317819314E-019
  8.856823634031081E-019
  2.445360558253178E-019
  7.729211151761955E-019
  1.526756469082935E-019
  8.244336321744374E-019
 -8.825668056504607E-020
  4.233340891822268E-019
  7.890085247327875E-019
  5.104757723148242E-019
  6.598210776807473E-020
  5.313766116247137E-019
 -5.543180378617504E-019
  6.057905282530397E-019
  2.185884265594750E-019
  5.957623508000512E-020
 -4.175950699342265E-019
  4.922784477141945E-021
 -9.288070238060075E-020
 -9.886380692826828E-020
  1.378926427218961E-019
 -7.216927100845760E-020
 -1.060712636322278E-020
  5.643276389017975E-019
  8.100587453734689E-019
  4.948911841125366E-019
 -5.269684254757577E-020
 -7.981472136400478E-019
 -3.586310109323625E-019
 -5.125163592419743E-019
 -4.532095853136153E-019
 -3.237887780589197E-020
  2.806826940689537E-020
  4.603770154106229E-019
 -9.054135279186265E-020
  4.005967216379012E-019
  2.221921549114541E-019
 -7.510614592036952E-020
 -1.339461994434141E-020
  4.752547235658926E-019
  1.788527107188300E-019
  2.821765073768889E-020
  1.548909910182164E-019
 -4.255640840471212E-019
 -2.047856892297026E-019
  2.156769274995425E-020
 -4.110944932772827E-020
 -9.349795362914165E-019
 -1.562527165232160E-018
 -1.073932499083845E-018
 -8.446354427532328E-020
  2.038600997349998E-019
 -2.212665654167512E-019
  4.289237270994360E-019
  3.315137068721525E-019
  4.989977338188207E-019
 -1.310933034033677E-019
 -3.497364073247640E-019
 -4.390133813533853E-019
 -4.941296267035988E-019
 -5.958902819368328E-019
 -1.963138537625032E-019
 -4.101689037825808E-019
  1.608340689589344E-019
  3.136991238049712E-019
  1.364242052659397E-019
  1.852986100138507E-019
  1.517500574135893E-019
  1.047522075070647E-019
  1.157274246487674E-020
  0.000000000000000E+000
  1.377032347841504E-019
  3.561676558648114E-019
 -4.179485099577308E-019
  4.214028569789169E-019
 -4.739356674407282E-019
 -6.700854891174650E-019
 -6.548143143317333E-019
 -3.736287989084830E-019
  3.068451071245191E-019
 -2.840130356113245E-019
  3.616625898131465E-019
  3.885465336707014E-019
 -1.144483951305544E-019
  2.537547979464851E-020
 -4.717456991827833E-019
  2.236059150054875E-019
 -6.799339318528345E-021
  1.807839429221374E-019
  2.894933188046897E-019
 -2.576719397150218E-019
 -2.254424432399226E-019
  1.497241212414082E-020
 -3.943695317905680E-020
 -4.110944932772799E-020
  3.948977289968537E-019
  1.867084444499220E-020
 -1.698380272903786E-019
 -7.590637004845076E-019
  2.312761664568019E-019
  2.344424759134004E-020
 -3.166906760788043E-019
 -7.343404233749530E-019
 -8.912759269782795E-020
  3.701891026422715E-019
 -4.316965699255835E-019
  4.142354268819138E-019
  5.192063438366611E-020
 -2.866579473006934E-020
  4.947271520267756E-019
  7.979949585281758E-020
  5.436015567746864E-019
 -3.151275346539776E-019
 -2.431076449763135E-019
 -3.343919787641833E-020
  2.562982062279402E-019
 -7.384176715712912E-020
  8.277639737168091E-020
  0.000000000000000E+000
 -3.209612578708501E-019
 -3.041523175122723E-019
  2.844358037517273E-019
  2.754171946653124E-019
 -5.678620391368872E-019
 -2.563382328348891E-019
 -3.295824746688435E-019
  3.102994541457058E-019
  3.838024320342986E-019
  8.595052995925706E-019
 -3.658405713900902E-021
 -4.077495009799404E-019
  4.425224057364901E-019
  3.377955740814080E-019
 -3.955099050749965E-019
 -4.730247287009995E-019
 -3.870380696077980E-019
 -3.542510744164745E-020
  1.109393707474471E-019
 -2.322417825584528E-019
 -8.866479795047617E-020
 -1.039906500981258E-019
  6.613148909886812E-020
  2.689859461252625E-020
  3.751519137263616E-019
  2.821218300149668E-019
 -1.840342312506073E-019
  5.028213543021922E-022
  2.421820554816082E-019
 -3.332809069896934E-019
  2.947295166983895E-019
  1.863081783804163E-020
  5.346268999531808E-019
 -1.095186778417237E-018
 -3.336890243751237E-019
  8.580222113816416E-019
 -4.761002598466901E-020
 -3.135897690811245E-019
  5.277689576147677E-020
 -5.276224500650695E-021
  2.489413681931846E-019
 -2.315349025114343E-019
  1.927101254105234E-019
  3.293637652211562E-020
 -9.698725208688187E-020
 -2.842170943040389E-020
 -1.159441712674719E-019
 -1.667224695377291E-020
  8.332442569101719E-019
  6.770928127866793E-020
  8.069578383757891E-020
 -1.864136074462980E-019
  1.472353903218776E-019
 -4.075600930421967E-020
 -4.416514936037085E-019
 -4.139366642203230E-019
  5.100676549293959E-019
  1.918938906396635E-019
 -1.889023383658293E-019
 -1.116609015494363E-019
  4.720190859923934E-020
 -3.058394644159167E-019
 -1.157274246487675E-020
  1.709930513297759E-019
  7.615574089388702E-021
 -1.254089615172867E-019
  1.892958049962898E-020
  2.505191603729863E-019
  1.059218823014341E-019
  1.036372100746170E-019
  2.329486626054679E-020
 -1.875286048787457E-020
 -9.401717819202003E-019
 -1.161355420341973E-019
 -1.386942267377837E-019
  9.418510775079252E-020
 -1.652393813268030E-019
  2.516888351673532E-019
  4.011395695991541E-019
 -3.425289506208032E-019
 -1.168277713262431E-019
 -6.085526459821754E-020
  2.582694650381954E-019
 -4.572214310510257E-019
 -1.061259409941484E-019
 -1.746368062887049E-019
  2.010325795469301E-019
  1.298689512470771E-019
 -6.202493939258663E-020
  1.422579284828129E-019
  4.694317254460245E-020
  3.431011000919987E-020
 -4.004180387971671E-020
  1.163249499719418E-019
  1.750849502810869E-020
  9.845568954283817E-021
 -3.655475562906538E-020
 -2.629881908226208E-019
  6.773476231833469E-019
 -4.176350965411760E-019
 -1.528103774841143E-019
 -1.228802039908032E-019
  1.311479807652882E-019
  9.063605676073362E-020
 -4.703787651347539E-020
  3.686659878243903E-019
 -1.166744643374861E-020
  1.218052331653071E-019
 -5.918276844954605E-020
  3.664945959793790E-020
  1.344929730626293E-020
 -3.792731141876119E-019
 -9.145229153159529E-020
  2.011272835158000E-019
 -6.121760781453638E-022
 -2.246808858309853E-019
 -1.061259409941487E-019
 -7.473269259338555E-020
 -4.329209220818705E-020
  3.220215779413741E-020
 -3.314190029032805E-019
  1.252996067934444E-019
 -3.912139474309705E-019
 -5.886681744779002E-019
  3.322752642810902E-019
 -2.358455109104324E-019
 -1.094709332914909E-019
 -3.076105901914237E-020
  1.189083848603444E-019
  4.558623483189135E-019
  4.210894435623631E-019
 -3.123253903178876E-019
 -2.552378861574125E-019
  2.370298364597729E-020
  2.108234711392915E-019
  3.562916613436264E-020
  1.157274246487679E-020
 -2.537547979464872E-020
 -4.735128993003341E-020
 -1.656348107862429E-019
 -1.142443364378396E-019
  9.196243826338315E-020
 -4.746064465387616E-021
 -6.724648653131600E-021
  1.205408544020656E-019
  3.150181799301353E-019
  4.329755994437935E-019
  4.522586199669350E-019
  3.254290989165677E-020
  3.460780016108648E-019
 -9.377699036536221E-020
  1.176039794901535E-019
  2.771990455378259E-019
 -1.588081327867550E-019
 -1.263199002570188E-019
  3.280593598509663E-019
 -4.056142100839162E-019
  4.736769313860938E-019
  6.653960648429871E-020
 -2.238392752081454E-020
  1.044534448454776E-019
 -3.720695831416191E-020
 -9.739536947231288E-020
 -7.818703961457212E-020
 -1.734197795099006E-019
 -1.000061430416778E-019
  6.445899295019686E-021
  1.487038277778334E-020
  2.039147770969188E-019
 -1.807292655602154E-019
  1.917366579929471E-020
  8.957573669020861E-020
 -2.478263707607379E-019
 -5.535564804528094E-019
 -2.885277027030356E-019
 -2.680750073855272E-019
 -1.978369685803787E-019
 -3.175069108496606E-019
 -8.675894159914681E-021
  6.293587813231919E-020
 -2.897520548593262E-019
 -8.149815298506015E-019
 -1.207449130947802E-019
  4.125883065852144E-020
 -1.032290926891862E-019
  1.268300469888056E-019
 -9.625303335890382E-020
  7.397113518444645E-020
 -5.405592527968878E-021
 -7.775158354818027E-020
 -1.931035920409814E-020
  0.000000000000000E+000
 -1.024128579183271E-019
  5.547261552471821E-019
 -5.927747241841840E-020
  6.973521745084744E-020
  5.404127452471858E-020
  3.999445189528061E-020
 -1.456029207801559E-019
  2.647700416951415E-019
  9.759942816502796E-020
  2.158009329783571E-019
 -1.599778075811226E-019
 -4.218442015322535E-020
 -1.951441789681334E-019
  1.296648925543622E-019
  1.918938906396644E-019
 -2.537547979464864E-020
 -1.960077657234316E-019
 -7.988687444420442E-020
 -1.028756526656788E-019
 -8.145734124651738E-021
 -1.487038277778333E-020
  1.372804666437502E-020
 -7.833642094536542E-020
  8.145734124651825E-021
 -2.860936491454258E-019
  1.584546927632463E-019
  2.449295224557753E-019
 -2.596031719183328E-019
 -1.047522075070651E-019
  6.475775561178397E-020
 -7.257738839388726E-020
  2.598765587279420E-020
  2.420580500027992E-020
 -4.161227068203055E-021
 -4.805816997705060E-020
  7.805767158725395E-020
  1.267826950043708E-019
  3.789196741641082E-019
  1.887529570350361E-019
  4.849362604344150E-019
  1.680415256628935E-019
  2.235658883985377E-020
 -1.583599887943731E-020
  2.169706077727249E-020
 -6.520589960416408E-021
  5.559905340104297E-020
 -5.445671728763426E-020
 -7.486206062070491E-021
 -1.529197322079571E-019
 -4.621041889212130E-019
 -3.603435336879822E-019
  3.644540090522294E-020
  3.079200779500155E-019
  2.719774983990945E-019
 -7.729611417831472E-020
 -2.289914942299828E-019
  2.086081270293653E-020
 -1.185002674749130E-019
  3.160785000006591E-019
 -2.777165176470975E-019
  8.769918184882226E-020
  1.672496148671277E-021
 -1.283058098222472E-019
 -1.340848556772006E-019
 -3.250288328470642E-021
  4.238115346845474E-020
  2.055472466386396E-020
 -1.002228896603811E-020
  3.809055837293323E-020
 -3.060435231086269E-020
 -1.136868377216158E-020
  1.319056125162600E-021
 -1.959057363770731E-019
 -5.469611998269964E-019
  2.268269018240176E-020
 -3.868340109150814E-019
  3.568384349628423E-020
  1.821977030161727E-019
 -4.071920022637134E-019
 -2.933958098182540E-019
  2.078319188654566E-019
  1.136868377216190E-020
 -2.649047722709593E-020
 -5.262751443068339E-020
 -7.790829025645966E-020
 -1.213971157798759E-019
 -6.686570782684608E-020
  3.184871777062888E-020
  1.774042865663475E-019
  9.297540634947178E-020
 -1.857267407027554E-019
 -7.843845029172299E-020
  2.953670686285156E-020
  1.317054794815125E-020
 -4.679379121380922E-020
 -3.760775032210642E-020
 -9.059603015378457E-020
 -5.476280532670683E-020
  1.523114817877617E-021
 -5.126843169857007E-021
  1.962044990386610E-019
  8.879952852629858E-021
 -4.415567896348367E-020
 -8.526512829121309E-021
  5.836653367868569E-020
  4.567879378136164E-020
  2.426048236220093E-020
  8.597200833822937E-020
 -6.587275304423134E-020
 -1.876554841386413E-021
 -5.880198974507665E-020
 -1.084853038863622E-019
 -4.049727324958255E-020
 -5.702013887256232E-020
 -2.329486626054687E-020
  2.519875978289430E-020
  2.596031719183306E-020
  6.065120590550254E-021
  5.427999727587979E-020
  2.017394595939470E-020
 -8.506106959849646E-020
  1.975782325257422E-019
  4.846628736248114E-020
 -3.187605645158971E-020
 -2.186431039213963E-019
 -3.560729518959383E-019
  4.227912412209746E-020
  1.561153431745066E-019
  1.058672049395130E-019
 -1.309585728275464E-020
 -5.359313053233786E-020
 -6.876960134919336E-020
 -2.788861924414677E-019
  7.945141837781351E-020
  7.206724166210006E-020
  7.597705805315208E-020
 -8.706699246720201E-020
 -8.730571521836264E-021
 -1.410882536884445E-020
 -1.151079231931370E-019
 -8.884151796223055E-020
 -1.487038277778334E-020
  1.334726795990545E-020
 -2.093550336833372E-020
 -8.173072805612509E-021
  3.334449390754579E-020
  0.000000000000000E+000
 -3.237887780589230E-020
 -7.560896727467288E-021
  2.684391725060510E-020
  7.411515396673795E-021
 -1.012031565170073E-019
 -1.469766542672392E-019
 -1.236817880066947E-019
  1.720240698903550E-020
  1.100831093696375E-019
  1.398238749252039E-019
 -6.506384365085647E-020
 -9.521272659185386E-020
 -1.489078864705492E-019
 -3.583322482707749E-020
 -1.106406080858612E-019
  4.869768473615628E-020
 -3.293637652211534E-020
  8.145734124651759E-021
  1.705302565824241E-020
 -1.202821183474301E-020
 -9.947598300641425E-021
 -1.932676241267478E-019
 -1.446919820404222E-019
  5.247813309988960E-020
 -5.455874663399161E-020
 -4.811284733897172E-020
  2.125506446498841E-019
  6.349337684854278E-020
 -4.527067639593076E-020
  6.232370205417387E-020
 -4.395162027076825E-020
  6.572337171343798E-020
 -2.593297851087214E-020
 -7.663658611573316E-020
 -1.362601731801747E-020
  1.735911369731496E-020
 -9.009320879948169E-021
  1.244365459765891E-021
  1.217026778805061E-021
  2.870045878851593E-020
 -7.247535904753030E-020
  2.563421584928510E-021
  4.450911898699211E-020
 -1.743380436271170E-020
 -3.542510744164746E-020
 -1.329698582447536E-019
  6.217432072338066E-020
  8.922229666670029E-020
 -5.192063438366618E-020
 -8.110390122300896E-020
 -8.374201347333350E-020
 -1.284551911530420E-019
  7.560896727467366E-021
 -7.937672771241613E-020
 -1.244980227775544E-019
 -2.141831141916067E-020
  2.121425272644565E-020
 -1.210436757563679E-019
 -2.471595173206716E-020
 -3.867539577011817E-020
 -6.062386722454204E-020
  2.679656526616871E-020
 -5.788372562785879E-020
 -7.313488711011156E-020
  3.826727838468790E-020
 -1.535319082861032E-020
 -4.746064465387596E-021
 -2.443720237395526E-020
 -1.601271889119155E-020
 -7.805767158725269E-020
  2.821765073768878E-020
  5.400124791776757E-020
  5.948153111113334E-020
 -2.806826940689540E-020
  2.613703720358724E-020
  3.126388037344441E-020
  4.187100673666712E-020
 -3.314043521483080E-020
 -2.121425272644548E-020
 -4.187100673666717E-020
  4.679379121380912E-020
 -4.569344453633194E-021
 -8.308248541075291E-020
  6.146011529887729E-020
  6.146011529887729E-020
 -1.431288406155957E-020
 -2.766015202146511E-020
 -4.301334285007544E-020
  2.575625849911795E-020
 -5.323969050882876E-020
 -2.055472466386416E-020
 -1.202821183474302E-020
 -3.126388037344479E-020
  1.346970317553461E-019
 -3.826727838468781E-020
  3.354855260026082E-020
 -3.958633450985028E-020
 -3.126388037344430E-020
  1.229749079596762E-019
 -1.684896696552723E-020
 -6.668898781509133E-020
  5.171657569095061E-020
  1.421085471520194E-020
 -9.288070238060025E-021
 -3.258293649860686E-020
 -4.242850545289054E-020
 -4.547473508864613E-020
 -2.563421584928506E-021
  2.787493581118777E-022
 -8.043704778294151E-021
  5.521827469657228E-020
  1.931035920409826E-020
 -2.121425272644550E-020
 -2.027597530575216E-020
 -1.667224695377306E-020
 -4.537270574228854E-020
 -1.847411112976252E-020
  7.070083355250140E-020
  5.136313566744192E-020
  4.603223380486990E-020
 -8.582262700743519E-020
 -6.217432072337982E-020
  1.364242052659382E-019
  5.684341886080800E-021
 -2.141831141916032E-020
 -4.547473508864600E-020
 -5.400124791776810E-020
 -2.349892495326210E-020
  0.000000000000000E+000
  0.000000000000000E+000
  0.000000000000000E+000
 -4.083069996961654E-020
 -2.207783948174204E-020
 -2.748343200971065E-020
 -4.443442832159530E-020
 -7.866984766539828E-021
 -3.230418714049497E-020
 -3.798852902657585E-020
 -2.461392238570984E-021
 -2.880248813487326E-020
 -1.563194018672216E-020
SCALARS elementIsPlast double 
LOOKUP_TABLE default
  0.000000000000000E+000
  0.000000000000000E+000
  0.000000000000000E+000
  0.000000000000000E+000
  0.000000000000000E+000
  0.000000000000000E+000
  0.000000000000000E+000
  0.000000000000000E+000
  0.000000000000000E+000
  0.000000000000000E+000
  0.000000000000000E+000
  0.000000000000000E+000
  0.000000000000000E+000
  0.000000000000000E+000
  0.000000000000000E+000
  0.000000000000000E+000
  0.000000000000000E+000
  0.000000000000000E+000
  0.000000000000000E+000
  0.000000000000000E+000
  0.000000000000000E+000
  0.000000000000000E+000
  0.000000000000000E+000
  0.000000000000000E+000
  0.000000000000000E+000
  0.000000000000000E+000
  0.000000000000000E+000
  0.000000000000000E+000
  0.000000000000000E+000
  0.000000000000000E+000
  0.000000000000000E+000
  0.000000000000000E+000
  0.000000000000000E+000
  0.000000000000000E+000
  0.000000000000000E+000
  0.000000000000000E+000
  0.000000000000000E+000
  0.000000000000000E+000
  0.000000000000000E+000
  0.000000000000000E+000
  0.000000000000000E+000
  0.000000000000000E+000
  0.000000000000000E+000
  0.000000000000000E+000
  0.000000000000000E+000
  0.000000000000000E+000
  0.000000000000000E+000
  0.000000000000000E+000
  0.000000000000000E+000
  0.000000000000000E+000
  0.000000000000000E+000
  0.000000000000000E+000
  0.000000000000000E+000
  0.000000000000000E+000
  0.000000000000000E+000
  0.000000000000000E+000
  0.000000000000000E+000
  0.000000000000000E+000
  0.000000000000000E+000
  0.000000000000000E+000
  0.000000000000000E+000
  0.000000000000000E+000
  0.000000000000000E+000
  0.000000000000000E+000
  0.000000000000000E+000
  0.000000000000000E+000
  0.000000000000000E+000
  0.000000000000000E+000
  0.000000000000000E+000
  0.000000000000000E+000
  0.000000000000000E+000
  0.000000000000000E+000
  0.000000000000000E+000
  0.000000000000000E+000
  0.000000000000000E+000
  0.000000000000000E+000
  0.000000000000000E+000
  0.000000000000000E+000
  0.000000000000000E+000
  0.000000000000000E+000
  0.000000000000000E+000
  0.000000000000000E+000
  0.000000000000000E+000
  0.000000000000000E+000
  0.000000000000000E+000
  0.000000000000000E+000
  0.000000000000000E+000
  0.000000000000000E+000
  0.000000000000000E+000
  0.000000000000000E+000
  0.000000000000000E+000
  0.000000000000000E+000
  0.000000000000000E+000
  0.000000000000000E+000
  0.000000000000000E+000
  0.000000000000000E+000
  0.000000000000000E+000
  0.000000000000000E+000
  0.000000000000000E+000
  0.000000000000000E+000
  0.000000000000000E+000
  0.000000000000000E+000
  0.000000000000000E+000
  0.000000000000000E+000
  0.000000000000000E+000
  0.000000000000000E+000
  0.000000000000000E+000
  0.000000000000000E+000
  0.000000000000000E+000
  0.000000000000000E+000
  0.000000000000000E+000
  0.000000000000000E+000
  0.000000000000000E+000
  0.000000000000000E+000
  0.000000000000000E+000
  0.000000000000000E+000
  0.000000000000000E+000
  0.000000000000000E+000
  0.000000000000000E+000
  0.000000000000000E+000
  0.000000000000000E+000
  0.000000000000000E+000
  0.000000000000000E+000
  0.000000000000000E+000
  0.000000000000000E+000
  0.000000000000000E+000
  0.000000000000000E+000
  0.000000000000000E+000
  0.000000000000000E+000
  0.000000000000000E+000
  0.000000000000000E+000
  0.000000000000000E+000
  0.000000000000000E+000
  0.000000000000000E+000
  0.000000000000000E+000
  0.000000000000000E+000
  0.000000000000000E+000
  0.000000000000000E+000
  0.000000000000000E+000
  0.000000000000000E+000
  0.000000000000000E+000
  0.000000000000000E+000
  0.000000000000000E+000
  0.000000000000000E+000
  0.000000000000000E+000
  0.000000000000000E+000
  0.000000000000000E+000
  0.000000000000000E+000
  0.000000000000000E+000
  0.000000000000000E+000
  0.000000000000000E+000
  0.000000000000000E+000
  0.000000000000000E+000
  0.000000000000000E+000
  0.000000000000000E+000
  0.000000000000000E+000
  0.000000000000000E+000
  0.000000000000000E+000
  0.000000000000000E+000
  0.000000000000000E+000
  0.000000000000000E+000
  0.000000000000000E+000
  0.000000000000000E+000
  0.000000000000000E+000
  0.000000000000000E+000
  0.000000000000000E+000
  0.000000000000000E+000
  0.000000000000000E+000
  0.000000000000000E+000
  0.000000000000000E+000
  0.000000000000000E+000
  0.000000000000000E+000
  0.000000000000000E+000
  0.000000000000000E+000
  0.000000000000000E+000
  0.000000000000000E+000
  0.000000000000000E+000
  0.000000000000000E+000
  0.000000000000000E+000
  0.000000000000000E+000
  0.000000000000000E+000
  0.000000000000000E+000
  0.000000000000000E+000
  0.000000000000000E+000
  0.000000000000000E+000
  0.000000000000000E+000
  0.000000000000000E+000
  0.000000000000000E+000
  0.000000000000000E+000
  0.000000000000000E+000
  0.000000000000000E+000
  0.000000000000000E+000
  0.000000000000000E+000
  0.000000000000000E+000
  0.000000000000000E+000
  0.000000000000000E+000
  0.000000000000000E+000
  0.000000000000000E+000
  0.000000000000000E+000
  0.000000000000000E+000
  0.000000000000000E+000
  0.000000000000000E+000
  0.000000000000000E+000
  0.000000000000000E+000
  0.000000000000000E+000
  0.000000000000000E+000
  0.000000000000000E+000
  0.000000000000000E+000
  0.000000000000000E+000
  0.000000000000000E+000
  0.000000000000000E+000
  0.000000000000000E+000
  0.000000000000000E+000
  0.000000000000000E+000
  0.000000000000000E+000
  0.000000000000000E+000
  0.000000000000000E+000
  0.000000000000000E+000
  0.000000000000000E+000
  0.000000000000000E+000
  0.000000000000000E+000
  0.000000000000000E+000
  0.000000000000000E+000
  0.000000000000000E+000
  0.000000000000000E+000
  0.000000000000000E+000
  0.000000000000000E+000
  0.000000000000000E+000
  0.000000000000000E+000
  0.000000000000000E+000
  0.000000000000000E+000
  0.000000000000000E+000
  0.000000000000000E+000
  0.000000000000000E+000
  0.000000000000000E+000
  0.000000000000000E+000
  0.000000000000000E+000
  0.000000000000000E+000
  0.000000000000000E+000
  0.000000000000000E+000
  0.000000000000000E+000
  0.000000000000000E+000
  0.000000000000000E+000
  0.000000000000000E+000
  0.000000000000000E+000
  0.000000000000000E+000
  0.000000000000000E+000
  0.000000000000000E+000
  0.000000000000000E+000
  0.000000000000000E+000
  0.000000000000000E+000
  0.000000000000000E+000
  0.000000000000000E+000
  0.000000000000000E+000
  0.000000000000000E+000
  0.000000000000000E+000
  0.000000000000000E+000
  0.000000000000000E+000
  0.000000000000000E+000
  0.000000000000000E+000
  0.000000000000000E+000
  0.000000000000000E+000
  0.000000000000000E+000
  0.000000000000000E+000
  0.000000000000000E+000
  0.000000000000000E+000
  0.000000000000000E+000
  0.000000000000000E+000
  0.000000000000000E+000
  0.000000000000000E+000
  0.000000000000000E+000
  0.000000000000000E+000
  0.000000000000000E+000
  0.000000000000000E+000
  0.000000000000000E+000
  0.000000000000000E+000
  0.000000000000000E+000
  0.000000000000000E+000
  0.000000000000000E+000
  0.000000000000000E+000
  0.000000000000000E+000
  0.000000000000000E+000
  0.000000000000000E+000
  0.000000000000000E+000
  0.000000000000000E+000
  0.000000000000000E+000
  0.000000000000000E+000
  0.000000000000000E+000
  0.000000000000000E+000
  0.000000000000000E+000
  0.000000000000000E+000
  0.000000000000000E+000
  0.000000000000000E+000
  0.000000000000000E+000
  0.000000000000000E+000
  0.000000000000000E+000
  0.000000000000000E+000
  0.000000000000000E+000
  0.000000000000000E+000
  0.000000000000000E+000
  0.000000000000000E+000
  0.000000000000000E+000
  0.000000000000000E+000
  0.000000000000000E+000
  0.000000000000000E+000
  0.000000000000000E+000
  0.000000000000000E+000
  0.000000000000000E+000
  0.000000000000000E+000
  0.000000000000000E+000
  0.000000000000000E+000
  0.000000000000000E+000
  0.000000000000000E+000
  0.000000000000000E+000
  0.000000000000000E+000
  0.000000000000000E+000
  0.000000000000000E+000
  0.000000000000000E+000
  0.000000000000000E+000
  0.000000000000000E+000
  0.000000000000000E+000
  0.000000000000000E+000
  0.000000000000000E+000
  0.000000000000000E+000
  0.000000000000000E+000
  0.000000000000000E+000
  0.000000000000000E+000
  0.000000000000000E+000
  0.000000000000000E+000
  0.000000000000000E+000
  0.000000000000000E+000
  0.000000000000000E+000
  0.000000000000000E+000
  0.000000000000000E+000
  0.000000000000000E+000
  0.000000000000000E+000
  0.000000000000000E+000
  0.000000000000000E+000
  0.000000000000000E+000
  0.000000000000000E+000
  0.000000000000000E+000
  0.000000000000000E+000
  0.000000000000000E+000
  0.000000000000000E+000
  0.000000000000000E+000
  0.000000000000000E+000
  0.000000000000000E+000
  0.000000000000000E+000
  0.000000000000000E+000
  0.000000000000000E+000
  0.000000000000000E+000
  0.000000000000000E+000
  0.000000000000000E+000
  0.000000000000000E+000
  0.000000000000000E+000
  0.000000000000000E+000
  0.000000000000000E+000
  0.000000000000000E+000
  0.000000000000000E+000
  0.000000000000000E+000
  0.000000000000000E+000
  0.000000000000000E+000
  0.000000000000000E+000
  0.000000000000000E+000
  0.000000000000000E+000
  0.000000000000000E+000
  0.000000000000000E+000
  0.000000000000000E+000
  0.000000000000000E+000
  0.000000000000000E+000
  0.000000000000000E+000
  0.000000000000000E+000
  0.000000000000000E+000
  0.000000000000000E+000
  0.000000000000000E+000
  0.000000000000000E+000
  0.000000000000000E+000
  0.000000000000000E+000
  0.000000000000000E+000
  0.000000000000000E+000
  0.000000000000000E+000
  0.000000000000000E+000
  0.000000000000000E+000
  0.000000000000000E+000
  0.000000000000000E+000
  0.000000000000000E+000
  0.000000000000000E+000
  0.000000000000000E+000
  0.000000000000000E+000
  0.000000000000000E+000
  0.000000000000000E+000
  0.000000000000000E+000
  0.000000000000000E+000
  0.000000000000000E+000
  0.000000000000000E+000
  0.000000000000000E+000
  0.000000000000000E+000
  0.000000000000000E+000
  0.000000000000000E+000
  0.000000000000000E+000
  0.000000000000000E+000
  0.000000000000000E+000
  0.000000000000000E+000
  0.000000000000000E+000
  0.000000000000000E+000
  0.000000000000000E+000
  0.000000000000000E+000
  0.000000000000000E+000
  0.000000000000000E+000
  0.000000000000000E+000
  0.000000000000000E+000
  0.000000000000000E+000
  0.000000000000000E+000
  0.000000000000000E+000
  0.000000000000000E+000
  0.000000000000000E+000
  0.000000000000000E+000
  0.000000000000000E+000
  0.000000000000000E+000
  0.000000000000000E+000
  0.000000000000000E+000
  0.000000000000000E+000
  0.000000000000000E+000
  0.000000000000000E+000
  0.000000000000000E+000
  0.000000000000000E+000
  0.000000000000000E+000
  0.000000000000000E+000
  0.000000000000000E+000
  0.000000000000000E+000
  0.000000000000000E+000
  0.000000000000000E+000
  0.000000000000000E+000
  0.000000000000000E+000
  0.000000000000000E+000
  0.000000000000000E+000
  0.000000000000000E+000
  0.000000000000000E+000
  0.000000000000000E+000
  0.000000000000000E+000
  0.000000000000000E+000
  0.000000000000000E+000
  0.000000000000000E+000
  0.000000000000000E+000
  0.000000000000000E+000
  0.000000000000000E+000
  0.000000000000000E+000
  0.000000000000000E+000
  0.000000000000000E+000
  0.000000000000000E+000
  0.000000000000000E+000
  0.000000000000000E+000
  0.000000000000000E+000
  0.000000000000000E+000
  0.000000000000000E+000
  0.000000000000000E+000
  0.000000000000000E+000
  0.000000000000000E+000
  0.000000000000000E+000
  0.000000000000000E+000
  0.000000000000000E+000
  0.000000000000000E+000
  0.000000000000000E+000
  0.000000000000000E+000
  0.000000000000000E+000
  0.000000000000000E+000
  0.000000000000000E+000
  0.000000000000000E+000
  0.000000000000000E+000
  0.000000000000000E+000
  0.000000000000000E+000
  0.000000000000000E+000
  0.000000000000000E+000
  0.000000000000000E+000
  0.000000000000000E+000
  0.000000000000000E+000
  0.000000000000000E+000
  0.000000000000000E+000
  0.000000000000000E+000
  0.000000000000000E+000
  0.000000000000000E+000
  0.000000000000000E+000
  0.000000000000000E+000
  0.000000000000000E+000
  0.000000000000000E+000
  0.000000000000000E+000
  0.000000000000000E+000
  0.000000000000000E+000
  0.000000000000000E+000
  0.000000000000000E+000
  0.000000000000000E+000
  0.000000000000000E+000
  0.000000000000000E+000
  0.000000000000000E+000
  0.000000000000000E+000
  0.000000000000000E+000
  0.000000000000000E+000
  0.000000000000000E+000
  0.000000000000000E+000
  0.000000000000000E+000
  0.000000000000000E+000
  0.000000000000000E+000
  0.000000000000000E+000
  0.000000000000000E+000
  0.000000000000000E+000
  0.000000000000000E+000
  0.000000000000000E+000
  0.000000000000000E+000
  0.000000000000000E+000
  0.000000000000000E+000
  0.000000000000000E+000
  0.000000000000000E+000
  0.000000000000000E+000
  0.000000000000000E+000
  0.000000000000000E+000
  0.000000000000000E+000
  0.000000000000000E+000
  0.000000000000000E+000
  0.000000000000000E+000
  0.000000000000000E+000
  0.000000000000000E+000
  0.000000000000000E+000
  0.000000000000000E+000
  0.000000000000000E+000
  0.000000000000000E+000
  0.000000000000000E+000
  0.000000000000000E+000
  0.000000000000000E+000
  0.000000000000000E+000
  0.000000000000000E+000
  0.000000000000000E+000
  0.000000000000000E+000
  0.000000000000000E+000
  0.000000000000000E+000
  0.000000000000000E+000
  0.000000000000000E+000
  0.000000000000000E+000
  0.000000000000000E+000
  0.000000000000000E+000
  0.000000000000000E+000
  0.000000000000000E+000
  0.000000000000000E+000
  0.000000000000000E+000
  0.000000000000000E+000
  0.000000000000000E+000
  0.000000000000000E+000
  0.000000000000000E+000
  0.000000000000000E+000
  0.000000000000000E+000
  0.000000000000000E+000
  0.000000000000000E+000
  0.000000000000000E+000
  0.000000000000000E+000
  0.000000000000000E+000
  0.000000000000000E+000
  0.000000000000000E+000
  0.000000000000000E+000
  0.000000000000000E+000
  0.000000000000000E+000
  0.000000000000000E+000
  0.000000000000000E+000
  0.000000000000000E+000
  0.000000000000000E+000
  0.000000000000000E+000
  0.000000000000000E+000
  0.000000000000000E+000
  0.000000000000000E+000
  0.000000000000000E+000
  0.000000000000000E+000
  0.000000000000000E+000
  0.000000000000000E+000
  0.000000000000000E+000
  0.000000000000000E+000
  0.000000000000000E+000
  0.000000000000000E+000
  0.000000000000000E+000
  0.000000000000000E+000
  0.000000000000000E+000
  0.000000000000000E+000
  0.000000000000000E+000
  0.000000000000000E+000
  0.000000000000000E+000
  0.000000000000000E+000
  0.000000000000000E+000
  0.000000000000000E+000
  0.000000000000000E+000
  0.000000000000000E+000
  0.000000000000000E+000
  0.000000000000000E+000
  0.000000000000000E+000
  0.000000000000000E+000
  0.000000000000000E+000
  0.000000000000000E+000
  0.000000000000000E+000
  0.000000000000000E+000
  0.000000000000000E+000
  0.000000000000000E+000
  0.000000000000000E+000
  0.000000000000000E+000
  0.000000000000000E+000
  0.000000000000000E+000
  0.000000000000000E+000
  0.000000000000000E+000
  0.000000000000000E+000
  0.000000000000000E+000
  0.000000000000000E+000
  0.000000000000000E+000
  0.000000000000000E+000
  0.000000000000000E+000
  0.000000000000000E+000
  0.000000000000000E+000
  0.000000000000000E+000
  0.000000000000000E+000
  0.000000000000000E+000
  0.000000000000000E+000
  0.000000000000000E+000
  0.000000000000000E+000
  0.000000000000000E+000
  0.000000000000000E+000
  0.000000000000000E+000
  0.000000000000000E+000
  0.000000000000000E+000
  0.000000000000000E+000
  0.000000000000000E+000
  0.000000000000000E+000
  0.000000000000000E+000
  0.000000000000000E+000
  0.000000000000000E+000
  0.000000000000000E+000
  0.000000000000000E+000
  0.000000000000000E+000
  0.000000000000000E+000
  0.000000000000000E+000
  0.000000000000000E+000
  0.000000000000000E+000
  0.000000000000000E+000
  0.000000000000000E+000
  0.000000000000000E+000
  0.000000000000000E+000
  0.000000000000000E+000
  0.000000000000000E+000
  0.000000000000000E+000
  0.000000000000000E+000
  0.000000000000000E+000
  0.000000000000000E+000
  0.000000000000000E+000
  0.000000000000000E+000
  0.000000000000000E+000
  0.000000000000000E+000
  0.000000000000000E+000
  0.000000000000000E+000
  0.000000000000000E+000
  0.000000000000000E+000
  0.000000000000000E+000
  0.000000000000000E+000
  0.000000000000000E+000
  0.000000000000000E+000
  0.000000000000000E+000
  0.000000000000000E+000
  0.000000000000000E+000
  0.000000000000000E+000
  0.000000000000000E+000
  0.000000000000000E+000
  0.000000000000000E+000
  0.000000000000000E+000
  0.000000000000000E+000
  0.000000000000000E+000
  0.000000000000000E+000
  0.000000000000000E+000
  0.000000000000000E+000
  0.000000000000000E+000
  0.000000000000000E+000
  0.000000000000000E+000
  0.000000000000000E+000
  0.000000000000000E+000
  0.000000000000000E+000
  0.000000000000000E+000
  0.000000000000000E+000
  0.000000000000000E+000
  0.000000000000000E+000
  0.000000000000000E+000
  0.000000000000000E+000
  0.000000000000000E+000
  0.000000000000000E+000
  0.000000000000000E+000
  0.000000000000000E+000
  0.000000000000000E+000
  0.000000000000000E+000
  0.000000000000000E+000
  0.000000000000000E+000
  0.000000000000000E+000
  0.000000000000000E+000
  0.000000000000000E+000
  0.000000000000000E+000
  0.000000000000000E+000
  0.000000000000000E+000
  0.000000000000000E+000
  0.000000000000000E+000
  0.000000000000000E+000
  0.000000000000000E+000
  0.000000000000000E+000
  0.000000000000000E+000
  0.000000000000000E+000
  0.000000000000000E+000
  0.000000000000000E+000
  0.000000000000000E+000
  0.000000000000000E+000
  0.000000000000000E+000
  0.000000000000000E+000
  0.000000000000000E+000
  0.000000000000000E+000
  0.000000000000000E+000
  0.000000000000000E+000
  0.000000000000000E+000
  0.000000000000000E+000
  0.000000000000000E+000
  0.000000000000000E+000
  0.000000000000000E+000
  0.000000000000000E+000
  0.000000000000000E+000
  0.000000000000000E+000
  0.000000000000000E+000
  0.000000000000000E+000
  0.000000000000000E+000
  0.000000000000000E+000
  0.000000000000000E+000
  0.000000000000000E+000
  0.000000000000000E+000
  0.000000000000000E+000
  0.000000000000000E+000
  0.000000000000000E+000
  0.000000000000000E+000
  0.000000000000000E+000
  0.000000000000000E+000
  0.000000000000000E+000
  0.000000000000000E+000
  0.000000000000000E+000
  0.000000000000000E+000
  0.000000000000000E+000
  0.000000000000000E+000
  0.000000000000000E+000
  0.000000000000000E+000
  0.000000000000000E+000
  0.000000000000000E+000
  0.000000000000000E+000
  0.000000000000000E+000
  0.000000000000000E+000
  0.000000000000000E+000
  0.000000000000000E+000
  0.000000000000000E+000
  0.000000000000000E+000
  0.000000000000000E+000
  0.000000000000000E+000
  0.000000000000000E+000
  0.000000000000000E+000
  0.000000000000000E+000
  0.000000000000000E+000
  0.000000000000000E+000
  0.000000000000000E+000
  0.000000000000000E+000
  0.000000000000000E+000
  0.000000000000000E+000
  0.000000000000000E+000
  0.000000000000000E+000
  0.000000000000000E+000
  0.000000000000000E+000
  0.000000000000000E+000
  0.000000000000000E+000
  0.000000000000000E+000
  0.000000000000000E+000
  0.000000000000000E+000
  0.000000000000000E+000
  0.000000000000000E+000
  0.000000000000000E+000
  0.000000000000000E+000
  0.000000000000000E+000
  0.000000000000000E+000
  0.000000000000000E+000
  0.000000000000000E+000
  0.000000000000000E+000
  0.000000000000000E+000
  0.000000000000000E+000
  0.000000000000000E+000
  0.000000000000000E+000
  0.000000000000000E+000
  0.000000000000000E+000
  0.000000000000000E+000
  0.000000000000000E+000
  0.000000000000000E+000
  0.000000000000000E+000
  0.000000000000000E+000
  0.000000000000000E+000
  0.000000000000000E+000
  0.000000000000000E+000
  0.000000000000000E+000
  0.000000000000000E+000
  0.000000000000000E+000
  0.000000000000000E+000
  0.000000000000000E+000
  0.000000000000000E+000
  0.000000000000000E+000
  0.000000000000000E+000
  0.000000000000000E+000
  0.000000000000000E+000
  0.000000000000000E+000
  0.000000000000000E+000
  0.000000000000000E+000
  0.000000000000000E+000
  0.000000000000000E+000
  0.000000000000000E+000
  0.000000000000000E+000
  0.000000000000000E+000
  0.000000000000000E+000
  0.000000000000000E+000
  0.000000000000000E+000
  0.000000000000000E+000
  0.000000000000000E+000
  0.000000000000000E+000
  0.000000000000000E+000
  0.000000000000000E+000
  0.000000000000000E+000
  0.000000000000000E+000
  0.000000000000000E+000
  0.000000000000000E+000
  0.000000000000000E+000
  0.000000000000000E+000
  0.000000000000000E+000
  0.000000000000000E+000
  0.000000000000000E+000
  0.000000000000000E+000
  0.000000000000000E+000
  0.000000000000000E+000
  0.000000000000000E+000
  0.000000000000000E+000
  0.000000000000000E+000
  0.000000000000000E+000
  0.000000000000000E+000
  0.000000000000000E+000
  0.000000000000000E+000
  0.000000000000000E+000
  0.000000000000000E+000
  0.000000000000000E+000
  0.000000000000000E+000
  0.000000000000000E+000
  0.000000000000000E+000
  0.000000000000000E+000
  0.000000000000000E+000
  0.000000000000000E+000
  0.000000000000000E+000
  0.000000000000000E+000
  0.000000000000000E+000
  0.000000000000000E+000
  0.000000000000000E+000
  0.000000000000000E+000
  0.000000000000000E+000
  0.000000000000000E+000
  0.000000000000000E+000
  0.000000000000000E+000
  0.000000000000000E+000
  0.000000000000000E+000
  0.000000000000000E+000
  0.000000000000000E+000
  0.000000000000000E+000
  0.000000000000000E+000
  0.000000000000000E+000
  0.000000000000000E+000
  0.000000000000000E+000
  0.000000000000000E+000
  0.000000000000000E+000
  0.000000000000000E+000
  0.000000000000000E+000
  0.000000000000000E+000
  0.000000000000000E+000
  0.000000000000000E+000
  0.000000000000000E+000
  0.000000000000000E+000
  0.000000000000000E+000
  0.000000000000000E+000
  0.000000000000000E+000
  0.000000000000000E+000
  0.000000000000000E+000
  0.000000000000000E+000
  0.000000000000000E+000
  0.000000000000000E+000
  0.000000000000000E+000
  0.000000000000000E+000
  0.000000000000000E+000
  0.000000000000000E+000
  0.000000000000000E+000
  0.000000000000000E+000
  0.000000000000000E+000
  0.000000000000000E+000
  0.000000000000000E+000
  0.000000000000000E+000
  0.000000000000000E+000
  0.000000000000000E+000
  0.000000000000000E+000
  0.000000000000000E+000
  0.000000000000000E+000
  0.000000000000000E+000
  0.000000000000000E+000
  0.000000000000000E+000
  0.000000000000000E+000
  0.000000000000000E+000
  0.000000000000000E+000
  0.000000000000000E+000
  0.000000000000000E+000
  0.000000000000000E+000
  0.000000000000000E+000
  0.000000000000000E+000
  0.000000000000000E+000
  0.000000000000000E+000
  0.000000000000000E+000
  0.000000000000000E+000
  0.000000000000000E+000
  0.000000000000000E+000
  0.000000000000000E+000
  0.000000000000000E+000
  0.000000000000000E+000
  0.000000000000000E+000
  0.000000000000000E+000
  0.000000000000000E+000
  0.000000000000000E+000
  0.000000000000000E+000
  0.000000000000000E+000
  0.000000000000000E+000
  0.000000000000000E+000
  0.000000000000000E+000
  0.000000000000000E+000
  0.000000000000000E+000
  0.000000000000000E+000
  0.000000000000000E+000
  0.000000000000000E+000
  0.000000000000000E+000
  0.000000000000000E+000
  0.000000000000000E+000
  0.000000000000000E+000
  0.000000000000000E+000
  0.000000000000000E+000
  0.000000000000000E+000
  0.000000000000000E+000
  0.000000000000000E+000
  0.000000000000000E+000
  0.000000000000000E+000
  0.000000000000000E+000
  0.000000000000000E+000
  0.000000000000000E+000
  0.000000000000000E+000
  0.000000000000000E+000
  0.000000000000000E+000
  0.000000000000000E+000
  0.000000000000000E+000
  0.000000000000000E+000
  0.000000000000000E+000
  0.000000000000000E+000
  0.000000000000000E+000
  0.000000000000000E+000
  0.000000000000000E+000
  0.000000000000000E+000
  0.000000000000000E+000
  0.000000000000000E+000
  0.000000000000000E+000
  0.000000000000000E+000
  0.000000000000000E+000
  0.000000000000000E+000
  0.000000000000000E+000
  0.000000000000000E+000
  0.000000000000000E+000
  0.000000000000000E+000
  0.000000000000000E+000
  0.000000000000000E+000
  0.000000000000000E+000
  0.000000000000000E+000
  0.000000000000000E+000
  0.000000000000000E+000
  0.000000000000000E+000
  0.000000000000000E+000
  0.000000000000000E+000
  0.000000000000000E+000
  0.000000000000000E+000
  0.000000000000000E+000
  0.000000000000000E+000
  0.000000000000000E+000
  0.000000000000000E+000
  0.000000000000000E+000
  0.000000000000000E+000
  0.000000000000000E+000
  0.000000000000000E+000
  0.000000000000000E+000
  0.000000000000000E+000
  0.000000000000000E+000
  0.000000000000000E+000
  0.000000000000000E+000
  0.000000000000000E+000
  0.000000000000000E+000
  0.000000000000000E+000
  0.000000000000000E+000
  0.000000000000000E+000
  0.000000000000000E+000
  0.000000000000000E+000
  0.000000000000000E+000
  0.000000000000000E+000
  0.000000000000000E+000
  0.000000000000000E+000
  0.000000000000000E+000
  0.000000000000000E+000
  0.000000000000000E+000
  0.000000000000000E+000
  0.000000000000000E+000
  0.000000000000000E+000
  0.000000000000000E+000
  0.000000000000000E+000
  0.000000000000000E+000
  0.000000000000000E+000
  0.000000000000000E+000
  0.000000000000000E+000
  0.000000000000000E+000
  0.000000000000000E+000
  0.000000000000000E+000
  0.000000000000000E+000
  0.000000000000000E+000
  0.000000000000000E+000
  0.000000000000000E+000
  0.000000000000000E+000
  0.000000000000000E+000
  0.000000000000000E+000
  0.000000000000000E+000
  0.000000000000000E+000
  0.000000000000000E+000
  0.000000000000000E+000
  0.000000000000000E+000
  0.000000000000000E+000
  0.000000000000000E+000
  0.000000000000000E+000
  0.000000000000000E+000
  0.000000000000000E+000
  0.000000000000000E+000
  0.000000000000000E+000
  0.000000000000000E+000
  0.000000000000000E+000
  0.000000000000000E+000
  0.000000000000000E+000
  0.000000000000000E+000
  0.000000000000000E+000
  0.000000000000000E+000
  0.000000000000000E+000
  0.000000000000000E+000
  0.000000000000000E+000
  0.000000000000000E+000
  0.000000000000000E+000
  0.000000000000000E+000
  0.000000000000000E+000
  0.000000000000000E+000
  0.000000000000000E+000
  0.000000000000000E+000
  0.000000000000000E+000
  0.000000000000000E+000
  0.000000000000000E+000
  0.000000000000000E+000
  0.000000000000000E+000
  0.000000000000000E+000
  0.000000000000000E+000
  0.000000000000000E+000
  0.000000000000000E+000
  0.000000000000000E+000
  0.000000000000000E+000
  0.000000000000000E+000
  0.000000000000000E+000
  0.000000000000000E+000
  0.000000000000000E+000
  0.000000000000000E+000
  0.000000000000000E+000
  0.000000000000000E+000
  0.000000000000000E+000
  0.000000000000000E+000
  0.000000000000000E+000
  0.000000000000000E+000
  0.000000000000000E+000
  0.000000000000000E+000
  0.000000000000000E+000
  0.000000000000000E+000
  0.000000000000000E+000
  0.000000000000000E+000
  0.000000000000000E+000
  0.000000000000000E+000
  0.000000000000000E+000
  0.000000000000000E+000
  0.000000000000000E+000
  0.000000000000000E+000
  0.000000000000000E+000
  0.000000000000000E+000
  0.000000000000000E+000
  0.000000000000000E+000
  0.000000000000000E+000
  0.000000000000000E+000
  0.000000000000000E+000
  0.000000000000000E+000
  0.000000000000000E+000
  0.000000000000000E+000
  0.000000000000000E+000
  0.000000000000000E+000
  0.000000000000000E+000
  0.000000000000000E+000
  0.000000000000000E+000
  0.000000000000000E+000
  0.000000000000000E+000
  0.000000000000000E+000
  0.000000000000000E+000
  0.000000000000000E+000
  0.000000000000000E+000
  0.000000000000000E+000
  0.000000000000000E+000
  0.000000000000000E+000
  0.000000000000000E+000
  0.000000000000000E+000
  0.000000000000000E+000
  0.000000000000000E+000
  0.000000000000000E+000
  0.000000000000000E+000
  0.000000000000000E+000
  0.000000000000000E+000
  0.000000000000000E+000
  0.000000000000000E+000
  0.000000000000000E+000
  0.000000000000000E+000
  0.000000000000000E+000
  0.000000000000000E+000
  0.000000000000000E+000
  0.000000000000000E+000
  0.000000000000000E+000
  0.000000000000000E+000
  0.000000000000000E+000
  0.000000000000000E+000
  0.000000000000000E+000
  0.000000000000000E+000
  0.000000000000000E+000
  0.000000000000000E+000
  0.000000000000000E+000
  0.000000000000000E+000
  0.000000000000000E+000
  0.000000000000000E+000
  0.000000000000000E+000
  0.000000000000000E+000
  0.000000000000000E+000
  0.000000000000000E+000
  0.000000000000000E+000
  0.000000000000000E+000
  0.000000000000000E+000
  0.000000000000000E+000
  0.000000000000000E+000
  0.000000000000000E+000
  0.000000000000000E+000
