# vtk DataFile Version 3.0
vtk output
ASCII
DATASET UNSTRUCTURED_GRID
POINTS      1225 double 
  0.00000000E+00  2.40000000E+01  0.00000000E+00
  0.00000000E+00  2.30000000E+01  0.00000000E+00
  0.00000000E+00  2.20000000E+01  0.00000000E+00
  0.00000000E+00  2.10000000E+01  0.00000000E+00
  0.00000000E+00  2.00000000E+01  0.00000000E+00
  0.00000000E+00  1.90000000E+01  0.00000000E+00
  0.00000000E+00  1.80000000E+01  0.00000000E+00
  0.00000000E+00  1.70000000E+01  0.00000000E+00
  0.00000000E+00  1.60000000E+01  0.00000000E+00
  0.00000000E+00  1.50000000E+01  0.00000000E+00
  0.00000000E+00  1.40000000E+01  0.00000000E+00
  0.00000000E+00  1.30000000E+01  0.00000000E+00
  0.00000000E+00  1.20000000E+01  0.00000000E+00
  0.00000000E+00  1.10000000E+01  0.00000000E+00
  0.00000000E+00  1.00000000E+01  0.00000000E+00
  0.00000000E+00  9.00000000E+00  0.00000000E+00
  0.00000000E+00  8.00000000E+00  0.00000000E+00
  0.00000000E+00  7.00000000E+00  0.00000000E+00
  0.00000000E+00  6.00000000E+00  0.00000000E+00
  0.00000000E+00  5.00000000E+00  0.00000000E+00
  0.00000000E+00  4.00000000E+00  0.00000000E+00
  0.00000000E+00  3.00000000E+00  0.00000000E+00
  0.00000000E+00  2.00000000E+00  0.00000000E+00
  0.00000000E+00  1.00000000E+00  0.00000000E+00
  0.00000000E+00 -2.66453526E-15  0.00000000E+00
  1.00000000E+00  2.40000000E+01  0.00000000E+00
  1.00000000E+00  2.30000000E+01  0.00000000E+00
  1.00000000E+00  2.20000000E+01  0.00000000E+00
  1.00000000E+00  2.10000000E+01  0.00000000E+00
  1.00000000E+00  2.00000000E+01  0.00000000E+00
  1.00000000E+00  1.90000000E+01  0.00000000E+00
  1.00000000E+00  1.80000000E+01  0.00000000E+00
  1.00000000E+00  1.70000000E+01  0.00000000E+00
  1.00000000E+00  1.60000000E+01  0.00000000E+00
  1.00000000E+00  1.50000000E+01  0.00000000E+00
  1.00000000E+00  1.40000000E+01  0.00000000E+00
  1.00000000E+00  1.30000000E+01  0.00000000E+00
  1.00000000E+00  1.20000000E+01  0.00000000E+00
  1.00000000E+00  1.10000000E+01  0.00000000E+00
  1.00000000E+00  1.00000000E+01  0.00000000E+00
  1.00000000E+00  9.00000000E+00  0.00000000E+00
  1.00000000E+00  8.00000000E+00  0.00000000E+00
  1.00000000E+00  7.00000000E+00  0.00000000E+00
  1.00000000E+00  6.00000000E+00  0.00000000E+00
  1.00000000E+00  5.00000000E+00  0.00000000E+00
  1.00000000E+00  4.00000000E+00  0.00000000E+00
  1.00000000E+00  3.00000000E+00  0.00000000E+00
  1.00000000E+00  2.00000000E+00  0.00000000E+00
  1.00000000E+00  1.00000000E+00  0.00000000E+00
  1.00000000E+00 -2.66453526E-15  0.00000000E+00
  2.00000000E+00  2.40000000E+01  0.00000000E+00
  2.00000000E+00  2.30000000E+01  0.00000000E+00
  2.00000000E+00  2.20000000E+01  0.00000000E+00
  2.00000000E+00  2.10000000E+01  0.00000000E+00
  2.00000000E+00  2.00000000E+01  0.00000000E+00
  2.00000000E+00  1.90000000E+01  0.00000000E+00
  2.00000000E+00  1.80000000E+01  0.00000000E+00
  2.00000000E+00  1.70000000E+01  0.00000000E+00
  2.00000000E+00  1.60000000E+01  0.00000000E+00
  2.00000000E+00  1.50000000E+01  0.00000000E+00
  2.00000000E+00  1.40000000E+01  0.00000000E+00
  2.00000000E+00  1.30000000E+01  0.00000000E+00
  2.00000000E+00  1.20000000E+01  0.00000000E+00
  2.00000000E+00  1.10000000E+01  0.00000000E+00
  2.00000000E+00  1.00000000E+01  0.00000000E+00
  2.00000000E+00  9.00000000E+00  0.00000000E+00
  2.00000000E+00  8.00000000E+00  0.00000000E+00
  2.00000000E+00  7.00000000E+00  0.00000000E+00
  2.00000000E+00  6.00000000E+00  0.00000000E+00
  2.00000000E+00  5.00000000E+00  0.00000000E+00
  2.00000000E+00  4.00000000E+00  0.00000000E+00
  2.00000000E+00  3.00000000E+00  0.00000000E+00
  2.00000000E+00  2.00000000E+00  0.00000000E+00
  2.00000000E+00  1.00000000E+00  0.00000000E+00
  2.00000000E+00 -2.66453526E-15  0.00000000E+00
  3.00000000E+00  2.40000000E+01  0.00000000E+00
  3.00000000E+00  2.30000000E+01  0.00000000E+00
  3.00000000E+00  2.20000000E+01  0.00000000E+00
  3.00000000E+00  2.10000000E+01  0.00000000E+00
  3.00000000E+00  2.00000000E+01  0.00000000E+00
  3.00000000E+00  1.90000000E+01  0.00000000E+00
  3.00000000E+00  1.80000000E+01  0.00000000E+00
  3.00000000E+00  1.70000000E+01  0.00000000E+00
  3.00000000E+00  1.60000000E+01  0.00000000E+00
  3.00000000E+00  1.50000000E+01  0.00000000E+00
  3.00000000E+00  1.40000000E+01  0.00000000E+00
  3.00000000E+00  1.30000000E+01  0.00000000E+00
  3.00000000E+00  1.20000000E+01  0.00000000E+00
  3.00000000E+00  1.10000000E+01  0.00000000E+00
  3.00000000E+00  1.00000000E+01  0.00000000E+00
  3.00000000E+00  9.00000000E+00  0.00000000E+00
  3.00000000E+00  8.00000000E+00  0.00000000E+00
  3.00000000E+00  7.00000000E+00  0.00000000E+00
  3.00000000E+00  6.00000000E+00  0.00000000E+00
  3.00000000E+00  5.00000000E+00  0.00000000E+00
  3.00000000E+00  4.00000000E+00  0.00000000E+00
  3.00000000E+00  3.00000000E+00  0.00000000E+00
  3.00000000E+00  2.00000000E+00  0.00000000E+00
  3.00000000E+00  1.00000000E+00  0.00000000E+00
  3.00000000E+00 -2.66453526E-15  0.00000000E+00
  4.00000000E+00  2.40000000E+01  0.00000000E+00
  4.00000000E+00  2.30000000E+01  0.00000000E+00
  4.00000000E+00  2.20000000E+01  0.00000000E+00
  4.00000000E+00  2.10000000E+01  0.00000000E+00
  4.00000000E+00  2.00000000E+01  0.00000000E+00
  4.00000000E+00  1.90000000E+01  0.00000000E+00
  4.00000000E+00  1.80000000E+01  0.00000000E+00
  4.00000000E+00  1.70000000E+01  0.00000000E+00
  4.00000000E+00  1.60000000E+01  0.00000000E+00
  4.00000000E+00  1.50000000E+01  0.00000000E+00
  4.00000000E+00  1.40000000E+01  0.00000000E+00
  4.00000000E+00  1.30000000E+01  0.00000000E+00
  4.00000000E+00  1.20000000E+01  0.00000000E+00
  4.00000000E+00  1.10000000E+01  0.00000000E+00
  4.00000000E+00  1.00000000E+01  0.00000000E+00
  4.00000000E+00  9.00000000E+00  0.00000000E+00
  4.00000000E+00  8.00000000E+00  0.00000000E+00
  4.00000000E+00  7.00000000E+00  0.00000000E+00
  4.00000000E+00  6.00000000E+00  0.00000000E+00
  4.00000000E+00  5.00000000E+00  0.00000000E+00
  4.00000000E+00  4.00000000E+00  0.00000000E+00
  4.00000000E+00  3.00000000E+00  0.00000000E+00
  4.00000000E+00  2.00000000E+00  0.00000000E+00
  4.00000000E+00  1.00000000E+00  0.00000000E+00
  4.00000000E+00 -2.66453526E-15  0.00000000E+00
  5.00000000E+00  2.40000000E+01  0.00000000E+00
  5.00000000E+00  2.30000000E+01  0.00000000E+00
  5.00000000E+00  2.20000000E+01  0.00000000E+00
  5.00000000E+00  2.10000000E+01  0.00000000E+00
  5.00000000E+00  2.00000000E+01  0.00000000E+00
  5.00000000E+00  1.90000000E+01  0.00000000E+00
  5.00000000E+00  1.80000000E+01  0.00000000E+00
  5.00000000E+00  1.70000000E+01  0.00000000E+00
  5.00000000E+00  1.60000000E+01  0.00000000E+00
  5.00000000E+00  1.50000000E+01  0.00000000E+00
  5.00000000E+00  1.40000000E+01  0.00000000E+00
  5.00000000E+00  1.30000000E+01  0.00000000E+00
  5.00000000E+00  1.20000000E+01  0.00000000E+00
  5.00000000E+00  1.10000000E+01  0.00000000E+00
  5.00000000E+00  1.00000000E+01  0.00000000E+00
  5.00000000E+00  9.00000000E+00  0.00000000E+00
  5.00000000E+00  8.00000000E+00  0.00000000E+00
  5.00000000E+00  7.00000000E+00  0.00000000E+00
  5.00000000E+00  6.00000000E+00  0.00000000E+00
  5.00000000E+00  5.00000000E+00  0.00000000E+00
  5.00000000E+00  4.00000000E+00  0.00000000E+00
  5.00000000E+00  3.00000000E+00  0.00000000E+00
  5.00000000E+00  2.00000000E+00  0.00000000E+00
  5.00000000E+00  1.00000000E+00  0.00000000E+00
  5.00000000E+00 -2.66453526E-15  0.00000000E+00
  6.00000000E+00  2.40000000E+01  0.00000000E+00
  6.00000000E+00  2.30000000E+01  0.00000000E+00
  6.00000000E+00  2.20000000E+01  0.00000000E+00
  6.00000000E+00  2.10000000E+01  0.00000000E+00
  6.00000000E+00  2.00000000E+01  0.00000000E+00
  6.00000000E+00  1.90000000E+01  0.00000000E+00
  6.00000000E+00  1.80000000E+01  0.00000000E+00
  6.00000000E+00  1.70000000E+01  0.00000000E+00
  6.00000000E+00  1.60000000E+01  0.00000000E+00
  6.00000000E+00  1.50000000E+01  0.00000000E+00
  6.00000000E+00  1.40000000E+01  0.00000000E+00
  6.00000000E+00  1.30000000E+01  0.00000000E+00
  6.00000000E+00  1.20000000E+01  0.00000000E+00
  6.00000000E+00  1.10000000E+01  0.00000000E+00
  6.00000000E+00  1.00000000E+01  0.00000000E+00
  6.00000000E+00  9.00000000E+00  0.00000000E+00
  6.00000000E+00  8.00000000E+00  0.00000000E+00
  6.00000000E+00  7.00000000E+00  0.00000000E+00
  6.00000000E+00  6.00000000E+00  0.00000000E+00
  6.00000000E+00  5.00000000E+00  0.00000000E+00
  6.00000000E+00  4.00000000E+00  0.00000000E+00
  6.00000000E+00  3.00000000E+00  0.00000000E+00
  6.00000000E+00  2.00000000E+00  0.00000000E+00
  6.00000000E+00  1.00000000E+00  0.00000000E+00
  6.00000000E+00 -2.66453526E-15  0.00000000E+00
  7.00000000E+00  2.40000000E+01  0.00000000E+00
  7.00000000E+00  2.30000000E+01  0.00000000E+00
  7.00000000E+00  2.20000000E+01  0.00000000E+00
  7.00000000E+00  2.10000000E+01  0.00000000E+00
  7.00000000E+00  2.00000000E+01  0.00000000E+00
  7.00000000E+00  1.90000000E+01  0.00000000E+00
  7.00000000E+00  1.80000000E+01  0.00000000E+00
  7.00000000E+00  1.70000000E+01  0.00000000E+00
  7.00000000E+00  1.60000000E+01  0.00000000E+00
  7.00000000E+00  1.50000000E+01  0.00000000E+00
  7.00000000E+00  1.40000000E+01  0.00000000E+00
  7.00000000E+00  1.30000000E+01  0.00000000E+00
  7.00000000E+00  1.20000000E+01  0.00000000E+00
  7.00000000E+00  1.10000000E+01  0.00000000E+00
  7.00000000E+00  1.00000000E+01  0.00000000E+00
  7.00000000E+00  9.00000000E+00  0.00000000E+00
  7.00000000E+00  8.00000000E+00  0.00000000E+00
  7.00000000E+00  7.00000000E+00  0.00000000E+00
  7.00000000E+00  6.00000000E+00  0.00000000E+00
  7.00000000E+00  5.00000000E+00  0.00000000E+00
  7.00000000E+00  4.00000000E+00  0.00000000E+00
  7.00000000E+00  3.00000000E+00  0.00000000E+00
  7.00000000E+00  2.00000000E+00  0.00000000E+00
  7.00000000E+00  1.00000000E+00  0.00000000E+00
  7.00000000E+00 -2.66453526E-15  0.00000000E+00
  8.00000000E+00  2.40000000E+01  0.00000000E+00
  8.00000000E+00  2.30000000E+01  0.00000000E+00
  8.00000000E+00  2.20000000E+01  0.00000000E+00
  8.00000000E+00  2.10000000E+01  0.00000000E+00
  8.00000000E+00  2.00000000E+01  0.00000000E+00
  8.00000000E+00  1.90000000E+01  0.00000000E+00
  8.00000000E+00  1.80000000E+01  0.00000000E+00
  8.00000000E+00  1.70000000E+01  0.00000000E+00
  8.00000000E+00  1.60000000E+01  0.00000000E+00
  8.00000000E+00  1.50000000E+01  0.00000000E+00
  8.00000000E+00  1.40000000E+01  0.00000000E+00
  8.00000000E+00  1.30000000E+01  0.00000000E+00
  8.00000000E+00  1.20000000E+01  0.00000000E+00
  8.00000000E+00  1.10000000E+01  0.00000000E+00
  8.00000000E+00  1.00000000E+01  0.00000000E+00
  8.00000000E+00  9.00000000E+00  0.00000000E+00
  8.00000000E+00  8.00000000E+00  0.00000000E+00
  8.00000000E+00  7.00000000E+00  0.00000000E+00
  8.00000000E+00  6.00000000E+00  0.00000000E+00
  8.00000000E+00  5.00000000E+00  0.00000000E+00
  8.00000000E+00  4.00000000E+00  0.00000000E+00
  8.00000000E+00  3.00000000E+00  0.00000000E+00
  8.00000000E+00  2.00000000E+00  0.00000000E+00
  8.00000000E+00  1.00000000E+00  0.00000000E+00
  8.00000000E+00 -2.66453526E-15  0.00000000E+00
  9.00000000E+00  2.40000000E+01  0.00000000E+00
  9.00000000E+00  2.30000000E+01  0.00000000E+00
  9.00000000E+00  2.20000000E+01  0.00000000E+00
  9.00000000E+00  2.10000000E+01  0.00000000E+00
  9.00000000E+00  2.00000000E+01  0.00000000E+00
  9.00000000E+00  1.90000000E+01  0.00000000E+00
  9.00000000E+00  1.80000000E+01  0.00000000E+00
  9.00000000E+00  1.70000000E+01  0.00000000E+00
  9.00000000E+00  1.60000000E+01  0.00000000E+00
  9.00000000E+00  1.50000000E+01  0.00000000E+00
  9.00000000E+00  1.40000000E+01  0.00000000E+00
  9.00000000E+00  1.30000000E+01  0.00000000E+00
  9.00000000E+00  1.20000000E+01  0.00000000E+00
  9.00000000E+00  1.10000000E+01  0.00000000E+00
  9.00000000E+00  1.00000000E+01  0.00000000E+00
  9.00000000E+00  9.00000000E+00  0.00000000E+00
  9.00000000E+00  8.00000000E+00  0.00000000E+00
  9.00000000E+00  7.00000000E+00  0.00000000E+00
  9.00000000E+00  6.00000000E+00  0.00000000E+00
  9.00000000E+00  5.00000000E+00  0.00000000E+00
  9.00000000E+00  4.00000000E+00  0.00000000E+00
  9.00000000E+00  3.00000000E+00  0.00000000E+00
  9.00000000E+00  2.00000000E+00  0.00000000E+00
  9.00000000E+00  1.00000000E+00  0.00000000E+00
  9.00000000E+00 -2.66453526E-15  0.00000000E+00
  1.00000000E+01  2.40000000E+01  0.00000000E+00
  1.00000000E+01  2.30000000E+01  0.00000000E+00
  1.00000000E+01  2.20000000E+01  0.00000000E+00
  1.00000000E+01  2.10000000E+01  0.00000000E+00
  1.00000000E+01  2.00000000E+01  0.00000000E+00
  1.00000000E+01  1.90000000E+01  0.00000000E+00
  1.00000000E+01  1.80000000E+01  0.00000000E+00
  1.00000000E+01  1.70000000E+01  0.00000000E+00
  1.00000000E+01  1.60000000E+01  0.00000000E+00
  1.00000000E+01  1.50000000E+01  0.00000000E+00
  1.00000000E+01  1.40000000E+01  0.00000000E+00
  1.00000000E+01  1.30000000E+01  0.00000000E+00
  1.00000000E+01  1.20000000E+01  0.00000000E+00
  1.00000000E+01  1.10000000E+01  0.00000000E+00
  1.00000000E+01  1.00000000E+01  0.00000000E+00
  1.00000000E+01  9.00000000E+00  0.00000000E+00
  1.00000000E+01  8.00000000E+00  0.00000000E+00
  1.00000000E+01  7.00000000E+00  0.00000000E+00
  1.00000000E+01  6.00000000E+00  0.00000000E+00
  1.00000000E+01  5.00000000E+00  0.00000000E+00
  1.00000000E+01  4.00000000E+00  0.00000000E+00
  1.00000000E+01  3.00000000E+00  0.00000000E+00
  1.00000000E+01  2.00000000E+00  0.00000000E+00
  1.00000000E+01  1.00000000E+00  0.00000000E+00
  1.00000000E+01 -2.66453526E-15  0.00000000E+00
  1.10000000E+01  2.40000000E+01  0.00000000E+00
  1.10000000E+01  2.30000000E+01  0.00000000E+00
  1.10000000E+01  2.20000000E+01  0.00000000E+00
  1.10000000E+01  2.10000000E+01  0.00000000E+00
  1.10000000E+01  2.00000000E+01  0.00000000E+00
  1.10000000E+01  1.90000000E+01  0.00000000E+00
  1.10000000E+01  1.80000000E+01  0.00000000E+00
  1.10000000E+01  1.70000000E+01  0.00000000E+00
  1.10000000E+01  1.60000000E+01  0.00000000E+00
  1.10000000E+01  1.50000000E+01  0.00000000E+00
  1.10000000E+01  1.40000000E+01  0.00000000E+00
  1.10000000E+01  1.30000000E+01  0.00000000E+00
  1.10000000E+01  1.20000000E+01  0.00000000E+00
  1.10000000E+01  1.10000000E+01  0.00000000E+00
  1.10000000E+01  1.00000000E+01  0.00000000E+00
  1.10000000E+01  9.00000000E+00  0.00000000E+00
  1.10000000E+01  8.00000000E+00  0.00000000E+00
  1.10000000E+01  7.00000000E+00  0.00000000E+00
  1.10000000E+01  6.00000000E+00  0.00000000E+00
  1.10000000E+01  5.00000000E+00  0.00000000E+00
  1.10000000E+01  4.00000000E+00  0.00000000E+00
  1.10000000E+01  3.00000000E+00  0.00000000E+00
  1.10000000E+01  2.00000000E+00  0.00000000E+00
  1.10000000E+01  1.00000000E+00  0.00000000E+00
  1.10000000E+01 -2.66453526E-15  0.00000000E+00
  1.20000000E+01  2.40000000E+01  0.00000000E+00
  1.20000000E+01  2.30000000E+01  0.00000000E+00
  1.20000000E+01  2.20000000E+01  0.00000000E+00
  1.20000000E+01  2.10000000E+01  0.00000000E+00
  1.20000000E+01  2.00000000E+01  0.00000000E+00
  1.20000000E+01  1.90000000E+01  0.00000000E+00
  1.20000000E+01  1.80000000E+01  0.00000000E+00
  1.20000000E+01  1.70000000E+01  0.00000000E+00
  1.20000000E+01  1.60000000E+01  0.00000000E+00
  1.20000000E+01  1.50000000E+01  0.00000000E+00
  1.20000000E+01  1.40000000E+01  0.00000000E+00
  1.20000000E+01  1.30000000E+01  0.00000000E+00
  1.20000000E+01  1.20000000E+01  0.00000000E+00
  1.20000000E+01  1.10000000E+01  0.00000000E+00
  1.20000000E+01  1.00000000E+01  0.00000000E+00
  1.20000000E+01  9.00000000E+00  0.00000000E+00
  1.20000000E+01  8.00000000E+00  0.00000000E+00
  1.20000000E+01  7.00000000E+00  0.00000000E+00
  1.20000000E+01  6.00000000E+00  0.00000000E+00
  1.20000000E+01  5.00000000E+00  0.00000000E+00
  1.20000000E+01  4.00000000E+00  0.00000000E+00
  1.20000000E+01  3.00000000E+00  0.00000000E+00
  1.20000000E+01  2.00000000E+00  0.00000000E+00
  1.20000000E+01  1.00000000E+00  0.00000000E+00
  1.20000000E+01 -2.66453526E-15  0.00000000E+00
  1.30000000E+01  2.40000000E+01  0.00000000E+00
  1.30000000E+01  2.30000000E+01  0.00000000E+00
  1.30000000E+01  2.20000000E+01  0.00000000E+00
  1.30000000E+01  2.10000000E+01  0.00000000E+00
  1.30000000E+01  2.00000000E+01  0.00000000E+00
  1.30000000E+01  1.90000000E+01  0.00000000E+00
  1.30000000E+01  1.80000000E+01  0.00000000E+00
  1.30000000E+01  1.70000000E+01  0.00000000E+00
  1.30000000E+01  1.60000000E+01  0.00000000E+00
  1.30000000E+01  1.50000000E+01  0.00000000E+00
  1.30000000E+01  1.40000000E+01  0.00000000E+00
  1.30000000E+01  1.30000000E+01  0.00000000E+00
  1.30000000E+01  1.20000000E+01  0.00000000E+00
  1.30000000E+01  1.10000000E+01  0.00000000E+00
  1.30000000E+01  1.00000000E+01  0.00000000E+00
  1.30000000E+01  9.00000000E+00  0.00000000E+00
  1.30000000E+01  8.00000000E+00  0.00000000E+00
  1.30000000E+01  7.00000000E+00  0.00000000E+00
  1.30000000E+01  6.00000000E+00  0.00000000E+00
  1.30000000E+01  5.00000000E+00  0.00000000E+00
  1.30000000E+01  4.00000000E+00  0.00000000E+00
  1.30000000E+01  3.00000000E+00  0.00000000E+00
  1.30000000E+01  2.00000000E+00  0.00000000E+00
  1.30000000E+01  1.00000000E+00  0.00000000E+00
  1.30000000E+01 -2.66453526E-15  0.00000000E+00
  1.40000000E+01  2.40000000E+01  0.00000000E+00
  1.40000000E+01  2.30000000E+01  0.00000000E+00
  1.40000000E+01  2.20000000E+01  0.00000000E+00
  1.40000000E+01  2.10000000E+01  0.00000000E+00
  1.40000000E+01  2.00000000E+01  0.00000000E+00
  1.40000000E+01  1.90000000E+01  0.00000000E+00
  1.40000000E+01  1.80000000E+01  0.00000000E+00
  1.40000000E+01  1.70000000E+01  0.00000000E+00
  1.40000000E+01  1.60000000E+01  0.00000000E+00
  1.40000000E+01  1.50000000E+01  0.00000000E+00
  1.40000000E+01  1.40000000E+01  0.00000000E+00
  1.40000000E+01  1.30000000E+01  0.00000000E+00
  1.40000000E+01  1.20000000E+01  0.00000000E+00
  1.40000000E+01  1.10000000E+01  0.00000000E+00
  1.40000000E+01  1.00000000E+01  0.00000000E+00
  1.40000000E+01  9.00000000E+00  0.00000000E+00
  1.40000000E+01  8.00000000E+00  0.00000000E+00
  1.40000000E+01  7.00000000E+00  0.00000000E+00
  1.40000000E+01  6.00000000E+00  0.00000000E+00
  1.40000000E+01  5.00000000E+00  0.00000000E+00
  1.40000000E+01  4.00000000E+00  0.00000000E+00
  1.40000000E+01  3.00000000E+00  0.00000000E+00
  1.40000000E+01  2.00000000E+00  0.00000000E+00
  1.40000000E+01  1.00000000E+00  0.00000000E+00
  1.40000000E+01 -2.66453526E-15  0.00000000E+00
  1.50000000E+01  2.40000000E+01  0.00000000E+00
  1.50000000E+01  2.30000000E+01  0.00000000E+00
  1.50000000E+01  2.20000000E+01  0.00000000E+00
  1.50000000E+01  2.10000000E+01  0.00000000E+00
  1.50000000E+01  2.00000000E+01  0.00000000E+00
  1.50000000E+01  1.90000000E+01  0.00000000E+00
  1.50000000E+01  1.80000000E+01  0.00000000E+00
  1.50000000E+01  1.70000000E+01  0.00000000E+00
  1.50000000E+01  1.60000000E+01  0.00000000E+00
  1.50000000E+01  1.50000000E+01  0.00000000E+00
  1.50000000E+01  1.40000000E+01  0.00000000E+00
  1.50000000E+01  1.30000000E+01  0.00000000E+00
  1.50000000E+01  1.20000000E+01  0.00000000E+00
  1.50000000E+01  1.10000000E+01  0.00000000E+00
  1.50000000E+01  1.00000000E+01  0.00000000E+00
  1.50000000E+01  9.00000000E+00  0.00000000E+00
  1.50000000E+01  8.00000000E+00  0.00000000E+00
  1.50000000E+01  7.00000000E+00  0.00000000E+00
  1.50000000E+01  6.00000000E+00  0.00000000E+00
  1.50000000E+01  5.00000000E+00  0.00000000E+00
  1.50000000E+01  4.00000000E+00  0.00000000E+00
  1.50000000E+01  3.00000000E+00  0.00000000E+00
  1.50000000E+01  2.00000000E+00  0.00000000E+00
  1.50000000E+01  1.00000000E+00  0.00000000E+00
  1.50000000E+01 -2.66453526E-15  0.00000000E+00
  1.60000000E+01  2.40000000E+01  0.00000000E+00
  1.60000000E+01  2.30000000E+01  0.00000000E+00
  1.60000000E+01  2.20000000E+01  0.00000000E+00
  1.60000000E+01  2.10000000E+01  0.00000000E+00
  1.60000000E+01  2.00000000E+01  0.00000000E+00
  1.60000000E+01  1.90000000E+01  0.00000000E+00
  1.60000000E+01  1.80000000E+01  0.00000000E+00
  1.60000000E+01  1.70000000E+01  0.00000000E+00
  1.60000000E+01  1.60000000E+01  0.00000000E+00
  1.60000000E+01  1.50000000E+01  0.00000000E+00
  1.60000000E+01  1.40000000E+01  0.00000000E+00
  1.60000000E+01  1.30000000E+01  0.00000000E+00
  1.60000000E+01  1.20000000E+01  0.00000000E+00
  1.60000000E+01  1.10000000E+01  0.00000000E+00
  1.60000000E+01  1.00000000E+01  0.00000000E+00
  1.60000000E+01  9.00000000E+00  0.00000000E+00
  1.60000000E+01  8.00000000E+00  0.00000000E+00
  1.60000000E+01  7.00000000E+00  0.00000000E+00
  1.60000000E+01  6.00000000E+00  0.00000000E+00
  1.60000000E+01  5.00000000E+00  0.00000000E+00
  1.60000000E+01  4.00000000E+00  0.00000000E+00
  1.60000000E+01  3.00000000E+00  0.00000000E+00
  1.60000000E+01  2.00000000E+00  0.00000000E+00
  1.60000000E+01  1.00000000E+00  0.00000000E+00
  1.60000000E+01 -2.66453526E-15  0.00000000E+00
  1.70000000E+01  2.40000000E+01  0.00000000E+00
  1.70000000E+01  2.30000000E+01  0.00000000E+00
  1.70000000E+01  2.20000000E+01  0.00000000E+00
  1.70000000E+01  2.10000000E+01  0.00000000E+00
  1.70000000E+01  2.00000000E+01  0.00000000E+00
  1.70000000E+01  1.90000000E+01  0.00000000E+00
  1.70000000E+01  1.80000000E+01  0.00000000E+00
  1.70000000E+01  1.70000000E+01  0.00000000E+00
  1.70000000E+01  1.60000000E+01  0.00000000E+00
  1.70000000E+01  1.50000000E+01  0.00000000E+00
  1.70000000E+01  1.40000000E+01  0.00000000E+00
  1.70000000E+01  1.30000000E+01  0.00000000E+00
  1.70000000E+01  1.20000000E+01  0.00000000E+00
  1.70000000E+01  1.10000000E+01  0.00000000E+00
  1.70000000E+01  1.00000000E+01  0.00000000E+00
  1.70000000E+01  9.00000000E+00  0.00000000E+00
  1.70000000E+01  8.00000000E+00  0.00000000E+00
  1.70000000E+01  7.00000000E+00  0.00000000E+00
  1.70000000E+01  6.00000000E+00  0.00000000E+00
  1.70000000E+01  5.00000000E+00  0.00000000E+00
  1.70000000E+01  4.00000000E+00  0.00000000E+00
  1.70000000E+01  3.00000000E+00  0.00000000E+00
  1.70000000E+01  2.00000000E+00  0.00000000E+00
  1.70000000E+01  1.00000000E+00  0.00000000E+00
  1.70000000E+01 -2.66453526E-15  0.00000000E+00
  1.80000000E+01  2.40000000E+01  0.00000000E+00
  1.80000000E+01  2.30000000E+01  0.00000000E+00
  1.80000000E+01  2.20000000E+01  0.00000000E+00
  1.80000000E+01  2.10000000E+01  0.00000000E+00
  1.80000000E+01  2.00000000E+01  0.00000000E+00
  1.80000000E+01  1.90000000E+01  0.00000000E+00
  1.80000000E+01  1.80000000E+01  0.00000000E+00
  1.80000000E+01  1.70000000E+01  0.00000000E+00
  1.80000000E+01  1.60000000E+01  0.00000000E+00
  1.80000000E+01  1.50000000E+01  0.00000000E+00
  1.80000000E+01  1.40000000E+01  0.00000000E+00
  1.80000000E+01  1.30000000E+01  0.00000000E+00
  1.80000000E+01  1.20000000E+01  0.00000000E+00
  1.80000000E+01  1.10000000E+01  0.00000000E+00
  1.80000000E+01  1.00000000E+01  0.00000000E+00
  1.80000000E+01  9.00000000E+00  0.00000000E+00
  1.80000000E+01  8.00000000E+00  0.00000000E+00
  1.80000000E+01  7.00000000E+00  0.00000000E+00
  1.80000000E+01  6.00000000E+00  0.00000000E+00
  1.80000000E+01  5.00000000E+00  0.00000000E+00
  1.80000000E+01  4.00000000E+00  0.00000000E+00
  1.80000000E+01  3.00000000E+00  0.00000000E+00
  1.80000000E+01  2.00000000E+00  0.00000000E+00
  1.80000000E+01  1.00000000E+00  0.00000000E+00
  1.80000000E+01 -2.66453526E-15  0.00000000E+00
  1.90000000E+01  2.40000000E+01  0.00000000E+00
  1.90000000E+01  2.30000000E+01  0.00000000E+00
  1.90000000E+01  2.20000000E+01  0.00000000E+00
  1.90000000E+01  2.10000000E+01  0.00000000E+00
  1.90000000E+01  2.00000000E+01  0.00000000E+00
  1.90000000E+01  1.90000000E+01  0.00000000E+00
  1.90000000E+01  1.80000000E+01  0.00000000E+00
  1.90000000E+01  1.70000000E+01  0.00000000E+00
  1.90000000E+01  1.60000000E+01  0.00000000E+00
  1.90000000E+01  1.50000000E+01  0.00000000E+00
  1.90000000E+01  1.40000000E+01  0.00000000E+00
  1.90000000E+01  1.30000000E+01  0.00000000E+00
  1.90000000E+01  1.20000000E+01  0.00000000E+00
  1.90000000E+01  1.10000000E+01  0.00000000E+00
  1.90000000E+01  1.00000000E+01  0.00000000E+00
  1.90000000E+01  9.00000000E+00  0.00000000E+00
  1.90000000E+01  8.00000000E+00  0.00000000E+00
  1.90000000E+01  7.00000000E+00  0.00000000E+00
  1.90000000E+01  6.00000000E+00  0.00000000E+00
  1.90000000E+01  5.00000000E+00  0.00000000E+00
  1.90000000E+01  4.00000000E+00  0.00000000E+00
  1.90000000E+01  3.00000000E+00  0.00000000E+00
  1.90000000E+01  2.00000000E+00  0.00000000E+00
  1.90000000E+01  1.00000000E+00  0.00000000E+00
  1.90000000E+01 -2.66453526E-15  0.00000000E+00
  2.00000000E+01  2.40000000E+01  0.00000000E+00
  2.00000000E+01  2.30000000E+01  0.00000000E+00
  2.00000000E+01  2.20000000E+01  0.00000000E+00
  2.00000000E+01  2.10000000E+01  0.00000000E+00
  2.00000000E+01  2.00000000E+01  0.00000000E+00
  2.00000000E+01  1.90000000E+01  0.00000000E+00
  2.00000000E+01  1.80000000E+01  0.00000000E+00
  2.00000000E+01  1.70000000E+01  0.00000000E+00
  2.00000000E+01  1.60000000E+01  0.00000000E+00
  2.00000000E+01  1.50000000E+01  0.00000000E+00
  2.00000000E+01  1.40000000E+01  0.00000000E+00
  2.00000000E+01  1.30000000E+01  0.00000000E+00
  2.00000000E+01  1.20000000E+01  0.00000000E+00
  2.00000000E+01  1.10000000E+01  0.00000000E+00
  2.00000000E+01  1.00000000E+01  0.00000000E+00
  2.00000000E+01  9.00000000E+00  0.00000000E+00
  2.00000000E+01  8.00000000E+00  0.00000000E+00
  2.00000000E+01  7.00000000E+00  0.00000000E+00
  2.00000000E+01  6.00000000E+00  0.00000000E+00
  2.00000000E+01  5.00000000E+00  0.00000000E+00
  2.00000000E+01  4.00000000E+00  0.00000000E+00
  2.00000000E+01  3.00000000E+00  0.00000000E+00
  2.00000000E+01  2.00000000E+00  0.00000000E+00
  2.00000000E+01  1.00000000E+00  0.00000000E+00
  2.00000000E+01 -2.66453526E-15  0.00000000E+00
  2.10000000E+01  2.40000000E+01  0.00000000E+00
  2.10000000E+01  2.30000000E+01  0.00000000E+00
  2.10000000E+01  2.20000000E+01  0.00000000E+00
  2.10000000E+01  2.10000000E+01  0.00000000E+00
  2.10000000E+01  2.00000000E+01  0.00000000E+00
  2.10000000E+01  1.90000000E+01  0.00000000E+00
  2.10000000E+01  1.80000000E+01  0.00000000E+00
  2.10000000E+01  1.70000000E+01  0.00000000E+00
  2.10000000E+01  1.60000000E+01  0.00000000E+00
  2.10000000E+01  1.50000000E+01  0.00000000E+00
  2.10000000E+01  1.40000000E+01  0.00000000E+00
  2.10000000E+01  1.30000000E+01  0.00000000E+00
  2.10000000E+01  1.20000000E+01  0.00000000E+00
  2.10000000E+01  1.10000000E+01  0.00000000E+00
  2.10000000E+01  1.00000000E+01  0.00000000E+00
  2.10000000E+01  9.00000000E+00  0.00000000E+00
  2.10000000E+01  8.00000000E+00  0.00000000E+00
  2.10000000E+01  7.00000000E+00  0.00000000E+00
  2.10000000E+01  6.00000000E+00  0.00000000E+00
  2.10000000E+01  5.00000000E+00  0.00000000E+00
  2.10000000E+01  4.00000000E+00  0.00000000E+00
  2.10000000E+01  3.00000000E+00  0.00000000E+00
  2.10000000E+01  2.00000000E+00  0.00000000E+00
  2.10000000E+01  1.00000000E+00  0.00000000E+00
  2.10000000E+01 -2.66453526E-15  0.00000000E+00
  2.20000000E+01  2.40000000E+01  0.00000000E+00
  2.20000000E+01  2.30000000E+01  0.00000000E+00
  2.20000000E+01  2.20000000E+01  0.00000000E+00
  2.20000000E+01  2.10000000E+01  0.00000000E+00
  2.20000000E+01  2.00000000E+01  0.00000000E+00
  2.20000000E+01  1.90000000E+01  0.00000000E+00
  2.20000000E+01  1.80000000E+01  0.00000000E+00
  2.20000000E+01  1.70000000E+01  0.00000000E+00
  2.20000000E+01  1.60000000E+01  0.00000000E+00
  2.20000000E+01  1.50000000E+01  0.00000000E+00
  2.20000000E+01  1.40000000E+01  0.00000000E+00
  2.20000000E+01  1.30000000E+01  0.00000000E+00
  2.20000000E+01  1.20000000E+01  0.00000000E+00
  2.20000000E+01  1.10000000E+01  0.00000000E+00
  2.20000000E+01  1.00000000E+01  0.00000000E+00
  2.20000000E+01  9.00000000E+00  0.00000000E+00
  2.20000000E+01  8.00000000E+00  0.00000000E+00
  2.20000000E+01  7.00000000E+00  0.00000000E+00
  2.20000000E+01  6.00000000E+00  0.00000000E+00
  2.20000000E+01  5.00000000E+00  0.00000000E+00
  2.20000000E+01  4.00000000E+00  0.00000000E+00
  2.20000000E+01  3.00000000E+00  0.00000000E+00
  2.20000000E+01  2.00000000E+00  0.00000000E+00
  2.20000000E+01  1.00000000E+00  0.00000000E+00
  2.20000000E+01 -2.66453526E-15  0.00000000E+00
  2.30000000E+01  2.40000000E+01  0.00000000E+00
  2.30000000E+01  2.30000000E+01  0.00000000E+00
  2.30000000E+01  2.20000000E+01  0.00000000E+00
  2.30000000E+01  2.10000000E+01  0.00000000E+00
  2.30000000E+01  2.00000000E+01  0.00000000E+00
  2.30000000E+01  1.90000000E+01  0.00000000E+00
  2.30000000E+01  1.80000000E+01  0.00000000E+00
  2.30000000E+01  1.70000000E+01  0.00000000E+00
  2.30000000E+01  1.60000000E+01  0.00000000E+00
  2.30000000E+01  1.50000000E+01  0.00000000E+00
  2.30000000E+01  1.40000000E+01  0.00000000E+00
  2.30000000E+01  1.30000000E+01  0.00000000E+00
  2.30000000E+01  1.20000000E+01  0.00000000E+00
  2.30000000E+01  1.10000000E+01  0.00000000E+00
  2.30000000E+01  1.00000000E+01  0.00000000E+00
  2.30000000E+01  9.00000000E+00  0.00000000E+00
  2.30000000E+01  8.00000000E+00  0.00000000E+00
  2.30000000E+01  7.00000000E+00  0.00000000E+00
  2.30000000E+01  6.00000000E+00  0.00000000E+00
  2.30000000E+01  5.00000000E+00  0.00000000E+00
  2.30000000E+01  4.00000000E+00  0.00000000E+00
  2.30000000E+01  3.00000000E+00  0.00000000E+00
  2.30000000E+01  2.00000000E+00  0.00000000E+00
  2.30000000E+01  1.00000000E+00  0.00000000E+00
  2.30000000E+01 -2.66453526E-15  0.00000000E+00
  2.40000000E+01  2.40000000E+01  0.00000000E+00
  2.40000000E+01  2.30000000E+01  0.00000000E+00
  2.40000000E+01  2.20000000E+01  0.00000000E+00
  2.40000000E+01  2.10000000E+01  0.00000000E+00
  2.40000000E+01  2.00000000E+01  0.00000000E+00
  2.40000000E+01  1.90000000E+01  0.00000000E+00
  2.40000000E+01  1.80000000E+01  0.00000000E+00
  2.40000000E+01  1.70000000E+01  0.00000000E+00
  2.40000000E+01  1.60000000E+01  0.00000000E+00
  2.40000000E+01  1.50000000E+01  0.00000000E+00
  2.40000000E+01  1.40000000E+01  0.00000000E+00
  2.40000000E+01  1.30000000E+01  0.00000000E+00
  2.40000000E+01  1.20000000E+01  0.00000000E+00
  2.40000000E+01  1.10000000E+01  0.00000000E+00
  2.40000000E+01  1.00000000E+01  0.00000000E+00
  2.40000000E+01  9.00000000E+00  0.00000000E+00
  2.40000000E+01  8.00000000E+00  0.00000000E+00
  2.40000000E+01  7.00000000E+00  0.00000000E+00
  2.40000000E+01  6.00000000E+00  0.00000000E+00
  2.40000000E+01  5.00000000E+00  0.00000000E+00
  2.40000000E+01  4.00000000E+00  0.00000000E+00
  2.40000000E+01  3.00000000E+00  0.00000000E+00
  2.40000000E+01  2.00000000E+00  0.00000000E+00
  2.40000000E+01  1.00000000E+00  0.00000000E+00
  2.40000000E+01 -2.66453526E-15  0.00000000E+00
  2.50000000E+01  2.40000000E+01  0.00000000E+00
  2.50000000E+01  2.30000000E+01  0.00000000E+00
  2.50000000E+01  2.20000000E+01  0.00000000E+00
  2.50000000E+01  2.10000000E+01  0.00000000E+00
  2.50000000E+01  2.00000000E+01  0.00000000E+00
  2.50000000E+01  1.90000000E+01  0.00000000E+00
  2.50000000E+01  1.80000000E+01  0.00000000E+00
  2.50000000E+01  1.70000000E+01  0.00000000E+00
  2.50000000E+01  1.60000000E+01  0.00000000E+00
  2.50000000E+01  1.50000000E+01  0.00000000E+00
  2.50000000E+01  1.40000000E+01  0.00000000E+00
  2.50000000E+01  1.30000000E+01  0.00000000E+00
  2.50000000E+01  1.20000000E+01  0.00000000E+00
  2.50000000E+01  1.10000000E+01  0.00000000E+00
  2.50000000E+01  1.00000000E+01  0.00000000E+00
  2.50000000E+01  9.00000000E+00  0.00000000E+00
  2.50000000E+01  8.00000000E+00  0.00000000E+00
  2.50000000E+01  7.00000000E+00  0.00000000E+00
  2.50000000E+01  6.00000000E+00  0.00000000E+00
  2.50000000E+01  5.00000000E+00  0.00000000E+00
  2.50000000E+01  4.00000000E+00  0.00000000E+00
  2.50000000E+01  3.00000000E+00  0.00000000E+00
  2.50000000E+01  2.00000000E+00  0.00000000E+00
  2.50000000E+01  1.00000000E+00  0.00000000E+00
  2.50000000E+01 -2.66453526E-15  0.00000000E+00
  2.60000000E+01  2.40000000E+01  0.00000000E+00
  2.60000000E+01  2.30000000E+01  0.00000000E+00
  2.60000000E+01  2.20000000E+01  0.00000000E+00
  2.60000000E+01  2.10000000E+01  0.00000000E+00
  2.60000000E+01  2.00000000E+01  0.00000000E+00
  2.60000000E+01  1.90000000E+01  0.00000000E+00
  2.60000000E+01  1.80000000E+01  0.00000000E+00
  2.60000000E+01  1.70000000E+01  0.00000000E+00
  2.60000000E+01  1.60000000E+01  0.00000000E+00
  2.60000000E+01  1.50000000E+01  0.00000000E+00
  2.60000000E+01  1.40000000E+01  0.00000000E+00
  2.60000000E+01  1.30000000E+01  0.00000000E+00
  2.60000000E+01  1.20000000E+01  0.00000000E+00
  2.60000000E+01  1.10000000E+01  0.00000000E+00
  2.60000000E+01  1.00000000E+01  0.00000000E+00
  2.60000000E+01  9.00000000E+00  0.00000000E+00
  2.60000000E+01  8.00000000E+00  0.00000000E+00
  2.60000000E+01  7.00000000E+00  0.00000000E+00
  2.60000000E+01  6.00000000E+00  0.00000000E+00
  2.60000000E+01  5.00000000E+00  0.00000000E+00
  2.60000000E+01  4.00000000E+00  0.00000000E+00
  2.60000000E+01  3.00000000E+00  0.00000000E+00
  2.60000000E+01  2.00000000E+00  0.00000000E+00
  2.60000000E+01  1.00000000E+00  0.00000000E+00
  2.60000000E+01 -2.66453526E-15  0.00000000E+00
  2.70000000E+01  2.40000000E+01  0.00000000E+00
  2.70000000E+01  2.30000000E+01  0.00000000E+00
  2.70000000E+01  2.20000000E+01  0.00000000E+00
  2.70000000E+01  2.10000000E+01  0.00000000E+00
  2.70000000E+01  2.00000000E+01  0.00000000E+00
  2.70000000E+01  1.90000000E+01  0.00000000E+00
  2.70000000E+01  1.80000000E+01  0.00000000E+00
  2.70000000E+01  1.70000000E+01  0.00000000E+00
  2.70000000E+01  1.60000000E+01  0.00000000E+00
  2.70000000E+01  1.50000000E+01  0.00000000E+00
  2.70000000E+01  1.40000000E+01  0.00000000E+00
  2.70000000E+01  1.30000000E+01  0.00000000E+00
  2.70000000E+01  1.20000000E+01  0.00000000E+00
  2.70000000E+01  1.10000000E+01  0.00000000E+00
  2.70000000E+01  1.00000000E+01  0.00000000E+00
  2.70000000E+01  9.00000000E+00  0.00000000E+00
  2.70000000E+01  8.00000000E+00  0.00000000E+00
  2.70000000E+01  7.00000000E+00  0.00000000E+00
  2.70000000E+01  6.00000000E+00  0.00000000E+00
  2.70000000E+01  5.00000000E+00  0.00000000E+00
  2.70000000E+01  4.00000000E+00  0.00000000E+00
  2.70000000E+01  3.00000000E+00  0.00000000E+00
  2.70000000E+01  2.00000000E+00  0.00000000E+00
  2.70000000E+01  1.00000000E+00  0.00000000E+00
  2.70000000E+01 -2.66453526E-15  0.00000000E+00
  2.80000000E+01  2.40000000E+01  0.00000000E+00
  2.80000000E+01  2.30000000E+01  0.00000000E+00
  2.80000000E+01  2.20000000E+01  0.00000000E+00
  2.80000000E+01  2.10000000E+01  0.00000000E+00
  2.80000000E+01  2.00000000E+01  0.00000000E+00
  2.80000000E+01  1.90000000E+01  0.00000000E+00
  2.80000000E+01  1.80000000E+01  0.00000000E+00
  2.80000000E+01  1.70000000E+01  0.00000000E+00
  2.80000000E+01  1.60000000E+01  0.00000000E+00
  2.80000000E+01  1.50000000E+01  0.00000000E+00
  2.80000000E+01  1.40000000E+01  0.00000000E+00
  2.80000000E+01  1.30000000E+01  0.00000000E+00
  2.80000000E+01  1.20000000E+01  0.00000000E+00
  2.80000000E+01  1.10000000E+01  0.00000000E+00
  2.80000000E+01  1.00000000E+01  0.00000000E+00
  2.80000000E+01  9.00000000E+00  0.00000000E+00
  2.80000000E+01  8.00000000E+00  0.00000000E+00
  2.80000000E+01  7.00000000E+00  0.00000000E+00
  2.80000000E+01  6.00000000E+00  0.00000000E+00
  2.80000000E+01  5.00000000E+00  0.00000000E+00
  2.80000000E+01  4.00000000E+00  0.00000000E+00
  2.80000000E+01  3.00000000E+00  0.00000000E+00
  2.80000000E+01  2.00000000E+00  0.00000000E+00
  2.80000000E+01  1.00000000E+00  0.00000000E+00
  2.80000000E+01 -2.66453526E-15  0.00000000E+00
  2.90000000E+01  2.40000000E+01  0.00000000E+00
  2.90000000E+01  2.30000000E+01  0.00000000E+00
  2.90000000E+01  2.20000000E+01  0.00000000E+00
  2.90000000E+01  2.10000000E+01  0.00000000E+00
  2.90000000E+01  2.00000000E+01  0.00000000E+00
  2.90000000E+01  1.90000000E+01  0.00000000E+00
  2.90000000E+01  1.80000000E+01  0.00000000E+00
  2.90000000E+01  1.70000000E+01  0.00000000E+00
  2.90000000E+01  1.60000000E+01  0.00000000E+00
  2.90000000E+01  1.50000000E+01  0.00000000E+00
  2.90000000E+01  1.40000000E+01  0.00000000E+00
  2.90000000E+01  1.30000000E+01  0.00000000E+00
  2.90000000E+01  1.20000000E+01  0.00000000E+00
  2.90000000E+01  1.10000000E+01  0.00000000E+00
  2.90000000E+01  1.00000000E+01  0.00000000E+00
  2.90000000E+01  9.00000000E+00  0.00000000E+00
  2.90000000E+01  8.00000000E+00  0.00000000E+00
  2.90000000E+01  7.00000000E+00  0.00000000E+00
  2.90000000E+01  6.00000000E+00  0.00000000E+00
  2.90000000E+01  5.00000000E+00  0.00000000E+00
  2.90000000E+01  4.00000000E+00  0.00000000E+00
  2.90000000E+01  3.00000000E+00  0.00000000E+00
  2.90000000E+01  2.00000000E+00  0.00000000E+00
  2.90000000E+01  1.00000000E+00  0.00000000E+00
  2.90000000E+01 -2.66453526E-15  0.00000000E+00
  3.00000000E+01  2.40000000E+01  0.00000000E+00
  3.00000000E+01  2.30000000E+01  0.00000000E+00
  3.00000000E+01  2.20000000E+01  0.00000000E+00
  3.00000000E+01  2.10000000E+01  0.00000000E+00
  3.00000000E+01  2.00000000E+01  0.00000000E+00
  3.00000000E+01  1.90000000E+01  0.00000000E+00
  3.00000000E+01  1.80000000E+01  0.00000000E+00
  3.00000000E+01  1.70000000E+01  0.00000000E+00
  3.00000000E+01  1.60000000E+01  0.00000000E+00
  3.00000000E+01  1.50000000E+01  0.00000000E+00
  3.00000000E+01  1.40000000E+01  0.00000000E+00
  3.00000000E+01  1.30000000E+01  0.00000000E+00
  3.00000000E+01  1.20000000E+01  0.00000000E+00
  3.00000000E+01  1.10000000E+01  0.00000000E+00
  3.00000000E+01  1.00000000E+01  0.00000000E+00
  3.00000000E+01  9.00000000E+00  0.00000000E+00
  3.00000000E+01  8.00000000E+00  0.00000000E+00
  3.00000000E+01  7.00000000E+00  0.00000000E+00
  3.00000000E+01  6.00000000E+00  0.00000000E+00
  3.00000000E+01  5.00000000E+00  0.00000000E+00
  3.00000000E+01  4.00000000E+00  0.00000000E+00
  3.00000000E+01  3.00000000E+00  0.00000000E+00
  3.00000000E+01  2.00000000E+00  0.00000000E+00
  3.00000000E+01  1.00000000E+00  0.00000000E+00
  3.00000000E+01 -2.66453526E-15  0.00000000E+00
  3.10000000E+01  2.40000000E+01  0.00000000E+00
  3.10000000E+01  2.30000000E+01  0.00000000E+00
  3.10000000E+01  2.20000000E+01  0.00000000E+00
  3.10000000E+01  2.10000000E+01  0.00000000E+00
  3.10000000E+01  2.00000000E+01  0.00000000E+00
  3.10000000E+01  1.90000000E+01  0.00000000E+00
  3.10000000E+01  1.80000000E+01  0.00000000E+00
  3.10000000E+01  1.70000000E+01  0.00000000E+00
  3.10000000E+01  1.60000000E+01  0.00000000E+00
  3.10000000E+01  1.50000000E+01  0.00000000E+00
  3.10000000E+01  1.40000000E+01  0.00000000E+00
  3.10000000E+01  1.30000000E+01  0.00000000E+00
  3.10000000E+01  1.20000000E+01  0.00000000E+00
  3.10000000E+01  1.10000000E+01  0.00000000E+00
  3.10000000E+01  1.00000000E+01  0.00000000E+00
  3.10000000E+01  9.00000000E+00  0.00000000E+00
  3.10000000E+01  8.00000000E+00  0.00000000E+00
  3.10000000E+01  7.00000000E+00  0.00000000E+00
  3.10000000E+01  6.00000000E+00  0.00000000E+00
  3.10000000E+01  5.00000000E+00  0.00000000E+00
  3.10000000E+01  4.00000000E+00  0.00000000E+00
  3.10000000E+01  3.00000000E+00  0.00000000E+00
  3.10000000E+01  2.00000000E+00  0.00000000E+00
  3.10000000E+01  1.00000000E+00  0.00000000E+00
  3.10000000E+01 -2.66453526E-15  0.00000000E+00
  3.20000000E+01  2.40000000E+01  0.00000000E+00
  3.20000000E+01  2.30000000E+01  0.00000000E+00
  3.20000000E+01  2.20000000E+01  0.00000000E+00
  3.20000000E+01  2.10000000E+01  0.00000000E+00
  3.20000000E+01  2.00000000E+01  0.00000000E+00
  3.20000000E+01  1.90000000E+01  0.00000000E+00
  3.20000000E+01  1.80000000E+01  0.00000000E+00
  3.20000000E+01  1.70000000E+01  0.00000000E+00
  3.20000000E+01  1.60000000E+01  0.00000000E+00
  3.20000000E+01  1.50000000E+01  0.00000000E+00
  3.20000000E+01  1.40000000E+01  0.00000000E+00
  3.20000000E+01  1.30000000E+01  0.00000000E+00
  3.20000000E+01  1.20000000E+01  0.00000000E+00
  3.20000000E+01  1.10000000E+01  0.00000000E+00
  3.20000000E+01  1.00000000E+01  0.00000000E+00
  3.20000000E+01  9.00000000E+00  0.00000000E+00
  3.20000000E+01  8.00000000E+00  0.00000000E+00
  3.20000000E+01  7.00000000E+00  0.00000000E+00
  3.20000000E+01  6.00000000E+00  0.00000000E+00
  3.20000000E+01  5.00000000E+00  0.00000000E+00
  3.20000000E+01  4.00000000E+00  0.00000000E+00
  3.20000000E+01  3.00000000E+00  0.00000000E+00
  3.20000000E+01  2.00000000E+00  0.00000000E+00
  3.20000000E+01  1.00000000E+00  0.00000000E+00
  3.20000000E+01 -2.66453526E-15  0.00000000E+00
  3.30000000E+01  2.40000000E+01  0.00000000E+00
  3.30000000E+01  2.30000000E+01  0.00000000E+00
  3.30000000E+01  2.20000000E+01  0.00000000E+00
  3.30000000E+01  2.10000000E+01  0.00000000E+00
  3.30000000E+01  2.00000000E+01  0.00000000E+00
  3.30000000E+01  1.90000000E+01  0.00000000E+00
  3.30000000E+01  1.80000000E+01  0.00000000E+00
  3.30000000E+01  1.70000000E+01  0.00000000E+00
  3.30000000E+01  1.60000000E+01  0.00000000E+00
  3.30000000E+01  1.50000000E+01  0.00000000E+00
  3.30000000E+01  1.40000000E+01  0.00000000E+00
  3.30000000E+01  1.30000000E+01  0.00000000E+00
  3.30000000E+01  1.20000000E+01  0.00000000E+00
  3.30000000E+01  1.10000000E+01  0.00000000E+00
  3.30000000E+01  1.00000000E+01  0.00000000E+00
  3.30000000E+01  9.00000000E+00  0.00000000E+00
  3.30000000E+01  8.00000000E+00  0.00000000E+00
  3.30000000E+01  7.00000000E+00  0.00000000E+00
  3.30000000E+01  6.00000000E+00  0.00000000E+00
  3.30000000E+01  5.00000000E+00  0.00000000E+00
  3.30000000E+01  4.00000000E+00  0.00000000E+00
  3.30000000E+01  3.00000000E+00  0.00000000E+00
  3.30000000E+01  2.00000000E+00  0.00000000E+00
  3.30000000E+01  1.00000000E+00  0.00000000E+00
  3.30000000E+01 -2.66453526E-15  0.00000000E+00
  3.40000000E+01  2.40000000E+01  0.00000000E+00
  3.40000000E+01  2.30000000E+01  0.00000000E+00
  3.40000000E+01  2.20000000E+01  0.00000000E+00
  3.40000000E+01  2.10000000E+01  0.00000000E+00
  3.40000000E+01  2.00000000E+01  0.00000000E+00
  3.40000000E+01  1.90000000E+01  0.00000000E+00
  3.40000000E+01  1.80000000E+01  0.00000000E+00
  3.40000000E+01  1.70000000E+01  0.00000000E+00
  3.40000000E+01  1.60000000E+01  0.00000000E+00
  3.40000000E+01  1.50000000E+01  0.00000000E+00
  3.40000000E+01  1.40000000E+01  0.00000000E+00
  3.40000000E+01  1.30000000E+01  0.00000000E+00
  3.40000000E+01  1.20000000E+01  0.00000000E+00
  3.40000000E+01  1.10000000E+01  0.00000000E+00
  3.40000000E+01  1.00000000E+01  0.00000000E+00
  3.40000000E+01  9.00000000E+00  0.00000000E+00
  3.40000000E+01  8.00000000E+00  0.00000000E+00
  3.40000000E+01  7.00000000E+00  0.00000000E+00
  3.40000000E+01  6.00000000E+00  0.00000000E+00
  3.40000000E+01  5.00000000E+00  0.00000000E+00
  3.40000000E+01  4.00000000E+00  0.00000000E+00
  3.40000000E+01  3.00000000E+00  0.00000000E+00
  3.40000000E+01  2.00000000E+00  0.00000000E+00
  3.40000000E+01  1.00000000E+00  0.00000000E+00
  3.40000000E+01 -2.66453526E-15  0.00000000E+00
  3.50000000E+01  2.40000000E+01  0.00000000E+00
  3.50000000E+01  2.30000000E+01  0.00000000E+00
  3.50000000E+01  2.20000000E+01  0.00000000E+00
  3.50000000E+01  2.10000000E+01  0.00000000E+00
  3.50000000E+01  2.00000000E+01  0.00000000E+00
  3.50000000E+01  1.90000000E+01  0.00000000E+00
  3.50000000E+01  1.80000000E+01  0.00000000E+00
  3.50000000E+01  1.70000000E+01  0.00000000E+00
  3.50000000E+01  1.60000000E+01  0.00000000E+00
  3.50000000E+01  1.50000000E+01  0.00000000E+00
  3.50000000E+01  1.40000000E+01  0.00000000E+00
  3.50000000E+01  1.30000000E+01  0.00000000E+00
  3.50000000E+01  1.20000000E+01  0.00000000E+00
  3.50000000E+01  1.10000000E+01  0.00000000E+00
  3.50000000E+01  1.00000000E+01  0.00000000E+00
  3.50000000E+01  9.00000000E+00  0.00000000E+00
  3.50000000E+01  8.00000000E+00  0.00000000E+00
  3.50000000E+01  7.00000000E+00  0.00000000E+00
  3.50000000E+01  6.00000000E+00  0.00000000E+00
  3.50000000E+01  5.00000000E+00  0.00000000E+00
  3.50000000E+01  4.00000000E+00  0.00000000E+00
  3.50000000E+01  3.00000000E+00  0.00000000E+00
  3.50000000E+01  2.00000000E+00  0.00000000E+00
  3.50000000E+01  1.00000000E+00  0.00000000E+00
  3.50000000E+01 -2.66453526E-15  0.00000000E+00
  3.60000000E+01  2.40000000E+01  0.00000000E+00
  3.60000000E+01  2.30000000E+01  0.00000000E+00
  3.60000000E+01  2.20000000E+01  0.00000000E+00
  3.60000000E+01  2.10000000E+01  0.00000000E+00
  3.60000000E+01  2.00000000E+01  0.00000000E+00
  3.60000000E+01  1.90000000E+01  0.00000000E+00
  3.60000000E+01  1.80000000E+01  0.00000000E+00
  3.60000000E+01  1.70000000E+01  0.00000000E+00
  3.60000000E+01  1.60000000E+01  0.00000000E+00
  3.60000000E+01  1.50000000E+01  0.00000000E+00
  3.60000000E+01  1.40000000E+01  0.00000000E+00
  3.60000000E+01  1.30000000E+01  0.00000000E+00
  3.60000000E+01  1.20000000E+01  0.00000000E+00
  3.60000000E+01  1.10000000E+01  0.00000000E+00
  3.60000000E+01  1.00000000E+01  0.00000000E+00
  3.60000000E+01  9.00000000E+00  0.00000000E+00
  3.60000000E+01  8.00000000E+00  0.00000000E+00
  3.60000000E+01  7.00000000E+00  0.00000000E+00
  3.60000000E+01  6.00000000E+00  0.00000000E+00
  3.60000000E+01  5.00000000E+00  0.00000000E+00
  3.60000000E+01  4.00000000E+00  0.00000000E+00
  3.60000000E+01  3.00000000E+00  0.00000000E+00
  3.60000000E+01  2.00000000E+00  0.00000000E+00
  3.60000000E+01  1.00000000E+00  0.00000000E+00
  3.60000000E+01 -2.66453526E-15  0.00000000E+00
  3.70000000E+01  2.40000000E+01  0.00000000E+00
  3.70000000E+01  2.30000000E+01  0.00000000E+00
  3.70000000E+01  2.20000000E+01  0.00000000E+00
  3.70000000E+01  2.10000000E+01  0.00000000E+00
  3.70000000E+01  2.00000000E+01  0.00000000E+00
  3.70000000E+01  1.90000000E+01  0.00000000E+00
  3.70000000E+01  1.80000000E+01  0.00000000E+00
  3.70000000E+01  1.70000000E+01  0.00000000E+00
  3.70000000E+01  1.60000000E+01  0.00000000E+00
  3.70000000E+01  1.50000000E+01  0.00000000E+00
  3.70000000E+01  1.40000000E+01  0.00000000E+00
  3.70000000E+01  1.30000000E+01  0.00000000E+00
  3.70000000E+01  1.20000000E+01  0.00000000E+00
  3.70000000E+01  1.10000000E+01  0.00000000E+00
  3.70000000E+01  1.00000000E+01  0.00000000E+00
  3.70000000E+01  9.00000000E+00  0.00000000E+00
  3.70000000E+01  8.00000000E+00  0.00000000E+00
  3.70000000E+01  7.00000000E+00  0.00000000E+00
  3.70000000E+01  6.00000000E+00  0.00000000E+00
  3.70000000E+01  5.00000000E+00  0.00000000E+00
  3.70000000E+01  4.00000000E+00  0.00000000E+00
  3.70000000E+01  3.00000000E+00  0.00000000E+00
  3.70000000E+01  2.00000000E+00  0.00000000E+00
  3.70000000E+01  1.00000000E+00  0.00000000E+00
  3.70000000E+01 -2.66453526E-15  0.00000000E+00
  3.80000000E+01  2.40000000E+01  0.00000000E+00
  3.80000000E+01  2.30000000E+01  0.00000000E+00
  3.80000000E+01  2.20000000E+01  0.00000000E+00
  3.80000000E+01  2.10000000E+01  0.00000000E+00
  3.80000000E+01  2.00000000E+01  0.00000000E+00
  3.80000000E+01  1.90000000E+01  0.00000000E+00
  3.80000000E+01  1.80000000E+01  0.00000000E+00
  3.80000000E+01  1.70000000E+01  0.00000000E+00
  3.80000000E+01  1.60000000E+01  0.00000000E+00
  3.80000000E+01  1.50000000E+01  0.00000000E+00
  3.80000000E+01  1.40000000E+01  0.00000000E+00
  3.80000000E+01  1.30000000E+01  0.00000000E+00
  3.80000000E+01  1.20000000E+01  0.00000000E+00
  3.80000000E+01  1.10000000E+01  0.00000000E+00
  3.80000000E+01  1.00000000E+01  0.00000000E+00
  3.80000000E+01  9.00000000E+00  0.00000000E+00
  3.80000000E+01  8.00000000E+00  0.00000000E+00
  3.80000000E+01  7.00000000E+00  0.00000000E+00
  3.80000000E+01  6.00000000E+00  0.00000000E+00
  3.80000000E+01  5.00000000E+00  0.00000000E+00
  3.80000000E+01  4.00000000E+00  0.00000000E+00
  3.80000000E+01  3.00000000E+00  0.00000000E+00
  3.80000000E+01  2.00000000E+00  0.00000000E+00
  3.80000000E+01  1.00000000E+00  0.00000000E+00
  3.80000000E+01 -2.66453526E-15  0.00000000E+00
  3.90000000E+01  2.40000000E+01  0.00000000E+00
  3.90000000E+01  2.30000000E+01  0.00000000E+00
  3.90000000E+01  2.20000000E+01  0.00000000E+00
  3.90000000E+01  2.10000000E+01  0.00000000E+00
  3.90000000E+01  2.00000000E+01  0.00000000E+00
  3.90000000E+01  1.90000000E+01  0.00000000E+00
  3.90000000E+01  1.80000000E+01  0.00000000E+00
  3.90000000E+01  1.70000000E+01  0.00000000E+00
  3.90000000E+01  1.60000000E+01  0.00000000E+00
  3.90000000E+01  1.50000000E+01  0.00000000E+00
  3.90000000E+01  1.40000000E+01  0.00000000E+00
  3.90000000E+01  1.30000000E+01  0.00000000E+00
  3.90000000E+01  1.20000000E+01  0.00000000E+00
  3.90000000E+01  1.10000000E+01  0.00000000E+00
  3.90000000E+01  1.00000000E+01  0.00000000E+00
  3.90000000E+01  9.00000000E+00  0.00000000E+00
  3.90000000E+01  8.00000000E+00  0.00000000E+00
  3.90000000E+01  7.00000000E+00  0.00000000E+00
  3.90000000E+01  6.00000000E+00  0.00000000E+00
  3.90000000E+01  5.00000000E+00  0.00000000E+00
  3.90000000E+01  4.00000000E+00  0.00000000E+00
  3.90000000E+01  3.00000000E+00  0.00000000E+00
  3.90000000E+01  2.00000000E+00  0.00000000E+00
  3.90000000E+01  1.00000000E+00  0.00000000E+00
  3.90000000E+01 -2.66453526E-15  0.00000000E+00
  4.00000000E+01  2.40000000E+01  0.00000000E+00
  4.00000000E+01  2.30000000E+01  0.00000000E+00
  4.00000000E+01  2.20000000E+01  0.00000000E+00
  4.00000000E+01  2.10000000E+01  0.00000000E+00
  4.00000000E+01  2.00000000E+01  0.00000000E+00
  4.00000000E+01  1.90000000E+01  0.00000000E+00
  4.00000000E+01  1.80000000E+01  0.00000000E+00
  4.00000000E+01  1.70000000E+01  0.00000000E+00
  4.00000000E+01  1.60000000E+01  0.00000000E+00
  4.00000000E+01  1.50000000E+01  0.00000000E+00
  4.00000000E+01  1.40000000E+01  0.00000000E+00
  4.00000000E+01  1.30000000E+01  0.00000000E+00
  4.00000000E+01  1.20000000E+01  0.00000000E+00
  4.00000000E+01  1.10000000E+01  0.00000000E+00
  4.00000000E+01  1.00000000E+01  0.00000000E+00
  4.00000000E+01  9.00000000E+00  0.00000000E+00
  4.00000000E+01  8.00000000E+00  0.00000000E+00
  4.00000000E+01  7.00000000E+00  0.00000000E+00
  4.00000000E+01  6.00000000E+00  0.00000000E+00
  4.00000000E+01  5.00000000E+00  0.00000000E+00
  4.00000000E+01  4.00000000E+00  0.00000000E+00
  4.00000000E+01  3.00000000E+00  0.00000000E+00
  4.00000000E+01  2.00000000E+00  0.00000000E+00
  4.00000000E+01  1.00000000E+00  0.00000000E+00
  4.00000000E+01 -2.66453526E-15  0.00000000E+00
  4.10000000E+01  2.40000000E+01  0.00000000E+00
  4.10000000E+01  2.30000000E+01  0.00000000E+00
  4.10000000E+01  2.20000000E+01  0.00000000E+00
  4.10000000E+01  2.10000000E+01  0.00000000E+00
  4.10000000E+01  2.00000000E+01  0.00000000E+00
  4.10000000E+01  1.90000000E+01  0.00000000E+00
  4.10000000E+01  1.80000000E+01  0.00000000E+00
  4.10000000E+01  1.70000000E+01  0.00000000E+00
  4.10000000E+01  1.60000000E+01  0.00000000E+00
  4.10000000E+01  1.50000000E+01  0.00000000E+00
  4.10000000E+01  1.40000000E+01  0.00000000E+00
  4.10000000E+01  1.30000000E+01  0.00000000E+00
  4.10000000E+01  1.20000000E+01  0.00000000E+00
  4.10000000E+01  1.10000000E+01  0.00000000E+00
  4.10000000E+01  1.00000000E+01  0.00000000E+00
  4.10000000E+01  9.00000000E+00  0.00000000E+00
  4.10000000E+01  8.00000000E+00  0.00000000E+00
  4.10000000E+01  7.00000000E+00  0.00000000E+00
  4.10000000E+01  6.00000000E+00  0.00000000E+00
  4.10000000E+01  5.00000000E+00  0.00000000E+00
  4.10000000E+01  4.00000000E+00  0.00000000E+00
  4.10000000E+01  3.00000000E+00  0.00000000E+00
  4.10000000E+01  2.00000000E+00  0.00000000E+00
  4.10000000E+01  1.00000000E+00  0.00000000E+00
  4.10000000E+01 -2.66453526E-15  0.00000000E+00
  4.20000000E+01  2.40000000E+01  0.00000000E+00
  4.20000000E+01  2.30000000E+01  0.00000000E+00
  4.20000000E+01  2.20000000E+01  0.00000000E+00
  4.20000000E+01  2.10000000E+01  0.00000000E+00
  4.20000000E+01  2.00000000E+01  0.00000000E+00
  4.20000000E+01  1.90000000E+01  0.00000000E+00
  4.20000000E+01  1.80000000E+01  0.00000000E+00
  4.20000000E+01  1.70000000E+01  0.00000000E+00
  4.20000000E+01  1.60000000E+01  0.00000000E+00
  4.20000000E+01  1.50000000E+01  0.00000000E+00
  4.20000000E+01  1.40000000E+01  0.00000000E+00
  4.20000000E+01  1.30000000E+01  0.00000000E+00
  4.20000000E+01  1.20000000E+01  0.00000000E+00
  4.20000000E+01  1.10000000E+01  0.00000000E+00
  4.20000000E+01  1.00000000E+01  0.00000000E+00
  4.20000000E+01  9.00000000E+00  0.00000000E+00
  4.20000000E+01  8.00000000E+00  0.00000000E+00
  4.20000000E+01  7.00000000E+00  0.00000000E+00
  4.20000000E+01  6.00000000E+00  0.00000000E+00
  4.20000000E+01  5.00000000E+00  0.00000000E+00
  4.20000000E+01  4.00000000E+00  0.00000000E+00
  4.20000000E+01  3.00000000E+00  0.00000000E+00
  4.20000000E+01  2.00000000E+00  0.00000000E+00
  4.20000000E+01  1.00000000E+00  0.00000000E+00
  4.20000000E+01 -2.66453526E-15  0.00000000E+00
  4.30000000E+01  2.40000000E+01  0.00000000E+00
  4.30000000E+01  2.30000000E+01  0.00000000E+00
  4.30000000E+01  2.20000000E+01  0.00000000E+00
  4.30000000E+01  2.10000000E+01  0.00000000E+00
  4.30000000E+01  2.00000000E+01  0.00000000E+00
  4.30000000E+01  1.90000000E+01  0.00000000E+00
  4.30000000E+01  1.80000000E+01  0.00000000E+00
  4.30000000E+01  1.70000000E+01  0.00000000E+00
  4.30000000E+01  1.60000000E+01  0.00000000E+00
  4.30000000E+01  1.50000000E+01  0.00000000E+00
  4.30000000E+01  1.40000000E+01  0.00000000E+00
  4.30000000E+01  1.30000000E+01  0.00000000E+00
  4.30000000E+01  1.20000000E+01  0.00000000E+00
  4.30000000E+01  1.10000000E+01  0.00000000E+00
  4.30000000E+01  1.00000000E+01  0.00000000E+00
  4.30000000E+01  9.00000000E+00  0.00000000E+00
  4.30000000E+01  8.00000000E+00  0.00000000E+00
  4.30000000E+01  7.00000000E+00  0.00000000E+00
  4.30000000E+01  6.00000000E+00  0.00000000E+00
  4.30000000E+01  5.00000000E+00  0.00000000E+00
  4.30000000E+01  4.00000000E+00  0.00000000E+00
  4.30000000E+01  3.00000000E+00  0.00000000E+00
  4.30000000E+01  2.00000000E+00  0.00000000E+00
  4.30000000E+01  1.00000000E+00  0.00000000E+00
  4.30000000E+01 -2.66453526E-15  0.00000000E+00
  4.40000000E+01  2.40000000E+01  0.00000000E+00
  4.40000000E+01  2.30000000E+01  0.00000000E+00
  4.40000000E+01  2.20000000E+01  0.00000000E+00
  4.40000000E+01  2.10000000E+01  0.00000000E+00
  4.40000000E+01  2.00000000E+01  0.00000000E+00
  4.40000000E+01  1.90000000E+01  0.00000000E+00
  4.40000000E+01  1.80000000E+01  0.00000000E+00
  4.40000000E+01  1.70000000E+01  0.00000000E+00
  4.40000000E+01  1.60000000E+01  0.00000000E+00
  4.40000000E+01  1.50000000E+01  0.00000000E+00
  4.40000000E+01  1.40000000E+01  0.00000000E+00
  4.40000000E+01  1.30000000E+01  0.00000000E+00
  4.40000000E+01  1.20000000E+01  0.00000000E+00
  4.40000000E+01  1.10000000E+01  0.00000000E+00
  4.40000000E+01  1.00000000E+01  0.00000000E+00
  4.40000000E+01  9.00000000E+00  0.00000000E+00
  4.40000000E+01  8.00000000E+00  0.00000000E+00
  4.40000000E+01  7.00000000E+00  0.00000000E+00
  4.40000000E+01  6.00000000E+00  0.00000000E+00
  4.40000000E+01  5.00000000E+00  0.00000000E+00
  4.40000000E+01  4.00000000E+00  0.00000000E+00
  4.40000000E+01  3.00000000E+00  0.00000000E+00
  4.40000000E+01  2.00000000E+00  0.00000000E+00
  4.40000000E+01  1.00000000E+00  0.00000000E+00
  4.40000000E+01 -2.66453526E-15  0.00000000E+00
  4.50000000E+01  2.40000000E+01  0.00000000E+00
  4.50000000E+01  2.30000000E+01  0.00000000E+00
  4.50000000E+01  2.20000000E+01  0.00000000E+00
  4.50000000E+01  2.10000000E+01  0.00000000E+00
  4.50000000E+01  2.00000000E+01  0.00000000E+00
  4.50000000E+01  1.90000000E+01  0.00000000E+00
  4.50000000E+01  1.80000000E+01  0.00000000E+00
  4.50000000E+01  1.70000000E+01  0.00000000E+00
  4.50000000E+01  1.60000000E+01  0.00000000E+00
  4.50000000E+01  1.50000000E+01  0.00000000E+00
  4.50000000E+01  1.40000000E+01  0.00000000E+00
  4.50000000E+01  1.30000000E+01  0.00000000E+00
  4.50000000E+01  1.20000000E+01  0.00000000E+00
  4.50000000E+01  1.10000000E+01  0.00000000E+00
  4.50000000E+01  1.00000000E+01  0.00000000E+00
  4.50000000E+01  9.00000000E+00  0.00000000E+00
  4.50000000E+01  8.00000000E+00  0.00000000E+00
  4.50000000E+01  7.00000000E+00  0.00000000E+00
  4.50000000E+01  6.00000000E+00  0.00000000E+00
  4.50000000E+01  5.00000000E+00  0.00000000E+00
  4.50000000E+01  4.00000000E+00  0.00000000E+00
  4.50000000E+01  3.00000000E+00  0.00000000E+00
  4.50000000E+01  2.00000000E+00  0.00000000E+00
  4.50000000E+01  1.00000000E+00  0.00000000E+00
  4.50000000E+01 -2.66453526E-15  0.00000000E+00
  4.60000000E+01  2.40000000E+01  0.00000000E+00
  4.60000000E+01  2.30000000E+01  0.00000000E+00
  4.60000000E+01  2.20000000E+01  0.00000000E+00
  4.60000000E+01  2.10000000E+01  0.00000000E+00
  4.60000000E+01  2.00000000E+01  0.00000000E+00
  4.60000000E+01  1.90000000E+01  0.00000000E+00
  4.60000000E+01  1.80000000E+01  0.00000000E+00
  4.60000000E+01  1.70000000E+01  0.00000000E+00
  4.60000000E+01  1.60000000E+01  0.00000000E+00
  4.60000000E+01  1.50000000E+01  0.00000000E+00
  4.60000000E+01  1.40000000E+01  0.00000000E+00
  4.60000000E+01  1.30000000E+01  0.00000000E+00
  4.60000000E+01  1.20000000E+01  0.00000000E+00
  4.60000000E+01  1.10000000E+01  0.00000000E+00
  4.60000000E+01  1.00000000E+01  0.00000000E+00
  4.60000000E+01  9.00000000E+00  0.00000000E+00
  4.60000000E+01  8.00000000E+00  0.00000000E+00
  4.60000000E+01  7.00000000E+00  0.00000000E+00
  4.60000000E+01  6.00000000E+00  0.00000000E+00
  4.60000000E+01  5.00000000E+00  0.00000000E+00
  4.60000000E+01  4.00000000E+00  0.00000000E+00
  4.60000000E+01  3.00000000E+00  0.00000000E+00
  4.60000000E+01  2.00000000E+00  0.00000000E+00
  4.60000000E+01  1.00000000E+00  0.00000000E+00
  4.60000000E+01 -2.66453526E-15  0.00000000E+00
  4.70000000E+01  2.40000000E+01  0.00000000E+00
  4.70000000E+01  2.30000000E+01  0.00000000E+00
  4.70000000E+01  2.20000000E+01  0.00000000E+00
  4.70000000E+01  2.10000000E+01  0.00000000E+00
  4.70000000E+01  2.00000000E+01  0.00000000E+00
  4.70000000E+01  1.90000000E+01  0.00000000E+00
  4.70000000E+01  1.80000000E+01  0.00000000E+00
  4.70000000E+01  1.70000000E+01  0.00000000E+00
  4.70000000E+01  1.60000000E+01  0.00000000E+00
  4.70000000E+01  1.50000000E+01  0.00000000E+00
  4.70000000E+01  1.40000000E+01  0.00000000E+00
  4.70000000E+01  1.30000000E+01  0.00000000E+00
  4.70000000E+01  1.20000000E+01  0.00000000E+00
  4.70000000E+01  1.10000000E+01  0.00000000E+00
  4.70000000E+01  1.00000000E+01  0.00000000E+00
  4.70000000E+01  9.00000000E+00  0.00000000E+00
  4.70000000E+01  8.00000000E+00  0.00000000E+00
  4.70000000E+01  7.00000000E+00  0.00000000E+00
  4.70000000E+01  6.00000000E+00  0.00000000E+00
  4.70000000E+01  5.00000000E+00  0.00000000E+00
  4.70000000E+01  4.00000000E+00  0.00000000E+00
  4.70000000E+01  3.00000000E+00  0.00000000E+00
  4.70000000E+01  2.00000000E+00  0.00000000E+00
  4.70000000E+01  1.00000000E+00  0.00000000E+00
  4.70000000E+01 -2.66453526E-15  0.00000000E+00
  4.80000000E+01  2.40000000E+01  0.00000000E+00
  4.80000000E+01  2.30000000E+01  0.00000000E+00
  4.80000000E+01  2.20000000E+01  0.00000000E+00
  4.80000000E+01  2.10000000E+01  0.00000000E+00
  4.80000000E+01  2.00000000E+01  0.00000000E+00
  4.80000000E+01  1.90000000E+01  0.00000000E+00
  4.80000000E+01  1.80000000E+01  0.00000000E+00
  4.80000000E+01  1.70000000E+01  0.00000000E+00
  4.80000000E+01  1.60000000E+01  0.00000000E+00
  4.80000000E+01  1.50000000E+01  0.00000000E+00
  4.80000000E+01  1.40000000E+01  0.00000000E+00
  4.80000000E+01  1.30000000E+01  0.00000000E+00
  4.80000000E+01  1.20000000E+01  0.00000000E+00
  4.80000000E+01  1.10000000E+01  0.00000000E+00
  4.80000000E+01  1.00000000E+01  0.00000000E+00
  4.80000000E+01  9.00000000E+00  0.00000000E+00
  4.80000000E+01  8.00000000E+00  0.00000000E+00
  4.80000000E+01  7.00000000E+00  0.00000000E+00
  4.80000000E+01  6.00000000E+00  0.00000000E+00
  4.80000000E+01  5.00000000E+00  0.00000000E+00
  4.80000000E+01  4.00000000E+00  0.00000000E+00
  4.80000000E+01  3.00000000E+00  0.00000000E+00
  4.80000000E+01  2.00000000E+00  0.00000000E+00
  4.80000000E+01  1.00000000E+00  0.00000000E+00
  4.80000000E+01 -2.66453526E-15  0.00000000E+00
CELLS      1152      5760
         4           0           1          26          25
         4           1           2          27          26
         4           2           3          28          27
         4           3           4          29          28
         4           4           5          30          29
         4           5           6          31          30
         4           6           7          32          31
         4           7           8          33          32
         4           8           9          34          33
         4           9          10          35          34
         4          10          11          36          35
         4          11          12          37          36
         4          12          13          38          37
         4          13          14          39          38
         4          14          15          40          39
         4          15          16          41          40
         4          16          17          42          41
         4          17          18          43          42
         4          18          19          44          43
         4          19          20          45          44
         4          20          21          46          45
         4          21          22          47          46
         4          22          23          48          47
         4          23          24          49          48
         4          25          26          51          50
         4          26          27          52          51
         4          27          28          53          52
         4          28          29          54          53
         4          29          30          55          54
         4          30          31          56          55
         4          31          32          57          56
         4          32          33          58          57
         4          33          34          59          58
         4          34          35          60          59
         4          35          36          61          60
         4          36          37          62          61
         4          37          38          63          62
         4          38          39          64          63
         4          39          40          65          64
         4          40          41          66          65
         4          41          42          67          66
         4          42          43          68          67
         4          43          44          69          68
         4          44          45          70          69
         4          45          46          71          70
         4          46          47          72          71
         4          47          48          73          72
         4          48          49          74          73
         4          50          51          76          75
         4          51          52          77          76
         4          52          53          78          77
         4          53          54          79          78
         4          54          55          80          79
         4          55          56          81          80
         4          56          57          82          81
         4          57          58          83          82
         4          58          59          84          83
         4          59          60          85          84
         4          60          61          86          85
         4          61          62          87          86
         4          62          63          88          87
         4          63          64          89          88
         4          64          65          90          89
         4          65          66          91          90
         4          66          67          92          91
         4          67          68          93          92
         4          68          69          94          93
         4          69          70          95          94
         4          70          71          96          95
         4          71          72          97          96
         4          72          73          98          97
         4          73          74          99          98
         4          75          76         101         100
         4          76          77         102         101
         4          77          78         103         102
         4          78          79         104         103
         4          79          80         105         104
         4          80          81         106         105
         4          81          82         107         106
         4          82          83         108         107
         4          83          84         109         108
         4          84          85         110         109
         4          85          86         111         110
         4          86          87         112         111
         4          87          88         113         112
         4          88          89         114         113
         4          89          90         115         114
         4          90          91         116         115
         4          91          92         117         116
         4          92          93         118         117
         4          93          94         119         118
         4          94          95         120         119
         4          95          96         121         120
         4          96          97         122         121
         4          97          98         123         122
         4          98          99         124         123
         4         100         101         126         125
         4         101         102         127         126
         4         102         103         128         127
         4         103         104         129         128
         4         104         105         130         129
         4         105         106         131         130
         4         106         107         132         131
         4         107         108         133         132
         4         108         109         134         133
         4         109         110         135         134
         4         110         111         136         135
         4         111         112         137         136
         4         112         113         138         137
         4         113         114         139         138
         4         114         115         140         139
         4         115         116         141         140
         4         116         117         142         141
         4         117         118         143         142
         4         118         119         144         143
         4         119         120         145         144
         4         120         121         146         145
         4         121         122         147         146
         4         122         123         148         147
         4         123         124         149         148
         4         125         126         151         150
         4         126         127         152         151
         4         127         128         153         152
         4         128         129         154         153
         4         129         130         155         154
         4         130         131         156         155
         4         131         132         157         156
         4         132         133         158         157
         4         133         134         159         158
         4         134         135         160         159
         4         135         136         161         160
         4         136         137         162         161
         4         137         138         163         162
         4         138         139         164         163
         4         139         140         165         164
         4         140         141         166         165
         4         141         142         167         166
         4         142         143         168         167
         4         143         144         169         168
         4         144         145         170         169
         4         145         146         171         170
         4         146         147         172         171
         4         147         148         173         172
         4         148         149         174         173
         4         150         151         176         175
         4         151         152         177         176
         4         152         153         178         177
         4         153         154         179         178
         4         154         155         180         179
         4         155         156         181         180
         4         156         157         182         181
         4         157         158         183         182
         4         158         159         184         183
         4         159         160         185         184
         4         160         161         186         185
         4         161         162         187         186
         4         162         163         188         187
         4         163         164         189         188
         4         164         165         190         189
         4         165         166         191         190
         4         166         167         192         191
         4         167         168         193         192
         4         168         169         194         193
         4         169         170         195         194
         4         170         171         196         195
         4         171         172         197         196
         4         172         173         198         197
         4         173         174         199         198
         4         175         176         201         200
         4         176         177         202         201
         4         177         178         203         202
         4         178         179         204         203
         4         179         180         205         204
         4         180         181         206         205
         4         181         182         207         206
         4         182         183         208         207
         4         183         184         209         208
         4         184         185         210         209
         4         185         186         211         210
         4         186         187         212         211
         4         187         188         213         212
         4         188         189         214         213
         4         189         190         215         214
         4         190         191         216         215
         4         191         192         217         216
         4         192         193         218         217
         4         193         194         219         218
         4         194         195         220         219
         4         195         196         221         220
         4         196         197         222         221
         4         197         198         223         222
         4         198         199         224         223
         4         200         201         226         225
         4         201         202         227         226
         4         202         203         228         227
         4         203         204         229         228
         4         204         205         230         229
         4         205         206         231         230
         4         206         207         232         231
         4         207         208         233         232
         4         208         209         234         233
         4         209         210         235         234
         4         210         211         236         235
         4         211         212         237         236
         4         212         213         238         237
         4         213         214         239         238
         4         214         215         240         239
         4         215         216         241         240
         4         216         217         242         241
         4         217         218         243         242
         4         218         219         244         243
         4         219         220         245         244
         4         220         221         246         245
         4         221         222         247         246
         4         222         223         248         247
         4         223         224         249         248
         4         225         226         251         250
         4         226         227         252         251
         4         227         228         253         252
         4         228         229         254         253
         4         229         230         255         254
         4         230         231         256         255
         4         231         232         257         256
         4         232         233         258         257
         4         233         234         259         258
         4         234         235         260         259
         4         235         236         261         260
         4         236         237         262         261
         4         237         238         263         262
         4         238         239         264         263
         4         239         240         265         264
         4         240         241         266         265
         4         241         242         267         266
         4         242         243         268         267
         4         243         244         269         268
         4         244         245         270         269
         4         245         246         271         270
         4         246         247         272         271
         4         247         248         273         272
         4         248         249         274         273
         4         250         251         276         275
         4         251         252         277         276
         4         252         253         278         277
         4         253         254         279         278
         4         254         255         280         279
         4         255         256         281         280
         4         256         257         282         281
         4         257         258         283         282
         4         258         259         284         283
         4         259         260         285         284
         4         260         261         286         285
         4         261         262         287         286
         4         262         263         288         287
         4         263         264         289         288
         4         264         265         290         289
         4         265         266         291         290
         4         266         267         292         291
         4         267         268         293         292
         4         268         269         294         293
         4         269         270         295         294
         4         270         271         296         295
         4         271         272         297         296
         4         272         273         298         297
         4         273         274         299         298
         4         275         276         301         300
         4         276         277         302         301
         4         277         278         303         302
         4         278         279         304         303
         4         279         280         305         304
         4         280         281         306         305
         4         281         282         307         306
         4         282         283         308         307
         4         283         284         309         308
         4         284         285         310         309
         4         285         286         311         310
         4         286         287         312         311
         4         287         288         313         312
         4         288         289         314         313
         4         289         290         315         314
         4         290         291         316         315
         4         291         292         317         316
         4         292         293         318         317
         4         293         294         319         318
         4         294         295         320         319
         4         295         296         321         320
         4         296         297         322         321
         4         297         298         323         322
         4         298         299         324         323
         4         300         301         326         325
         4         301         302         327         326
         4         302         303         328         327
         4         303         304         329         328
         4         304         305         330         329
         4         305         306         331         330
         4         306         307         332         331
         4         307         308         333         332
         4         308         309         334         333
         4         309         310         335         334
         4         310         311         336         335
         4         311         312         337         336
         4         312         313         338         337
         4         313         314         339         338
         4         314         315         340         339
         4         315         316         341         340
         4         316         317         342         341
         4         317         318         343         342
         4         318         319         344         343
         4         319         320         345         344
         4         320         321         346         345
         4         321         322         347         346
         4         322         323         348         347
         4         323         324         349         348
         4         325         326         351         350
         4         326         327         352         351
         4         327         328         353         352
         4         328         329         354         353
         4         329         330         355         354
         4         330         331         356         355
         4         331         332         357         356
         4         332         333         358         357
         4         333         334         359         358
         4         334         335         360         359
         4         335         336         361         360
         4         336         337         362         361
         4         337         338         363         362
         4         338         339         364         363
         4         339         340         365         364
         4         340         341         366         365
         4         341         342         367         366
         4         342         343         368         367
         4         343         344         369         368
         4         344         345         370         369
         4         345         346         371         370
         4         346         347         372         371
         4         347         348         373         372
         4         348         349         374         373
         4         350         351         376         375
         4         351         352         377         376
         4         352         353         378         377
         4         353         354         379         378
         4         354         355         380         379
         4         355         356         381         380
         4         356         357         382         381
         4         357         358         383         382
         4         358         359         384         383
         4         359         360         385         384
         4         360         361         386         385
         4         361         362         387         386
         4         362         363         388         387
         4         363         364         389         388
         4         364         365         390         389
         4         365         366         391         390
         4         366         367         392         391
         4         367         368         393         392
         4         368         369         394         393
         4         369         370         395         394
         4         370         371         396         395
         4         371         372         397         396
         4         372         373         398         397
         4         373         374         399         398
         4         375         376         401         400
         4         376         377         402         401
         4         377         378         403         402
         4         378         379         404         403
         4         379         380         405         404
         4         380         381         406         405
         4         381         382         407         406
         4         382         383         408         407
         4         383         384         409         408
         4         384         385         410         409
         4         385         386         411         410
         4         386         387         412         411
         4         387         388         413         412
         4         388         389         414         413
         4         389         390         415         414
         4         390         391         416         415
         4         391         392         417         416
         4         392         393         418         417
         4         393         394         419         418
         4         394         395         420         419
         4         395         396         421         420
         4         396         397         422         421
         4         397         398         423         422
         4         398         399         424         423
         4         400         401         426         425
         4         401         402         427         426
         4         402         403         428         427
         4         403         404         429         428
         4         404         405         430         429
         4         405         406         431         430
         4         406         407         432         431
         4         407         408         433         432
         4         408         409         434         433
         4         409         410         435         434
         4         410         411         436         435
         4         411         412         437         436
         4         412         413         438         437
         4         413         414         439         438
         4         414         415         440         439
         4         415         416         441         440
         4         416         417         442         441
         4         417         418         443         442
         4         418         419         444         443
         4         419         420         445         444
         4         420         421         446         445
         4         421         422         447         446
         4         422         423         448         447
         4         423         424         449         448
         4         425         426         451         450
         4         426         427         452         451
         4         427         428         453         452
         4         428         429         454         453
         4         429         430         455         454
         4         430         431         456         455
         4         431         432         457         456
         4         432         433         458         457
         4         433         434         459         458
         4         434         435         460         459
         4         435         436         461         460
         4         436         437         462         461
         4         437         438         463         462
         4         438         439         464         463
         4         439         440         465         464
         4         440         441         466         465
         4         441         442         467         466
         4         442         443         468         467
         4         443         444         469         468
         4         444         445         470         469
         4         445         446         471         470
         4         446         447         472         471
         4         447         448         473         472
         4         448         449         474         473
         4         450         451         476         475
         4         451         452         477         476
         4         452         453         478         477
         4         453         454         479         478
         4         454         455         480         479
         4         455         456         481         480
         4         456         457         482         481
         4         457         458         483         482
         4         458         459         484         483
         4         459         460         485         484
         4         460         461         486         485
         4         461         462         487         486
         4         462         463         488         487
         4         463         464         489         488
         4         464         465         490         489
         4         465         466         491         490
         4         466         467         492         491
         4         467         468         493         492
         4         468         469         494         493
         4         469         470         495         494
         4         470         471         496         495
         4         471         472         497         496
         4         472         473         498         497
         4         473         474         499         498
         4         475         476         501         500
         4         476         477         502         501
         4         477         478         503         502
         4         478         479         504         503
         4         479         480         505         504
         4         480         481         506         505
         4         481         482         507         506
         4         482         483         508         507
         4         483         484         509         508
         4         484         485         510         509
         4         485         486         511         510
         4         486         487         512         511
         4         487         488         513         512
         4         488         489         514         513
         4         489         490         515         514
         4         490         491         516         515
         4         491         492         517         516
         4         492         493         518         517
         4         493         494         519         518
         4         494         495         520         519
         4         495         496         521         520
         4         496         497         522         521
         4         497         498         523         522
         4         498         499         524         523
         4         500         501         526         525
         4         501         502         527         526
         4         502         503         528         527
         4         503         504         529         528
         4         504         505         530         529
         4         505         506         531         530
         4         506         507         532         531
         4         507         508         533         532
         4         508         509         534         533
         4         509         510         535         534
         4         510         511         536         535
         4         511         512         537         536
         4         512         513         538         537
         4         513         514         539         538
         4         514         515         540         539
         4         515         516         541         540
         4         516         517         542         541
         4         517         518         543         542
         4         518         519         544         543
         4         519         520         545         544
         4         520         521         546         545
         4         521         522         547         546
         4         522         523         548         547
         4         523         524         549         548
         4         525         526         551         550
         4         526         527         552         551
         4         527         528         553         552
         4         528         529         554         553
         4         529         530         555         554
         4         530         531         556         555
         4         531         532         557         556
         4         532         533         558         557
         4         533         534         559         558
         4         534         535         560         559
         4         535         536         561         560
         4         536         537         562         561
         4         537         538         563         562
         4         538         539         564         563
         4         539         540         565         564
         4         540         541         566         565
         4         541         542         567         566
         4         542         543         568         567
         4         543         544         569         568
         4         544         545         570         569
         4         545         546         571         570
         4         546         547         572         571
         4         547         548         573         572
         4         548         549         574         573
         4         550         551         576         575
         4         551         552         577         576
         4         552         553         578         577
         4         553         554         579         578
         4         554         555         580         579
         4         555         556         581         580
         4         556         557         582         581
         4         557         558         583         582
         4         558         559         584         583
         4         559         560         585         584
         4         560         561         586         585
         4         561         562         587         586
         4         562         563         588         587
         4         563         564         589         588
         4         564         565         590         589
         4         565         566         591         590
         4         566         567         592         591
         4         567         568         593         592
         4         568         569         594         593
         4         569         570         595         594
         4         570         571         596         595
         4         571         572         597         596
         4         572         573         598         597
         4         573         574         599         598
         4         575         576         601         600
         4         576         577         602         601
         4         577         578         603         602
         4         578         579         604         603
         4         579         580         605         604
         4         580         581         606         605
         4         581         582         607         606
         4         582         583         608         607
         4         583         584         609         608
         4         584         585         610         609
         4         585         586         611         610
         4         586         587         612         611
         4         587         588         613         612
         4         588         589         614         613
         4         589         590         615         614
         4         590         591         616         615
         4         591         592         617         616
         4         592         593         618         617
         4         593         594         619         618
         4         594         595         620         619
         4         595         596         621         620
         4         596         597         622         621
         4         597         598         623         622
         4         598         599         624         623
         4         600         601         626         625
         4         601         602         627         626
         4         602         603         628         627
         4         603         604         629         628
         4         604         605         630         629
         4         605         606         631         630
         4         606         607         632         631
         4         607         608         633         632
         4         608         609         634         633
         4         609         610         635         634
         4         610         611         636         635
         4         611         612         637         636
         4         612         613         638         637
         4         613         614         639         638
         4         614         615         640         639
         4         615         616         641         640
         4         616         617         642         641
         4         617         618         643         642
         4         618         619         644         643
         4         619         620         645         644
         4         620         621         646         645
         4         621         622         647         646
         4         622         623         648         647
         4         623         624         649         648
         4         625         626         651         650
         4         626         627         652         651
         4         627         628         653         652
         4         628         629         654         653
         4         629         630         655         654
         4         630         631         656         655
         4         631         632         657         656
         4         632         633         658         657
         4         633         634         659         658
         4         634         635         660         659
         4         635         636         661         660
         4         636         637         662         661
         4         637         638         663         662
         4         638         639         664         663
         4         639         640         665         664
         4         640         641         666         665
         4         641         642         667         666
         4         642         643         668         667
         4         643         644         669         668
         4         644         645         670         669
         4         645         646         671         670
         4         646         647         672         671
         4         647         648         673         672
         4         648         649         674         673
         4         650         651         676         675
         4         651         652         677         676
         4         652         653         678         677
         4         653         654         679         678
         4         654         655         680         679
         4         655         656         681         680
         4         656         657         682         681
         4         657         658         683         682
         4         658         659         684         683
         4         659         660         685         684
         4         660         661         686         685
         4         661         662         687         686
         4         662         663         688         687
         4         663         664         689         688
         4         664         665         690         689
         4         665         666         691         690
         4         666         667         692         691
         4         667         668         693         692
         4         668         669         694         693
         4         669         670         695         694
         4         670         671         696         695
         4         671         672         697         696
         4         672         673         698         697
         4         673         674         699         698
         4         675         676         701         700
         4         676         677         702         701
         4         677         678         703         702
         4         678         679         704         703
         4         679         680         705         704
         4         680         681         706         705
         4         681         682         707         706
         4         682         683         708         707
         4         683         684         709         708
         4         684         685         710         709
         4         685         686         711         710
         4         686         687         712         711
         4         687         688         713         712
         4         688         689         714         713
         4         689         690         715         714
         4         690         691         716         715
         4         691         692         717         716
         4         692         693         718         717
         4         693         694         719         718
         4         694         695         720         719
         4         695         696         721         720
         4         696         697         722         721
         4         697         698         723         722
         4         698         699         724         723
         4         700         701         726         725
         4         701         702         727         726
         4         702         703         728         727
         4         703         704         729         728
         4         704         705         730         729
         4         705         706         731         730
         4         706         707         732         731
         4         707         708         733         732
         4         708         709         734         733
         4         709         710         735         734
         4         710         711         736         735
         4         711         712         737         736
         4         712         713         738         737
         4         713         714         739         738
         4         714         715         740         739
         4         715         716         741         740
         4         716         717         742         741
         4         717         718         743         742
         4         718         719         744         743
         4         719         720         745         744
         4         720         721         746         745
         4         721         722         747         746
         4         722         723         748         747
         4         723         724         749         748
         4         725         726         751         750
         4         726         727         752         751
         4         727         728         753         752
         4         728         729         754         753
         4         729         730         755         754
         4         730         731         756         755
         4         731         732         757         756
         4         732         733         758         757
         4         733         734         759         758
         4         734         735         760         759
         4         735         736         761         760
         4         736         737         762         761
         4         737         738         763         762
         4         738         739         764         763
         4         739         740         765         764
         4         740         741         766         765
         4         741         742         767         766
         4         742         743         768         767
         4         743         744         769         768
         4         744         745         770         769
         4         745         746         771         770
         4         746         747         772         771
         4         747         748         773         772
         4         748         749         774         773
         4         750         751         776         775
         4         751         752         777         776
         4         752         753         778         777
         4         753         754         779         778
         4         754         755         780         779
         4         755         756         781         780
         4         756         757         782         781
         4         757         758         783         782
         4         758         759         784         783
         4         759         760         785         784
         4         760         761         786         785
         4         761         762         787         786
         4         762         763         788         787
         4         763         764         789         788
         4         764         765         790         789
         4         765         766         791         790
         4         766         767         792         791
         4         767         768         793         792
         4         768         769         794         793
         4         769         770         795         794
         4         770         771         796         795
         4         771         772         797         796
         4         772         773         798         797
         4         773         774         799         798
         4         775         776         801         800
         4         776         777         802         801
         4         777         778         803         802
         4         778         779         804         803
         4         779         780         805         804
         4         780         781         806         805
         4         781         782         807         806
         4         782         783         808         807
         4         783         784         809         808
         4         784         785         810         809
         4         785         786         811         810
         4         786         787         812         811
         4         787         788         813         812
         4         788         789         814         813
         4         789         790         815         814
         4         790         791         816         815
         4         791         792         817         816
         4         792         793         818         817
         4         793         794         819         818
         4         794         795         820         819
         4         795         796         821         820
         4         796         797         822         821
         4         797         798         823         822
         4         798         799         824         823
         4         800         801         826         825
         4         801         802         827         826
         4         802         803         828         827
         4         803         804         829         828
         4         804         805         830         829
         4         805         806         831         830
         4         806         807         832         831
         4         807         808         833         832
         4         808         809         834         833
         4         809         810         835         834
         4         810         811         836         835
         4         811         812         837         836
         4         812         813         838         837
         4         813         814         839         838
         4         814         815         840         839
         4         815         816         841         840
         4         816         817         842         841
         4         817         818         843         842
         4         818         819         844         843
         4         819         820         845         844
         4         820         821         846         845
         4         821         822         847         846
         4         822         823         848         847
         4         823         824         849         848
         4         825         826         851         850
         4         826         827         852         851
         4         827         828         853         852
         4         828         829         854         853
         4         829         830         855         854
         4         830         831         856         855
         4         831         832         857         856
         4         832         833         858         857
         4         833         834         859         858
         4         834         835         860         859
         4         835         836         861         860
         4         836         837         862         861
         4         837         838         863         862
         4         838         839         864         863
         4         839         840         865         864
         4         840         841         866         865
         4         841         842         867         866
         4         842         843         868         867
         4         843         844         869         868
         4         844         845         870         869
         4         845         846         871         870
         4         846         847         872         871
         4         847         848         873         872
         4         848         849         874         873
         4         850         851         876         875
         4         851         852         877         876
         4         852         853         878         877
         4         853         854         879         878
         4         854         855         880         879
         4         855         856         881         880
         4         856         857         882         881
         4         857         858         883         882
         4         858         859         884         883
         4         859         860         885         884
         4         860         861         886         885
         4         861         862         887         886
         4         862         863         888         887
         4         863         864         889         888
         4         864         865         890         889
         4         865         866         891         890
         4         866         867         892         891
         4         867         868         893         892
         4         868         869         894         893
         4         869         870         895         894
         4         870         871         896         895
         4         871         872         897         896
         4         872         873         898         897
         4         873         874         899         898
         4         875         876         901         900
         4         876         877         902         901
         4         877         878         903         902
         4         878         879         904         903
         4         879         880         905         904
         4         880         881         906         905
         4         881         882         907         906
         4         882         883         908         907
         4         883         884         909         908
         4         884         885         910         909
         4         885         886         911         910
         4         886         887         912         911
         4         887         888         913         912
         4         888         889         914         913
         4         889         890         915         914
         4         890         891         916         915
         4         891         892         917         916
         4         892         893         918         917
         4         893         894         919         918
         4         894         895         920         919
         4         895         896         921         920
         4         896         897         922         921
         4         897         898         923         922
         4         898         899         924         923
         4         900         901         926         925
         4         901         902         927         926
         4         902         903         928         927
         4         903         904         929         928
         4         904         905         930         929
         4         905         906         931         930
         4         906         907         932         931
         4         907         908         933         932
         4         908         909         934         933
         4         909         910         935         934
         4         910         911         936         935
         4         911         912         937         936
         4         912         913         938         937
         4         913         914         939         938
         4         914         915         940         939
         4         915         916         941         940
         4         916         917         942         941
         4         917         918         943         942
         4         918         919         944         943
         4         919         920         945         944
         4         920         921         946         945
         4         921         922         947         946
         4         922         923         948         947
         4         923         924         949         948
         4         925         926         951         950
         4         926         927         952         951
         4         927         928         953         952
         4         928         929         954         953
         4         929         930         955         954
         4         930         931         956         955
         4         931         932         957         956
         4         932         933         958         957
         4         933         934         959         958
         4         934         935         960         959
         4         935         936         961         960
         4         936         937         962         961
         4         937         938         963         962
         4         938         939         964         963
         4         939         940         965         964
         4         940         941         966         965
         4         941         942         967         966
         4         942         943         968         967
         4         943         944         969         968
         4         944         945         970         969
         4         945         946         971         970
         4         946         947         972         971
         4         947         948         973         972
         4         948         949         974         973
         4         950         951         976         975
         4         951         952         977         976
         4         952         953         978         977
         4         953         954         979         978
         4         954         955         980         979
         4         955         956         981         980
         4         956         957         982         981
         4         957         958         983         982
         4         958         959         984         983
         4         959         960         985         984
         4         960         961         986         985
         4         961         962         987         986
         4         962         963         988         987
         4         963         964         989         988
         4         964         965         990         989
         4         965         966         991         990
         4         966         967         992         991
         4         967         968         993         992
         4         968         969         994         993
         4         969         970         995         994
         4         970         971         996         995
         4         971         972         997         996
         4         972         973         998         997
         4         973         974         999         998
         4         975         976        1001        1000
         4         976         977        1002        1001
         4         977         978        1003        1002
         4         978         979        1004        1003
         4         979         980        1005        1004
         4         980         981        1006        1005
         4         981         982        1007        1006
         4         982         983        1008        1007
         4         983         984        1009        1008
         4         984         985        1010        1009
         4         985         986        1011        1010
         4         986         987        1012        1011
         4         987         988        1013        1012
         4         988         989        1014        1013
         4         989         990        1015        1014
         4         990         991        1016        1015
         4         991         992        1017        1016
         4         992         993        1018        1017
         4         993         994        1019        1018
         4         994         995        1020        1019
         4         995         996        1021        1020
         4         996         997        1022        1021
         4         997         998        1023        1022
         4         998         999        1024        1023
         4        1000        1001        1026        1025
         4        1001        1002        1027        1026
         4        1002        1003        1028        1027
         4        1003        1004        1029        1028
         4        1004        1005        1030        1029
         4        1005        1006        1031        1030
         4        1006        1007        1032        1031
         4        1007        1008        1033        1032
         4        1008        1009        1034        1033
         4        1009        1010        1035        1034
         4        1010        1011        1036        1035
         4        1011        1012        1037        1036
         4        1012        1013        1038        1037
         4        1013        1014        1039        1038
         4        1014        1015        1040        1039
         4        1015        1016        1041        1040
         4        1016        1017        1042        1041
         4        1017        1018        1043        1042
         4        1018        1019        1044        1043
         4        1019        1020        1045        1044
         4        1020        1021        1046        1045
         4        1021        1022        1047        1046
         4        1022        1023        1048        1047
         4        1023        1024        1049        1048
         4        1025        1026        1051        1050
         4        1026        1027        1052        1051
         4        1027        1028        1053        1052
         4        1028        1029        1054        1053
         4        1029        1030        1055        1054
         4        1030        1031        1056        1055
         4        1031        1032        1057        1056
         4        1032        1033        1058        1057
         4        1033        1034        1059        1058
         4        1034        1035        1060        1059
         4        1035        1036        1061        1060
         4        1036        1037        1062        1061
         4        1037        1038        1063        1062
         4        1038        1039        1064        1063
         4        1039        1040        1065        1064
         4        1040        1041        1066        1065
         4        1041        1042        1067        1066
         4        1042        1043        1068        1067
         4        1043        1044        1069        1068
         4        1044        1045        1070        1069
         4        1045        1046        1071        1070
         4        1046        1047        1072        1071
         4        1047        1048        1073        1072
         4        1048        1049        1074        1073
         4        1050        1051        1076        1075
         4        1051        1052        1077        1076
         4        1052        1053        1078        1077
         4        1053        1054        1079        1078
         4        1054        1055        1080        1079
         4        1055        1056        1081        1080
         4        1056        1057        1082        1081
         4        1057        1058        1083        1082
         4        1058        1059        1084        1083
         4        1059        1060        1085        1084
         4        1060        1061        1086        1085
         4        1061        1062        1087        1086
         4        1062        1063        1088        1087
         4        1063        1064        1089        1088
         4        1064        1065        1090        1089
         4        1065        1066        1091        1090
         4        1066        1067        1092        1091
         4        1067        1068        1093        1092
         4        1068        1069        1094        1093
         4        1069        1070        1095        1094
         4        1070        1071        1096        1095
         4        1071        1072        1097        1096
         4        1072        1073        1098        1097
         4        1073        1074        1099        1098
         4        1075        1076        1101        1100
         4        1076        1077        1102        1101
         4        1077        1078        1103        1102
         4        1078        1079        1104        1103
         4        1079        1080        1105        1104
         4        1080        1081        1106        1105
         4        1081        1082        1107        1106
         4        1082        1083        1108        1107
         4        1083        1084        1109        1108
         4        1084        1085        1110        1109
         4        1085        1086        1111        1110
         4        1086        1087        1112        1111
         4        1087        1088        1113        1112
         4        1088        1089        1114        1113
         4        1089        1090        1115        1114
         4        1090        1091        1116        1115
         4        1091        1092        1117        1116
         4        1092        1093        1118        1117
         4        1093        1094        1119        1118
         4        1094        1095        1120        1119
         4        1095        1096        1121        1120
         4        1096        1097        1122        1121
         4        1097        1098        1123        1122
         4        1098        1099        1124        1123
         4        1100        1101        1126        1125
         4        1101        1102        1127        1126
         4        1102        1103        1128        1127
         4        1103        1104        1129        1128
         4        1104        1105        1130        1129
         4        1105        1106        1131        1130
         4        1106        1107        1132        1131
         4        1107        1108        1133        1132
         4        1108        1109        1134        1133
         4        1109        1110        1135        1134
         4        1110        1111        1136        1135
         4        1111        1112        1137        1136
         4        1112        1113        1138        1137
         4        1113        1114        1139        1138
         4        1114        1115        1140        1139
         4        1115        1116        1141        1140
         4        1116        1117        1142        1141
         4        1117        1118        1143        1142
         4        1118        1119        1144        1143
         4        1119        1120        1145        1144
         4        1120        1121        1146        1145
         4        1121        1122        1147        1146
         4        1122        1123        1148        1147
         4        1123        1124        1149        1148
         4        1125        1126        1151        1150
         4        1126        1127        1152        1151
         4        1127        1128        1153        1152
         4        1128        1129        1154        1153
         4        1129        1130        1155        1154
         4        1130        1131        1156        1155
         4        1131        1132        1157        1156
         4        1132        1133        1158        1157
         4        1133        1134        1159        1158
         4        1134        1135        1160        1159
         4        1135        1136        1161        1160
         4        1136        1137        1162        1161
         4        1137        1138        1163        1162
         4        1138        1139        1164        1163
         4        1139        1140        1165        1164
         4        1140        1141        1166        1165
         4        1141        1142        1167        1166
         4        1142        1143        1168        1167
         4        1143        1144        1169        1168
         4        1144        1145        1170        1169
         4        1145        1146        1171        1170
         4        1146        1147        1172        1171
         4        1147        1148        1173        1172
         4        1148        1149        1174        1173
         4        1150        1151        1176        1175
         4        1151        1152        1177        1176
         4        1152        1153        1178        1177
         4        1153        1154        1179        1178
         4        1154        1155        1180        1179
         4        1155        1156        1181        1180
         4        1156        1157        1182        1181
         4        1157        1158        1183        1182
         4        1158        1159        1184        1183
         4        1159        1160        1185        1184
         4        1160        1161        1186        1185
         4        1161        1162        1187        1186
         4        1162        1163        1188        1187
         4        1163        1164        1189        1188
         4        1164        1165        1190        1189
         4        1165        1166        1191        1190
         4        1166        1167        1192        1191
         4        1167        1168        1193        1192
         4        1168        1169        1194        1193
         4        1169        1170        1195        1194
         4        1170        1171        1196        1195
         4        1171        1172        1197        1196
         4        1172        1173        1198        1197
         4        1173        1174        1199        1198
         4        1175        1176        1201        1200
         4        1176        1177        1202        1201
         4        1177        1178        1203        1202
         4        1178        1179        1204        1203
         4        1179        1180        1205        1204
         4        1180        1181        1206        1205
         4        1181        1182        1207        1206
         4        1182        1183        1208        1207
         4        1183        1184        1209        1208
         4        1184        1185        1210        1209
         4        1185        1186        1211        1210
         4        1186        1187        1212        1211
         4        1187        1188        1213        1212
         4        1188        1189        1214        1213
         4        1189        1190        1215        1214
         4        1190        1191        1216        1215
         4        1191        1192        1217        1216
         4        1192        1193        1218        1217
         4        1193        1194        1219        1218
         4        1194        1195        1220        1219
         4        1195        1196        1221        1220
         4        1196        1197        1222        1221
         4        1197        1198        1223        1222
         4        1198        1199        1224        1223
CELL_TYPES       1152
9
9
9
9
9
9
9
9
9
9
9
9
9
9
9
9
9
9
9
9
9
9
9
9
9
9
9
9
9
9
9
9
9
9
9
9
9
9
9
9
9
9
9
9
9
9
9
9
9
9
9
9
9
9
9
9
9
9
9
9
9
9
9
9
9
9
9
9
9
9
9
9
9
9
9
9
9
9
9
9
9
9
9
9
9
9
9
9
9
9
9
9
9
9
9
9
9
9
9
9
9
9
9
9
9
9
9
9
9
9
9
9
9
9
9
9
9
9
9
9
9
9
9
9
9
9
9
9
9
9
9
9
9
9
9
9
9
9
9
9
9
9
9
9
9
9
9
9
9
9
9
9
9
9
9
9
9
9
9
9
9
9
9
9
9
9
9
9
9
9
9
9
9
9
9
9
9
9
9
9
9
9
9
9
9
9
9
9
9
9
9
9
9
9
9
9
9
9
9
9
9
9
9
9
9
9
9
9
9
9
9
9
9
9
9
9
9
9
9
9
9
9
9
9
9
9
9
9
9
9
9
9
9
9
9
9
9
9
9
9
9
9
9
9
9
9
9
9
9
9
9
9
9
9
9
9
9
9
9
9
9
9
9
9
9
9
9
9
9
9
9
9
9
9
9
9
9
9
9
9
9
9
9
9
9
9
9
9
9
9
9
9
9
9
9
9
9
9
9
9
9
9
9
9
9
9
9
9
9
9
9
9
9
9
9
9
9
9
9
9
9
9
9
9
9
9
9
9
9
9
9
9
9
9
9
9
9
9
9
9
9
9
9
9
9
9
9
9
9
9
9
9
9
9
9
9
9
9
9
9
9
9
9
9
9
9
9
9
9
9
9
9
9
9
9
9
9
9
9
9
9
9
9
9
9
9
9
9
9
9
9
9
9
9
9
9
9
9
9
9
9
9
9
9
9
9
9
9
9
9
9
9
9
9
9
9
9
9
9
9
9
9
9
9
9
9
9
9
9
9
9
9
9
9
9
9
9
9
9
9
9
9
9
9
9
9
9
9
9
9
9
9
9
9
9
9
9
9
9
9
9
9
9
9
9
9
9
9
9
9
9
9
9
9
9
9
9
9
9
9
9
9
9
9
9
9
9
9
9
9
9
9
9
9
9
9
9
9
9
9
9
9
9
9
9
9
9
9
9
9
9
9
9
9
9
9
9
9
9
9
9
9
9
9
9
9
9
9
9
9
9
9
9
9
9
9
9
9
9
9
9
9
9
9
9
9
9
9
9
9
9
9
9
9
9
9
9
9
9
9
9
9
9
9
9
9
9
9
9
9
9
9
9
9
9
9
9
9
9
9
9
9
9
9
9
9
9
9
9
9
9
9
9
9
9
9
9
9
9
9
9
9
9
9
9
9
9
9
9
9
9
9
9
9
9
9
9
9
9
9
9
9
9
9
9
9
9
9
9
9
9
9
9
9
9
9
9
9
9
9
9
9
9
9
9
9
9
9
9
9
9
9
9
9
9
9
9
9
9
9
9
9
9
9
9
9
9
9
9
9
9
9
9
9
9
9
9
9
9
9
9
9
9
9
9
9
9
9
9
9
9
9
9
9
9
9
9
9
9
9
9
9
9
9
9
9
9
9
9
9
9
9
9
9
9
9
9
9
9
9
9
9
9
9
9
9
9
9
9
9
9
9
9
9
9
9
9
9
9
9
9
9
9
9
9
9
9
9
9
9
9
9
9
9
9
9
9
9
9
9
9
9
9
9
9
9
9
9
9
9
9
9
9
9
9
9
9
9
9
9
9
9
9
9
9
9
9
9
9
9
9
9
9
9
9
9
9
9
9
9
9
9
9
9
9
9
9
9
9
9
9
9
9
9
9
9
9
9
9
9
9
9
9
9
9
9
9
9
9
9
9
9
9
9
9
9
9
9
9
9
9
9
9
9
9
9
9
9
9
9
9
9
9
9
9
9
9
9
9
9
9
9
9
9
9
9
9
9
9
9
9
9
9
9
9
9
9
9
9
9
9
9
9
9
9
9
9
9
9
9
9
9
9
9
9
9
9
9
9
9
9
9
9
9
9
9
9
9
9
9
9
9
9
9
9
9
9
9
9
9
9
9
9
9
9
9
9
9
9
9
9
9
9
9
9
9
9
9
9
9
9
9
9
9
9
9
9
9
9
9
9
9
9
9
9
9
9
9
9
9
9
9
9
9
9
9
9
9
9
9
9
9
9
9
9
9
9
9
9
9
9
9
9
9
9
9
9
9
9
9
9
9
9
9
9
9
9
9
9
9
9
9
9
9
9
9
9
9
9
9
9
9
9
9
9
9
9
9
9
9
9
9
9
9
9
9
9
9
9
9
9
9
9
9
9
9
9
9
9
9
9
9
9
9
9
9
9
9
9
9
9
9
9
9
9
9
9
9
9
9
9
9
9
9
9
9
9
9
9
9
9
9
9
9
9
9
9
9
9
9
9
9
9
9
9
9
9
9
9
9
9
9
9
9
9
9
9
9
9
9
9
9
9
9
9
9
9
9
9
9
9
9
9
9
9
9
9
9
9
9
9
9
9
9
9
9
9
9
9
9
9
9
9
9
9
9
9
9
9
9
9
9
9
9
9
9
9
9
9
9
9
9
POINT_DATA      1225
SCALARS p double 
LOOKUP_TABLE default
  1.449318532576694E-015
  1.413189504458659E-015
  1.325492196025360E-015
  1.332474190730535E-015
  1.406982031168092E-015
  1.438767456185425E-015
  1.507446579035117E-015
  1.558304173563824E-015
  1.616841748506694E-015
  1.644090492403696E-015
  1.633306366241430E-015
  1.645947814491556E-015
  1.634959359611717E-015
  1.671027230295946E-015
  1.684385296624019E-015
  1.675707849216866E-015
  1.668029300061503E-015
  1.657303235268697E-015
  1.657963778918788E-015
  1.693398831558317E-015
  1.708713034086318E-015
  1.708463845076040E-015
  1.709243798815033E-015
  1.709796211671771E-015
  1.709228384933508E-015
  1.305337204225445E-015
  1.269866175412012E-015
  1.285432223060736E-015
  1.295136575661879E-015
  1.303016142046602E-015
  1.398639710167473E-015
  1.472653413919115E-015
  1.481189941871777E-015
  1.559662775102867E-015
  1.635704589069264E-015
  1.620921081735416E-015
  1.628424872322451E-015
  1.630130009716101E-015
  1.657158158690926E-015
  1.665205814694330E-015
  1.667150208079175E-015
  1.665395895389783E-015
  1.648731962625131E-015
  1.655990603563125E-015
  1.687280524475948E-015
  1.702185864561730E-015
  1.703459442324650E-015
  1.706996631701834E-015
  1.708438739861514E-015
  1.707291143420768E-015
  1.099077336618541E-015
  1.008526634686267E-015
  1.062675256603984E-015
  1.174040913744998E-015
  1.243580469680001E-015
  1.341770292962101E-015
  1.377214305821985E-015
  1.417055514699088E-015
  1.537719385144689E-015
  1.614802480804982E-015
  1.612087522087045E-015
  1.603966795826047E-015
  1.604263062870605E-015
  1.623688143055228E-015
  1.626458796649624E-015
  1.643190382180238E-015
  1.639404333027178E-015
  1.641586730531608E-015
  1.655148034541849E-015
  1.675452361679073E-015
  1.689066334778767E-015
  1.694960687903100E-015
  1.698045852264094E-015
  1.701510185847120E-015
  1.703713057519675E-015
  0.000000000000000E+000
  7.002675729761833E-016
  8.300209551444472E-016
  9.902749599380221E-016
  1.118086109690796E-015
  1.184605931909070E-015
  1.260675706009870E-015
  1.341076186386473E-015
  1.421786122737753E-015
  1.519612008706874E-015
  1.567982416022825E-015
  1.557902196668649E-015
  1.567832234979500E-015
  1.592231218985993E-015
  1.617413803346381E-015
  1.616730044983858E-015
  1.612517224046325E-015
  1.628826679944471E-015
  1.652305304244606E-015
  1.662825518682489E-015
  1.673887408234565E-015
  1.681403070621074E-015
  1.688551878157230E-015
  1.693851634817440E-015
  1.696172215025865E-015
  0.000000000000000E+000
  3.797978173961690E-016
  6.841133339332881E-016
  8.522767717223630E-016
  9.532482561936848E-016
  1.052070022200683E-015
  1.168976321117522E-015
  1.224965191634089E-015
  1.318232989583768E-015
  1.434837267770201E-015
  1.492484295657507E-015
  1.511001087263490E-015
  1.534240164141444E-015
  1.555782820608924E-015
  1.576036137916819E-015
  1.568078119418792E-015
  1.576977033552766E-015
  1.601279799241717E-015
  1.629465516943471E-015
  1.650431241494033E-015
  1.658592534571954E-015
  1.668165587580563E-015
  1.678429171565244E-015
  1.683866635335772E-015
  1.685382055909025E-015
  0.000000000000000E+000
  2.942256107387055E-016
  5.393775806097145E-016
  7.087230062996327E-016
  8.163345265930959E-016
  9.375163603544890E-016
  1.053459688516144E-015
  1.152264049579215E-015
  1.249584671271510E-015
  1.347877135501775E-015
  1.422517948828116E-015
  1.443356977653994E-015
  1.479479303325298E-015
  1.515733861087944E-015
  1.533325667428581E-015
  1.540285733360130E-015
  1.550328115297183E-015
  1.582665155344582E-015
  1.607515934510547E-015
  1.629515478419243E-015
  1.643831773957179E-015
  1.650554938470302E-015
  1.663265356358894E-015
  1.670112708680813E-015
  1.671416062412715E-015
  0.000000000000000E+000
  2.248372987069611E-016
  4.323555103281132E-016
  6.180534553387105E-016
  7.642874553103912E-016
  8.815845109969350E-016
  9.594748128762710E-016
  1.097338419761441E-015
  1.194350504600048E-015
  1.251926743163908E-015
  1.319244214255454E-015
  1.367696111785333E-015
  1.415625542329908E-015
  1.467894527024402E-015
  1.491104583905346E-015
  1.505093930814771E-015
  1.519691614427916E-015
  1.556272035407698E-015
  1.587888884972303E-015
  1.607101075955407E-015
  1.622000229113216E-015
  1.635804213723722E-015
  1.643818713728976E-015
  1.652805641864652E-015
  1.656651182839395E-015
  0.000000000000000E+000
  1.740933741438361E-016
  3.670193996397031E-016
  5.648461546550136E-016
  7.256503732874144E-016
  8.363391704086062E-016
  9.141698756148518E-016
  1.029644750662766E-015
  1.112013107206418E-015
  1.172430817927672E-015
  1.224961918111563E-015
  1.282231273059995E-015
  1.373487333526074E-015
  1.420268917527487E-015
  1.444922891494809E-015
  1.479544625237246E-015
  1.502550882959200E-015
  1.529329490538380E-015
  1.564084177860433E-015
  1.581558732867673E-015
  1.596786276993586E-015
  1.617590974824927E-015
  1.625208232857527E-015
  1.633375312863570E-015
  1.634751825121750E-015
  0.000000000000000E+000
  1.666868380566130E-016
  3.354485305753092E-016
  5.085049351633179E-016
  6.230999049795998E-016
  7.514449482038049E-016
  8.628022239533850E-016
  9.585962297260532E-016
  1.031659221990549E-015
  1.088402352745079E-015
  1.147590635937330E-015
  1.236499562971544E-015
  1.337003186839395E-015
  1.386362989274032E-015
  1.424047150412933E-015
  1.450103522827206E-015
  1.486959267874265E-015
  1.508423214029301E-015
  1.532104852621648E-015
  1.556639602021635E-015
  1.574751136836626E-015
  1.591055295475668E-015
  1.603424572748048E-015
  1.608606596923818E-015
  1.609024711517851E-015
  0.000000000000000E+000
  1.396278444153362E-016
  2.977626124601540E-016
  4.548268976408508E-016
  5.572530512800077E-016
  6.761465734391138E-016
  8.116197970974450E-016
  8.893948545218491E-016
  9.556257183476471E-016
  1.020577451153494E-015
  1.085973026069469E-015
  1.189968461655520E-015
  1.289853596171882E-015
  1.351023825584559E-015
  1.390789577149085E-015
  1.425049948925709E-015
  1.447095841443724E-015
  1.469888286424082E-015
  1.506330052101192E-015
  1.533754299254119E-015
  1.549592748897454E-015
  1.560717973574866E-015
  1.572713657236478E-015
  1.577879977534646E-015
  1.578341970171850E-015
  0.000000000000000E+000
  1.257383778203142E-016
  2.667441587926722E-016
  3.989274695121863E-016
  5.152424924611085E-016
  6.269992772998172E-016
  7.251075106864696E-016
  8.320708582212318E-016
  8.935828516108909E-016
  9.572252604225431E-016
  1.031753662554868E-015
  1.135926704081477E-015
  1.230682820105088E-015
  1.304027477781397E-015
  1.362840978854902E-015
  1.395205406630878E-015
  1.406275835975631E-015
  1.427076604702301E-015
  1.472863930074779E-015
  1.500239286975345E-015
  1.520470487945211E-015
  1.527588957200955E-015
  1.532028715698714E-015
  1.538935109174706E-015
  1.542083991443726E-015
  0.000000000000000E+000
  1.236385627798332E-016
  2.414482472304631E-016
  3.565844245101488E-016
  4.687817701046548E-016
  5.359181570117533E-016
  6.356686864094925E-016
  7.266772913402832E-016
  8.124620909550561E-016
  9.008553893805589E-016
  9.994718052938453E-016
  1.081244857797064E-015
  1.172090509525996E-015
  1.249367004063429E-015
  1.313851906856132E-015
  1.339187558757428E-015
  1.362841086850882E-015
  1.391958968269634E-015
  1.421941099575401E-015
  1.454693088267470E-015
  1.478026110187407E-015
  1.486072137088445E-015
  1.490225815089836E-015
  1.497789791428804E-015
  1.501931654926564E-015
  0.000000000000000E+000
  1.144942006908342E-016
  2.182792389350937E-016
  3.221327622328567E-016
  4.136786814734865E-016
  4.814530864979311E-016
  5.648110816788439E-016
  6.368988131671558E-016
  7.513322859120822E-016
  8.554277249231388E-016
  9.542320121221508E-016
  1.029412902739157E-015
  1.107225759898114E-015
  1.186726317916976E-015
  1.253738339864819E-015
  1.287433937445194E-015
  1.318862792397364E-015
  1.351544014683606E-015
  1.381229467321713E-015
  1.415092384326444E-015
  1.429157811122471E-015
  1.439510458988260E-015
  1.448231929802775E-015
  1.457160496875419E-015
  1.460970296877632E-015
  0.000000000000000E+000
  1.007424772432983E-016
  2.006781223056406E-016
  3.046601369217142E-016
  3.888101007864702E-016
  4.713700134076701E-016
  5.446509885957236E-016
  6.278170392564309E-016
  7.180020977553133E-016
  8.137472786965410E-016
  9.077706729270854E-016
  9.917785193121590E-016
  1.083682396960495E-015
  1.155835391315484E-015
  1.207652572121007E-015
  1.256726566882700E-015
  1.286541595919921E-015
  1.306412825513806E-015
  1.333644781439630E-015
  1.363853920516607E-015
  1.385617320189138E-015
  1.399832790341117E-015
  1.409214354280351E-015
  1.414162903283030E-015
  1.417458131077548E-015
  0.000000000000000E+000
  8.884464859764710E-017
  1.843559598953097E-016
  2.705582027050524E-016
  3.615491916732077E-016
  4.610630887015920E-016
  5.399196704874329E-016
  6.027069603614494E-016
  6.930581742418047E-016
  7.870083511570371E-016
  8.859412546739702E-016
  9.662750850644126E-016
  1.047530430291818E-015
  1.112794615461759E-015
  1.162979725033611E-015
  1.213331236148187E-015
  1.249220513412877E-015
  1.270547406751900E-015
  1.287182779518789E-015
  1.312015828708045E-015
  1.332365430838279E-015
  1.352051630130676E-015
  1.361956086531977E-015
  1.370021637233179E-015
  1.374020198460415E-015
  0.000000000000000E+000
  8.774214345548269E-017
  1.732368128076266E-016
  2.484899857396461E-016
  3.370113722310113E-016
  4.358827179199435E-016
  5.265862286412409E-016
  6.097759363936133E-016
  6.859091828481579E-016
  7.585966179040170E-016
  8.364783044493033E-016
  9.378977382469370E-016
  1.008770321226268E-015
  1.068023907739094E-015
  1.128211311809535E-015
  1.162433112934189E-015
  1.197284972007541E-015
  1.225070599422465E-015
  1.246629974824377E-015
  1.263998824333689E-015
  1.283476583838733E-015
  1.301993283733136E-015
  1.316948264377294E-015
  1.326205206407630E-015
  1.329877619896051E-015
  0.000000000000000E+000
  8.372610295642158E-017
  1.614852465364163E-016
  2.380694899707403E-016
  3.221117537271757E-016
  4.005556669192161E-016
  5.051894010416716E-016
  6.021540783690685E-016
  6.686731897266850E-016
  7.415913084374681E-016
  8.071410835329153E-016
  8.930472317130743E-016
  9.760090348555622E-016
  1.035512775121741E-015
  1.071606092827527E-015
  1.104719736931727E-015
  1.147597793653584E-015
  1.165741120374232E-015
  1.192546941781048E-015
  1.219166944528364E-015
  1.240819112923815E-015
  1.258021233995691E-015
  1.274266301295953E-015
  1.280823629412752E-015
  1.284250463197964E-015
  0.000000000000000E+000
  7.814867157515223E-017
  1.542217906455993E-016
  2.263976377496895E-016
  2.966878130094638E-016
  3.825383122215937E-016
  4.805243919912561E-016
  5.603486120702745E-016
  6.439590215466889E-016
  7.254170101402077E-016
  8.053353230552335E-016
  8.788136723570787E-016
  9.447389427292091E-016
  9.911209485111720E-016
  1.022583384374844E-015
  1.056397010398706E-015
  1.096285377667879E-015
  1.123000045392661E-015
  1.143757792254219E-015
  1.169279080352242E-015
  1.192001285479191E-015
  1.212163535703427E-015
  1.224049864422365E-015
  1.233247036599557E-015
  1.236341572431283E-015
  0.000000000000000E+000
  7.705926989669298E-017
  1.504467656181872E-016
  2.162668383751289E-016
  2.788785227320404E-016
  3.460722589766054E-016
  4.272874021510987E-016
  5.248057161456108E-016
  6.171193075824957E-016
  6.987996467685020E-016
  7.772587295886611E-016
  8.500574702869682E-016
  9.023992058302297E-016
  9.482883255875239E-016
  9.980176542257021E-016
  1.028254824387678E-015
  1.048889646450461E-015
  1.076762343990505E-015
  1.100480017542046E-015
  1.124938933347537E-015
  1.148908563725242E-015
  1.167101174376562E-015
  1.175073723579900E-015
  1.185222973483087E-015
  1.187615884883561E-015
  0.000000000000000E+000
  7.154330197111698E-017
  1.605453251806080E-016
  2.279643626739912E-016
  2.776107984414341E-016
  3.430041364281306E-016
  4.117584631762288E-016
  5.019151923847783E-016
  5.785516744635219E-016
  6.642019960913592E-016
  7.425475147095605E-016
  8.244189214796687E-016
  8.793073571983618E-016
  9.086182584988508E-016
  9.581956915653407E-016
  9.832687267887493E-016
  1.000289740705101E-015
  1.022942957857425E-015
  1.049907461091883E-015
  1.076276949521658E-015
  1.100952423213744E-015
  1.117141023400645E-015
  1.129332851675156E-015
  1.136298288007485E-015
  1.139959406569039E-015
  0.000000000000000E+000
  6.807041296409994E-017
  1.447558409121572E-016
  2.191760535682345E-016
  2.725345782500702E-016
  3.399032716780265E-016
  4.236447815204757E-016
  4.958102935761650E-016
  5.632772561201099E-016
  6.391535313176540E-016
  7.105328237795518E-016
  7.814911455975371E-016
  8.452831868770139E-016
  8.856013279199935E-016
  9.162145689320605E-016
  9.399069543927874E-016
  9.526806109056885E-016
  9.758800689461416E-016
  1.004199849370325E-015
  1.034152981325563E-015
  1.050618467875444E-015
  1.066567197982581E-015
  1.081719299187981E-015
  1.090444234596275E-015
  1.094168187644624E-015
  0.000000000000000E+000
  6.837737522153016E-017
  1.248416891786903E-016
  1.936289755027136E-016
  2.656270883943432E-016
  3.368033796527315E-016
  4.087212258806093E-016
  4.785668259291381E-016
  5.584278284872076E-016
  6.179882743753413E-016
  6.790290004183251E-016
  7.354883296452418E-016
  7.951435006306204E-016
  8.454134666940035E-016
  8.747840227172593E-016
  9.045312451021801E-016
  9.241988792607386E-016
  9.513456223685730E-016
  9.727140355441813E-016
  9.971241029199593E-016
  1.010049055120438E-015
  1.022833964014337E-015
  1.036271947381591E-015
  1.046385575535420E-015
  1.049905546912561E-015
  0.000000000000000E+000
  5.098641695225199E-017
  1.269300256362147E-016
  1.966689386018290E-016
  2.568261971616934E-016
  3.078850161908412E-016
  3.730217363684602E-016
  4.492966074096492E-016
  5.189889344385375E-016
  5.867329990119739E-016
  6.460961597902042E-016
  7.077960267828217E-016
  7.635861680906995E-016
  8.008914990306712E-016
  8.403949543764220E-016
  8.672723425722121E-016
  8.925759824109350E-016
  9.143238255580547E-016
  9.411132065284042E-016
  9.574961037466475E-016
  9.727356138715506E-016
  9.853176788991894E-016
  9.975559495325284E-016
  1.004634706190136E-015
  1.007056350079833E-015
  0.000000000000000E+000
  3.127381315192984E-017
  1.056033499847118E-016
  1.728075356935675E-016
  2.336012288680498E-016
  2.787040880830151E-016
  3.372444056568920E-016
  4.184069821471873E-016
  4.884728553418983E-016
  5.519911330317764E-016
  6.117202834213321E-016
  6.733499150578806E-016
  7.282413455200596E-016
  7.756181956038688E-016
  8.055461276104819E-016
  8.311262541459536E-016
  8.534219697228771E-016
  8.713112140581337E-016
  8.937751350004769E-016
  9.124912283175314E-016
  9.312445341710666E-016
  9.469270340726928E-016
  9.581921494558247E-016
  9.645826633457142E-016
  9.660991864935691E-016
  0.000000000000000E+000
  4.596652898360505E-017
  9.388750776713469E-017
  1.557972456531924E-016
  2.077992878675051E-016
  2.687496349543668E-016
  3.306113384935066E-016
  3.953148665802797E-016
  4.581852274020056E-016
  5.188452371369628E-016
  5.748704108758969E-016
  6.290572693746837E-016
  6.839097604531285E-016
  7.364231080894773E-016
  7.647515114610644E-016
  7.939741906341469E-016
  8.140630206011472E-016
  8.356115441298238E-016
  8.533916317665170E-016
  8.707022732002022E-016
  8.918846287550668E-016
  9.067551449430080E-016
  9.182344356135594E-016
  9.252356610508596E-016
  9.273019796139354E-016
  0.000000000000000E+000
  5.016198489022160E-017
  9.684911178068050E-017
  1.465718751914499E-016
  2.019436131304930E-016
  2.586480856419176E-016
  3.150702994076659E-016
  3.729403810916305E-016
  4.299520009787099E-016
  4.857236434542823E-016
  5.376289387167282E-016
  5.858633654442194E-016
  6.350424664335062E-016
  6.831131844889884E-016
  7.242930657378219E-016
  7.549547024453762E-016
  7.724836777275962E-016
  7.952999475377648E-016
  8.178619320522270E-016
  8.384295521471153E-016
  8.540249353161722E-016
  8.705081812800315E-016
  8.801191469919852E-016
  8.863340978898766E-016
  8.883816678641581E-016
  0.000000000000000E+000
  4.493138263786309E-017
  8.522035500091125E-017
  1.336369091105327E-016
  1.921527358983468E-016
  2.430022725969423E-016
  2.958267843426712E-016
  3.484293043896820E-016
  4.026072228733097E-016
  4.542505025225860E-016
  5.045843867958450E-016
  5.518684912750214E-016
  6.025051409619680E-016
  6.431711264992239E-016
  6.865381134520757E-016
  7.138237704500485E-016
  7.367629947055685E-016
  7.572907869542845E-016
  7.856473278400177E-016
  8.071525233193921E-016
  8.204263261075577E-016
  8.352450386189216E-016
  8.443761517422139E-016
  8.489346715065102E-016
  8.510940283072822E-016
  0.000000000000000E+000
  4.240561620452922E-017
  7.709799506470183E-017
  1.253474855027421E-016
  1.672345978629706E-016
  2.261506296351836E-016
  2.785402210790388E-016
  3.330993306512120E-016
  3.835908741848207E-016
  4.295827588063416E-016
  4.770456846358020E-016
  5.229309793868326E-016
  5.721537101705799E-016
  6.098401885728092E-016
  6.426457290328003E-016
  6.740069505272847E-016
  7.046797394822271E-016
  7.306319731019286E-016
  7.569811448745069E-016
  7.739154699612811E-016
  7.879956316510283E-016
  8.003811050128078E-016
  8.080213364180732E-016
  8.133869746204022E-016
  8.149834475881292E-016
  0.000000000000000E+000
  4.669670723651169E-017
  8.333579877221122E-017
  1.123845618139267E-016
  1.582053270815877E-016
  2.145940456842536E-016
  2.732746692155042E-016
  3.238336419713823E-016
  3.675044006724182E-016
  4.131865565810295E-016
  4.536121968968361E-016
  5.008206328866234E-016
  5.386436134677193E-016
  5.723712720770225E-016
  6.033722883885403E-016
  6.402109233431674E-016
  6.707562140811839E-016
  6.981349078510016E-016
  7.232716636971849E-016
  7.434108675579176E-016
  7.579190242474808E-016
  7.681041599453389E-016
  7.741835450552414E-016
  7.777084875325325E-016
  7.790807484614532E-016
  0.000000000000000E+000
  4.359333771545941E-017
  7.936808248437811E-017
  1.153183124125341E-016
  1.572327695208843E-016
  2.062050760752223E-016
  2.581312792561499E-016
  3.036154696630292E-016
  3.478631956541480E-016
  3.937440503947362E-016
  4.432202050553382E-016
  4.763393976010278E-016
  5.073981205584503E-016
  5.384918249609341E-016
  5.741732253767309E-016
  6.065724082768269E-016
  6.332111467691958E-016
  6.646027045450494E-016
  6.860847917974332E-016
  7.054962470591947E-016
  7.228653460779418E-016
  7.312628358892650E-016
  7.387431024021978E-016
  7.428597974581803E-016
  7.439763469195126E-016
  0.000000000000000E+000
  3.286482415814909E-017
  6.598423127225309E-017
  1.093781975826246E-016
  1.559138870391957E-016
  1.968968578767216E-016
  2.411743975810097E-016
  2.837575401558883E-016
  3.255608237389601E-016
  3.741137317464405E-016
  4.181743299195298E-016
  4.516453363357959E-016
  4.892460457736644E-016
  5.165476899460064E-016
  5.479613067656405E-016
  5.774680177864092E-016
  6.031314286165676E-016
  6.315583633466030E-016
  6.521775006726326E-016
  6.658547972672236E-016
  6.808785220579664E-016
  6.957935125782914E-016
  7.031111597247078E-016
  7.085140628513011E-016
  7.102963694921962E-016
  0.000000000000000E+000
  2.599953295931942E-017
  6.214234183627341E-017
  1.002694447479520E-016
  1.434540074319072E-016
  1.871905511043119E-016
  2.285604194300747E-016
  2.702274371610414E-016
  3.120325683563665E-016
  3.552948138324771E-016
  3.951962688799405E-016
  4.422647807422073E-016
  4.772602844863170E-016
  5.056686940449614E-016
  5.307458379667554E-016
  5.553728465786930E-016
  5.820746018345768E-016
  6.039279885351492E-016
  6.267190206447952E-016
  6.384010507823648E-016
  6.503377230486361E-016
  6.640782590221438E-016
  6.722048716795033E-016
  6.768012737918541E-016
  6.784075863762015E-016
  0.000000000000000E+000
  2.469774172371735E-017
  6.145684403147867E-017
  9.928101206320900E-017
  1.358380986022927E-016
  1.771958583993656E-016
  2.172409326490073E-016
  2.600309936083828E-016
  3.031852217230676E-016
  3.369868812797729E-016
  3.843006972692084E-016
  4.267094725795824E-016
  4.594365610884082E-016
  4.889586132312497E-016
  5.102954593363396E-016
  5.347847228372691E-016
  5.600326570434580E-016
  5.795646370538226E-016
  6.026126569692785E-016
  6.174429409780073E-016
  6.286065753507542E-016
  6.374479640452932E-016
  6.448095644078830E-016
  6.485878422649597E-016
  6.500782755335950E-016
  0.000000000000000E+000
  2.890626113364175E-017
  5.943247988204065E-017
  8.912795861264140E-017
  1.301493548713744E-016
  1.690954833587031E-016
  2.079115396327412E-016
  2.466472664729436E-016
  2.847397259966659E-016
  3.242126639615256E-016
  3.651070129453018E-016
  4.085654642439258E-016
  4.479686473282045E-016
  4.693684451149517E-016
  4.920971255140804E-016
  5.151532052646456E-016
  5.365582590852839E-016
  5.581647175636697E-016
  5.769682538044309E-016
  5.940746093865795E-016
  6.075822684927147E-016
  6.152152512389518E-016
  6.200687768247824E-016
  6.230207598228351E-016
  6.240754230124850E-016
  0.000000000000000E+000
  2.847259441996959E-017
  5.654001980675178E-017
  8.278251148150882E-017
  1.227108649744221E-016
  1.637047164895407E-016
  1.984018820759773E-016
  2.318231476332230E-016
  2.706435451263506E-016
  3.135419523991445E-016
  3.507426954292505E-016
  3.884231588067218E-016
  4.264857927195338E-016
  4.517747908740889E-016
  4.782448514553467E-016
  4.999401029800449E-016
  5.209426364923251E-016
  5.366319716086947E-016
  5.571107222879483E-016
  5.740819901459013E-016
  5.861368989680791E-016
  5.924749071159689E-016
  5.959355013818033E-016
  5.988272750321678E-016
  5.993560830277223E-016
  0.000000000000000E+000
  2.800332248196689E-017
  5.630487457090152E-017
  8.705535329452714E-017
  1.159317854218558E-016
  1.496403921053315E-016
  1.850735928657422E-016
  2.229829103168232E-016
  2.637299456778791E-016
  3.002442669621972E-016
  3.371422530672078E-016
  3.720794252888144E-016
  4.037609896827264E-016
  4.333037057547059E-016
  4.619054809579434E-016
  4.814532469074865E-016
  5.013642463261615E-016
  5.160829310112922E-016
  5.359463741041190E-016
  5.516302138794882E-016
  5.641476142937172E-016
  5.696477769642884E-016
  5.736024008088166E-016
  5.759559990970777E-016
  5.765895547363494E-016
  0.000000000000000E+000
  2.876541114789022E-017
  5.509258360171706E-017
  8.378771638014316E-017
  1.091657843957895E-016
  1.350155969279704E-016
  1.737992366882017E-016
  2.115653663386727E-016
  2.489926493309480E-016
  2.869887787529010E-016
  3.217864476206776E-016
  3.582911890050270E-016
  3.882832708567604E-016
  4.166738862553242E-016
  4.405566049234322E-016
  4.582118321878035E-016
  4.793116740698992E-016
  4.993220844872113E-016
  5.162518378698721E-016
  5.318108516824207E-016
  5.435212191328906E-016
  5.476810644024979E-016
  5.521874005047069E-016
  5.553456889957736E-016
  5.564213409932797E-016
  0.000000000000000E+000
  2.897057432509872E-017
  5.478467930090267E-017
  8.196782607602695E-017
  1.073161429953026E-016
  1.384288810950954E-016
  1.711394505149278E-016
  2.035241305910520E-016
  2.366351662436919E-016
  2.758404166344407E-016
  3.100871699079616E-016
  3.410908455163843E-016
  3.706616590981954E-016
  3.985081041521568E-016
  4.214760600026899E-016
  4.435136622286807E-016
  4.654896546606863E-016
  4.843943576435308E-016
  4.978628906158974E-016
  5.119002064328726E-016
  5.213175625920966E-016
  5.269763801071898E-016
  5.331153180444036E-016
  5.370175653471704E-016
  5.384110166256082E-016
  0.000000000000000E+000
  2.928742461375154E-017
  5.607086170916424E-017
  8.151371339107498E-017
  1.091131428111416E-016
  1.386472357133521E-016
  1.719161828056820E-016
  2.063376045351889E-016
  2.404579687874120E-016
  2.737465357683798E-016
  2.988512189908499E-016
  3.295940305654560E-016
  3.589229459898237E-016
  3.857280606087838E-016
  4.134805890656283E-016
  4.357033843922281E-016
  4.552932670218304E-016
  4.696655718232789E-016
  4.804037880534332E-016
  4.938124488905571E-016
  5.032678981406956E-016
  5.105084881774357E-016
  5.169624965518744E-016
  5.206692493544877E-016
  5.215614146755972E-016
  0.000000000000000E+000
  2.587261671057115E-017
  5.392185536886687E-017
  8.402951115119103E-017
  1.108691587343970E-016
  1.384417070781469E-016
  1.734920642210054E-016
  2.082093791195257E-016
  2.342207164787682E-016
  2.636561165399089E-016
  2.919854460754746E-016
  3.231552653268840E-016
  3.519748604353244E-016
  3.797241249137600E-016
  4.038851218076921E-016
  4.255159561481301E-016
  4.411561120317789E-016
  4.544962481541176E-016
  4.686810917612530E-016
  4.801268087297296E-016
  4.895038245427294E-016
  4.963239711663261E-016
  5.013761645967839E-016
  5.045697913437202E-016
  5.054806177410803E-016
  0.000000000000000E+000
  2.730830247264731E-017
  5.212623982398467E-017
  8.456745355928323E-017
  1.096725780854700E-016
  1.411176603824726E-016
  1.735726352358562E-016
  2.022652775808606E-016
  2.254779017400056E-016
  2.546862993789068E-016
  2.840629941179158E-016
  3.118579626280085E-016
  3.403263281353916E-016
  3.694091347483117E-016
  3.933336907691665E-016
  4.153608515645093E-016
  4.286588642577019E-016
  4.425508252647348E-016
  4.561602877851171E-016
  4.669047648214540E-016
  4.759747406462026E-016
  4.831222171129788E-016
  4.877568585244795E-016
  4.904385757611693E-016
  4.914771486507446E-016
  0.000000000000000E+000
  2.898249586806354E-017
  5.204380475731548E-017
  7.999654925413655E-017
  1.099524250716679E-016
  1.402258015599079E-016
  1.692908159598779E-016
  1.938906623286141E-016
  2.192893001369904E-016
  2.492515766788298E-016
  2.745253774557437E-016
  3.028942600161749E-016
  3.298126814378817E-016
  3.569998348265325E-016
  3.826230703529113E-016
  4.035337371817445E-016
  4.184306806325805E-016
  4.336973199037180E-016
  4.459910515973217E-016
  4.562060374782591E-016
  4.648146636809874E-016
  4.706973529178732E-016
  4.752567960176579E-016
  4.784085241023885E-016
  4.792550962546791E-016
  0.000000000000000E+000
  2.347297738575357E-017
  5.105639745510314E-017
  7.885284940865988E-017
  1.084451882834180E-016
  1.361413630521424E-016
  1.629285700810569E-016
  1.890022524104062E-016
  2.163252246849610E-016
  2.427006488266356E-016
  2.704645387825790E-016
  2.978216406163139E-016
  3.231164196719301E-016
  3.469009906533713E-016
  3.708079179667529E-016
  3.910298949971903E-016
  4.087374924803267E-016
  4.237018934525592E-016
  4.365778682496994E-016
  4.467003920561287E-016
  4.551414587677545E-016
  4.602377035230858E-016
  4.646778651936383E-016
  4.676567865821164E-016
  4.683449446516225E-016
  0.000000000000000E+000
  2.503030635012580E-017
  5.361905647416787E-017
  8.000382775162711E-017
  1.071971278123545E-016
  1.346592389974469E-016
  1.604619067625115E-016
  1.848957777510754E-016
  2.111450602770317E-016
  2.371468508648604E-016
  2.650315747157210E-016
  2.917053800237330E-016
  3.174780729062153E-016
  3.404185319764818E-016
  3.619174006713291E-016
  3.816992454464346E-016
  3.988534516514438E-016
  4.136142983965668E-016
  4.266089871950611E-016
  4.370914227847238E-016
  4.454968190766515E-016
  4.510216837631190E-016
  4.554981922800645E-016
  4.581988131219525E-016
  4.591264909738451E-016
  0.000000000000000E+000
  3.074021497864112E-017
  5.523887393845657E-017
  7.919616111281399E-017
  1.055018243100132E-016
  1.310348840743247E-016
  1.557523332757485E-016
  1.820967079796894E-016
  2.083245475355312E-016
  2.336757182059701E-016
  2.599517290845668E-016
  2.856045747917630E-016
  3.102134526109687E-016
  3.331375872376320E-016
  3.535423491156408E-016
  3.727738898663123E-016
  3.913063870353337E-016
  4.076234850103128E-016
  4.196417971535095E-016
  4.295267003561512E-016
  4.371287237194836E-016
  4.429429849981275E-016
  4.476799637935861E-016
  4.504328731888785E-016
  4.512590122446479E-016
  0.000000000000000E+000
  2.967922493995357E-017
  5.219990087780656E-017
  7.755250360430186E-017
  1.024055905409942E-016
  1.255456226308198E-016
  1.501093708119666E-016
  1.777893120506785E-016
  2.048200814752884E-016
  2.308907271718704E-016
  2.562929414188027E-016
  2.812805882894206E-016
  3.058007163241012E-016
  3.281928739195061E-016
  3.481859577336665E-016
  3.666155907257911E-016
  3.852328499543859E-016
  4.014784870711566E-016
  4.132473899119992E-016
  4.229425296668146E-016
  4.307286829460003E-016
  4.366768085874939E-016
  4.411587132489822E-016
  4.440187889956138E-016
  4.446963967217474E-016
  0.000000000000000E+000
  2.836542269400098E-017
  5.248097124804937E-017
  7.796619534614189E-017
  1.019615925114080E-016
  1.244585807370641E-016
  1.472668338920281E-016
  1.735089668637716E-016
  2.006146163332234E-016
  2.272895489832138E-016
  2.540221763332331E-016
  2.785522430458423E-016
  3.036563817719130E-016
  3.256461928849491E-016
  3.454597797308251E-016
  3.636508226597056E-016
  3.815304400949655E-016
  3.957032621136117E-016
  4.081179238923031E-016
  4.184397238188305E-016
  4.264699825012757E-016
  4.319924398729215E-016
  4.365651572284478E-016
  4.392850530153057E-016
  4.401833993070436E-016
  0.000000000000000E+000
  2.784942417512461E-017
  5.356931151637248E-017
  7.920144257330920E-017
  1.033464404959727E-016
  1.240018850293163E-016
  1.453584667453415E-016
  1.708408661565431E-016
  1.982805584144594E-016
  2.253951724016810E-016
  2.516280894852205E-016
  2.770819919126204E-016
  3.012213641736390E-016
  3.232120195458333E-016
  3.436706990833017E-016
  3.622196780219315E-016
  3.787910178669083E-016
  3.926929752456117E-016
  4.047222359076596E-016
  4.149152594688443E-016
  4.227835388846540E-016
  4.288500194437980E-016
  4.336477286821294E-016
  4.365172634859547E-016
  4.373853064845936E-016
  0.000000000000000E+000
  2.815446391701426E-017
  5.319032172716618E-017
  7.959009128706457E-017
  1.047065777802423E-016
  1.236061180768913E-016
  1.449660519829894E-016
  1.708433993541941E-016
  1.973728638420382E-016
  2.247822297408062E-016
  2.505920436346983E-016
  2.761758719474756E-016
  3.004122979014718E-016
  3.223456754458456E-016
  3.426634459773680E-016
  3.613538988500663E-016
  3.772546982634533E-016
  3.915729875907432E-016
  4.039512715957342E-016
  4.137873476066626E-016
  4.215980294735410E-016
  4.276628402826183E-016
  4.327510309334761E-016
  4.355622374142464E-016
  4.363589988332583E-016
VECTORS u double 
    0.00000E+00        -0.74038E+00         0.00000E+00
    0.00000E+00        -0.69738E+00         0.00000E+00
    0.00000E+00        -0.63656E+00         0.00000E+00
    0.00000E+00        -0.56776E+00         0.00000E+00
    0.00000E+00        -0.49934E+00         0.00000E+00
    0.00000E+00        -0.43603E+00         0.00000E+00
    0.00000E+00        -0.37960E+00         0.00000E+00
    0.00000E+00        -0.33016E+00         0.00000E+00
    0.00000E+00        -0.28690E+00         0.00000E+00
    0.00000E+00        -0.24878E+00         0.00000E+00
    0.00000E+00        -0.21497E+00         0.00000E+00
    0.00000E+00        -0.18479E+00         0.00000E+00
    0.00000E+00        -0.15783E+00         0.00000E+00
    0.00000E+00        -0.13385E+00         0.00000E+00
    0.00000E+00        -0.11263E+00         0.00000E+00
    0.00000E+00        -0.93929E-01         0.00000E+00
    0.00000E+00        -0.77457E-01         0.00000E+00
    0.00000E+00        -0.63022E-01         0.00000E+00
    0.00000E+00        -0.50422E-01         0.00000E+00
    0.00000E+00        -0.39388E-01         0.00000E+00
    0.00000E+00        -0.29678E-01         0.00000E+00
    0.00000E+00        -0.20974E-01         0.00000E+00
    0.00000E+00        -0.13148E-01         0.00000E+00
    0.00000E+00        -0.61552E-02         0.00000E+00
    0.00000E+00         0.00000E+00         0.00000E+00
   -0.11925E-01        -0.71830E+00         0.00000E+00
    0.31925E-01        -0.67387E+00         0.00000E+00
    0.58397E-01        -0.61143E+00         0.00000E+00
    0.67910E-01        -0.54480E+00         0.00000E+00
    0.66625E-01        -0.48054E+00         0.00000E+00
    0.60326E-01        -0.42140E+00         0.00000E+00
    0.52458E-01        -0.36838E+00         0.00000E+00
    0.44965E-01        -0.32142E+00         0.00000E+00
    0.38755E-01        -0.27994E+00         0.00000E+00
    0.33730E-01        -0.24319E+00         0.00000E+00
    0.29590E-01        -0.21045E+00         0.00000E+00
    0.26019E-01        -0.18119E+00         0.00000E+00
    0.22680E-01        -0.15506E+00         0.00000E+00
    0.19545E-01        -0.13175E+00         0.00000E+00
    0.16625E-01        -0.11106E+00         0.00000E+00
    0.13959E-01        -0.92779E-01         0.00000E+00
    0.11635E-01        -0.76672E-01         0.00000E+00
    0.93747E-02        -0.62523E-01         0.00000E+00
    0.75053E-02        -0.50094E-01         0.00000E+00
    0.59269E-02        -0.39176E-01         0.00000E+00
    0.46030E-02        -0.29541E-01         0.00000E+00
    0.34224E-02        -0.20887E-01         0.00000E+00
    0.23010E-02        -0.13098E-01         0.00000E+00
    0.11759E-02        -0.61340E-02         0.00000E+00
    0.00000E+00         0.00000E+00         0.00000E+00
   -0.19420E-01        -0.64387E+00         0.00000E+00
    0.77748E-01        -0.59159E+00         0.00000E+00
    0.11874E+00        -0.53173E+00         0.00000E+00
    0.12992E+00        -0.47681E+00         0.00000E+00
    0.12565E+00        -0.42610E+00         0.00000E+00
    0.11398E+00        -0.37915E+00         0.00000E+00
    0.10005E+00        -0.33579E+00         0.00000E+00
    0.86582E-01        -0.29599E+00         0.00000E+00
    0.74844E-01        -0.25977E+00         0.00000E+00
    0.65246E-01        -0.22702E+00         0.00000E+00
    0.57157E-01        -0.19752E+00         0.00000E+00
    0.50083E-01        -0.17100E+00         0.00000E+00
    0.43691E-01        -0.14717E+00         0.00000E+00
    0.37702E-01        -0.12579E+00         0.00000E+00
    0.32110E-01        -0.10667E+00         0.00000E+00
    0.27036E-01        -0.89604E-01         0.00000E+00
    0.22388E-01        -0.74462E-01         0.00000E+00
    0.18250E-01        -0.61050E-01         0.00000E+00
    0.14683E-01        -0.49122E-01         0.00000E+00
    0.11650E-01        -0.38541E-01         0.00000E+00
    0.90841E-02        -0.29127E-01         0.00000E+00
    0.67691E-02        -0.20620E-01         0.00000E+00
    0.45566E-02        -0.12944E-01         0.00000E+00
    0.23305E-02        -0.60686E-02         0.00000E+00
    0.00000E+00         0.00000E+00         0.00000E+00
    0.38451E-02        -0.45364E+00         0.00000E+00
    0.13256E+00        -0.41413E+00         0.00000E+00
    0.16851E+00        -0.39158E+00         0.00000E+00
    0.17702E+00        -0.36797E+00         0.00000E+00
    0.17021E+00        -0.34200E+00         0.00000E+00
    0.15584E+00        -0.31394E+00         0.00000E+00
    0.13869E+00        -0.28493E+00         0.00000E+00
    0.12157E+00        -0.25608E+00         0.00000E+00
    0.10588E+00        -0.22830E+00         0.00000E+00
    0.92287E-01        -0.20216E+00         0.00000E+00
    0.80776E-01        -0.17797E+00         0.00000E+00
    0.70699E-01        -0.15580E+00         0.00000E+00
    0.61590E-01        -0.13554E+00         0.00000E+00
    0.53222E-01        -0.11704E+00         0.00000E+00
    0.45499E-01        -0.10019E+00         0.00000E+00
    0.38434E-01        -0.84907E-01         0.00000E+00
    0.31888E-01        -0.71146E-01         0.00000E+00
    0.26196E-01        -0.58743E-01         0.00000E+00
    0.21270E-01        -0.47557E-01         0.00000E+00
    0.16988E-01        -0.37488E-01         0.00000E+00
    0.13332E-01        -0.28409E-01         0.00000E+00
    0.99657E-02        -0.20152E-01         0.00000E+00
    0.67186E-02        -0.12675E-01         0.00000E+00
    0.34403E-02        -0.59546E-02         0.00000E+00
    0.00000E+00         0.00000E+00         0.00000E+00
    0.80675E-01        -0.18150E+00         0.00000E+00
    0.15826E+00        -0.18853E+00         0.00000E+00
    0.19402E+00        -0.21211E+00         0.00000E+00
    0.20258E+00        -0.22768E+00         0.00000E+00
    0.19717E+00        -0.23275E+00         0.00000E+00
    0.18316E+00        -0.22932E+00         0.00000E+00
    0.16538E+00        -0.21961E+00         0.00000E+00
    0.14675E+00        -0.20577E+00         0.00000E+00
    0.12892E+00        -0.18958E+00         0.00000E+00
    0.11277E+00        -0.17236E+00         0.00000E+00
    0.98696E-01        -0.15503E+00         0.00000E+00
    0.86483E-01        -0.13813E+00         0.00000E+00
    0.75575E-01        -0.12199E+00         0.00000E+00
    0.65577E-01        -0.10674E+00         0.00000E+00
    0.56311E-01        -0.92468E-01         0.00000E+00
    0.47708E-01        -0.79240E-01         0.00000E+00
    0.39858E-01        -0.67018E-01         0.00000E+00
    0.33027E-01        -0.55738E-01         0.00000E+00
    0.27073E-01        -0.45421E-01         0.00000E+00
    0.21866E-01        -0.35989E-01         0.00000E+00
    0.17250E-01        -0.27359E-01         0.00000E+00
    0.12936E-01        -0.19466E-01         0.00000E+00
    0.87351E-02        -0.12281E-01         0.00000E+00
    0.44784E-02        -0.57884E-02         0.00000E+00
    0.00000E+00         0.00000E+00         0.00000E+00
    0.92168E-01        -0.11804E+00         0.00000E+00
    0.14336E+00        -0.11560E+00         0.00000E+00
    0.17887E+00        -0.12419E+00         0.00000E+00
    0.19539E+00        -0.14062E+00         0.00000E+00
    0.19702E+00        -0.15455E+00         0.00000E+00
    0.18868E+00        -0.16273E+00         0.00000E+00
    0.17473E+00        -0.16463E+00         0.00000E+00
    0.15828E+00        -0.16125E+00         0.00000E+00
    0.14136E+00        -0.15395E+00         0.00000E+00
    0.12515E+00        -0.14405E+00         0.00000E+00
    0.11040E+00        -0.13261E+00         0.00000E+00
    0.97254E-01        -0.12045E+00         0.00000E+00
    0.85469E-01        -0.10811E+00         0.00000E+00
    0.74649E-01        -0.95945E-01         0.00000E+00
    0.64510E-01        -0.84178E-01         0.00000E+00
    0.55047E-01        -0.72917E-01         0.00000E+00
    0.46473E-01        -0.62194E-01         0.00000E+00
    0.38771E-01        -0.52101E-01         0.00000E+00
    0.32050E-01        -0.42700E-01         0.00000E+00
    0.26186E-01        -0.34009E-01         0.00000E+00
    0.20750E-01        -0.25976E-01         0.00000E+00
    0.15604E-01        -0.18564E-01         0.00000E+00
    0.10554E-01        -0.11764E-01         0.00000E+00
    0.54170E-02        -0.55710E-02         0.00000E+00
    0.00000E+00         0.00000E+00         0.00000E+00
    0.10367E+00        -0.77413E-01         0.00000E+00
    0.13560E+00        -0.77012E-01         0.00000E+00
    0.16290E+00        -0.80395E-01         0.00000E+00
    0.17968E+00        -0.89569E-01         0.00000E+00
    0.18584E+00        -0.10170E+00         0.00000E+00
    0.18286E+00        -0.11230E+00         0.00000E+00
    0.17371E+00        -0.11922E+00         0.00000E+00
    0.16086E+00        -0.12191E+00         0.00000E+00
    0.14639E+00        -0.12074E+00         0.00000E+00
    0.13158E+00        -0.11650E+00         0.00000E+00
    0.11741E+00        -0.11002E+00         0.00000E+00
    0.10434E+00        -0.10207E+00         0.00000E+00
    0.92347E-01        -0.93295E-01         0.00000E+00
    0.81176E-01        -0.84118E-01         0.00000E+00
    0.70727E-01        -0.74800E-01         0.00000E+00
    0.60978E-01        -0.65498E-01         0.00000E+00
    0.51972E-01        -0.56395E-01         0.00000E+00
    0.43709E-01        -0.47652E-01         0.00000E+00
    0.36306E-01        -0.39381E-01         0.00000E+00
    0.29829E-01        -0.31614E-01         0.00000E+00
    0.23750E-01        -0.24311E-01         0.00000E+00
    0.17904E-01        -0.17483E-01         0.00000E+00
    0.12130E-01        -0.11145E-01         0.00000E+00
    0.62316E-02        -0.53100E-02         0.00000E+00
    0.00000E+00         0.00000E+00         0.00000E+00
    0.10951E+00        -0.52917E-01         0.00000E+00
    0.13113E+00        -0.52779E-01         0.00000E+00
    0.15095E+00        -0.55413E-01         0.00000E+00
    0.16498E+00        -0.60333E-01         0.00000E+00
    0.17192E+00        -0.68624E-01         0.00000E+00
    0.17198E+00        -0.77865E-01         0.00000E+00
    0.16662E+00        -0.85533E-01         0.00000E+00
    0.15730E+00        -0.90603E-01         0.00000E+00
    0.14573E+00        -0.92726E-01         0.00000E+00
    0.13303E+00        -0.92141E-01         0.00000E+00
    0.12021E+00        -0.89287E-01         0.00000E+00
    0.10791E+00        -0.84685E-01         0.00000E+00
    0.96329E-01        -0.78855E-01         0.00000E+00
    0.85415E-01        -0.72222E-01         0.00000E+00
    0.75093E-01        -0.65091E-01         0.00000E+00
    0.65311E-01        -0.57712E-01         0.00000E+00
    0.56107E-01        -0.50280E-01         0.00000E+00
    0.47532E-01        -0.42970E-01         0.00000E+00
    0.39752E-01        -0.35843E-01         0.00000E+00
    0.32784E-01        -0.29006E-01         0.00000E+00
    0.26189E-01        -0.22485E-01         0.00000E+00
    0.19798E-01        -0.16291E-01         0.00000E+00
    0.13435E-01        -0.10458E-01         0.00000E+00
    0.69065E-02        -0.50191E-02         0.00000E+00
    0.00000E+00         0.00000E+00         0.00000E+00
    0.11247E+00        -0.36648E-01         0.00000E+00
    0.12741E+00        -0.37095E-01         0.00000E+00
    0.14203E+00        -0.39636E-01         0.00000E+00
    0.15296E+00        -0.43102E-01         0.00000E+00
    0.15898E+00        -0.48467E-01         0.00000E+00
    0.16021E+00        -0.55259E-01         0.00000E+00
    0.15707E+00        -0.62050E-01         0.00000E+00
    0.15043E+00        -0.67456E-01         0.00000E+00
    0.14143E+00        -0.70870E-01         0.00000E+00
    0.13092E+00        -0.72198E-01         0.00000E+00
    0.11979E+00        -0.71565E-01         0.00000E+00
    0.10870E+00        -0.69256E-01         0.00000E+00
    0.97973E-01        -0.65626E-01         0.00000E+00
    0.87621E-01        -0.61053E-01         0.00000E+00
    0.77652E-01        -0.55833E-01         0.00000E+00
    0.68081E-01        -0.50184E-01         0.00000E+00
    0.58901E-01        -0.44309E-01         0.00000E+00
    0.50296E-01        -0.38300E-01         0.00000E+00
    0.42348E-01        -0.32309E-01         0.00000E+00
    0.35028E-01        -0.26411E-01         0.00000E+00
    0.28076E-01        -0.20641E-01         0.00000E+00
    0.21280E-01        -0.15068E-01         0.00000E+00
    0.14463E-01        -0.97461E-02         0.00000E+00
    0.74375E-02        -0.47140E-02         0.00000E+00
    0.00000E+00         0.00000E+00         0.00000E+00
    0.11337E+00        -0.25751E-01         0.00000E+00
    0.12381E+00        -0.26576E-01         0.00000E+00
    0.13465E+00        -0.28952E-01         0.00000E+00
    0.14309E+00        -0.32380E-01         0.00000E+00
    0.14797E+00        -0.36150E-01         0.00000E+00
    0.14926E+00        -0.40940E-01         0.00000E+00
    0.14730E+00        -0.46136E-01         0.00000E+00
    0.14240E+00        -0.50946E-01         0.00000E+00
    0.13537E+00        -0.54565E-01         0.00000E+00
    0.12673E+00        -0.56695E-01         0.00000E+00
    0.11724E+00        -0.57293E-01         0.00000E+00
    0.10743E+00        -0.56458E-01         0.00000E+00
    0.97689E-01        -0.54403E-01         0.00000E+00
    0.88074E-01        -0.51396E-01         0.00000E+00
    0.78630E-01        -0.47688E-01         0.00000E+00
    0.69427E-01        -0.43471E-01         0.00000E+00
    0.60501E-01        -0.38875E-01         0.00000E+00
    0.52018E-01        -0.34060E-01         0.00000E+00
    0.44068E-01        -0.29079E-01         0.00000E+00
    0.36624E-01        -0.23964E-01         0.00000E+00
    0.29453E-01        -0.18868E-01         0.00000E+00
    0.22376E-01        -0.13875E-01         0.00000E+00
    0.15227E-01        -0.90416E-02         0.00000E+00
    0.78307E-02        -0.44081E-02         0.00000E+00
    0.00000E+00         0.00000E+00         0.00000E+00
    0.11269E+00        -0.18196E-01         0.00000E+00
    0.12013E+00        -0.19343E-01         0.00000E+00
    0.12811E+00        -0.21668E-01         0.00000E+00
    0.13468E+00        -0.24905E-01         0.00000E+00
    0.13860E+00        -0.28454E-01         0.00000E+00
    0.13966E+00        -0.32020E-01         0.00000E+00
    0.13812E+00        -0.35934E-01         0.00000E+00
    0.13431E+00        -0.39743E-01         0.00000E+00
    0.12866E+00        -0.42951E-01         0.00000E+00
    0.12147E+00        -0.45263E-01         0.00000E+00
    0.11339E+00        -0.46402E-01         0.00000E+00
    0.10479E+00        -0.46401E-01         0.00000E+00
    0.96025E-01        -0.45371E-01         0.00000E+00
    0.87189E-01        -0.43500E-01         0.00000E+00
    0.78334E-01        -0.40941E-01         0.00000E+00
    0.69630E-01        -0.37823E-01         0.00000E+00
    0.61046E-01        -0.34336E-01         0.00000E+00
    0.52867E-01        -0.30420E-01         0.00000E+00
    0.45105E-01        -0.26146E-01         0.00000E+00
    0.37655E-01        -0.21703E-01         0.00000E+00
    0.30378E-01        -0.17209E-01         0.00000E+00
    0.23126E-01        -0.12744E-01         0.00000E+00
    0.15752E-01        -0.83658E-02         0.00000E+00
    0.80995E-02        -0.41109E-02         0.00000E+00
    0.00000E+00         0.00000E+00         0.00000E+00
    0.11084E+00        -0.12782E-01         0.00000E+00
    0.11626E+00        -0.14176E-01         0.00000E+00
    0.12216E+00        -0.16425E-01         0.00000E+00
    0.12718E+00        -0.19444E-01         0.00000E+00
    0.13035E+00        -0.22881E-01         0.00000E+00
    0.13122E+00        -0.26265E-01         0.00000E+00
    0.12988E+00        -0.29440E-01         0.00000E+00
    0.12669E+00        -0.32434E-01         0.00000E+00
    0.12192E+00        -0.35121E-01         0.00000E+00
    0.11583E+00        -0.37241E-01         0.00000E+00
    0.10888E+00        -0.38531E-01         0.00000E+00
    0.10131E+00        -0.38960E-01         0.00000E+00
    0.93411E-01        -0.38548E-01         0.00000E+00
    0.85343E-01        -0.37414E-01         0.00000E+00
    0.77129E-01        -0.35696E-01         0.00000E+00
    0.68923E-01        -0.33416E-01         0.00000E+00
    0.60915E-01        -0.30522E-01         0.00000E+00
    0.53127E-01        -0.27165E-01         0.00000E+00
    0.45583E-01        -0.23499E-01         0.00000E+00
    0.38210E-01        -0.19637E-01         0.00000E+00
    0.30913E-01        -0.15676E-01         0.00000E+00
    0.23575E-01        -0.11690E-01         0.00000E+00
    0.16069E-01        -0.77289E-02         0.00000E+00
    0.82598E-02        -0.38272E-02         0.00000E+00
    0.00000E+00         0.00000E+00         0.00000E+00
    0.10817E+00        -0.87411E-02         0.00000E+00
    0.11223E+00        -0.10299E-01         0.00000E+00
    0.11663E+00        -0.12478E-01         0.00000E+00
    0.12041E+00        -0.15269E-01         0.00000E+00
    0.12287E+00        -0.18457E-01         0.00000E+00
    0.12358E+00        -0.21751E-01         0.00000E+00
    0.12246E+00        -0.24845E-01         0.00000E+00
    0.11970E+00        -0.27545E-01         0.00000E+00
    0.11553E+00        -0.29865E-01         0.00000E+00
    0.11026E+00        -0.31701E-01         0.00000E+00
    0.10416E+00        -0.32962E-01         0.00000E+00
    0.97441E-01        -0.33597E-01         0.00000E+00
    0.90307E-01        -0.33574E-01         0.00000E+00
    0.82947E-01        -0.32856E-01         0.00000E+00
    0.75411E-01        -0.31492E-01         0.00000E+00
    0.67836E-01        -0.29544E-01         0.00000E+00
    0.60329E-01        -0.27107E-01         0.00000E+00
    0.52918E-01        -0.24265E-01         0.00000E+00
    0.45611E-01        -0.21115E-01         0.00000E+00
    0.38368E-01        -0.17758E-01         0.00000E+00
    0.31116E-01        -0.14270E-01         0.00000E+00
    0.23765E-01        -0.10714E-01         0.00000E+00
    0.16207E-01        -0.71341E-02         0.00000E+00
    0.83274E-02        -0.35592E-02         0.00000E+00
    0.00000E+00         0.00000E+00         0.00000E+00
    0.10494E+00        -0.55856E-02         0.00000E+00
    0.10809E+00        -0.72447E-02         0.00000E+00
    0.11140E+00        -0.93504E-02         0.00000E+00
    0.11424E+00        -0.11927E-01         0.00000E+00
    0.11607E+00        -0.14844E-01         0.00000E+00
    0.11656E+00        -0.17884E-01         0.00000E+00
    0.11559E+00        -0.20819E-01         0.00000E+00
    0.11321E+00        -0.23475E-01         0.00000E+00
    0.10958E+00        -0.25715E-01         0.00000E+00
    0.10494E+00        -0.27462E-01         0.00000E+00
    0.99532E-01        -0.28666E-01         0.00000E+00
    0.93525E-01        -0.29296E-01         0.00000E+00
    0.87100E-01        -0.29333E-01         0.00000E+00
    0.80389E-01        -0.28797E-01         0.00000E+00
    0.73475E-01        -0.27712E-01         0.00000E+00
    0.66448E-01        -0.26116E-01         0.00000E+00
    0.59387E-01        -0.24076E-01         0.00000E+00
    0.52329E-01        -0.21668E-01         0.00000E+00
    0.45274E-01        -0.18969E-01         0.00000E+00
    0.38196E-01        -0.16053E-01         0.00000E+00
    0.31041E-01        -0.12984E-01         0.00000E+00
    0.23736E-01        -0.98146E-02         0.00000E+00
    0.16194E-01        -0.65816E-02         0.00000E+00
    0.83172E-02        -0.33076E-02         0.00000E+00
    0.00000E+00         0.00000E+00         0.00000E+00
    0.10138E+00        -0.30183E-02         0.00000E+00
    0.10389E+00        -0.47284E-02         0.00000E+00
    0.10642E+00        -0.67598E-02         0.00000E+00
    0.10855E+00        -0.91434E-02         0.00000E+00
    0.10988E+00        -0.11796E-01         0.00000E+00
    0.11015E+00        -0.14565E-01         0.00000E+00
    0.10923E+00        -0.17272E-01         0.00000E+00
    0.10714E+00        -0.19752E-01         0.00000E+00
    0.10397E+00        -0.21876E-01         0.00000E+00
    0.99895E-01        -0.23557E-01         0.00000E+00
    0.95082E-01        -0.24743E-01         0.00000E+00
    0.89695E-01        -0.25412E-01         0.00000E+00
    0.83875E-01        -0.25559E-01         0.00000E+00
    0.77733E-01        -0.25198E-01         0.00000E+00
    0.71355E-01        -0.24355E-01         0.00000E+00
    0.64813E-01        -0.23064E-01         0.00000E+00
    0.58163E-01        -0.21375E-01         0.00000E+00
    0.51437E-01        -0.19345E-01         0.00000E+00
    0.44641E-01        -0.17037E-01         0.00000E+00
    0.37753E-01        -0.14509E-01         0.00000E+00
    0.30734E-01        -0.11812E-01         0.00000E+00
    0.23525E-01        -0.89890E-02         0.00000E+00
    0.16054E-01        -0.60699E-02         0.00000E+00
    0.82419E-02        -0.30723E-02         0.00000E+00
    0.00000E+00         0.00000E+00         0.00000E+00
    0.97635E-01        -0.85768E-03         0.00000E+00
    0.99688E-01        -0.25826E-02         0.00000E+00
    0.10166E+00        -0.45393E-02         0.00000E+00
    0.10325E+00        -0.67546E-02         0.00000E+00
    0.10418E+00        -0.91738E-02         0.00000E+00
    0.10426E+00        -0.11686E-01         0.00000E+00
    0.10337E+00        -0.14153E-01         0.00000E+00
    0.10150E+00        -0.16439E-01         0.00000E+00
    0.98698E-01        -0.18428E-01         0.00000E+00
    0.95084E-01        -0.20037E-01         0.00000E+00
    0.90786E-01        -0.21213E-01         0.00000E+00
    0.85932E-01        -0.21933E-01         0.00000E+00
    0.80639E-01        -0.22190E-01         0.00000E+00
    0.75001E-01        -0.21997E-01         0.00000E+00
    0.69096E-01        -0.21373E-01         0.00000E+00
    0.62984E-01        -0.20350E-01         0.00000E+00
    0.56712E-01        -0.18966E-01         0.00000E+00
    0.50305E-01        -0.17266E-01         0.00000E+00
    0.43770E-01        -0.15300E-01         0.00000E+00
    0.37091E-01        -0.13112E-01         0.00000E+00
    0.30237E-01        -0.10746E-01         0.00000E+00
    0.23163E-01        -0.82326E-02         0.00000E+00
    0.15810E-01        -0.55974E-02         0.00000E+00
    0.81131E-02        -0.28528E-02         0.00000E+00
    0.00000E+00         0.00000E+00         0.00000E+00
    0.93813E-01         0.10054E-02         0.00000E+00
    0.95532E-01        -0.70911E-03         0.00000E+00
    0.97087E-01        -0.25926E-02         0.00000E+00
    0.98279E-01        -0.46636E-02         0.00000E+00
    0.98913E-01        -0.68835E-02         0.00000E+00
    0.98835E-01        -0.91705E-02         0.00000E+00
    0.97953E-01        -0.11419E-01         0.00000E+00
    0.96241E-01        -0.13519E-01         0.00000E+00
    0.93732E-01        -0.15374E-01         0.00000E+00
    0.90498E-01        -0.16909E-01         0.00000E+00
    0.86633E-01        -0.18072E-01         0.00000E+00
    0.82238E-01        -0.18837E-01         0.00000E+00
    0.77404E-01        -0.19195E-01         0.00000E+00
    0.72212E-01        -0.19152E-01         0.00000E+00
    0.66730E-01        -0.18725E-01         0.00000E+00
    0.61008E-01        -0.17936E-01         0.00000E+00
    0.55085E-01        -0.16818E-01         0.00000E+00
    0.48983E-01        -0.15407E-01         0.00000E+00
    0.42708E-01        -0.13739E-01         0.00000E+00
    0.36250E-01        -0.11852E-01         0.00000E+00
    0.29586E-01        -0.97770E-02         0.00000E+00
    0.22678E-01        -0.75410E-02         0.00000E+00
    0.15480E-01        -0.51618E-02         0.00000E+00
    0.79405E-02        -0.26486E-02         0.00000E+00
    0.00000E+00         0.00000E+00         0.00000E+00
    0.89988E-01         0.26364E-02         0.00000E+00
    0.91450E-01         0.94873E-03         0.00000E+00
    0.92696E-01        -0.86426E-03         0.00000E+00
    0.93589E-01        -0.28122E-02         0.00000E+00
    0.93992E-01        -0.48656E-02         0.00000E+00
    0.93791E-01        -0.69629E-02         0.00000E+00
    0.92911E-01        -0.90230E-02         0.00000E+00
    0.91324E-01        -0.10959E-01         0.00000E+00
    0.89046E-01        -0.12691E-01         0.00000E+00
    0.86123E-01        -0.14154E-01         0.00000E+00
    0.82623E-01        -0.15299E-01         0.00000E+00
    0.78619E-01        -0.16100E-01         0.00000E+00
    0.74186E-01        -0.16545E-01         0.00000E+00
    0.69390E-01        -0.16633E-01         0.00000E+00
    0.64286E-01        -0.16376E-01         0.00000E+00
    0.58919E-01        -0.15793E-01         0.00000E+00
    0.53320E-01        -0.14907E-01         0.00000E+00
    0.47511E-01        -0.13746E-01         0.00000E+00
    0.41495E-01        -0.12340E-01         0.00000E+00
    0.35268E-01        -0.10715E-01         0.00000E+00
    0.28810E-01        -0.88989E-02         0.00000E+00
    0.22094E-01        -0.69098E-02         0.00000E+00
    0.15082E-01        -0.47614E-02         0.00000E+00
    0.77328E-02        -0.24592E-02         0.00000E+00
    0.00000E+00         0.00000E+00         0.00000E+00
    0.86205E-01         0.40752E-02         0.00000E+00
    0.87461E-01         0.24243E-02         0.00000E+00
    0.88470E-01         0.67832E-03         0.00000E+00
    0.89137E-01        -0.11647E-02         0.00000E+00
    0.89366E-01        -0.30802E-02         0.00000E+00
    0.89070E-01        -0.50207E-02         0.00000E+00
    0.88192E-01        -0.69233E-02         0.00000E+00
    0.86705E-01        -0.87193E-02         0.00000E+00
    0.84613E-01        -0.10343E-01         0.00000E+00
    0.81946E-01        -0.11739E-01         0.00000E+00
    0.78751E-01        -0.12865E-01         0.00000E+00
    0.75083E-01        -0.13693E-01         0.00000E+00
    0.71000E-01        -0.14209E-01         0.00000E+00
    0.66553E-01        -0.14409E-01         0.00000E+00
    0.61790E-01        -0.14299E-01         0.00000E+00
    0.56748E-01        -0.13893E-01         0.00000E+00
    0.51454E-01        -0.13208E-01         0.00000E+00
    0.45924E-01        -0.12265E-01         0.00000E+00
    0.40166E-01        -0.11086E-01         0.00000E+00
    0.34175E-01        -0.96928E-02         0.00000E+00
    0.27937E-01        -0.81043E-02         0.00000E+00
    0.21432E-01        -0.63349E-02         0.00000E+00
    0.14629E-01        -0.43939E-02         0.00000E+00
    0.74974E-02        -0.22840E-02         0.00000E+00
    0.00000E+00         0.00000E+00         0.00000E+00
    0.82493E-01         0.53471E-02         0.00000E+00
    0.83577E-01         0.37381E-02         0.00000E+00
    0.84399E-01         0.20551E-02         0.00000E+00
    0.84893E-01         0.30217E-03         0.00000E+00
    0.84989E-01        -0.14992E-02         0.00000E+00
    0.84623E-01        -0.33109E-02         0.00000E+00
    0.83749E-01        -0.50835E-02         0.00000E+00
    0.82343E-01        -0.67624E-02         0.00000E+00
    0.80404E-01        -0.82939E-02         0.00000E+00
    0.77950E-01        -0.96313E-02         0.00000E+00
    0.75013E-01        -0.10737E-01         0.00000E+00
    0.71634E-01        -0.11584E-01         0.00000E+00
    0.67856E-01        -0.12158E-01         0.00000E+00
    0.63721E-01        -0.12452E-01         0.00000E+00
    0.59266E-01        -0.12467E-01         0.00000E+00
    0.54523E-01        -0.12213E-01         0.00000E+00
    0.49513E-01        -0.11701E-01         0.00000E+00
    0.44253E-01        -0.10946E-01         0.00000E+00
    0.38748E-01        -0.99655E-02         0.00000E+00
    0.32997E-01        -0.87744E-02         0.00000E+00
    0.26989E-01        -0.73866E-02         0.00000E+00
    0.20709E-01        -0.58124E-02         0.00000E+00
    0.14134E-01        -0.40576E-02         0.00000E+00
    0.72405E-02        -0.21222E-02         0.00000E+00
    0.00000E+00         0.00000E+00         0.00000E+00
    0.78867E-01         0.64691E-02         0.00000E+00
    0.79801E-01         0.49041E-02         0.00000E+00
    0.80473E-01         0.32799E-02         0.00000E+00
    0.80832E-01         0.16047E-02         0.00000E+00
    0.80827E-01        -0.10145E-03         0.00000E+00
    0.80409E-01        -0.18074E-02         0.00000E+00
    0.79542E-01        -0.34733E-02         0.00000E+00
    0.78205E-01        -0.50550E-02         0.00000E+00
    0.76395E-01        -0.65090E-02         0.00000E+00
    0.74120E-01        -0.77954E-02         0.00000E+00
    0.71403E-01        -0.88816E-02         0.00000E+00
    0.68274E-01        -0.97430E-02         0.00000E+00
    0.64764E-01        -0.10364E-01         0.00000E+00
    0.60907E-01        -0.10735E-01         0.00000E+00
    0.56732E-01        -0.10856E-01         0.00000E+00
    0.52264E-01        -0.10731E-01         0.00000E+00
    0.47523E-01        -0.10367E-01         0.00000E+00
    0.42522E-01        -0.97750E-02         0.00000E+00
    0.37267E-01        -0.89660E-02         0.00000E+00
    0.31757E-01        -0.79511E-02         0.00000E+00
    0.25985E-01        -0.67397E-02         0.00000E+00
    0.19941E-01        -0.53386E-02         0.00000E+00
    0.13608E-01        -0.37504E-02         0.00000E+00
    0.69675E-02        -0.19733E-02         0.00000E+00
    0.00000E+00         0.00000E+00         0.00000E+00
    0.75332E-01         0.74541E-02         0.00000E+00
    0.76135E-01         0.59330E-02         0.00000E+00
    0.76682E-01         0.43633E-02         0.00000E+00
    0.76933E-01         0.27560E-02         0.00000E+00
    0.76850E-01         0.11299E-02         0.00000E+00
    0.76395E-01        -0.48856E-03         0.00000E+00
    0.75538E-01        -0.20666E-02         0.00000E+00
    0.74262E-01        -0.35682E-02         0.00000E+00
    0.72561E-01        -0.49572E-02         0.00000E+00
    0.70440E-01        -0.62002E-02         0.00000E+00
    0.67914E-01        -0.72685E-02         0.00000E+00
    0.65002E-01        -0.81397E-02         0.00000E+00
    0.61730E-01        -0.87980E-02         0.00000E+00
    0.58122E-01        -0.92339E-02         0.00000E+00
    0.54203E-01        -0.94435E-02         0.00000E+00
    0.49991E-01        -0.94275E-02         0.00000E+00
    0.45503E-01        -0.91899E-02         0.00000E+00
    0.40751E-01        -0.87370E-02         0.00000E+00
    0.35741E-01        -0.80762E-02         0.00000E+00
    0.30472E-01        -0.72146E-02         0.00000E+00
    0.24941E-01        -0.61579E-02         0.00000E+00
    0.19140E-01        -0.49098E-02         0.00000E+00
    0.13059E-01        -0.34705E-02         0.00000E+00
    0.66832E-02        -0.18365E-02         0.00000E+00
    0.00000E+00         0.00000E+00         0.00000E+00
    0.71889E-01         0.83130E-02         0.00000E+00
    0.72575E-01         0.68342E-02         0.00000E+00
    0.73016E-01         0.53148E-02         0.00000E+00
    0.73180E-01         0.37672E-02         0.00000E+00
    0.73036E-01         0.22092E-02         0.00000E+00
    0.72554E-01         0.66386E-03         0.00000E+00
    0.71710E-01        -0.84133E-03         0.00000E+00
    0.70490E-01        -0.22764E-02         0.00000E+00
    0.68885E-01        -0.36112E-02         0.00000E+00
    0.66898E-01        -0.48171E-02         0.00000E+00
    0.64538E-01        -0.58692E-02         0.00000E+00
    0.61819E-01        -0.67472E-02         0.00000E+00
    0.58759E-01        -0.74356E-02         0.00000E+00
    0.55377E-01        -0.79243E-02         0.00000E+00
    0.51691E-01        -0.82075E-02         0.00000E+00
    0.47718E-01        -0.82833E-02         0.00000E+00
    0.43471E-01        -0.81529E-02         0.00000E+00
    0.38958E-01        -0.78191E-02         0.00000E+00
    0.34187E-01        -0.72859E-02         0.00000E+00
    0.29158E-01        -0.65571E-02         0.00000E+00
    0.23870E-01        -0.56356E-02         0.00000E+00
    0.18318E-01        -0.45224E-02         0.00000E+00
    0.12495E-01        -0.32159E-02         0.00000E+00
    0.63914E-02        -0.17113E-02         0.00000E+00
    0.00000E+00         0.00000E+00         0.00000E+00
    0.68537E-01         0.90554E-02         0.00000E+00
    0.69117E-01         0.76168E-02         0.00000E+00
    0.69467E-01         0.61435E-02         0.00000E+00
    0.69558E-01         0.46488E-02         0.00000E+00
    0.69366E-01         0.31495E-02         0.00000E+00
    0.68866E-01         0.16660E-02         0.00000E+00
    0.68038E-01         0.22179E-03         0.00000E+00
    0.66868E-01        -0.11577E-02         0.00000E+00
    0.65349E-01        -0.24468E-02         0.00000E+00
    0.63480E-01        -0.36210E-02         0.00000E+00
    0.61268E-01        -0.46585E-02         0.00000E+00
    0.58721E-01        -0.55407E-02         0.00000E+00
    0.55853E-01        -0.62529E-02         0.00000E+00
    0.52677E-01        -0.67846E-02         0.00000E+00
    0.49207E-01        -0.71287E-02         0.00000E+00
    0.45458E-01        -0.72814E-02         0.00000E+00
    0.41438E-01        -0.72414E-02         0.00000E+00
    0.37157E-01        -0.70090E-02         0.00000E+00
    0.32620E-01        -0.65852E-02         0.00000E+00
    0.27829E-01        -0.59713E-02         0.00000E+00
    0.22784E-01        -0.51677E-02         0.00000E+00
    0.17483E-01        -0.41733E-02         0.00000E+00
    0.11921E-01        -0.29849E-02         0.00000E+00
    0.60952E-02        -0.15968E-02         0.00000E+00
    0.00000E+00         0.00000E+00         0.00000E+00
    0.65269E-01         0.96906E-02         0.00000E+00
    0.65755E-01         0.82896E-02         0.00000E+00
    0.66024E-01         0.68585E-02         0.00000E+00
    0.66055E-01         0.54110E-02         0.00000E+00
    0.65825E-01         0.39628E-02         0.00000E+00
    0.65313E-01         0.25323E-02         0.00000E+00
    0.64502E-01         0.11399E-02         0.00000E+00
    0.63380E-01        -0.19244E-03         0.00000E+00
    0.61939E-01        -0.14427E-02         0.00000E+00
    0.60178E-01        -0.25895E-02         0.00000E+00
    0.58098E-01        -0.36135E-02         0.00000E+00
    0.55707E-01        -0.44979E-02         0.00000E+00
    0.53013E-01        -0.52287E-02         0.00000E+00
    0.50026E-01        -0.57951E-02         0.00000E+00
    0.46758E-01        -0.61894E-02         0.00000E+00
    0.43219E-01        -0.64061E-02         0.00000E+00
    0.39416E-01        -0.64421E-02         0.00000E+00
    0.35359E-01        -0.62955E-02         0.00000E+00
    0.31050E-01        -0.59652E-02         0.00000E+00
    0.26494E-01        -0.54503E-02         0.00000E+00
    0.21691E-01        -0.47492E-02         0.00000E+00
    0.16642E-01        -0.38591E-02         0.00000E+00
    0.11344E-01        -0.27757E-02         0.00000E+00
    0.57973E-02        -0.14923E-02         0.00000E+00
    0.00000E+00         0.00000E+00         0.00000E+00
    0.62081E-01         0.10228E-01         0.00000E+00
    0.62481E-01         0.88615E-02         0.00000E+00
    0.62681E-01         0.74691E-02         0.00000E+00
    0.62661E-01         0.60639E-02         0.00000E+00
    0.62400E-01         0.46607E-02         0.00000E+00
    0.61882E-01         0.32762E-02         0.00000E+00
    0.61089E-01         0.19284E-02         0.00000E+00
    0.60013E-01         0.63652E-03         0.00000E+00
    0.58644E-01        -0.58015E-03         0.00000E+00
    0.56980E-01        -0.17029E-02         0.00000E+00
    0.55022E-01        -0.27144E-02         0.00000E+00
    0.52773E-01        -0.35991E-02         0.00000E+00
    0.50240E-01        -0.43440E-02         0.00000E+00
    0.47429E-01        -0.49382E-02         0.00000E+00
    0.44349E-01        -0.53733E-02         0.00000E+00
    0.41009E-01        -0.56429E-02         0.00000E+00
    0.37414E-01        -0.57424E-02         0.00000E+00
    0.33572E-01        -0.56683E-02         0.00000E+00
    0.29487E-01        -0.54177E-02         0.00000E+00
    0.25162E-01        -0.49878E-02         0.00000E+00
    0.20600E-01        -0.43756E-02         0.00000E+00
    0.15802E-01        -0.35770E-02         0.00000E+00
    0.10768E-01        -0.25866E-02         0.00000E+00
    0.55000E-02        -0.13973E-02         0.00000E+00
    0.00000E+00         0.00000E+00         0.00000E+00
    0.58966E-01         0.10676E-01         0.00000E+00
    0.59289E-01         0.93415E-02         0.00000E+00
    0.59428E-01         0.79844E-02         0.00000E+00
    0.59365E-01         0.66173E-02         0.00000E+00
    0.59080E-01         0.52541E-02         0.00000E+00
    0.58559E-01         0.39100E-02         0.00000E+00
    0.57787E-01         0.26012E-02         0.00000E+00
    0.56754E-01         0.13446E-02         0.00000E+00
    0.55453E-01         0.15743E-03         0.00000E+00
    0.53880E-01        -0.94375E-03         0.00000E+00
    0.52034E-01        -0.19432E-02         0.00000E+00
    0.49916E-01        -0.28267E-02         0.00000E+00
    0.47532E-01        -0.35818E-02         0.00000E+00
    0.44886E-01        -0.41978E-02         0.00000E+00
    0.41984E-01        -0.46659E-02         0.00000E+00
    0.38833E-01        -0.49790E-02         0.00000E+00
    0.35438E-01        -0.51313E-02         0.00000E+00
    0.31805E-01        -0.51180E-02         0.00000E+00
    0.27937E-01        -0.49349E-02         0.00000E+00
    0.23840E-01        -0.45779E-02         0.00000E+00
    0.19516E-01        -0.40426E-02         0.00000E+00
    0.14966E-01        -0.33240E-02         0.00000E+00
    0.10195E-01        -0.24159E-02         0.00000E+00
    0.52049E-02        -0.13109E-02         0.00000E+00
    0.00000E+00         0.00000E+00         0.00000E+00
    0.55919E-01         0.11044E-01         0.00000E+00
    0.56172E-01         0.97384E-02         0.00000E+00
    0.56258E-01         0.84135E-02         0.00000E+00
    0.56158E-01         0.70809E-02         0.00000E+00
    0.55855E-01         0.57536E-02         0.00000E+00
    0.55335E-01         0.44455E-02         0.00000E+00
    0.54585E-01         0.31711E-02         0.00000E+00
    0.53595E-01         0.19458E-02         0.00000E+00
    0.52358E-01         0.78489E-03         0.00000E+00
    0.50869E-01        -0.29658E-03         0.00000E+00
    0.49128E-01        -0.12843E-02         0.00000E+00
    0.47134E-01        -0.21651E-02         0.00000E+00
    0.44890E-01        -0.29271E-02         0.00000E+00
    0.42399E-01        -0.35598E-02         0.00000E+00
    0.39666E-01        -0.40542E-02         0.00000E+00
    0.36695E-01        -0.44026E-02         0.00000E+00
    0.33492E-01        -0.45985E-02         0.00000E+00
    0.30062E-01        -0.46361E-02         0.00000E+00
    0.26407E-01        -0.45100E-02         0.00000E+00
    0.22533E-01        -0.42152E-02         0.00000E+00
    0.18443E-01        -0.37464E-02         0.00000E+00
    0.14140E-01        -0.30975E-02         0.00000E+00
    0.96288E-02        -0.22622E-02         0.00000E+00
    0.49134E-02        -0.12326E-02         0.00000E+00
    0.00000E+00         0.00000E+00         0.00000E+00
    0.52932E-01         0.11340E-01         0.00000E+00
    0.53125E-01         0.10061E-01         0.00000E+00
    0.53165E-01         0.87654E-02         0.00000E+00
    0.53034E-01         0.74642E-02         0.00000E+00
    0.52717E-01         0.61692E-02         0.00000E+00
    0.52201E-01         0.48933E-02         0.00000E+00
    0.51474E-01         0.36498E-02         0.00000E+00
    0.50526E-01         0.24526E-02         0.00000E+00
    0.49350E-01         0.13155E-02         0.00000E+00
    0.47942E-01         0.25237E-03         0.00000E+00
    0.46300E-01        -0.72375E-03         0.00000E+00
    0.44422E-01        -0.16005E-02         0.00000E+00
    0.42311E-01        -0.23665E-02         0.00000E+00
    0.39967E-01        -0.30115E-02         0.00000E+00
    0.37395E-01        -0.35265E-02         0.00000E+00
    0.34598E-01        -0.39034E-02         0.00000E+00
    0.31581E-01        -0.41350E-02         0.00000E+00
    0.28347E-01        -0.42148E-02         0.00000E+00
    0.24900E-01        -0.41367E-02         0.00000E+00
    0.21245E-01        -0.38948E-02         0.00000E+00
    0.17385E-01        -0.34831E-02         0.00000E+00
    0.13326E-01        -0.28951E-02         0.00000E+00
    0.90708E-02        -0.21239E-02         0.00000E+00
    0.46265E-02        -0.11617E-02         0.00000E+00
    0.00000E+00         0.00000E+00         0.00000E+00
    0.50001E-01         0.11572E-01         0.00000E+00
    0.50141E-01         0.10318E-01         0.00000E+00
    0.50141E-01         0.90487E-02         0.00000E+00
    0.49985E-01         0.77760E-02         0.00000E+00
    0.49659E-01         0.65103E-02         0.00000E+00
    0.49149E-01         0.52636E-02         0.00000E+00
    0.48446E-01         0.40481E-02         0.00000E+00
    0.47540E-01         0.28764E-02         0.00000E+00
    0.46424E-01         0.17613E-02         0.00000E+00
    0.45093E-01         0.71537E-03         0.00000E+00
    0.43545E-01        -0.24913E-03         0.00000E+00
    0.41778E-01        -0.11206E-02         0.00000E+00
    0.39793E-01        -0.18882E-02         0.00000E+00
    0.37591E-01        -0.25419E-02         0.00000E+00
    0.35173E-01        -0.30726E-02         0.00000E+00
    0.32544E-01        -0.34720E-02         0.00000E+00
    0.29706E-01        -0.37325E-02         0.00000E+00
    0.26663E-01        -0.38471E-02         0.00000E+00
    0.23419E-01        -0.38092E-02         0.00000E+00
    0.19979E-01        -0.36122E-02         0.00000E+00
    0.16346E-01        -0.32495E-02         0.00000E+00
    0.12525E-01        -0.27144E-02         0.00000E+00
    0.85228E-02        -0.19997E-02         0.00000E+00
    0.43450E-02        -0.10977E-02         0.00000E+00
    0.00000E+00         0.00000E+00         0.00000E+00
    0.47121E-01         0.11749E-01         0.00000E+00
    0.47214E-01         0.10516E-01         0.00000E+00
    0.47181E-01         0.92717E-02         0.00000E+00
    0.47005E-01         0.80249E-02         0.00000E+00
    0.46673E-01         0.67860E-02         0.00000E+00
    0.46173E-01         0.55659E-02         0.00000E+00
    0.45495E-01         0.43758E-02         0.00000E+00
    0.44630E-01         0.32276E-02         0.00000E+00
    0.43573E-01         0.21328E-02         0.00000E+00
    0.42317E-01         0.11034E-02         0.00000E+00
    0.40860E-01         0.15058E-03         0.00000E+00
    0.39199E-01        -0.71455E-03         0.00000E+00
    0.37335E-01        -0.14816E-02         0.00000E+00
    0.35268E-01        -0.21408E-02         0.00000E+00
    0.33000E-01        -0.26831E-02         0.00000E+00
    0.30532E-01        -0.31000E-02         0.00000E+00
    0.27869E-01        -0.33838E-02         0.00000E+00
    0.25012E-01        -0.35269E-02         0.00000E+00
    0.21967E-01        -0.35224E-02         0.00000E+00
    0.18737E-01        -0.33633E-02         0.00000E+00
    0.15326E-01        -0.30426E-02         0.00000E+00
    0.11740E-01        -0.25534E-02         0.00000E+00
    0.79857E-02        -0.18884E-02         0.00000E+00
    0.40693E-02        -0.10399E-02         0.00000E+00
    0.00000E+00         0.00000E+00         0.00000E+00
    0.44286E-01         0.11877E-01         0.00000E+00
    0.44340E-01         0.10665E-01         0.00000E+00
    0.44278E-01         0.94423E-02         0.00000E+00
    0.44087E-01         0.82191E-02         0.00000E+00
    0.43753E-01         0.70046E-02         0.00000E+00
    0.43265E-01         0.58088E-02         0.00000E+00
    0.42614E-01         0.46421E-02         0.00000E+00
    0.41791E-01         0.35155E-02         0.00000E+00
    0.40791E-01         0.24399E-02         0.00000E+00
    0.39608E-01         0.14262E-02         0.00000E+00
    0.38239E-01         0.48516E-03         0.00000E+00
    0.36681E-01        -0.37274E-03         0.00000E+00
    0.34934E-01        -0.11375E-02         0.00000E+00
    0.32998E-01        -0.17996E-02         0.00000E+00
    0.30874E-01        -0.23500E-02         0.00000E+00
    0.28564E-01        -0.27802E-02         0.00000E+00
    0.26070E-01        -0.30823E-02         0.00000E+00
    0.23396E-01        -0.32486E-02         0.00000E+00
    0.20544E-01        -0.32717E-02         0.00000E+00
    0.17520E-01        -0.31444E-02         0.00000E+00
    0.14327E-01        -0.28596E-02         0.00000E+00
    0.10972E-01        -0.24102E-02         0.00000E+00
    0.74601E-02        -0.17888E-02         0.00000E+00
    0.37998E-02        -0.98793E-03         0.00000E+00
    0.00000E+00         0.00000E+00         0.00000E+00
    0.41492E-01         0.11964E-01         0.00000E+00
    0.41513E-01         0.10770E-01         0.00000E+00
    0.41429E-01         0.95676E-02         0.00000E+00
    0.41227E-01         0.83660E-02         0.00000E+00
    0.40894E-01         0.71738E-02         0.00000E+00
    0.40421E-01         0.60003E-02         0.00000E+00
    0.39798E-01         0.48553E-02         0.00000E+00
    0.39018E-01         0.37488E-02         0.00000E+00
    0.38074E-01         0.26911E-02         0.00000E+00
    0.36962E-01         0.16926E-02         0.00000E+00
    0.35679E-01         0.76335E-03         0.00000E+00
    0.34221E-01        -0.86596E-04         0.00000E+00
    0.32587E-01        -0.84759E-03         0.00000E+00
    0.30779E-01        -0.15103E-02         0.00000E+00
    0.28795E-01        -0.20660E-02         0.00000E+00
    0.26638E-01        -0.25060E-02         0.00000E+00
    0.24310E-01        -0.28223E-02         0.00000E+00
    0.21813E-01        -0.30071E-02         0.00000E+00
    0.19151E-01        -0.30529E-02         0.00000E+00
    0.16328E-01        -0.29523E-02         0.00000E+00
    0.13350E-01        -0.26980E-02         0.00000E+00
    0.10220E-01        -0.22829E-02         0.00000E+00
    0.69465E-02        -0.16998E-02         0.00000E+00
    0.35368E-02        -0.94121E-03         0.00000E+00
    0.00000E+00         0.00000E+00         0.00000E+00
    0.38736E-01         0.12017E-01         0.00000E+00
    0.38730E-01         0.10838E-01         0.00000E+00
    0.38628E-01         0.96546E-02         0.00000E+00
    0.38419E-01         0.84727E-02         0.00000E+00
    0.38091E-01         0.73010E-02         0.00000E+00
    0.37634E-01         0.61479E-02         0.00000E+00
    0.37041E-01         0.50228E-02         0.00000E+00
    0.36304E-01         0.39351E-02         0.00000E+00
    0.35417E-01         0.28944E-02         0.00000E+00
    0.34375E-01         0.19104E-02         0.00000E+00
    0.33175E-01         0.99293E-03         0.00000E+00
    0.31815E-01         0.15148E-03         0.00000E+00
    0.30293E-01        -0.60461E-03         0.00000E+00
    0.28608E-01        -0.12663E-02         0.00000E+00
    0.26761E-01        -0.18247E-02         0.00000E+00
    0.24754E-01        -0.22715E-02         0.00000E+00
    0.22587E-01        -0.25986E-02         0.00000E+00
    0.20264E-01        -0.27981E-02         0.00000E+00
    0.17788E-01        -0.28623E-02         0.00000E+00
    0.15163E-01        -0.27840E-02         0.00000E+00
    0.12394E-01        -0.25556E-02         0.00000E+00
    0.94853E-02        -0.21701E-02         0.00000E+00
    0.64449E-02        -0.16204E-02         0.00000E+00
    0.32801E-02        -0.89934E-03         0.00000E+00
    0.00000E+00         0.00000E+00         0.00000E+00
    0.36014E-01         0.12040E-01         0.00000E+00
    0.35986E-01         0.10877E-01         0.00000E+00
    0.35871E-01         0.97095E-02         0.00000E+00
    0.35659E-01         0.85456E-02         0.00000E+00
    0.35338E-01         0.73925E-02         0.00000E+00
    0.34901E-01         0.62583E-02         0.00000E+00
    0.34339E-01         0.51516E-02         0.00000E+00
    0.33646E-01         0.40813E-02         0.00000E+00
    0.32815E-01         0.30566E-02         0.00000E+00
    0.31843E-01         0.20867E-02         0.00000E+00
    0.30726E-01         0.11808E-02         0.00000E+00
    0.29461E-01         0.34822E-03         0.00000E+00
    0.28047E-01        -0.40206E-03         0.00000E+00
    0.26484E-01        -0.10612E-02         0.00000E+00
    0.24771E-01        -0.16205E-02         0.00000E+00
    0.22909E-01        -0.20717E-02         0.00000E+00
    0.20901E-01        -0.24067E-02         0.00000E+00
    0.18749E-01        -0.26176E-02         0.00000E+00
    0.16455E-01        -0.26968E-02         0.00000E+00
    0.14023E-01        -0.26368E-02         0.00000E+00
    0.11459E-01        -0.24304E-02         0.00000E+00
    0.87675E-02        -0.20704E-02         0.00000E+00
    0.59551E-02        -0.15498E-02         0.00000E+00
    0.30297E-02        -0.86189E-03         0.00000E+00
    0.00000E+00         0.00000E+00         0.00000E+00
    0.33323E-01         0.12040E-01         0.00000E+00
    0.33278E-01         0.10890E-01         0.00000E+00
    0.33154E-01         0.97381E-02         0.00000E+00
    0.32942E-01         0.85906E-02         0.00000E+00
    0.32632E-01         0.74545E-02         0.00000E+00
    0.32216E-01         0.63376E-02         0.00000E+00
    0.31687E-01         0.52479E-02         0.00000E+00
    0.31038E-01         0.41938E-02         0.00000E+00
    0.30264E-01         0.31841E-02         0.00000E+00
    0.29361E-01         0.22276E-02         0.00000E+00
    0.28325E-01         0.13331E-02         0.00000E+00
    0.27155E-01         0.50959E-03         0.00000E+00
    0.25848E-01        -0.23425E-03         0.00000E+00
    0.24403E-01        -0.88975E-03         0.00000E+00
    0.22822E-01        -0.14484E-02         0.00000E+00
    0.21104E-01        -0.19021E-02         0.00000E+00
    0.19251E-01        -0.22426E-02         0.00000E+00
    0.17265E-01        -0.24622E-02         0.00000E+00
    0.15150E-01        -0.25533E-02         0.00000E+00
    0.12908E-01        -0.25085E-02         0.00000E+00
    0.10545E-01        -0.23205E-02         0.00000E+00
    0.80660E-02        -0.19823E-02         0.00000E+00
    0.54769E-02        -0.14872E-02         0.00000E+00
    0.27854E-02        -0.82850E-03         0.00000E+00
    0.00000E+00         0.00000E+00         0.00000E+00
    0.30659E-01         0.12021E-01         0.00000E+00
    0.30602E-01         0.10884E-01         0.00000E+00
    0.30473E-01         0.97456E-02         0.00000E+00
    0.30265E-01         0.86129E-02         0.00000E+00
    0.29968E-01         0.74924E-02         0.00000E+00
    0.29576E-01         0.63912E-02         0.00000E+00
    0.29081E-01         0.53172E-02         0.00000E+00
    0.28477E-01         0.42782E-02         0.00000E+00
    0.27760E-01         0.32826E-02         0.00000E+00
    0.26926E-01         0.23388E-02         0.00000E+00
    0.25971E-01         0.14554E-02         0.00000E+00
    0.24893E-01         0.64087E-03         0.00000E+00
    0.23691E-01        -0.96125E-04         0.00000E+00
    0.22364E-01        -0.74721E-03         0.00000E+00
    0.20911E-01        -0.13041E-02         0.00000E+00
    0.19334E-01        -0.17586E-02         0.00000E+00
    0.17634E-01        -0.21028E-02         0.00000E+00
    0.15812E-01        -0.23289E-02         0.00000E+00
    0.13872E-01        -0.24294E-02         0.00000E+00
    0.11817E-01        -0.23969E-02         0.00000E+00
    0.96514E-02        -0.22244E-02         0.00000E+00
    0.73804E-02        -0.19049E-02         0.00000E+00
    0.50098E-02        -0.14318E-02         0.00000E+00
    0.25470E-02        -0.79884E-03         0.00000E+00
    0.00000E+00         0.00000E+00         0.00000E+00
    0.28021E-01         0.11989E-01         0.00000E+00
    0.27955E-01         0.10863E-01         0.00000E+00
    0.27825E-01         0.97367E-02         0.00000E+00
    0.27624E-01         0.86174E-02         0.00000E+00
    0.27343E-01         0.75109E-02         0.00000E+00
    0.26975E-01         0.64242E-02         0.00000E+00
    0.26516E-01         0.53645E-02         0.00000E+00
    0.25959E-01         0.43394E-02         0.00000E+00
    0.25299E-01         0.33569E-02         0.00000E+00
    0.24534E-01         0.24251E-02         0.00000E+00
    0.23659E-01         0.15523E-02         0.00000E+00
    0.22673E-01         0.74672E-03         0.00000E+00
    0.21575E-01         0.16753E-04         0.00000E+00
    0.20363E-01        -0.62938E-03         0.00000E+00
    0.19037E-01        -0.11835E-02         0.00000E+00
    0.17599E-01        -0.16377E-02         0.00000E+00
    0.16048E-01        -0.19840E-02         0.00000E+00
    0.14388E-01        -0.22148E-02         0.00000E+00
    0.12620E-01        -0.23226E-02         0.00000E+00
    0.10748E-01        -0.23002E-02         0.00000E+00
    0.87766E-02        -0.21406E-02         0.00000E+00
    0.67097E-02        -0.18370E-02         0.00000E+00
    0.45533E-02        -0.13830E-02         0.00000E+00
    0.23142E-02        -0.77258E-03         0.00000E+00
    0.00000E+00         0.00000E+00         0.00000E+00
    0.25405E-01         0.11947E-01         0.00000E+00
    0.25334E-01         0.10830E-01         0.00000E+00
    0.25206E-01         0.97155E-02         0.00000E+00
    0.25014E-01         0.86083E-02         0.00000E+00
    0.24751E-01         0.75146E-02         0.00000E+00
    0.24411E-01         0.64409E-02         0.00000E+00
    0.23989E-01         0.53942E-02         0.00000E+00
    0.23479E-01         0.43819E-02         0.00000E+00
    0.22877E-01         0.34115E-02         0.00000E+00
    0.22180E-01         0.24909E-02         0.00000E+00
    0.21386E-01         0.16281E-02         0.00000E+00
    0.20491E-01         0.83121E-03         0.00000E+00
    0.19495E-01         0.10828E-03         0.00000E+00
    0.18397E-01        -0.53262E-03         0.00000E+00
    0.17197E-01        -0.10835E-02         0.00000E+00
    0.15895E-01        -0.15364E-02         0.00000E+00
    0.14492E-01        -0.18837E-02         0.00000E+00
    0.12991E-01        -0.21177E-02         0.00000E+00
    0.11393E-01        -0.22312E-02         0.00000E+00
    0.97010E-02        -0.22168E-02         0.00000E+00
    0.79196E-02        -0.20679E-02         0.00000E+00
    0.60530E-02        -0.17778E-02         0.00000E+00
    0.41066E-02        -0.13403E-02         0.00000E+00
    0.20866E-02        -0.74948E-03         0.00000E+00
    0.00000E+00         0.00000E+00         0.00000E+00
    0.22809E-01         0.11899E-01         0.00000E+00
    0.22736E-01         0.10791E-01         0.00000E+00
    0.22613E-01         0.96860E-02         0.00000E+00
    0.22434E-01         0.85895E-02         0.00000E+00
    0.22191E-01         0.75072E-02         0.00000E+00
    0.21880E-01         0.64452E-02         0.00000E+00
    0.21496E-01         0.54103E-02         0.00000E+00
    0.21034E-01         0.44095E-02         0.00000E+00
    0.20490E-01         0.34502E-02         0.00000E+00
    0.19863E-01         0.25400E-02         0.00000E+00
    0.19148E-01         0.16866E-02         0.00000E+00
    0.18344E-01         0.89793E-03         0.00000E+00
    0.17449E-01         0.18185E-03         0.00000E+00
    0.16464E-01        -0.45373E-03         0.00000E+00
    0.15388E-01        -0.10009E-02         0.00000E+00
    0.14221E-01        -0.14520E-02         0.00000E+00
    0.12964E-01        -0.17994E-02         0.00000E+00
    0.11619E-01        -0.20355E-02         0.00000E+00
    0.10187E-01        -0.21531E-02         0.00000E+00
    0.86731E-02        -0.21453E-02         0.00000E+00
    0.70791E-02        -0.20052E-02         0.00000E+00
    0.54094E-02        -0.17265E-02         0.00000E+00
    0.36691E-02        -0.13031E-02         0.00000E+00
    0.18638E-02        -0.72926E-03         0.00000E+00
    0.00000E+00         0.00000E+00         0.00000E+00
    0.20231E-01         0.11848E-01         0.00000E+00
    0.20159E-01         0.10747E-01         0.00000E+00
    0.20044E-01         0.96512E-02         0.00000E+00
    0.19878E-01         0.85643E-02         0.00000E+00
    0.19658E-01         0.74920E-02         0.00000E+00
    0.19378E-01         0.64405E-02         0.00000E+00
    0.19033E-01         0.54162E-02         0.00000E+00
    0.18620E-01         0.44258E-02         0.00000E+00
    0.18135E-01         0.34765E-02         0.00000E+00
    0.17576E-01         0.25757E-02         0.00000E+00
    0.16941E-01         0.17310E-02         0.00000E+00
    0.16227E-01         0.94998E-03         0.00000E+00
    0.15434E-01         0.24042E-03         0.00000E+00
    0.14560E-01        -0.38993E-03         0.00000E+00
    0.13607E-01        -0.93336E-03         0.00000E+00
    0.12573E-01        -0.13822E-02         0.00000E+00
    0.11460E-01        -0.17290E-02         0.00000E+00
    0.10269E-01        -0.19663E-02         0.00000E+00
    0.90028E-02        -0.20871E-02         0.00000E+00
    0.76632E-02        -0.20844E-02         0.00000E+00
    0.62536E-02        -0.19515E-02         0.00000E+00
    0.47777E-02        -0.16823E-02         0.00000E+00
    0.32399E-02        -0.12709E-02         0.00000E+00
    0.16454E-02        -0.71173E-03         0.00000E+00
    0.00000E+00         0.00000E+00         0.00000E+00
    0.17668E-01         0.11796E-01         0.00000E+00
    0.17601E-01         0.10703E-01         0.00000E+00
    0.17495E-01         0.96142E-02         0.00000E+00
    0.17346E-01         0.85356E-02         0.00000E+00
    0.17149E-01         0.74722E-02         0.00000E+00
    0.16901E-01         0.64298E-02         0.00000E+00
    0.16596E-01         0.54148E-02         0.00000E+00
    0.16233E-01         0.44336E-02         0.00000E+00
    0.15808E-01         0.34933E-02         0.00000E+00
    0.15318E-01         0.26010E-02         0.00000E+00
    0.14762E-01         0.17640E-02         0.00000E+00
    0.14138E-01         0.99005E-03         0.00000E+00
    0.13445E-01         0.28654E-03         0.00000E+00
    0.12683E-01        -0.33885E-03         0.00000E+00
    0.11850E-01        -0.87853E-03         0.00000E+00
    0.10949E-01        -0.13250E-02         0.00000E+00
    0.99780E-02        -0.16708E-02         0.00000E+00
    0.89401E-02        -0.19087E-02         0.00000E+00
    0.78365E-02        -0.20317E-02         0.00000E+00
    0.66694E-02        -0.20330E-02         0.00000E+00
    0.54417E-02        -0.19060E-02         0.00000E+00
    0.41567E-02        -0.16447E-02         0.00000E+00
    0.28182E-02        -0.12434E-02         0.00000E+00
    0.14309E-02        -0.69670E-03         0.00000E+00
    0.00000E+00         0.00000E+00         0.00000E+00
    0.15120E-01         0.11747E-01         0.00000E+00
    0.15058E-01         0.10659E-01         0.00000E+00
    0.14963E-01         0.95773E-02         0.00000E+00
    0.14832E-01         0.85058E-02         0.00000E+00
    0.14661E-01         0.74501E-02         0.00000E+00
    0.14446E-01         0.64157E-02         0.00000E+00
    0.14183E-01         0.54086E-02         0.00000E+00
    0.13870E-01         0.44355E-02         0.00000E+00
    0.13505E-01         0.35030E-02         0.00000E+00
    0.13085E-01         0.26181E-02         0.00000E+00
    0.12608E-01         0.17881E-02         0.00000E+00
    0.12074E-01         0.10204E-02         0.00000E+00
    0.11480E-01         0.32238E-03         0.00000E+00
    0.10828E-01        -0.29845E-03         0.00000E+00
    0.10116E-01        -0.83459E-03         0.00000E+00
    0.93453E-02        -0.12786E-02         0.00000E+00
    0.85159E-02        -0.16232E-02         0.00000E+00
    0.76291E-02        -0.18613E-02         0.00000E+00
    0.66865E-02        -0.19858E-02         0.00000E+00
    0.56899E-02        -0.19902E-02         0.00000E+00
    0.46418E-02        -0.18680E-02         0.00000E+00
    0.35451E-02        -0.16132E-02         0.00000E+00
    0.24031E-02        -0.12202E-02         0.00000E+00
    0.12199E-02        -0.68398E-03         0.00000E+00
    0.00000E+00         0.00000E+00         0.00000E+00
    0.12582E-01         0.11702E-01         0.00000E+00
    0.12528E-01         0.10619E-01         0.00000E+00
    0.12447E-01         0.95427E-02         0.00000E+00
    0.12335E-01         0.84773E-02         0.00000E+00
    0.12191E-01         0.74279E-02         0.00000E+00
    0.12010E-01         0.64002E-02         0.00000E+00
    0.11789E-01         0.54000E-02         0.00000E+00
    0.11528E-01         0.44336E-02         0.00000E+00
    0.11222E-01         0.35078E-02         0.00000E+00
    0.10872E-01         0.26293E-02         0.00000E+00
    0.10475E-01         0.18053E-02         0.00000E+00
    0.10030E-01         0.10430E-02         0.00000E+00
    0.95358E-02         0.34975E-03         0.00000E+00
    0.89930E-02        -0.26702E-03         0.00000E+00
    0.84010E-02        -0.79996E-03         0.00000E+00
    0.77600E-02        -0.12417E-02         0.00000E+00
    0.70706E-02        -0.15851E-02         0.00000E+00
    0.63336E-02        -0.18230E-02         0.00000E+00
    0.55504E-02        -0.19486E-02         0.00000E+00
    0.47226E-02        -0.19553E-02         0.00000E+00
    0.38522E-02        -0.18368E-02         0.00000E+00
    0.29416E-02        -0.15872E-02         0.00000E+00
    0.19938E-02        -0.12011E-02         0.00000E+00
    0.10120E-02        -0.67346E-03         0.00000E+00
    0.00000E+00         0.00000E+00         0.00000E+00
    0.10054E-01         0.11663E-01         0.00000E+00
    0.10009E-01         0.10584E-01         0.00000E+00
    0.99427E-02         0.95121E-02         0.00000E+00
    0.98522E-02         0.84515E-02         0.00000E+00
    0.97351E-02         0.74074E-02         0.00000E+00
    0.95891E-02         0.63852E-02         0.00000E+00
    0.94120E-02         0.53905E-02         0.00000E+00
    0.92020E-02         0.44298E-02         0.00000E+00
    0.89574E-02         0.35094E-02         0.00000E+00
    0.86767E-02         0.26362E-02         0.00000E+00
    0.83588E-02         0.18171E-02         0.00000E+00
    0.80029E-02         0.10594E-02         0.00000E+00
    0.76083E-02         0.37017E-03         0.00000E+00
    0.71746E-02        -0.24316E-03         0.00000E+00
    0.67017E-02        -0.77333E-03         0.00000E+00
    0.61898E-02        -0.12131E-02         0.00000E+00
    0.56394E-02        -0.15552E-02         0.00000E+00
    0.50512E-02        -0.17928E-02         0.00000E+00
    0.44261E-02        -0.19191E-02         0.00000E+00
    0.37656E-02        -0.19275E-02         0.00000E+00
    0.30713E-02        -0.18119E-02         0.00000E+00
    0.23451E-02        -0.15664E-02         0.00000E+00
    0.15893E-02        -0.11857E-02         0.00000E+00
    0.80655E-03        -0.66501E-03         0.00000E+00
    0.00000E+00         0.00000E+00         0.00000E+00
    0.75341E-02         0.11631E-01         0.00000E+00
    0.74992E-02         0.10555E-01         0.00000E+00
    0.74484E-02         0.94869E-02         0.00000E+00
    0.73797E-02         0.84301E-02         0.00000E+00
    0.72911E-02         0.73901E-02         0.00000E+00
    0.71810E-02         0.63720E-02         0.00000E+00
    0.70477E-02         0.53818E-02         0.00000E+00
    0.68898E-02         0.44254E-02         0.00000E+00
    0.67060E-02         0.35093E-02         0.00000E+00
    0.64954E-02         0.26402E-02         0.00000E+00
    0.62570E-02         0.18250E-02         0.00000E+00
    0.59901E-02         0.10708E-02         0.00000E+00
    0.56943E-02         0.38483E-03         0.00000E+00
    0.53693E-02        -0.22575E-03         0.00000E+00
    0.50151E-02        -0.75367E-03         0.00000E+00
    0.46318E-02        -0.11917E-02         0.00000E+00
    0.42196E-02        -0.15329E-02         0.00000E+00
    0.37792E-02        -0.17701E-02         0.00000E+00
    0.33113E-02        -0.18968E-02         0.00000E+00
    0.28169E-02        -0.19065E-02         0.00000E+00
    0.22973E-02        -0.17930E-02         0.00000E+00
    0.17540E-02        -0.15506E-02         0.00000E+00
    0.11886E-02        -0.11740E-02         0.00000E+00
    0.60314E-03        -0.65853E-03         0.00000E+00
    0.00000E+00         0.00000E+00         0.00000E+00
    0.50196E-02         0.11608E-01         0.00000E+00
    0.49959E-02         0.10534E-01         0.00000E+00
    0.49615E-02         0.94681E-02         0.00000E+00
    0.49153E-02         0.84140E-02         0.00000E+00
    0.48559E-02         0.73769E-02         0.00000E+00
    0.47822E-02         0.63619E-02         0.00000E+00
    0.46931E-02         0.53747E-02         0.00000E+00
    0.45876E-02         0.44214E-02         0.00000E+00
    0.44650E-02         0.35084E-02         0.00000E+00
    0.43245E-02         0.26423E-02         0.00000E+00
    0.41655E-02         0.18299E-02         0.00000E+00
    0.39876E-02         0.10783E-02         0.00000E+00
    0.37905E-02         0.39466E-03         0.00000E+00
    0.35740E-02        -0.21391E-03         0.00000E+00
    0.33381E-02        -0.74018E-03         0.00000E+00
    0.30828E-02        -0.11770E-02         0.00000E+00
    0.28083E-02        -0.15174E-02         0.00000E+00
    0.25151E-02        -0.17543E-02         0.00000E+00
    0.22036E-02        -0.18812E-02         0.00000E+00
    0.18745E-02        -0.18917E-02         0.00000E+00
    0.15286E-02        -0.17796E-02         0.00000E+00
    0.11670E-02        -0.15394E-02         0.00000E+00
    0.79076E-03        -0.11657E-02         0.00000E+00
    0.40125E-03        -0.65395E-03         0.00000E+00
    0.00000E+00         0.00000E+00         0.00000E+00
    0.25089E-02         0.11594E-01         0.00000E+00
    0.24968E-02         0.10521E-01         0.00000E+00
    0.24796E-02         0.94565E-02         0.00000E+00
    0.24563E-02         0.84041E-02         0.00000E+00
    0.24265E-02         0.73687E-02         0.00000E+00
    0.23896E-02         0.63555E-02         0.00000E+00
    0.23449E-02         0.53702E-02         0.00000E+00
    0.22921E-02         0.44188E-02         0.00000E+00
    0.22308E-02         0.35076E-02         0.00000E+00
    0.21605E-02         0.26433E-02         0.00000E+00
    0.20810E-02         0.18326E-02         0.00000E+00
    0.19921E-02         0.10826E-02         0.00000E+00
    0.18936E-02         0.40030E-03         0.00000E+00
    0.17854E-02        -0.20704E-03         0.00000E+00
    0.16675E-02        -0.73231E-03         0.00000E+00
    0.15399E-02        -0.11684E-02         0.00000E+00
    0.14027E-02        -0.15082E-02         0.00000E+00
    0.12562E-02        -0.17450E-02         0.00000E+00
    0.11006E-02        -0.18720E-02         0.00000E+00
    0.93620E-03        -0.18830E-02         0.00000E+00
    0.76344E-03        -0.17718E-02         0.00000E+00
    0.58281E-03        -0.15328E-02         0.00000E+00
    0.39489E-03        -0.11608E-02         0.00000E+00
    0.20037E-03        -0.65122E-03         0.00000E+00
    0.00000E+00         0.00000E+00         0.00000E+00
    0.00000E+00         0.11589E-01         0.00000E+00
    0.00000E+00         0.10517E-01         0.00000E+00
    0.00000E+00         0.94526E-02         0.00000E+00
    0.00000E+00         0.84007E-02         0.00000E+00
    0.00000E+00         0.73659E-02         0.00000E+00
    0.00000E+00         0.63533E-02         0.00000E+00
    0.00000E+00         0.53686E-02         0.00000E+00
    0.00000E+00         0.44178E-02         0.00000E+00
    0.00000E+00         0.35073E-02         0.00000E+00
    0.00000E+00         0.26435E-02         0.00000E+00
    0.00000E+00         0.18334E-02         0.00000E+00
    0.00000E+00         0.10839E-02         0.00000E+00
    0.00000E+00         0.40214E-03         0.00000E+00
    0.00000E+00        -0.20480E-03         0.00000E+00
    0.00000E+00        -0.72972E-03         0.00000E+00
    0.00000E+00        -0.11655E-02         0.00000E+00
    0.00000E+00        -0.15052E-02         0.00000E+00
    0.00000E+00        -0.17419E-02         0.00000E+00
    0.00000E+00        -0.18690E-02         0.00000E+00
    0.00000E+00        -0.18801E-02         0.00000E+00
    0.00000E+00        -0.17691E-02         0.00000E+00
    0.00000E+00        -0.15306E-02         0.00000E+00
    0.00000E+00        -0.11592E-02         0.00000E+00
    0.00000E+00        -0.65032E-03         0.00000E+00
    0.00000E+00         0.00000E+00         0.00000E+00
CELL_DATA       1152
VECTORS vDarcy double 
    0.14365E-20        -0.35800E-21         0.00000E+00
    0.91692E-21        -0.36066E-21         0.00000E+00
    0.38699E-21         0.83432E-22         0.00000E+00
    0.70652E-21         0.41194E-21         0.00000E+00
    0.72047E-21         0.63704E-21         0.00000E+00
    0.37460E-21         0.71346E-21         0.00000E+00
    0.55954E-21         0.29697E-21         0.00000E+00
    0.67147E-21         0.68505E-21         0.00000E+00
    0.32782E-21         0.51645E-21         0.00000E+00
    0.10386E-21        -0.12784E-21         0.00000E+00
    0.14954E-21         0.10073E-21         0.00000E+00
    0.11176E-21        -0.46417E-22         0.00000E+00
    0.93492E-22         0.31548E-21         0.00000E+00
    0.16524E-21         0.10703E-21         0.00000E+00
    0.13869E-21        -0.33665E-22         0.00000E+00
    0.55955E-22        -0.47164E-22         0.00000E+00
    0.56023E-22        -0.13695E-21         0.00000E+00
    0.52722E-22         0.39596E-22         0.00000E+00
    0.40457E-22         0.33362E-21         0.00000E+00
    0.63227E-22         0.15110E-21         0.00000E+00
    0.57658E-22         0.51219E-23         0.00000E+00
    0.36258E-22         0.21586E-22         0.00000E+00
    0.18023E-22         0.99726E-23         0.00000E+00
    0.16474E-22        -0.85771E-23         0.00000E+00
    0.23380E-20        -0.63011E-21         0.00000E+00
    0.24205E-20         0.34857E-21         0.00000E+00
    0.17193E-20         0.60535E-21         0.00000E+00
    0.90266E-21         0.38710E-21         0.00000E+00
    0.58153E-21         0.96907E-21         0.00000E+00
    0.76154E-21         0.54729E-21         0.00000E+00
    0.79787E-21         0.24189E-21         0.00000E+00
    0.43039E-21         0.99568E-21         0.00000E+00
    0.21423E-21         0.76562E-21         0.00000E+00
    0.14868E-21        -0.87492E-22         0.00000E+00
    0.16646E-21        -0.30847E-23         0.00000E+00
    0.25163E-21         0.10007E-22         0.00000E+00
    0.29668E-21         0.23227E-21         0.00000E+00
    0.36109E-21         0.54092E-22         0.00000E+00
    0.31353E-21         0.93380E-22         0.00000E+00
    0.24976E-21        -0.27702E-22         0.00000E+00
    0.16568E-21        -0.72408E-22         0.00000E+00
    0.39939E-22         0.10410E-21         0.00000E+00
    0.63354E-22         0.25797E-21         0.00000E+00
    0.12474E-21         0.14260E-21         0.00000E+00
    0.10809E-21         0.35840E-22         0.00000E+00
    0.87248E-22         0.33112E-22         0.00000E+00
    0.79397E-22         0.24532E-22         0.00000E+00
    0.52533E-22         0.52764E-23         0.00000E+00
    0.70367E-20         0.30486E-20         0.00000E+00
    0.27046E-20         0.91951E-21         0.00000E+00
    0.20821E-20         0.13581E-20         0.00000E+00
    0.15463E-20         0.98675E-21         0.00000E+00
    0.14133E-20         0.82355E-21         0.00000E+00
    0.13685E-20         0.55757E-21         0.00000E+00
    0.96259E-21         0.60121E-21         0.00000E+00
    0.95956E-21         0.10069E-20         0.00000E+00
    0.10556E-20         0.87454E-21         0.00000E+00
    0.69648E-21         0.22828E-21         0.00000E+00
    0.45085E-21        -0.91005E-22         0.00000E+00
    0.41248E-21         0.51132E-22         0.00000E+00
    0.33944E-21         0.21912E-21         0.00000E+00
    0.20251E-21         0.13977E-21         0.00000E+00
    0.17753E-21         0.80239E-22         0.00000E+00
    0.26674E-21        -0.39994E-22         0.00000E+00
    0.19824E-21         0.92459E-22         0.00000E+00
    0.78014E-22         0.18520E-21         0.00000E+00
    0.77348E-22         0.15412E-21         0.00000E+00
    0.13903E-21         0.12338E-21         0.00000E+00
    0.14368E-21         0.67050E-22         0.00000E+00
    0.11526E-21         0.51170E-22         0.00000E+00
    0.85763E-22         0.43820E-22         0.00000E+00
    0.75997E-22         0.22617E-22         0.00000E+00
    0.16023E-20         0.54003E-20         0.00000E+00
    0.23319E-20         0.21703E-20         0.00000E+00
    0.14195E-20         0.16421E-20         0.00000E+00
    0.15142E-20         0.11439E-20         0.00000E+00
    0.14869E-20         0.82671E-21         0.00000E+00
    0.11212E-20         0.96488E-21         0.00000E+00
    0.10391E-20         0.68195E-21         0.00000E+00
    0.10983E-20         0.86989E-21         0.00000E+00
    0.94164E-21         0.10722E-20         0.00000E+00
    0.80136E-21         0.53009E-21         0.00000E+00
    0.61200E-21         0.42183E-22         0.00000E+00
    0.40247E-21         0.16585E-21         0.00000E+00
    0.35020E-21         0.22971E-21         0.00000E+00
    0.38913E-21         0.22718E-21         0.00000E+00
    0.45015E-21        -0.43209E-22         0.00000E+00
    0.42096E-21         0.23430E-22         0.00000E+00
    0.31544E-21         0.20306E-21         0.00000E+00
    0.25193E-21         0.25832E-21         0.00000E+00
    0.17617E-21         0.15743E-21         0.00000E+00
    0.13845E-21         0.96116E-22         0.00000E+00
    0.14266E-21         0.85444E-22         0.00000E+00
    0.11680E-21         0.87062E-22         0.00000E+00
    0.10054E-21         0.53686E-22         0.00000E+00
    0.10388E-21         0.19180E-22         0.00000E+00
    0.42786E-21         0.33701E-20         0.00000E+00
    0.11515E-20         0.27473E-20         0.00000E+00
    0.14414E-20         0.16875E-20         0.00000E+00
    0.14023E-20         0.10429E-20         0.00000E+00
    0.12573E-20         0.11000E-20         0.00000E+00
    0.11504E-20         0.11642E-20         0.00000E+00
    0.94109E-21         0.77397E-21         0.00000E+00
    0.70675E-21         0.95294E-21         0.00000E+00
    0.77804E-21         0.10745E-20         0.00000E+00
    0.78463E-21         0.66144E-21         0.00000E+00
    0.68805E-21         0.19678E-21         0.00000E+00
    0.61202E-21         0.29681E-21         0.00000E+00
    0.47405E-21         0.28899E-21         0.00000E+00
    0.41380E-21         0.18923E-21         0.00000E+00
    0.35251E-21        -0.49898E-23         0.00000E+00
    0.27221E-21         0.94706E-22         0.00000E+00
    0.22632E-21         0.28320E-21         0.00000E+00
    0.20282E-21         0.26518E-21         0.00000E+00
    0.21433E-21         0.21483E-21         0.00000E+00
    0.17838E-21         0.11239E-21         0.00000E+00
    0.16186E-21         0.81481E-22         0.00000E+00
    0.16387E-21         0.11487E-21         0.00000E+00
    0.14459E-21         0.61424E-22         0.00000E+00
    0.13860E-21         0.14094E-22         0.00000E+00
    0.34694E-21         0.25953E-20         0.00000E+00
    0.88205E-21         0.22634E-20         0.00000E+00
    0.98846E-21         0.17752E-20         0.00000E+00
    0.71358E-21         0.12692E-20         0.00000E+00
    0.53989E-21         0.11924E-20         0.00000E+00
    0.74958E-21         0.96917E-21         0.00000E+00
    0.74455E-21         0.11833E-20         0.00000E+00
    0.55080E-21         0.97166E-21         0.00000E+00
    0.75592E-21         0.77934E-21         0.00000E+00
    0.99612E-21         0.70979E-21         0.00000E+00
    0.89467E-21         0.34645E-21         0.00000E+00
    0.69757E-21         0.42026E-21         0.00000E+00
    0.55847E-21         0.44262E-21         0.00000E+00
    0.45030E-21         0.20401E-21         0.00000E+00
    0.38706E-21         0.10475E-21         0.00000E+00
    0.32914E-21         0.12320E-21         0.00000E+00
    0.28515E-21         0.34459E-21         0.00000E+00
    0.23010E-21         0.28234E-21         0.00000E+00
    0.21021E-21         0.20606E-21         0.00000E+00
    0.22123E-21         0.14608E-21         0.00000E+00
    0.18291E-21         0.10264E-21         0.00000E+00
    0.17099E-21         0.10362E-21         0.00000E+00
    0.18377E-21         0.79171E-22         0.00000E+00
    0.16036E-21         0.25744E-22         0.00000E+00
    0.25372E-21         0.19947E-20         0.00000E+00
    0.58040E-21         0.20022E-20         0.00000E+00
    0.59272E-21         0.19176E-20         0.00000E+00
    0.45922E-21         0.15352E-20         0.00000E+00
    0.41941E-21         0.11399E-20         0.00000E+00
    0.45275E-21         0.77861E-21         0.00000E+00
    0.56499E-21         0.12667E-20         0.00000E+00
    0.75016E-21         0.89690E-21         0.00000E+00
    0.80917E-21         0.58997E-21         0.00000E+00
    0.86889E-21         0.59924E-21         0.00000E+00
    0.89874E-21         0.52861E-21         0.00000E+00
    0.63802E-21         0.69593E-21         0.00000E+00
    0.44882E-21         0.49525E-21         0.00000E+00
    0.46904E-21         0.23932E-21         0.00000E+00
    0.35865E-21         0.24306E-21         0.00000E+00
    0.21345E-21         0.18802E-21         0.00000E+00
    0.22042E-21         0.31680E-21         0.00000E+00
    0.25374E-21         0.33186E-21         0.00000E+00
    0.24674E-21         0.18343E-21         0.00000E+00
    0.25378E-21         0.15063E-21         0.00000E+00
    0.21714E-21         0.17304E-21         0.00000E+00
    0.18412E-21         0.78159E-22         0.00000E+00
    0.19020E-21         0.85770E-22         0.00000E+00
    0.20665E-21         0.26110E-22         0.00000E+00
    0.37033E-22         0.17039E-20         0.00000E+00
    0.19489E-21         0.18084E-20         0.00000E+00
    0.43956E-21         0.18544E-20         0.00000E+00
    0.79446E-21         0.13770E-20         0.00000E+00
    0.93722E-21         0.11952E-20         0.00000E+00
    0.68131E-21         0.94594E-21         0.00000E+00
    0.61208E-21         0.10563E-20         0.00000E+00
    0.75701E-21         0.77716E-21         0.00000E+00
    0.82191E-21         0.58580E-21         0.00000E+00
    0.80700E-21         0.55860E-21         0.00000E+00
    0.61551E-21         0.73089E-21         0.00000E+00
    0.41108E-21         0.95880E-21         0.00000E+00
    0.35195E-21         0.48071E-21         0.00000E+00
    0.27391E-21         0.31169E-21         0.00000E+00
    0.25158E-21         0.30339E-21         0.00000E+00
    0.22516E-21         0.29931E-21         0.00000E+00
    0.18249E-21         0.24121E-21         0.00000E+00
    0.26443E-21         0.29218E-21         0.00000E+00
    0.28449E-21         0.21005E-21         0.00000E+00
    0.23477E-21         0.16670E-21         0.00000E+00
    0.24285E-21         0.18554E-21         0.00000E+00
    0.24160E-21         0.99933E-22         0.00000E+00
    0.23276E-21         0.66746E-22         0.00000E+00
    0.25248E-21         0.89731E-23         0.00000E+00
    0.13529E-21         0.15316E-20         0.00000E+00
    0.32372E-21         0.16345E-20         0.00000E+00
    0.45682E-21         0.16506E-20         0.00000E+00
    0.59762E-21         0.10851E-20         0.00000E+00
    0.70573E-21         0.12362E-20         0.00000E+00
    0.63240E-21         0.12342E-20         0.00000E+00
    0.60192E-21         0.86785E-21         0.00000E+00
    0.72617E-21         0.69647E-21         0.00000E+00
    0.71929E-21         0.60847E-21         0.00000E+00
    0.64721E-21         0.62292E-21         0.00000E+00
    0.54074E-21         0.96452E-21         0.00000E+00
    0.46840E-21         0.10019E-20         0.00000E+00
    0.41244E-21         0.55265E-21         0.00000E+00
    0.34298E-21         0.38725E-21         0.00000E+00
    0.29156E-21         0.30158E-21         0.00000E+00
    0.32459E-21         0.29451E-21         0.00000E+00
    0.39199E-21         0.22128E-21         0.00000E+00
    0.32155E-21         0.30062E-21         0.00000E+00
    0.24330E-21         0.25979E-21         0.00000E+00
    0.24022E-21         0.16975E-21         0.00000E+00
    0.27748E-21         0.13715E-21         0.00000E+00
    0.30524E-21         0.12182E-21         0.00000E+00
    0.30719E-21         0.51742E-22         0.00000E+00
    0.30705E-21         0.44005E-23         0.00000E+00
    0.69447E-22         0.13268E-20         0.00000E+00
    0.22454E-21         0.14957E-20         0.00000E+00
    0.43459E-21         0.14462E-20         0.00000E+00
    0.48955E-21         0.10937E-20         0.00000E+00
    0.45579E-21         0.11533E-20         0.00000E+00
    0.67830E-21         0.11679E-20         0.00000E+00
    0.71918E-21         0.92369E-21         0.00000E+00
    0.59683E-21         0.63871E-21         0.00000E+00
    0.62698E-21         0.64297E-21         0.00000E+00
    0.58786E-21         0.69962E-21         0.00000E+00
    0.54131E-21         0.10408E-20         0.00000E+00
    0.56606E-21         0.97321E-21         0.00000E+00
    0.53084E-21         0.67257E-21         0.00000E+00
    0.37472E-21         0.49290E-21         0.00000E+00
    0.28897E-21         0.33312E-21         0.00000E+00
    0.35332E-21         0.16558E-21         0.00000E+00
    0.41816E-21         0.21797E-21         0.00000E+00
    0.38139E-21         0.41115E-21         0.00000E+00
    0.33491E-21         0.27400E-21         0.00000E+00
    0.31319E-21         0.18035E-21         0.00000E+00
    0.31126E-21         0.91218E-22         0.00000E+00
    0.36907E-21         0.82177E-22         0.00000E+00
    0.39815E-21         0.60364E-22         0.00000E+00
    0.37601E-21         0.18054E-22         0.00000E+00
    0.10499E-22         0.12469E-20         0.00000E+00
    0.13698E-21         0.12941E-20         0.00000E+00
    0.33819E-21         0.12366E-20         0.00000E+00
    0.44402E-21         0.11426E-20         0.00000E+00
    0.68771E-21         0.89447E-21         0.00000E+00
    0.90260E-21         0.98929E-21         0.00000E+00
    0.97416E-21         0.98986E-21         0.00000E+00
    0.93257E-21         0.73648E-21         0.00000E+00
    0.68745E-21         0.76018E-21         0.00000E+00
    0.44326E-21         0.86572E-21         0.00000E+00
    0.43482E-21         0.92973E-21         0.00000E+00
    0.56637E-21         0.92801E-21         0.00000E+00
    0.56626E-21         0.75311E-21         0.00000E+00
    0.51825E-21         0.61649E-21         0.00000E+00
    0.52503E-21         0.28850E-21         0.00000E+00
    0.49726E-21         0.17362E-21         0.00000E+00
    0.39276E-21         0.24959E-21         0.00000E+00
    0.43020E-21         0.37885E-21         0.00000E+00
    0.48235E-21         0.30064E-21         0.00000E+00
    0.43995E-21         0.21782E-21         0.00000E+00
    0.41981E-21         0.75822E-22         0.00000E+00
    0.41660E-21         0.42967E-22         0.00000E+00
    0.41474E-21         0.72352E-22         0.00000E+00
    0.40649E-21         0.36454E-22         0.00000E+00
    0.45722E-22         0.11907E-20         0.00000E+00
    0.16157E-21         0.11080E-20         0.00000E+00
    0.28810E-21         0.10949E-20         0.00000E+00
    0.44777E-21         0.10187E-20         0.00000E+00
    0.54784E-21         0.67455E-21         0.00000E+00
    0.62661E-21         0.91554E-21         0.00000E+00
    0.80318E-21         0.81548E-21         0.00000E+00
    0.75454E-21         0.10011E-20         0.00000E+00
    0.53279E-21         0.96244E-21         0.00000E+00
    0.45334E-21         0.98710E-21         0.00000E+00
    0.48536E-21         0.78477E-21         0.00000E+00
    0.58348E-21         0.84329E-21         0.00000E+00
    0.63753E-21         0.78389E-21         0.00000E+00
    0.61377E-21         0.65748E-21         0.00000E+00
    0.55934E-21         0.29516E-21         0.00000E+00
    0.47866E-21         0.27541E-21         0.00000E+00
    0.42197E-21         0.30900E-21         0.00000E+00
    0.40563E-21         0.29834E-21         0.00000E+00
    0.40156E-21         0.33307E-21         0.00000E+00
    0.44235E-21         0.18699E-21         0.00000E+00
    0.47715E-21         0.91993E-22         0.00000E+00
    0.44278E-21         0.64376E-22         0.00000E+00
    0.41312E-21         0.82463E-22         0.00000E+00
    0.40795E-21         0.39758E-22         0.00000E+00
    0.68759E-22         0.10762E-20         0.00000E+00
    0.15676E-21         0.10186E-20         0.00000E+00
    0.17537E-21         0.10392E-20         0.00000E+00
    0.21171E-21         0.87848E-21         0.00000E+00
    0.17476E-21         0.75167E-21         0.00000E+00
    0.15122E-21         0.78319E-21         0.00000E+00
    0.14621E-21         0.77627E-21         0.00000E+00
    0.21206E-21         0.10231E-20         0.00000E+00
    0.37505E-21         0.99920E-21         0.00000E+00
    0.44071E-21         0.96414E-21         0.00000E+00
    0.42048E-21         0.79594E-21         0.00000E+00
    0.30589E-21         0.84858E-21         0.00000E+00
    0.27217E-21         0.75827E-21         0.00000E+00
    0.38488E-21         0.59415E-21         0.00000E+00
    0.38397E-21         0.41385E-21         0.00000E+00
    0.31514E-21         0.30622E-21         0.00000E+00
    0.38726E-21         0.26276E-21         0.00000E+00
    0.46358E-21         0.28459E-21         0.00000E+00
    0.49412E-21         0.32036E-21         0.00000E+00
    0.47389E-21         0.17914E-21         0.00000E+00
    0.41609E-21         0.12284E-21         0.00000E+00
    0.39348E-21         0.90515E-22         0.00000E+00
    0.41008E-21         0.69386E-22         0.00000E+00
    0.43255E-21         0.35525E-22         0.00000E+00
    0.59489E-22         0.94794E-21         0.00000E+00
    0.14110E-21         0.97723E-21         0.00000E+00
    0.25212E-21         0.95092E-21         0.00000E+00
    0.30681E-21         0.87570E-21         0.00000E+00
    0.18784E-21         0.91037E-21         0.00000E+00
    0.75191E-22         0.76069E-21         0.00000E+00
    0.14921E-21         0.72977E-21         0.00000E+00
    0.25027E-21         0.90268E-21         0.00000E+00
    0.25841E-21         0.94848E-21         0.00000E+00
    0.24284E-21         0.96478E-21         0.00000E+00
    0.23666E-21         0.82171E-21         0.00000E+00
    0.30828E-21         0.86580E-21         0.00000E+00
    0.39596E-21         0.68709E-21         0.00000E+00
    0.43857E-21         0.51001E-21         0.00000E+00
    0.44034E-21         0.49713E-21         0.00000E+00
    0.40358E-21         0.32852E-21         0.00000E+00
    0.36593E-21         0.20599E-21         0.00000E+00
    0.41164E-21         0.21934E-21         0.00000E+00
    0.49150E-21         0.27521E-21         0.00000E+00
    0.52545E-21         0.21057E-21         0.00000E+00
    0.50517E-21         0.16951E-21         0.00000E+00
    0.47520E-21         0.96430E-22         0.00000E+00
    0.45700E-21         0.65070E-22         0.00000E+00
    0.43790E-21         0.36469E-22         0.00000E+00
    0.55125E-23         0.88293E-21         0.00000E+00
    0.61108E-22         0.90503E-21         0.00000E+00
    0.16594E-21         0.80728E-21         0.00000E+00
    0.23303E-21         0.89756E-21         0.00000E+00
    0.24859E-21         0.99193E-21         0.00000E+00
    0.19257E-21         0.84780E-21         0.00000E+00
    0.31322E-22         0.72988E-21         0.00000E+00
    0.40008E-24         0.83242E-21         0.00000E+00
    0.17780E-21         0.83319E-21         0.00000E+00
    0.38937E-21         0.88407E-21         0.00000E+00
    0.38920E-21         0.90877E-21         0.00000E+00
    0.33569E-21         0.76064E-21         0.00000E+00
    0.41765E-21         0.62259E-21         0.00000E+00
    0.39770E-21         0.55186E-21         0.00000E+00
    0.42833E-21         0.42287E-21         0.00000E+00
    0.51417E-21         0.35371E-21         0.00000E+00
    0.48706E-21         0.24556E-21         0.00000E+00
    0.43015E-21         0.19097E-21         0.00000E+00
    0.44285E-21         0.21101E-21         0.00000E+00
    0.48453E-21         0.19914E-21         0.00000E+00
    0.49474E-21         0.19101E-21         0.00000E+00
    0.47533E-21         0.12430E-21         0.00000E+00
    0.44412E-21         0.86612E-22         0.00000E+00
    0.43980E-21         0.38355E-22         0.00000E+00
    0.20080E-22         0.85734E-21         0.00000E+00
    0.78838E-22         0.81627E-21         0.00000E+00
    0.11086E-21         0.75919E-21         0.00000E+00
    0.12660E-21         0.86282E-21         0.00000E+00
    0.25113E-21         0.88658E-21         0.00000E+00
    0.28362E-21         0.97669E-21         0.00000E+00
    0.14509E-21         0.90077E-21         0.00000E+00
    0.12429E-21         0.71326E-21         0.00000E+00
    0.17121E-21         0.72803E-21         0.00000E+00
    0.23171E-21         0.71716E-21         0.00000E+00
    0.37094E-21         0.93663E-21         0.00000E+00
    0.38806E-21         0.76917E-21         0.00000E+00
    0.32636E-21         0.59379E-21         0.00000E+00
    0.44558E-21         0.48140E-21         0.00000E+00
    0.57159E-21         0.33668E-21         0.00000E+00
    0.53700E-21         0.38865E-21         0.00000E+00
    0.54508E-21         0.22964E-21         0.00000E+00
    0.56706E-21         0.24183E-21         0.00000E+00
    0.49457E-21         0.21994E-21         0.00000E+00
    0.43745E-21         0.20565E-21         0.00000E+00
    0.43315E-21         0.17859E-21         0.00000E+00
    0.43327E-21         0.15600E-21         0.00000E+00
    0.44032E-21         0.79071E-22         0.00000E+00
    0.45504E-21         0.35496E-22         0.00000E+00
    0.27887E-22         0.80937E-21         0.00000E+00
    0.64204E-22         0.76916E-21         0.00000E+00
    0.94677E-22         0.74380E-21         0.00000E+00
    0.18548E-21         0.77166E-21         0.00000E+00
    0.21721E-21         0.82147E-21         0.00000E+00
    0.21341E-21         0.10131E-20         0.00000E+00
    0.33235E-21         0.88394E-21         0.00000E+00
    0.33260E-21         0.75065E-21         0.00000E+00
    0.20444E-21         0.77188E-21         0.00000E+00
    0.89900E-22         0.72734E-21         0.00000E+00
    0.80197E-22         0.79692E-21         0.00000E+00
    0.22752E-21         0.74444E-21         0.00000E+00
    0.37831E-21         0.52943E-21         0.00000E+00
    0.46707E-21         0.33778E-21         0.00000E+00
    0.48673E-21         0.33464E-21         0.00000E+00
    0.49818E-21         0.41383E-21         0.00000E+00
    0.47027E-21         0.22429E-21         0.00000E+00
    0.45765E-21         0.23782E-21         0.00000E+00
    0.49339E-21         0.26071E-21         0.00000E+00
    0.49353E-21         0.22187E-21         0.00000E+00
    0.47338E-21         0.18682E-21         0.00000E+00
    0.48037E-21         0.14066E-21         0.00000E+00
    0.48897E-21         0.78773E-22         0.00000E+00
    0.47743E-21         0.32607E-22         0.00000E+00
    0.54470E-23         0.77604E-21         0.00000E+00
    0.24322E-22         0.74730E-21         0.00000E+00
    0.69529E-22         0.68998E-21         0.00000E+00
    0.13970E-21         0.66451E-21         0.00000E+00
    0.27138E-21         0.76522E-21         0.00000E+00
    0.44852E-21         0.89601E-21         0.00000E+00
    0.44390E-21         0.88671E-21         0.00000E+00
    0.31191E-21         0.87962E-21         0.00000E+00
    0.26729E-21         0.81569E-21         0.00000E+00
    0.27347E-21         0.79189E-21         0.00000E+00
    0.28416E-21         0.73139E-21         0.00000E+00
    0.35548E-21         0.59134E-21         0.00000E+00
    0.42586E-21         0.46136E-21         0.00000E+00
    0.33699E-21         0.40596E-21         0.00000E+00
    0.26354E-21         0.32025E-21         0.00000E+00
    0.37769E-21         0.30262E-21         0.00000E+00
    0.46817E-21         0.27294E-21         0.00000E+00
    0.44758E-21         0.22238E-21         0.00000E+00
    0.43809E-21         0.24990E-21         0.00000E+00
    0.43716E-21         0.23346E-21         0.00000E+00
    0.44078E-21         0.19177E-21         0.00000E+00
    0.47019E-21         0.99294E-22         0.00000E+00
    0.48500E-21         0.96732E-22         0.00000E+00
    0.48375E-21         0.27437E-22         0.00000E+00
    0.27580E-22         0.74301E-21         0.00000E+00
   -0.22913E-22         0.81195E-21         0.00000E+00
   -0.10898E-21         0.66620E-21         0.00000E+00
   -0.52149E-22         0.56129E-21         0.00000E+00
    0.21679E-22         0.66294E-21         0.00000E+00
    0.92985E-22         0.74985E-21         0.00000E+00
    0.19210E-21         0.93838E-21         0.00000E+00
    0.30729E-21         0.84475E-21         0.00000E+00
    0.36583E-21         0.83665E-21         0.00000E+00
    0.34654E-21         0.78402E-21         0.00000E+00
    0.30175E-21         0.77335E-21         0.00000E+00
    0.24365E-21         0.53615E-21         0.00000E+00
    0.31381E-21         0.37600E-21         0.00000E+00
    0.39746E-21         0.49653E-21         0.00000E+00
    0.42404E-21         0.27655E-21         0.00000E+00
    0.46793E-21         0.18828E-21         0.00000E+00
    0.51210E-21         0.25263E-21         0.00000E+00
    0.52196E-21         0.25341E-21         0.00000E+00
    0.49617E-21         0.25414E-21         0.00000E+00
    0.48309E-21         0.24323E-21         0.00000E+00
    0.48958E-21         0.17191E-21         0.00000E+00
    0.47851E-21         0.10082E-21         0.00000E+00
    0.47333E-21         0.85573E-22         0.00000E+00
    0.48291E-21         0.30270E-22         0.00000E+00
    0.17364E-22         0.69807E-21         0.00000E+00
    0.96312E-22         0.82844E-21         0.00000E+00
    0.12289E-21         0.70920E-21         0.00000E+00
    0.69323E-22         0.51502E-21         0.00000E+00
    0.40885E-22         0.66381E-21         0.00000E+00
   -0.43927E-22         0.76248E-21         0.00000E+00
   -0.28907E-22         0.81161E-21         0.00000E+00
    0.10690E-21         0.72052E-21         0.00000E+00
    0.20161E-21         0.80763E-21         0.00000E+00
    0.28532E-21         0.74862E-21         0.00000E+00
    0.37471E-21         0.76415E-21         0.00000E+00
    0.38476E-21         0.59340E-21         0.00000E+00
    0.28521E-21         0.34815E-21         0.00000E+00
    0.32499E-21         0.40095E-21         0.00000E+00
    0.42671E-21         0.24383E-21         0.00000E+00
    0.45485E-21         0.14897E-21         0.00000E+00
    0.47336E-21         0.22926E-21         0.00000E+00
    0.46385E-21         0.27642E-21         0.00000E+00
    0.43916E-21         0.28161E-21         0.00000E+00
    0.46229E-21         0.20570E-21         0.00000E+00
    0.50454E-21         0.16069E-21         0.00000E+00
    0.49094E-21         0.13672E-21         0.00000E+00
    0.46734E-21         0.78452E-22         0.00000E+00
    0.45823E-21         0.36925E-22         0.00000E+00
   -0.15348E-23         0.68224E-21         0.00000E+00
    0.98036E-22         0.66575E-21         0.00000E+00
    0.22731E-21         0.71604E-21         0.00000E+00
    0.16227E-21         0.62678E-21         0.00000E+00
    0.50037E-22         0.69272E-21         0.00000E+00
    0.90117E-22         0.77830E-21         0.00000E+00
    0.16084E-21         0.71006E-21         0.00000E+00
    0.11046E-21         0.73664E-21         0.00000E+00
    0.13007E-21         0.67718E-21         0.00000E+00
    0.26335E-21         0.66210E-21         0.00000E+00
    0.38753E-21         0.63709E-21         0.00000E+00
    0.48071E-21         0.61724E-21         0.00000E+00
    0.45164E-21         0.45294E-21         0.00000E+00
    0.40809E-21         0.29992E-21         0.00000E+00
    0.38403E-21         0.26720E-21         0.00000E+00
    0.31929E-21         0.16221E-21         0.00000E+00
    0.26508E-21         0.25173E-21         0.00000E+00
    0.28010E-21         0.24844E-21         0.00000E+00
    0.34257E-21         0.27182E-21         0.00000E+00
    0.38799E-21         0.14695E-21         0.00000E+00
    0.42151E-21         0.14367E-21         0.00000E+00
    0.44590E-21         0.14295E-21         0.00000E+00
    0.44753E-21         0.94193E-22         0.00000E+00
    0.44161E-21         0.36220E-22         0.00000E+00
    0.86955E-22         0.59682E-21         0.00000E+00
    0.76513E-22         0.66204E-21         0.00000E+00
   -0.25641E-22         0.69263E-21         0.00000E+00
    0.28805E-22         0.66078E-21         0.00000E+00
    0.18860E-21         0.61118E-21         0.00000E+00
    0.32309E-21         0.68527E-21         0.00000E+00
    0.32485E-21         0.73060E-21         0.00000E+00
    0.34355E-21         0.74777E-21         0.00000E+00
    0.35347E-21         0.63652E-21         0.00000E+00
    0.32094E-21         0.60202E-21         0.00000E+00
    0.30313E-21         0.59080E-21         0.00000E+00
    0.29625E-21         0.57723E-21         0.00000E+00
    0.38040E-21         0.43788E-21         0.00000E+00
    0.39456E-21         0.34437E-21         0.00000E+00
    0.35824E-21         0.28312E-21         0.00000E+00
    0.34441E-21         0.22486E-21         0.00000E+00
    0.34322E-21         0.24447E-21         0.00000E+00
    0.34311E-21         0.24079E-21         0.00000E+00
    0.35614E-21         0.20396E-21         0.00000E+00
    0.38471E-21         0.14082E-21         0.00000E+00
    0.37415E-21         0.12683E-21         0.00000E+00
    0.38116E-21         0.12838E-21         0.00000E+00
    0.40233E-21         0.85962E-22         0.00000E+00
    0.42300E-21         0.29708E-22         0.00000E+00
    0.98563E-22         0.41130E-21         0.00000E+00
    0.20520E-21         0.75137E-21         0.00000E+00
    0.22594E-21         0.68472E-21         0.00000E+00
    0.23543E-21         0.60475E-21         0.00000E+00
    0.26203E-21         0.48081E-21         0.00000E+00
    0.32479E-21         0.61839E-21         0.00000E+00
    0.33333E-21         0.78719E-21         0.00000E+00
    0.30703E-21         0.69879E-21         0.00000E+00
    0.32629E-21         0.65631E-21         0.00000E+00
    0.34559E-21         0.59546E-21         0.00000E+00
    0.34411E-21         0.61665E-21         0.00000E+00
    0.34895E-21         0.55341E-21         0.00000E+00
    0.30309E-21         0.42341E-21         0.00000E+00
    0.30061E-21         0.34716E-21         0.00000E+00
    0.35497E-21         0.26229E-21         0.00000E+00
    0.37650E-21         0.23800E-21         0.00000E+00
    0.41083E-21         0.19819E-21         0.00000E+00
    0.45175E-21         0.24627E-21         0.00000E+00
    0.46171E-21         0.17549E-21         0.00000E+00
    0.43248E-21         0.16996E-21         0.00000E+00
    0.39941E-21         0.14132E-21         0.00000E+00
    0.38877E-21         0.11752E-21         0.00000E+00
    0.39708E-21         0.67346E-22         0.00000E+00
    0.40505E-21         0.19691E-22         0.00000E+00
   -0.73464E-22         0.38620E-21         0.00000E+00
   -0.14884E-22         0.61125E-21         0.00000E+00
    0.14363E-21         0.64557E-21         0.00000E+00
    0.21406E-21         0.56398E-21         0.00000E+00
    0.17878E-21         0.53027E-21         0.00000E+00
    0.82938E-22         0.60201E-21         0.00000E+00
    0.14863E-21         0.72933E-21         0.00000E+00
    0.26690E-21         0.66468E-21         0.00000E+00
    0.31717E-21         0.62089E-21         0.00000E+00
    0.34998E-21         0.57877E-21         0.00000E+00
    0.40571E-21         0.57908E-21         0.00000E+00
    0.44312E-21         0.54872E-21         0.00000E+00
    0.41763E-21         0.49945E-21         0.00000E+00
    0.39995E-21         0.29128E-21         0.00000E+00
    0.38973E-21         0.27401E-21         0.00000E+00
    0.38256E-21         0.21192E-21         0.00000E+00
    0.37529E-21         0.19719E-21         0.00000E+00
    0.38042E-21         0.20122E-21         0.00000E+00
    0.41086E-21         0.18013E-21         0.00000E+00
    0.40574E-21         0.19968E-21         0.00000E+00
    0.39766E-21         0.15277E-21         0.00000E+00
    0.40065E-21         0.11372E-21         0.00000E+00
    0.39652E-21         0.66959E-22         0.00000E+00
    0.39072E-21         0.17914E-22         0.00000E+00
   -0.20977E-22         0.48064E-21         0.00000E+00
   -0.35785E-22         0.47304E-21         0.00000E+00
    0.31319E-22         0.55816E-21         0.00000E+00
    0.75405E-22         0.53687E-21         0.00000E+00
    0.79786E-22         0.58827E-21         0.00000E+00
    0.12821E-21         0.59142E-21         0.00000E+00
    0.18958E-21         0.61287E-21         0.00000E+00
    0.25304E-21         0.59941E-21         0.00000E+00
    0.30677E-21         0.58216E-21         0.00000E+00
    0.35182E-21         0.53965E-21         0.00000E+00
    0.40218E-21         0.51211E-21         0.00000E+00
    0.46031E-21         0.52016E-21         0.00000E+00
    0.51089E-21         0.50292E-21         0.00000E+00
    0.46884E-21         0.34754E-21         0.00000E+00
    0.39739E-21         0.29942E-21         0.00000E+00
    0.40299E-21         0.18809E-21         0.00000E+00
    0.40945E-21         0.22182E-21         0.00000E+00
    0.37921E-21         0.20171E-21         0.00000E+00
    0.33901E-21         0.18939E-21         0.00000E+00
    0.35066E-21         0.18389E-21         0.00000E+00
    0.37053E-21         0.15677E-21         0.00000E+00
    0.37181E-21         0.10545E-21         0.00000E+00
    0.38508E-21         0.66081E-22         0.00000E+00
    0.38911E-21         0.20569E-22         0.00000E+00
    0.26153E-22         0.47547E-21         0.00000E+00
    0.84297E-22         0.43488E-21         0.00000E+00
    0.12282E-21         0.49070E-21         0.00000E+00
    0.11363E-21         0.56944E-21         0.00000E+00
    0.12718E-21         0.53777E-21         0.00000E+00
    0.17445E-21         0.54623E-21         0.00000E+00
    0.21877E-21         0.55236E-21         0.00000E+00
    0.25928E-21         0.55595E-21         0.00000E+00
    0.29409E-21         0.53707E-21         0.00000E+00
    0.32259E-21         0.51120E-21         0.00000E+00
    0.33520E-21         0.47759E-21         0.00000E+00
    0.33266E-21         0.49908E-21         0.00000E+00
    0.36240E-21         0.44368E-21         0.00000E+00
    0.38849E-21         0.42273E-21         0.00000E+00
    0.39443E-21         0.28974E-21         0.00000E+00
    0.38426E-21         0.20234E-21         0.00000E+00
    0.36865E-21         0.21672E-21         0.00000E+00
    0.35112E-21         0.25459E-21         0.00000E+00
    0.31746E-21         0.21036E-21         0.00000E+00
    0.32438E-21         0.14435E-21         0.00000E+00
    0.34431E-21         0.15651E-21         0.00000E+00
    0.35503E-21         0.93710E-22         0.00000E+00
    0.36571E-21         0.53867E-22         0.00000E+00
    0.37344E-21         0.21035E-22         0.00000E+00
    0.12629E-22         0.43668E-21         0.00000E+00
    0.53241E-22         0.37491E-21         0.00000E+00
    0.82059E-22         0.48333E-21         0.00000E+00
    0.16604E-21         0.50201E-21         0.00000E+00
    0.20885E-21         0.54883E-21         0.00000E+00
    0.17069E-21         0.52607E-21         0.00000E+00
    0.16308E-21         0.53581E-21         0.00000E+00
    0.17173E-21         0.52335E-21         0.00000E+00
    0.21842E-21         0.48818E-21         0.00000E+00
    0.26103E-21         0.48898E-21         0.00000E+00
    0.28238E-21         0.46585E-21         0.00000E+00
    0.29644E-21         0.49930E-21         0.00000E+00
    0.31841E-21         0.39176E-21         0.00000E+00
    0.38612E-21         0.38086E-21         0.00000E+00
    0.41855E-21         0.29323E-21         0.00000E+00
    0.35950E-21         0.26806E-21         0.00000E+00
    0.29371E-21         0.23240E-21         0.00000E+00
    0.27662E-21         0.27353E-21         0.00000E+00
    0.30952E-21         0.19220E-21         0.00000E+00
    0.32834E-21         0.13677E-21         0.00000E+00
    0.33647E-21         0.13602E-21         0.00000E+00
    0.35609E-21         0.83857E-22         0.00000E+00
    0.35951E-21         0.49621E-22         0.00000E+00
    0.35829E-21         0.18779E-22         0.00000E+00
   -0.21455E-22         0.44551E-21         0.00000E+00
   -0.52644E-22         0.35666E-21         0.00000E+00
    0.33626E-22         0.38649E-21         0.00000E+00
    0.10996E-21         0.43854E-21         0.00000E+00
    0.10293E-21         0.57652E-21         0.00000E+00
    0.84111E-22         0.55535E-21         0.00000E+00
    0.72656E-22         0.52559E-21         0.00000E+00
    0.12676E-21         0.47081E-21         0.00000E+00
    0.16241E-21         0.45837E-21         0.00000E+00
    0.19915E-21         0.43944E-21         0.00000E+00
    0.22772E-21         0.46547E-21         0.00000E+00
    0.27810E-21         0.43523E-21         0.00000E+00
    0.35490E-21         0.35707E-21         0.00000E+00
    0.38371E-21         0.31903E-21         0.00000E+00
    0.36535E-21         0.34100E-21         0.00000E+00
    0.33860E-21         0.30609E-21         0.00000E+00
    0.33210E-21         0.26665E-21         0.00000E+00
    0.33103E-21         0.25743E-21         0.00000E+00
    0.32107E-21         0.18537E-21         0.00000E+00
    0.30291E-21         0.14294E-21         0.00000E+00
    0.31177E-21         0.11285E-21         0.00000E+00
    0.33057E-21         0.68598E-22         0.00000E+00
    0.34758E-21         0.44453E-22         0.00000E+00
    0.35791E-21         0.14844E-22         0.00000E+00
    0.15517E-22         0.45145E-21         0.00000E+00
    0.35355E-22         0.36207E-21         0.00000E+00
    0.51698E-23         0.32499E-21         0.00000E+00
   -0.98060E-23         0.43868E-21         0.00000E+00
    0.46808E-22         0.52681E-21         0.00000E+00
    0.11766E-21         0.55303E-21         0.00000E+00
    0.17681E-21         0.48022E-21         0.00000E+00
    0.19930E-21         0.43959E-21         0.00000E+00
    0.19542E-21         0.45782E-21         0.00000E+00
    0.14917E-21         0.44951E-21         0.00000E+00
    0.17437E-21         0.40164E-21         0.00000E+00
    0.27863E-21         0.34441E-21         0.00000E+00
    0.32562E-21         0.32411E-21         0.00000E+00
    0.31539E-21         0.33341E-21         0.00000E+00
    0.31419E-21         0.34619E-21         0.00000E+00
    0.35592E-21         0.28592E-21         0.00000E+00
    0.35539E-21         0.29385E-21         0.00000E+00
    0.35360E-21         0.23309E-21         0.00000E+00
    0.37551E-21         0.19775E-21         0.00000E+00
    0.36484E-21         0.15939E-21         0.00000E+00
    0.35948E-21         0.92913E-22         0.00000E+00
    0.36141E-21         0.67798E-22         0.00000E+00
    0.35145E-21         0.38208E-22         0.00000E+00
    0.34977E-21         0.12444E-22         0.00000E+00
    0.53643E-22         0.38229E-21         0.00000E+00
    0.12056E-21         0.34447E-21         0.00000E+00
    0.96620E-22         0.39672E-21         0.00000E+00
    0.36295E-22         0.44225E-21         0.00000E+00
    0.53136E-22         0.44978E-21         0.00000E+00
    0.13133E-21         0.48102E-21         0.00000E+00
    0.18407E-21         0.44034E-21         0.00000E+00
    0.21080E-21         0.43026E-21         0.00000E+00
    0.20966E-21         0.47217E-21         0.00000E+00
    0.22338E-21         0.46768E-21         0.00000E+00
    0.24870E-21         0.33295E-21         0.00000E+00
    0.21423E-21         0.34330E-21         0.00000E+00
    0.20048E-21         0.29198E-21         0.00000E+00
    0.24078E-21         0.33548E-21         0.00000E+00
    0.27658E-21         0.30953E-21         0.00000E+00
    0.29592E-21         0.26151E-21         0.00000E+00
    0.31562E-21         0.29909E-21         0.00000E+00
    0.33476E-21         0.21051E-21         0.00000E+00
    0.36774E-21         0.16544E-21         0.00000E+00
    0.40814E-21         0.16196E-21         0.00000E+00
    0.38728E-21         0.11656E-21         0.00000E+00
    0.35551E-21         0.73990E-22         0.00000E+00
    0.34989E-21         0.47598E-22         0.00000E+00
    0.34013E-21         0.14494E-22         0.00000E+00
    0.34326E-22         0.29432E-21         0.00000E+00
    0.53536E-22         0.34631E-21         0.00000E+00
    0.64753E-22         0.40761E-21         0.00000E+00
    0.10784E-21         0.44860E-21         0.00000E+00
    0.11083E-21         0.42360E-21         0.00000E+00
    0.11160E-21         0.42824E-21         0.00000E+00
    0.13072E-21         0.42125E-21         0.00000E+00
    0.13529E-21         0.41804E-21         0.00000E+00
    0.16174E-21         0.45908E-21         0.00000E+00
    0.20898E-21         0.41981E-21         0.00000E+00
    0.16179E-21         0.40270E-21         0.00000E+00
    0.10683E-21         0.36298E-21         0.00000E+00
    0.11432E-21         0.27855E-21         0.00000E+00
    0.14047E-21         0.28245E-21         0.00000E+00
    0.19655E-21         0.27067E-21         0.00000E+00
    0.21576E-21         0.26183E-21         0.00000E+00
    0.24344E-21         0.25140E-21         0.00000E+00
    0.26544E-21         0.21705E-21         0.00000E+00
    0.26456E-21         0.12680E-21         0.00000E+00
    0.28997E-21         0.13480E-21         0.00000E+00
    0.31128E-21         0.14328E-21         0.00000E+00
    0.31311E-21         0.77221E-22         0.00000E+00
    0.31310E-21         0.49997E-22         0.00000E+00
    0.31801E-21         0.16943E-22         0.00000E+00
    0.65090E-23         0.25349E-21         0.00000E+00
    0.99364E-23         0.36451E-21         0.00000E+00
    0.83697E-23         0.37976E-21         0.00000E+00
    0.43022E-22         0.39871E-21         0.00000E+00
    0.88053E-22         0.42547E-21         0.00000E+00
    0.10657E-21         0.40707E-21         0.00000E+00
    0.10758E-21         0.42229E-21         0.00000E+00
    0.95219E-22         0.42480E-21         0.00000E+00
    0.13578E-21         0.38532E-21         0.00000E+00
    0.14602E-21         0.43608E-21         0.00000E+00
    0.13225E-21         0.44739E-21         0.00000E+00
    0.16690E-21         0.33861E-21         0.00000E+00
    0.17267E-21         0.28965E-21         0.00000E+00
    0.18580E-21         0.23207E-21         0.00000E+00
    0.20519E-21         0.24558E-21         0.00000E+00
    0.21315E-21         0.25975E-21         0.00000E+00
    0.23203E-21         0.20693E-21         0.00000E+00
    0.24235E-21         0.22920E-21         0.00000E+00
    0.22532E-21         0.13256E-21         0.00000E+00
    0.21345E-21         0.11550E-21         0.00000E+00
    0.24181E-21         0.11291E-21         0.00000E+00
    0.27013E-21         0.77441E-22         0.00000E+00
    0.27804E-21         0.41873E-22         0.00000E+00
    0.28271E-21         0.15484E-22         0.00000E+00
   -0.21043E-22         0.26802E-21         0.00000E+00
   -0.10921E-22         0.33643E-21         0.00000E+00
    0.60887E-22         0.33760E-21         0.00000E+00
    0.79209E-22         0.38789E-21         0.00000E+00
    0.68946E-22         0.40152E-21         0.00000E+00
    0.87149E-22         0.39431E-21         0.00000E+00
    0.11357E-21         0.40763E-21         0.00000E+00
    0.15915E-21         0.40623E-21         0.00000E+00
    0.15610E-21         0.36637E-21         0.00000E+00
    0.15984E-21         0.44104E-21         0.00000E+00
    0.18669E-21         0.42934E-21         0.00000E+00
    0.14806E-21         0.36065E-21         0.00000E+00
    0.15529E-21         0.25461E-21         0.00000E+00
    0.18894E-21         0.22033E-21         0.00000E+00
    0.18915E-21         0.23773E-21         0.00000E+00
    0.21553E-21         0.23326E-21         0.00000E+00
    0.22437E-21         0.20569E-21         0.00000E+00
    0.23522E-21         0.20926E-21         0.00000E+00
    0.24506E-21         0.15968E-21         0.00000E+00
    0.22196E-21         0.12336E-21         0.00000E+00
    0.21629E-21         0.82372E-22         0.00000E+00
    0.23487E-21         0.61076E-22         0.00000E+00
    0.25154E-21         0.33651E-22         0.00000E+00
    0.25785E-21         0.12725E-22         0.00000E+00
    0.21683E-23         0.28689E-21         0.00000E+00
    0.16631E-22         0.29297E-21         0.00000E+00
    0.46190E-22         0.27969E-21         0.00000E+00
    0.68920E-22         0.40475E-21         0.00000E+00
    0.64146E-22         0.39970E-21         0.00000E+00
    0.74502E-22         0.36757E-21         0.00000E+00
    0.12167E-21         0.36078E-21         0.00000E+00
    0.14460E-21         0.38456E-21         0.00000E+00
    0.12383E-21         0.41186E-21         0.00000E+00
    0.12518E-21         0.39048E-21         0.00000E+00
    0.17253E-21         0.40569E-21         0.00000E+00
    0.20813E-21         0.38733E-21         0.00000E+00
    0.19538E-21         0.23344E-21         0.00000E+00
    0.15723E-21         0.24599E-21         0.00000E+00
    0.14533E-21         0.22376E-21         0.00000E+00
    0.15414E-21         0.21204E-21         0.00000E+00
    0.18574E-21         0.18648E-21         0.00000E+00
    0.20695E-21         0.19641E-21         0.00000E+00
    0.19925E-21         0.17039E-21         0.00000E+00
    0.20719E-21         0.12781E-21         0.00000E+00
    0.22093E-21         0.69855E-22         0.00000E+00
    0.23437E-21         0.41571E-22         0.00000E+00
    0.24163E-21         0.29219E-22         0.00000E+00
    0.24456E-21         0.79174E-23         0.00000E+00
    0.23464E-23         0.28238E-21         0.00000E+00
    0.35221E-23         0.28184E-21         0.00000E+00
   -0.20188E-22         0.28496E-21         0.00000E+00
    0.12531E-22         0.34402E-21         0.00000E+00
    0.10422E-21         0.37351E-21         0.00000E+00
    0.13696E-21         0.35065E-21         0.00000E+00
    0.11084E-21         0.35665E-21         0.00000E+00
    0.78769E-22         0.39784E-21         0.00000E+00
    0.10106E-21         0.39706E-21         0.00000E+00
    0.13449E-21         0.37049E-21         0.00000E+00
    0.14972E-21         0.36309E-21         0.00000E+00
    0.19534E-21         0.34872E-21         0.00000E+00
    0.20598E-21         0.27416E-21         0.00000E+00
    0.17405E-21         0.27536E-21         0.00000E+00
    0.17413E-21         0.20622E-21         0.00000E+00
    0.19033E-21         0.20457E-21         0.00000E+00
    0.20064E-21         0.15204E-21         0.00000E+00
    0.20857E-21         0.20171E-21         0.00000E+00
    0.21808E-21         0.16328E-21         0.00000E+00
    0.22221E-21         0.12286E-21         0.00000E+00
    0.22408E-21         0.59191E-22         0.00000E+00
    0.22580E-21         0.37076E-22         0.00000E+00
    0.22602E-21         0.26227E-22         0.00000E+00
    0.22819E-21         0.58118E-23         0.00000E+00
   -0.38104E-23         0.28384E-21         0.00000E+00
    0.22510E-23         0.27314E-21         0.00000E+00
    0.22400E-22         0.29723E-21         0.00000E+00
    0.50168E-22         0.27127E-21         0.00000E+00
    0.10695E-21         0.29779E-21         0.00000E+00
    0.12950E-21         0.37108E-21         0.00000E+00
    0.11346E-21         0.37838E-21         0.00000E+00
    0.13077E-21         0.39087E-21         0.00000E+00
    0.13996E-21         0.37255E-21         0.00000E+00
    0.14306E-21         0.35848E-21         0.00000E+00
    0.14572E-21         0.35721E-21         0.00000E+00
    0.14633E-21         0.30837E-21         0.00000E+00
    0.16054E-21         0.28967E-21         0.00000E+00
    0.18989E-21         0.26242E-21         0.00000E+00
    0.22295E-21         0.18601E-21         0.00000E+00
    0.22647E-21         0.20505E-21         0.00000E+00
    0.19407E-21         0.17365E-21         0.00000E+00
    0.18228E-21         0.18397E-21         0.00000E+00
    0.19757E-21         0.15621E-21         0.00000E+00
    0.20223E-21         0.12114E-21         0.00000E+00
    0.21297E-21         0.48300E-22         0.00000E+00
    0.21691E-21         0.42305E-22         0.00000E+00
    0.21013E-21         0.27559E-22         0.00000E+00
    0.20389E-21         0.85460E-23         0.00000E+00
   -0.10258E-23         0.28868E-21         0.00000E+00
    0.51371E-24         0.26071E-21         0.00000E+00
    0.10639E-22         0.27939E-21         0.00000E+00
    0.18348E-22         0.25363E-21         0.00000E+00
   -0.78182E-23         0.28481E-21         0.00000E+00
   -0.37675E-23         0.35747E-21         0.00000E+00
    0.53505E-22         0.35075E-21         0.00000E+00
    0.10199E-21         0.35269E-21         0.00000E+00
    0.11753E-21         0.38601E-21         0.00000E+00
    0.11424E-21         0.34522E-21         0.00000E+00
    0.14450E-21         0.33754E-21         0.00000E+00
    0.17411E-21         0.29781E-21         0.00000E+00
    0.17894E-21         0.28119E-21         0.00000E+00
    0.18623E-21         0.23425E-21         0.00000E+00
    0.16889E-21         0.19846E-21         0.00000E+00
    0.14260E-21         0.21538E-21         0.00000E+00
    0.14375E-21         0.19458E-21         0.00000E+00
    0.16658E-21         0.15199E-21         0.00000E+00
    0.19150E-21         0.14798E-21         0.00000E+00
    0.21057E-21         0.10564E-21         0.00000E+00
    0.21454E-21         0.49093E-22         0.00000E+00
    0.19888E-21         0.53226E-22         0.00000E+00
    0.18700E-21         0.35303E-22         0.00000E+00
    0.18169E-21         0.12346E-22         0.00000E+00
   -0.15843E-23         0.29129E-21         0.00000E+00
   -0.80152E-23         0.26299E-21         0.00000E+00
   -0.41603E-23         0.26313E-21         0.00000E+00
   -0.67144E-23         0.26474E-21         0.00000E+00
   -0.10077E-22         0.30323E-21         0.00000E+00
   -0.49754E-23         0.32990E-21         0.00000E+00
   -0.17951E-22         0.33403E-21         0.00000E+00
   -0.33181E-22         0.33616E-21         0.00000E+00
   -0.86446E-23         0.36247E-21         0.00000E+00
    0.66649E-22         0.29676E-21         0.00000E+00
    0.11366E-21         0.30873E-21         0.00000E+00
    0.11618E-21         0.29450E-21         0.00000E+00
    0.12259E-21         0.27326E-21         0.00000E+00
    0.10388E-21         0.25360E-21         0.00000E+00
    0.79029E-22         0.22130E-21         0.00000E+00
    0.90033E-22         0.20783E-21         0.00000E+00
    0.12463E-21         0.16639E-21         0.00000E+00
    0.16094E-21         0.12103E-21         0.00000E+00
    0.17773E-21         0.13723E-21         0.00000E+00
    0.18069E-21         0.94364E-22         0.00000E+00
    0.17259E-21         0.64497E-22         0.00000E+00
    0.16310E-21         0.62965E-22         0.00000E+00
    0.16251E-21         0.38045E-22         0.00000E+00
    0.16599E-21         0.11428E-22         0.00000E+00
    0.17074E-22         0.27580E-21         0.00000E+00
    0.27819E-22         0.27416E-21         0.00000E+00
   -0.18340E-23         0.27775E-21         0.00000E+00
   -0.21359E-22         0.27220E-21         0.00000E+00
   -0.77524E-23         0.28553E-21         0.00000E+00
   -0.68518E-23         0.34160E-21         0.00000E+00
   -0.17238E-22         0.34569E-21         0.00000E+00
    0.21827E-22         0.30066E-21         0.00000E+00
    0.81638E-22         0.31362E-21         0.00000E+00
    0.84781E-22         0.26717E-21         0.00000E+00
    0.66523E-22         0.30956E-21         0.00000E+00
    0.66934E-22         0.29074E-21         0.00000E+00
    0.64760E-22         0.27277E-21         0.00000E+00
    0.77997E-22         0.25957E-21         0.00000E+00
    0.98914E-22         0.21927E-21         0.00000E+00
    0.12162E-21         0.17615E-21         0.00000E+00
    0.14653E-21         0.13856E-21         0.00000E+00
    0.13446E-21         0.12462E-21         0.00000E+00
    0.12704E-21         0.12427E-21         0.00000E+00
    0.13725E-21         0.94162E-22         0.00000E+00
    0.13974E-21         0.70304E-22         0.00000E+00
    0.14885E-21         0.57531E-22         0.00000E+00
    0.15843E-21         0.34502E-22         0.00000E+00
    0.16090E-21         0.90150E-23         0.00000E+00
   -0.71784E-23         0.26590E-21         0.00000E+00
    0.17996E-23         0.26434E-21         0.00000E+00
    0.62884E-23         0.31274E-21         0.00000E+00
    0.32932E-23         0.25972E-21         0.00000E+00
   -0.73969E-23         0.29509E-21         0.00000E+00
   -0.13783E-22         0.33753E-21         0.00000E+00
    0.29318E-22         0.31705E-21         0.00000E+00
    0.73435E-22         0.24612E-21         0.00000E+00
    0.88563E-22         0.29322E-21         0.00000E+00
    0.84461E-22         0.28853E-21         0.00000E+00
    0.96099E-22         0.29482E-21         0.00000E+00
    0.11473E-21         0.28644E-21         0.00000E+00
    0.10982E-21         0.28416E-21         0.00000E+00
    0.10433E-21         0.24043E-21         0.00000E+00
    0.10353E-21         0.21829E-21         0.00000E+00
    0.11326E-21         0.14469E-21         0.00000E+00
    0.12221E-21         0.13616E-21         0.00000E+00
    0.12233E-21         0.13897E-21         0.00000E+00
    0.12871E-21         0.11095E-21         0.00000E+00
    0.13376E-21         0.92235E-22         0.00000E+00
    0.13365E-21         0.69838E-22         0.00000E+00
    0.13411E-21         0.48434E-22         0.00000E+00
    0.13875E-21         0.29377E-22         0.00000E+00
    0.14067E-21         0.97470E-23         0.00000E+00
   -0.83710E-23         0.28145E-21         0.00000E+00
   -0.79588E-23         0.23940E-21         0.00000E+00
    0.23267E-22         0.30197E-21         0.00000E+00
    0.21455E-22         0.27531E-21         0.00000E+00
    0.30601E-23         0.30859E-21         0.00000E+00
    0.25868E-22         0.30760E-21         0.00000E+00
    0.63282E-22         0.26646E-21         0.00000E+00
    0.72816E-22         0.24306E-21         0.00000E+00
    0.58117E-22         0.29585E-21         0.00000E+00
    0.74862E-22         0.27325E-21         0.00000E+00
    0.92507E-22         0.28082E-21         0.00000E+00
    0.97387E-22         0.27693E-21         0.00000E+00
    0.11461E-21         0.28135E-21         0.00000E+00
    0.11560E-21         0.24774E-21         0.00000E+00
    0.11269E-21         0.21469E-21         0.00000E+00
    0.11028E-21         0.14097E-21         0.00000E+00
    0.95408E-22         0.14579E-21         0.00000E+00
    0.95114E-22         0.12952E-21         0.00000E+00
    0.10434E-21         0.10480E-21         0.00000E+00
    0.10929E-21         0.88393E-22         0.00000E+00
    0.11792E-21         0.65151E-22         0.00000E+00
    0.12462E-21         0.45970E-22         0.00000E+00
    0.12265E-21         0.29167E-22         0.00000E+00
    0.12126E-21         0.94257E-23         0.00000E+00
    0.27548E-22         0.26228E-21         0.00000E+00
    0.32485E-22         0.25322E-21         0.00000E+00
    0.10656E-22         0.27875E-21         0.00000E+00
    0.13255E-22         0.29774E-21         0.00000E+00
    0.27958E-22         0.28985E-21         0.00000E+00
    0.52233E-22         0.27926E-21         0.00000E+00
    0.56253E-22         0.25337E-21         0.00000E+00
    0.39262E-22         0.26361E-21         0.00000E+00
    0.47575E-22         0.28169E-21         0.00000E+00
    0.53059E-22         0.26519E-21         0.00000E+00
    0.45667E-22         0.27863E-21         0.00000E+00
    0.58844E-22         0.26107E-21         0.00000E+00
    0.83976E-22         0.25486E-21         0.00000E+00
    0.10957E-21         0.24765E-21         0.00000E+00
    0.12159E-21         0.20566E-21         0.00000E+00
    0.11099E-21         0.16302E-21         0.00000E+00
    0.98443E-22         0.15116E-21         0.00000E+00
    0.97043E-22         0.12585E-21         0.00000E+00
    0.94594E-22         0.10169E-21         0.00000E+00
    0.95894E-22         0.85248E-22         0.00000E+00
    0.10066E-21         0.54895E-22         0.00000E+00
    0.10519E-21         0.44998E-22         0.00000E+00
    0.10665E-21         0.30653E-22         0.00000E+00
    0.10831E-21         0.76737E-23         0.00000E+00
   -0.77866E-23         0.24252E-21         0.00000E+00
   -0.20600E-22         0.28086E-21         0.00000E+00
   -0.18568E-22         0.27091E-21         0.00000E+00
    0.48541E-24         0.28393E-21         0.00000E+00
    0.13651E-22         0.27579E-21         0.00000E+00
    0.19744E-22         0.26295E-21         0.00000E+00
    0.32866E-22         0.25254E-21         0.00000E+00
    0.46433E-22         0.26786E-21         0.00000E+00
    0.53670E-22         0.26189E-21         0.00000E+00
    0.54934E-22         0.27824E-21         0.00000E+00
    0.57746E-22         0.27015E-21         0.00000E+00
    0.58773E-22         0.25534E-21         0.00000E+00
    0.60604E-22         0.23363E-21         0.00000E+00
    0.76865E-22         0.22703E-21         0.00000E+00
    0.91106E-22         0.20002E-21         0.00000E+00
    0.96073E-22         0.17431E-21         0.00000E+00
    0.99858E-22         0.14863E-21         0.00000E+00
    0.10028E-21         0.12935E-21         0.00000E+00
    0.97889E-22         0.10302E-21         0.00000E+00
    0.96268E-22         0.84232E-22         0.00000E+00
    0.94303E-22         0.53106E-22         0.00000E+00
    0.91978E-22         0.44583E-22         0.00000E+00
    0.93188E-22         0.28398E-22         0.00000E+00
    0.93382E-22         0.80792E-23         0.00000E+00
   -0.28550E-22         0.27885E-21         0.00000E+00
   -0.36649E-22         0.26544E-21         0.00000E+00
   -0.40608E-23         0.25171E-21         0.00000E+00
    0.12515E-22         0.26749E-21         0.00000E+00
    0.26598E-22         0.26498E-21         0.00000E+00
    0.41670E-22         0.25260E-21         0.00000E+00
    0.37543E-22         0.25389E-21         0.00000E+00
    0.28098E-22         0.26239E-21         0.00000E+00
    0.31458E-22         0.25676E-21         0.00000E+00
    0.42755E-22         0.27080E-21         0.00000E+00
    0.55903E-22         0.26163E-21         0.00000E+00
    0.66827E-22         0.25191E-21         0.00000E+00
    0.72728E-22         0.22932E-21         0.00000E+00
    0.78280E-22         0.20952E-21         0.00000E+00
    0.86502E-22         0.19507E-21         0.00000E+00
    0.82362E-22         0.17843E-21         0.00000E+00
    0.67689E-22         0.15539E-21         0.00000E+00
    0.64790E-22         0.12507E-21         0.00000E+00
    0.72660E-22         0.10184E-21         0.00000E+00
    0.79664E-22         0.80037E-22         0.00000E+00
    0.82234E-22         0.56696E-22         0.00000E+00
    0.79485E-22         0.46067E-22         0.00000E+00
    0.77921E-22         0.27268E-22         0.00000E+00
    0.78167E-22         0.87691E-23         0.00000E+00
    0.53050E-23         0.30210E-21         0.00000E+00
    0.20500E-22         0.23510E-21         0.00000E+00
    0.23413E-22         0.24655E-21         0.00000E+00
    0.23699E-22         0.25579E-21         0.00000E+00
    0.42927E-22         0.24337E-21         0.00000E+00
    0.55661E-22         0.24641E-21         0.00000E+00
    0.49752E-22         0.27012E-21         0.00000E+00
    0.39059E-22         0.26629E-21         0.00000E+00
    0.31447E-22         0.25711E-21         0.00000E+00
    0.32219E-22         0.25839E-21         0.00000E+00
    0.39914E-22         0.25320E-21         0.00000E+00
    0.43684E-22         0.24565E-21         0.00000E+00
    0.46787E-22         0.22658E-21         0.00000E+00
    0.51506E-22         0.20199E-21         0.00000E+00
    0.57573E-22         0.18831E-21         0.00000E+00
    0.61159E-22         0.18575E-21         0.00000E+00
    0.61093E-22         0.16281E-21         0.00000E+00
    0.62697E-22         0.11894E-21         0.00000E+00
    0.64893E-22         0.97900E-22         0.00000E+00
    0.64921E-22         0.76941E-22         0.00000E+00
    0.63331E-22         0.58812E-22         0.00000E+00
    0.63937E-22         0.46094E-22         0.00000E+00
    0.64677E-22         0.28065E-22         0.00000E+00
    0.64883E-22         0.75187E-23         0.00000E+00
    0.65690E-23         0.29022E-21         0.00000E+00
    0.51637E-23         0.23318E-21         0.00000E+00
   -0.34738E-23         0.25419E-21         0.00000E+00
    0.15153E-24         0.24424E-21         0.00000E+00
    0.76552E-23         0.22819E-21         0.00000E+00
    0.19648E-22         0.23686E-21         0.00000E+00
    0.35614E-22         0.26961E-21         0.00000E+00
    0.42429E-22         0.27068E-21         0.00000E+00
    0.39033E-22         0.26373E-21         0.00000E+00
    0.29360E-22         0.26067E-21         0.00000E+00
    0.24996E-22         0.24759E-21         0.00000E+00
    0.24363E-22         0.24812E-21         0.00000E+00
    0.23455E-22         0.22191E-21         0.00000E+00
    0.26364E-22         0.19903E-21         0.00000E+00
    0.28455E-22         0.18310E-21         0.00000E+00
    0.33336E-22         0.18248E-21         0.00000E+00
    0.47388E-22         0.15209E-21         0.00000E+00
    0.54523E-22         0.12092E-21         0.00000E+00
    0.48161E-22         0.10008E-21         0.00000E+00
    0.43808E-22         0.79082E-22         0.00000E+00
    0.44715E-22         0.57353E-22         0.00000E+00
    0.46390E-22         0.45273E-22         0.00000E+00
    0.46636E-22         0.27900E-22         0.00000E+00
    0.46234E-22         0.78798E-23         0.00000E+00
    0.25800E-23         0.28107E-21         0.00000E+00
   -0.28617E-23         0.24918E-21         0.00000E+00
   -0.11618E-22         0.25559E-21         0.00000E+00
   -0.13100E-22         0.24070E-21         0.00000E+00
   -0.46408E-23         0.21576E-21         0.00000E+00
    0.11825E-22         0.22082E-21         0.00000E+00
    0.22882E-22         0.25862E-21         0.00000E+00
    0.25011E-22         0.27273E-21         0.00000E+00
    0.21142E-22         0.26895E-21         0.00000E+00
    0.21442E-22         0.26483E-21         0.00000E+00
    0.19322E-22         0.24992E-21         0.00000E+00
    0.19526E-22         0.24622E-21         0.00000E+00
    0.24346E-22         0.21990E-21         0.00000E+00
    0.21116E-22         0.20136E-21         0.00000E+00
    0.16101E-22         0.18370E-21         0.00000E+00
    0.20853E-22         0.17225E-21         0.00000E+00
    0.28749E-22         0.14037E-21         0.00000E+00
    0.32030E-22         0.12222E-21         0.00000E+00
    0.34601E-22         0.10257E-21         0.00000E+00
    0.36055E-22         0.79493E-22         0.00000E+00
    0.34144E-22         0.57945E-22         0.00000E+00
    0.30299E-22         0.46852E-22         0.00000E+00
    0.28426E-22         0.27947E-22         0.00000E+00
    0.27829E-22         0.88319E-23         0.00000E+00
   -0.15252E-23         0.28002E-21         0.00000E+00
    0.36975E-24         0.25378E-21         0.00000E+00
   -0.48295E-25         0.26016E-21         0.00000E+00
   -0.87439E-23         0.24631E-21         0.00000E+00
   -0.48219E-23         0.19777E-21         0.00000E+00
    0.39409E-23         0.21358E-21         0.00000E+00
    0.19494E-23         0.25680E-21         0.00000E+00
    0.45258E-23         0.26985E-21         0.00000E+00
    0.76032E-23         0.27262E-21         0.00000E+00
    0.82449E-23         0.26021E-21         0.00000E+00
    0.97108E-23         0.25519E-21         0.00000E+00
    0.85759E-23         0.24188E-21         0.00000E+00
    0.83771E-23         0.21962E-21         0.00000E+00
    0.93680E-23         0.20388E-21         0.00000E+00
    0.93652E-23         0.18620E-21         0.00000E+00
    0.12010E-22         0.16236E-21         0.00000E+00
    0.13282E-22         0.14110E-21         0.00000E+00
    0.94548E-23         0.12204E-21         0.00000E+00
    0.94944E-23         0.10015E-21         0.00000E+00
    0.11567E-22         0.78395E-22         0.00000E+00
    0.11863E-22         0.60656E-22         0.00000E+00
    0.10419E-22         0.49429E-22         0.00000E+00
    0.92586E-23         0.28404E-22         0.00000E+00
    0.99067E-23         0.83240E-23         0.00000E+00
POINT_DATA       1225
VECTORS vDarcyNodal double 
    0.14398E-20        -0.36129E-21         0.00000E+00
    0.14332E-20        -0.61913E-21         0.00000E+00
    0.40060E-21        -0.40358E-21         0.00000E+00
    0.37338E-21         0.40745E-21         0.00000E+00
    0.10397E-20         0.53147E-21         0.00000E+00
    0.40128E-21         0.50232E-21         0.00000E+00
    0.34793E-21         0.59768E-21         0.00000E+00
    0.77114E-21         0.54698E-21         0.00000E+00
    0.57179E-21         0.42893E-21         0.00000E+00
    0.83859E-22         0.82323E-22         0.00000E+00
    0.12385E-21         0.92866E-23         0.00000E+00
    0.17523E-21         0.82650E-23         0.00000E+00
    0.48293E-22         0.12540E-21         0.00000E+00
    0.13869E-21         0.24713E-21         0.00000E+00
    0.19179E-21         0.23403E-22         0.00000E+00
    0.85576E-22        -0.81780E-22         0.00000E+00
    0.26334E-22        -0.92023E-22         0.00000E+00
    0.85713E-22        -0.50328E-22         0.00000E+00
    0.19732E-22         0.18048E-21         0.00000E+00
    0.61183E-22         0.25375E-21         0.00000E+00
    0.65272E-22         0.75325E-22         0.00000E+00
    0.50044E-22         0.26538E-23         0.00000E+00
    0.22472E-22         0.66618E-23         0.00000E+00
    0.13575E-22        -0.77069E-25         0.00000E+00
    0.19372E-22        -0.56783E-23         0.00000E+00
    0.17512E-20        -0.35471E-21         0.00000E+00
    0.20233E-20        -0.99525E-22         0.00000E+00
    0.13141E-20         0.12635E-21         0.00000E+00
    0.79217E-21         0.87920E-22         0.00000E+00
    0.81701E-21         0.51752E-21         0.00000E+00
    0.48499E-21         0.84819E-21         0.00000E+00
    0.65116E-21         0.41275E-21         0.00000E+00
    0.70624E-21         0.43505E-21         0.00000E+00
    0.39561E-21         0.77257E-21         0.00000E+00
    0.14644E-21         0.30629E-21         0.00000E+00
    0.10609E-21        -0.36399E-22         0.00000E+00
    0.20991E-21         0.46045E-22         0.00000E+00
    0.15348E-21         0.14367E-21         0.00000E+00
    0.23670E-21         0.17538E-21         0.00000E+00
    0.28963E-21         0.49960E-22         0.00000E+00
    0.16259E-21         0.95040E-24         0.00000E+00
    0.14312E-21        -0.92091E-22         0.00000E+00
    0.78583E-22        -0.47026E-22         0.00000E+00
    0.14079E-22         0.19274E-21         0.00000E+00
    0.89732E-22         0.23098E-21         0.00000E+00
    0.98233E-22         0.80895E-22         0.00000E+00
    0.67516E-22         0.24054E-22         0.00000E+00
    0.55990E-22         0.24896E-22         0.00000E+00
    0.41430E-22         0.14726E-23         0.00000E+00
    0.27577E-22        -0.11476E-22         0.00000E+00
    0.65267E-20        -0.90551E-21         0.00000E+00
    0.28480E-20        -0.18201E-21         0.00000E+00
    0.22771E-20         0.82757E-21         0.00000E+00
    0.15243E-20         0.90453E-21         0.00000E+00
    0.92465E-21         0.83865E-21         0.00000E+00
    0.10702E-20         0.66817E-21         0.00000E+00
    0.10599E-20         0.37643E-21         0.00000E+00
    0.70057E-21         0.80253E-21         0.00000E+00
    0.68938E-21         0.98873E-21         0.00000E+00
    0.58046E-21         0.37184E-21         0.00000E+00
    0.26469E-21        -0.54178E-22         0.00000E+00
    0.35261E-21        -0.39122E-22         0.00000E+00
    0.31149E-21         0.98607E-22         0.00000E+00
    0.32463E-21         0.11098E-21         0.00000E+00
    0.23896E-21         0.97511E-22         0.00000E+00
    0.25210E-21         0.64728E-22         0.00000E+00
    0.26439E-21        -0.80183E-23         0.00000E+00
    0.99526E-22         0.78719E-22         0.00000E+00
    0.18426E-22         0.16933E-21         0.00000E+00
    0.12228E-21         0.16959E-21         0.00000E+00
    0.14149E-21         0.97542E-22         0.00000E+00
    0.11028E-21         0.44898E-22         0.00000E+00
    0.92224E-22         0.32747E-22         0.00000E+00
    0.72936E-22         0.28336E-22         0.00000E+00
    0.55595E-22         0.22029E-22         0.00000E+00
    0.54954E-20         0.70027E-20         0.00000E+00
    0.31436E-20         0.41501E-20         0.00000E+00
    0.18928E-20         0.14500E-20         0.00000E+00
    0.16088E-20         0.14403E-20         0.00000E+00
    0.14517E-20         0.97165E-21         0.00000E+00
    0.14485E-20         0.71295E-21         0.00000E+00
    0.10412E-20         0.78235E-21         0.00000E+00
    0.96045E-21         0.80555E-21         0.00000E+00
    0.10974E-20         0.89268E-21         0.00000E+00
    0.89983E-21         0.73098E-21         0.00000E+00
    0.59802E-21         0.19145E-21         0.00000E+00
    0.46483E-21        -0.75091E-24         0.00000E+00
    0.35011E-21         0.17165E-21         0.00000E+00
    0.33953E-21         0.24791E-21         0.00000E+00
    0.25211E-21         0.12249E-21         0.00000E+00
    0.37556E-21        -0.24483E-22         0.00000E+00
    0.31214E-21         0.60483E-22         0.00000E+00
    0.20153E-21         0.19894E-21         0.00000E+00
    0.12841E-21         0.16999E-21         0.00000E+00
    0.12511E-21         0.10791E-21         0.00000E+00
    0.15237E-21         0.92888E-22         0.00000E+00
    0.13398E-21         0.73322E-22         0.00000E+00
    0.98083E-22         0.62243E-22         0.00000E+00
    0.88218E-22         0.38102E-22         0.00000E+00
    0.91655E-22         0.23206E-22         0.00000E+00
    0.00000E+00         0.37980E-20         0.00000E+00
    0.20302E-20         0.34206E-20         0.00000E+00
    0.14532E-20         0.23624E-20         0.00000E+00
    0.14078E-20         0.13457E-20         0.00000E+00
    0.15088E-20         0.99897E-21         0.00000E+00
    0.12354E-20         0.10786E-20         0.00000E+00
    0.10361E-20         0.86448E-21         0.00000E+00
    0.94406E-21         0.74628E-21         0.00000E+00
    0.86101E-21         0.10494E-20         0.00000E+00
    0.85867E-21         0.87126E-21         0.00000E+00
    0.72732E-21         0.38082E-21         0.00000E+00
    0.57273E-21         0.20878E-21         0.00000E+00
    0.44176E-21         0.22391E-21         0.00000E+00
    0.38249E-21         0.20898E-21         0.00000E+00
    0.42044E-21         0.61476E-22         0.00000E+00
    0.38222E-21         0.47045E-23         0.00000E+00
    0.31095E-21         0.16601E-21         0.00000E+00
    0.23081E-21         0.26244E-21         0.00000E+00
    0.22395E-21         0.24576E-21         0.00000E+00
    0.16655E-21         0.14564E-21         0.00000E+00
    0.15028E-21         0.88672E-22         0.00000E+00
    0.15424E-21         0.99183E-22         0.00000E+00
    0.12643E-21         0.78505E-22         0.00000E+00
    0.11869E-21         0.34764E-22         0.00000E+00
    0.12378E-21         0.15154E-22         0.00000E+00
    0.00000E+00         0.29423E-20         0.00000E+00
    0.77480E-21         0.26969E-20         0.00000E+00
    0.12588E-20         0.20725E-20         0.00000E+00
    0.11711E-20         0.13848E-20         0.00000E+00
    0.94480E-21         0.11440E-20         0.00000E+00
    0.85243E-21         0.11856E-20         0.00000E+00
    0.10475E-20         0.10737E-20         0.00000E+00
    0.63813E-21         0.98062E-21         0.00000E+00
    0.61941E-21         0.97807E-21         0.00000E+00
    0.91455E-21         0.86467E-21         0.00000E+00
    0.86620E-21         0.47740E-21         0.00000E+00
    0.71652E-21         0.28481E-21         0.00000E+00
    0.59307E-21         0.36188E-21         0.00000E+00
    0.43944E-21         0.26923E-21         0.00000E+00
    0.42466E-21         0.12276E-21         0.00000E+00
    0.31492E-21         0.85012E-22         0.00000E+00
    0.28643E-21         0.21190E-21         0.00000E+00
    0.22504E-21         0.28594E-21         0.00000E+00
    0.20788E-21         0.23425E-21         0.00000E+00
    0.21665E-21         0.18158E-21         0.00000E+00
    0.18296E-21         0.10520E-21         0.00000E+00
    0.16181E-21         0.97168E-22         0.00000E+00
    0.17305E-21         0.97789E-22         0.00000E+00
    0.15530E-21         0.40754E-22         0.00000E+00
    0.14365E-21         0.13034E-22         0.00000E+00
    0.39939E-35         0.22484E-20         0.00000E+00
    0.60066E-21         0.21618E-20         0.00000E+00
    0.86179E-21         0.19661E-20         0.00000E+00
    0.71938E-21         0.16597E-20         0.00000E+00
    0.45342E-21         0.13177E-20         0.00000E+00
    0.50589E-21         0.97594E-21         0.00000E+00
    0.69645E-21         0.10788E-20         0.00000E+00
    0.61310E-21         0.11744E-20         0.00000E+00
    0.68786E-21         0.77294E-21         0.00000E+00
    0.87723E-21         0.62447E-21         0.00000E+00
    0.98778E-21         0.57885E-21         0.00000E+00
    0.80563E-21         0.48191E-21         0.00000E+00
    0.52996E-21         0.50099E-21         0.00000E+00
    0.47732E-21         0.37740E-21         0.00000E+00
    0.44201E-21         0.18600E-21         0.00000E+00
    0.30371E-21         0.14294E-21         0.00000E+00
    0.23889E-21         0.25589E-21         0.00000E+00
    0.26668E-21         0.34099E-21         0.00000E+00
    0.21716E-21         0.25415E-21         0.00000E+00
    0.23978E-21         0.17056E-21         0.00000E+00
    0.23523E-21         0.14352E-21         0.00000E+00
    0.16482E-21         0.10909E-21         0.00000E+00
    0.19029E-21         0.85007E-22         0.00000E+00
    0.18369E-21         0.64162E-22         0.00000E+00
    0.18332E-21         0.38455E-22         0.00000E+00
    0.00000E+00         0.17409E-20         0.00000E+00
    0.29075E-21         0.18351E-20         0.00000E+00
    0.48453E-21         0.19538E-20         0.00000E+00
    0.54774E-21         0.17932E-20         0.00000E+00
    0.70594E-21         0.13575E-20         0.00000E+00
    0.65070E-21         0.94260E-21         0.00000E+00
    0.48336E-21         0.96653E-21         0.00000E+00
    0.69371E-21         0.98922E-21         0.00000E+00
    0.81346E-21         0.71393E-21         0.00000E+00
    0.81762E-21         0.56474E-21         0.00000E+00
    0.85827E-21         0.54900E-21         0.00000E+00
    0.65598E-21         0.74263E-21         0.00000E+00
    0.39311E-21         0.69019E-21         0.00000E+00
    0.40766E-21         0.35718E-21         0.00000E+00
    0.33529E-21         0.29638E-21         0.00000E+00
    0.27495E-21         0.28814E-21         0.00000E+00
    0.16366E-21         0.24892E-21         0.00000E+00
    0.23924E-21         0.30767E-21         0.00000E+00
    0.27892E-21         0.26115E-21         0.00000E+00
    0.25231E-21         0.16351E-21         0.00000E+00
    0.23625E-21         0.18016E-21         0.00000E+00
    0.22374E-21         0.14211E-21         0.00000E+00
    0.20197E-21         0.78922E-22         0.00000E+00
    0.22100E-21         0.47718E-22         0.00000E+00
    0.23813E-21         0.13765E-22         0.00000E+00
   -0.59219E-35         0.16669E-20         0.00000E+00
    0.17233E-21         0.16772E-20         0.00000E+00
    0.34628E-21         0.17091E-20         0.00000E+00
    0.55010E-21         0.14383E-20         0.00000E+00
    0.84199E-21         0.12147E-20         0.00000E+00
    0.80096E-21         0.11985E-20         0.00000E+00
    0.51275E-21         0.10358E-20         0.00000E+00
    0.70125E-21         0.84428E-21         0.00000E+00
    0.78194E-21         0.64903E-21         0.00000E+00
    0.75927E-21         0.57966E-21         0.00000E+00
    0.69494E-21         0.74049E-21         0.00000E+00
    0.46131E-21         0.94706E-21         0.00000E+00
    0.41817E-21         0.74932E-21         0.00000E+00
    0.34623E-21         0.43522E-21         0.00000E+00
    0.27067E-21         0.31870E-21         0.00000E+00
    0.27247E-21         0.31456E-21         0.00000E+00
    0.27728E-21         0.29160E-21         0.00000E+00
    0.29721E-21         0.22573E-21         0.00000E+00
    0.28877E-21         0.24108E-21         0.00000E+00
    0.23902E-21         0.21323E-21         0.00000E+00
    0.23597E-21         0.17208E-21         0.00000E+00
    0.28437E-21         0.14337E-21         0.00000E+00
    0.26247E-21         0.87757E-22         0.00000E+00
    0.27748E-21         0.28001E-22         0.00000E+00
    0.28205E-21         0.41811E-23         0.00000E+00
    0.43432E-50         0.13963E-20         0.00000E+00
    0.20474E-21         0.14888E-20         0.00000E+00
    0.34352E-21         0.15760E-20         0.00000E+00
    0.54789E-21         0.12975E-20         0.00000E+00
    0.53929E-21         0.11066E-20         0.00000E+00
    0.62223E-21         0.12718E-20         0.00000E+00
    0.68847E-21         0.10662E-20         0.00000E+00
    0.63263E-21         0.72003E-21         0.00000E+00
    0.69038E-21         0.65591E-21         0.00000E+00
    0.65589E-21         0.65174E-21         0.00000E+00
    0.57918E-21         0.84696E-21         0.00000E+00
    0.50286E-21         0.10194E-20         0.00000E+00
    0.53160E-21         0.80528E-21         0.00000E+00
    0.41168E-21         0.50468E-21         0.00000E+00
    0.30603E-21         0.37013E-21         0.00000E+00
    0.27449E-21         0.28153E-21         0.00000E+00
    0.40342E-21         0.22419E-21         0.00000E+00
    0.40673E-21         0.29617E-21         0.00000E+00
    0.29620E-21         0.31933E-21         0.00000E+00
    0.28200E-21         0.21631E-21         0.00000E+00
    0.27140E-21         0.13482E-21         0.00000E+00
    0.31733E-21         0.11560E-21         0.00000E+00
    0.35698E-21         0.85810E-22         0.00000E+00
    0.34836E-21         0.28142E-22         0.00000E+00
    0.33470E-21         0.46199E-23         0.00000E+00
    0.22336E-35         0.12574E-20         0.00000E+00
    0.79946E-22         0.13337E-20         0.00000E+00
    0.28157E-21         0.13659E-20         0.00000E+00
    0.49121E-21         0.12425E-20         0.00000E+00
    0.44236E-21         0.11404E-20         0.00000E+00
    0.70114E-21         0.10493E-20         0.00000E+00
    0.87976E-21         0.10254E-20         0.00000E+00
    0.81359E-21         0.84238E-21         0.00000E+00
    0.71582E-21         0.62577E-21         0.00000E+00
    0.59861E-21         0.69085E-21         0.00000E+00
    0.43251E-21         0.89351E-21         0.00000E+00
    0.54362E-21         0.99465E-21         0.00000E+00
    0.58882E-21         0.84050E-21         0.00000E+00
    0.50828E-21         0.66079E-21         0.00000E+00
    0.38469E-21         0.45589E-21         0.00000E+00
    0.42931E-21         0.21717E-21         0.00000E+00
    0.42127E-21         0.15936E-21         0.00000E+00
    0.38965E-21         0.33294E-21         0.00000E+00
    0.42194E-21         0.36581E-21         0.00000E+00
    0.39531E-21         0.23803E-21         0.00000E+00
    0.35783E-21         0.13675E-21         0.00000E+00
    0.37323E-21         0.57791E-22         0.00000E+00
    0.41244E-21         0.56731E-22         0.00000E+00
    0.40045E-21         0.50276E-22         0.00000E+00
    0.38205E-21         0.31489E-22         0.00000E+00
    0.00000E+00         0.12364E-20         0.00000E+00
    0.56221E-22         0.12072E-20         0.00000E+00
    0.24232E-21         0.11647E-20         0.00000E+00
    0.38397E-21         0.11367E-20         0.00000E+00
    0.50782E-21         0.89667E-21         0.00000E+00
    0.72773E-21         0.83443E-21         0.00000E+00
    0.80148E-21         0.95380E-21         0.00000E+00
    0.97586E-21         0.88397E-21         0.00000E+00
    0.71125E-21         0.87089E-21         0.00000E+00
    0.50899E-21         0.93505E-21         0.00000E+00
    0.38761E-21         0.90195E-21         0.00000E+00
    0.53257E-21         0.86309E-21         0.00000E+00
    0.61729E-21         0.84061E-21         0.00000E+00
    0.58651E-21         0.70881E-21         0.00000E+00
    0.54551E-21         0.44910E-21         0.00000E+00
    0.53886E-21         0.24495E-21         0.00000E+00
    0.43707E-21         0.26386E-21         0.00000E+00
    0.37766E-21         0.29550E-21         0.00000E+00
    0.45817E-21         0.31367E-21         0.00000E+00
    0.42573E-21         0.28043E-21         0.00000E+00
    0.45656E-21         0.15690E-21         0.00000E+00
    0.44039E-21         0.60999E-22         0.00000E+00
    0.41898E-21         0.58588E-22         0.00000E+00
    0.40887E-21         0.58529E-22         0.00000E+00
    0.40557E-21         0.41419E-22         0.00000E+00
    0.00000E+00         0.11449E-20         0.00000E+00
    0.11448E-21         0.10914E-20         0.00000E+00
    0.20385E-21         0.10382E-20         0.00000E+00
    0.25962E-21         0.97700E-21         0.00000E+00
    0.39986E-21         0.79660E-21         0.00000E+00
    0.32274E-21         0.75566E-21         0.00000E+00
    0.45509E-21         0.77723E-21         0.00000E+00
    0.49430E-21         0.93261E-21         0.00000E+00
    0.47230E-21         0.10926E-20         0.00000E+00
    0.43554E-21         0.10145E-20         0.00000E+00
    0.45851E-21         0.86993E-21         0.00000E+00
    0.44733E-21         0.76497E-21         0.00000E+00
    0.44204E-21         0.78657E-21         0.00000E+00
    0.46766E-21         0.73256E-21         0.00000E+00
    0.53100E-21         0.50354E-21         0.00000E+00
    0.41230E-21         0.32562E-21         0.00000E+00
    0.38150E-21         0.32055E-21         0.00000E+00
    0.42773E-21         0.31183E-21         0.00000E+00
    0.44148E-21         0.31774E-21         0.00000E+00
    0.45420E-21         0.23964E-21         0.00000E+00
    0.46204E-21         0.12209E-21         0.00000E+00
    0.43120E-21         0.95371E-22         0.00000E+00
    0.40506E-21         0.88250E-22         0.00000E+00
    0.41813E-21         0.63692E-22         0.00000E+00
    0.42237E-21         0.38098E-22         0.00000E+00
    0.00000E+00         0.10074E-20         0.00000E+00
    0.12825E-21         0.10034E-20         0.00000E+00
    0.16962E-21         0.10196E-20         0.00000E+00
    0.25787E-21         0.94066E-21         0.00000E+00
    0.26065E-21         0.83355E-21         0.00000E+00
    0.10195E-21         0.77920E-21         0.00000E+00
    0.12446E-21         0.78224E-21         0.00000E+00
    0.17096E-21         0.86676E-21         0.00000E+00
    0.29137E-21         0.92965E-21         0.00000E+00
    0.34210E-21         0.94884E-21         0.00000E+00
    0.34145E-21         0.89016E-21         0.00000E+00
    0.31569E-21         0.87956E-21         0.00000E+00
    0.29848E-21         0.82028E-21         0.00000E+00
    0.36966E-21         0.61985E-21         0.00000E+00
    0.45379E-21         0.50446E-21         0.00000E+00
    0.37051E-21         0.39445E-21         0.00000E+00
    0.34821E-21         0.24843E-21         0.00000E+00
    0.40498E-21         0.23552E-21         0.00000E+00
    0.47023E-21         0.28721E-21         0.00000E+00
    0.51538E-21         0.25986E-21         0.00000E+00
    0.48396E-21         0.17989E-21         0.00000E+00
    0.43729E-21         0.11799E-21         0.00000E+00
    0.43138E-21         0.71651E-22         0.00000E+00
    0.43569E-21         0.41219E-22         0.00000E+00
    0.43475E-21         0.32952E-22         0.00000E+00
    0.00000E+00         0.88845E-21         0.00000E+00
    0.65002E-22         0.92178E-21         0.00000E+00
    0.13721E-21         0.90857E-21         0.00000E+00
    0.28085E-21         0.88597E-21         0.00000E+00
    0.25899E-21         0.95252E-21         0.00000E+00
    0.17744E-21         0.89185E-21         0.00000E+00
    0.90324E-22         0.70822E-21         0.00000E+00
    0.90206E-22         0.76569E-21         0.00000E+00
    0.16046E-21         0.92151E-21         0.00000E+00
    0.27575E-21         0.96442E-21         0.00000E+00
    0.35646E-21         0.89633E-21         0.00000E+00
    0.26940E-21         0.80795E-21         0.00000E+00
    0.37456E-21         0.73260E-21         0.00000E+00
    0.43906E-21         0.57725E-21         0.00000E+00
    0.39721E-21         0.50268E-21         0.00000E+00
    0.47147E-21         0.43120E-21         0.00000E+00
    0.44628E-21         0.28608E-21         0.00000E+00
    0.40671E-21         0.18981E-21         0.00000E+00
    0.43507E-21         0.20734E-21         0.00000E+00
    0.49928E-21         0.22591E-21         0.00000E+00
    0.51070E-21         0.20018E-21         0.00000E+00
    0.48920E-21         0.14795E-21         0.00000E+00
    0.46133E-21         0.89850E-22         0.00000E+00
    0.43979E-21         0.60321E-22         0.00000E+00
    0.43790E-21         0.39986E-22         0.00000E+00
    0.00000E+00         0.87742E-21         0.00000E+00
    0.25593E-22         0.86618E-21         0.00000E+00
    0.11435E-21         0.80374E-21         0.00000E+00
    0.16244E-21         0.81887E-21         0.00000E+00
    0.19719E-21         0.93696E-21         0.00000E+00
    0.30254E-21         0.94787E-21         0.00000E+00
    0.17365E-21         0.86947E-21         0.00000E+00
    0.27644E-23         0.79661E-21         0.00000E+00
    0.12192E-21         0.74410E-21         0.00000E+00
    0.22709E-21         0.75285E-21         0.00000E+00
    0.39400E-21         0.89651E-21         0.00000E+00
    0.36614E-21         0.86146E-21         0.00000E+00
    0.35761E-21         0.65063E-21         0.00000E+00
    0.38641E-21         0.59720E-21         0.00000E+00
    0.45687E-21         0.47205E-21         0.00000E+00
    0.54306E-21         0.34537E-21         0.00000E+00
    0.50811E-21         0.31319E-21         0.00000E+00
    0.52403E-21         0.24673E-21         0.00000E+00
    0.47318E-21         0.19464E-21         0.00000E+00
    0.46424E-21         0.18423E-21         0.00000E+00
    0.45773E-21         0.18997E-21         0.00000E+00
    0.47015E-21         0.16736E-21         0.00000E+00
    0.43845E-21         0.12106E-21         0.00000E+00
    0.44599E-21         0.64647E-22         0.00000E+00
    0.44885E-21         0.36724E-22         0.00000E+00
    0.00000E+00         0.83726E-21         0.00000E+00
    0.47967E-22         0.80743E-21         0.00000E+00
    0.95075E-22         0.77172E-21         0.00000E+00
    0.11046E-21         0.80313E-21         0.00000E+00
    0.20162E-21         0.81243E-21         0.00000E+00
    0.26672E-21         0.91539E-21         0.00000E+00
    0.23031E-21         0.10080E-20         0.00000E+00
    0.24714E-21         0.81742E-21         0.00000E+00
    0.20975E-21         0.69719E-21         0.00000E+00
    0.16590E-21         0.69234E-21         0.00000E+00
    0.15571E-21         0.75728E-21         0.00000E+00
    0.29542E-21         0.84434E-21         0.00000E+00
    0.32016E-21         0.71233E-21         0.00000E+00
    0.38451E-21         0.47799E-21         0.00000E+00
    0.52814E-21         0.34603E-21         0.00000E+00
    0.53018E-21         0.37996E-21         0.00000E+00
    0.50500E-21         0.30511E-21         0.00000E+00
    0.51035E-21         0.22475E-21         0.00000E+00
    0.51436E-21         0.26713E-21         0.00000E+00
    0.47360E-21         0.24136E-21         0.00000E+00
    0.45738E-21         0.19427E-21         0.00000E+00
    0.44915E-21         0.16724E-21         0.00000E+00
    0.46449E-21         0.11401E-21         0.00000E+00
    0.46479E-21         0.49921E-22         0.00000E+00
    0.46768E-21         0.34268E-22         0.00000E+00
    0.00000E+00         0.78149E-21         0.00000E+00
    0.33334E-22         0.77111E-21         0.00000E+00
    0.55192E-22         0.74124E-21         0.00000E+00
    0.10901E-21         0.71233E-21         0.00000E+00
    0.21617E-21         0.78070E-21         0.00000E+00
    0.27242E-21         0.91918E-21         0.00000E+00
    0.38951E-21         0.88905E-21         0.00000E+00
    0.38674E-21         0.81717E-21         0.00000E+00
    0.25777E-21         0.82534E-21         0.00000E+00
    0.21396E-21         0.80688E-21         0.00000E+00
    0.14941E-21         0.76698E-21         0.00000E+00
    0.21495E-21         0.69702E-21         0.00000E+00
    0.36805E-21         0.56154E-21         0.00000E+00
    0.43612E-21         0.38922E-21         0.00000E+00
    0.36794E-21         0.32638E-21         0.00000E+00
    0.38232E-21         0.36851E-21         0.00000E+00
    0.49354E-21         0.33302E-21         0.00000E+00
    0.44489E-21         0.23736E-21         0.00000E+00
    0.46033E-21         0.23140E-21         0.00000E+00
    0.47114E-21         0.24122E-21         0.00000E+00
    0.45955E-21         0.21442E-21         0.00000E+00
    0.45460E-21         0.16024E-21         0.00000E+00
    0.49596E-21         0.10542E-21         0.00000E+00
    0.47800E-21         0.61459E-22         0.00000E+00
    0.48317E-21         0.30945E-22         0.00000E+00
    0.00000E+00         0.77059E-21         0.00000E+00
    0.33027E-22         0.75223E-21         0.00000E+00
   -0.31618E-22         0.69604E-21         0.00000E+00
   -0.78336E-23         0.64216E-21         0.00000E+00
    0.95385E-22         0.64903E-21         0.00000E+00
    0.19767E-21         0.74204E-21         0.00000E+00
    0.34383E-21         0.89367E-21         0.00000E+00
    0.29217E-21         0.94916E-21         0.00000E+00
    0.32704E-21         0.86997E-21         0.00000E+00
    0.30608E-21         0.80070E-21         0.00000E+00
    0.31394E-21         0.75629E-21         0.00000E+00
    0.27197E-21         0.62570E-21         0.00000E+00
    0.32716E-21         0.49115E-21         0.00000E+00
    0.41251E-21         0.47809E-21         0.00000E+00
    0.32194E-21         0.39983E-21         0.00000E+00
    0.36564E-21         0.25436E-21         0.00000E+00
    0.47998E-21         0.24254E-21         0.00000E+00
    0.50029E-21         0.25795E-21         0.00000E+00
    0.46925E-21         0.24088E-21         0.00000E+00
    0.46501E-21         0.24214E-21         0.00000E+00
    0.45524E-21         0.21081E-21         0.00000E+00
    0.47511E-21         0.13083E-21         0.00000E+00
    0.47359E-21         0.90609E-22         0.00000E+00
    0.48474E-21         0.62711E-22         0.00000E+00
    0.48191E-21         0.23929E-22         0.00000E+00
    0.00000E+00         0.71543E-21         0.00000E+00
    0.44944E-22         0.80273E-21         0.00000E+00
    0.28455E-22         0.78211E-21         0.00000E+00
   -0.14546E-22         0.58533E-21         0.00000E+00
    0.31720E-22         0.57520E-21         0.00000E+00
    0.30845E-22         0.67074E-21         0.00000E+00
    0.18213E-22         0.79456E-21         0.00000E+00
    0.14498E-21         0.83397E-21         0.00000E+00
    0.26921E-21         0.81143E-21         0.00000E+00
    0.29823E-21         0.81998E-21         0.00000E+00
    0.33363E-21         0.80108E-21         0.00000E+00
    0.34283E-21         0.68380E-21         0.00000E+00
    0.28558E-21         0.42100E-21         0.00000E+00
    0.31343E-21         0.39444E-21         0.00000E+00
    0.40902E-21         0.37325E-21         0.00000E+00
    0.44174E-21         0.21047E-21         0.00000E+00
    0.48105E-21         0.19837E-21         0.00000E+00
    0.50441E-21         0.24809E-21         0.00000E+00
    0.48140E-21         0.26667E-21         0.00000E+00
    0.45393E-21         0.25522E-21         0.00000E+00
    0.49145E-21         0.20432E-21         0.00000E+00
    0.50267E-21         0.14190E-21         0.00000E+00
    0.46677E-21         0.95786E-22         0.00000E+00
    0.47389E-21         0.53133E-22         0.00000E+00
    0.46724E-21         0.36611E-22         0.00000E+00
    0.00000E+00         0.68070E-21         0.00000E+00
    0.15830E-22         0.72378E-21         0.00000E+00
    0.17852E-21         0.75553E-21         0.00000E+00
    0.17168E-21         0.63889E-21         0.00000E+00
    0.59919E-22         0.60364E-21         0.00000E+00
    0.31004E-22         0.75555E-21         0.00000E+00
    0.15186E-22         0.77954E-21         0.00000E+00
    0.11674E-21         0.69816E-21         0.00000E+00
    0.10062E-21         0.71672E-21         0.00000E+00
    0.23107E-21         0.73628E-21         0.00000E+00
    0.31759E-21         0.71169E-21         0.00000E+00
    0.44465E-21         0.67375E-21         0.00000E+00
    0.42082E-21         0.52055E-21         0.00000E+00
    0.31602E-21         0.35466E-21         0.00000E+00
    0.41706E-21         0.27153E-21         0.00000E+00
    0.39369E-21         0.18233E-21         0.00000E+00
    0.38045E-21         0.17987E-21         0.00000E+00
    0.35799E-21         0.25760E-21         0.00000E+00
    0.38597E-21         0.29136E-21         0.00000E+00
    0.39576E-21         0.23209E-21         0.00000E+00
    0.45452E-21         0.16207E-21         0.00000E+00
    0.47154E-21         0.15550E-21         0.00000E+00
    0.46530E-21         0.11939E-21         0.00000E+00
    0.44956E-21         0.62244E-22         0.00000E+00
    0.45027E-21         0.37240E-22         0.00000E+00
    0.00000E+00         0.68377E-21         0.00000E+00
    0.85420E-22         0.62421E-21         0.00000E+00
    0.89129E-22         0.62626E-21         0.00000E+00
    0.11254E-21         0.70393E-21         0.00000E+00
    0.78542E-22         0.71587E-21         0.00000E+00
    0.16009E-21         0.71547E-21         0.00000E+00
    0.25312E-21         0.70882E-21         0.00000E+00
    0.23257E-21         0.74853E-21         0.00000E+00
    0.22144E-21         0.69711E-21         0.00000E+00
    0.26210E-21         0.60301E-21         0.00000E+00
    0.32218E-21         0.58750E-21         0.00000E+00
    0.36848E-21         0.58057E-21         0.00000E+00
    0.40849E-21         0.54963E-21         0.00000E+00
    0.42355E-21         0.39820E-21         0.00000E+00
    0.37910E-21         0.29559E-21         0.00000E+00
    0.36317E-21         0.24707E-21         0.00000E+00
    0.30052E-21         0.23407E-21         0.00000E+00
    0.30778E-21         0.24258E-21         0.00000E+00
    0.31543E-21         0.22889E-21         0.00000E+00
    0.38328E-21         0.18668E-21         0.00000E+00
    0.38941E-21         0.12855E-21         0.00000E+00
    0.40625E-21         0.13111E-21         0.00000E+00
    0.42082E-21         0.11776E-21         0.00000E+00
    0.42905E-21         0.68168E-22         0.00000E+00
    0.43556E-21         0.35200E-22         0.00000E+00
    0.00000E+00         0.50986E-21         0.00000E+00
    0.18552E-21         0.63465E-21         0.00000E+00
    0.96192E-22         0.72841E-21         0.00000E+00
    0.10411E-21         0.64948E-21         0.00000E+00
    0.16013E-21         0.55608E-21         0.00000E+00
    0.29050E-21         0.58098E-21         0.00000E+00
    0.35738E-21         0.70706E-21         0.00000E+00
    0.30080E-21         0.72984E-21         0.00000E+00
    0.34977E-21         0.68718E-21         0.00000E+00
    0.32999E-21         0.63554E-21         0.00000E+00
    0.33654E-21         0.60532E-21         0.00000E+00
    0.31069E-21         0.58745E-21         0.00000E+00
    0.33451E-21         0.46548E-21         0.00000E+00
    0.34898E-21         0.38404E-21         0.00000E+00
    0.34619E-21         0.33190E-21         0.00000E+00
    0.36702E-21         0.26091E-21         0.00000E+00
    0.35388E-21         0.23526E-21         0.00000E+00
    0.40017E-21         0.24269E-21         0.00000E+00
    0.39469E-21         0.21586E-21         0.00000E+00
    0.42316E-21         0.15811E-21         0.00000E+00
    0.39402E-21         0.13911E-21         0.00000E+00
    0.37953E-21         0.12410E-21         0.00000E+00
    0.39040E-21         0.96585E-22         0.00000E+00
    0.40901E-21         0.47502E-22         0.00000E+00
    0.41903E-21         0.24216E-22         0.00000E+00
    0.00000E+00         0.31274E-21         0.00000E+00
    0.25099E-22         0.52802E-21         0.00000E+00
    0.16521E-21         0.70767E-21         0.00000E+00
    0.20436E-21         0.63999E-21         0.00000E+00
    0.24513E-21         0.52948E-21         0.00000E+00
    0.19568E-21         0.51822E-21         0.00000E+00
    0.21205E-21         0.69851E-21         0.00000E+00
    0.26991E-21         0.75614E-21         0.00000E+00
    0.30402E-21         0.66792E-21         0.00000E+00
    0.33944E-21         0.61624E-21         0.00000E+00
    0.35613E-21         0.60679E-21         0.00000E+00
    0.39369E-21         0.58261E-21         0.00000E+00
    0.39838E-21         0.51134E-21         0.00000E+00
    0.32234E-21         0.38652E-21         0.00000E+00
    0.37822E-21         0.27754E-21         0.00000E+00
    0.36649E-21         0.23938E-21         0.00000E+00
    0.39256E-21         0.20092E-21         0.00000E+00
    0.39356E-21         0.20177E-21         0.00000E+00
    0.43861E-21         0.20590E-21         0.00000E+00
    0.43397E-21         0.18735E-21         0.00000E+00
    0.40425E-21         0.17218E-21         0.00000E+00
    0.39281E-21         0.13474E-21         0.00000E+00
    0.39661E-21         0.88278E-22         0.00000E+00
    0.39700E-21         0.39535E-22         0.00000E+00
    0.39877E-21         0.15165E-22         0.00000E+00
    0.00000E+00         0.45967E-21         0.00000E+00
   -0.94441E-22         0.46944E-21         0.00000E+00
    0.43771E-22         0.54915E-21         0.00000E+00
    0.13118E-21         0.56956E-21         0.00000E+00
    0.15829E-21         0.56476E-21         0.00000E+00
    0.10028E-21         0.61406E-21         0.00000E+00
    0.11087E-21         0.63283E-21         0.00000E+00
    0.22733E-21         0.63787E-21         0.00000E+00
    0.29260E-21         0.61765E-21         0.00000E+00
    0.33134E-21         0.58343E-21         0.00000E+00
    0.37046E-21         0.55106E-21         0.00000E+00
    0.43743E-21         0.54520E-21         0.00000E+00
    0.46599E-21         0.53683E-21         0.00000E+00
    0.46253E-21         0.40421E-21         0.00000E+00
    0.40627E-21         0.28776E-21         0.00000E+00
    0.38086E-21         0.24656E-21         0.00000E+00
    0.40469E-21         0.20819E-21         0.00000E+00
    0.38006E-21         0.19664E-21         0.00000E+00
    0.37957E-21         0.17545E-21         0.00000E+00
    0.37031E-21         0.19246E-21         0.00000E+00
    0.38610E-21         0.18026E-21         0.00000E+00
    0.38209E-21         0.13175E-21         0.00000E+00
    0.39037E-21         0.92403E-22         0.00000E+00
    0.39124E-21         0.45338E-22         0.00000E+00
    0.38859E-21         0.20663E-22         0.00000E+00
    0.00000E+00         0.50162E-21         0.00000E+00
    0.51757E-23         0.48425E-21         0.00000E+00
    0.43336E-22         0.48205E-21         0.00000E+00
    0.11080E-21         0.52547E-21         0.00000E+00
    0.78233E-22         0.56038E-21         0.00000E+00
    0.12874E-21         0.56563E-21         0.00000E+00
    0.17392E-21         0.57146E-21         0.00000E+00
    0.23443E-21         0.57441E-21         0.00000E+00
    0.27789E-21         0.56392E-21         0.00000E+00
    0.32297E-21         0.53838E-21         0.00000E+00
    0.35143E-21         0.50070E-21         0.00000E+00
    0.38594E-21         0.48707E-21         0.00000E+00
    0.40702E-21         0.48625E-21         0.00000E+00
    0.46626E-21         0.44625E-21         0.00000E+00
    0.39107E-21         0.35921E-21         0.00000E+00
    0.40075E-21         0.24095E-21         0.00000E+00
    0.38650E-21         0.20173E-21         0.00000E+00
    0.39160E-21         0.22689E-21         0.00000E+00
    0.33872E-21         0.21565E-21         0.00000E+00
    0.31775E-21         0.18082E-21         0.00000E+00
    0.35729E-21         0.16039E-21         0.00000E+00
    0.35755E-21         0.13047E-21         0.00000E+00
    0.36929E-21         0.79130E-22         0.00000E+00
    0.38150E-21         0.41313E-22         0.00000E+00
    0.38104E-21         0.20476E-22         0.00000E+00
    0.00000E+00         0.44931E-21         0.00000E+00
    0.38782E-22         0.42610E-21         0.00000E+00
    0.98756E-22         0.44353E-21         0.00000E+00
    0.10612E-21         0.53466E-21         0.00000E+00
    0.17355E-21         0.54683E-21         0.00000E+00
    0.16249E-21         0.51837E-21         0.00000E+00
    0.18265E-21         0.52714E-21         0.00000E+00
    0.19921E-21         0.53390E-21         0.00000E+00
    0.23181E-21         0.52911E-21         0.00000E+00
    0.28070E-21         0.50989E-21         0.00000E+00
    0.30292E-21         0.48809E-21         0.00000E+00
    0.31466E-21         0.48960E-21         0.00000E+00
    0.31444E-21         0.45651E-21         0.00000E+00
    0.36636E-21         0.42016E-21         0.00000E+00
    0.40824E-21         0.35326E-21         0.00000E+00
    0.40474E-21         0.25112E-21         0.00000E+00
    0.33902E-21         0.21734E-21         0.00000E+00
    0.32334E-21         0.24442E-21         0.00000E+00
    0.30440E-21         0.24931E-21         0.00000E+00
    0.32257E-21         0.17389E-21         0.00000E+00
    0.33015E-21         0.14046E-21         0.00000E+00
    0.35064E-21         0.11975E-21         0.00000E+00
    0.36049E-21         0.68448E-22         0.00000E+00
    0.36474E-21         0.33589E-22         0.00000E+00
    0.36699E-21         0.21594E-22         0.00000E+00
    0.00000E+00         0.42406E-21         0.00000E+00
   -0.88266E-23         0.38549E-21         0.00000E+00
    0.94228E-23         0.41471E-21         0.00000E+00
    0.10626E-21         0.45068E-21         0.00000E+00
    0.16974E-21         0.50402E-21         0.00000E+00
    0.14204E-21         0.55653E-21         0.00000E+00
    0.11276E-21         0.53474E-21         0.00000E+00
    0.12298E-21         0.52525E-21         0.00000E+00
    0.17551E-21         0.48242E-21         0.00000E+00
    0.20532E-21         0.46727E-21         0.00000E+00
    0.25486E-21         0.46674E-21         0.00000E+00
    0.25524E-21         0.47554E-21         0.00000E+00
    0.31931E-21         0.43455E-21         0.00000E+00
    0.35400E-21         0.35246E-21         0.00000E+00
    0.41583E-21         0.32083E-21         0.00000E+00
    0.36806E-21         0.31017E-21         0.00000E+00
    0.33003E-21         0.28313E-21         0.00000E+00
    0.29578E-21         0.26151E-21         0.00000E+00
    0.31188E-21         0.21642E-21         0.00000E+00
    0.31871E-21         0.15507E-21         0.00000E+00
    0.31254E-21         0.13233E-21         0.00000E+00
    0.33570E-21         0.10013E-21         0.00000E+00
    0.35096E-21         0.65029E-22         0.00000E+00
    0.35613E-21         0.34811E-22         0.00000E+00
    0.36007E-21         0.15965E-22         0.00000E+00
    0.00000E+00         0.46697E-21         0.00000E+00
   -0.59386E-23         0.41668E-21         0.00000E+00
   -0.11350E-22         0.32844E-21         0.00000E+00
    0.50146E-22         0.37435E-21         0.00000E+00
    0.50009E-22         0.51105E-21         0.00000E+00
    0.99728E-22         0.57535E-21         0.00000E+00
    0.10204E-21         0.54620E-21         0.00000E+00
    0.14742E-21         0.47115E-21         0.00000E+00
    0.17864E-21         0.44676E-21         0.00000E+00
    0.17919E-21         0.43054E-21         0.00000E+00
    0.16913E-21         0.43817E-21         0.00000E+00
    0.23296E-21         0.42516E-21         0.00000E+00
    0.32378E-21         0.35775E-21         0.00000E+00
    0.35674E-21         0.32364E-21         0.00000E+00
    0.34236E-21         0.33920E-21         0.00000E+00
    0.33717E-21         0.33692E-21         0.00000E+00
    0.35734E-21         0.28962E-21         0.00000E+00
    0.33015E-21         0.26258E-21         0.00000E+00
    0.35448E-21         0.22638E-21         0.00000E+00
    0.34210E-21         0.17324E-21         0.00000E+00
    0.32565E-21         0.12347E-21         0.00000E+00
    0.34559E-21         0.81323E-22         0.00000E+00
    0.34639E-21         0.48022E-22         0.00000E+00
    0.35264E-21         0.24486E-22         0.00000E+00
    0.35504E-21         0.13723E-22         0.00000E+00
    0.00000E+00         0.43593E-21         0.00000E+00
    0.69159E-22         0.39684E-21         0.00000E+00
    0.86758E-22         0.35862E-21         0.00000E+00
    0.15032E-22         0.38932E-21         0.00000E+00
    0.11457E-22         0.45443E-21         0.00000E+00
    0.88486E-22         0.50449E-21         0.00000E+00
    0.16050E-21         0.48705E-21         0.00000E+00
    0.20038E-21         0.44866E-21         0.00000E+00
    0.20972E-21         0.45064E-21         0.00000E+00
    0.19536E-21         0.47679E-21         0.00000E+00
    0.17719E-21         0.41298E-21         0.00000E+00
    0.24588E-21         0.32089E-21         0.00000E+00
    0.24699E-21         0.31076E-21         0.00000E+00
    0.27912E-21         0.33388E-21         0.00000E+00
    0.27705E-21         0.34040E-21         0.00000E+00
    0.31371E-21         0.29519E-21         0.00000E+00
    0.33812E-21         0.29015E-21         0.00000E+00
    0.33288E-21         0.26437E-21         0.00000E+00
    0.35547E-21         0.20447E-21         0.00000E+00
    0.38778E-21         0.18390E-21         0.00000E+00
    0.38520E-21         0.12883E-21         0.00000E+00
    0.36155E-21         0.79389E-22         0.00000E+00
    0.35536E-21         0.57985E-22         0.00000E+00
    0.34597E-21         0.26166E-22         0.00000E+00
    0.34392E-21         0.11165E-22         0.00000E+00
    0.00000E+00         0.32865E-21         0.00000E+00
    0.87969E-22         0.32992E-21         0.00000E+00
    0.86129E-22         0.38257E-21         0.00000E+00
    0.75244E-22         0.44965E-21         0.00000E+00
    0.68894E-22         0.43759E-21         0.00000E+00
    0.95073E-22         0.42630E-21         0.00000E+00
    0.14785E-21         0.43430E-21         0.00000E+00
    0.16694E-21         0.42193E-21         0.00000E+00
    0.17915E-21         0.45178E-21         0.00000E+00
    0.19225E-21         0.46307E-21         0.00000E+00
    0.24012E-21         0.38766E-21         0.00000E+00
    0.17037E-21         0.35536E-21         0.00000E+00
    0.15069E-21         0.32451E-21         0.00000E+00
    0.16412E-21         0.29358E-21         0.00000E+00
    0.21714E-21         0.30460E-21         0.00000E+00
    0.25600E-21         0.27585E-21         0.00000E+00
    0.25568E-21         0.27045E-21         0.00000E+00
    0.30337E-21         0.24523E-21         0.00000E+00
    0.29683E-21         0.17148E-21         0.00000E+00
    0.33548E-21         0.14351E-21         0.00000E+00
    0.36264E-21         0.14969E-21         0.00000E+00
    0.33592E-21         0.11116E-21         0.00000E+00
    0.33269E-21         0.63603E-22         0.00000E+00
    0.33029E-21         0.35926E-22         0.00000E+00
    0.32784E-21         0.17823E-22         0.00000E+00
    0.00000E+00         0.26000E-21         0.00000E+00
    0.40835E-22         0.31071E-21         0.00000E+00
    0.22637E-22         0.37135E-21         0.00000E+00
    0.50486E-22         0.40656E-21         0.00000E+00
    0.10038E-21         0.43461E-21         0.00000E+00
    0.98505E-22         0.42553E-21         0.00000E+00
    0.11967E-21         0.41518E-21         0.00000E+00
    0.11863E-21         0.41736E-21         0.00000E+00
    0.11188E-21         0.42534E-21         0.00000E+00
    0.18563E-21         0.41582E-21         0.00000E+00
    0.16937E-21         0.43485E-21         0.00000E+00
    0.12468E-21         0.41032E-21         0.00000E+00
    0.14905E-21         0.31702E-21         0.00000E+00
    0.13795E-21         0.26743E-21         0.00000E+00
    0.18833E-21         0.24852E-21         0.00000E+00
    0.21342E-21         0.25664E-21         0.00000E+00
    0.21549E-21         0.24278E-21         0.00000E+00
    0.25997E-21         0.22322E-21         0.00000E+00
    0.24782E-21         0.17237E-21         0.00000E+00
    0.24206E-21         0.11809E-21         0.00000E+00
    0.26136E-21         0.12839E-21         0.00000E+00
    0.29173E-21         0.10934E-21         0.00000E+00
    0.29151E-21         0.63615E-22         0.00000E+00
    0.29963E-21         0.31014E-22         0.00000E+00
    0.30109E-21         0.16063E-22         0.00000E+00
    0.00000E+00         0.24698E-21         0.00000E+00
   -0.14534E-22         0.30728E-21         0.00000E+00
    0.13549E-22         0.37292E-21         0.00000E+00
    0.55707E-22         0.37191E-21         0.00000E+00
    0.66523E-22         0.38957E-21         0.00000E+00
    0.90475E-22         0.40701E-21         0.00000E+00
    0.10324E-21         0.41418E-21         0.00000E+00
    0.11790E-21         0.42972E-21         0.00000E+00
    0.13646E-21         0.38478E-21         0.00000E+00
    0.15541E-21         0.40558E-21         0.00000E+00
    0.15045E-21         0.44861E-21         0.00000E+00
    0.16850E-21         0.37568E-21         0.00000E+00
    0.14646E-21         0.31125E-21         0.00000E+00
    0.18150E-21         0.25429E-21         0.00000E+00
    0.19324E-21         0.22913E-21         0.00000E+00
    0.20110E-21         0.24869E-21         0.00000E+00
    0.22758E-21         0.22390E-21         0.00000E+00
    0.22882E-21         0.21290E-21         0.00000E+00
    0.24875E-21         0.18939E-21         0.00000E+00
    0.22163E-21         0.12997E-21         0.00000E+00
    0.21378E-21         0.10003E-21         0.00000E+00
    0.24432E-21         0.81015E-22         0.00000E+00
    0.26068E-21         0.55699E-22         0.00000E+00
    0.26890E-21         0.26344E-22         0.00000E+00
    0.27166E-21         0.14904E-22         0.00000E+00
    0.00000E+00         0.28906E-21         0.00000E+00
   -0.18874E-22         0.29716E-21         0.00000E+00
    0.24584E-22         0.30111E-21         0.00000E+00
    0.82493E-22         0.35358E-21         0.00000E+00
    0.65636E-22         0.39984E-21         0.00000E+00
    0.67456E-22         0.38881E-21         0.00000E+00
    0.94195E-22         0.38776E-21         0.00000E+00
    0.14104E-21         0.38414E-21         0.00000E+00
    0.16271E-21         0.38783E-21         0.00000E+00
    0.11722E-21         0.40184E-21         0.00000E+00
    0.16779E-21         0.42176E-21         0.00000E+00
    0.19143E-21         0.41431E-21         0.00000E+00
    0.16475E-21         0.30401E-21         0.00000E+00
    0.18592E-21         0.22064E-21         0.00000E+00
    0.16025E-21         0.22892E-21         0.00000E+00
    0.17422E-21         0.22231E-21         0.00000E+00
    0.19545E-21         0.21506E-21         0.00000E+00
    0.21466E-21         0.20205E-21         0.00000E+00
    0.22751E-21         0.17955E-21         0.00000E+00
    0.21680E-21         0.15307E-21         0.00000E+00
    0.21235E-21         0.10570E-21         0.00000E+00
    0.22487E-21         0.62433E-22         0.00000E+00
    0.24437E-21         0.39028E-22         0.00000E+00
    0.24880E-21         0.20033E-22         0.00000E+00
    0.25361E-21         0.10547E-22         0.00000E+00
    0.00000E+00         0.28473E-21         0.00000E+00
    0.45147E-23         0.28270E-21         0.00000E+00
    0.15638E-22         0.27155E-21         0.00000E+00
    0.10363E-22         0.33085E-21         0.00000E+00
    0.71088E-22         0.40461E-21         0.00000E+00
    0.97275E-22         0.37846E-21         0.00000E+00
    0.11419E-21         0.34059E-21         0.00000E+00
    0.11832E-21         0.36121E-21         0.00000E+00
    0.10505E-21         0.40859E-21         0.00000E+00
    0.11984E-21         0.40050E-21         0.00000E+00
    0.13982E-21         0.37441E-21         0.00000E+00
    0.18243E-21         0.37872E-21         0.00000E+00
    0.22104E-21         0.31676E-21         0.00000E+00
    0.18032E-21         0.25880E-21         0.00000E+00
    0.15096E-21         0.24083E-21         0.00000E+00
    0.16850E-21         0.21349E-21         0.00000E+00
    0.17597E-21         0.18346E-21         0.00000E+00
    0.21041E-21         0.18084E-21         0.00000E+00
    0.20511E-21         0.18725E-21         0.00000E+00
    0.21222E-21         0.14513E-21         0.00000E+00
    0.21717E-21         0.91965E-22         0.00000E+00
    0.22784E-21         0.48993E-22         0.00000E+00
    0.23233E-21         0.31762E-22         0.00000E+00
    0.23532E-21         0.17103E-22         0.00000E+00
    0.23743E-21         0.52881E-23         0.00000E+00
    0.49744E-36         0.28003E-21         0.00000E+00
   -0.14641E-23         0.28152E-21         0.00000E+00
    0.72372E-23         0.29526E-21         0.00000E+00
   -0.50260E-23         0.29813E-21         0.00000E+00
    0.67725E-22         0.31293E-21         0.00000E+00
    0.14345E-21         0.34571E-21         0.00000E+00
    0.12301E-21         0.36671E-21         0.00000E+00
    0.10129E-21         0.39328E-21         0.00000E+00
    0.10825E-21         0.38631E-21         0.00000E+00
    0.13277E-21         0.36706E-21         0.00000E+00
    0.14478E-21         0.35918E-21         0.00000E+00
    0.15066E-21         0.33309E-21         0.00000E+00
    0.19101E-21         0.30612E-21         0.00000E+00
    0.17550E-21         0.29072E-21         0.00000E+00
    0.18844E-21         0.24075E-21         0.00000E+00
    0.20864E-21         0.19729E-21         0.00000E+00
    0.20815E-21         0.17315E-21         0.00000E+00
    0.18655E-21         0.17291E-21         0.00000E+00
    0.20429E-21         0.17774E-21         0.00000E+00
    0.21136E-21         0.14101E-21         0.00000E+00
    0.21308E-21         0.90088E-22         0.00000E+00
    0.22397E-21         0.47274E-22         0.00000E+00
    0.21874E-21         0.31541E-22         0.00000E+00
    0.21741E-21         0.14936E-22         0.00000E+00
    0.21467E-21         0.63356E-23         0.00000E+00
    0.72666E-50         0.28765E-21         0.00000E+00
   -0.48363E-23         0.27546E-21         0.00000E+00
    0.76010E-23         0.27511E-21         0.00000E+00
    0.25438E-22         0.27037E-21         0.00000E+00
    0.43078E-22         0.25614E-21         0.00000E+00
    0.56058E-22         0.32317E-21         0.00000E+00
    0.69671E-22         0.38275E-21         0.00000E+00
    0.97294E-22         0.37597E-21         0.00000E+00
    0.13547E-21         0.37712E-21         0.00000E+00
    0.12202E-21         0.36397E-21         0.00000E+00
    0.13528E-21         0.35651E-21         0.00000E+00
    0.15494E-21         0.33248E-21         0.00000E+00
    0.16550E-21         0.29191E-21         0.00000E+00
    0.17398E-21         0.26137E-21         0.00000E+00
    0.20215E-21         0.20769E-21         0.00000E+00
    0.18970E-21         0.19378E-21         0.00000E+00
    0.17937E-21         0.20555E-21         0.00000E+00
    0.15844E-21         0.18470E-21         0.00000E+00
    0.19042E-21         0.16244E-21         0.00000E+00
    0.19865E-21         0.13635E-21         0.00000E+00
    0.21415E-21         0.79351E-22         0.00000E+00
    0.21336E-21         0.43331E-22         0.00000E+00
    0.20244E-21         0.38323E-22         0.00000E+00
    0.19469E-21         0.21170E-22         0.00000E+00
    0.19089E-21         0.10757E-22         0.00000E+00
   -0.51462E-36         0.28971E-21         0.00000E+00
   -0.26101E-23         0.27392E-21         0.00000E+00
   -0.48914E-23         0.26499E-21         0.00000E+00
    0.11370E-22         0.26266E-21         0.00000E+00
    0.26321E-24         0.28231E-21         0.00000E+00
   -0.18158E-22         0.31912E-21         0.00000E+00
    0.94153E-23         0.32548E-21         0.00000E+00
    0.26139E-22         0.32748E-21         0.00000E+00
    0.42673E-22         0.36158E-21         0.00000E+00
    0.66211E-22         0.36726E-21         0.00000E+00
    0.11468E-21         0.32625E-21         0.00000E+00
    0.14349E-21         0.30287E-21         0.00000E+00
    0.14680E-21         0.28709E-21         0.00000E+00
    0.15473E-21         0.25407E-21         0.00000E+00
    0.13538E-21         0.22503E-21         0.00000E+00
    0.11254E-21         0.22007E-21         0.00000E+00
    0.12009E-21         0.20440E-21         0.00000E+00
    0.14828E-21         0.16187E-21         0.00000E+00
    0.17924E-21         0.13753E-21         0.00000E+00
    0.18999E-21         0.11727E-21         0.00000E+00
    0.20127E-21         0.75381E-22         0.00000E+00
    0.18586E-21         0.58989E-22         0.00000E+00
    0.17612E-21         0.50206E-22         0.00000E+00
    0.17338E-21         0.26478E-22         0.00000E+00
    0.17430E-21         0.13935E-22         0.00000E+00
    0.00000E+00         0.29287E-21         0.00000E+00
    0.15490E-22         0.28035E-21         0.00000E+00
    0.43141E-23         0.26113E-21         0.00000E+00
   -0.10308E-22         0.26521E-21         0.00000E+00
   -0.17765E-22         0.28567E-21         0.00000E+00
   -0.64130E-25         0.31402E-21         0.00000E+00
   -0.11763E-22         0.33845E-21         0.00000E+00
   -0.23426E-22         0.34271E-21         0.00000E+00
    0.12072E-22         0.33704E-21         0.00000E+00
    0.60922E-22         0.29197E-21         0.00000E+00
    0.90509E-22         0.27924E-21         0.00000E+00
    0.89678E-22         0.30036E-21         0.00000E+00
    0.93434E-22         0.28067E-21         0.00000E+00
    0.93920E-22         0.27279E-21         0.00000E+00
    0.87955E-22         0.24988E-21         0.00000E+00
    0.89989E-22         0.20906E-21         0.00000E+00
    0.12167E-21         0.16981E-21         0.00000E+00
    0.14949E-21         0.12555E-21         0.00000E+00
    0.14591E-21         0.12073E-21         0.00000E+00
    0.15887E-21         0.11432E-21         0.00000E+00
    0.15907E-21         0.83480E-22         0.00000E+00
    0.15326E-21         0.68473E-22         0.00000E+00
    0.15870E-21         0.50804E-22         0.00000E+00
    0.16224E-21         0.22995E-22         0.00000E+00
    0.16465E-21         0.89217E-23         0.00000E+00
    0.00000E+00         0.25873E-21         0.00000E+00
    0.98956E-23         0.26961E-21         0.00000E+00
    0.19723E-22         0.29078E-21         0.00000E+00
   -0.15269E-22         0.28474E-21         0.00000E+00
   -0.27972E-23         0.27206E-21         0.00000E+00
   -0.12352E-22         0.31311E-21         0.00000E+00
   -0.82823E-23         0.34884E-21         0.00000E+00
    0.20362E-22         0.30364E-21         0.00000E+00
    0.74900E-22         0.27723E-21         0.00000E+00
    0.95301E-22         0.28882E-21         0.00000E+00
    0.73941E-22         0.29750E-21         0.00000E+00
    0.88680E-22         0.29995E-21         0.00000E+00
    0.92983E-22         0.28284E-21         0.00000E+00
    0.81595E-22         0.25955E-21         0.00000E+00
    0.10073E-21         0.22896E-21         0.00000E+00
    0.10171E-21         0.18635E-21         0.00000E+00
    0.13317E-21         0.14490E-21         0.00000E+00
    0.13557E-21         0.13762E-21         0.00000E+00
    0.12122E-21         0.12815E-21         0.00000E+00
    0.13454E-21         0.10411E-21         0.00000E+00
    0.13647E-21         0.80986E-22         0.00000E+00
    0.13693E-21         0.59362E-22         0.00000E+00
    0.14603E-21         0.41229E-22         0.00000E+00
    0.15115E-21         0.20522E-22         0.00000E+00
    0.15042E-21         0.91083E-23         0.00000E+00
    0.00000E+00         0.27308E-21         0.00000E+00
   -0.15549E-22         0.26063E-21         0.00000E+00
    0.93903E-23         0.28630E-21         0.00000E+00
    0.20165E-22         0.28773E-21         0.00000E+00
    0.45837E-23         0.28275E-21         0.00000E+00
   -0.89205E-23         0.31950E-21         0.00000E+00
    0.21006E-22         0.30574E-21         0.00000E+00
    0.71594E-22         0.25953E-21         0.00000E+00
    0.74657E-22         0.26211E-21         0.00000E+00
    0.72023E-22         0.29293E-21         0.00000E+00
    0.87300E-22         0.28586E-21         0.00000E+00
    0.10131E-21         0.28132E-21         0.00000E+00
    0.11081E-21         0.28776E-21         0.00000E+00
    0.11362E-21         0.26504E-21         0.00000E+00
    0.10631E-21         0.22976E-21         0.00000E+00
    0.10991E-21         0.17663E-21         0.00000E+00
    0.11363E-21         0.13595E-21         0.00000E+00
    0.10399E-21         0.13751E-21         0.00000E+00
    0.11345E-21         0.12177E-21         0.00000E+00
    0.11960E-21         0.99072E-22         0.00000E+00
    0.12345E-21         0.81087E-22         0.00000E+00
    0.12813E-21         0.58911E-22         0.00000E+00
    0.13060E-21         0.36582E-22         0.00000E+00
    0.13081E-21         0.18601E-22         0.00000E+00
    0.13113E-21         0.10386E-22         0.00000E+00
    0.00000E+00         0.28982E-21         0.00000E+00
    0.19177E-22         0.26022E-21         0.00000E+00
    0.53492E-23         0.25507E-21         0.00000E+00
    0.28573E-22         0.28954E-21         0.00000E+00
    0.61369E-23         0.30115E-21         0.00000E+00
    0.24881E-22         0.29669E-21         0.00000E+00
    0.53220E-22         0.26832E-21         0.00000E+00
    0.66315E-22         0.24999E-21         0.00000E+00
    0.45763E-22         0.27680E-21         0.00000E+00
    0.59928E-22         0.27618E-21         0.00000E+00
    0.67992E-22         0.26821E-21         0.00000E+00
    0.70182E-22         0.27644E-21         0.00000E+00
    0.86050E-22         0.27053E-21         0.00000E+00
    0.11254E-21         0.26405E-21         0.00000E+00
    0.11263E-21         0.23267E-21         0.00000E+00
    0.12165E-21         0.17904E-21         0.00000E+00
    0.99607E-22         0.15082E-21         0.00000E+00
    0.94245E-22         0.13780E-21         0.00000E+00
    0.97912E-22         0.11254E-21         0.00000E+00
    0.10102E-21         0.94118E-22         0.00000E+00
    0.10417E-21         0.72457E-22         0.00000E+00
    0.11442E-21         0.52211E-22         0.00000E+00
    0.11539E-21         0.38556E-22         0.00000E+00
    0.11391E-21         0.19992E-22         0.00000E+00
    0.11566E-21         0.84657E-23         0.00000E+00
    0.00000E+00         0.23473E-21         0.00000E+00
    0.19761E-22         0.25528E-21         0.00000E+00
   -0.78763E-23         0.27690E-21         0.00000E+00
   -0.36392E-25         0.28694E-21         0.00000E+00
    0.13776E-22         0.28644E-21         0.00000E+00
    0.27833E-22         0.27242E-21         0.00000E+00
    0.44145E-22         0.26430E-21         0.00000E+00
    0.44974E-22         0.26698E-21         0.00000E+00
    0.40721E-22         0.26849E-21         0.00000E+00
    0.60524E-22         0.27070E-21         0.00000E+00
    0.47469E-22         0.27560E-21         0.00000E+00
    0.55944E-22         0.26326E-21         0.00000E+00
    0.61673E-22         0.24540E-21         0.00000E+00
    0.82907E-22         0.23846E-21         0.00000E+00
    0.10353E-21         0.22064E-21         0.00000E+00
    0.10917E-21         0.18965E-21         0.00000E+00
    0.97886E-22         0.16336E-21         0.00000E+00
    0.10042E-21         0.13920E-21         0.00000E+00
    0.96910E-22         0.11499E-21         0.00000E+00
    0.95573E-22         0.92818E-22         0.00000E+00
    0.96589E-22         0.67687E-22         0.00000E+00
    0.98378E-22         0.47682E-22         0.00000E+00
    0.98793E-22         0.37095E-22         0.00000E+00
    0.10105E-21         0.18335E-22         0.00000E+00
    0.10064E-21         0.68816E-23         0.00000E+00
    0.00000E+00         0.25030E-21         0.00000E+00
   -0.36336E-22         0.26810E-21         0.00000E+00
   -0.20912E-22         0.27487E-21         0.00000E+00
   -0.17166E-23         0.26789E-21         0.00000E+00
    0.14717E-22         0.27328E-21         0.00000E+00
    0.25532E-22         0.26632E-21         0.00000E+00
    0.35881E-22         0.25118E-21         0.00000E+00
    0.34528E-22         0.25342E-21         0.00000E+00
    0.40003E-22         0.26126E-21         0.00000E+00
    0.45125E-22         0.26943E-21         0.00000E+00
    0.52564E-22         0.27279E-21         0.00000E+00
    0.61085E-22         0.26223E-21         0.00000E+00
    0.64515E-22         0.24357E-21         0.00000E+00
    0.68817E-22         0.22220E-21         0.00000E+00
    0.86328E-22         0.20640E-21         0.00000E+00
    0.91280E-22         0.18468E-21         0.00000E+00
    0.87156E-22         0.15958E-21         0.00000E+00
    0.80392E-22         0.13878E-21         0.00000E+00
    0.84680E-22         0.11739E-21         0.00000E+00
    0.85868E-22         0.94439E-22         0.00000E+00
    0.90064E-22         0.69651E-22         0.00000E+00
    0.86474E-22         0.50007E-22         0.00000E+00
    0.84990E-22         0.35886E-22         0.00000E+00
    0.86120E-22         0.18141E-22         0.00000E+00
    0.85430E-22         0.92768E-23         0.00000E+00
    0.00000E+00         0.30740E-21         0.00000E+00
   -0.23245E-22         0.27619E-21         0.00000E+00
    0.70958E-23         0.24228E-21         0.00000E+00
    0.12257E-22         0.25131E-21         0.00000E+00
    0.23958E-22         0.25919E-21         0.00000E+00
    0.45568E-22         0.25125E-21         0.00000E+00
    0.51763E-22         0.25531E-21         0.00000E+00
    0.35532E-22         0.26286E-21         0.00000E+00
    0.31625E-22         0.25790E-21         0.00000E+00
    0.31281E-22         0.25814E-21         0.00000E+00
    0.43693E-22         0.25964E-21         0.00000E+00
    0.52124E-22         0.25131E-21         0.00000E+00
    0.58387E-22         0.23767E-21         0.00000E+00
    0.61128E-22         0.21664E-21         0.00000E+00
    0.68657E-22         0.19818E-21         0.00000E+00
    0.75418E-22         0.18882E-21         0.00000E+00
    0.68103E-22         0.17425E-21         0.00000E+00
    0.60679E-22         0.14168E-21         0.00000E+00
    0.66808E-22         0.10952E-21         0.00000E+00
    0.70744E-22         0.87435E-22         0.00000E+00
    0.73841E-22         0.67081E-22         0.00000E+00
    0.71724E-22         0.52756E-22         0.00000E+00
    0.71697E-22         0.37449E-22         0.00000E+00
    0.70900E-22         0.17895E-22         0.00000E+00
    0.72150E-22         0.82614E-23         0.00000E+00
    0.00000E+00         0.29679E-21         0.00000E+00
    0.11874E-22         0.26100E-21         0.00000E+00
    0.13790E-22         0.23937E-21         0.00000E+00
    0.61498E-23         0.25103E-21         0.00000E+00
    0.17701E-22         0.23997E-21         0.00000E+00
    0.32882E-22         0.23852E-21         0.00000E+00
    0.42427E-22         0.26122E-21         0.00000E+00
    0.42939E-22         0.27355E-21         0.00000E+00
    0.38550E-22         0.26551E-21         0.00000E+00
    0.31931E-22         0.25736E-21         0.00000E+00
    0.29648E-22         0.25195E-21         0.00000E+00
    0.35262E-22         0.24754E-21         0.00000E+00
    0.32785E-22         0.23456E-21         0.00000E+00
    0.37457E-22         0.21193E-21         0.00000E+00
    0.40413E-22         0.19211E-21         0.00000E+00
    0.45615E-22         0.18523E-21         0.00000E+00
    0.48880E-22         0.17431E-21         0.00000E+00
    0.59601E-22         0.14007E-21         0.00000E+00
    0.57619E-22         0.10732E-21         0.00000E+00
    0.55435E-22         0.87406E-22         0.00000E+00
    0.53294E-22         0.68671E-22         0.00000E+00
    0.54753E-22         0.52150E-22         0.00000E+00
    0.55574E-22         0.36710E-22         0.00000E+00
    0.55739E-22         0.17688E-22         0.00000E+00
    0.55378E-22         0.67761E-23         0.00000E+00
    0.00000E+00         0.28365E-21         0.00000E+00
    0.91490E-23         0.26240E-21         0.00000E+00
   -0.68471E-23         0.24800E-21         0.00000E+00
   -0.82447E-23         0.24740E-21         0.00000E+00
   -0.47042E-23         0.23246E-21         0.00000E+00
    0.77187E-23         0.22653E-21         0.00000E+00
    0.23755E-22         0.24525E-21         0.00000E+00
    0.34742E-22         0.26674E-21         0.00000E+00
    0.32698E-22         0.26890E-21         0.00000E+00
    0.27478E-22         0.26704E-21         0.00000E+00
    0.23324E-22         0.25631E-21         0.00000E+00
    0.20993E-22         0.24817E-21         0.00000E+00
    0.22897E-22         0.23547E-21         0.00000E+00
    0.24904E-22         0.20902E-21         0.00000E+00
    0.22576E-22         0.19002E-21         0.00000E+00
    0.21980E-22         0.18035E-21         0.00000E+00
    0.32209E-22         0.16026E-21         0.00000E+00
    0.43928E-22         0.13294E-21         0.00000E+00
    0.42626E-22         0.11368E-21         0.00000E+00
    0.40136E-22         0.91760E-22         0.00000E+00
    0.39726E-22         0.67764E-22         0.00000E+00
    0.39134E-22         0.50476E-22         0.00000E+00
    0.37555E-22         0.36463E-22         0.00000E+00
    0.37508E-22         0.18091E-22         0.00000E+00
    0.36555E-22         0.89835E-23         0.00000E+00
    0.00000E+00         0.27849E-21         0.00000E+00
    0.10548E-23         0.26785E-21         0.00000E+00
   -0.35468E-23         0.25676E-21         0.00000E+00
   -0.81195E-23         0.24889E-21         0.00000E+00
   -0.13725E-22         0.22400E-21         0.00000E+00
    0.42623E-23         0.21006E-21         0.00000E+00
    0.11504E-22         0.23419E-21         0.00000E+00
    0.13328E-22         0.26461E-21         0.00000E+00
    0.16209E-22         0.27277E-21         0.00000E+00
    0.12537E-22         0.26674E-21         0.00000E+00
    0.17151E-22         0.25843E-21         0.00000E+00
    0.11882E-22         0.24797E-21         0.00000E+00
    0.16220E-22         0.23065E-21         0.00000E+00
    0.16503E-22         0.21225E-21         0.00000E+00
    0.13982E-22         0.19504E-21         0.00000E+00
    0.11485E-22         0.17560E-21         0.00000E+00
    0.21379E-22         0.15237E-21         0.00000E+00
    0.20651E-22         0.12966E-21         0.00000E+00
    0.20833E-22         0.11111E-21         0.00000E+00
    0.23262E-22         0.90307E-22         0.00000E+00
    0.24360E-22         0.69674E-22         0.00000E+00
    0.21648E-22         0.54321E-22         0.00000E+00
    0.19071E-22         0.38336E-22         0.00000E+00
    0.18614E-22         0.18688E-22         0.00000E+00
    0.19122E-22         0.86804E-23         0.00000E+00
    0.00000E+00         0.28154E-21         0.00000E+00
   -0.30504E-23         0.26595E-21         0.00000E+00
    0.37899E-23         0.25718E-21         0.00000E+00
   -0.38865E-23         0.25758E-21         0.00000E+00
   -0.13601E-22         0.22008E-21         0.00000E+00
    0.39577E-23         0.20130E-21         0.00000E+00
    0.39241E-23         0.23619E-21         0.00000E+00
   -0.25332E-25         0.26203E-21         0.00000E+00
    0.90769E-23         0.26969E-21         0.00000E+00
    0.61294E-23         0.26610E-21         0.00000E+00
    0.10360E-22         0.25697E-21         0.00000E+00
    0.90612E-23         0.24910E-21         0.00000E+00
    0.80907E-23         0.23085E-21         0.00000E+00
    0.86634E-23         0.21126E-21         0.00000E+00
    0.10073E-22         0.19504E-21         0.00000E+00
    0.86578E-23         0.17296E-21         0.00000E+00
    0.15363E-22         0.15110E-21         0.00000E+00
    0.11200E-22         0.13348E-21         0.00000E+00
    0.77096E-23         0.11107E-21         0.00000E+00
    0.11279E-22         0.88234E-22         0.00000E+00
    0.11855E-22         0.69377E-22         0.00000E+00
    0.11872E-22         0.55765E-22         0.00000E+00
    0.89670E-23         0.39497E-22         0.00000E+00
    0.95503E-23         0.18040E-22         0.00000E+00
    0.10263E-22         0.79676E-23         0.00000E+00
CELL_DATA       1152
TENSORS stressef double 
   -0.50391E+05         0.36730E+03         0.00000E+00
    0.36730E+03        -0.10022E+06         0.00000E+00
    0.00000E+00         0.00000E+00        -0.56226E+05
 
   -0.40546E+05         0.26486E+04         0.00000E+00
    0.26486E+04        -0.96900E+05         0.00000E+00
    0.00000E+00         0.00000E+00        -0.65782E+05
 
   -0.34885E+05         0.38063E+04         0.00000E+00
    0.38063E+04        -0.88952E+05         0.00000E+00
    0.00000E+00         0.00000E+00        -0.63209E+05
 
   -0.29645E+05         0.40509E+04         0.00000E+00
    0.40509E+04        -0.80509E+05         0.00000E+00
    0.00000E+00         0.00000E+00        -0.57496E+05
 
   -0.24761E+05         0.38935E+04         0.00000E+00
    0.38935E+04        -0.72692E+05         0.00000E+00
    0.00000E+00         0.00000E+00        -0.51282E+05
 
   -0.20330E+05         0.35934E+04         0.00000E+00
    0.35934E+04        -0.65568E+05         0.00000E+00
    0.00000E+00         0.00000E+00        -0.45219E+05
 
   -0.16348E+05         0.32081E+04         0.00000E+00
    0.32081E+04        -0.59151E+05         0.00000E+00
    0.00000E+00         0.00000E+00        -0.39561E+05
 
   -0.13259E+05         0.27880E+04         0.00000E+00
    0.27880E+04        -0.53412E+05         0.00000E+00
    0.00000E+00         0.00000E+00        -0.34605E+05
 
   -0.10653E+05         0.24213E+04         0.00000E+00
    0.24213E+04        -0.48357E+05         0.00000E+00
    0.00000E+00         0.00000E+00        -0.30293E+05
 
   -0.83767E+04         0.20929E+04         0.00000E+00
    0.20929E+04        -0.43954E+05         0.00000E+00
    0.00000E+00         0.00000E+00        -0.26573E+05
 
   -0.64942E+04         0.18174E+04         0.00000E+00
    0.18174E+04        -0.40076E+05         0.00000E+00
    0.00000E+00         0.00000E+00        -0.23398E+05
 
   -0.48386E+04         0.16290E+04         0.00000E+00
    0.16290E+04        -0.36660E+05         0.00000E+00
    0.00000E+00         0.00000E+00        -0.20596E+05
 
   -0.33193E+04         0.14654E+04         0.00000E+00
    0.14654E+04        -0.33629E+05         0.00000E+00
    0.00000E+00         0.00000E+00        -0.18044E+05
 
   -0.19102E+04         0.13215E+04         0.00000E+00
    0.13215E+04        -0.30891E+05         0.00000E+00
    0.00000E+00         0.00000E+00        -0.15675E+05
 
   -0.62664E+03         0.11691E+04         0.00000E+00
    0.11691E+04        -0.28436E+05         0.00000E+00
    0.00000E+00         0.00000E+00        -0.13468E+05
 
    0.38828E+03         0.10430E+04         0.00000E+00
    0.10430E+04        -0.26254E+05         0.00000E+00
    0.00000E+00         0.00000E+00        -0.11469E+05
 
    0.12312E+04         0.89577E+03         0.00000E+00
    0.89577E+03        -0.24359E+05         0.00000E+00
    0.00000E+00         0.00000E+00        -0.96121E+04
 
    0.19401E+04         0.79589E+03         0.00000E+00
    0.79589E+03        -0.22703E+05         0.00000E+00
    0.00000E+00         0.00000E+00        -0.79618E+04
 
    0.25345E+04         0.70734E+03         0.00000E+00
    0.70734E+03        -0.21226E+05         0.00000E+00
    0.00000E+00         0.00000E+00        -0.64142E+04
 
    0.27045E+04         0.63230E+03         0.00000E+00
    0.63230E+03        -0.19901E+05         0.00000E+00
    0.00000E+00         0.00000E+00        -0.52517E+04
 
    0.78899E+03         0.54023E+03         0.00000E+00
    0.54023E+03        -0.18737E+05         0.00000E+00
    0.00000E+00         0.00000E+00        -0.53843E+04
 
   -0.13049E+04         0.48390E+03         0.00000E+00
    0.48390E+03        -0.17720E+05         0.00000E+00
    0.00000E+00         0.00000E+00        -0.57075E+04
 
   -0.33711E+04         0.46006E+03         0.00000E+00
    0.46006E+03        -0.16781E+05         0.00000E+00
    0.00000E+00         0.00000E+00        -0.60456E+04
 
   -0.55070E+04         0.46042E+03         0.00000E+00
    0.46042E+03        -0.15865E+05         0.00000E+00
    0.00000E+00         0.00000E+00        -0.64115E+04
 
   -0.46905E+05         0.27391E+04         0.00000E+00
    0.27391E+04        -0.99614E+05         0.00000E+00
    0.00000E+00         0.00000E+00        -0.59029E+05
 
   -0.37182E+05         0.97166E+04         0.00000E+00
    0.97166E+04        -0.88863E+05         0.00000E+00
    0.00000E+00         0.00000E+00        -0.63738E+05
 
   -0.33484E+05         0.11696E+05         0.00000E+00
    0.11696E+05        -0.80360E+05         0.00000E+00
    0.00000E+00         0.00000E+00        -0.59430E+05
 
   -0.29650E+05         0.11870E+05         0.00000E+00
    0.11870E+05        -0.73326E+05         0.00000E+00
    0.00000E+00         0.00000E+00        -0.54320E+05
 
   -0.25346E+05         0.11185E+05         0.00000E+00
    0.11185E+05        -0.66651E+05         0.00000E+00
    0.00000E+00         0.00000E+00        -0.48714E+05
 
   -0.21103E+05         0.10180E+05         0.00000E+00
    0.10180E+05        -0.60606E+05         0.00000E+00
    0.00000E+00         0.00000E+00        -0.43217E+05
 
   -0.17293E+05         0.90435E+04         0.00000E+00
    0.90435E+04        -0.55212E+05         0.00000E+00
    0.00000E+00         0.00000E+00        -0.38134E+05
 
   -0.14047E+05         0.79392E+04         0.00000E+00
    0.79392E+04        -0.50454E+05         0.00000E+00
    0.00000E+00         0.00000E+00        -0.33598E+05
 
   -0.11359E+05         0.69290E+04         0.00000E+00
    0.69290E+04        -0.46145E+05         0.00000E+00
    0.00000E+00         0.00000E+00        -0.29593E+05
 
   -0.89791E+04         0.60580E+04         0.00000E+00
    0.60580E+04        -0.42208E+05         0.00000E+00
    0.00000E+00         0.00000E+00        -0.26015E+05
 
   -0.69214E+04         0.53488E+04         0.00000E+00
    0.53488E+04        -0.38725E+05         0.00000E+00
    0.00000E+00         0.00000E+00        -0.22876E+05
 
   -0.51691E+04         0.47850E+04         0.00000E+00
    0.47850E+04        -0.35551E+05         0.00000E+00
    0.00000E+00         0.00000E+00        -0.20117E+05
 
   -0.36323E+04         0.42983E+04         0.00000E+00
    0.42983E+04        -0.32658E+05         0.00000E+00
    0.00000E+00         0.00000E+00        -0.17626E+05
 
   -0.21938E+04         0.38774E+04         0.00000E+00
    0.38774E+04        -0.30101E+05         0.00000E+00
    0.00000E+00         0.00000E+00        -0.15307E+05
 
   -0.92462E+03         0.34478E+04         0.00000E+00
    0.34478E+04        -0.27827E+05         0.00000E+00
    0.00000E+00         0.00000E+00        -0.13185E+05
 
    0.11973E+03         0.30234E+04         0.00000E+00
    0.30234E+04        -0.25818E+05         0.00000E+00
    0.00000E+00         0.00000E+00        -0.11265E+05
 
    0.99390E+03         0.26574E+04         0.00000E+00
    0.26574E+04        -0.24029E+05         0.00000E+00
    0.00000E+00         0.00000E+00        -0.94461E+04
 
    0.17507E+04         0.23527E+04         0.00000E+00
    0.23527E+04        -0.22425E+05         0.00000E+00
    0.00000E+00         0.00000E+00        -0.78184E+04
 
    0.23768E+04         0.21001E+04         0.00000E+00
    0.21001E+04        -0.21004E+05         0.00000E+00
    0.00000E+00         0.00000E+00        -0.63129E+04
 
    0.25249E+04         0.18769E+04         0.00000E+00
    0.18769E+04        -0.19710E+05         0.00000E+00
    0.00000E+00         0.00000E+00        -0.52244E+04
 
    0.63689E+03         0.16069E+04         0.00000E+00
    0.16069E+04        -0.18585E+05         0.00000E+00
    0.00000E+00         0.00000E+00        -0.53845E+04
 
   -0.13809E+04         0.14443E+04         0.00000E+00
    0.14443E+04        -0.17587E+05         0.00000E+00
    0.00000E+00         0.00000E+00        -0.56904E+04
 
   -0.33933E+04         0.13733E+04         0.00000E+00
    0.13733E+04        -0.16662E+05         0.00000E+00
    0.00000E+00         0.00000E+00        -0.60165E+04
 
   -0.54856E+04         0.13738E+04         0.00000E+00
    0.13738E+04        -0.15760E+05         0.00000E+00
    0.00000E+00         0.00000E+00        -0.63738E+04
 
   -0.34308E+05         0.16166E+05         0.00000E+00
    0.16166E+05        -0.75384E+05         0.00000E+00
    0.00000E+00         0.00000E+00        -0.55713E+05
 
   -0.33389E+05         0.18376E+05         0.00000E+00
    0.18376E+05        -0.64371E+05         0.00000E+00
    0.00000E+00         0.00000E+00        -0.52842E+05
 
   -0.33536E+05         0.18913E+05         0.00000E+00
    0.18913E+05        -0.61966E+05         0.00000E+00
    0.00000E+00         0.00000E+00        -0.51523E+05
 
   -0.30579E+05         0.17942E+05         0.00000E+00
    0.17942E+05        -0.58431E+05         0.00000E+00
    0.00000E+00         0.00000E+00        -0.47919E+05
 
   -0.26760E+05         0.16566E+05         0.00000E+00
    0.16566E+05        -0.55017E+05         0.00000E+00
    0.00000E+00         0.00000E+00        -0.43895E+05
 
   -0.22640E+05         0.14973E+05         0.00000E+00
    0.14973E+05        -0.51500E+05         0.00000E+00
    0.00000E+00         0.00000E+00        -0.39628E+05
 
   -0.18792E+05         0.13368E+05         0.00000E+00
    0.13368E+05        -0.48055E+05         0.00000E+00
    0.00000E+00         0.00000E+00        -0.35481E+05
 
   -0.15435E+05         0.11880E+05         0.00000E+00
    0.11880E+05        -0.44737E+05         0.00000E+00
    0.00000E+00         0.00000E+00        -0.31594E+05
 
   -0.12522E+05         0.10622E+05         0.00000E+00
    0.10622E+05        -0.41612E+05         0.00000E+00
    0.00000E+00         0.00000E+00        -0.28020E+05
 
   -0.99566E+04         0.94652E+04         0.00000E+00
    0.94652E+04        -0.38612E+05         0.00000E+00
    0.00000E+00         0.00000E+00        -0.24768E+05
 
   -0.77452E+04         0.84419E+04         0.00000E+00
    0.84419E+04        -0.35718E+05         0.00000E+00
    0.00000E+00         0.00000E+00        -0.21794E+05
 
   -0.58439E+04         0.75695E+04         0.00000E+00
    0.75695E+04        -0.33140E+05         0.00000E+00
    0.00000E+00         0.00000E+00        -0.19138E+05
 
   -0.42040E+04         0.68304E+04         0.00000E+00
    0.68304E+04        -0.30829E+05         0.00000E+00
    0.00000E+00         0.00000E+00        -0.16768E+05
 
   -0.27501E+04         0.61366E+04         0.00000E+00
    0.61366E+04        -0.28684E+05         0.00000E+00
    0.00000E+00         0.00000E+00        -0.14613E+05
 
   -0.14931E+04         0.54808E+04         0.00000E+00
    0.54808E+04        -0.26720E+05         0.00000E+00
    0.00000E+00         0.00000E+00        -0.12623E+05
 
   -0.38869E+03         0.48451E+04         0.00000E+00
    0.48451E+04        -0.24951E+05         0.00000E+00
    0.00000E+00         0.00000E+00        -0.10746E+05
 
    0.57353E+03         0.42774E+04         0.00000E+00
    0.42774E+04        -0.23346E+05         0.00000E+00
    0.00000E+00         0.00000E+00        -0.90464E+04
 
    0.13887E+04         0.38061E+04         0.00000E+00
    0.38061E+04        -0.21894E+05         0.00000E+00
    0.00000E+00         0.00000E+00        -0.75201E+04
 
    0.20778E+04         0.34279E+04         0.00000E+00
    0.34279E+04        -0.20566E+05         0.00000E+00
    0.00000E+00         0.00000E+00        -0.61163E+04
 
    0.21726E+04         0.30632E+04         0.00000E+00
    0.30632E+04        -0.19352E+05         0.00000E+00
    0.00000E+00         0.00000E+00        -0.51739E+04
 
    0.34950E+03         0.26406E+04         0.00000E+00
    0.26406E+04        -0.18272E+05         0.00000E+00
    0.00000E+00         0.00000E+00        -0.53767E+04
 
   -0.15292E+04         0.23831E+04         0.00000E+00
    0.23831E+04        -0.17308E+05         0.00000E+00
    0.00000E+00         0.00000E+00        -0.56512E+04
 
   -0.34392E+04         0.22644E+04         0.00000E+00
    0.22644E+04        -0.16414E+05         0.00000E+00
    0.00000E+00         0.00000E+00        -0.59559E+04
 
   -0.54425E+04         0.22634E+04         0.00000E+00
    0.22634E+04        -0.15545E+05         0.00000E+00
    0.00000E+00         0.00000E+00        -0.62962E+04
 
   -0.13667E+05         0.14261E+05         0.00000E+00
    0.14261E+05        -0.27519E+05         0.00000E+00
    0.00000E+00         0.00000E+00        -0.24696E+05
 
   -0.33315E+05         0.19993E+05         0.00000E+00
    0.19993E+05        -0.37879E+05         0.00000E+00
    0.00000E+00         0.00000E+00        -0.41094E+05
 
   -0.33834E+05         0.19630E+05         0.00000E+00
    0.19630E+05        -0.37797E+05         0.00000E+00
    0.00000E+00         0.00000E+00        -0.40565E+05
 
   -0.31843E+05         0.19156E+05         0.00000E+00
    0.19156E+05        -0.38809E+05         0.00000E+00
    0.00000E+00         0.00000E+00        -0.39546E+05
 
   -0.28267E+05         0.18222E+05         0.00000E+00
    0.18222E+05        -0.38968E+05         0.00000E+00
    0.00000E+00         0.00000E+00        -0.37283E+05
 
   -0.24305E+05         0.17046E+05         0.00000E+00
    0.17046E+05        -0.38593E+05         0.00000E+00
    0.00000E+00         0.00000E+00        -0.34534E+05
 
   -0.20436E+05         0.15706E+05         0.00000E+00
    0.15706E+05        -0.37658E+05         0.00000E+00
    0.00000E+00         0.00000E+00        -0.31522E+05
 
   -0.16926E+05         0.14338E+05         0.00000E+00
    0.14338E+05        -0.36332E+05         0.00000E+00
    0.00000E+00         0.00000E+00        -0.28473E+05
 
   -0.13889E+05         0.13037E+05         0.00000E+00
    0.13037E+05        -0.34814E+05         0.00000E+00
    0.00000E+00         0.00000E+00        -0.25514E+05
 
   -0.11146E+05         0.11875E+05         0.00000E+00
    0.11875E+05        -0.33248E+05         0.00000E+00
    0.00000E+00         0.00000E+00        -0.22674E+05
 
   -0.87931E+04         0.10766E+05         0.00000E+00
    0.10766E+05        -0.31607E+05         0.00000E+00
    0.00000E+00         0.00000E+00        -0.20065E+05
 
   -0.67725E+04         0.96977E+04         0.00000E+00
    0.96977E+04        -0.29870E+05         0.00000E+00
    0.00000E+00         0.00000E+00        -0.17688E+05
 
   -0.50155E+04         0.87620E+04         0.00000E+00
    0.87620E+04        -0.28192E+05         0.00000E+00
    0.00000E+00         0.00000E+00        -0.15537E+05
 
   -0.35112E+04         0.79189E+04         0.00000E+00
    0.79189E+04        -0.26640E+05         0.00000E+00
    0.00000E+00         0.00000E+00        -0.13603E+05
 
   -0.22066E+04         0.71244E+04         0.00000E+00
    0.71244E+04        -0.25200E+05         0.00000E+00
    0.00000E+00         0.00000E+00        -0.11804E+05
 
   -0.10641E+04         0.63871E+04         0.00000E+00
    0.63871E+04        -0.23832E+05         0.00000E+00
    0.00000E+00         0.00000E+00        -0.10128E+05
 
   -0.26000E+02         0.57347E+04         0.00000E+00
    0.57347E+04        -0.22452E+05         0.00000E+00
    0.00000E+00         0.00000E+00        -0.85749E+04
 
    0.91722E+03         0.51302E+04         0.00000E+00
    0.51302E+04        -0.21118E+05         0.00000E+00
    0.00000E+00         0.00000E+00        -0.71372E+04
 
    0.17001E+04         0.46607E+04         0.00000E+00
    0.46607E+04        -0.19885E+05         0.00000E+00
    0.00000E+00         0.00000E+00        -0.58498E+04
 
    0.16256E+04         0.41619E+04         0.00000E+00
    0.41619E+04        -0.18763E+05         0.00000E+00
    0.00000E+00         0.00000E+00        -0.51412E+04
 
   -0.43840E+02         0.36219E+04         0.00000E+00
    0.36219E+04        -0.17765E+05         0.00000E+00
    0.00000E+00         0.00000E+00        -0.53427E+04
 
   -0.17473E+04         0.32798E+04         0.00000E+00
    0.32798E+04        -0.16863E+05         0.00000E+00
    0.00000E+00         0.00000E+00        -0.55830E+04
 
   -0.35104E+04         0.31135E+04         0.00000E+00
    0.31135E+04        -0.16023E+05         0.00000E+00
    0.00000E+00         0.00000E+00        -0.58602E+04
 
   -0.53774E+04         0.31096E+04         0.00000E+00
    0.31096E+04        -0.15209E+05         0.00000E+00
    0.00000E+00         0.00000E+00        -0.61759E+04
 
   -0.53469E+04         0.32349E+04         0.00000E+00
    0.32349E+04         0.36723E+04         0.00000E+00
    0.00000E+00         0.00000E+00         0.23212E+03
 
   -0.27103E+05         0.11085E+05         0.00000E+00
    0.11085E+05        -0.97059E+04         0.00000E+00
    0.00000E+00         0.00000E+00        -0.19807E+05
 
   -0.32124E+05         0.14176E+05         0.00000E+00
    0.14176E+05        -0.17695E+05         0.00000E+00
    0.00000E+00         0.00000E+00        -0.27674E+05
 
   -0.30963E+05         0.15562E+05         0.00000E+00
    0.15562E+05        -0.21987E+05         0.00000E+00
    0.00000E+00         0.00000E+00        -0.29206E+05
 
   -0.28342E+05         0.16162E+05         0.00000E+00
    0.16162E+05        -0.24972E+05         0.00000E+00
    0.00000E+00         0.00000E+00        -0.29112E+05
 
   -0.24962E+05         0.16103E+05         0.00000E+00
    0.16103E+05        -0.26821E+05         0.00000E+00
    0.00000E+00         0.00000E+00        -0.27933E+05
 
   -0.21430E+05         0.15590E+05         0.00000E+00
    0.15590E+05        -0.27861E+05         0.00000E+00
    0.00000E+00         0.00000E+00        -0.26198E+05
 
   -0.18058E+05         0.14789E+05         0.00000E+00
    0.14789E+05        -0.28262E+05         0.00000E+00
    0.00000E+00         0.00000E+00        -0.24178E+05
 
   -0.15009E+05         0.13853E+05         0.00000E+00
    0.13853E+05        -0.28171E+05         0.00000E+00
    0.00000E+00         0.00000E+00        -0.22050E+05
 
   -0.12272E+05         0.12870E+05         0.00000E+00
    0.12870E+05        -0.27744E+05         0.00000E+00
    0.00000E+00         0.00000E+00        -0.19909E+05
 
   -0.98618E+04         0.11908E+05         0.00000E+00
    0.11908E+05        -0.27142E+05         0.00000E+00
    0.00000E+00         0.00000E+00        -0.17841E+05
 
   -0.77535E+04         0.10979E+05         0.00000E+00
    0.10979E+05        -0.26368E+05         0.00000E+00
    0.00000E+00         0.00000E+00        -0.15892E+05
 
   -0.59144E+04         0.10067E+05         0.00000E+00
    0.10067E+05        -0.25391E+05         0.00000E+00
    0.00000E+00         0.00000E+00        -0.14077E+05
 
   -0.43694E+04         0.91818E+04         0.00000E+00
    0.91818E+04        -0.24354E+05         0.00000E+00
    0.00000E+00         0.00000E+00        -0.12417E+05
 
   -0.29850E+04         0.83396E+04         0.00000E+00
    0.83396E+04        -0.23314E+05         0.00000E+00
    0.00000E+00         0.00000E+00        -0.10870E+05
 
   -0.17770E+04         0.76113E+04         0.00000E+00
    0.76113E+04        -0.22205E+05         0.00000E+00
    0.00000E+00         0.00000E+00        -0.94383E+04
 
   -0.69009E+03         0.69418E+04         0.00000E+00
    0.69418E+04        -0.21129E+05         0.00000E+00
    0.00000E+00         0.00000E+00        -0.80770E+04
 
    0.34342E+03         0.63231E+04         0.00000E+00
    0.63231E+04        -0.20069E+05         0.00000E+00
    0.00000E+00         0.00000E+00        -0.67235E+04
 
    0.12771E+04         0.57860E+04         0.00000E+00
    0.57860E+04        -0.18954E+05         0.00000E+00
    0.00000E+00         0.00000E+00        -0.55141E+04
 
    0.91327E+03         0.51595E+04         0.00000E+00
    0.51595E+04        -0.17920E+05         0.00000E+00
    0.00000E+00         0.00000E+00        -0.51021E+04
 
   -0.52612E+03         0.45179E+04         0.00000E+00
    0.45179E+04        -0.17043E+05         0.00000E+00
    0.00000E+00         0.00000E+00        -0.52707E+04
 
   -0.20290E+04         0.41035E+04         0.00000E+00
    0.41035E+04        -0.16239E+05         0.00000E+00
    0.00000E+00         0.00000E+00        -0.54804E+04
 
   -0.36066E+04         0.38952E+04         0.00000E+00
    0.38952E+04        -0.15486E+05         0.00000E+00
    0.00000E+00         0.00000E+00        -0.57277E+04
 
   -0.52900E+04         0.38895E+04         0.00000E+00
    0.38895E+04        -0.14750E+05         0.00000E+00
    0.00000E+00         0.00000E+00        -0.60120E+04
 
    0.33639E+03        -0.11882E+04         0.00000E+00
   -0.11882E+04        -0.16838E+04         0.00000E+00
    0.00000E+00         0.00000E+00        -0.16420E+03
 
   -0.24262E+05         0.58099E+04         0.00000E+00
    0.58099E+04        -0.31118E+04         0.00000E+00
    0.00000E+00         0.00000E+00        -0.10025E+05
 
   -0.28863E+05         0.95685E+04         0.00000E+00
    0.95685E+04        -0.92097E+04         0.00000E+00
    0.00000E+00         0.00000E+00        -0.18316E+05
 
   -0.29153E+05         0.11881E+05         0.00000E+00
    0.11881E+05        -0.13479E+05         0.00000E+00
    0.00000E+00         0.00000E+00        -0.21768E+05
 
   -0.27273E+05         0.13319E+05         0.00000E+00
    0.13319E+05        -0.16587E+05         0.00000E+00
    0.00000E+00         0.00000E+00        -0.22791E+05
 
   -0.24636E+05         0.14068E+05         0.00000E+00
    0.14068E+05        -0.18911E+05         0.00000E+00
    0.00000E+00         0.00000E+00        -0.22591E+05
 
   -0.21632E+05         0.14282E+05         0.00000E+00
    0.14282E+05        -0.20587E+05         0.00000E+00
    0.00000E+00         0.00000E+00        -0.21711E+05
 
   -0.18606E+05         0.14091E+05         0.00000E+00
    0.14091E+05        -0.21700E+05         0.00000E+00
    0.00000E+00         0.00000E+00        -0.20427E+05
 
   -0.15747E+05         0.13634E+05         0.00000E+00
    0.13634E+05        -0.22353E+05         0.00000E+00
    0.00000E+00         0.00000E+00        -0.18938E+05
 
   -0.13116E+05         0.13006E+05         0.00000E+00
    0.13006E+05        -0.22633E+05         0.00000E+00
    0.00000E+00         0.00000E+00        -0.17346E+05
 
   -0.10738E+05         0.12268E+05         0.00000E+00
    0.12268E+05        -0.22615E+05         0.00000E+00
    0.00000E+00         0.00000E+00        -0.15732E+05
 
   -0.86043E+04         0.11540E+05         0.00000E+00
    0.11540E+05        -0.22382E+05         0.00000E+00
    0.00000E+00         0.00000E+00        -0.14132E+05
 
   -0.67729E+04         0.10766E+05         0.00000E+00
    0.10766E+05        -0.22038E+05         0.00000E+00
    0.00000E+00         0.00000E+00        -0.12647E+05
 
   -0.51816E+04         0.99913E+04         0.00000E+00
    0.99913E+04        -0.21522E+05         0.00000E+00
    0.00000E+00         0.00000E+00        -0.11256E+05
 
   -0.37702E+04         0.92553E+04         0.00000E+00
    0.92553E+04        -0.20804E+05         0.00000E+00
    0.00000E+00         0.00000E+00        -0.99528E+04
 
   -0.24763E+04         0.85359E+04         0.00000E+00
    0.85359E+04        -0.20024E+05         0.00000E+00
    0.00000E+00         0.00000E+00        -0.86863E+04
 
   -0.13432E+04         0.78591E+04         0.00000E+00
    0.78591E+04        -0.19230E+05         0.00000E+00
    0.00000E+00         0.00000E+00        -0.74664E+04
 
   -0.22848E+03         0.72841E+04         0.00000E+00
    0.72841E+04        -0.18419E+05         0.00000E+00
    0.00000E+00         0.00000E+00        -0.62236E+04
 
    0.76161E+03         0.67704E+04         0.00000E+00
    0.67704E+04        -0.17586E+05         0.00000E+00
    0.00000E+00         0.00000E+00        -0.51440E+04
 
    0.94004E+02         0.59908E+04         0.00000E+00
    0.59908E+04        -0.16813E+05         0.00000E+00
    0.00000E+00         0.00000E+00        -0.50157E+04
 
   -0.10801E+04         0.52840E+04         0.00000E+00
    0.52840E+04        -0.16111E+05         0.00000E+00
    0.00000E+00         0.00000E+00        -0.51572E+04
 
   -0.23610E+04         0.48173E+04         0.00000E+00
    0.48173E+04        -0.15450E+05         0.00000E+00
    0.00000E+00         0.00000E+00        -0.53432E+04
 
   -0.37207E+04         0.45829E+04         0.00000E+00
    0.45829E+04        -0.14812E+05         0.00000E+00
    0.00000E+00         0.00000E+00        -0.55597E+04
 
   -0.51809E+04         0.45806E+04         0.00000E+00
    0.45806E+04        -0.14178E+05         0.00000E+00
    0.00000E+00         0.00000E+00        -0.58075E+04
 
    0.94886E+03        -0.17039E+04         0.00000E+00
   -0.17039E+04         0.49000E+02         0.00000E+00
    0.00000E+00         0.00000E+00         0.35061E+03
 
   -0.18633E+05         0.80513E+03         0.00000E+00
    0.80513E+03        -0.13738E+04         0.00000E+00
    0.00000E+00         0.00000E+00        -0.60021E+04
 
   -0.26652E+05         0.61350E+04         0.00000E+00
    0.61350E+04        -0.49879E+04         0.00000E+00
    0.00000E+00         0.00000E+00        -0.12163E+05
 
   -0.26866E+05         0.88909E+04         0.00000E+00
    0.88909E+04        -0.83077E+04         0.00000E+00
    0.00000E+00         0.00000E+00        -0.15722E+05
 
   -0.25819E+05         0.10756E+05         0.00000E+00
    0.10756E+05        -0.11200E+05         0.00000E+00
    0.00000E+00         0.00000E+00        -0.17432E+05
 
   -0.23743E+05         0.12012E+05         0.00000E+00
    0.12012E+05        -0.13532E+05         0.00000E+00
    0.00000E+00         0.00000E+00        -0.17925E+05
 
   -0.21274E+05         0.12691E+05         0.00000E+00
    0.12691E+05        -0.15312E+05         0.00000E+00
    0.00000E+00         0.00000E+00        -0.17677E+05
 
   -0.18639E+05         0.12948E+05         0.00000E+00
    0.12948E+05        -0.16671E+05         0.00000E+00
    0.00000E+00         0.00000E+00        -0.16960E+05
 
   -0.16062E+05         0.12881E+05         0.00000E+00
    0.12881E+05        -0.17656E+05         0.00000E+00
    0.00000E+00         0.00000E+00        -0.15976E+05
 
   -0.13629E+05         0.12588E+05         0.00000E+00
    0.12588E+05        -0.18329E+05         0.00000E+00
    0.00000E+00         0.00000E+00        -0.14829E+05
 
   -0.11342E+05         0.12166E+05         0.00000E+00
    0.12166E+05        -0.18723E+05         0.00000E+00
    0.00000E+00         0.00000E+00        -0.13573E+05
 
   -0.92757E+04         0.11624E+05         0.00000E+00
    0.11624E+05        -0.18892E+05         0.00000E+00
    0.00000E+00         0.00000E+00        -0.12303E+05
 
   -0.74748E+04         0.11037E+05         0.00000E+00
    0.11037E+05        -0.18828E+05         0.00000E+00
    0.00000E+00         0.00000E+00        -0.11097E+05
 
   -0.58745E+04         0.10419E+05         0.00000E+00
    0.10419E+05        -0.18585E+05         0.00000E+00
    0.00000E+00         0.00000E+00        -0.99498E+04
 
   -0.44468E+04         0.97933E+04         0.00000E+00
    0.97933E+04        -0.18255E+05         0.00000E+00
    0.00000E+00         0.00000E+00        -0.88637E+04
 
   -0.31403E+04         0.91719E+04         0.00000E+00
    0.91719E+04        -0.17824E+05         0.00000E+00
    0.00000E+00         0.00000E+00        -0.77694E+04
 
   -0.19320E+04         0.85745E+04         0.00000E+00
    0.85745E+04        -0.17271E+05         0.00000E+00
    0.00000E+00         0.00000E+00        -0.66786E+04
 
   -0.77438E+03         0.80332E+04         0.00000E+00
    0.80332E+04        -0.16616E+05         0.00000E+00
    0.00000E+00         0.00000E+00        -0.56677E+04
 
    0.49807E+02         0.74566E+04         0.00000E+00
    0.74566E+04        -0.15971E+05         0.00000E+00
    0.00000E+00         0.00000E+00        -0.48140E+04
 
   -0.71328E+03         0.65799E+04         0.00000E+00
    0.65799E+04        -0.15497E+05         0.00000E+00
    0.00000E+00         0.00000E+00        -0.48631E+04
 
   -0.16787E+04         0.58665E+04         0.00000E+00
    0.58665E+04        -0.15029E+05         0.00000E+00
    0.00000E+00         0.00000E+00        -0.50124E+04
 
   -0.27151E+04         0.53907E+04         0.00000E+00
    0.53907E+04        -0.14538E+05         0.00000E+00
    0.00000E+00         0.00000E+00        -0.51760E+04
 
   -0.38388E+04         0.51553E+04         0.00000E+00
    0.51553E+04        -0.14034E+05         0.00000E+00
    0.00000E+00         0.00000E+00        -0.53619E+04
 
   -0.50506E+04         0.51650E+04         0.00000E+00
    0.51650E+04        -0.13515E+05         0.00000E+00
    0.00000E+00         0.00000E+00        -0.55698E+04
 
   -0.85879E+03        -0.17690E+04         0.00000E+00
   -0.17690E+04        -0.28083E+02         0.00000E+00
    0.00000E+00         0.00000E+00        -0.26606E+03
 
   -0.14035E+05        -0.11455E+04         0.00000E+00
   -0.11455E+04        -0.32864E+03         0.00000E+00
    0.00000E+00         0.00000E+00        -0.43091E+04
 
   -0.23208E+05         0.29835E+04         0.00000E+00
    0.29835E+04        -0.14805E+04         0.00000E+00
    0.00000E+00         0.00000E+00        -0.76369E+04
 
   -0.24778E+05         0.62787E+04         0.00000E+00
    0.62787E+04        -0.46971E+04         0.00000E+00
    0.00000E+00         0.00000E+00        -0.11370E+05
 
   -0.24089E+05         0.84507E+04         0.00000E+00
    0.84507E+04        -0.71061E+04         0.00000E+00
    0.00000E+00         0.00000E+00        -0.13210E+05
 
   -0.22523E+05         0.10024E+05         0.00000E+00
    0.10024E+05        -0.92865E+04         0.00000E+00
    0.00000E+00         0.00000E+00        -0.13934E+05
 
   -0.20561E+05         0.11079E+05         0.00000E+00
    0.11079E+05        -0.11179E+05         0.00000E+00
    0.00000E+00         0.00000E+00        -0.14109E+05
 
   -0.18317E+05         0.11676E+05         0.00000E+00
    0.11676E+05        -0.12665E+05         0.00000E+00
    0.00000E+00         0.00000E+00        -0.13789E+05
 
   -0.16049E+05         0.11923E+05         0.00000E+00
    0.11923E+05        -0.13809E+05         0.00000E+00
    0.00000E+00         0.00000E+00        -0.13195E+05
 
   -0.13819E+05         0.11917E+05         0.00000E+00
    0.11917E+05        -0.14651E+05         0.00000E+00
    0.00000E+00         0.00000E+00        -0.12395E+05
 
   -0.11692E+05         0.11738E+05         0.00000E+00
    0.11738E+05        -0.15235E+05         0.00000E+00
    0.00000E+00         0.00000E+00        -0.11466E+05
 
   -0.97379E+04         0.11432E+05         0.00000E+00
    0.11432E+05        -0.15589E+05         0.00000E+00
    0.00000E+00         0.00000E+00        -0.10482E+05
 
   -0.79966E+04         0.11021E+05         0.00000E+00
    0.11021E+05        -0.15783E+05         0.00000E+00
    0.00000E+00         0.00000E+00        -0.95297E+04
 
   -0.64293E+04         0.10558E+05         0.00000E+00
    0.10558E+05        -0.15833E+05         0.00000E+00
    0.00000E+00         0.00000E+00        -0.86046E+04
 
   -0.50032E+04         0.10065E+05         0.00000E+00
    0.10065E+05        -0.15714E+05         0.00000E+00
    0.00000E+00         0.00000E+00        -0.76959E+04
 
   -0.37032E+04         0.95621E+04         0.00000E+00
    0.95621E+04        -0.15459E+05         0.00000E+00
    0.00000E+00         0.00000E+00        -0.68247E+04
 
   -0.24583E+04         0.90654E+04         0.00000E+00
    0.90654E+04        -0.15114E+05         0.00000E+00
    0.00000E+00         0.00000E+00        -0.59392E+04
 
   -0.12849E+04         0.85754E+04         0.00000E+00
    0.85754E+04        -0.14687E+05         0.00000E+00
    0.00000E+00         0.00000E+00        -0.50593E+04
 
   -0.83313E+03         0.78527E+04         0.00000E+00
    0.78527E+04        -0.14352E+05         0.00000E+00
    0.00000E+00         0.00000E+00        -0.45556E+04
 
   -0.15300E+04         0.69179E+04         0.00000E+00
    0.69179E+04        -0.14162E+05         0.00000E+00
    0.00000E+00         0.00000E+00        -0.47076E+04
 
   -0.22529E+04         0.62514E+04         0.00000E+00
    0.62514E+04        -0.13896E+05         0.00000E+00
    0.00000E+00         0.00000E+00        -0.48446E+04
 
   -0.30572E+04         0.58140E+04         0.00000E+00
    0.58140E+04        -0.13569E+05         0.00000E+00
    0.00000E+00         0.00000E+00        -0.49877E+04
 
   -0.39429E+04         0.56042E+04         0.00000E+00
    0.56042E+04        -0.13197E+05         0.00000E+00
    0.00000E+00         0.00000E+00        -0.51419E+04
 
   -0.49005E+04         0.56343E+04         0.00000E+00
    0.56343E+04        -0.12796E+05         0.00000E+00
    0.00000E+00         0.00000E+00        -0.53089E+04
 
   -0.28933E+04        -0.15202E+04         0.00000E+00
   -0.15202E+04         0.15846E+03         0.00000E+00
    0.00000E+00         0.00000E+00        -0.82044E+03
 
   -0.11935E+05        -0.16427E+04         0.00000E+00
   -0.16427E+04         0.28788E+03         0.00000E+00
    0.00000E+00         0.00000E+00        -0.34942E+04
 
   -0.19235E+05         0.78366E+03         0.00000E+00
    0.78366E+03        -0.66784E+03         0.00000E+00
    0.00000E+00         0.00000E+00        -0.59710E+04
 
   -0.22452E+05         0.41344E+04         0.00000E+00
    0.41344E+04        -0.20292E+04         0.00000E+00
    0.00000E+00         0.00000E+00        -0.80266E+04
 
   -0.22272E+05         0.65008E+04         0.00000E+00
    0.65008E+04        -0.41139E+04         0.00000E+00
    0.00000E+00         0.00000E+00        -0.99064E+04
 
   -0.21132E+05         0.82004E+04         0.00000E+00
    0.82004E+04        -0.59006E+04         0.00000E+00
    0.00000E+00         0.00000E+00        -0.10847E+05
 
   -0.19582E+05         0.94568E+04         0.00000E+00
    0.94568E+04        -0.75618E+04         0.00000E+00
    0.00000E+00         0.00000E+00        -0.11158E+05
 
   -0.17718E+05         0.10347E+05         0.00000E+00
    0.10347E+05        -0.90534E+04         0.00000E+00
    0.00000E+00         0.00000E+00        -0.11095E+05
 
   -0.15778E+05         0.10864E+05         0.00000E+00
    0.10864E+05        -0.10293E+05         0.00000E+00
    0.00000E+00         0.00000E+00        -0.10763E+05
 
   -0.13763E+05         0.11108E+05         0.00000E+00
    0.11108E+05        -0.11265E+05         0.00000E+00
    0.00000E+00         0.00000E+00        -0.10221E+05
 
   -0.11810E+05         0.11158E+05         0.00000E+00
    0.11158E+05        -0.12011E+05         0.00000E+00
    0.00000E+00         0.00000E+00        -0.95412E+04
 
   -0.99983E+04         0.11044E+05         0.00000E+00
    0.11044E+05        -0.12561E+05         0.00000E+00
    0.00000E+00         0.00000E+00        -0.88017E+04
 
   -0.83532E+04         0.10809E+05         0.00000E+00
    0.10809E+05        -0.12920E+05         0.00000E+00
    0.00000E+00         0.00000E+00        -0.80669E+04
 
   -0.68353E+04         0.10502E+05         0.00000E+00
    0.10502E+05        -0.13103E+05         0.00000E+00
    0.00000E+00         0.00000E+00        -0.73334E+04
 
   -0.54348E+04         0.10142E+05         0.00000E+00
    0.10142E+05        -0.13176E+05         0.00000E+00
    0.00000E+00         0.00000E+00        -0.65981E+04
 
   -0.41538E+04         0.97446E+04         0.00000E+00
    0.97446E+04        -0.13151E+05         0.00000E+00
    0.00000E+00         0.00000E+00        -0.58851E+04
 
   -0.29116E+04         0.93335E+04         0.00000E+00
    0.93335E+04        -0.12983E+05         0.00000E+00
    0.00000E+00         0.00000E+00        -0.51328E+04
 
   -0.18341E+04         0.88775E+04         0.00000E+00
    0.88775E+04        -0.12817E+05         0.00000E+00
    0.00000E+00         0.00000E+00        -0.44384E+04
 
   -0.18899E+04         0.78617E+04         0.00000E+00
    0.78617E+04        -0.12913E+05         0.00000E+00
    0.00000E+00         0.00000E+00        -0.44409E+04
 
   -0.22673E+04         0.70549E+04         0.00000E+00
    0.70549E+04        -0.12911E+05         0.00000E+00
    0.00000E+00         0.00000E+00        -0.45536E+04
 
   -0.27675E+04         0.64762E+04         0.00000E+00
    0.64762E+04        -0.12796E+05         0.00000E+00
    0.00000E+00         0.00000E+00        -0.46691E+04
 
   -0.33558E+04         0.61020E+04         0.00000E+00
    0.61020E+04        -0.12599E+05         0.00000E+00
    0.00000E+00         0.00000E+00        -0.47864E+04
 
   -0.40186E+04         0.59351E+04         0.00000E+00
    0.59351E+04        -0.12344E+05         0.00000E+00
    0.00000E+00         0.00000E+00        -0.49087E+04
 
   -0.47333E+04         0.59900E+04         0.00000E+00
    0.59900E+04        -0.12053E+05         0.00000E+00
    0.00000E+00         0.00000E+00        -0.50359E+04
 
   -0.47269E+04        -0.11862E+04         0.00000E+00
   -0.11862E+04         0.14245E+03         0.00000E+00
    0.00000E+00         0.00000E+00        -0.13753E+04
 
   -0.11047E+05        -0.16568E+04         0.00000E+00
   -0.16568E+04         0.43173E+03         0.00000E+00
    0.00000E+00         0.00000E+00        -0.31847E+04
 
   -0.16292E+05        -0.95858E+02         0.00000E+00
   -0.95858E+02         0.34137E+03         0.00000E+00
    0.00000E+00         0.00000E+00        -0.47852E+04
 
   -0.19717E+05         0.24489E+04         0.00000E+00
    0.24489E+04        -0.40740E+03         0.00000E+00
    0.00000E+00         0.00000E+00        -0.60373E+04
 
   -0.20417E+05         0.48762E+04         0.00000E+00
    0.48762E+04        -0.18355E+04         0.00000E+00
    0.00000E+00         0.00000E+00        -0.72832E+04
 
   -0.19683E+05         0.66865E+04         0.00000E+00
    0.66865E+04        -0.34016E+04         0.00000E+00
    0.00000E+00         0.00000E+00        -0.82663E+04
 
   -0.18455E+05         0.80361E+04         0.00000E+00
    0.80361E+04        -0.47981E+04         0.00000E+00
    0.00000E+00         0.00000E+00        -0.87344E+04
 
   -0.16919E+05         0.90457E+04         0.00000E+00
    0.90457E+04        -0.60913E+04         0.00000E+00
    0.00000E+00         0.00000E+00        -0.88335E+04
 
   -0.15274E+05         0.97703E+04         0.00000E+00
    0.97703E+04        -0.72626E+04         0.00000E+00
    0.00000E+00         0.00000E+00        -0.86739E+04
 
   -0.13502E+05         0.10223E+05         0.00000E+00
    0.10223E+05        -0.82791E+04         0.00000E+00
    0.00000E+00         0.00000E+00        -0.83371E+04
 
   -0.11742E+05         0.10460E+05         0.00000E+00
    0.10460E+05        -0.90917E+04         0.00000E+00
    0.00000E+00         0.00000E+00        -0.78551E+04
 
   -0.10087E+05         0.10516E+05         0.00000E+00
    0.10516E+05        -0.97327E+04         0.00000E+00
    0.00000E+00         0.00000E+00        -0.73021E+04
 
   -0.85416E+04         0.10444E+05         0.00000E+00
    0.10444E+05        -0.10234E+05         0.00000E+00
    0.00000E+00         0.00000E+00        -0.67062E+04
 
   -0.70980E+04         0.10280E+05         0.00000E+00
    0.10280E+05        -0.10625E+05         0.00000E+00
    0.00000E+00         0.00000E+00        -0.61321E+04
 
   -0.57467E+04         0.10048E+05         0.00000E+00
    0.10048E+05        -0.10834E+05         0.00000E+00
    0.00000E+00         0.00000E+00        -0.55334E+04
 
   -0.45157E+04         0.97447E+04         0.00000E+00
    0.97447E+04        -0.10909E+05         0.00000E+00
    0.00000E+00         0.00000E+00        -0.49475E+04
 
   -0.32800E+04         0.94363E+04         0.00000E+00
    0.94363E+04        -0.11002E+05         0.00000E+00
    0.00000E+00         0.00000E+00        -0.43277E+04
 
   -0.28000E+04         0.85713E+04         0.00000E+00
    0.85713E+04        -0.11370E+05         0.00000E+00
    0.00000E+00         0.00000E+00        -0.42511E+04
 
   -0.27299E+04         0.77261E+04         0.00000E+00
    0.77261E+04        -0.11674E+05         0.00000E+00
    0.00000E+00         0.00000E+00        -0.43211E+04
 
   -0.28983E+04         0.70649E+04         0.00000E+00
    0.70649E+04        -0.11780E+05         0.00000E+00
    0.00000E+00         0.00000E+00        -0.44034E+04
 
   -0.32011E+04         0.65839E+04         0.00000E+00
    0.65839E+04        -0.11765E+05         0.00000E+00
    0.00000E+00         0.00000E+00        -0.44897E+04
 
   -0.35979E+04         0.62810E+04         0.00000E+00
    0.62810E+04        -0.11665E+05         0.00000E+00
    0.00000E+00         0.00000E+00        -0.45790E+04
 
   -0.40587E+04         0.61621E+04         0.00000E+00
    0.61621E+04        -0.11507E+05         0.00000E+00
    0.00000E+00         0.00000E+00        -0.46697E+04
 
   -0.45530E+04         0.62414E+04         0.00000E+00
    0.62414E+04        -0.11313E+05         0.00000E+00
    0.00000E+00         0.00000E+00        -0.47597E+04
 
   -0.62296E+04        -0.87760E+03         0.00000E+00
   -0.87760E+03         0.12298E+03         0.00000E+00
    0.00000E+00         0.00000E+00        -0.18320E+04
 
   -0.10573E+05        -0.13323E+04         0.00000E+00
   -0.13323E+04         0.49511E+03         0.00000E+00
    0.00000E+00         0.00000E+00        -0.30234E+04
 
   -0.14492E+05        -0.34043E+03         0.00000E+00
   -0.34043E+03         0.66362E+03         0.00000E+00
    0.00000E+00         0.00000E+00        -0.41485E+04
 
   -0.17174E+05         0.15172E+04         0.00000E+00
    0.15172E+04         0.31660E+03         0.00000E+00
    0.00000E+00         0.00000E+00        -0.50574E+04
 
   -0.18455E+05         0.36122E+04         0.00000E+00
    0.36122E+04        -0.27224E+03         0.00000E+00
    0.00000E+00         0.00000E+00        -0.56182E+04
 
   -0.18199E+05         0.53906E+04         0.00000E+00
    0.53906E+04        -0.13932E+04         0.00000E+00
    0.00000E+00         0.00000E+00        -0.62368E+04
 
   -0.17279E+05         0.68192E+04         0.00000E+00
    0.68192E+04        -0.26544E+04         0.00000E+00
    0.00000E+00         0.00000E+00        -0.67050E+04
 
   -0.16024E+05         0.79157E+04         0.00000E+00
    0.79157E+04        -0.37929E+04         0.00000E+00
    0.00000E+00         0.00000E+00        -0.68947E+04
 
   -0.14609E+05         0.87133E+04         0.00000E+00
    0.87133E+04        -0.48589E+04         0.00000E+00
    0.00000E+00         0.00000E+00        -0.68866E+04
 
   -0.13078E+05         0.93270E+04         0.00000E+00
    0.93270E+04        -0.57892E+04         0.00000E+00
    0.00000E+00         0.00000E+00        -0.66458E+04
 
   -0.11514E+05         0.97069E+04         0.00000E+00
    0.97069E+04        -0.66270E+04         0.00000E+00
    0.00000E+00         0.00000E+00        -0.63117E+04
 
   -0.10016E+05         0.99219E+04         0.00000E+00
    0.99219E+04        -0.73432E+04         0.00000E+00
    0.00000E+00         0.00000E+00        -0.59045E+04
 
   -0.85960E+04         0.99736E+04         0.00000E+00
    0.99736E+04        -0.78915E+04         0.00000E+00
    0.00000E+00         0.00000E+00        -0.54619E+04
 
   -0.72245E+04         0.99317E+04         0.00000E+00
    0.99317E+04        -0.82713E+04         0.00000E+00
    0.00000E+00         0.00000E+00        -0.49872E+04
 
   -0.59829E+04         0.98139E+04         0.00000E+00
    0.98139E+04        -0.86439E+04         0.00000E+00
    0.00000E+00         0.00000E+00        -0.45277E+04
 
   -0.48085E+04         0.95438E+04         0.00000E+00
    0.95438E+04        -0.90728E+04         0.00000E+00
    0.00000E+00         0.00000E+00        -0.41644E+04
 
   -0.40217E+04         0.88593E+04         0.00000E+00
    0.88593E+04        -0.97152E+04         0.00000E+00
    0.00000E+00         0.00000E+00        -0.41211E+04
 
   -0.35873E+04         0.81566E+04         0.00000E+00
    0.81566E+04        -0.10263E+05         0.00000E+00
    0.00000E+00         0.00000E+00        -0.41552E+04
 
   -0.34007E+04         0.75135E+04         0.00000E+00
    0.75135E+04        -0.10584E+05         0.00000E+00
    0.00000E+00         0.00000E+00        -0.41955E+04
 
   -0.34103E+04         0.69899E+04         0.00000E+00
    0.69899E+04        -0.10752E+05         0.00000E+00
    0.00000E+00         0.00000E+00        -0.42488E+04
 
   -0.35516E+04         0.66068E+04         0.00000E+00
    0.66068E+04        -0.10809E+05         0.00000E+00
    0.00000E+00         0.00000E+00        -0.43081E+04
 
   -0.37808E+04         0.63737E+04         0.00000E+00
    0.63737E+04        -0.10785E+05         0.00000E+00
    0.00000E+00         0.00000E+00        -0.43696E+04
 
   -0.40633E+04         0.63009E+04         0.00000E+00
    0.63009E+04        -0.10705E+05         0.00000E+00
    0.00000E+00         0.00000E+00        -0.44304E+04
 
   -0.43639E+04         0.64011E+04         0.00000E+00
    0.64011E+04        -0.10593E+05         0.00000E+00
    0.00000E+00         0.00000E+00        -0.44872E+04
 
   -0.73281E+04        -0.60329E+03         0.00000E+00
   -0.60329E+03         0.10361E+03         0.00000E+00
    0.00000E+00         0.00000E+00        -0.21674E+04
 
   -0.10325E+05        -0.94944E+03         0.00000E+00
   -0.94944E+03         0.43993E+03         0.00000E+00
    0.00000E+00         0.00000E+00        -0.29656E+04
 
   -0.13209E+05        -0.26268E+03         0.00000E+00
   -0.26268E+03         0.72374E+03         0.00000E+00
    0.00000E+00         0.00000E+00        -0.37454E+04
 
   -0.15356E+05         0.11436E+04         0.00000E+00
    0.11436E+04         0.69969E+03         0.00000E+00
    0.00000E+00         0.00000E+00        -0.43968E+04
 
   -0.16508E+05         0.28279E+04         0.00000E+00
    0.28279E+04         0.26371E+03         0.00000E+00
    0.00000E+00         0.00000E+00        -0.48734E+04
 
   -0.16675E+05         0.44510E+04         0.00000E+00
    0.44510E+04        -0.25740E+03         0.00000E+00
    0.00000E+00         0.00000E+00        -0.50797E+04
 
   -0.16101E+05         0.58299E+04         0.00000E+00
    0.58299E+04        -0.93854E+03         0.00000E+00
    0.00000E+00         0.00000E+00        -0.51867E+04
 
   -0.15094E+05         0.69051E+04         0.00000E+00
    0.69051E+04        -0.19088E+04         0.00000E+00
    0.00000E+00         0.00000E+00        -0.53480E+04
 
   -0.13870E+05         0.78024E+04         0.00000E+00
    0.78024E+04        -0.28345E+04         0.00000E+00
    0.00000E+00         0.00000E+00        -0.53552E+04
 
   -0.12534E+05         0.84782E+04         0.00000E+00
    0.84782E+04        -0.37027E+04         0.00000E+00
    0.00000E+00         0.00000E+00        -0.52132E+04
 
   -0.11162E+05         0.89547E+04         0.00000E+00
    0.89547E+04        -0.44695E+04         0.00000E+00
    0.00000E+00         0.00000E+00        -0.49794E+04
 
   -0.98216E+04         0.92662E+04         0.00000E+00
    0.92662E+04        -0.51508E+04         0.00000E+00
    0.00000E+00         0.00000E+00        -0.46734E+04
 
   -0.85344E+04         0.94674E+04         0.00000E+00
    0.94674E+04        -0.57953E+04         0.00000E+00
    0.00000E+00         0.00000E+00        -0.43468E+04
 
   -0.73175E+04         0.94252E+04         0.00000E+00
    0.94252E+04        -0.65246E+04         0.00000E+00
    0.00000E+00         0.00000E+00        -0.41537E+04
 
   -0.62163E+04         0.91762E+04         0.00000E+00
    0.91762E+04        -0.73106E+04         0.00000E+00
    0.00000E+00         0.00000E+00        -0.40581E+04
 
   -0.53287E+04         0.87700E+04         0.00000E+00
    0.87700E+04        -0.81417E+04         0.00000E+00
    0.00000E+00         0.00000E+00        -0.40411E+04
 
   -0.46466E+04         0.82748E+04         0.00000E+00
    0.82748E+04        -0.88033E+04         0.00000E+00
    0.00000E+00         0.00000E+00        -0.40350E+04
 
   -0.41769E+04         0.77446E+04         0.00000E+00
    0.77446E+04        -0.92796E+04         0.00000E+00
    0.00000E+00         0.00000E+00        -0.40369E+04
 
   -0.39173E+04         0.72612E+04         0.00000E+00
    0.72612E+04        -0.96135E+04         0.00000E+00
    0.00000E+00         0.00000E+00        -0.40592E+04
 
   -0.38119E+04         0.68594E+04         0.00000E+00
    0.68594E+04        -0.98191E+04         0.00000E+00
    0.00000E+00         0.00000E+00        -0.40893E+04
 
   -0.38220E+04         0.65663E+04         0.00000E+00
    0.65663E+04        -0.99264E+04         0.00000E+00
    0.00000E+00         0.00000E+00        -0.41245E+04
 
   -0.39085E+04         0.63977E+04         0.00000E+00
    0.63977E+04        -0.99609E+04         0.00000E+00
    0.00000E+00         0.00000E+00        -0.41608E+04
 
   -0.40364E+04         0.63660E+04         0.00000E+00
    0.63660E+04        -0.99458E+04         0.00000E+00
    0.00000E+00         0.00000E+00        -0.41947E+04
 
   -0.41703E+04         0.64827E+04         0.00000E+00
    0.64827E+04        -0.99042E+04         0.00000E+00
    0.00000E+00         0.00000E+00        -0.42224E+04
 
   -0.80647E+04        -0.38413E+03         0.00000E+00
   -0.38413E+03         0.79132E+02         0.00000E+00
    0.00000E+00         0.00000E+00        -0.23957E+04
 
   -0.10146E+05        -0.58713E+03         0.00000E+00
   -0.58713E+03         0.35939E+03         0.00000E+00
    0.00000E+00         0.00000E+00        -0.29361E+04
 
   -0.12251E+05        -0.60532E+02         0.00000E+00
   -0.60532E+02         0.64815E+03         0.00000E+00
    0.00000E+00         0.00000E+00        -0.34808E+04
 
   -0.13935E+05         0.10248E+04         0.00000E+00
    0.10248E+04         0.73677E+03         0.00000E+00
    0.00000E+00         0.00000E+00        -0.39595E+04
 
   -0.14937E+05         0.24159E+04         0.00000E+00
    0.24159E+04         0.55900E+03         0.00000E+00
    0.00000E+00         0.00000E+00        -0.43133E+04
 
   -0.15207E+05         0.38420E+04         0.00000E+00
    0.38420E+04         0.10876E+03         0.00000E+00
    0.00000E+00         0.00000E+00        -0.45293E+04
 
   -0.14893E+05         0.50911E+04         0.00000E+00
    0.50911E+04        -0.49709E+03         0.00000E+00
    0.00000E+00         0.00000E+00        -0.46170E+04
 
   -0.14127E+05         0.61596E+04         0.00000E+00
    0.61596E+04        -0.10431E+04         0.00000E+00
    0.00000E+00         0.00000E+00        -0.45511E+04
 
   -0.13103E+05         0.70370E+04         0.00000E+00
    0.70370E+04        -0.16792E+04         0.00000E+00
    0.00000E+00         0.00000E+00        -0.44346E+04
 
   -0.11960E+05         0.77096E+04         0.00000E+00
    0.77096E+04        -0.24165E+04         0.00000E+00
    0.00000E+00         0.00000E+00        -0.43131E+04
 
   -0.10772E+05         0.82009E+04         0.00000E+00
    0.82009E+04        -0.32268E+04         0.00000E+00
    0.00000E+00         0.00000E+00        -0.41996E+04
 
   -0.95799E+04         0.85001E+04         0.00000E+00
    0.85001E+04        -0.40904E+04         0.00000E+00
    0.00000E+00         0.00000E+00        -0.41011E+04
 
   -0.84849E+04         0.86037E+04         0.00000E+00
    0.86037E+04        -0.50147E+04         0.00000E+00
    0.00000E+00         0.00000E+00        -0.40499E+04
 
   -0.74644E+04         0.85728E+04         0.00000E+00
    0.85728E+04        -0.58906E+04         0.00000E+00
    0.00000E+00         0.00000E+00        -0.40065E+04
 
   -0.65193E+04         0.83886E+04         0.00000E+00
    0.83886E+04        -0.66870E+04         0.00000E+00
    0.00000E+00         0.00000E+00        -0.39619E+04
 
   -0.57193E+04         0.80869E+04         0.00000E+00
    0.80869E+04        -0.73717E+04         0.00000E+00
    0.00000E+00         0.00000E+00        -0.39273E+04
 
   -0.50903E+04         0.77297E+04         0.00000E+00
    0.77297E+04        -0.79507E+04         0.00000E+00
    0.00000E+00         0.00000E+00        -0.39123E+04
 
   -0.46212E+04         0.73483E+04         0.00000E+00
    0.73483E+04        -0.84074E+04         0.00000E+00
    0.00000E+00         0.00000E+00        -0.39086E+04
 
   -0.43047E+04         0.69894E+04         0.00000E+00
    0.69894E+04        -0.87397E+04         0.00000E+00
    0.00000E+00         0.00000E+00        -0.39133E+04
 
   -0.41155E+04         0.66910E+04         0.00000E+00
    0.66910E+04        -0.89688E+04         0.00000E+00
    0.00000E+00         0.00000E+00        -0.39253E+04
 
   -0.40200E+04         0.64773E+04         0.00000E+00
    0.64773E+04        -0.91134E+04         0.00000E+00
    0.00000E+00         0.00000E+00        -0.39400E+04
 
   -0.39865E+04         0.63658E+04         0.00000E+00
    0.63658E+04        -0.91946E+04         0.00000E+00
    0.00000E+00         0.00000E+00        -0.39543E+04
 
   -0.39828E+04         0.63695E+04         0.00000E+00
    0.63695E+04        -0.92330E+04         0.00000E+00
    0.00000E+00         0.00000E+00        -0.39647E+04
 
   -0.39755E+04         0.64985E+04         0.00000E+00
    0.64985E+04        -0.92498E+04         0.00000E+00
    0.00000E+00         0.00000E+00        -0.39676E+04
 
   -0.85028E+04        -0.21785E+03         0.00000E+00
   -0.21785E+03         0.58385E+02         0.00000E+00
    0.00000E+00         0.00000E+00        -0.25333E+04
 
   -0.99670E+04        -0.28460E+03         0.00000E+00
   -0.28460E+03         0.27468E+03         0.00000E+00
    0.00000E+00         0.00000E+00        -0.29077E+04
 
   -0.11504E+05         0.15677E+03         0.00000E+00
    0.15677E+03         0.51984E+03         0.00000E+00
    0.00000E+00         0.00000E+00        -0.32954E+04
 
   -0.12792E+05         0.10248E+04         0.00000E+00
    0.10248E+04         0.63897E+03         0.00000E+00
    0.00000E+00         0.00000E+00        -0.36459E+04
 
   -0.13625E+05         0.21560E+04         0.00000E+00
    0.21560E+04         0.54336E+03         0.00000E+00
    0.00000E+00         0.00000E+00        -0.39245E+04
 
   -0.13935E+05         0.33665E+04         0.00000E+00
    0.33665E+04         0.22791E+03         0.00000E+00
    0.00000E+00         0.00000E+00        -0.41122E+04
 
   -0.13756E+05         0.45189E+04         0.00000E+00
    0.45189E+04        -0.25085E+03         0.00000E+00
    0.00000E+00         0.00000E+00        -0.42022E+04
 
   -0.13190E+05         0.55226E+04         0.00000E+00
    0.55226E+04        -0.85678E+03         0.00000E+00
    0.00000E+00         0.00000E+00        -0.42139E+04
 
   -0.12364E+05         0.63284E+04         0.00000E+00
    0.63284E+04        -0.15334E+04         0.00000E+00
    0.00000E+00         0.00000E+00        -0.41693E+04
 
   -0.11408E+05         0.69439E+04         0.00000E+00
    0.69439E+04        -0.22614E+04         0.00000E+00
    0.00000E+00         0.00000E+00        -0.41009E+04
 
   -0.10397E+05         0.73850E+04         0.00000E+00
    0.73850E+04        -0.30292E+04         0.00000E+00
    0.00000E+00         0.00000E+00        -0.40278E+04
 
   -0.93906E+04         0.76556E+04         0.00000E+00
    0.76556E+04        -0.38223E+04         0.00000E+00
    0.00000E+00         0.00000E+00        -0.39639E+04
 
   -0.84338E+04         0.77791E+04         0.00000E+00
    0.77791E+04        -0.46000E+04         0.00000E+00
    0.00000E+00         0.00000E+00        -0.39101E+04
 
   -0.75409E+04         0.77877E+04         0.00000E+00
    0.77877E+04        -0.53509E+04         0.00000E+00
    0.00000E+00         0.00000E+00        -0.38675E+04
 
   -0.67194E+04         0.76837E+04         0.00000E+00
    0.76837E+04        -0.60510E+04         0.00000E+00
    0.00000E+00         0.00000E+00        -0.38311E+04
 
   -0.60015E+04         0.74860E+04         0.00000E+00
    0.74860E+04        -0.66710E+04         0.00000E+00
    0.00000E+00         0.00000E+00        -0.38017E+04
 
   -0.54081E+04         0.72339E+04         0.00000E+00
    0.72339E+04        -0.71943E+04         0.00000E+00
    0.00000E+00         0.00000E+00        -0.37807E+04
 
   -0.49405E+04         0.69639E+04         0.00000E+00
    0.69639E+04        -0.76199E+04         0.00000E+00
    0.00000E+00         0.00000E+00        -0.37681E+04
 
   -0.45885E+04         0.67082E+04         0.00000E+00
    0.67082E+04        -0.79496E+04         0.00000E+00
    0.00000E+00         0.00000E+00        -0.37614E+04
 
   -0.43344E+04         0.64962E+04         0.00000E+00
    0.64962E+04        -0.81930E+04         0.00000E+00
    0.00000E+00         0.00000E+00        -0.37582E+04
 
   -0.41545E+04         0.63507E+04         0.00000E+00
    0.63507E+04        -0.83656E+04         0.00000E+00
    0.00000E+00         0.00000E+00        -0.37560E+04
 
   -0.40216E+04         0.62883E+04         0.00000E+00
    0.62883E+04        -0.84841E+04         0.00000E+00
    0.00000E+00         0.00000E+00        -0.37517E+04
 
   -0.39075E+04         0.63216E+04         0.00000E+00
    0.63216E+04        -0.85665E+04         0.00000E+00
    0.00000E+00         0.00000E+00        -0.37422E+04
 
   -0.37820E+04         0.64594E+04         0.00000E+00
    0.64594E+04        -0.86318E+04         0.00000E+00
    0.00000E+00         0.00000E+00        -0.37241E+04
 
   -0.87116E+04        -0.97278E+02         0.00000E+00
   -0.97278E+02         0.41219E+02         0.00000E+00
    0.00000E+00         0.00000E+00        -0.26011E+04
 
   -0.97628E+04        -0.52517E+02         0.00000E+00
   -0.52517E+02         0.19847E+03         0.00000E+00
    0.00000E+00         0.00000E+00        -0.28693E+04
 
   -0.10891E+05         0.34354E+03         0.00000E+00
    0.34354E+03         0.38622E+03         0.00000E+00
    0.00000E+00         0.00000E+00        -0.31513E+04
 
   -0.11869E+05         0.10547E+04         0.00000E+00
    0.10547E+04         0.48744E+03         0.00000E+00
    0.00000E+00         0.00000E+00        -0.34143E+04
 
   -0.12538E+05         0.19811E+04         0.00000E+00
    0.19811E+04         0.42912E+03         0.00000E+00
    0.00000E+00         0.00000E+00        -0.36328E+04
 
   -0.12826E+05         0.30007E+04         0.00000E+00
    0.30007E+04         0.18863E+03         0.00000E+00
    0.00000E+00         0.00000E+00        -0.37913E+04
 
   -0.12735E+05         0.40005E+04         0.00000E+00
    0.40005E+04        -0.22070E+03         0.00000E+00
    0.00000E+00         0.00000E+00        -0.38868E+04
 
   -0.12323E+05         0.48961E+04         0.00000E+00
    0.48961E+04        -0.76090E+03         0.00000E+00
    0.00000E+00         0.00000E+00        -0.39252E+04
 
   -0.11680E+05         0.56390E+04         0.00000E+00
    0.56390E+04        -0.13915E+04         0.00000E+00
    0.00000E+00         0.00000E+00        -0.39214E+04
 
   -0.10897E+05         0.62160E+04         0.00000E+00
    0.62160E+04        -0.20733E+04         0.00000E+00
    0.00000E+00         0.00000E+00        -0.38911E+04
 
   -0.10049E+05         0.66344E+04         0.00000E+00
    0.66344E+04        -0.27815E+04         0.00000E+00
    0.00000E+00         0.00000E+00        -0.38492E+04
 
   -0.91892E+04         0.69083E+04         0.00000E+00
    0.69083E+04        -0.34934E+04         0.00000E+00
    0.00000E+00         0.00000E+00        -0.38048E+04
 
   -0.83547E+04         0.70575E+04         0.00000E+00
    0.70575E+04        -0.41896E+04         0.00000E+00
    0.00000E+00         0.00000E+00        -0.37633E+04
 
   -0.75656E+04         0.71025E+04         0.00000E+00
    0.71025E+04        -0.48540E+04         0.00000E+00
    0.00000E+00         0.00000E+00        -0.37259E+04
 
   -0.68373E+04         0.70578E+04         0.00000E+00
    0.70578E+04        -0.54732E+04         0.00000E+00
    0.00000E+00         0.00000E+00        -0.36932E+04
 
   -0.61869E+04         0.69407E+04         0.00000E+00
    0.69407E+04        -0.60293E+04         0.00000E+00
    0.00000E+00         0.00000E+00        -0.36649E+04
 
   -0.56277E+04         0.67771E+04         0.00000E+00
    0.67771E+04        -0.65098E+04         0.00000E+00
    0.00000E+00         0.00000E+00        -0.36412E+04
 
   -0.51627E+04         0.65955E+04         0.00000E+00
    0.65955E+04        -0.69101E+04         0.00000E+00
    0.00000E+00         0.00000E+00        -0.36219E+04
 
   -0.47855E+04         0.64230E+04         0.00000E+00
    0.64230E+04        -0.72329E+04         0.00000E+00
    0.00000E+00         0.00000E+00        -0.36055E+04
 
   -0.44824E+04         0.62829E+04         0.00000E+00
    0.62829E+04        -0.74853E+04         0.00000E+00
    0.00000E+00         0.00000E+00        -0.35903E+04
 
   -0.42348E+04         0.61948E+04         0.00000E+00
    0.61948E+04        -0.76786E+04         0.00000E+00
    0.00000E+00         0.00000E+00        -0.35740E+04
 
   -0.40205E+04         0.61739E+04         0.00000E+00
    0.61739E+04        -0.78268E+04         0.00000E+00
    0.00000E+00         0.00000E+00        -0.35542E+04
 
   -0.38150E+04         0.62314E+04         0.00000E+00
    0.62314E+04        -0.79451E+04         0.00000E+00
    0.00000E+00         0.00000E+00        -0.35280E+04
 
   -0.35917E+04         0.63748E+04         0.00000E+00
    0.63748E+04        -0.80504E+04         0.00000E+00
    0.00000E+00         0.00000E+00        -0.34926E+04
 
   -0.87539E+04        -0.13730E+02         0.00000E+00
   -0.13730E+02         0.27824E+02         0.00000E+00
    0.00000E+00         0.00000E+00        -0.26178E+04
 
   -0.95299E+04         0.11397E+03         0.00000E+00
    0.11397E+03         0.13588E+03         0.00000E+00
    0.00000E+00         0.00000E+00        -0.28182E+04
 
   -0.10367E+05         0.48279E+03         0.00000E+00
    0.48279E+03         0.26701E+03         0.00000E+00
    0.00000E+00         0.00000E+00        -0.30300E+04
 
   -0.11109E+05         0.10808E+04         0.00000E+00
    0.10808E+04         0.33707E+03         0.00000E+00
    0.00000E+00         0.00000E+00        -0.32315E+04
 
   -0.11637E+05         0.18479E+04         0.00000E+00
    0.18479E+04         0.28655E+03         0.00000E+00
    0.00000E+00         0.00000E+00        -0.34050E+04
 
   -0.11886E+05         0.27005E+04         0.00000E+00
    0.27005E+04         0.87910E+02         0.00000E+00
    0.00000E+00         0.00000E+00        -0.35393E+04
 
   -0.11845E+05         0.35541E+04         0.00000E+00
    0.35541E+04        -0.25642E+03         0.00000E+00
    0.00000E+00         0.00000E+00        -0.36303E+04
 
   -0.11546E+05         0.43394E+04         0.00000E+00
    0.43394E+04        -0.72376E+03         0.00000E+00
    0.00000E+00         0.00000E+00        -0.36808E+04
 
   -0.11046E+05         0.50114E+04         0.00000E+00
    0.50114E+04        -0.12801E+04         0.00000E+00
    0.00000E+00         0.00000E+00        -0.36979E+04
 
   -0.10413E+05         0.55505E+04         0.00000E+00
    0.55505E+04        -0.18914E+04         0.00000E+00
    0.00000E+00         0.00000E+00        -0.36914E+04
 
   -0.97061E+04         0.59559E+04         0.00000E+00
    0.59559E+04        -0.25284E+04         0.00000E+00
    0.00000E+00         0.00000E+00        -0.36703E+04
 
   -0.89719E+04         0.62375E+04         0.00000E+00
    0.62375E+04        -0.31683E+04         0.00000E+00
    0.00000E+00         0.00000E+00        -0.36421E+04
 
   -0.82441E+04         0.64109E+04         0.00000E+00
    0.64109E+04        -0.37931E+04         0.00000E+00
    0.00000E+00         0.00000E+00        -0.36112E+04
 
   -0.75454E+04         0.64926E+04         0.00000E+00
    0.64926E+04        -0.43892E+04         0.00000E+00
    0.00000E+00         0.00000E+00        -0.35804E+04
 
   -0.68915E+04         0.64983E+04         0.00000E+00
    0.64983E+04        -0.49444E+04         0.00000E+00
    0.00000E+00         0.00000E+00        -0.35508E+04
 
   -0.62957E+04         0.64447E+04         0.00000E+00
    0.64447E+04        -0.54476E+04         0.00000E+00
    0.00000E+00         0.00000E+00        -0.35230E+04
 
   -0.57666E+04         0.63521E+04         0.00000E+00
    0.63521E+04        -0.58900E+04         0.00000E+00
    0.00000E+00         0.00000E+00        -0.34970E+04
 
   -0.53068E+04         0.62425E+04         0.00000E+00
    0.62425E+04        -0.62680E+04         0.00000E+00
    0.00000E+00         0.00000E+00        -0.34724E+04
 
   -0.49117E+04         0.61375E+04         0.00000E+00
    0.61375E+04        -0.65827E+04         0.00000E+00
    0.00000E+00         0.00000E+00        -0.34483E+04
 
   -0.45711E+04         0.60567E+04         0.00000E+00
    0.60567E+04        -0.68400E+04         0.00000E+00
    0.00000E+00         0.00000E+00        -0.34233E+04
 
   -0.42698E+04         0.60163E+04         0.00000E+00
    0.60163E+04        -0.70487E+04         0.00000E+00
    0.00000E+00         0.00000E+00        -0.33956E+04
 
   -0.39896E+04         0.60296E+04         0.00000E+00
    0.60296E+04        -0.72201E+04         0.00000E+00
    0.00000E+00         0.00000E+00        -0.33629E+04
 
   -0.37094E+04         0.61064E+04         0.00000E+00
    0.61064E+04        -0.73675E+04         0.00000E+00
    0.00000E+00         0.00000E+00        -0.33231E+04
 
   -0.34062E+04         0.62530E+04         0.00000E+00
    0.62530E+04        -0.75053E+04         0.00000E+00
    0.00000E+00         0.00000E+00        -0.32734E+04
 
   -0.86818E+04         0.41390E+02         0.00000E+00
    0.41390E+02         0.17830E+02         0.00000E+00
    0.00000E+00         0.00000E+00        -0.25992E+04
 
   -0.92744E+04         0.22544E+03         0.00000E+00
    0.22544E+03         0.87376E+02         0.00000E+00
    0.00000E+00         0.00000E+00        -0.27561E+04
 
   -0.99069E+04         0.57488E+03         0.00000E+00
    0.57488E+03         0.17054E+03         0.00000E+00
    0.00000E+00         0.00000E+00        -0.29209E+04
 
   -0.10473E+05         0.10893E+04         0.00000E+00
    0.10893E+04         0.20775E+03         0.00000E+00
    0.00000E+00         0.00000E+00        -0.30794E+04
 
   -0.10885E+05         0.17326E+04         0.00000E+00
    0.17326E+04         0.15290E+03         0.00000E+00
    0.00000E+00         0.00000E+00        -0.32196E+04
 
   -0.11092E+05         0.24482E+04         0.00000E+00
    0.24482E+04        -0.19062E+02         0.00000E+00
    0.00000E+00         0.00000E+00        -0.33333E+04
 
   -0.11077E+05         0.31747E+04         0.00000E+00
    0.31747E+04        -0.31170E+03         0.00000E+00
    0.00000E+00         0.00000E+00        -0.34167E+04
 
   -0.10857E+05         0.38580E+04         0.00000E+00
    0.38580E+04        -0.71105E+03         0.00000E+00
    0.00000E+00         0.00000E+00        -0.34703E+04
 
   -0.10467E+05         0.44597E+04         0.00000E+00
    0.44597E+04        -0.11927E+04         0.00000E+00
    0.00000E+00         0.00000E+00        -0.34979E+04
 
   -0.99550E+04         0.49588E+04         0.00000E+00
    0.49588E+04        -0.17287E+04         0.00000E+00
    0.00000E+00         0.00000E+00        -0.35051E+04
 
   -0.93661E+04         0.53494E+04         0.00000E+00
    0.53494E+04        -0.22930E+04         0.00000E+00
    0.00000E+00         0.00000E+00        -0.34977E+04
 
   -0.87394E+04         0.56363E+04         0.00000E+00
    0.56363E+04        -0.28637E+04         0.00000E+00
    0.00000E+00         0.00000E+00        -0.34809E+04
 
   -0.81049E+04         0.58301E+04         0.00000E+00
    0.58301E+04        -0.34238E+04         0.00000E+00
    0.00000E+00         0.00000E+00        -0.34586E+04
 
   -0.74843E+04         0.59442E+04         0.00000E+00
    0.59442E+04        -0.39600E+04         0.00000E+00
    0.00000E+00         0.00000E+00        -0.34333E+04
 
   -0.68934E+04         0.59928E+04         0.00000E+00
    0.59928E+04        -0.44617E+04         0.00000E+00
    0.00000E+00         0.00000E+00        -0.34065E+04
 
   -0.63431E+04         0.59909E+04         0.00000E+00
    0.59909E+04        -0.49204E+04         0.00000E+00
    0.00000E+00         0.00000E+00        -0.33791E+04
 
   -0.58405E+04         0.59555E+04         0.00000E+00
    0.59555E+04        -0.53298E+04         0.00000E+00
    0.00000E+00         0.00000E+00        -0.33511E+04
 
   -0.53873E+04         0.59042E+04         0.00000E+00
    0.59042E+04        -0.56870E+04         0.00000E+00
    0.00000E+00         0.00000E+00        -0.33223E+04
 
   -0.49801E+04         0.58543E+04         0.00000E+00
    0.58543E+04        -0.59931E+04         0.00000E+00
    0.00000E+00         0.00000E+00        -0.32920E+04
 
   -0.46109E+04         0.58218E+04         0.00000E+00
    0.58218E+04        -0.62524E+04         0.00000E+00
    0.00000E+00         0.00000E+00        -0.32590E+04
 
   -0.42675E+04         0.58206E+04         0.00000E+00
    0.58206E+04        -0.64720E+04         0.00000E+00
    0.00000E+00         0.00000E+00        -0.32218E+04
 
   -0.39345E+04         0.58618E+04         0.00000E+00
    0.58618E+04        -0.66615E+04         0.00000E+00
    0.00000E+00         0.00000E+00        -0.31788E+04
 
   -0.35940E+04         0.59535E+04         0.00000E+00
    0.59535E+04        -0.68319E+04         0.00000E+00
    0.00000E+00         0.00000E+00        -0.31278E+04
 
   -0.32264E+04         0.61011E+04         0.00000E+00
    0.61011E+04        -0.69958E+04         0.00000E+00
    0.00000E+00         0.00000E+00        -0.30667E+04
 
   -0.85357E+04         0.75553E+02         0.00000E+00
    0.75553E+02         0.10632E+02         0.00000E+00
    0.00000E+00         0.00000E+00        -0.25575E+04
 
   -0.90052E+04         0.29401E+03         0.00000E+00
    0.29401E+03         0.51549E+02         0.00000E+00
    0.00000E+00         0.00000E+00        -0.26861E+04
 
   -0.94939E+04         0.62659E+03         0.00000E+00
    0.62659E+03         0.97058E+02         0.00000E+00
    0.00000E+00         0.00000E+00        -0.28191E+04
 
   -0.99301E+04         0.10774E+04         0.00000E+00
    0.10774E+04         0.10576E+03         0.00000E+00
    0.00000E+00         0.00000E+00        -0.29473E+04
 
   -0.10252E+05         0.16248E+04         0.00000E+00
    0.16248E+04         0.43315E+02         0.00000E+00
    0.00000E+00         0.00000E+00        -0.30627E+04
 
   -0.10420E+05         0.22308E+04         0.00000E+00
    0.22308E+04        -0.11117E+03         0.00000E+00
    0.00000E+00         0.00000E+00        -0.31594E+04
 
   -0.10417E+05         0.28513E+04         0.00000E+00
    0.28513E+04        -0.36325E+03         0.00000E+00
    0.00000E+00         0.00000E+00        -0.32341E+04
 
   -0.10250E+05         0.34454E+04         0.00000E+00
    0.34454E+04        -0.70512E+03         0.00000E+00
    0.00000E+00         0.00000E+00        -0.32866E+04
 
   -0.99418E+04         0.39815E+04         0.00000E+00
    0.39815E+04        -0.11197E+04         0.00000E+00
    0.00000E+00         0.00000E+00        -0.33184E+04
 
   -0.95245E+04         0.44400E+04         0.00000E+00
    0.44400E+04        -0.15854E+04         0.00000E+00
    0.00000E+00         0.00000E+00        -0.33330E+04
 
   -0.90322E+04         0.48125E+04         0.00000E+00
    0.48125E+04        -0.20808E+04         0.00000E+00
    0.00000E+00         0.00000E+00        -0.33339E+04
 
   -0.84961E+04         0.50999E+04         0.00000E+00
    0.50999E+04        -0.25865E+04         0.00000E+00
    0.00000E+00         0.00000E+00        -0.33248E+04
 
   -0.79417E+04         0.53089E+04         0.00000E+00
    0.53089E+04        -0.30868E+04         0.00000E+00
    0.00000E+00         0.00000E+00        -0.33086E+04
 
   -0.73888E+04         0.54494E+04         0.00000E+00
    0.54494E+04        -0.35692E+04         0.00000E+00
    0.00000E+00         0.00000E+00        -0.32874E+04
 
   -0.68519E+04         0.55333E+04         0.00000E+00
    0.55333E+04        -0.40241E+04         0.00000E+00
    0.00000E+00         0.00000E+00        -0.32628E+04
 
   -0.63410E+04         0.55737E+04         0.00000E+00
    0.55737E+04        -0.44440E+04         0.00000E+00
    0.00000E+00         0.00000E+00        -0.32355E+04
 
   -0.58619E+04         0.55845E+04         0.00000E+00
    0.55845E+04        -0.48241E+04         0.00000E+00
    0.00000E+00         0.00000E+00        -0.32058E+04
 
   -0.54162E+04         0.55801E+04         0.00000E+00
    0.55801E+04        -0.51622E+04         0.00000E+00
    0.00000E+00         0.00000E+00        -0.31735E+04
 
   -0.50014E+04         0.55749E+04         0.00000E+00
    0.55749E+04        -0.54590E+04         0.00000E+00
    0.00000E+00         0.00000E+00        -0.31381E+04
 
   -0.46109E+04         0.55817E+04         0.00000E+00
    0.55817E+04        -0.57180E+04         0.00000E+00
    0.00000E+00         0.00000E+00        -0.30987E+04
 
   -0.42348E+04         0.56122E+04         0.00000E+00
    0.56122E+04        -0.59451E+04         0.00000E+00
    0.00000E+00         0.00000E+00        -0.30540E+04
 
   -0.38602E+04         0.56755E+04         0.00000E+00
    0.56755E+04        -0.61481E+04         0.00000E+00
    0.00000E+00         0.00000E+00        -0.30025E+04
 
   -0.34720E+04         0.57784E+04         0.00000E+00
    0.57784E+04        -0.63365E+04         0.00000E+00
    0.00000E+00         0.00000E+00        -0.29426E+04
 
   -0.30534E+04         0.59252E+04         0.00000E+00
    0.59252E+04        -0.65209E+04         0.00000E+00
    0.00000E+00         0.00000E+00        -0.28723E+04
 
   -0.83457E+04         0.94825E+02         0.00000E+00
    0.94825E+02         0.56205E+01         0.00000E+00
    0.00000E+00         0.00000E+00        -0.25020E+04
 
   -0.87311E+04         0.33080E+03         0.00000E+00
    0.33080E+03         0.26092E+02         0.00000E+00
    0.00000E+00         0.00000E+00        -0.26115E+04
 
   -0.91184E+04         0.64666E+03         0.00000E+00
    0.64666E+03         0.43735E+02         0.00000E+00
    0.00000E+00         0.00000E+00        -0.27224E+04
 
   -0.94600E+04         0.10475E+04         0.00000E+00
    0.10475E+04         0.30232E+02         0.00000E+00
    0.00000E+00         0.00000E+00        -0.28289E+04
 
   -0.97129E+04         0.15202E+04         0.00000E+00
    0.15202E+04        -0.39344E+02         0.00000E+00
    0.00000E+00         0.00000E+00        -0.29257E+04
 
   -0.98469E+04         0.20391E+04         0.00000E+00
    0.20391E+04        -0.18143E+03         0.00000E+00
    0.00000E+00         0.00000E+00        -0.30085E+04
 
   -0.98475E+04         0.25730E+04         0.00000E+00
    0.25730E+04        -0.40189E+03         0.00000E+00
    0.00000E+00         0.00000E+00        -0.30748E+04
 
   -0.97164E+04         0.30913E+04         0.00000E+00
    0.30913E+04        -0.69659E+03         0.00000E+00
    0.00000E+00         0.00000E+00        -0.31239E+04
 
   -0.94677E+04         0.35686E+04         0.00000E+00
    0.35686E+04        -0.10539E+04         0.00000E+00
    0.00000E+00         0.00000E+00        -0.31565E+04
 
   -0.91234E+04         0.39878E+04         0.00000E+00
    0.39878E+04        -0.14578E+04         0.00000E+00
    0.00000E+00         0.00000E+00        -0.31743E+04
 
   -0.87084E+04         0.43400E+04         0.00000E+00
    0.43400E+04        -0.18911E+04         0.00000E+00
    0.00000E+00         0.00000E+00        -0.31798E+04
 
   -0.82471E+04         0.46235E+04         0.00000E+00
    0.46235E+04        -0.23376E+04         0.00000E+00
    0.00000E+00         0.00000E+00        -0.31754E+04
 
   -0.77604E+04         0.48420E+04         0.00000E+00
    0.48420E+04        -0.27833E+04         0.00000E+00
    0.00000E+00         0.00000E+00        -0.31631E+04
 
   -0.72655E+04         0.50025E+04         0.00000E+00
    0.50025E+04        -0.32170E+04         0.00000E+00
    0.00000E+00         0.00000E+00        -0.31448E+04
 
   -0.67754E+04         0.51145E+04         0.00000E+00
    0.51145E+04        -0.36298E+04         0.00000E+00
    0.00000E+00         0.00000E+00        -0.31215E+04
 
   -0.62988E+04         0.51887E+04         0.00000E+00
    0.51887E+04        -0.40151E+04         0.00000E+00
    0.00000E+00         0.00000E+00        -0.30942E+04
 
   -0.58410E+04         0.52365E+04         0.00000E+00
    0.52365E+04        -0.43688E+04         0.00000E+00
    0.00000E+00         0.00000E+00        -0.30629E+04
 
   -0.54036E+04         0.52700E+04         0.00000E+00
    0.52700E+04        -0.46889E+04         0.00000E+00
    0.00000E+00         0.00000E+00        -0.30278E+04
 
   -0.49847E+04         0.53006E+04         0.00000E+00
    0.53006E+04        -0.49761E+04         0.00000E+00
    0.00000E+00         0.00000E+00        -0.29882E+04
 
   -0.45788E+04         0.53390E+04         0.00000E+00
    0.53390E+04        -0.52331E+04         0.00000E+00
    0.00000E+00         0.00000E+00        -0.29436E+04
 
   -0.41779E+04         0.53947E+04         0.00000E+00
    0.53947E+04        -0.54647E+04         0.00000E+00
    0.00000E+00         0.00000E+00        -0.28928E+04
 
   -0.37711E+04         0.54753E+04         0.00000E+00
    0.54753E+04        -0.56775E+04         0.00000E+00
    0.00000E+00         0.00000E+00        -0.28346E+04
 
   -0.33459E+04         0.55861E+04         0.00000E+00
    0.55861E+04        -0.58795E+04         0.00000E+00
    0.00000E+00         0.00000E+00        -0.27676E+04
 
   -0.28878E+04         0.57306E+04         0.00000E+00
    0.57306E+04        -0.60796E+04         0.00000E+00
    0.00000E+00         0.00000E+00        -0.26902E+04
 
   -0.81333E+04         0.10386E+03         0.00000E+00
    0.10386E+03         0.22419E+01         0.00000E+00
    0.00000E+00         0.00000E+00        -0.24393E+04
 
   -0.84595E+04         0.34503E+03         0.00000E+00
    0.34503E+03         0.86606E+01         0.00000E+00
    0.00000E+00         0.00000E+00        -0.25353E+04
 
   -0.87744E+04         0.64353E+03         0.00000E+00
    0.64353E+03         0.67064E+01         0.00000E+00
    0.00000E+00         0.00000E+00        -0.26303E+04
 
   -0.90468E+04         0.10037E+04         0.00000E+00
    0.10037E+04        -0.22747E+02         0.00000E+00
    0.00000E+00         0.00000E+00        -0.27209E+04
 
   -0.92470E+04         0.14174E+04         0.00000E+00
    0.14174E+04        -0.97437E+02         0.00000E+00
    0.00000E+00         0.00000E+00        -0.28033E+04
 
   -0.93529E+04         0.18672E+04         0.00000E+00
    0.18672E+04        -0.22984E+03         0.00000E+00
    0.00000E+00         0.00000E+00        -0.28748E+04
 
   -0.93527E+04         0.23309E+04         0.00000E+00
    0.23309E+04        -0.42522E+03         0.00000E+00
    0.00000E+00         0.00000E+00        -0.29334E+04
 
   -0.92456E+04         0.27855E+04         0.00000E+00
    0.27855E+04        -0.68162E+03         0.00000E+00
    0.00000E+00         0.00000E+00        -0.29782E+04
 
   -0.90402E+04         0.32114E+04         0.00000E+00
    0.32114E+04        -0.99115E+03         0.00000E+00
    0.00000E+00         0.00000E+00        -0.30094E+04
 
   -0.87515E+04         0.35941E+04         0.00000E+00
    0.35941E+04        -0.13421E+04         0.00000E+00
    0.00000E+00         0.00000E+00        -0.30281E+04
 
   -0.83976E+04         0.39251E+04         0.00000E+00
    0.39251E+04        -0.17211E+04         0.00000E+00
    0.00000E+00         0.00000E+00        -0.30356E+04
 
   -0.79971E+04         0.42013E+04         0.00000E+00
    0.42013E+04        -0.21150E+04         0.00000E+00
    0.00000E+00         0.00000E+00        -0.30336E+04
 
   -0.75668E+04         0.44243E+04         0.00000E+00
    0.44243E+04        -0.25118E+04         0.00000E+00
    0.00000E+00         0.00000E+00        -0.30236E+04
 
   -0.71212E+04         0.45989E+04         0.00000E+00
    0.45989E+04        -0.29016E+04         0.00000E+00
    0.00000E+00         0.00000E+00        -0.30068E+04
 
   -0.66712E+04         0.47323E+04         0.00000E+00
    0.47323E+04        -0.32764E+04         0.00000E+00
    0.00000E+00         0.00000E+00        -0.29843E+04
 
   -0.62247E+04         0.48328E+04         0.00000E+00
    0.48328E+04        -0.36304E+04         0.00000E+00
    0.00000E+00         0.00000E+00        -0.29565E+04
 
   -0.57864E+04         0.49100E+04         0.00000E+00
    0.49100E+04        -0.39598E+04         0.00000E+00
    0.00000E+00         0.00000E+00        -0.29239E+04
 
   -0.53578E+04         0.49734E+04         0.00000E+00
    0.49734E+04        -0.42630E+04         0.00000E+00
    0.00000E+00         0.00000E+00        -0.28863E+04
 
   -0.49375E+04         0.50324E+04         0.00000E+00
    0.50324E+04        -0.45403E+04         0.00000E+00
    0.00000E+00         0.00000E+00        -0.28433E+04
 
   -0.45211E+04         0.50958E+04         0.00000E+00
    0.50958E+04        -0.47938E+04         0.00000E+00
    0.00000E+00         0.00000E+00        -0.27945E+04
 
   -0.41020E+04         0.51713E+04         0.00000E+00
    0.51713E+04        -0.50276E+04         0.00000E+00
    0.00000E+00         0.00000E+00        -0.27389E+04
 
   -0.36712E+04         0.52649E+04         0.00000E+00
    0.52649E+04        -0.52470E+04         0.00000E+00
    0.00000E+00         0.00000E+00        -0.26754E+04
 
   -0.32179E+04         0.53809E+04         0.00000E+00
    0.53809E+04        -0.54588E+04         0.00000E+00
    0.00000E+00         0.00000E+00        -0.26030E+04
 
   -0.27302E+04         0.55219E+04         0.00000E+00
    0.55219E+04        -0.56706E+04         0.00000E+00
    0.00000E+00         0.00000E+00        -0.25202E+04
 
   -0.79132E+04         0.10609E+03         0.00000E+00
    0.10609E+03         0.44625E-01         0.00000E+00
    0.00000E+00         0.00000E+00        -0.23740E+04
 
   -0.81959E+04         0.34395E+03         0.00000E+00
    0.34395E+03        -0.28050E+01         0.00000E+00
    0.00000E+00         0.00000E+00        -0.24596E+04
 
   -0.84581E+04         0.62437E+03         0.00000E+00
    0.62437E+03        -0.17832E+02         0.00000E+00
    0.00000E+00         0.00000E+00        -0.25428E+04
 
   -0.86794E+04         0.95043E+03         0.00000E+00
    0.95043E+03        -0.57834E+02         0.00000E+00
    0.00000E+00         0.00000E+00        -0.26212E+04
 
   -0.88396E+04         0.13167E+04         0.00000E+00
    0.13167E+04        -0.13524E+03         0.00000E+00
    0.00000E+00         0.00000E+00        -0.26924E+04
 
   -0.89226E+04         0.17112E+04         0.00000E+00
    0.17112E+04        -0.25926E+03         0.00000E+00
    0.00000E+00         0.00000E+00        -0.27546E+04
 
   -0.89194E+04         0.21177E+04         0.00000E+00
    0.21177E+04        -0.43426E+03         0.00000E+00
    0.00000E+00         0.00000E+00        -0.28061E+04
 
   -0.88283E+04         0.25194E+04         0.00000E+00
    0.25194E+04        -0.65943E+03         0.00000E+00
    0.00000E+00         0.00000E+00        -0.28463E+04
 
   -0.86543E+04         0.29011E+04         0.00000E+00
    0.29011E+04        -0.92943E+03         0.00000E+00
    0.00000E+00         0.00000E+00        -0.28751E+04
 
   -0.84077E+04         0.32506E+04         0.00000E+00
    0.32506E+04        -0.12357E+04         0.00000E+00
    0.00000E+00         0.00000E+00        -0.28930E+04
 
   -0.81015E+04         0.35605E+04         0.00000E+00
    0.35605E+04        -0.15681E+04         0.00000E+00
    0.00000E+00         0.00000E+00        -0.29009E+04
 
   -0.77499E+04         0.38271E+04         0.00000E+00
    0.38271E+04        -0.19160E+04         0.00000E+00
    0.00000E+00         0.00000E+00        -0.28998E+04
 
   -0.73660E+04         0.40507E+04         0.00000E+00
    0.40507E+04        -0.22695E+04         0.00000E+00
    0.00000E+00         0.00000E+00        -0.28907E+04
 
   -0.69616E+04         0.42343E+04         0.00000E+00
    0.42343E+04        -0.26200E+04         0.00000E+00
    0.00000E+00         0.00000E+00        -0.28745E+04
 
   -0.65460E+04         0.43830E+04         0.00000E+00
    0.43830E+04        -0.29607E+04         0.00000E+00
    0.00000E+00         0.00000E+00        -0.28520E+04
 
   -0.61259E+04         0.45036E+04         0.00000E+00
    0.45036E+04        -0.32864E+04         0.00000E+00
    0.00000E+00         0.00000E+00        -0.28237E+04
 
   -0.57054E+04         0.46033E+04         0.00000E+00
    0.46033E+04        -0.35935E+04         0.00000E+00
    0.00000E+00         0.00000E+00        -0.27897E+04
 
   -0.52859E+04         0.46900E+04         0.00000E+00
    0.46900E+04        -0.38806E+04         0.00000E+00
    0.00000E+00         0.00000E+00        -0.27500E+04
 
   -0.48665E+04         0.47712E+04         0.00000E+00
    0.47712E+04        -0.41478E+04         0.00000E+00
    0.00000E+00         0.00000E+00        -0.27043E+04
 
   -0.44436E+04         0.48540E+04         0.00000E+00
    0.48540E+04        -0.43967E+04         0.00000E+00
    0.00000E+00         0.00000E+00        -0.26521E+04
 
   -0.40117E+04         0.49444E+04         0.00000E+00
    0.49444E+04        -0.46306E+04         0.00000E+00
    0.00000E+00         0.00000E+00        -0.25927E+04
 
   -0.35634E+04         0.50475E+04         0.00000E+00
    0.50475E+04        -0.48541E+04         0.00000E+00
    0.00000E+00         0.00000E+00        -0.25253E+04
 
   -0.30898E+04         0.51664E+04         0.00000E+00
    0.51664E+04        -0.50726E+04         0.00000E+00
    0.00000E+00         0.00000E+00        -0.24487E+04
 
   -0.25807E+04         0.53029E+04         0.00000E+00
    0.53029E+04        -0.52927E+04         0.00000E+00
    0.00000E+00         0.00000E+00        -0.23620E+04
 
   -0.76952E+04         0.10398E+03         0.00000E+00
    0.10398E+03        -0.13200E+01         0.00000E+00
    0.00000E+00         0.00000E+00        -0.23089E+04
 
   -0.79442E+04         0.33294E+03         0.00000E+00
    0.33294E+03        -0.99733E+01         0.00000E+00
    0.00000E+00         0.00000E+00        -0.23862E+04
 
   -0.81668E+04         0.59489E+03         0.00000E+00
    0.59489E+03        -0.33159E+02         0.00000E+00
    0.00000E+00         0.00000E+00        -0.24600E+04
 
   -0.83497E+04         0.89152E+03         0.00000E+00
    0.89152E+03        -0.79395E+02         0.00000E+00
    0.00000E+00         0.00000E+00        -0.25287E+04
 
   -0.84792E+04         0.12189E+04         0.00000E+00
    0.12189E+04        -0.15729E+03         0.00000E+00
    0.00000E+00         0.00000E+00        -0.25909E+04
 
   -0.85438E+04         0.15684E+04         0.00000E+00
    0.15684E+04        -0.27350E+03         0.00000E+00
    0.00000E+00         0.00000E+00        -0.26452E+04
 
   -0.85367E+04         0.19283E+04         0.00000E+00
    0.19283E+04        -0.43144E+03         0.00000E+00
    0.00000E+00         0.00000E+00        -0.26905E+04
 
   -0.84560E+04         0.22860E+04         0.00000E+00
    0.22860E+04        -0.63086E+03         0.00000E+00
    0.00000E+00         0.00000E+00        -0.27261E+04
 
   -0.83048E+04         0.26297E+04         0.00000E+00
    0.26297E+04        -0.86810E+03         0.00000E+00
    0.00000E+00         0.00000E+00        -0.27519E+04
 
   -0.80899E+04         0.29496E+04         0.00000E+00
    0.29496E+04        -0.11370E+04         0.00000E+00
    0.00000E+00         0.00000E+00        -0.27681E+04
 
   -0.78209E+04         0.32392E+04         0.00000E+00
    0.32392E+04        -0.14296E+04         0.00000E+00
    0.00000E+00         0.00000E+00        -0.27752E+04
 
   -0.75082E+04         0.34949E+04         0.00000E+00
    0.34949E+04        -0.17378E+04         0.00000E+00
    0.00000E+00         0.00000E+00        -0.27738E+04
 
   -0.71621E+04         0.37160E+04         0.00000E+00
    0.37160E+04        -0.20535E+04         0.00000E+00
    0.00000E+00         0.00000E+00        -0.27647E+04
 
   -0.67921E+04         0.39043E+04         0.00000E+00
    0.39043E+04        -0.23694E+04         0.00000E+00
    0.00000E+00         0.00000E+00        -0.27484E+04
 
   -0.64056E+04         0.40635E+04         0.00000E+00
    0.40635E+04        -0.26796E+04         0.00000E+00
    0.00000E+00         0.00000E+00        -0.27255E+04
 
   -0.60084E+04         0.41985E+04         0.00000E+00
    0.41985E+04        -0.29795E+04         0.00000E+00
    0.00000E+00         0.00000E+00        -0.26964E+04
 
   -0.56041E+04         0.43151E+04         0.00000E+00
    0.43151E+04        -0.32662E+04         0.00000E+00
    0.00000E+00         0.00000E+00        -0.26611E+04
 
   -0.51939E+04         0.44194E+04         0.00000E+00
    0.44194E+04        -0.35380E+04         0.00000E+00
    0.00000E+00         0.00000E+00        -0.26196E+04
 
   -0.47770E+04         0.45174E+04         0.00000E+00
    0.45174E+04        -0.37950E+04         0.00000E+00
    0.00000E+00         0.00000E+00        -0.25716E+04
 
   -0.43509E+04         0.46148E+04         0.00000E+00
    0.46148E+04        -0.40385E+04         0.00000E+00
    0.00000E+00         0.00000E+00        -0.25168E+04
 
   -0.39108E+04         0.47163E+04         0.00000E+00
    0.47163E+04        -0.42710E+04         0.00000E+00
    0.00000E+00         0.00000E+00        -0.24545E+04
 
   -0.34508E+04         0.48258E+04         0.00000E+00
    0.48258E+04        -0.44963E+04         0.00000E+00
    0.00000E+00         0.00000E+00        -0.23841E+04
 
   -0.29632E+04         0.49456E+04         0.00000E+00
    0.49456E+04        -0.47189E+04         0.00000E+00
    0.00000E+00         0.00000E+00        -0.23046E+04
 
   -0.24397E+04         0.50769E+04         0.00000E+00
    0.50769E+04        -0.49443E+04         0.00000E+00
    0.00000E+00         0.00000E+00        -0.22152E+04
 
   -0.74852E+04         0.99252E+02         0.00000E+00
    0.99252E+02        -0.21112E+01         0.00000E+00
    0.00000E+00         0.00000E+00        -0.22462E+04
 
   -0.77067E+04         0.31593E+03         0.00000E+00
    0.31593E+03        -0.14128E+02         0.00000E+00
    0.00000E+00         0.00000E+00        -0.23163E+04
 
   -0.78985E+04         0.55937E+03         0.00000E+00
    0.55937E+03        -0.41906E+02         0.00000E+00
    0.00000E+00         0.00000E+00        -0.23821E+04
 
   -0.80519E+04         0.83007E+03         0.00000E+00
    0.83007E+03        -0.91113E+02         0.00000E+00
    0.00000E+00         0.00000E+00        -0.24429E+04
 
   -0.81574E+04         0.11249E+04         0.00000E+00
    0.11249E+04        -0.16767E+03         0.00000E+00
    0.00000E+00         0.00000E+00        -0.24975E+04
 
   -0.82071E+04         0.14373E+04         0.00000E+00
    0.14373E+04        -0.27630E+03         0.00000E+00
    0.00000E+00         0.00000E+00        -0.25450E+04
 
   -0.81958E+04         0.17587E+04         0.00000E+00
    0.17587E+04        -0.41957E+03         0.00000E+00
    0.00000E+00         0.00000E+00        -0.25846E+04
 
   -0.81219E+04         0.20796E+04         0.00000E+00
    0.20796E+04        -0.59746E+03         0.00000E+00
    0.00000E+00         0.00000E+00        -0.26158E+04
 
   -0.79870E+04         0.23907E+04         0.00000E+00
    0.23907E+04        -0.80742E+03         0.00000E+00
    0.00000E+00         0.00000E+00        -0.26383E+04
 
   -0.77960E+04         0.26844E+04         0.00000E+00
    0.26844E+04        -0.10449E+04         0.00000E+00
    0.00000E+00         0.00000E+00        -0.26523E+04
 
   -0.75557E+04         0.29550E+04         0.00000E+00
    0.29550E+04        -0.13040E+04         0.00000E+00
    0.00000E+00         0.00000E+00        -0.26579E+04
 
   -0.72738E+04         0.31990E+04         0.00000E+00
    0.31990E+04        -0.15781E+04         0.00000E+00
    0.00000E+00         0.00000E+00        -0.26556E+04
 
   -0.69584E+04         0.34155E+04         0.00000E+00
    0.34155E+04        -0.18609E+04         0.00000E+00
    0.00000E+00         0.00000E+00        -0.26458E+04
 
   -0.66166E+04         0.36052E+04         0.00000E+00
    0.36052E+04        -0.21463E+04         0.00000E+00
    0.00000E+00         0.00000E+00        -0.26289E+04
 
   -0.62548E+04         0.37707E+04         0.00000E+00
    0.37707E+04        -0.24295E+04         0.00000E+00
    0.00000E+00         0.00000E+00        -0.26053E+04
 
   -0.58775E+04         0.39155E+04         0.00000E+00
    0.39155E+04        -0.27063E+04         0.00000E+00
    0.00000E+00         0.00000E+00        -0.25751E+04
 
   -0.54878E+04         0.40442E+04         0.00000E+00
    0.40442E+04        -0.29742E+04         0.00000E+00
    0.00000E+00         0.00000E+00        -0.25386E+04
 
   -0.50868E+04         0.41613E+04         0.00000E+00
    0.41613E+04        -0.32317E+04         0.00000E+00
    0.00000E+00         0.00000E+00        -0.24955E+04
 
   -0.46740E+04         0.42716E+04         0.00000E+00
    0.42716E+04        -0.34786E+04         0.00000E+00
    0.00000E+00         0.00000E+00        -0.24458E+04
 
   -0.42472E+04         0.43795E+04         0.00000E+00
    0.43795E+04        -0.37159E+04         0.00000E+00
    0.00000E+00         0.00000E+00        -0.23889E+04
 
   -0.38026E+04         0.44886E+04         0.00000E+00
    0.44886E+04        -0.39457E+04         0.00000E+00
    0.00000E+00         0.00000E+00        -0.23245E+04
 
   -0.33354E+04         0.46020E+04         0.00000E+00
    0.46020E+04        -0.41711E+04         0.00000E+00
    0.00000E+00         0.00000E+00        -0.22519E+04
 
   -0.28392E+04         0.47211E+04         0.00000E+00
    0.47211E+04        -0.43957E+04         0.00000E+00
    0.00000E+00         0.00000E+00        -0.21705E+04
 
   -0.23072E+04         0.48466E+04         0.00000E+00
    0.48466E+04        -0.46240E+04         0.00000E+00
    0.00000E+00         0.00000E+00        -0.20794E+04
 
   -0.72869E+04         0.93090E+02         0.00000E+00
    0.93090E+02        -0.25167E+01         0.00000E+00
    0.00000E+00         0.00000E+00        -0.21868E+04
 
   -0.74849E+04         0.29567E+03         0.00000E+00
    0.29567E+03        -0.16224E+02         0.00000E+00
    0.00000E+00         0.00000E+00        -0.22503E+04
 
   -0.76517E+04         0.52092E+03         0.00000E+00
    0.52092E+03        -0.46091E+02         0.00000E+00
    0.00000E+00         0.00000E+00        -0.23093E+04
 
   -0.77816E+04         0.76842E+03         0.00000E+00
    0.76842E+03        -0.95917E+02         0.00000E+00
    0.00000E+00         0.00000E+00        -0.23632E+04
 
   -0.78680E+04         0.10354E+04         0.00000E+00
    0.10354E+04        -0.16976E+03         0.00000E+00
    0.00000E+00         0.00000E+00        -0.24113E+04
 
   -0.79054E+04         0.13168E+04         0.00000E+00
    0.13168E+04        -0.27095E+03         0.00000E+00
    0.00000E+00         0.00000E+00        -0.24529E+04
 
   -0.78898E+04         0.16060E+04         0.00000E+00
    0.16060E+04        -0.40134E+03         0.00000E+00
    0.00000E+00         0.00000E+00        -0.24873E+04
 
   -0.78200E+04         0.18958E+04         0.00000E+00
    0.18958E+04        -0.56096E+03         0.00000E+00
    0.00000E+00         0.00000E+00        -0.25143E+04
 
   -0.76969E+04         0.21790E+04         0.00000E+00
    0.21790E+04        -0.74800E+03         0.00000E+00
    0.00000E+00         0.00000E+00        -0.25335E+04
 
   -0.75238E+04         0.24494E+04         0.00000E+00
    0.24494E+04        -0.95907E+03         0.00000E+00
    0.00000E+00         0.00000E+00        -0.25449E+04
 
   -0.73056E+04         0.27022E+04         0.00000E+00
    0.27022E+04        -0.11897E+04         0.00000E+00
    0.00000E+00         0.00000E+00        -0.25486E+04
 
   -0.70480E+04         0.29344E+04         0.00000E+00
    0.29344E+04        -0.14348E+04         0.00000E+00
    0.00000E+00         0.00000E+00        -0.25448E+04
 
   -0.67572E+04         0.31446E+04         0.00000E+00
    0.31446E+04        -0.16892E+04         0.00000E+00
    0.00000E+00         0.00000E+00        -0.25339E+04
 
   -0.64388E+04         0.33332E+04         0.00000E+00
    0.33332E+04        -0.19481E+04         0.00000E+00
    0.00000E+00         0.00000E+00        -0.25161E+04
 
   -0.60976E+04         0.35016E+04         0.00000E+00
    0.35016E+04        -0.22073E+04         0.00000E+00
    0.00000E+00         0.00000E+00        -0.24915E+04
 
   -0.57376E+04         0.36525E+04         0.00000E+00
    0.36525E+04        -0.24634E+04         0.00000E+00
    0.00000E+00         0.00000E+00        -0.24603E+04
 
   -0.53610E+04         0.37891E+04         0.00000E+00
    0.37891E+04        -0.27141E+04         0.00000E+00
    0.00000E+00         0.00000E+00        -0.24225E+04
 
   -0.49690E+04         0.39150E+04         0.00000E+00
    0.39150E+04        -0.29582E+04         0.00000E+00
    0.00000E+00         0.00000E+00        -0.23782E+04
 
   -0.45612E+04         0.40338E+04         0.00000E+00
    0.40338E+04        -0.31952E+04         0.00000E+00
    0.00000E+00         0.00000E+00        -0.23269E+04
 
   -0.41358E+04         0.41488E+04         0.00000E+00
    0.41488E+04        -0.34260E+04         0.00000E+00
    0.00000E+00         0.00000E+00        -0.22686E+04
 
   -0.36899E+04         0.42628E+04         0.00000E+00
    0.42628E+04        -0.36522E+04         0.00000E+00
    0.00000E+00         0.00000E+00        -0.22026E+04
 
   -0.32192E+04         0.43778E+04         0.00000E+00
    0.43778E+04        -0.38762E+04         0.00000E+00
    0.00000E+00         0.00000E+00        -0.21286E+04
 
   -0.27189E+04         0.44950E+04         0.00000E+00
    0.44950E+04        -0.41010E+04         0.00000E+00
    0.00000E+00         0.00000E+00        -0.20460E+04
 
   -0.21831E+04         0.46142E+04         0.00000E+00
    0.46142E+04        -0.43302E+04         0.00000E+00
    0.00000E+00         0.00000E+00        -0.19540E+04
 
   -0.71021E+04         0.86273E+02         0.00000E+00
    0.86273E+02        -0.26694E+01         0.00000E+00
    0.00000E+00         0.00000E+00        -0.21314E+04
 
   -0.72791E+04         0.27404E+03         0.00000E+00
    0.27404E+03        -0.16953E+02         0.00000E+00
    0.00000E+00         0.00000E+00        -0.21888E+04
 
   -0.74249E+04         0.48172E+03         0.00000E+00
    0.48172E+03        -0.47211E+02         0.00000E+00
    0.00000E+00         0.00000E+00        -0.22416E+04
 
   -0.75354E+04         0.70824E+03         0.00000E+00
    0.70824E+03        -0.96044E+02         0.00000E+00
    0.00000E+00         0.00000E+00        -0.22894E+04
 
   -0.76061E+04         0.95099E+03         0.00000E+00
    0.95099E+03        -0.16625E+03         0.00000E+00
    0.00000E+00         0.00000E+00        -0.23317E+04
 
   -0.76330E+04         0.12059E+04         0.00000E+00
    0.12059E+04        -0.26014E+03         0.00000E+00
    0.00000E+00         0.00000E+00        -0.23679E+04
 
   -0.76132E+04         0.14679E+04         0.00000E+00
    0.14679E+04        -0.37905E+03         0.00000E+00
    0.00000E+00         0.00000E+00        -0.23977E+04
 
   -0.75456E+04         0.17312E+04         0.00000E+00
    0.17312E+04        -0.52297E+03         0.00000E+00
    0.00000E+00         0.00000E+00        -0.24206E+04
 
   -0.74309E+04         0.19901E+04         0.00000E+00
    0.19901E+04        -0.69059E+03         0.00000E+00
    0.00000E+00         0.00000E+00        -0.24364E+04
 
   -0.72711E+04         0.22398E+04         0.00000E+00
    0.22398E+04        -0.87936E+03         0.00000E+00
    0.00000E+00         0.00000E+00        -0.24451E+04
 
   -0.70699E+04         0.24762E+04         0.00000E+00
    0.24762E+04        -0.10859E+04         0.00000E+00
    0.00000E+00         0.00000E+00        -0.24467E+04
 
   -0.68315E+04         0.26966E+04         0.00000E+00
    0.26966E+04        -0.13062E+04         0.00000E+00
    0.00000E+00         0.00000E+00        -0.24413E+04
 
   -0.65604E+04         0.28995E+04         0.00000E+00
    0.28995E+04        -0.15362E+04         0.00000E+00
    0.00000E+00         0.00000E+00        -0.24290E+04
 
   -0.62611E+04         0.30849E+04         0.00000E+00
    0.30849E+04        -0.17720E+04         0.00000E+00
    0.00000E+00         0.00000E+00        -0.24099E+04
 
   -0.59373E+04         0.32537E+04         0.00000E+00
    0.32537E+04        -0.20101E+04         0.00000E+00
    0.00000E+00         0.00000E+00        -0.23842E+04
 
   -0.55921E+04         0.34075E+04         0.00000E+00
    0.34075E+04        -0.22477E+04         0.00000E+00
    0.00000E+00         0.00000E+00        -0.23519E+04
 
   -0.52274E+04         0.35488E+04         0.00000E+00
    0.35488E+04        -0.24829E+04         0.00000E+00
    0.00000E+00         0.00000E+00        -0.23131E+04
 
   -0.48442E+04         0.36801E+04         0.00000E+00
    0.36801E+04        -0.27144E+04         0.00000E+00
    0.00000E+00         0.00000E+00        -0.22676E+04
 
   -0.44421E+04         0.38042E+04         0.00000E+00
    0.38042E+04        -0.29419E+04         0.00000E+00
    0.00000E+00         0.00000E+00        -0.22152E+04
 
   -0.40198E+04         0.39234E+04         0.00000E+00
    0.39234E+04        -0.31660E+04         0.00000E+00
    0.00000E+00         0.00000E+00        -0.21557E+04
 
   -0.35748E+04         0.40398E+04         0.00000E+00
    0.40398E+04        -0.33877E+04         0.00000E+00
    0.00000E+00         0.00000E+00        -0.20888E+04
 
   -0.31039E+04         0.41548E+04         0.00000E+00
    0.41548E+04        -0.36092E+04         0.00000E+00
    0.00000E+00         0.00000E+00        -0.20139E+04
 
   -0.26029E+04         0.42689E+04         0.00000E+00
    0.42689E+04        -0.38328E+04         0.00000E+00
    0.00000E+00         0.00000E+00        -0.19307E+04
 
   -0.20673E+04         0.43817E+04         0.00000E+00
    0.43817E+04        -0.40614E+04         0.00000E+00
    0.00000E+00         0.00000E+00        -0.18386E+04
 
   -0.69315E+04         0.79309E+02         0.00000E+00
    0.79309E+02        -0.26622E+01         0.00000E+00
    0.00000E+00         0.00000E+00        -0.20802E+04
 
   -0.70892E+04         0.25226E+03         0.00000E+00
    0.25226E+03        -0.16807E+02         0.00000E+00
    0.00000E+00         0.00000E+00        -0.21318E+04
 
   -0.72166E+04         0.44322E+03         0.00000E+00
    0.44322E+03        -0.46357E+02         0.00000E+00
    0.00000E+00         0.00000E+00        -0.21789E+04
 
   -0.73106E+04         0.65064E+03         0.00000E+00
    0.65064E+03        -0.93154E+02         0.00000E+00
    0.00000E+00         0.00000E+00        -0.22211E+04
 
   -0.73679E+04         0.87206E+03         0.00000E+00
    0.87206E+03        -0.15916E+03         0.00000E+00
    0.00000E+00         0.00000E+00        -0.22581E+04
 
   -0.73857E+04         0.11041E+04         0.00000E+00
    0.11041E+04        -0.24598E+03         0.00000E+00
    0.00000E+00         0.00000E+00        -0.22895E+04
 
   -0.73618E+04         0.13425E+04         0.00000E+00
    0.13425E+04        -0.35456E+03         0.00000E+00
    0.00000E+00         0.00000E+00        -0.23149E+04
 
   -0.72951E+04         0.15829E+04         0.00000E+00
    0.15829E+04        -0.48486E+03         0.00000E+00
    0.00000E+00         0.00000E+00        -0.23340E+04
 
   -0.71861E+04         0.18207E+04         0.00000E+00
    0.18207E+04        -0.63588E+03         0.00000E+00
    0.00000E+00         0.00000E+00        -0.23466E+04
 
   -0.70363E+04         0.20518E+04         0.00000E+00
    0.20518E+04        -0.80572E+03         0.00000E+00
    0.00000E+00         0.00000E+00        -0.23526E+04
 
   -0.68480E+04         0.22729E+04         0.00000E+00
    0.22729E+04        -0.99173E+03         0.00000E+00
    0.00000E+00         0.00000E+00        -0.23519E+04
 
   -0.66246E+04         0.24817E+04         0.00000E+00
    0.24817E+04        -0.11909E+04         0.00000E+00
    0.00000E+00         0.00000E+00        -0.23446E+04
 
   -0.63694E+04         0.26766E+04         0.00000E+00
    0.26766E+04        -0.13998E+04         0.00000E+00
    0.00000E+00         0.00000E+00        -0.23308E+04
 
   -0.60856E+04         0.28574E+04         0.00000E+00
    0.28574E+04        -0.16156E+04         0.00000E+00
    0.00000E+00         0.00000E+00        -0.23104E+04
 
   -0.57764E+04         0.30244E+04         0.00000E+00
    0.30244E+04        -0.18352E+04         0.00000E+00
    0.00000E+00         0.00000E+00        -0.22835E+04
 
   -0.54440E+04         0.31786E+04         0.00000E+00
    0.31786E+04        -0.20565E+04         0.00000E+00
    0.00000E+00         0.00000E+00        -0.22502E+04
 
   -0.50901E+04         0.33219E+04         0.00000E+00
    0.33219E+04        -0.22776E+04         0.00000E+00
    0.00000E+00         0.00000E+00        -0.22103E+04
 
   -0.47153E+04         0.34559E+04         0.00000E+00
    0.34559E+04        -0.24975E+04         0.00000E+00
    0.00000E+00         0.00000E+00        -0.21638E+04
 
   -0.43195E+04         0.35826E+04         0.00000E+00
    0.35826E+04        -0.27158E+04         0.00000E+00
    0.00000E+00         0.00000E+00        -0.21106E+04
 
   -0.39014E+04         0.37037E+04         0.00000E+00
    0.37037E+04        -0.29330E+04         0.00000E+00
    0.00000E+00         0.00000E+00        -0.20503E+04
 
   -0.34594E+04         0.38206E+04         0.00000E+00
    0.38206E+04        -0.31499E+04         0.00000E+00
    0.00000E+00         0.00000E+00        -0.19828E+04
 
   -0.29906E+04         0.39341E+04         0.00000E+00
    0.39341E+04        -0.33680E+04         0.00000E+00
    0.00000E+00         0.00000E+00        -0.19076E+04
 
   -0.24919E+04         0.40443E+04         0.00000E+00
    0.40443E+04        -0.35892E+04         0.00000E+00
    0.00000E+00         0.00000E+00        -0.18243E+04
 
   -0.19597E+04         0.41505E+04         0.00000E+00
    0.41505E+04        -0.38159E+04         0.00000E+00
    0.00000E+00         0.00000E+00        -0.17327E+04
 
   -0.67748E+04         0.72512E+02         0.00000E+00
    0.72512E+02        -0.25588E+01         0.00000E+00
    0.00000E+00         0.00000E+00        -0.20332E+04
 
   -0.69146E+04         0.23113E+03         0.00000E+00
    0.23113E+03        -0.16130E+02         0.00000E+00
    0.00000E+00         0.00000E+00        -0.20792E+04
 
   -0.70255E+04         0.40632E+03         0.00000E+00
    0.40632E+03        -0.44303E+02         0.00000E+00
    0.00000E+00         0.00000E+00        -0.21209E+04
 
   -0.71050E+04         0.59629E+03         0.00000E+00
    0.59629E+03        -0.88452E+02         0.00000E+00
    0.00000E+00         0.00000E+00        -0.21580E+04
 
   -0.71507E+04         0.79868E+03         0.00000E+00
    0.79868E+03        -0.14999E+03         0.00000E+00
    0.00000E+00         0.00000E+00        -0.21902E+04
 
   -0.71603E+04         0.10106E+04         0.00000E+00
    0.10106E+04        -0.23006E+03         0.00000E+00
    0.00000E+00         0.00000E+00        -0.22171E+04
 
   -0.71322E+04         0.12285E+04         0.00000E+00
    0.12285E+04        -0.32931E+03         0.00000E+00
    0.00000E+00         0.00000E+00        -0.22384E+04
 
   -0.70654E+04         0.14488E+04         0.00000E+00
    0.14488E+04        -0.44770E+03         0.00000E+00
    0.00000E+00         0.00000E+00        -0.22539E+04
 
   -0.69602E+04         0.16678E+04         0.00000E+00
    0.16678E+04        -0.58445E+03         0.00000E+00
    0.00000E+00         0.00000E+00        -0.22634E+04
 
   -0.68176E+04         0.18821E+04         0.00000E+00
    0.18821E+04        -0.73809E+03         0.00000E+00
    0.00000E+00         0.00000E+00        -0.22667E+04
 
   -0.66393E+04         0.20891E+04         0.00000E+00
    0.20891E+04        -0.90661E+03         0.00000E+00
    0.00000E+00         0.00000E+00        -0.22638E+04
 
   -0.64276E+04         0.22865E+04         0.00000E+00
    0.22865E+04        -0.10876E+04         0.00000E+00
    0.00000E+00         0.00000E+00        -0.22546E+04
 
   -0.61850E+04         0.24730E+04         0.00000E+00
    0.24730E+04        -0.12785E+04         0.00000E+00
    0.00000E+00         0.00000E+00        -0.22391E+04
 
   -0.59141E+04         0.26479E+04         0.00000E+00
    0.26479E+04        -0.14769E+04         0.00000E+00
    0.00000E+00         0.00000E+00        -0.22173E+04
 
   -0.56171E+04         0.28115E+04         0.00000E+00
    0.28115E+04        -0.16803E+04         0.00000E+00
    0.00000E+00         0.00000E+00        -0.21892E+04
 
   -0.52958E+04         0.29643E+04         0.00000E+00
    0.29643E+04        -0.18870E+04         0.00000E+00
    0.00000E+00         0.00000E+00        -0.21548E+04
 
   -0.49515E+04         0.31072E+04         0.00000E+00
    0.31072E+04        -0.20954E+04         0.00000E+00
    0.00000E+00         0.00000E+00        -0.21141E+04
 
   -0.45848E+04         0.32417E+04         0.00000E+00
    0.32417E+04        -0.23046E+04         0.00000E+00
    0.00000E+00         0.00000E+00        -0.20668E+04
 
   -0.41955E+04         0.33688E+04         0.00000E+00
    0.33688E+04        -0.25143E+04         0.00000E+00
    0.00000E+00         0.00000E+00        -0.20129E+04
 
   -0.37828E+04         0.34899E+04         0.00000E+00
    0.34899E+04        -0.27246E+04         0.00000E+00
    0.00000E+00         0.00000E+00        -0.19522E+04
 
   -0.33451E+04         0.36056E+04         0.00000E+00
    0.36056E+04        -0.29363E+04         0.00000E+00
    0.00000E+00         0.00000E+00        -0.18844E+04
 
   -0.28805E+04         0.37165E+04         0.00000E+00
    0.37165E+04        -0.31504E+04         0.00000E+00
    0.00000E+00         0.00000E+00        -0.18093E+04
 
   -0.23863E+04         0.38222E+04         0.00000E+00
    0.38222E+04        -0.33684E+04         0.00000E+00
    0.00000E+00         0.00000E+00        -0.17264E+04
 
   -0.18598E+04         0.39218E+04         0.00000E+00
    0.39218E+04        -0.35921E+04         0.00000E+00
    0.00000E+00         0.00000E+00        -0.16356E+04
 
   -0.66317E+04         0.66064E+02         0.00000E+00
    0.66064E+02        -0.24026E+01         0.00000E+00
    0.00000E+00         0.00000E+00        -0.19902E+04
 
   -0.67547E+04         0.21109E+03         0.00000E+00
    0.21109E+03        -0.15160E+02         0.00000E+00
    0.00000E+00         0.00000E+00        -0.20309E+04
 
   -0.68504E+04         0.37155E+03         0.00000E+00
    0.37155E+03        -0.41591E+02         0.00000E+00
    0.00000E+00         0.00000E+00        -0.20676E+04
 
   -0.69169E+04         0.54553E+03         0.00000E+00
    0.54553E+03        -0.82789E+02         0.00000E+00
    0.00000E+00         0.00000E+00        -0.20999E+04
 
   -0.69521E+04         0.73078E+03         0.00000E+00
    0.73078E+03        -0.13982E+03         0.00000E+00
    0.00000E+00         0.00000E+00        -0.21276E+04
 
   -0.69542E+04         0.92472E+03         0.00000E+00
    0.92472E+03        -0.21352E+03         0.00000E+00
    0.00000E+00         0.00000E+00        -0.21503E+04
 
   -0.69218E+04         0.11244E+04         0.00000E+00
    0.11244E+04        -0.30436E+03         0.00000E+00
    0.00000E+00         0.00000E+00        -0.21678E+04
 
   -0.68542E+04         0.13269E+04         0.00000E+00
    0.13269E+04        -0.41228E+03         0.00000E+00
    0.00000E+00         0.00000E+00        -0.21799E+04
 
   -0.67513E+04         0.15291E+04         0.00000E+00
    0.15291E+04        -0.53668E+03         0.00000E+00
    0.00000E+00         0.00000E+00        -0.21864E+04
 
   -0.66139E+04         0.17282E+04         0.00000E+00
    0.17282E+04        -0.67643E+03         0.00000E+00
    0.00000E+00         0.00000E+00        -0.21871E+04
 
   -0.64431E+04         0.19218E+04         0.00000E+00
    0.19218E+04        -0.82996E+03         0.00000E+00
    0.00000E+00         0.00000E+00        -0.21819E+04
 
   -0.62405E+04         0.21082E+04         0.00000E+00
    0.21082E+04        -0.99541E+03         0.00000E+00
    0.00000E+00         0.00000E+00        -0.21708E+04
 
   -0.60081E+04         0.22859E+04         0.00000E+00
    0.22859E+04        -0.11708E+04         0.00000E+00
    0.00000E+00         0.00000E+00        -0.21536E+04
 
   -0.57476E+04         0.24542E+04         0.00000E+00
    0.24542E+04        -0.13540E+04         0.00000E+00
    0.00000E+00         0.00000E+00        -0.21305E+04
 
   -0.54609E+04         0.26131E+04         0.00000E+00
    0.26131E+04        -0.15433E+04         0.00000E+00
    0.00000E+00         0.00000E+00        -0.21013E+04
 
   -0.51492E+04         0.27628E+04         0.00000E+00
    0.27628E+04        -0.17371E+04         0.00000E+00
    0.00000E+00         0.00000E+00        -0.20659E+04
 
   -0.48137E+04         0.29037E+04         0.00000E+00
    0.29037E+04        -0.19341E+04         0.00000E+00
    0.00000E+00         0.00000E+00        -0.20243E+04
 
   -0.44547E+04         0.30368E+04         0.00000E+00
    0.30368E+04        -0.21335E+04         0.00000E+00
    0.00000E+00         0.00000E+00        -0.19764E+04
 
   -0.40721E+04         0.31627E+04         0.00000E+00
    0.31627E+04        -0.23350E+04         0.00000E+00
    0.00000E+00         0.00000E+00        -0.19221E+04
 
   -0.36654E+04         0.32821E+04         0.00000E+00
    0.32821E+04        -0.25386E+04         0.00000E+00
    0.00000E+00         0.00000E+00        -0.18612E+04
 
   -0.32333E+04         0.33954E+04         0.00000E+00
    0.33954E+04        -0.27448E+04         0.00000E+00
    0.00000E+00         0.00000E+00        -0.17934E+04
 
   -0.27742E+04         0.35027E+04         0.00000E+00
    0.35027E+04        -0.29544E+04         0.00000E+00
    0.00000E+00         0.00000E+00        -0.17186E+04
 
   -0.22864E+04         0.36034E+04         0.00000E+00
    0.36034E+04        -0.31686E+04         0.00000E+00
    0.00000E+00         0.00000E+00        -0.16365E+04
 
   -0.17676E+04         0.36965E+04         0.00000E+00
    0.36965E+04        -0.33886E+04         0.00000E+00
    0.00000E+00         0.00000E+00        -0.15469E+04
 
   -0.65012E+04         0.60059E+02         0.00000E+00
    0.60059E+02        -0.22221E+01         0.00000E+00
    0.00000E+00         0.00000E+00        -0.19510E+04
 
   -0.66083E+04         0.19239E+03         0.00000E+00
    0.19239E+03        -0.14055E+02         0.00000E+00
    0.00000E+00         0.00000E+00        -0.19867E+04
 
   -0.66901E+04         0.33916E+03         0.00000E+00
    0.33916E+03        -0.38588E+02         0.00000E+00
    0.00000E+00         0.00000E+00        -0.20186E+04
 
   -0.67447E+04         0.49845E+03         0.00000E+00
    0.49845E+03        -0.76754E+02         0.00000E+00
    0.00000E+00         0.00000E+00        -0.20464E+04
 
   -0.67702E+04         0.66815E+03         0.00000E+00
    0.66815E+03        -0.12940E+03         0.00000E+00
    0.00000E+00         0.00000E+00        -0.20699E+04
 
   -0.67652E+04         0.84595E+03         0.00000E+00
    0.84595E+03        -0.19719E+03         0.00000E+00
    0.00000E+00         0.00000E+00        -0.20887E+04
 
   -0.67285E+04         0.10293E+04         0.00000E+00
    0.10293E+04        -0.28045E+03         0.00000E+00
    0.00000E+00         0.00000E+00        -0.21027E+04
 
   -0.66594E+04         0.12158E+04         0.00000E+00
    0.12158E+04        -0.37915E+03         0.00000E+00
    0.00000E+00         0.00000E+00        -0.21116E+04
 
   -0.65578E+04         0.14027E+04         0.00000E+00
    0.14027E+04        -0.49282E+03         0.00000E+00
    0.00000E+00         0.00000E+00        -0.21152E+04
 
   -0.64240E+04         0.15877E+04         0.00000E+00
    0.15877E+04        -0.62059E+03         0.00000E+00
    0.00000E+00         0.00000E+00        -0.21134E+04
 
   -0.62588E+04         0.17688E+04         0.00000E+00
    0.17688E+04        -0.76124E+03         0.00000E+00
    0.00000E+00         0.00000E+00        -0.21060E+04
 
   -0.60633E+04         0.19444E+04         0.00000E+00
    0.19444E+04        -0.91331E+03         0.00000E+00
    0.00000E+00         0.00000E+00        -0.20930E+04
 
   -0.58390E+04         0.21131E+04         0.00000E+00
    0.21131E+04        -0.10752E+04         0.00000E+00
    0.00000E+00         0.00000E+00        -0.20743E+04
 
   -0.55871E+04         0.22743E+04         0.00000E+00
    0.22743E+04        -0.12454E+04         0.00000E+00
    0.00000E+00         0.00000E+00        -0.20498E+04
 
   -0.53091E+04         0.24275E+04         0.00000E+00
    0.24275E+04        -0.14223E+04         0.00000E+00
    0.00000E+00         0.00000E+00        -0.20194E+04
 
   -0.50059E+04         0.25728E+04         0.00000E+00
    0.25728E+04        -0.16046E+04         0.00000E+00
    0.00000E+00         0.00000E+00        -0.19831E+04
 
   -0.46782E+04         0.27104E+04         0.00000E+00
    0.27104E+04        -0.17913E+04         0.00000E+00
    0.00000E+00         0.00000E+00        -0.19409E+04
 
   -0.43266E+04         0.28406E+04         0.00000E+00
    0.28406E+04        -0.19817E+04         0.00000E+00
    0.00000E+00         0.00000E+00        -0.18925E+04
 
   -0.39508E+04         0.29638E+04         0.00000E+00
    0.29638E+04        -0.21755E+04         0.00000E+00
    0.00000E+00         0.00000E+00        -0.18379E+04
 
   -0.35505E+04         0.30803E+04         0.00000E+00
    0.30803E+04        -0.23726E+04         0.00000E+00
    0.00000E+00         0.00000E+00        -0.17769E+04
 
   -0.31248E+04         0.31902E+04         0.00000E+00
    0.31902E+04        -0.25733E+04         0.00000E+00
    0.00000E+00         0.00000E+00        -0.17094E+04
 
   -0.26725E+04         0.32932E+04         0.00000E+00
    0.32932E+04        -0.27782E+04         0.00000E+00
    0.00000E+00         0.00000E+00        -0.16352E+04
 
   -0.21923E+04         0.33886E+04         0.00000E+00
    0.33886E+04        -0.29881E+04         0.00000E+00
    0.00000E+00         0.00000E+00        -0.15541E+04
 
   -0.16825E+04         0.34752E+04         0.00000E+00
    0.34752E+04        -0.32039E+04         0.00000E+00
    0.00000E+00         0.00000E+00        -0.14659E+04
 
   -0.63825E+04         0.54530E+02         0.00000E+00
    0.54530E+02        -0.20362E+01         0.00000E+00
    0.00000E+00         0.00000E+00        -0.19154E+04
 
   -0.64747E+04         0.17510E+03         0.00000E+00
    0.17510E+03        -0.12921E+02         0.00000E+00
    0.00000E+00         0.00000E+00        -0.19463E+04
 
   -0.65435E+04         0.30921E+03         0.00000E+00
    0.30921E+03        -0.35542E+02         0.00000E+00
    0.00000E+00         0.00000E+00        -0.19737E+04
 
   -0.65869E+04         0.45498E+03         0.00000E+00
    0.45498E+03        -0.70742E+02         0.00000E+00
    0.00000E+00         0.00000E+00        -0.19973E+04
 
   -0.66035E+04         0.61047E+03         0.00000E+00
    0.61047E+03        -0.11925E+03         0.00000E+00
    0.00000E+00         0.00000E+00        -0.20168E+04
 
   -0.65918E+04         0.77359E+03         0.00000E+00
    0.77359E+03        -0.18159E+03         0.00000E+00
    0.00000E+00         0.00000E+00        -0.20320E+04
 
   -0.65508E+04         0.94216E+03         0.00000E+00
    0.94216E+03        -0.25807E+03         0.00000E+00
    0.00000E+00         0.00000E+00        -0.20427E+04
 
   -0.64797E+04         0.11140E+04         0.00000E+00
    0.11140E+04        -0.34864E+03         0.00000E+00
    0.00000E+00         0.00000E+00        -0.20485E+04
 
   -0.63784E+04         0.12869E+04         0.00000E+00
    0.12869E+04        -0.45296E+03         0.00000E+00
    0.00000E+00         0.00000E+00        -0.20494E+04
 
   -0.62470E+04         0.14588E+04         0.00000E+00
    0.14588E+04        -0.57036E+03         0.00000E+00
    0.00000E+00         0.00000E+00        -0.20452E+04
 
   -0.60859E+04         0.16281E+04         0.00000E+00
    0.16281E+04        -0.69990E+03         0.00000E+00
    0.00000E+00         0.00000E+00        -0.20357E+04
 
   -0.58960E+04         0.17931E+04         0.00000E+00
    0.17931E+04        -0.84044E+03         0.00000E+00
    0.00000E+00         0.00000E+00        -0.20209E+04
 
   -0.56781E+04         0.19528E+04         0.00000E+00
    0.19528E+04        -0.99073E+03         0.00000E+00
    0.00000E+00         0.00000E+00        -0.20007E+04
 
   -0.54334E+04         0.21063E+04         0.00000E+00
    0.21063E+04        -0.11495E+04         0.00000E+00
    0.00000E+00         0.00000E+00        -0.19749E+04
 
   -0.51627E+04         0.22531E+04         0.00000E+00
    0.22531E+04        -0.13155E+04         0.00000E+00
    0.00000E+00         0.00000E+00        -0.19435E+04
 
   -0.48669E+04         0.23931E+04         0.00000E+00
    0.23931E+04        -0.14877E+04         0.00000E+00
    0.00000E+00         0.00000E+00        -0.19064E+04
 
   -0.45465E+04         0.25261E+04         0.00000E+00
    0.25261E+04        -0.16652E+04         0.00000E+00
    0.00000E+00         0.00000E+00        -0.18635E+04
 
   -0.42018E+04         0.26523E+04         0.00000E+00
    0.26523E+04        -0.18474E+04         0.00000E+00
    0.00000E+00         0.00000E+00        -0.18148E+04
 
   -0.38328E+04         0.27718E+04         0.00000E+00
    0.27718E+04        -0.20340E+04         0.00000E+00
    0.00000E+00         0.00000E+00        -0.17600E+04
 
   -0.34393E+04         0.28844E+04         0.00000E+00
    0.28844E+04        -0.22248E+04         0.00000E+00
    0.00000E+00         0.00000E+00        -0.16992E+04
 
   -0.30205E+04         0.29901E+04         0.00000E+00
    0.29901E+04        -0.24201E+04         0.00000E+00
    0.00000E+00         0.00000E+00        -0.16322E+04
 
   -0.25758E+04         0.30883E+04         0.00000E+00
    0.30883E+04        -0.26201E+04         0.00000E+00
    0.00000E+00         0.00000E+00        -0.15588E+04
 
   -0.21041E+04         0.31782E+04         0.00000E+00
    0.31782E+04        -0.28254E+04         0.00000E+00
    0.00000E+00         0.00000E+00        -0.14788E+04
 
   -0.16043E+04         0.32585E+04         0.00000E+00
    0.32585E+04        -0.30366E+04         0.00000E+00
    0.00000E+00         0.00000E+00        -0.13923E+04
 
   -0.62746E+04         0.49474E+02         0.00000E+00
    0.49474E+02        -0.18563E+01         0.00000E+00
    0.00000E+00         0.00000E+00        -0.18829E+04
 
   -0.63529E+04         0.15921E+03         0.00000E+00
    0.15921E+03        -0.11823E+02         0.00000E+00
    0.00000E+00         0.00000E+00        -0.19094E+04
 
   -0.64094E+04         0.28162E+03         0.00000E+00
    0.28162E+03        -0.32607E+02         0.00000E+00
    0.00000E+00         0.00000E+00        -0.19326E+04
 
   -0.64425E+04         0.41494E+03         0.00000E+00
    0.41494E+03        -0.65005E+02         0.00000E+00
    0.00000E+00         0.00000E+00        -0.19523E+04
 
   -0.64507E+04         0.55737E+03         0.00000E+00
    0.55737E+03        -0.10967E+03         0.00000E+00
    0.00000E+00         0.00000E+00        -0.19681E+04
 
   -0.64325E+04         0.70703E+03         0.00000E+00
    0.70703E+03        -0.16708E+03         0.00000E+00
    0.00000E+00         0.00000E+00        -0.19799E+04
 
   -0.63872E+04         0.86202E+03         0.00000E+00
    0.86202E+03        -0.23749E+03         0.00000E+00
    0.00000E+00         0.00000E+00        -0.19874E+04
 
   -0.63138E+04         0.10204E+04         0.00000E+00
    0.10204E+04        -0.32091E+03         0.00000E+00
    0.00000E+00         0.00000E+00        -0.19904E+04
 
   -0.62121E+04         0.11803E+04         0.00000E+00
    0.11803E+04        -0.41708E+03         0.00000E+00
    0.00000E+00         0.00000E+00        -0.19888E+04
 
   -0.60821E+04         0.13400E+04         0.00000E+00
    0.13400E+04        -0.52550E+03         0.00000E+00
    0.00000E+00         0.00000E+00        -0.19823E+04
 
   -0.59240E+04         0.14979E+04         0.00000E+00
    0.14979E+04        -0.64544E+03         0.00000E+00
    0.00000E+00         0.00000E+00        -0.19708E+04
 
   -0.57384E+04         0.16527E+04         0.00000E+00
    0.16527E+04        -0.77600E+03         0.00000E+00
    0.00000E+00         0.00000E+00        -0.19543E+04
 
   -0.55257E+04         0.18032E+04         0.00000E+00
    0.18032E+04        -0.91621E+03         0.00000E+00
    0.00000E+00         0.00000E+00        -0.19326E+04
 
   -0.52869E+04         0.19487E+04         0.00000E+00
    0.19487E+04        -0.10650E+04         0.00000E+00
    0.00000E+00         0.00000E+00        -0.19056E+04
 
   -0.50225E+04         0.20886E+04         0.00000E+00
    0.20886E+04        -0.12215E+04         0.00000E+00
    0.00000E+00         0.00000E+00        -0.18732E+04
 
   -0.47332E+04         0.22225E+04         0.00000E+00
    0.22225E+04        -0.13847E+04         0.00000E+00
    0.00000E+00         0.00000E+00        -0.18354E+04
 
   -0.44193E+04         0.23502E+04         0.00000E+00
    0.23502E+04        -0.15540E+04         0.00000E+00
    0.00000E+00         0.00000E+00        -0.17920E+04
 
   -0.40813E+04         0.24715E+04         0.00000E+00
    0.24715E+04        -0.17287E+04         0.00000E+00
    0.00000E+00         0.00000E+00        -0.17430E+04
 
   -0.37190E+04         0.25863E+04         0.00000E+00
    0.25863E+04        -0.19086E+04         0.00000E+00
    0.00000E+00         0.00000E+00        -0.16883E+04
 
   -0.33324E+04         0.26943E+04         0.00000E+00
    0.26943E+04        -0.20935E+04         0.00000E+00
    0.00000E+00         0.00000E+00        -0.16277E+04
 
   -0.29210E+04         0.27951E+04         0.00000E+00
    0.27951E+04        -0.22833E+04         0.00000E+00
    0.00000E+00         0.00000E+00        -0.15613E+04
 
   -0.24843E+04         0.28882E+04         0.00000E+00
    0.28882E+04        -0.24784E+04         0.00000E+00
    0.00000E+00         0.00000E+00        -0.14888E+04
 
   -0.20217E+04         0.29724E+04         0.00000E+00
    0.29724E+04        -0.26789E+04         0.00000E+00
    0.00000E+00         0.00000E+00        -0.14102E+04
 
   -0.15326E+04         0.30466E+04         0.00000E+00
    0.30466E+04        -0.28853E+04         0.00000E+00
    0.00000E+00         0.00000E+00        -0.13254E+04
 
   -0.61767E+04         0.44868E+02         0.00000E+00
    0.44868E+02        -0.16894E+01         0.00000E+00
    0.00000E+00         0.00000E+00        -0.18535E+04
 
   -0.62418E+04         0.14466E+03         0.00000E+00
    0.14466E+03        -0.10802E+02         0.00000E+00
    0.00000E+00         0.00000E+00        -0.18758E+04
 
   -0.62870E+04         0.25627E+03         0.00000E+00
    0.25627E+03        -0.29879E+02         0.00000E+00
    0.00000E+00         0.00000E+00        -0.18951E+04
 
   -0.63104E+04         0.37808E+03         0.00000E+00
    0.37808E+03        -0.59694E+02         0.00000E+00
    0.00000E+00         0.00000E+00        -0.19110E+04
 
   -0.63106E+04         0.50844E+03         0.00000E+00
    0.50844E+03        -0.10087E+03         0.00000E+00
    0.00000E+00         0.00000E+00        -0.19234E+04
 
   -0.62863E+04         0.64568E+03         0.00000E+00
    0.64568E+03        -0.15384E+03         0.00000E+00
    0.00000E+00         0.00000E+00        -0.19320E+04
 
   -0.62366E+04         0.78810E+03         0.00000E+00
    0.78810E+03        -0.21887E+03         0.00000E+00
    0.00000E+00         0.00000E+00        -0.19366E+04
 
   -0.61607E+04         0.93401E+03         0.00000E+00
    0.93401E+03        -0.29601E+03         0.00000E+00
    0.00000E+00         0.00000E+00        -0.19370E+04
 
   -0.60581E+04         0.10818E+04         0.00000E+00
    0.10818E+04        -0.38507E+03         0.00000E+00
    0.00000E+00         0.00000E+00        -0.19330E+04
 
   -0.59288E+04         0.12299E+04         0.00000E+00
    0.12299E+04        -0.48569E+03         0.00000E+00
    0.00000E+00         0.00000E+00        -0.19244E+04
 
   -0.57728E+04         0.13769E+04         0.00000E+00
    0.13769E+04        -0.59731E+03         0.00000E+00
    0.00000E+00         0.00000E+00        -0.19110E+04
 
   -0.55904E+04         0.15216E+04         0.00000E+00
    0.15216E+04        -0.71923E+03         0.00000E+00
    0.00000E+00         0.00000E+00        -0.18929E+04
 
   -0.53819E+04         0.16630E+04         0.00000E+00
    0.16630E+04        -0.85069E+03         0.00000E+00
    0.00000E+00         0.00000E+00        -0.18698E+04
 
   -0.51480E+04         0.18003E+04         0.00000E+00
    0.18003E+04        -0.99086E+03         0.00000E+00
    0.00000E+00         0.00000E+00        -0.18417E+04
 
   -0.48890E+04         0.19328E+04         0.00000E+00
    0.19328E+04        -0.11390E+04         0.00000E+00
    0.00000E+00         0.00000E+00        -0.18084E+04
 
   -0.46055E+04         0.20601E+04         0.00000E+00
    0.20601E+04        -0.12942E+04         0.00000E+00
    0.00000E+00         0.00000E+00        -0.17699E+04
 
   -0.42977E+04         0.21818E+04         0.00000E+00
    0.21818E+04        -0.14561E+04         0.00000E+00
    0.00000E+00         0.00000E+00        -0.17261E+04
 
   -0.39659E+04         0.22975E+04         0.00000E+00
    0.22975E+04        -0.16240E+04         0.00000E+00
    0.00000E+00         0.00000E+00        -0.16770E+04
 
   -0.36102E+04         0.24070E+04         0.00000E+00
    0.24070E+04        -0.17976E+04         0.00000E+00
    0.00000E+00         0.00000E+00        -0.16224E+04
 
   -0.32305E+04         0.25097E+04         0.00000E+00
    0.25097E+04        -0.19768E+04         0.00000E+00
    0.00000E+00         0.00000E+00        -0.15622E+04
 
   -0.28266E+04         0.26053E+04         0.00000E+00
    0.26053E+04        -0.21614E+04         0.00000E+00
    0.00000E+00         0.00000E+00        -0.14964E+04
 
   -0.23983E+04         0.26928E+04         0.00000E+00
    0.26928E+04        -0.23516E+04         0.00000E+00
    0.00000E+00         0.00000E+00        -0.14250E+04
 
   -0.19452E+04         0.27714E+04         0.00000E+00
    0.27714E+04        -0.25473E+04         0.00000E+00
    0.00000E+00         0.00000E+00        -0.13477E+04
 
   -0.14671E+04         0.28397E+04         0.00000E+00
    0.28397E+04        -0.27487E+04         0.00000E+00
    0.00000E+00         0.00000E+00        -0.12647E+04
 
   -0.60878E+04         0.40671E+02         0.00000E+00
    0.40671E+02        -0.15390E+01         0.00000E+00
    0.00000E+00         0.00000E+00        -0.18268E+04
 
   -0.61408E+04         0.13132E+03         0.00000E+00
    0.13132E+03        -0.98779E+01         0.00000E+00
    0.00000E+00         0.00000E+00        -0.18452E+04
 
   -0.61753E+04         0.23295E+03         0.00000E+00
    0.23295E+03        -0.27408E+02         0.00000E+00
    0.00000E+00         0.00000E+00        -0.18608E+04
 
   -0.61896E+04         0.34410E+03         0.00000E+00
    0.34410E+03        -0.54889E+02         0.00000E+00
    0.00000E+00         0.00000E+00        -0.18733E+04
 
   -0.61823E+04         0.46326E+03         0.00000E+00
    0.46326E+03        -0.92925E+02         0.00000E+00
    0.00000E+00         0.00000E+00        -0.18826E+04
 
   -0.61521E+04         0.58895E+03         0.00000E+00
    0.58895E+03        -0.14195E+03         0.00000E+00
    0.00000E+00         0.00000E+00        -0.18882E+04
 
   -0.60981E+04         0.71966E+03         0.00000E+00
    0.71966E+03        -0.20224E+03         0.00000E+00
    0.00000E+00         0.00000E+00        -0.18901E+04
 
   -0.60195E+04         0.85390E+03         0.00000E+00
    0.85390E+03        -0.27386E+03         0.00000E+00
    0.00000E+00         0.00000E+00        -0.18880E+04
 
   -0.59157E+04         0.99022E+03         0.00000E+00
    0.99022E+03        -0.35673E+03         0.00000E+00
    0.00000E+00         0.00000E+00        -0.18817E+04
 
   -0.57865E+04         0.11273E+04         0.00000E+00
    0.11273E+04        -0.45058E+03         0.00000E+00
    0.00000E+00         0.00000E+00        -0.18711E+04
 
   -0.56319E+04         0.12638E+04         0.00000E+00
    0.12638E+04        -0.55499E+03         0.00000E+00
    0.00000E+00         0.00000E+00        -0.18561E+04
 
   -0.54519E+04         0.13987E+04         0.00000E+00
    0.13987E+04        -0.66943E+03         0.00000E+00
    0.00000E+00         0.00000E+00        -0.18364E+04
 
   -0.52469E+04         0.15310E+04         0.00000E+00
    0.15310E+04        -0.79328E+03         0.00000E+00
    0.00000E+00         0.00000E+00        -0.18120E+04
 
   -0.50170E+04         0.16599E+04         0.00000E+00
    0.16599E+04        -0.92589E+03         0.00000E+00
    0.00000E+00         0.00000E+00        -0.17829E+04
 
   -0.47627E+04         0.17848E+04         0.00000E+00
    0.17848E+04        -0.10666E+04         0.00000E+00
    0.00000E+00         0.00000E+00        -0.17488E+04
 
   -0.44843E+04         0.19050E+04         0.00000E+00
    0.19050E+04        -0.12148E+04         0.00000E+00
    0.00000E+00         0.00000E+00        -0.17098E+04
 
   -0.41821E+04         0.20201E+04         0.00000E+00
    0.20201E+04        -0.13700E+04         0.00000E+00
    0.00000E+00         0.00000E+00        -0.16656E+04
 
   -0.38562E+04         0.21297E+04         0.00000E+00
    0.21297E+04        -0.15318E+04         0.00000E+00
    0.00000E+00         0.00000E+00        -0.16164E+04
 
   -0.35069E+04         0.22333E+04         0.00000E+00
    0.22333E+04        -0.16996E+04         0.00000E+00
    0.00000E+00         0.00000E+00        -0.15620E+04
 
   -0.31340E+04         0.23304E+04         0.00000E+00
    0.23304E+04        -0.18735E+04         0.00000E+00
    0.00000E+00         0.00000E+00        -0.15023E+04
 
   -0.27377E+04         0.24204E+04         0.00000E+00
    0.24204E+04        -0.20531E+04         0.00000E+00
    0.00000E+00         0.00000E+00        -0.14372E+04
 
   -0.23179E+04         0.25024E+04         0.00000E+00
    0.25024E+04        -0.22383E+04         0.00000E+00
    0.00000E+00         0.00000E+00        -0.13669E+04
 
   -0.18744E+04         0.25753E+04         0.00000E+00
    0.25753E+04        -0.24293E+04         0.00000E+00
    0.00000E+00         0.00000E+00        -0.12911E+04
 
   -0.14074E+04         0.26380E+04         0.00000E+00
    0.26380E+04        -0.26258E+04         0.00000E+00
    0.00000E+00         0.00000E+00        -0.12100E+04
 
   -0.60072E+04         0.36839E+02         0.00000E+00
    0.36839E+02        -0.14067E+01         0.00000E+00
    0.00000E+00         0.00000E+00        -0.18026E+04
 
   -0.60489E+04         0.11908E+03         0.00000E+00
    0.11908E+03        -0.90605E+01         0.00000E+00
    0.00000E+00         0.00000E+00        -0.18174E+04
 
   -0.60736E+04         0.21147E+03         0.00000E+00
    0.21147E+03        -0.25215E+02         0.00000E+00
    0.00000E+00         0.00000E+00        -0.18296E+04
 
   -0.60794E+04         0.31269E+03         0.00000E+00
    0.31269E+03        -0.50622E+02         0.00000E+00
    0.00000E+00         0.00000E+00        -0.18390E+04
 
   -0.60651E+04         0.42142E+03         0.00000E+00
    0.42142E+03        -0.85877E+02         0.00000E+00
    0.00000E+00         0.00000E+00        -0.18453E+04
 
   -0.60293E+04         0.53631E+03         0.00000E+00
    0.53631E+03        -0.13142E+03         0.00000E+00
    0.00000E+00         0.00000E+00        -0.18482E+04
 
   -0.59710E+04         0.65603E+03         0.00000E+00
    0.65603E+03        -0.18754E+03         0.00000E+00
    0.00000E+00         0.00000E+00        -0.18476E+04
 
   -0.58895E+04         0.77926E+03         0.00000E+00
    0.77926E+03        -0.25436E+03         0.00000E+00
    0.00000E+00         0.00000E+00        -0.18432E+04
 
   -0.57842E+04         0.90473E+03         0.00000E+00
    0.90473E+03        -0.33184E+03         0.00000E+00
    0.00000E+00         0.00000E+00        -0.18348E+04
 
   -0.56548E+04         0.10312E+04         0.00000E+00
    0.10312E+04        -0.41981E+03         0.00000E+00
    0.00000E+00         0.00000E+00        -0.18224E+04
 
   -0.55010E+04         0.11576E+04         0.00000E+00
    0.11576E+04        -0.51797E+03         0.00000E+00
    0.00000E+00         0.00000E+00        -0.18057E+04
 
   -0.53229E+04         0.12828E+04         0.00000E+00
    0.12828E+04        -0.62591E+03         0.00000E+00
    0.00000E+00         0.00000E+00        -0.17846E+04
 
   -0.51206E+04         0.14061E+04         0.00000E+00
    0.14061E+04        -0.74314E+03         0.00000E+00
    0.00000E+00         0.00000E+00        -0.17591E+04
 
   -0.48942E+04         0.15265E+04         0.00000E+00
    0.15265E+04        -0.86915E+03         0.00000E+00
    0.00000E+00         0.00000E+00        -0.17290E+04
 
   -0.46439E+04         0.16435E+04         0.00000E+00
    0.16435E+04        -0.10034E+04         0.00000E+00
    0.00000E+00         0.00000E+00        -0.16942E+04
 
   -0.43701E+04         0.17563E+04         0.00000E+00
    0.17563E+04        -0.11454E+04         0.00000E+00
    0.00000E+00         0.00000E+00        -0.16547E+04
 
   -0.40730E+04         0.18646E+04         0.00000E+00
    0.18646E+04        -0.12946E+04         0.00000E+00
    0.00000E+00         0.00000E+00        -0.16103E+04
 
   -0.37527E+04         0.19677E+04         0.00000E+00
    0.19677E+04        -0.14507E+04         0.00000E+00
    0.00000E+00         0.00000E+00        -0.15610E+04
 
   -0.34095E+04         0.20651E+04         0.00000E+00
    0.20651E+04        -0.16133E+04         0.00000E+00
    0.00000E+00         0.00000E+00        -0.15068E+04
 
   -0.30434E+04         0.21562E+04         0.00000E+00
    0.21562E+04        -0.17821E+04         0.00000E+00
    0.00000E+00         0.00000E+00        -0.14476E+04
 
   -0.26545E+04         0.22403E+04         0.00000E+00
    0.22403E+04        -0.19569E+04         0.00000E+00
    0.00000E+00         0.00000E+00        -0.13834E+04
 
   -0.22431E+04         0.23166E+04         0.00000E+00
    0.23166E+04        -0.21375E+04         0.00000E+00
    0.00000E+00         0.00000E+00        -0.13142E+04
 
   -0.18092E+04         0.23840E+04         0.00000E+00
    0.23840E+04        -0.23237E+04         0.00000E+00
    0.00000E+00         0.00000E+00        -0.12399E+04
 
   -0.13532E+04         0.24412E+04         0.00000E+00
    0.24412E+04        -0.25153E+04         0.00000E+00
    0.00000E+00         0.00000E+00        -0.11606E+04
 
   -0.59342E+04         0.33325E+02         0.00000E+00
    0.33325E+02        -0.12923E+01         0.00000E+00
    0.00000E+00         0.00000E+00        -0.17806E+04
 
   -0.59656E+04         0.10781E+03         0.00000E+00
    0.10781E+03        -0.83502E+01         0.00000E+00
    0.00000E+00         0.00000E+00        -0.17922E+04
 
   -0.59811E+04         0.19160E+03         0.00000E+00
    0.19160E+03        -0.23301E+02         0.00000E+00
    0.00000E+00         0.00000E+00        -0.18013E+04
 
   -0.59791E+04         0.28356E+03         0.00000E+00
    0.28356E+03        -0.46889E+02         0.00000E+00
    0.00000E+00         0.00000E+00        -0.18078E+04
 
   -0.59581E+04         0.38251E+03         0.00000E+00
    0.38251E+03        -0.79708E+02         0.00000E+00
    0.00000E+00         0.00000E+00        -0.18113E+04
 
   -0.59170E+04         0.48725E+03         0.00000E+00
    0.48725E+03        -0.12221E+03         0.00000E+00
    0.00000E+00         0.00000E+00        -0.18118E+04
 
   -0.58546E+04         0.59661E+03         0.00000E+00
    0.59661E+03        -0.17469E+03         0.00000E+00
    0.00000E+00         0.00000E+00        -0.18088E+04
 
   -0.57703E+04         0.70940E+03         0.00000E+00
    0.70940E+03        -0.23733E+03         0.00000E+00
    0.00000E+00         0.00000E+00        -0.18023E+04
 
   -0.56633E+04         0.82449E+03         0.00000E+00
    0.82449E+03        -0.31014E+03         0.00000E+00
    0.00000E+00         0.00000E+00        -0.17920E+04
 
   -0.55333E+04         0.94081E+03         0.00000E+00
    0.94081E+03        -0.39302E+03         0.00000E+00
    0.00000E+00         0.00000E+00        -0.17779E+04
 
   -0.53799E+04         0.10573E+04         0.00000E+00
    0.10573E+04        -0.48576E+03         0.00000E+00
    0.00000E+00         0.00000E+00        -0.17597E+04
 
   -0.52032E+04         0.11731E+04         0.00000E+00
    0.11731E+04        -0.58805E+03         0.00000E+00
    0.00000E+00         0.00000E+00        -0.17374E+04
 
   -0.50030E+04         0.12874E+04         0.00000E+00
    0.12874E+04        -0.69952E+03         0.00000E+00
    0.00000E+00         0.00000E+00        -0.17108E+04
 
   -0.47795E+04         0.13993E+04         0.00000E+00
    0.13993E+04        -0.81976E+03         0.00000E+00
    0.00000E+00         0.00000E+00        -0.16798E+04
 
   -0.45329E+04         0.15082E+04         0.00000E+00
    0.15082E+04        -0.94831E+03         0.00000E+00
    0.00000E+00         0.00000E+00        -0.16444E+04
 
   -0.42632E+04         0.16134E+04         0.00000E+00
    0.16134E+04        -0.10847E+04         0.00000E+00
    0.00000E+00         0.00000E+00        -0.16044E+04
 
   -0.39707E+04         0.17145E+04         0.00000E+00
    0.17145E+04        -0.12286E+04         0.00000E+00
    0.00000E+00         0.00000E+00        -0.15598E+04
 
   -0.36557E+04         0.18108E+04         0.00000E+00
    0.18108E+04        -0.13796E+04         0.00000E+00
    0.00000E+00         0.00000E+00        -0.15106E+04
 
   -0.33183E+04         0.19018E+04         0.00000E+00
    0.19018E+04        -0.15373E+04         0.00000E+00
    0.00000E+00         0.00000E+00        -0.14567E+04
 
   -0.29587E+04         0.19867E+04         0.00000E+00
    0.19867E+04        -0.17015E+04         0.00000E+00
    0.00000E+00         0.00000E+00        -0.13980E+04
 
   -0.25772E+04         0.20649E+04         0.00000E+00
    0.20649E+04        -0.18717E+04         0.00000E+00
    0.00000E+00         0.00000E+00        -0.13347E+04
 
   -0.21739E+04         0.21354E+04         0.00000E+00
    0.21354E+04        -0.20478E+04         0.00000E+00
    0.00000E+00         0.00000E+00        -0.12665E+04
 
   -0.17494E+04         0.21973E+04         0.00000E+00
    0.21973E+04        -0.22295E+04         0.00000E+00
    0.00000E+00         0.00000E+00        -0.11937E+04
 
   -0.13041E+04         0.22494E+04         0.00000E+00
    0.22494E+04        -0.24165E+04         0.00000E+00
    0.00000E+00         0.00000E+00        -0.11162E+04
 
   -0.58682E+04         0.30084E+02         0.00000E+00
    0.30084E+02        -0.11952E+01         0.00000E+00
    0.00000E+00         0.00000E+00        -0.17608E+04
 
   -0.58901E+04         0.97362E+02         0.00000E+00
    0.97362E+02        -0.77424E+01         0.00000E+00
    0.00000E+00         0.00000E+00        -0.17694E+04
 
   -0.58973E+04         0.17314E+03         0.00000E+00
    0.17314E+03        -0.21655E+02         0.00000E+00
    0.00000E+00         0.00000E+00        -0.17757E+04
 
   -0.58880E+04         0.25642E+03         0.00000E+00
    0.25642E+03        -0.43667E+02         0.00000E+00
    0.00000E+00         0.00000E+00        -0.17795E+04
 
   -0.58609E+04         0.34616E+03         0.00000E+00
    0.34616E+03        -0.74372E+02         0.00000E+00
    0.00000E+00         0.00000E+00        -0.17806E+04
 
   -0.58147E+04         0.44131E+03         0.00000E+00
    0.44131E+03        -0.11423E+03         0.00000E+00
    0.00000E+00         0.00000E+00        -0.17787E+04
 
   -0.57484E+04         0.54083E+03         0.00000E+00
    0.54083E+03        -0.16357E+03         0.00000E+00
    0.00000E+00         0.00000E+00        -0.17736E+04
 
   -0.56612E+04         0.64366E+03         0.00000E+00
    0.64366E+03        -0.22258E+03         0.00000E+00
    0.00000E+00         0.00000E+00        -0.17651E+04
 
   -0.55524E+04         0.74882E+03         0.00000E+00
    0.74882E+03        -0.29134E+03         0.00000E+00
    0.00000E+00         0.00000E+00        -0.17531E+04
 
   -0.54216E+04         0.85531E+03         0.00000E+00
    0.85531E+03        -0.36982E+03         0.00000E+00
    0.00000E+00         0.00000E+00        -0.17374E+04
 
   -0.52684E+04         0.96224E+03         0.00000E+00
    0.96224E+03        -0.45787E+03         0.00000E+00
    0.00000E+00         0.00000E+00        -0.17179E+04
 
   -0.50927E+04         0.10687E+04         0.00000E+00
    0.10687E+04        -0.55527E+03         0.00000E+00
    0.00000E+00         0.00000E+00        -0.16944E+04
 
   -0.48943E+04         0.11740E+04         0.00000E+00
    0.11740E+04        -0.66174E+03         0.00000E+00
    0.00000E+00         0.00000E+00        -0.16668E+04
 
   -0.46732E+04         0.12774E+04         0.00000E+00
    0.12774E+04        -0.77693E+03         0.00000E+00
    0.00000E+00         0.00000E+00        -0.16350E+04
 
   -0.44297E+04         0.13781E+04         0.00000E+00
    0.13781E+04        -0.90047E+03         0.00000E+00
    0.00000E+00         0.00000E+00        -0.15990E+04
 
   -0.41637E+04         0.14757E+04         0.00000E+00
    0.14757E+04        -0.10320E+04         0.00000E+00
    0.00000E+00         0.00000E+00        -0.15587E+04
 
   -0.38755E+04         0.15694E+04         0.00000E+00
    0.15694E+04        -0.11711E+04         0.00000E+00
    0.00000E+00         0.00000E+00        -0.15140E+04
 
   -0.35654E+04         0.16587E+04         0.00000E+00
    0.16587E+04        -0.13175E+04         0.00000E+00
    0.00000E+00         0.00000E+00        -0.14649E+04
 
   -0.32335E+04         0.17430E+04         0.00000E+00
    0.17430E+04        -0.14707E+04         0.00000E+00
    0.00000E+00         0.00000E+00        -0.14113E+04
 
   -0.28801E+04         0.18216E+04         0.00000E+00
    0.18216E+04        -0.16305E+04         0.00000E+00
    0.00000E+00         0.00000E+00        -0.13532E+04
 
   -0.25056E+04         0.18938E+04         0.00000E+00
    0.18938E+04        -0.17965E+04         0.00000E+00
    0.00000E+00         0.00000E+00        -0.12906E+04
 
   -0.21104E+04         0.19586E+04         0.00000E+00
    0.19586E+04        -0.19684E+04         0.00000E+00
    0.00000E+00         0.00000E+00        -0.12236E+04
 
   -0.16949E+04         0.20152E+04         0.00000E+00
    0.20152E+04        -0.21458E+04         0.00000E+00
    0.00000E+00         0.00000E+00        -0.11522E+04
 
   -0.12598E+04         0.20623E+04         0.00000E+00
    0.20623E+04        -0.23282E+04         0.00000E+00
    0.00000E+00         0.00000E+00        -0.10764E+04
 
   -0.58087E+04         0.27075E+02         0.00000E+00
    0.27075E+02        -0.11139E+01         0.00000E+00
    0.00000E+00         0.00000E+00        -0.17429E+04
 
   -0.58221E+04         0.87631E+02         0.00000E+00
    0.87631E+02        -0.72296E+01         0.00000E+00
    0.00000E+00         0.00000E+00        -0.17488E+04
 
   -0.58216E+04         0.15589E+03         0.00000E+00
    0.15589E+03        -0.20257E+02         0.00000E+00
    0.00000E+00         0.00000E+00        -0.17526E+04
 
   -0.58056E+04         0.23099E+03         0.00000E+00
    0.23099E+03        -0.40919E+02         0.00000E+00
    0.00000E+00         0.00000E+00        -0.17540E+04
 
   -0.57728E+04         0.31202E+03         0.00000E+00
    0.31202E+03        -0.69808E+02         0.00000E+00
    0.00000E+00         0.00000E+00        -0.17528E+04
 
   -0.57219E+04         0.39806E+03         0.00000E+00
    0.39806E+03        -0.10739E+03         0.00000E+00
    0.00000E+00         0.00000E+00        -0.17488E+04
 
   -0.56518E+04         0.48820E+03         0.00000E+00
    0.48820E+03        -0.15401E+03         0.00000E+00
    0.00000E+00         0.00000E+00        -0.17418E+04
 
   -0.55619E+04         0.58150E+03         0.00000E+00
    0.58150E+03        -0.20990E+03         0.00000E+00
    0.00000E+00         0.00000E+00        -0.17315E+04
 
   -0.54513E+04         0.67708E+03         0.00000E+00
    0.67708E+03        -0.27518E+03         0.00000E+00
    0.00000E+00         0.00000E+00        -0.17179E+04
 
   -0.53195E+04         0.77406E+03         0.00000E+00
    0.77406E+03        -0.34986E+03         0.00000E+00
    0.00000E+00         0.00000E+00        -0.17008E+04
 
   -0.51663E+04         0.87162E+03         0.00000E+00
    0.87162E+03        -0.43386E+03         0.00000E+00
    0.00000E+00         0.00000E+00        -0.16800E+04
 
   -0.49912E+04         0.96898E+03         0.00000E+00
    0.96898E+03        -0.52703E+03         0.00000E+00
    0.00000E+00         0.00000E+00        -0.16555E+04
 
   -0.47942E+04         0.10654E+04         0.00000E+00
    0.10654E+04        -0.62915E+03         0.00000E+00
    0.00000E+00         0.00000E+00        -0.16270E+04
 
   -0.45753E+04         0.11602E+04         0.00000E+00
    0.11602E+04        -0.73993E+03         0.00000E+00
    0.00000E+00         0.00000E+00        -0.15946E+04
 
   -0.43344E+04         0.12528E+04         0.00000E+00
    0.12528E+04        -0.85908E+03         0.00000E+00
    0.00000E+00         0.00000E+00        -0.15581E+04
 
   -0.40718E+04         0.13425E+04         0.00000E+00
    0.13425E+04        -0.98627E+03         0.00000E+00
    0.00000E+00         0.00000E+00        -0.15174E+04
 
   -0.37876E+04         0.14288E+04         0.00000E+00
    0.14288E+04        -0.11211E+04         0.00000E+00
    0.00000E+00         0.00000E+00        -0.14726E+04
 
   -0.34820E+04         0.15110E+04         0.00000E+00
    0.15110E+04        -0.12634E+04         0.00000E+00
    0.00000E+00         0.00000E+00        -0.14236E+04
 
   -0.31553E+04         0.15885E+04         0.00000E+00
    0.15885E+04        -0.14125E+04         0.00000E+00
    0.00000E+00         0.00000E+00        -0.13703E+04
 
   -0.28078E+04         0.16607E+04         0.00000E+00
    0.16607E+04        -0.15684E+04         0.00000E+00
    0.00000E+00         0.00000E+00        -0.13128E+04
 
   -0.24399E+04         0.17268E+04         0.00000E+00
    0.17268E+04        -0.17304E+04         0.00000E+00
    0.00000E+00         0.00000E+00        -0.12511E+04
 
   -0.20523E+04         0.17860E+04         0.00000E+00
    0.17860E+04        -0.18983E+04         0.00000E+00
    0.00000E+00         0.00000E+00        -0.11852E+04
 
   -0.16454E+04         0.18373E+04         0.00000E+00
    0.18373E+04        -0.20716E+04         0.00000E+00
    0.00000E+00         0.00000E+00        -0.11151E+04
 
   -0.12200E+04         0.18798E+04         0.00000E+00
    0.18798E+04        -0.22497E+04         0.00000E+00
    0.00000E+00         0.00000E+00        -0.10409E+04
 
   -0.57553E+04         0.24257E+02         0.00000E+00
    0.24257E+02        -0.10467E+01         0.00000E+00
    0.00000E+00         0.00000E+00        -0.17269E+04
 
   -0.57610E+04         0.78499E+02         0.00000E+00
    0.78499E+02        -0.68025E+01         0.00000E+00
    0.00000E+00         0.00000E+00        -0.17303E+04
 
   -0.57536E+04         0.13967E+03         0.00000E+00
    0.13967E+03        -0.19085E+02         0.00000E+00
    0.00000E+00         0.00000E+00        -0.17318E+04
 
   -0.57315E+04         0.20702E+03         0.00000E+00
    0.20702E+03        -0.38602E+02         0.00000E+00
    0.00000E+00         0.00000E+00        -0.17310E+04
 
   -0.56934E+04         0.27977E+03         0.00000E+00
    0.27977E+03        -0.65943E+02         0.00000E+00
    0.00000E+00         0.00000E+00        -0.17278E+04
 
   -0.56381E+04         0.35713E+03         0.00000E+00
    0.35713E+03        -0.10158E+03         0.00000E+00
    0.00000E+00         0.00000E+00        -0.17219E+04
 
   -0.55646E+04         0.43828E+03         0.00000E+00
    0.43828E+03        -0.14588E+03         0.00000E+00
    0.00000E+00         0.00000E+00        -0.17131E+04
 
   -0.54720E+04         0.52241E+03         0.00000E+00
    0.52241E+03        -0.19910E+03         0.00000E+00
    0.00000E+00         0.00000E+00        -0.17013E+04
 
   -0.53596E+04         0.60873E+03         0.00000E+00
    0.60873E+03        -0.26138E+03         0.00000E+00
    0.00000E+00         0.00000E+00        -0.16863E+04
 
   -0.52268E+04         0.69646E+03         0.00000E+00
    0.69646E+03        -0.33280E+03         0.00000E+00
    0.00000E+00         0.00000E+00        -0.16679E+04
 
   -0.50733E+04         0.78486E+03         0.00000E+00
    0.78486E+03        -0.41331E+03         0.00000E+00
    0.00000E+00         0.00000E+00        -0.16460E+04
 
   -0.48987E+04         0.87322E+03         0.00000E+00
    0.87322E+03        -0.50283E+03         0.00000E+00
    0.00000E+00         0.00000E+00        -0.16204E+04
 
   -0.47028E+04         0.96088E+03         0.00000E+00
    0.96088E+03        -0.60118E+03         0.00000E+00
    0.00000E+00         0.00000E+00        -0.15912E+04
 
   -0.44857E+04         0.10472E+04         0.00000E+00
    0.10472E+04        -0.70813E+03         0.00000E+00
    0.00000E+00         0.00000E+00        -0.15581E+04
 
   -0.42473E+04         0.11316E+04         0.00000E+00
    0.11316E+04        -0.82344E+03         0.00000E+00
    0.00000E+00         0.00000E+00        -0.15212E+04
 
   -0.39876E+04         0.12134E+04         0.00000E+00
    0.12134E+04        -0.94680E+03         0.00000E+00
    0.00000E+00         0.00000E+00        -0.14803E+04
 
   -0.37070E+04         0.12921E+04         0.00000E+00
    0.12921E+04        -0.10779E+04         0.00000E+00
    0.00000E+00         0.00000E+00        -0.14355E+04
 
   -0.34055E+04         0.13671E+04         0.00000E+00
    0.13671E+04        -0.12164E+04         0.00000E+00
    0.00000E+00         0.00000E+00        -0.13866E+04
 
   -0.30836E+04         0.14378E+04         0.00000E+00
    0.14378E+04        -0.13619E+04         0.00000E+00
    0.00000E+00         0.00000E+00        -0.13337E+04
 
   -0.27417E+04         0.15035E+04         0.00000E+00
    0.15035E+04        -0.15141E+04         0.00000E+00
    0.00000E+00         0.00000E+00        -0.12767E+04
 
   -0.23801E+04         0.15636E+04         0.00000E+00
    0.15636E+04        -0.16725E+04         0.00000E+00
    0.00000E+00         0.00000E+00        -0.12158E+04
 
   -0.19996E+04         0.16172E+04         0.00000E+00
    0.16172E+04        -0.18366E+04         0.00000E+00
    0.00000E+00         0.00000E+00        -0.11509E+04
 
   -0.16007E+04         0.16635E+04         0.00000E+00
    0.16635E+04        -0.20061E+04         0.00000E+00
    0.00000E+00         0.00000E+00        -0.10820E+04
 
   -0.11845E+04         0.17015E+04         0.00000E+00
    0.17015E+04        -0.21802E+04         0.00000E+00
    0.00000E+00         0.00000E+00        -0.10094E+04
 
   -0.57075E+04         0.21598E+02         0.00000E+00
    0.21598E+02        -0.99205E+00         0.00000E+00
    0.00000E+00         0.00000E+00        -0.17126E+04
 
   -0.57064E+04         0.69868E+02         0.00000E+00
    0.69868E+02        -0.64512E+01         0.00000E+00
    0.00000E+00         0.00000E+00        -0.17138E+04
 
   -0.56928E+04         0.12431E+03         0.00000E+00
    0.12431E+03        -0.18113E+02         0.00000E+00
    0.00000E+00         0.00000E+00        -0.17133E+04
 
   -0.56652E+04         0.18428E+03         0.00000E+00
    0.18428E+03        -0.36670E+02         0.00000E+00
    0.00000E+00         0.00000E+00        -0.17106E+04
 
   -0.56223E+04         0.24914E+03         0.00000E+00
    0.24914E+03        -0.62704E+02         0.00000E+00
    0.00000E+00         0.00000E+00        -0.17055E+04
 
   -0.55630E+04         0.31817E+03         0.00000E+00
    0.31817E+03        -0.96696E+02         0.00000E+00
    0.00000E+00         0.00000E+00        -0.16979E+04
 
   -0.54863E+04         0.39067E+03         0.00000E+00
    0.39067E+03        -0.13902E+03         0.00000E+00
    0.00000E+00         0.00000E+00        -0.16876E+04
 
   -0.53911E+04         0.46594E+03         0.00000E+00
    0.46594E+03        -0.18996E+03         0.00000E+00
    0.00000E+00         0.00000E+00        -0.16743E+04
 
   -0.52770E+04         0.54328E+03         0.00000E+00
    0.54328E+03        -0.24969E+03         0.00000E+00
    0.00000E+00         0.00000E+00        -0.16580E+04
 
   -0.51432E+04         0.62199E+03         0.00000E+00
    0.62199E+03        -0.31831E+03         0.00000E+00
    0.00000E+00         0.00000E+00        -0.16384E+04
 
   -0.49893E+04         0.70141E+03         0.00000E+00
    0.70141E+03        -0.39584E+03         0.00000E+00
    0.00000E+00         0.00000E+00        -0.16155E+04
 
   -0.48150E+04         0.78092E+03         0.00000E+00
    0.78092E+03        -0.48222E+03         0.00000E+00
    0.00000E+00         0.00000E+00        -0.15892E+04
 
   -0.46201E+04         0.85989E+03         0.00000E+00
    0.85989E+03        -0.57731E+03         0.00000E+00
    0.00000E+00         0.00000E+00        -0.15592E+04
 
   -0.44045E+04         0.93774E+03         0.00000E+00
    0.93774E+03        -0.68095E+03         0.00000E+00
    0.00000E+00         0.00000E+00        -0.15256E+04
 
   -0.41681E+04         0.10139E+04         0.00000E+00
    0.10139E+04        -0.79290E+03         0.00000E+00
    0.00000E+00         0.00000E+00        -0.14883E+04
 
   -0.39112E+04         0.10878E+04         0.00000E+00
    0.10878E+04        -0.91291E+03         0.00000E+00
    0.00000E+00         0.00000E+00        -0.14472E+04
 
   -0.36337E+04         0.11590E+04         0.00000E+00
    0.11590E+04        -0.10407E+04         0.00000E+00
    0.00000E+00         0.00000E+00        -0.14023E+04
 
   -0.33361E+04         0.12267E+04         0.00000E+00
    0.12267E+04        -0.11758E+04         0.00000E+00
    0.00000E+00         0.00000E+00        -0.13536E+04
 
   -0.30187E+04         0.12906E+04         0.00000E+00
    0.12906E+04        -0.13180E+04         0.00000E+00
    0.00000E+00         0.00000E+00        -0.13010E+04
 
   -0.26818E+04         0.13499E+04         0.00000E+00
    0.13499E+04        -0.14669E+04         0.00000E+00
    0.00000E+00         0.00000E+00        -0.12446E+04
 
   -0.23261E+04         0.14039E+04         0.00000E+00
    0.14039E+04        -0.16220E+04         0.00000E+00
    0.00000E+00         0.00000E+00        -0.11844E+04
 
   -0.19521E+04         0.14520E+04         0.00000E+00
    0.14520E+04        -0.17828E+04         0.00000E+00
    0.00000E+00         0.00000E+00        -0.11205E+04
 
   -0.15608E+04         0.14934E+04         0.00000E+00
    0.14934E+04        -0.19487E+04         0.00000E+00
    0.00000E+00         0.00000E+00        -0.10528E+04
 
   -0.11530E+04         0.15271E+04         0.00000E+00
    0.15271E+04        -0.21191E+04         0.00000E+00
    0.00000E+00         0.00000E+00        -0.98165E+03
 
   -0.56652E+04         0.19066E+02         0.00000E+00
    0.19066E+02        -0.94813E+00         0.00000E+00
    0.00000E+00         0.00000E+00        -0.16999E+04
 
   -0.56580E+04         0.61647E+02         0.00000E+00
    0.61647E+02        -0.61660E+01         0.00000E+00
    0.00000E+00         0.00000E+00        -0.16993E+04
 
   -0.56389E+04         0.10966E+03         0.00000E+00
    0.10966E+03        -0.17317E+02         0.00000E+00
    0.00000E+00         0.00000E+00        -0.16969E+04
 
   -0.56064E+04         0.16259E+03         0.00000E+00
    0.16259E+03        -0.35076E+02         0.00000E+00
    0.00000E+00         0.00000E+00        -0.16924E+04
 
   -0.55592E+04         0.21985E+03         0.00000E+00
    0.21985E+03        -0.60018E+02         0.00000E+00
    0.00000E+00         0.00000E+00        -0.16858E+04
 
   -0.54963E+04         0.28087E+03         0.00000E+00
    0.28087E+03        -0.92626E+02         0.00000E+00
    0.00000E+00         0.00000E+00        -0.16767E+04
 
   -0.54165E+04         0.34503E+03         0.00000E+00
    0.34503E+03        -0.13329E+03         0.00000E+00
    0.00000E+00         0.00000E+00        -0.16649E+04
 
   -0.53191E+04         0.41171E+03         0.00000E+00
    0.41171E+03        -0.18230E+03         0.00000E+00
    0.00000E+00         0.00000E+00        -0.16504E+04
 
   -0.52033E+04         0.48030E+03         0.00000E+00
    0.48030E+03        -0.23987E+03         0.00000E+00
    0.00000E+00         0.00000E+00        -0.16329E+04
 
   -0.50684E+04         0.55019E+03         0.00000E+00
    0.55019E+03        -0.30612E+03         0.00000E+00
    0.00000E+00         0.00000E+00        -0.16124E+04
 
   -0.49141E+04         0.62081E+03         0.00000E+00
    0.62081E+03        -0.38110E+03         0.00000E+00
    0.00000E+00         0.00000E+00        -0.15886E+04
 
   -0.47400E+04         0.69158E+03         0.00000E+00
    0.69158E+03        -0.46479E+03         0.00000E+00
    0.00000E+00         0.00000E+00        -0.15614E+04
 
   -0.45458E+04         0.76195E+03         0.00000E+00
    0.76195E+03        -0.55709E+03         0.00000E+00
    0.00000E+00         0.00000E+00        -0.15309E+04
 
   -0.43315E+04         0.83139E+03         0.00000E+00
    0.83139E+03        -0.65787E+03         0.00000E+00
    0.00000E+00         0.00000E+00        -0.14968E+04
 
   -0.40970E+04         0.89938E+03         0.00000E+00
    0.89938E+03        -0.76692E+03         0.00000E+00
    0.00000E+00         0.00000E+00        -0.14592E+04
 
   -0.38424E+04         0.96540E+03         0.00000E+00
    0.96540E+03        -0.88400E+03         0.00000E+00
    0.00000E+00         0.00000E+00        -0.14179E+04
 
   -0.35679E+04         0.10289E+04         0.00000E+00
    0.10289E+04        -0.10088E+04         0.00000E+00
    0.00000E+00         0.00000E+00        -0.13730E+04
 
   -0.32738E+04         0.10895E+04         0.00000E+00
    0.10895E+04        -0.11410E+04         0.00000E+00
    0.00000E+00         0.00000E+00        -0.13244E+04
 
   -0.29603E+04         0.11465E+04         0.00000E+00
    0.11465E+04        -0.12803E+04         0.00000E+00
    0.00000E+00         0.00000E+00        -0.12722E+04
 
   -0.26281E+04         0.11993E+04         0.00000E+00
    0.11993E+04        -0.14262E+04         0.00000E+00
    0.00000E+00         0.00000E+00        -0.12163E+04
 
   -0.22777E+04         0.12475E+04         0.00000E+00
    0.12475E+04        -0.15783E+04         0.00000E+00
    0.00000E+00         0.00000E+00        -0.11568E+04
 
   -0.19098E+04         0.12902E+04         0.00000E+00
    0.12902E+04        -0.17360E+04         0.00000E+00
    0.00000E+00         0.00000E+00        -0.10937E+04
 
   -0.15254E+04         0.13268E+04         0.00000E+00
    0.13268E+04        -0.18987E+04         0.00000E+00
    0.00000E+00         0.00000E+00        -0.10272E+04
 
   -0.11253E+04         0.13564E+04         0.00000E+00
    0.13564E+04        -0.20658E+04         0.00000E+00
    0.00000E+00         0.00000E+00        -0.95734E+03
 
   -0.56281E+04         0.16637E+02         0.00000E+00
    0.16637E+02        -0.91333E+00         0.00000E+00
    0.00000E+00         0.00000E+00        -0.16887E+04
 
   -0.56156E+04         0.53761E+02         0.00000E+00
    0.53761E+02        -0.59373E+01         0.00000E+00
    0.00000E+00         0.00000E+00        -0.16865E+04
 
   -0.55916E+04         0.95609E+02         0.00000E+00
    0.95609E+02        -0.16673E+02         0.00000E+00
    0.00000E+00         0.00000E+00        -0.16825E+04
 
   -0.55548E+04         0.14175E+03         0.00000E+00
    0.14175E+03        -0.33776E+02         0.00000E+00
    0.00000E+00         0.00000E+00        -0.16766E+04
 
   -0.55038E+04         0.19170E+03         0.00000E+00
    0.19170E+03        -0.57815E+02         0.00000E+00
    0.00000E+00         0.00000E+00        -0.16685E+04
 
   -0.54376E+04         0.24497E+03         0.00000E+00
    0.24497E+03        -0.89273E+02         0.00000E+00
    0.00000E+00         0.00000E+00        -0.16581E+04
 
   -0.53552E+04         0.30103E+03         0.00000E+00
    0.30103E+03        -0.12854E+03         0.00000E+00
    0.00000E+00         0.00000E+00        -0.16451E+04
 
   -0.52556E+04         0.35935E+03         0.00000E+00
    0.35935E+03        -0.17594E+03         0.00000E+00
    0.00000E+00         0.00000E+00        -0.16295E+04
 
   -0.51383E+04         0.41940E+03         0.00000E+00
    0.41940E+03        -0.23169E+03         0.00000E+00
    0.00000E+00         0.00000E+00        -0.16110E+04
 
   -0.50024E+04         0.48067E+03         0.00000E+00
    0.48067E+03        -0.29594E+03         0.00000E+00
    0.00000E+00         0.00000E+00        -0.15895E+04
 
   -0.48477E+04         0.54263E+03         0.00000E+00
    0.54263E+03        -0.36877E+03         0.00000E+00
    0.00000E+00         0.00000E+00        -0.15649E+04
 
   -0.46737E+04         0.60478E+03         0.00000E+00
    0.60478E+03        -0.45018E+03         0.00000E+00
    0.00000E+00         0.00000E+00        -0.15372E+04
 
   -0.44801E+04         0.66664E+03         0.00000E+00
    0.66664E+03        -0.54011E+03         0.00000E+00
    0.00000E+00         0.00000E+00        -0.15061E+04
 
   -0.42669E+04         0.72773E+03         0.00000E+00
    0.72773E+03        -0.63844E+03         0.00000E+00
    0.00000E+00         0.00000E+00        -0.14716E+04
 
   -0.40340E+04         0.78757E+03         0.00000E+00
    0.78757E+03        -0.74499E+03         0.00000E+00
    0.00000E+00         0.00000E+00        -0.14337E+04
 
   -0.37815E+04         0.84571E+03         0.00000E+00
    0.84571E+03        -0.85954E+03         0.00000E+00
    0.00000E+00         0.00000E+00        -0.13923E+04
 
   -0.35095E+04         0.90168E+03         0.00000E+00
    0.90168E+03        -0.98181E+03         0.00000E+00
    0.00000E+00         0.00000E+00        -0.13474E+04
 
   -0.32185E+04         0.95499E+03         0.00000E+00
    0.95499E+03        -0.11115E+04         0.00000E+00
    0.00000E+00         0.00000E+00        -0.12990E+04
 
   -0.29086E+04         0.10051E+04         0.00000E+00
    0.10051E+04        -0.12482E+04         0.00000E+00
    0.00000E+00         0.00000E+00        -0.12470E+04
 
   -0.25806E+04         0.10516E+04         0.00000E+00
    0.10516E+04        -0.13914E+04         0.00000E+00
    0.00000E+00         0.00000E+00        -0.11916E+04
 
   -0.22350E+04         0.10939E+04         0.00000E+00
    0.10939E+04        -0.15408E+04         0.00000E+00
    0.00000E+00         0.00000E+00        -0.11328E+04
 
   -0.18726E+04         0.11313E+04         0.00000E+00
    0.11313E+04        -0.16958E+04         0.00000E+00
    0.00000E+00         0.00000E+00        -0.10705E+04
 
   -0.14943E+04         0.11632E+04         0.00000E+00
    0.11632E+04        -0.18556E+04         0.00000E+00
    0.00000E+00         0.00000E+00        -0.10050E+04
 
   -0.11012E+04         0.11890E+04         0.00000E+00
    0.11890E+04        -0.20197E+04         0.00000E+00
    0.00000E+00         0.00000E+00        -0.93628E+03
 
   -0.55959E+04         0.14289E+02         0.00000E+00
    0.14289E+02        -0.88619E+00         0.00000E+00
    0.00000E+00         0.00000E+00        -0.16790E+04
 
   -0.55789E+04         0.46143E+02         0.00000E+00
    0.46143E+02        -0.57566E+01         0.00000E+00
    0.00000E+00         0.00000E+00        -0.16754E+04
 
   -0.55507E+04         0.82036E+02         0.00000E+00
    0.82036E+02        -0.16159E+02         0.00000E+00
    0.00000E+00         0.00000E+00        -0.16701E+04
 
   -0.55101E+04         0.12161E+03         0.00000E+00
    0.12161E+03        -0.32731E+02         0.00000E+00
    0.00000E+00         0.00000E+00        -0.16628E+04
 
   -0.54558E+04         0.16448E+03         0.00000E+00
    0.16448E+03        -0.56032E+02         0.00000E+00
    0.00000E+00         0.00000E+00        -0.16536E+04
 
   -0.53868E+04         0.21023E+03         0.00000E+00
    0.21023E+03        -0.86544E+02         0.00000E+00
    0.00000E+00         0.00000E+00        -0.16420E+04
 
   -0.53020E+04         0.25840E+03         0.00000E+00
    0.25840E+03        -0.12467E+03         0.00000E+00
    0.00000E+00         0.00000E+00        -0.16280E+04
 
   -0.52005E+04         0.30856E+03         0.00000E+00
    0.30856E+03        -0.17073E+03         0.00000E+00
    0.00000E+00         0.00000E+00        -0.16114E+04
 
   -0.50818E+04         0.36026E+03         0.00000E+00
    0.36026E+03        -0.22496E+03         0.00000E+00
    0.00000E+00         0.00000E+00        -0.15920E+04
 
   -0.49450E+04         0.41305E+03         0.00000E+00
    0.41305E+03        -0.28755E+03         0.00000E+00
    0.00000E+00         0.00000E+00        -0.15698E+04
 
   -0.47898E+04         0.46648E+03         0.00000E+00
    0.46648E+03        -0.35858E+03         0.00000E+00
    0.00000E+00         0.00000E+00        -0.15445E+04
 
   -0.46158E+04         0.52012E+03         0.00000E+00
    0.52012E+03        -0.43807E+03         0.00000E+00
    0.00000E+00         0.00000E+00        -0.15162E+04
 
   -0.44228E+04         0.57355E+03         0.00000E+00
    0.57355E+03        -0.52600E+03         0.00000E+00
    0.00000E+00         0.00000E+00        -0.14846E+04
 
   -0.42105E+04         0.62634E+03         0.00000E+00
    0.62634E+03        -0.62226E+03         0.00000E+00
    0.00000E+00         0.00000E+00        -0.14498E+04
 
   -0.39789E+04         0.67809E+03         0.00000E+00
    0.67809E+03        -0.72670E+03         0.00000E+00
    0.00000E+00         0.00000E+00        -0.14117E+04
 
   -0.37282E+04         0.72838E+03         0.00000E+00
    0.72838E+03        -0.83909E+03         0.00000E+00
    0.00000E+00         0.00000E+00        -0.13702E+04
 
   -0.34585E+04         0.77679E+03         0.00000E+00
    0.77679E+03        -0.95917E+03         0.00000E+00
    0.00000E+00         0.00000E+00        -0.13253E+04
 
   -0.31702E+04         0.82290E+03         0.00000E+00
    0.82290E+03        -0.10866E+04         0.00000E+00
    0.00000E+00         0.00000E+00        -0.12770E+04
 
   -0.28635E+04         0.86626E+03         0.00000E+00
    0.86626E+03        -0.12211E+04         0.00000E+00
    0.00000E+00         0.00000E+00        -0.12254E+04
 
   -0.25392E+04         0.90641E+03         0.00000E+00
    0.90641E+03        -0.13621E+04         0.00000E+00
    0.00000E+00         0.00000E+00        -0.11704E+04
 
   -0.21979E+04         0.94285E+03         0.00000E+00
    0.94285E+03        -0.15091E+04         0.00000E+00
    0.00000E+00         0.00000E+00        -0.11121E+04
 
   -0.18403E+04         0.97505E+03         0.00000E+00
    0.97505E+03        -0.16616E+04         0.00000E+00
    0.00000E+00         0.00000E+00        -0.10506E+04
 
   -0.14675E+04         0.10025E+04         0.00000E+00
    0.10025E+04        -0.18189E+04         0.00000E+00
    0.00000E+00         0.00000E+00        -0.98592E+03
 
   -0.10805E+04         0.10245E+04         0.00000E+00
    0.10245E+04        -0.19803E+04         0.00000E+00
    0.00000E+00         0.00000E+00        -0.91826E+03
 
   -0.55686E+04         0.12003E+02         0.00000E+00
    0.12003E+02        -0.86538E+00         0.00000E+00
    0.00000E+00         0.00000E+00        -0.16708E+04
 
   -0.55477E+04         0.38738E+02         0.00000E+00
    0.38738E+02        -0.56162E+01         0.00000E+00
    0.00000E+00         0.00000E+00        -0.16660E+04
 
   -0.55160E+04         0.68847E+02         0.00000E+00
    0.68847E+02        -0.15755E+02         0.00000E+00
    0.00000E+00         0.00000E+00        -0.16595E+04
 
   -0.54721E+04         0.10205E+03         0.00000E+00
    0.10205E+03        -0.31903E+02         0.00000E+00
    0.00000E+00         0.00000E+00        -0.16512E+04
 
   -0.54150E+04         0.13802E+03         0.00000E+00
    0.13802E+03        -0.54611E+02         0.00000E+00
    0.00000E+00         0.00000E+00        -0.16409E+04
 
   -0.53435E+04         0.17643E+03         0.00000E+00
    0.17643E+03        -0.84358E+02         0.00000E+00
    0.00000E+00         0.00000E+00        -0.16284E+04
 
   -0.52567E+04         0.21690E+03         0.00000E+00
    0.21690E+03        -0.12155E+03         0.00000E+00
    0.00000E+00         0.00000E+00        -0.16135E+04
 
   -0.51536E+04         0.25907E+03         0.00000E+00
    0.25907E+03        -0.16652E+03         0.00000E+00
    0.00000E+00         0.00000E+00        -0.15960E+04
 
   -0.50336E+04         0.30256E+03         0.00000E+00
    0.30256E+03        -0.21952E+03         0.00000E+00
    0.00000E+00         0.00000E+00        -0.15759E+04
 
   -0.48961E+04         0.34701E+03         0.00000E+00
    0.34701E+03        -0.28073E+03         0.00000E+00
    0.00000E+00         0.00000E+00        -0.15530E+04
 
   -0.47405E+04         0.39202E+03         0.00000E+00
    0.39202E+03        -0.35028E+03         0.00000E+00
    0.00000E+00         0.00000E+00        -0.15272E+04
 
   -0.45665E+04         0.43725E+03         0.00000E+00
    0.43725E+03        -0.42820E+03         0.00000E+00
    0.00000E+00         0.00000E+00        -0.14984E+04
 
   -0.43738E+04         0.48232E+03         0.00000E+00
    0.48232E+03        -0.51447E+03         0.00000E+00
    0.00000E+00         0.00000E+00        -0.14665E+04
 
   -0.41622E+04         0.52688E+03         0.00000E+00
    0.52688E+03        -0.60901E+03         0.00000E+00
    0.00000E+00         0.00000E+00        -0.14314E+04
 
   -0.39318E+04         0.57057E+03         0.00000E+00
    0.57057E+03        -0.71167E+03         0.00000E+00
    0.00000E+00         0.00000E+00        -0.13931E+04
 
   -0.36827E+04         0.61304E+03         0.00000E+00
    0.61304E+03        -0.82225E+03         0.00000E+00
    0.00000E+00         0.00000E+00        -0.13515E+04
 
   -0.34149E+04         0.65393E+03         0.00000E+00
    0.65393E+03        -0.94049E+03         0.00000E+00
    0.00000E+00         0.00000E+00        -0.13066E+04
 
   -0.31289E+04         0.69286E+03         0.00000E+00
    0.69286E+03        -0.10661E+04         0.00000E+00
    0.00000E+00         0.00000E+00        -0.12585E+04
 
   -0.28250E+04         0.72946E+03         0.00000E+00
    0.72946E+03        -0.11986E+04         0.00000E+00
    0.00000E+00         0.00000E+00        -0.12071E+04
 
   -0.25039E+04         0.76333E+03         0.00000E+00
    0.76333E+03        -0.13376E+04         0.00000E+00
    0.00000E+00         0.00000E+00        -0.11525E+04
 
   -0.21662E+04         0.79403E+03         0.00000E+00
    0.79403E+03        -0.14826E+04         0.00000E+00
    0.00000E+00         0.00000E+00        -0.10947E+04
 
   -0.18128E+04         0.82111E+03         0.00000E+00
    0.82111E+03        -0.16331E+04         0.00000E+00
    0.00000E+00         0.00000E+00        -0.10338E+04
 
   -0.14447E+04         0.84410E+03         0.00000E+00
    0.84410E+03        -0.17882E+04         0.00000E+00
    0.00000E+00         0.00000E+00        -0.96988E+03
 
   -0.10631E+04         0.86249E+03         0.00000E+00
    0.86249E+03        -0.19473E+04         0.00000E+00
    0.00000E+00         0.00000E+00        -0.90312E+03
 
   -0.55460E+04         0.97649E+01         0.00000E+00
    0.97649E+01        -0.84978E+00         0.00000E+00
    0.00000E+00         0.00000E+00        -0.16640E+04
 
   -0.55219E+04         0.31496E+02         0.00000E+00
    0.31496E+02        -0.55094E+01         0.00000E+00
    0.00000E+00         0.00000E+00        -0.16582E+04
 
   -0.54873E+04         0.55959E+02         0.00000E+00
    0.55959E+02        -0.15445E+02         0.00000E+00
    0.00000E+00         0.00000E+00        -0.16508E+04
 
   -0.54408E+04         0.82932E+02         0.00000E+00
    0.82932E+02        -0.31262E+02         0.00000E+00
    0.00000E+00         0.00000E+00        -0.16416E+04
 
   -0.53813E+04         0.11217E+03         0.00000E+00
    0.11217E+03        -0.53502E+02         0.00000E+00
    0.00000E+00         0.00000E+00        -0.16304E+04
 
   -0.53077E+04         0.14339E+03         0.00000E+00
    0.14339E+03        -0.82645E+02         0.00000E+00
    0.00000E+00         0.00000E+00        -0.16171E+04
 
   -0.52192E+04         0.17631E+03         0.00000E+00
    0.17631E+03        -0.11910E+03         0.00000E+00
    0.00000E+00         0.00000E+00        -0.16015E+04
 
   -0.51147E+04         0.21063E+03         0.00000E+00
    0.21063E+03        -0.16319E+03         0.00000E+00
    0.00000E+00         0.00000E+00        -0.15834E+04
 
   -0.49937E+04         0.24604E+03         0.00000E+00
    0.24604E+03        -0.21520E+03         0.00000E+00
    0.00000E+00         0.00000E+00        -0.15627E+04
 
   -0.48554E+04         0.28225E+03         0.00000E+00
    0.28225E+03        -0.27532E+03         0.00000E+00
    0.00000E+00         0.00000E+00        -0.15392E+04
 
   -0.46995E+04         0.31895E+03         0.00000E+00
    0.31895E+03        -0.34367E+03         0.00000E+00
    0.00000E+00         0.00000E+00        -0.15129E+04
 
   -0.45254E+04         0.35584E+03         0.00000E+00
    0.35584E+03        -0.42032E+03         0.00000E+00
    0.00000E+00         0.00000E+00        -0.14837E+04
 
   -0.43330E+04         0.39262E+03         0.00000E+00
    0.39262E+03        -0.50524E+03         0.00000E+00
    0.00000E+00         0.00000E+00        -0.14515E+04
 
   -0.41221E+04         0.42899E+03         0.00000E+00
    0.42899E+03        -0.59839E+03         0.00000E+00
    0.00000E+00         0.00000E+00        -0.14161E+04
 
   -0.38927E+04         0.46467E+03         0.00000E+00
    0.46467E+03        -0.69960E+03         0.00000E+00
    0.00000E+00         0.00000E+00        -0.13777E+04
 
   -0.36448E+04         0.49936E+03         0.00000E+00
    0.49936E+03        -0.80871E+03         0.00000E+00
    0.00000E+00         0.00000E+00        -0.13360E+04
 
   -0.33786E+04         0.53276E+03         0.00000E+00
    0.53276E+03        -0.92543E+03         0.00000E+00
    0.00000E+00         0.00000E+00        -0.12912E+04
 
   -0.30945E+04         0.56456E+03         0.00000E+00
    0.56456E+03        -0.10495E+04         0.00000E+00
    0.00000E+00         0.00000E+00        -0.12432E+04
 
   -0.27930E+04         0.59444E+03         0.00000E+00
    0.59444E+03        -0.11804E+04         0.00000E+00
    0.00000E+00         0.00000E+00        -0.11920E+04
 
   -0.24745E+04         0.62206E+03         0.00000E+00
    0.62206E+03        -0.13178E+04         0.00000E+00
    0.00000E+00         0.00000E+00        -0.11377E+04
 
   -0.21399E+04         0.64709E+03         0.00000E+00
    0.64709E+03        -0.14611E+04         0.00000E+00
    0.00000E+00         0.00000E+00        -0.10803E+04
 
   -0.17901E+04         0.66914E+03         0.00000E+00
    0.66914E+03        -0.16098E+04         0.00000E+00
    0.00000E+00         0.00000E+00        -0.10200E+04
 
   -0.14259E+04         0.68781E+03         0.00000E+00
    0.68781E+03        -0.17631E+04         0.00000E+00
    0.00000E+00         0.00000E+00        -0.95672E+03
 
   -0.10487E+04         0.70269E+03         0.00000E+00
    0.70269E+03        -0.19203E+04         0.00000E+00
    0.00000E+00         0.00000E+00        -0.89071E+03
 
   -0.55280E+04         0.75623E+01         0.00000E+00
    0.75623E+01        -0.83843E+00         0.00000E+00
    0.00000E+00         0.00000E+00        -0.16586E+04
 
   -0.55014E+04         0.24380E+02         0.00000E+00
    0.24380E+02        -0.54306E+01         0.00000E+00
    0.00000E+00         0.00000E+00        -0.16520E+04
 
   -0.54644E+04         0.43302E+02         0.00000E+00
    0.43302E+02        -0.15214E+02         0.00000E+00
    0.00000E+00         0.00000E+00        -0.16439E+04
 
   -0.54158E+04         0.64165E+02         0.00000E+00
    0.64165E+02        -0.30780E+02         0.00000E+00
    0.00000E+00         0.00000E+00        -0.16340E+04
 
   -0.53545E+04         0.86780E+02         0.00000E+00
    0.86780E+02        -0.52666E+02         0.00000E+00
    0.00000E+00         0.00000E+00        -0.16221E+04
 
   -0.52793E+04         0.11094E+03         0.00000E+00
    0.11094E+03        -0.81345E+02         0.00000E+00
    0.00000E+00         0.00000E+00        -0.16082E+04
 
   -0.51893E+04         0.13642E+03         0.00000E+00
    0.13642E+03        -0.11723E+03         0.00000E+00
    0.00000E+00         0.00000E+00        -0.15920E+04
 
   -0.50838E+04         0.16300E+03         0.00000E+00
    0.16300E+03        -0.16065E+03         0.00000E+00
    0.00000E+00         0.00000E+00        -0.15733E+04
 
   -0.49619E+04         0.19044E+03         0.00000E+00
    0.19044E+03        -0.21190E+03         0.00000E+00
    0.00000E+00         0.00000E+00        -0.15521E+04
 
   -0.48231E+04         0.21851E+03         0.00000E+00
    0.21851E+03        -0.27116E+03         0.00000E+00
    0.00000E+00         0.00000E+00        -0.15283E+04
 
   -0.46668E+04         0.24697E+03         0.00000E+00
    0.24697E+03        -0.33859E+03         0.00000E+00
    0.00000E+00         0.00000E+00        -0.15016E+04
 
   -0.44927E+04         0.27559E+03         0.00000E+00
    0.27559E+03        -0.41424E+03         0.00000E+00
    0.00000E+00         0.00000E+00        -0.14721E+04
 
   -0.43005E+04         0.30414E+03         0.00000E+00
    0.30414E+03        -0.49812E+03         0.00000E+00
    0.00000E+00         0.00000E+00        -0.14396E+04
 
   -0.40901E+04         0.33238E+03         0.00000E+00
    0.33238E+03        -0.59016E+03         0.00000E+00
    0.00000E+00         0.00000E+00        -0.14041E+04
 
   -0.38614E+04         0.36008E+03         0.00000E+00
    0.36008E+03        -0.69025E+03         0.00000E+00
    0.00000E+00         0.00000E+00        -0.13655E+04
 
   -0.36145E+04         0.38702E+03         0.00000E+00
    0.38702E+03        -0.79818E+03         0.00000E+00
    0.00000E+00         0.00000E+00        -0.13238E+04
 
   -0.33496E+04         0.41296E+03         0.00000E+00
    0.41296E+03        -0.91371E+03         0.00000E+00
    0.00000E+00         0.00000E+00        -0.12790E+04
 
   -0.30671E+04         0.43765E+03         0.00000E+00
    0.43765E+03        -0.10365E+04         0.00000E+00
    0.00000E+00         0.00000E+00        -0.12311E+04
 
   -0.27674E+04         0.46085E+03         0.00000E+00
    0.46085E+03        -0.11662E+04         0.00000E+00
    0.00000E+00         0.00000E+00        -0.11801E+04
 
   -0.24511E+04         0.48229E+03         0.00000E+00
    0.48229E+03        -0.13023E+04         0.00000E+00
    0.00000E+00         0.00000E+00        -0.11260E+04
 
   -0.21190E+04         0.50169E+03         0.00000E+00
    0.50169E+03        -0.14443E+04         0.00000E+00
    0.00000E+00         0.00000E+00        -0.10690E+04
 
   -0.17720E+04         0.51876E+03         0.00000E+00
    0.51876E+03        -0.15916E+04         0.00000E+00
    0.00000E+00         0.00000E+00        -0.10091E+04
 
   -0.14110E+04         0.53320E+03         0.00000E+00
    0.53320E+03        -0.17434E+04         0.00000E+00
    0.00000E+00         0.00000E+00        -0.94633E+03
 
   -0.10374E+04         0.54468E+03         0.00000E+00
    0.54468E+03        -0.18990E+04         0.00000E+00
    0.00000E+00         0.00000E+00        -0.88093E+03
 
   -0.55145E+04         0.53850E+01         0.00000E+00
    0.53850E+01        -0.83057E+00         0.00000E+00
    0.00000E+00         0.00000E+00        -0.16546E+04
 
   -0.54861E+04         0.17353E+02         0.00000E+00
    0.17353E+02        -0.53754E+01         0.00000E+00
    0.00000E+00         0.00000E+00        -0.16474E+04
 
   -0.54474E+04         0.30815E+02         0.00000E+00
    0.30815E+02        -0.15050E+02         0.00000E+00
    0.00000E+00         0.00000E+00        -0.16387E+04
 
   -0.53972E+04         0.45656E+02         0.00000E+00
    0.45656E+02        -0.30437E+02         0.00000E+00
    0.00000E+00         0.00000E+00        -0.16283E+04
 
   -0.53344E+04         0.61745E+02         0.00000E+00
    0.61745E+02        -0.52067E+02         0.00000E+00
    0.00000E+00         0.00000E+00        -0.16159E+04
 
   -0.52580E+04         0.78937E+02         0.00000E+00
    0.78937E+02        -0.80412E+02         0.00000E+00
    0.00000E+00         0.00000E+00        -0.16015E+04
 
   -0.51670E+04         0.97076E+02         0.00000E+00
    0.97076E+02        -0.11588E+03         0.00000E+00
    0.00000E+00         0.00000E+00        -0.15849E+04
 
   -0.50606E+04         0.11600E+03         0.00000E+00
    0.11600E+03        -0.15882E+03         0.00000E+00
    0.00000E+00         0.00000E+00        -0.15658E+04
 
   -0.49381E+04         0.13555E+03         0.00000E+00
    0.13555E+03        -0.20950E+03         0.00000E+00
    0.00000E+00         0.00000E+00        -0.15443E+04
 
   -0.47988E+04         0.15554E+03         0.00000E+00
    0.15554E+03        -0.26815E+03         0.00000E+00
    0.00000E+00         0.00000E+00        -0.15201E+04
 
   -0.46423E+04         0.17583E+03         0.00000E+00
    0.17583E+03        -0.33489E+03         0.00000E+00
    0.00000E+00         0.00000E+00        -0.14932E+04
 
   -0.44682E+04         0.19623E+03         0.00000E+00
    0.19623E+03        -0.40981E+03         0.00000E+00
    0.00000E+00         0.00000E+00        -0.14634E+04
 
   -0.42762E+04         0.21659E+03         0.00000E+00
    0.21659E+03        -0.49292E+03         0.00000E+00
    0.00000E+00         0.00000E+00        -0.14307E+04
 
   -0.40661E+04         0.23673E+03         0.00000E+00
    0.23673E+03        -0.58416E+03         0.00000E+00
    0.00000E+00         0.00000E+00        -0.13951E+04
 
   -0.38379E+04         0.25650E+03         0.00000E+00
    0.25650E+03        -0.68340E+03         0.00000E+00
    0.00000E+00         0.00000E+00        -0.13564E+04
 
   -0.35918E+04         0.27572E+03         0.00000E+00
    0.27572E+03        -0.79047E+03         0.00000E+00
    0.00000E+00         0.00000E+00        -0.13147E+04
 
   -0.33279E+04         0.29422E+03         0.00000E+00
    0.29422E+03        -0.90511E+03         0.00000E+00
    0.00000E+00         0.00000E+00        -0.12699E+04
 
   -0.30466E+04         0.31184E+03         0.00000E+00
    0.31184E+03        -0.10270E+04         0.00000E+00
    0.00000E+00         0.00000E+00        -0.12221E+04
 
   -0.27483E+04         0.32838E+03         0.00000E+00
    0.32838E+03        -0.11557E+04         0.00000E+00
    0.00000E+00         0.00000E+00        -0.11712E+04
 
   -0.24336E+04         0.34367E+03         0.00000E+00
    0.34367E+03        -0.12909E+04         0.00000E+00
    0.00000E+00         0.00000E+00        -0.11173E+04
 
   -0.21034E+04         0.35749E+03         0.00000E+00
    0.35749E+03        -0.14318E+04         0.00000E+00
    0.00000E+00         0.00000E+00        -0.10606E+04
 
   -0.17585E+04         0.36965E+03         0.00000E+00
    0.36965E+03        -0.15781E+04         0.00000E+00
    0.00000E+00         0.00000E+00        -0.10010E+04
 
   -0.13999E+04         0.37992E+03         0.00000E+00
    0.37992E+03        -0.17288E+04         0.00000E+00
    0.00000E+00         0.00000E+00        -0.93861E+03
 
   -0.10290E+04         0.38806E+03         0.00000E+00
    0.38806E+03        -0.18833E+04         0.00000E+00
    0.00000E+00         0.00000E+00        -0.87367E+03
 
   -0.55056E+04         0.32246E+01         0.00000E+00
    0.32246E+01        -0.82565E+00         0.00000E+00
    0.00000E+00         0.00000E+00        -0.16519E+04
 
   -0.54759E+04         0.10388E+02         0.00000E+00
    0.10388E+02        -0.53405E+01         0.00000E+00
    0.00000E+00         0.00000E+00        -0.16444E+04
 
   -0.54361E+04         0.18444E+02         0.00000E+00
    0.18444E+02        -0.14946E+02         0.00000E+00
    0.00000E+00         0.00000E+00        -0.16353E+04
 
   -0.53848E+04         0.27325E+02         0.00000E+00
    0.27325E+02        -0.30218E+02         0.00000E+00
    0.00000E+00         0.00000E+00        -0.16245E+04
 
   -0.53211E+04         0.36953E+02         0.00000E+00
    0.36953E+02        -0.51682E+02         0.00000E+00
    0.00000E+00         0.00000E+00        -0.16118E+04
 
   -0.52439E+04         0.47242E+02         0.00000E+00
    0.47242E+02        -0.79809E+02         0.00000E+00
    0.00000E+00         0.00000E+00        -0.15971E+04
 
   -0.51522E+04         0.58100E+02         0.00000E+00
    0.58100E+02        -0.11501E+03         0.00000E+00
    0.00000E+00         0.00000E+00        -0.15802E+04
 
   -0.50452E+04         0.69430E+02         0.00000E+00
    0.69430E+02        -0.15763E+03         0.00000E+00
    0.00000E+00         0.00000E+00        -0.15609E+04
 
   -0.49223E+04         0.81135E+02         0.00000E+00
    0.81135E+02        -0.20795E+03         0.00000E+00
    0.00000E+00         0.00000E+00        -0.15391E+04
 
   -0.47827E+04         0.93114E+02         0.00000E+00
    0.93114E+02        -0.26618E+03         0.00000E+00
    0.00000E+00         0.00000E+00        -0.15147E+04
 
   -0.46260E+04         0.10527E+03         0.00000E+00
    0.10527E+03        -0.33248E+03         0.00000E+00
    0.00000E+00         0.00000E+00        -0.14876E+04
 
   -0.44519E+04         0.11749E+03         0.00000E+00
    0.11749E+03        -0.40692E+03         0.00000E+00
    0.00000E+00         0.00000E+00        -0.14576E+04
 
   -0.42600E+04         0.12969E+03         0.00000E+00
    0.12969E+03        -0.48952E+03         0.00000E+00
    0.00000E+00         0.00000E+00        -0.14248E+04
 
   -0.40501E+04         0.14177E+03         0.00000E+00
    0.14177E+03        -0.58023E+03         0.00000E+00
    0.00000E+00         0.00000E+00        -0.13891E+04
 
   -0.38223E+04         0.15362E+03         0.00000E+00
    0.15362E+03        -0.67892E+03         0.00000E+00
    0.00000E+00         0.00000E+00        -0.13504E+04
 
   -0.35767E+04         0.16514E+03         0.00000E+00
    0.16514E+03        -0.78541E+03         0.00000E+00
    0.00000E+00         0.00000E+00        -0.13086E+04
 
   -0.33134E+04         0.17624E+03         0.00000E+00
    0.17624E+03        -0.89946E+03         0.00000E+00
    0.00000E+00         0.00000E+00        -0.12639E+04
 
   -0.30329E+04         0.18680E+03         0.00000E+00
    0.18680E+03        -0.10207E+04         0.00000E+00
    0.00000E+00         0.00000E+00        -0.12161E+04
 
   -0.27355E+04         0.19671E+03         0.00000E+00
    0.19671E+03        -0.11488E+04         0.00000E+00
    0.00000E+00         0.00000E+00        -0.11653E+04
 
   -0.24220E+04         0.20587E+03         0.00000E+00
    0.20587E+03        -0.12833E+04         0.00000E+00
    0.00000E+00         0.00000E+00        -0.11116E+04
 
   -0.20930E+04         0.21415E+03         0.00000E+00
    0.21415E+03        -0.14236E+04         0.00000E+00
    0.00000E+00         0.00000E+00        -0.10550E+04
 
   -0.17495E+04         0.22143E+03         0.00000E+00
    0.22143E+03        -0.15692E+04         0.00000E+00
    0.00000E+00         0.00000E+00        -0.99559E+03
 
   -0.13925E+04         0.22757E+03         0.00000E+00
    0.22757E+03        -0.17192E+04         0.00000E+00
    0.00000E+00         0.00000E+00        -0.93351E+03
 
   -0.10234E+04         0.23244E+03         0.00000E+00
    0.23244E+03        -0.18729E+04         0.00000E+00
    0.00000E+00         0.00000E+00        -0.86888E+03
 
   -0.55011E+04         0.10738E+01         0.00000E+00
    0.10738E+01        -0.82328E+00         0.00000E+00
    0.00000E+00         0.00000E+00        -0.16506E+04
 
   -0.54709E+04         0.34590E+01         0.00000E+00
    0.34590E+01        -0.53236E+01         0.00000E+00
    0.00000E+00         0.00000E+00        -0.16429E+04
 
   -0.54304E+04         0.61406E+01         0.00000E+00
    0.61406E+01        -0.14895E+02         0.00000E+00
    0.00000E+00         0.00000E+00        -0.16336E+04
 
   -0.53787E+04         0.90968E+01         0.00000E+00
    0.90968E+01        -0.30111E+02         0.00000E+00
    0.00000E+00         0.00000E+00        -0.16226E+04
 
   -0.53145E+04         0.12302E+02         0.00000E+00
    0.12302E+02        -0.51494E+02         0.00000E+00
    0.00000E+00         0.00000E+00        -0.16098E+04
 
   -0.52368E+04         0.15727E+02         0.00000E+00
    0.15727E+02        -0.79514E+02         0.00000E+00
    0.00000E+00         0.00000E+00        -0.15949E+04
 
   -0.51448E+04         0.19343E+02         0.00000E+00
    0.19343E+02        -0.11458E+03         0.00000E+00
    0.00000E+00         0.00000E+00        -0.15778E+04
 
   -0.50375E+04         0.23115E+02         0.00000E+00
    0.23115E+02        -0.15704E+03         0.00000E+00
    0.00000E+00         0.00000E+00        -0.15584E+04
 
   -0.49144E+04         0.27013E+02         0.00000E+00
    0.27013E+02        -0.20718E+03         0.00000E+00
    0.00000E+00         0.00000E+00        -0.15365E+04
 
   -0.47747E+04         0.31003E+02         0.00000E+00
    0.31003E+02        -0.26522E+03         0.00000E+00
    0.00000E+00         0.00000E+00        -0.15120E+04
 
   -0.46179E+04         0.35051E+02         0.00000E+00
    0.35051E+02        -0.33130E+03         0.00000E+00
    0.00000E+00         0.00000E+00        -0.14848E+04
 
   -0.44437E+04         0.39123E+02         0.00000E+00
    0.39123E+02        -0.40550E+03         0.00000E+00
    0.00000E+00         0.00000E+00        -0.14548E+04
 
   -0.42519E+04         0.43188E+02         0.00000E+00
    0.43188E+02        -0.48785E+03         0.00000E+00
    0.00000E+00         0.00000E+00        -0.14219E+04
 
   -0.40421E+04         0.47211E+02         0.00000E+00
    0.47211E+02        -0.57829E+03         0.00000E+00
    0.00000E+00         0.00000E+00        -0.13861E+04
 
   -0.38145E+04         0.51159E+02         0.00000E+00
    0.51159E+02        -0.67670E+03         0.00000E+00
    0.00000E+00         0.00000E+00        -0.13474E+04
 
   -0.35692E+04         0.54999E+02         0.00000E+00
    0.54999E+02        -0.78291E+03         0.00000E+00
    0.00000E+00         0.00000E+00        -0.13056E+04
 
   -0.33062E+04         0.58695E+02         0.00000E+00
    0.58695E+02        -0.89666E+03         0.00000E+00
    0.00000E+00         0.00000E+00        -0.12609E+04
 
   -0.30260E+04         0.62214E+02         0.00000E+00
    0.62214E+02        -0.10176E+04         0.00000E+00
    0.00000E+00         0.00000E+00        -0.12131E+04
 
   -0.27291E+04         0.65518E+02         0.00000E+00
    0.65518E+02        -0.11454E+04         0.00000E+00
    0.00000E+00         0.00000E+00        -0.11624E+04
 
   -0.24161E+04         0.68569E+02         0.00000E+00
    0.68569E+02        -0.12796E+04         0.00000E+00
    0.00000E+00         0.00000E+00        -0.11087E+04
 
   -0.20878E+04         0.71327E+02         0.00000E+00
    0.71327E+02        -0.14196E+04         0.00000E+00
    0.00000E+00         0.00000E+00        -0.10522E+04
 
   -0.17450E+04         0.73750E+02         0.00000E+00
    0.73750E+02        -0.15647E+04         0.00000E+00
    0.00000E+00         0.00000E+00        -0.99292E+03
 
   -0.13889E+04         0.75794E+02         0.00000E+00
    0.75794E+02        -0.17144E+04         0.00000E+00
    0.00000E+00         0.00000E+00        -0.93097E+03
 
   -0.10206E+04         0.77413E+02         0.00000E+00
    0.77413E+02        -0.18677E+04         0.00000E+00
    0.00000E+00         0.00000E+00        -0.86649E+03
 
TENSORS stresstot double 
   -0.50391E+05         0.36730E+03         0.00000E+00
    0.36730E+03        -0.10022E+06         0.00000E+00
    0.00000E+00         0.00000E+00        -0.56226E+05
 
   -0.40546E+05         0.26486E+04         0.00000E+00
    0.26486E+04        -0.96900E+05         0.00000E+00
    0.00000E+00         0.00000E+00        -0.65782E+05
 
   -0.34885E+05         0.38063E+04         0.00000E+00
    0.38063E+04        -0.88952E+05         0.00000E+00
    0.00000E+00         0.00000E+00        -0.63209E+05
 
   -0.29645E+05         0.40509E+04         0.00000E+00
    0.40509E+04        -0.80509E+05         0.00000E+00
    0.00000E+00         0.00000E+00        -0.57496E+05
 
   -0.24761E+05         0.38935E+04         0.00000E+00
    0.38935E+04        -0.72692E+05         0.00000E+00
    0.00000E+00         0.00000E+00        -0.51282E+05
 
   -0.20330E+05         0.35934E+04         0.00000E+00
    0.35934E+04        -0.65568E+05         0.00000E+00
    0.00000E+00         0.00000E+00        -0.45219E+05
 
   -0.16348E+05         0.32081E+04         0.00000E+00
    0.32081E+04        -0.59151E+05         0.00000E+00
    0.00000E+00         0.00000E+00        -0.39561E+05
 
   -0.13259E+05         0.27880E+04         0.00000E+00
    0.27880E+04        -0.53412E+05         0.00000E+00
    0.00000E+00         0.00000E+00        -0.34605E+05
 
   -0.10653E+05         0.24213E+04         0.00000E+00
    0.24213E+04        -0.48357E+05         0.00000E+00
    0.00000E+00         0.00000E+00        -0.30293E+05
 
   -0.83767E+04         0.20929E+04         0.00000E+00
    0.20929E+04        -0.43954E+05         0.00000E+00
    0.00000E+00         0.00000E+00        -0.26573E+05
 
   -0.64942E+04         0.18174E+04         0.00000E+00
    0.18174E+04        -0.40076E+05         0.00000E+00
    0.00000E+00         0.00000E+00        -0.23398E+05
 
   -0.48386E+04         0.16290E+04         0.00000E+00
    0.16290E+04        -0.36660E+05         0.00000E+00
    0.00000E+00         0.00000E+00        -0.20596E+05
 
   -0.33193E+04         0.14654E+04         0.00000E+00
    0.14654E+04        -0.33629E+05         0.00000E+00
    0.00000E+00         0.00000E+00        -0.18044E+05
 
   -0.19102E+04         0.13215E+04         0.00000E+00
    0.13215E+04        -0.30891E+05         0.00000E+00
    0.00000E+00         0.00000E+00        -0.15675E+05
 
   -0.62664E+03         0.11691E+04         0.00000E+00
    0.11691E+04        -0.28436E+05         0.00000E+00
    0.00000E+00         0.00000E+00        -0.13468E+05
 
    0.38828E+03         0.10430E+04         0.00000E+00
    0.10430E+04        -0.26254E+05         0.00000E+00
    0.00000E+00         0.00000E+00        -0.11469E+05
 
    0.12312E+04         0.89577E+03         0.00000E+00
    0.89577E+03        -0.24359E+05         0.00000E+00
    0.00000E+00         0.00000E+00        -0.96121E+04
 
    0.19401E+04         0.79589E+03         0.00000E+00
    0.79589E+03        -0.22703E+05         0.00000E+00
    0.00000E+00         0.00000E+00        -0.79618E+04
 
    0.25345E+04         0.70734E+03         0.00000E+00
    0.70734E+03        -0.21226E+05         0.00000E+00
    0.00000E+00         0.00000E+00        -0.64142E+04
 
    0.27045E+04         0.63230E+03         0.00000E+00
    0.63230E+03        -0.19901E+05         0.00000E+00
    0.00000E+00         0.00000E+00        -0.52517E+04
 
    0.78899E+03         0.54023E+03         0.00000E+00
    0.54023E+03        -0.18737E+05         0.00000E+00
    0.00000E+00         0.00000E+00        -0.53843E+04
 
   -0.13049E+04         0.48390E+03         0.00000E+00
    0.48390E+03        -0.17720E+05         0.00000E+00
    0.00000E+00         0.00000E+00        -0.57075E+04
 
   -0.33711E+04         0.46006E+03         0.00000E+00
    0.46006E+03        -0.16781E+05         0.00000E+00
    0.00000E+00         0.00000E+00        -0.60456E+04
 
   -0.55070E+04         0.46042E+03         0.00000E+00
    0.46042E+03        -0.15865E+05         0.00000E+00
    0.00000E+00         0.00000E+00        -0.64115E+04
 
   -0.46905E+05         0.27391E+04         0.00000E+00
    0.27391E+04        -0.99614E+05         0.00000E+00
    0.00000E+00         0.00000E+00        -0.59029E+05
 
   -0.37182E+05         0.97166E+04         0.00000E+00
    0.97166E+04        -0.88863E+05         0.00000E+00
    0.00000E+00         0.00000E+00        -0.63738E+05
 
   -0.33484E+05         0.11696E+05         0.00000E+00
    0.11696E+05        -0.80360E+05         0.00000E+00
    0.00000E+00         0.00000E+00        -0.59430E+05
 
   -0.29650E+05         0.11870E+05         0.00000E+00
    0.11870E+05        -0.73326E+05         0.00000E+00
    0.00000E+00         0.00000E+00        -0.54320E+05
 
   -0.25346E+05         0.11185E+05         0.00000E+00
    0.11185E+05        -0.66651E+05         0.00000E+00
    0.00000E+00         0.00000E+00        -0.48714E+05
 
   -0.21103E+05         0.10180E+05         0.00000E+00
    0.10180E+05        -0.60606E+05         0.00000E+00
    0.00000E+00         0.00000E+00        -0.43217E+05
 
   -0.17293E+05         0.90435E+04         0.00000E+00
    0.90435E+04        -0.55212E+05         0.00000E+00
    0.00000E+00         0.00000E+00        -0.38134E+05
 
   -0.14047E+05         0.79392E+04         0.00000E+00
    0.79392E+04        -0.50454E+05         0.00000E+00
    0.00000E+00         0.00000E+00        -0.33598E+05
 
   -0.11359E+05         0.69290E+04         0.00000E+00
    0.69290E+04        -0.46145E+05         0.00000E+00
    0.00000E+00         0.00000E+00        -0.29593E+05
 
   -0.89791E+04         0.60580E+04         0.00000E+00
    0.60580E+04        -0.42208E+05         0.00000E+00
    0.00000E+00         0.00000E+00        -0.26015E+05
 
   -0.69214E+04         0.53488E+04         0.00000E+00
    0.53488E+04        -0.38725E+05         0.00000E+00
    0.00000E+00         0.00000E+00        -0.22876E+05
 
   -0.51691E+04         0.47850E+04         0.00000E+00
    0.47850E+04        -0.35551E+05         0.00000E+00
    0.00000E+00         0.00000E+00        -0.20117E+05
 
   -0.36323E+04         0.42983E+04         0.00000E+00
    0.42983E+04        -0.32658E+05         0.00000E+00
    0.00000E+00         0.00000E+00        -0.17626E+05
 
   -0.21938E+04         0.38774E+04         0.00000E+00
    0.38774E+04        -0.30101E+05         0.00000E+00
    0.00000E+00         0.00000E+00        -0.15307E+05
 
   -0.92462E+03         0.34478E+04         0.00000E+00
    0.34478E+04        -0.27827E+05         0.00000E+00
    0.00000E+00         0.00000E+00        -0.13185E+05
 
    0.11973E+03         0.30234E+04         0.00000E+00
    0.30234E+04        -0.25818E+05         0.00000E+00
    0.00000E+00         0.00000E+00        -0.11265E+05
 
    0.99390E+03         0.26574E+04         0.00000E+00
    0.26574E+04        -0.24029E+05         0.00000E+00
    0.00000E+00         0.00000E+00        -0.94461E+04
 
    0.17507E+04         0.23527E+04         0.00000E+00
    0.23527E+04        -0.22425E+05         0.00000E+00
    0.00000E+00         0.00000E+00        -0.78184E+04
 
    0.23768E+04         0.21001E+04         0.00000E+00
    0.21001E+04        -0.21004E+05         0.00000E+00
    0.00000E+00         0.00000E+00        -0.63129E+04
 
    0.25249E+04         0.18769E+04         0.00000E+00
    0.18769E+04        -0.19710E+05         0.00000E+00
    0.00000E+00         0.00000E+00        -0.52244E+04
 
    0.63689E+03         0.16069E+04         0.00000E+00
    0.16069E+04        -0.18585E+05         0.00000E+00
    0.00000E+00         0.00000E+00        -0.53845E+04
 
   -0.13809E+04         0.14443E+04         0.00000E+00
    0.14443E+04        -0.17587E+05         0.00000E+00
    0.00000E+00         0.00000E+00        -0.56904E+04
 
   -0.33933E+04         0.13733E+04         0.00000E+00
    0.13733E+04        -0.16662E+05         0.00000E+00
    0.00000E+00         0.00000E+00        -0.60165E+04
 
   -0.54856E+04         0.13738E+04         0.00000E+00
    0.13738E+04        -0.15760E+05         0.00000E+00
    0.00000E+00         0.00000E+00        -0.63738E+04
 
   -0.34308E+05         0.16166E+05         0.00000E+00
    0.16166E+05        -0.75384E+05         0.00000E+00
    0.00000E+00         0.00000E+00        -0.55713E+05
 
   -0.33389E+05         0.18376E+05         0.00000E+00
    0.18376E+05        -0.64371E+05         0.00000E+00
    0.00000E+00         0.00000E+00        -0.52842E+05
 
   -0.33536E+05         0.18913E+05         0.00000E+00
    0.18913E+05        -0.61966E+05         0.00000E+00
    0.00000E+00         0.00000E+00        -0.51523E+05
 
   -0.30579E+05         0.17942E+05         0.00000E+00
    0.17942E+05        -0.58431E+05         0.00000E+00
    0.00000E+00         0.00000E+00        -0.47919E+05
 
   -0.26760E+05         0.16566E+05         0.00000E+00
    0.16566E+05        -0.55017E+05         0.00000E+00
    0.00000E+00         0.00000E+00        -0.43895E+05
 
   -0.22640E+05         0.14973E+05         0.00000E+00
    0.14973E+05        -0.51500E+05         0.00000E+00
    0.00000E+00         0.00000E+00        -0.39628E+05
 
   -0.18792E+05         0.13368E+05         0.00000E+00
    0.13368E+05        -0.48055E+05         0.00000E+00
    0.00000E+00         0.00000E+00        -0.35481E+05
 
   -0.15435E+05         0.11880E+05         0.00000E+00
    0.11880E+05        -0.44737E+05         0.00000E+00
    0.00000E+00         0.00000E+00        -0.31594E+05
 
   -0.12522E+05         0.10622E+05         0.00000E+00
    0.10622E+05        -0.41612E+05         0.00000E+00
    0.00000E+00         0.00000E+00        -0.28020E+05
 
   -0.99566E+04         0.94652E+04         0.00000E+00
    0.94652E+04        -0.38612E+05         0.00000E+00
    0.00000E+00         0.00000E+00        -0.24768E+05
 
   -0.77452E+04         0.84419E+04         0.00000E+00
    0.84419E+04        -0.35718E+05         0.00000E+00
    0.00000E+00         0.00000E+00        -0.21794E+05
 
   -0.58439E+04         0.75695E+04         0.00000E+00
    0.75695E+04        -0.33140E+05         0.00000E+00
    0.00000E+00         0.00000E+00        -0.19138E+05
 
   -0.42040E+04         0.68304E+04         0.00000E+00
    0.68304E+04        -0.30829E+05         0.00000E+00
    0.00000E+00         0.00000E+00        -0.16768E+05
 
   -0.27501E+04         0.61366E+04         0.00000E+00
    0.61366E+04        -0.28684E+05         0.00000E+00
    0.00000E+00         0.00000E+00        -0.14613E+05
 
   -0.14931E+04         0.54808E+04         0.00000E+00
    0.54808E+04        -0.26720E+05         0.00000E+00
    0.00000E+00         0.00000E+00        -0.12623E+05
 
   -0.38869E+03         0.48451E+04         0.00000E+00
    0.48451E+04        -0.24951E+05         0.00000E+00
    0.00000E+00         0.00000E+00        -0.10746E+05
 
    0.57353E+03         0.42774E+04         0.00000E+00
    0.42774E+04        -0.23346E+05         0.00000E+00
    0.00000E+00         0.00000E+00        -0.90464E+04
 
    0.13887E+04         0.38061E+04         0.00000E+00
    0.38061E+04        -0.21894E+05         0.00000E+00
    0.00000E+00         0.00000E+00        -0.75201E+04
 
    0.20778E+04         0.34279E+04         0.00000E+00
    0.34279E+04        -0.20566E+05         0.00000E+00
    0.00000E+00         0.00000E+00        -0.61163E+04
 
    0.21726E+04         0.30632E+04         0.00000E+00
    0.30632E+04        -0.19352E+05         0.00000E+00
    0.00000E+00         0.00000E+00        -0.51739E+04
 
    0.34950E+03         0.26406E+04         0.00000E+00
    0.26406E+04        -0.18272E+05         0.00000E+00
    0.00000E+00         0.00000E+00        -0.53767E+04
 
   -0.15292E+04         0.23831E+04         0.00000E+00
    0.23831E+04        -0.17308E+05         0.00000E+00
    0.00000E+00         0.00000E+00        -0.56512E+04
 
   -0.34392E+04         0.22644E+04         0.00000E+00
    0.22644E+04        -0.16414E+05         0.00000E+00
    0.00000E+00         0.00000E+00        -0.59559E+04
 
   -0.54425E+04         0.22634E+04         0.00000E+00
    0.22634E+04        -0.15545E+05         0.00000E+00
    0.00000E+00         0.00000E+00        -0.62962E+04
 
   -0.13667E+05         0.14261E+05         0.00000E+00
    0.14261E+05        -0.27519E+05         0.00000E+00
    0.00000E+00         0.00000E+00        -0.24696E+05
 
   -0.33315E+05         0.19993E+05         0.00000E+00
    0.19993E+05        -0.37879E+05         0.00000E+00
    0.00000E+00         0.00000E+00        -0.41094E+05
 
   -0.33834E+05         0.19630E+05         0.00000E+00
    0.19630E+05        -0.37797E+05         0.00000E+00
    0.00000E+00         0.00000E+00        -0.40565E+05
 
   -0.31843E+05         0.19156E+05         0.00000E+00
    0.19156E+05        -0.38809E+05         0.00000E+00
    0.00000E+00         0.00000E+00        -0.39546E+05
 
   -0.28267E+05         0.18222E+05         0.00000E+00
    0.18222E+05        -0.38968E+05         0.00000E+00
    0.00000E+00         0.00000E+00        -0.37283E+05
 
   -0.24305E+05         0.17046E+05         0.00000E+00
    0.17046E+05        -0.38593E+05         0.00000E+00
    0.00000E+00         0.00000E+00        -0.34534E+05
 
   -0.20436E+05         0.15706E+05         0.00000E+00
    0.15706E+05        -0.37658E+05         0.00000E+00
    0.00000E+00         0.00000E+00        -0.31522E+05
 
   -0.16926E+05         0.14338E+05         0.00000E+00
    0.14338E+05        -0.36332E+05         0.00000E+00
    0.00000E+00         0.00000E+00        -0.28473E+05
 
   -0.13889E+05         0.13037E+05         0.00000E+00
    0.13037E+05        -0.34814E+05         0.00000E+00
    0.00000E+00         0.00000E+00        -0.25514E+05
 
   -0.11146E+05         0.11875E+05         0.00000E+00
    0.11875E+05        -0.33248E+05         0.00000E+00
    0.00000E+00         0.00000E+00        -0.22674E+05
 
   -0.87931E+04         0.10766E+05         0.00000E+00
    0.10766E+05        -0.31607E+05         0.00000E+00
    0.00000E+00         0.00000E+00        -0.20065E+05
 
   -0.67725E+04         0.96977E+04         0.00000E+00
    0.96977E+04        -0.29870E+05         0.00000E+00
    0.00000E+00         0.00000E+00        -0.17688E+05
 
   -0.50155E+04         0.87620E+04         0.00000E+00
    0.87620E+04        -0.28192E+05         0.00000E+00
    0.00000E+00         0.00000E+00        -0.15537E+05
 
   -0.35112E+04         0.79189E+04         0.00000E+00
    0.79189E+04        -0.26640E+05         0.00000E+00
    0.00000E+00         0.00000E+00        -0.13603E+05
 
   -0.22066E+04         0.71244E+04         0.00000E+00
    0.71244E+04        -0.25200E+05         0.00000E+00
    0.00000E+00         0.00000E+00        -0.11804E+05
 
   -0.10641E+04         0.63871E+04         0.00000E+00
    0.63871E+04        -0.23832E+05         0.00000E+00
    0.00000E+00         0.00000E+00        -0.10128E+05
 
   -0.26000E+02         0.57347E+04         0.00000E+00
    0.57347E+04        -0.22452E+05         0.00000E+00
    0.00000E+00         0.00000E+00        -0.85749E+04
 
    0.91722E+03         0.51302E+04         0.00000E+00
    0.51302E+04        -0.21118E+05         0.00000E+00
    0.00000E+00         0.00000E+00        -0.71372E+04
 
    0.17001E+04         0.46607E+04         0.00000E+00
    0.46607E+04        -0.19885E+05         0.00000E+00
    0.00000E+00         0.00000E+00        -0.58498E+04
 
    0.16256E+04         0.41619E+04         0.00000E+00
    0.41619E+04        -0.18763E+05         0.00000E+00
    0.00000E+00         0.00000E+00        -0.51412E+04
 
   -0.43840E+02         0.36219E+04         0.00000E+00
    0.36219E+04        -0.17765E+05         0.00000E+00
    0.00000E+00         0.00000E+00        -0.53427E+04
 
   -0.17473E+04         0.32798E+04         0.00000E+00
    0.32798E+04        -0.16863E+05         0.00000E+00
    0.00000E+00         0.00000E+00        -0.55830E+04
 
   -0.35104E+04         0.31135E+04         0.00000E+00
    0.31135E+04        -0.16023E+05         0.00000E+00
    0.00000E+00         0.00000E+00        -0.58602E+04
 
   -0.53774E+04         0.31096E+04         0.00000E+00
    0.31096E+04        -0.15209E+05         0.00000E+00
    0.00000E+00         0.00000E+00        -0.61759E+04
 
   -0.53469E+04         0.32349E+04         0.00000E+00
    0.32349E+04         0.36723E+04         0.00000E+00
    0.00000E+00         0.00000E+00         0.23212E+03
 
   -0.27103E+05         0.11085E+05         0.00000E+00
    0.11085E+05        -0.97059E+04         0.00000E+00
    0.00000E+00         0.00000E+00        -0.19807E+05
 
   -0.32124E+05         0.14176E+05         0.00000E+00
    0.14176E+05        -0.17695E+05         0.00000E+00
    0.00000E+00         0.00000E+00        -0.27674E+05
 
   -0.30963E+05         0.15562E+05         0.00000E+00
    0.15562E+05        -0.21987E+05         0.00000E+00
    0.00000E+00         0.00000E+00        -0.29206E+05
 
   -0.28342E+05         0.16162E+05         0.00000E+00
    0.16162E+05        -0.24972E+05         0.00000E+00
    0.00000E+00         0.00000E+00        -0.29112E+05
 
   -0.24962E+05         0.16103E+05         0.00000E+00
    0.16103E+05        -0.26821E+05         0.00000E+00
    0.00000E+00         0.00000E+00        -0.27933E+05
 
   -0.21430E+05         0.15590E+05         0.00000E+00
    0.15590E+05        -0.27861E+05         0.00000E+00
    0.00000E+00         0.00000E+00        -0.26198E+05
 
   -0.18058E+05         0.14789E+05         0.00000E+00
    0.14789E+05        -0.28262E+05         0.00000E+00
    0.00000E+00         0.00000E+00        -0.24178E+05
 
   -0.15009E+05         0.13853E+05         0.00000E+00
    0.13853E+05        -0.28171E+05         0.00000E+00
    0.00000E+00         0.00000E+00        -0.22050E+05
 
   -0.12272E+05         0.12870E+05         0.00000E+00
    0.12870E+05        -0.27744E+05         0.00000E+00
    0.00000E+00         0.00000E+00        -0.19909E+05
 
   -0.98618E+04         0.11908E+05         0.00000E+00
    0.11908E+05        -0.27142E+05         0.00000E+00
    0.00000E+00         0.00000E+00        -0.17841E+05
 
   -0.77535E+04         0.10979E+05         0.00000E+00
    0.10979E+05        -0.26368E+05         0.00000E+00
    0.00000E+00         0.00000E+00        -0.15892E+05
 
   -0.59144E+04         0.10067E+05         0.00000E+00
    0.10067E+05        -0.25391E+05         0.00000E+00
    0.00000E+00         0.00000E+00        -0.14077E+05
 
   -0.43694E+04         0.91818E+04         0.00000E+00
    0.91818E+04        -0.24354E+05         0.00000E+00
    0.00000E+00         0.00000E+00        -0.12417E+05
 
   -0.29850E+04         0.83396E+04         0.00000E+00
    0.83396E+04        -0.23314E+05         0.00000E+00
    0.00000E+00         0.00000E+00        -0.10870E+05
 
   -0.17770E+04         0.76113E+04         0.00000E+00
    0.76113E+04        -0.22205E+05         0.00000E+00
    0.00000E+00         0.00000E+00        -0.94383E+04
 
   -0.69009E+03         0.69418E+04         0.00000E+00
    0.69418E+04        -0.21129E+05         0.00000E+00
    0.00000E+00         0.00000E+00        -0.80770E+04
 
    0.34342E+03         0.63231E+04         0.00000E+00
    0.63231E+04        -0.20069E+05         0.00000E+00
    0.00000E+00         0.00000E+00        -0.67235E+04
 
    0.12771E+04         0.57860E+04         0.00000E+00
    0.57860E+04        -0.18954E+05         0.00000E+00
    0.00000E+00         0.00000E+00        -0.55141E+04
 
    0.91327E+03         0.51595E+04         0.00000E+00
    0.51595E+04        -0.17920E+05         0.00000E+00
    0.00000E+00         0.00000E+00        -0.51021E+04
 
   -0.52612E+03         0.45179E+04         0.00000E+00
    0.45179E+04        -0.17043E+05         0.00000E+00
    0.00000E+00         0.00000E+00        -0.52707E+04
 
   -0.20290E+04         0.41035E+04         0.00000E+00
    0.41035E+04        -0.16239E+05         0.00000E+00
    0.00000E+00         0.00000E+00        -0.54804E+04
 
   -0.36066E+04         0.38952E+04         0.00000E+00
    0.38952E+04        -0.15486E+05         0.00000E+00
    0.00000E+00         0.00000E+00        -0.57277E+04
 
   -0.52900E+04         0.38895E+04         0.00000E+00
    0.38895E+04        -0.14750E+05         0.00000E+00
    0.00000E+00         0.00000E+00        -0.60120E+04
 
    0.33639E+03        -0.11882E+04         0.00000E+00
   -0.11882E+04        -0.16838E+04         0.00000E+00
    0.00000E+00         0.00000E+00        -0.16420E+03
 
   -0.24262E+05         0.58099E+04         0.00000E+00
    0.58099E+04        -0.31118E+04         0.00000E+00
    0.00000E+00         0.00000E+00        -0.10025E+05
 
   -0.28863E+05         0.95685E+04         0.00000E+00
    0.95685E+04        -0.92097E+04         0.00000E+00
    0.00000E+00         0.00000E+00        -0.18316E+05
 
   -0.29153E+05         0.11881E+05         0.00000E+00
    0.11881E+05        -0.13479E+05         0.00000E+00
    0.00000E+00         0.00000E+00        -0.21768E+05
 
   -0.27273E+05         0.13319E+05         0.00000E+00
    0.13319E+05        -0.16587E+05         0.00000E+00
    0.00000E+00         0.00000E+00        -0.22791E+05
 
   -0.24636E+05         0.14068E+05         0.00000E+00
    0.14068E+05        -0.18911E+05         0.00000E+00
    0.00000E+00         0.00000E+00        -0.22591E+05
 
   -0.21632E+05         0.14282E+05         0.00000E+00
    0.14282E+05        -0.20587E+05         0.00000E+00
    0.00000E+00         0.00000E+00        -0.21711E+05
 
   -0.18606E+05         0.14091E+05         0.00000E+00
    0.14091E+05        -0.21700E+05         0.00000E+00
    0.00000E+00         0.00000E+00        -0.20427E+05
 
   -0.15747E+05         0.13634E+05         0.00000E+00
    0.13634E+05        -0.22353E+05         0.00000E+00
    0.00000E+00         0.00000E+00        -0.18938E+05
 
   -0.13116E+05         0.13006E+05         0.00000E+00
    0.13006E+05        -0.22633E+05         0.00000E+00
    0.00000E+00         0.00000E+00        -0.17346E+05
 
   -0.10738E+05         0.12268E+05         0.00000E+00
    0.12268E+05        -0.22615E+05         0.00000E+00
    0.00000E+00         0.00000E+00        -0.15732E+05
 
   -0.86043E+04         0.11540E+05         0.00000E+00
    0.11540E+05        -0.22382E+05         0.00000E+00
    0.00000E+00         0.00000E+00        -0.14132E+05
 
   -0.67729E+04         0.10766E+05         0.00000E+00
    0.10766E+05        -0.22038E+05         0.00000E+00
    0.00000E+00         0.00000E+00        -0.12647E+05
 
   -0.51816E+04         0.99913E+04         0.00000E+00
    0.99913E+04        -0.21522E+05         0.00000E+00
    0.00000E+00         0.00000E+00        -0.11256E+05
 
   -0.37702E+04         0.92553E+04         0.00000E+00
    0.92553E+04        -0.20804E+05         0.00000E+00
    0.00000E+00         0.00000E+00        -0.99528E+04
 
   -0.24763E+04         0.85359E+04         0.00000E+00
    0.85359E+04        -0.20024E+05         0.00000E+00
    0.00000E+00         0.00000E+00        -0.86863E+04
 
   -0.13432E+04         0.78591E+04         0.00000E+00
    0.78591E+04        -0.19230E+05         0.00000E+00
    0.00000E+00         0.00000E+00        -0.74664E+04
 
   -0.22848E+03         0.72841E+04         0.00000E+00
    0.72841E+04        -0.18419E+05         0.00000E+00
    0.00000E+00         0.00000E+00        -0.62236E+04
 
    0.76161E+03         0.67704E+04         0.00000E+00
    0.67704E+04        -0.17586E+05         0.00000E+00
    0.00000E+00         0.00000E+00        -0.51440E+04
 
    0.94004E+02         0.59908E+04         0.00000E+00
    0.59908E+04        -0.16813E+05         0.00000E+00
    0.00000E+00         0.00000E+00        -0.50157E+04
 
   -0.10801E+04         0.52840E+04         0.00000E+00
    0.52840E+04        -0.16111E+05         0.00000E+00
    0.00000E+00         0.00000E+00        -0.51572E+04
 
   -0.23610E+04         0.48173E+04         0.00000E+00
    0.48173E+04        -0.15450E+05         0.00000E+00
    0.00000E+00         0.00000E+00        -0.53432E+04
 
   -0.37207E+04         0.45829E+04         0.00000E+00
    0.45829E+04        -0.14812E+05         0.00000E+00
    0.00000E+00         0.00000E+00        -0.55597E+04
 
   -0.51809E+04         0.45806E+04         0.00000E+00
    0.45806E+04        -0.14178E+05         0.00000E+00
    0.00000E+00         0.00000E+00        -0.58075E+04
 
    0.94886E+03        -0.17039E+04         0.00000E+00
   -0.17039E+04         0.49000E+02         0.00000E+00
    0.00000E+00         0.00000E+00         0.35061E+03
 
   -0.18633E+05         0.80513E+03         0.00000E+00
    0.80513E+03        -0.13738E+04         0.00000E+00
    0.00000E+00         0.00000E+00        -0.60021E+04
 
   -0.26652E+05         0.61350E+04         0.00000E+00
    0.61350E+04        -0.49879E+04         0.00000E+00
    0.00000E+00         0.00000E+00        -0.12163E+05
 
   -0.26866E+05         0.88909E+04         0.00000E+00
    0.88909E+04        -0.83077E+04         0.00000E+00
    0.00000E+00         0.00000E+00        -0.15722E+05
 
   -0.25819E+05         0.10756E+05         0.00000E+00
    0.10756E+05        -0.11200E+05         0.00000E+00
    0.00000E+00         0.00000E+00        -0.17432E+05
 
   -0.23743E+05         0.12012E+05         0.00000E+00
    0.12012E+05        -0.13532E+05         0.00000E+00
    0.00000E+00         0.00000E+00        -0.17925E+05
 
   -0.21274E+05         0.12691E+05         0.00000E+00
    0.12691E+05        -0.15312E+05         0.00000E+00
    0.00000E+00         0.00000E+00        -0.17677E+05
 
   -0.18639E+05         0.12948E+05         0.00000E+00
    0.12948E+05        -0.16671E+05         0.00000E+00
    0.00000E+00         0.00000E+00        -0.16960E+05
 
   -0.16062E+05         0.12881E+05         0.00000E+00
    0.12881E+05        -0.17656E+05         0.00000E+00
    0.00000E+00         0.00000E+00        -0.15976E+05
 
   -0.13629E+05         0.12588E+05         0.00000E+00
    0.12588E+05        -0.18329E+05         0.00000E+00
    0.00000E+00         0.00000E+00        -0.14829E+05
 
   -0.11342E+05         0.12166E+05         0.00000E+00
    0.12166E+05        -0.18723E+05         0.00000E+00
    0.00000E+00         0.00000E+00        -0.13573E+05
 
   -0.92757E+04         0.11624E+05         0.00000E+00
    0.11624E+05        -0.18892E+05         0.00000E+00
    0.00000E+00         0.00000E+00        -0.12303E+05
 
   -0.74748E+04         0.11037E+05         0.00000E+00
    0.11037E+05        -0.18828E+05         0.00000E+00
    0.00000E+00         0.00000E+00        -0.11097E+05
 
   -0.58745E+04         0.10419E+05         0.00000E+00
    0.10419E+05        -0.18585E+05         0.00000E+00
    0.00000E+00         0.00000E+00        -0.99498E+04
 
   -0.44468E+04         0.97933E+04         0.00000E+00
    0.97933E+04        -0.18255E+05         0.00000E+00
    0.00000E+00         0.00000E+00        -0.88637E+04
 
   -0.31403E+04         0.91719E+04         0.00000E+00
    0.91719E+04        -0.17824E+05         0.00000E+00
    0.00000E+00         0.00000E+00        -0.77694E+04
 
   -0.19320E+04         0.85745E+04         0.00000E+00
    0.85745E+04        -0.17271E+05         0.00000E+00
    0.00000E+00         0.00000E+00        -0.66786E+04
 
   -0.77438E+03         0.80332E+04         0.00000E+00
    0.80332E+04        -0.16616E+05         0.00000E+00
    0.00000E+00         0.00000E+00        -0.56677E+04
 
    0.49807E+02         0.74566E+04         0.00000E+00
    0.74566E+04        -0.15971E+05         0.00000E+00
    0.00000E+00         0.00000E+00        -0.48140E+04
 
   -0.71328E+03         0.65799E+04         0.00000E+00
    0.65799E+04        -0.15497E+05         0.00000E+00
    0.00000E+00         0.00000E+00        -0.48631E+04
 
   -0.16787E+04         0.58665E+04         0.00000E+00
    0.58665E+04        -0.15029E+05         0.00000E+00
    0.00000E+00         0.00000E+00        -0.50124E+04
 
   -0.27151E+04         0.53907E+04         0.00000E+00
    0.53907E+04        -0.14538E+05         0.00000E+00
    0.00000E+00         0.00000E+00        -0.51760E+04
 
   -0.38388E+04         0.51553E+04         0.00000E+00
    0.51553E+04        -0.14034E+05         0.00000E+00
    0.00000E+00         0.00000E+00        -0.53619E+04
 
   -0.50506E+04         0.51650E+04         0.00000E+00
    0.51650E+04        -0.13515E+05         0.00000E+00
    0.00000E+00         0.00000E+00        -0.55698E+04
 
   -0.85879E+03        -0.17690E+04         0.00000E+00
   -0.17690E+04        -0.28083E+02         0.00000E+00
    0.00000E+00         0.00000E+00        -0.26606E+03
 
   -0.14035E+05        -0.11455E+04         0.00000E+00
   -0.11455E+04        -0.32864E+03         0.00000E+00
    0.00000E+00         0.00000E+00        -0.43091E+04
 
   -0.23208E+05         0.29835E+04         0.00000E+00
    0.29835E+04        -0.14805E+04         0.00000E+00
    0.00000E+00         0.00000E+00        -0.76369E+04
 
   -0.24778E+05         0.62787E+04         0.00000E+00
    0.62787E+04        -0.46971E+04         0.00000E+00
    0.00000E+00         0.00000E+00        -0.11370E+05
 
   -0.24089E+05         0.84507E+04         0.00000E+00
    0.84507E+04        -0.71061E+04         0.00000E+00
    0.00000E+00         0.00000E+00        -0.13210E+05
 
   -0.22523E+05         0.10024E+05         0.00000E+00
    0.10024E+05        -0.92865E+04         0.00000E+00
    0.00000E+00         0.00000E+00        -0.13934E+05
 
   -0.20561E+05         0.11079E+05         0.00000E+00
    0.11079E+05        -0.11179E+05         0.00000E+00
    0.00000E+00         0.00000E+00        -0.14109E+05
 
   -0.18317E+05         0.11676E+05         0.00000E+00
    0.11676E+05        -0.12665E+05         0.00000E+00
    0.00000E+00         0.00000E+00        -0.13789E+05
 
   -0.16049E+05         0.11923E+05         0.00000E+00
    0.11923E+05        -0.13809E+05         0.00000E+00
    0.00000E+00         0.00000E+00        -0.13195E+05
 
   -0.13819E+05         0.11917E+05         0.00000E+00
    0.11917E+05        -0.14651E+05         0.00000E+00
    0.00000E+00         0.00000E+00        -0.12395E+05
 
   -0.11692E+05         0.11738E+05         0.00000E+00
    0.11738E+05        -0.15235E+05         0.00000E+00
    0.00000E+00         0.00000E+00        -0.11466E+05
 
   -0.97379E+04         0.11432E+05         0.00000E+00
    0.11432E+05        -0.15589E+05         0.00000E+00
    0.00000E+00         0.00000E+00        -0.10482E+05
 
   -0.79966E+04         0.11021E+05         0.00000E+00
    0.11021E+05        -0.15783E+05         0.00000E+00
    0.00000E+00         0.00000E+00        -0.95297E+04
 
   -0.64293E+04         0.10558E+05         0.00000E+00
    0.10558E+05        -0.15833E+05         0.00000E+00
    0.00000E+00         0.00000E+00        -0.86046E+04
 
   -0.50032E+04         0.10065E+05         0.00000E+00
    0.10065E+05        -0.15714E+05         0.00000E+00
    0.00000E+00         0.00000E+00        -0.76959E+04
 
   -0.37032E+04         0.95621E+04         0.00000E+00
    0.95621E+04        -0.15459E+05         0.00000E+00
    0.00000E+00         0.00000E+00        -0.68247E+04
 
   -0.24583E+04         0.90654E+04         0.00000E+00
    0.90654E+04        -0.15114E+05         0.00000E+00
    0.00000E+00         0.00000E+00        -0.59392E+04
 
   -0.12849E+04         0.85754E+04         0.00000E+00
    0.85754E+04        -0.14687E+05         0.00000E+00
    0.00000E+00         0.00000E+00        -0.50593E+04
 
   -0.83313E+03         0.78527E+04         0.00000E+00
    0.78527E+04        -0.14352E+05         0.00000E+00
    0.00000E+00         0.00000E+00        -0.45556E+04
 
   -0.15300E+04         0.69179E+04         0.00000E+00
    0.69179E+04        -0.14162E+05         0.00000E+00
    0.00000E+00         0.00000E+00        -0.47076E+04
 
   -0.22529E+04         0.62514E+04         0.00000E+00
    0.62514E+04        -0.13896E+05         0.00000E+00
    0.00000E+00         0.00000E+00        -0.48446E+04
 
   -0.30572E+04         0.58140E+04         0.00000E+00
    0.58140E+04        -0.13569E+05         0.00000E+00
    0.00000E+00         0.00000E+00        -0.49877E+04
 
   -0.39429E+04         0.56042E+04         0.00000E+00
    0.56042E+04        -0.13197E+05         0.00000E+00
    0.00000E+00         0.00000E+00        -0.51419E+04
 
   -0.49005E+04         0.56343E+04         0.00000E+00
    0.56343E+04        -0.12796E+05         0.00000E+00
    0.00000E+00         0.00000E+00        -0.53089E+04
 
   -0.28933E+04        -0.15202E+04         0.00000E+00
   -0.15202E+04         0.15846E+03         0.00000E+00
    0.00000E+00         0.00000E+00        -0.82044E+03
 
   -0.11935E+05        -0.16427E+04         0.00000E+00
   -0.16427E+04         0.28788E+03         0.00000E+00
    0.00000E+00         0.00000E+00        -0.34942E+04
 
   -0.19235E+05         0.78366E+03         0.00000E+00
    0.78366E+03        -0.66784E+03         0.00000E+00
    0.00000E+00         0.00000E+00        -0.59710E+04
 
   -0.22452E+05         0.41344E+04         0.00000E+00
    0.41344E+04        -0.20292E+04         0.00000E+00
    0.00000E+00         0.00000E+00        -0.80266E+04
 
   -0.22272E+05         0.65008E+04         0.00000E+00
    0.65008E+04        -0.41139E+04         0.00000E+00
    0.00000E+00         0.00000E+00        -0.99064E+04
 
   -0.21132E+05         0.82004E+04         0.00000E+00
    0.82004E+04        -0.59006E+04         0.00000E+00
    0.00000E+00         0.00000E+00        -0.10847E+05
 
   -0.19582E+05         0.94568E+04         0.00000E+00
    0.94568E+04        -0.75618E+04         0.00000E+00
    0.00000E+00         0.00000E+00        -0.11158E+05
 
   -0.17718E+05         0.10347E+05         0.00000E+00
    0.10347E+05        -0.90534E+04         0.00000E+00
    0.00000E+00         0.00000E+00        -0.11095E+05
 
   -0.15778E+05         0.10864E+05         0.00000E+00
    0.10864E+05        -0.10293E+05         0.00000E+00
    0.00000E+00         0.00000E+00        -0.10763E+05
 
   -0.13763E+05         0.11108E+05         0.00000E+00
    0.11108E+05        -0.11265E+05         0.00000E+00
    0.00000E+00         0.00000E+00        -0.10221E+05
 
   -0.11810E+05         0.11158E+05         0.00000E+00
    0.11158E+05        -0.12011E+05         0.00000E+00
    0.00000E+00         0.00000E+00        -0.95412E+04
 
   -0.99983E+04         0.11044E+05         0.00000E+00
    0.11044E+05        -0.12561E+05         0.00000E+00
    0.00000E+00         0.00000E+00        -0.88017E+04
 
   -0.83532E+04         0.10809E+05         0.00000E+00
    0.10809E+05        -0.12920E+05         0.00000E+00
    0.00000E+00         0.00000E+00        -0.80669E+04
 
   -0.68353E+04         0.10502E+05         0.00000E+00
    0.10502E+05        -0.13103E+05         0.00000E+00
    0.00000E+00         0.00000E+00        -0.73334E+04
 
   -0.54348E+04         0.10142E+05         0.00000E+00
    0.10142E+05        -0.13176E+05         0.00000E+00
    0.00000E+00         0.00000E+00        -0.65981E+04
 
   -0.41538E+04         0.97446E+04         0.00000E+00
    0.97446E+04        -0.13151E+05         0.00000E+00
    0.00000E+00         0.00000E+00        -0.58851E+04
 
   -0.29116E+04         0.93335E+04         0.00000E+00
    0.93335E+04        -0.12983E+05         0.00000E+00
    0.00000E+00         0.00000E+00        -0.51328E+04
 
   -0.18341E+04         0.88775E+04         0.00000E+00
    0.88775E+04        -0.12817E+05         0.00000E+00
    0.00000E+00         0.00000E+00        -0.44384E+04
 
   -0.18899E+04         0.78617E+04         0.00000E+00
    0.78617E+04        -0.12913E+05         0.00000E+00
    0.00000E+00         0.00000E+00        -0.44409E+04
 
   -0.22673E+04         0.70549E+04         0.00000E+00
    0.70549E+04        -0.12911E+05         0.00000E+00
    0.00000E+00         0.00000E+00        -0.45536E+04
 
   -0.27675E+04         0.64762E+04         0.00000E+00
    0.64762E+04        -0.12796E+05         0.00000E+00
    0.00000E+00         0.00000E+00        -0.46691E+04
 
   -0.33558E+04         0.61020E+04         0.00000E+00
    0.61020E+04        -0.12599E+05         0.00000E+00
    0.00000E+00         0.00000E+00        -0.47864E+04
 
   -0.40186E+04         0.59351E+04         0.00000E+00
    0.59351E+04        -0.12344E+05         0.00000E+00
    0.00000E+00         0.00000E+00        -0.49087E+04
 
   -0.47333E+04         0.59900E+04         0.00000E+00
    0.59900E+04        -0.12053E+05         0.00000E+00
    0.00000E+00         0.00000E+00        -0.50359E+04
 
   -0.47269E+04        -0.11862E+04         0.00000E+00
   -0.11862E+04         0.14245E+03         0.00000E+00
    0.00000E+00         0.00000E+00        -0.13753E+04
 
   -0.11047E+05        -0.16568E+04         0.00000E+00
   -0.16568E+04         0.43173E+03         0.00000E+00
    0.00000E+00         0.00000E+00        -0.31847E+04
 
   -0.16292E+05        -0.95858E+02         0.00000E+00
   -0.95858E+02         0.34137E+03         0.00000E+00
    0.00000E+00         0.00000E+00        -0.47852E+04
 
   -0.19717E+05         0.24489E+04         0.00000E+00
    0.24489E+04        -0.40740E+03         0.00000E+00
    0.00000E+00         0.00000E+00        -0.60373E+04
 
   -0.20417E+05         0.48762E+04         0.00000E+00
    0.48762E+04        -0.18355E+04         0.00000E+00
    0.00000E+00         0.00000E+00        -0.72832E+04
 
   -0.19683E+05         0.66865E+04         0.00000E+00
    0.66865E+04        -0.34016E+04         0.00000E+00
    0.00000E+00         0.00000E+00        -0.82663E+04
 
   -0.18455E+05         0.80361E+04         0.00000E+00
    0.80361E+04        -0.47981E+04         0.00000E+00
    0.00000E+00         0.00000E+00        -0.87344E+04
 
   -0.16919E+05         0.90457E+04         0.00000E+00
    0.90457E+04        -0.60913E+04         0.00000E+00
    0.00000E+00         0.00000E+00        -0.88335E+04
 
   -0.15274E+05         0.97703E+04         0.00000E+00
    0.97703E+04        -0.72626E+04         0.00000E+00
    0.00000E+00         0.00000E+00        -0.86739E+04
 
   -0.13502E+05         0.10223E+05         0.00000E+00
    0.10223E+05        -0.82791E+04         0.00000E+00
    0.00000E+00         0.00000E+00        -0.83371E+04
 
   -0.11742E+05         0.10460E+05         0.00000E+00
    0.10460E+05        -0.90917E+04         0.00000E+00
    0.00000E+00         0.00000E+00        -0.78551E+04
 
   -0.10087E+05         0.10516E+05         0.00000E+00
    0.10516E+05        -0.97327E+04         0.00000E+00
    0.00000E+00         0.00000E+00        -0.73021E+04
 
   -0.85416E+04         0.10444E+05         0.00000E+00
    0.10444E+05        -0.10234E+05         0.00000E+00
    0.00000E+00         0.00000E+00        -0.67062E+04
 
   -0.70980E+04         0.10280E+05         0.00000E+00
    0.10280E+05        -0.10625E+05         0.00000E+00
    0.00000E+00         0.00000E+00        -0.61321E+04
 
   -0.57467E+04         0.10048E+05         0.00000E+00
    0.10048E+05        -0.10834E+05         0.00000E+00
    0.00000E+00         0.00000E+00        -0.55334E+04
 
   -0.45157E+04         0.97447E+04         0.00000E+00
    0.97447E+04        -0.10909E+05         0.00000E+00
    0.00000E+00         0.00000E+00        -0.49475E+04
 
   -0.32800E+04         0.94363E+04         0.00000E+00
    0.94363E+04        -0.11002E+05         0.00000E+00
    0.00000E+00         0.00000E+00        -0.43277E+04
 
   -0.28000E+04         0.85713E+04         0.00000E+00
    0.85713E+04        -0.11370E+05         0.00000E+00
    0.00000E+00         0.00000E+00        -0.42511E+04
 
   -0.27299E+04         0.77261E+04         0.00000E+00
    0.77261E+04        -0.11674E+05         0.00000E+00
    0.00000E+00         0.00000E+00        -0.43211E+04
 
   -0.28983E+04         0.70649E+04         0.00000E+00
    0.70649E+04        -0.11780E+05         0.00000E+00
    0.00000E+00         0.00000E+00        -0.44034E+04
 
   -0.32011E+04         0.65839E+04         0.00000E+00
    0.65839E+04        -0.11765E+05         0.00000E+00
    0.00000E+00         0.00000E+00        -0.44897E+04
 
   -0.35979E+04         0.62810E+04         0.00000E+00
    0.62810E+04        -0.11665E+05         0.00000E+00
    0.00000E+00         0.00000E+00        -0.45790E+04
 
   -0.40587E+04         0.61621E+04         0.00000E+00
    0.61621E+04        -0.11507E+05         0.00000E+00
    0.00000E+00         0.00000E+00        -0.46697E+04
 
   -0.45530E+04         0.62414E+04         0.00000E+00
    0.62414E+04        -0.11313E+05         0.00000E+00
    0.00000E+00         0.00000E+00        -0.47597E+04
 
   -0.62296E+04        -0.87760E+03         0.00000E+00
   -0.87760E+03         0.12298E+03         0.00000E+00
    0.00000E+00         0.00000E+00        -0.18320E+04
 
   -0.10573E+05        -0.13323E+04         0.00000E+00
   -0.13323E+04         0.49511E+03         0.00000E+00
    0.00000E+00         0.00000E+00        -0.30234E+04
 
   -0.14492E+05        -0.34043E+03         0.00000E+00
   -0.34043E+03         0.66362E+03         0.00000E+00
    0.00000E+00         0.00000E+00        -0.41485E+04
 
   -0.17174E+05         0.15172E+04         0.00000E+00
    0.15172E+04         0.31660E+03         0.00000E+00
    0.00000E+00         0.00000E+00        -0.50574E+04
 
   -0.18455E+05         0.36122E+04         0.00000E+00
    0.36122E+04        -0.27224E+03         0.00000E+00
    0.00000E+00         0.00000E+00        -0.56182E+04
 
   -0.18199E+05         0.53906E+04         0.00000E+00
    0.53906E+04        -0.13932E+04         0.00000E+00
    0.00000E+00         0.00000E+00        -0.62368E+04
 
   -0.17279E+05         0.68192E+04         0.00000E+00
    0.68192E+04        -0.26544E+04         0.00000E+00
    0.00000E+00         0.00000E+00        -0.67050E+04
 
   -0.16024E+05         0.79157E+04         0.00000E+00
    0.79157E+04        -0.37929E+04         0.00000E+00
    0.00000E+00         0.00000E+00        -0.68947E+04
 
   -0.14609E+05         0.87133E+04         0.00000E+00
    0.87133E+04        -0.48589E+04         0.00000E+00
    0.00000E+00         0.00000E+00        -0.68866E+04
 
   -0.13078E+05         0.93270E+04         0.00000E+00
    0.93270E+04        -0.57892E+04         0.00000E+00
    0.00000E+00         0.00000E+00        -0.66458E+04
 
   -0.11514E+05         0.97069E+04         0.00000E+00
    0.97069E+04        -0.66270E+04         0.00000E+00
    0.00000E+00         0.00000E+00        -0.63117E+04
 
   -0.10016E+05         0.99219E+04         0.00000E+00
    0.99219E+04        -0.73432E+04         0.00000E+00
    0.00000E+00         0.00000E+00        -0.59045E+04
 
   -0.85960E+04         0.99736E+04         0.00000E+00
    0.99736E+04        -0.78915E+04         0.00000E+00
    0.00000E+00         0.00000E+00        -0.54619E+04
 
   -0.72245E+04         0.99317E+04         0.00000E+00
    0.99317E+04        -0.82713E+04         0.00000E+00
    0.00000E+00         0.00000E+00        -0.49872E+04
 
   -0.59829E+04         0.98139E+04         0.00000E+00
    0.98139E+04        -0.86439E+04         0.00000E+00
    0.00000E+00         0.00000E+00        -0.45277E+04
 
   -0.48085E+04         0.95438E+04         0.00000E+00
    0.95438E+04        -0.90728E+04         0.00000E+00
    0.00000E+00         0.00000E+00        -0.41644E+04
 
   -0.40217E+04         0.88593E+04         0.00000E+00
    0.88593E+04        -0.97152E+04         0.00000E+00
    0.00000E+00         0.00000E+00        -0.41211E+04
 
   -0.35873E+04         0.81566E+04         0.00000E+00
    0.81566E+04        -0.10263E+05         0.00000E+00
    0.00000E+00         0.00000E+00        -0.41552E+04
 
   -0.34007E+04         0.75135E+04         0.00000E+00
    0.75135E+04        -0.10584E+05         0.00000E+00
    0.00000E+00         0.00000E+00        -0.41955E+04
 
   -0.34103E+04         0.69899E+04         0.00000E+00
    0.69899E+04        -0.10752E+05         0.00000E+00
    0.00000E+00         0.00000E+00        -0.42488E+04
 
   -0.35516E+04         0.66068E+04         0.00000E+00
    0.66068E+04        -0.10809E+05         0.00000E+00
    0.00000E+00         0.00000E+00        -0.43081E+04
 
   -0.37808E+04         0.63737E+04         0.00000E+00
    0.63737E+04        -0.10785E+05         0.00000E+00
    0.00000E+00         0.00000E+00        -0.43696E+04
 
   -0.40633E+04         0.63009E+04         0.00000E+00
    0.63009E+04        -0.10705E+05         0.00000E+00
    0.00000E+00         0.00000E+00        -0.44304E+04
 
   -0.43639E+04         0.64011E+04         0.00000E+00
    0.64011E+04        -0.10593E+05         0.00000E+00
    0.00000E+00         0.00000E+00        -0.44872E+04
 
   -0.73281E+04        -0.60329E+03         0.00000E+00
   -0.60329E+03         0.10361E+03         0.00000E+00
    0.00000E+00         0.00000E+00        -0.21674E+04
 
   -0.10325E+05        -0.94944E+03         0.00000E+00
   -0.94944E+03         0.43993E+03         0.00000E+00
    0.00000E+00         0.00000E+00        -0.29656E+04
 
   -0.13209E+05        -0.26268E+03         0.00000E+00
   -0.26268E+03         0.72374E+03         0.00000E+00
    0.00000E+00         0.00000E+00        -0.37454E+04
 
   -0.15356E+05         0.11436E+04         0.00000E+00
    0.11436E+04         0.69969E+03         0.00000E+00
    0.00000E+00         0.00000E+00        -0.43968E+04
 
   -0.16508E+05         0.28279E+04         0.00000E+00
    0.28279E+04         0.26371E+03         0.00000E+00
    0.00000E+00         0.00000E+00        -0.48734E+04
 
   -0.16675E+05         0.44510E+04         0.00000E+00
    0.44510E+04        -0.25740E+03         0.00000E+00
    0.00000E+00         0.00000E+00        -0.50797E+04
 
   -0.16101E+05         0.58299E+04         0.00000E+00
    0.58299E+04        -0.93854E+03         0.00000E+00
    0.00000E+00         0.00000E+00        -0.51867E+04
 
   -0.15094E+05         0.69051E+04         0.00000E+00
    0.69051E+04        -0.19088E+04         0.00000E+00
    0.00000E+00         0.00000E+00        -0.53480E+04
 
   -0.13870E+05         0.78024E+04         0.00000E+00
    0.78024E+04        -0.28345E+04         0.00000E+00
    0.00000E+00         0.00000E+00        -0.53552E+04
 
   -0.12534E+05         0.84782E+04         0.00000E+00
    0.84782E+04        -0.37027E+04         0.00000E+00
    0.00000E+00         0.00000E+00        -0.52132E+04
 
   -0.11162E+05         0.89547E+04         0.00000E+00
    0.89547E+04        -0.44695E+04         0.00000E+00
    0.00000E+00         0.00000E+00        -0.49794E+04
 
   -0.98216E+04         0.92662E+04         0.00000E+00
    0.92662E+04        -0.51508E+04         0.00000E+00
    0.00000E+00         0.00000E+00        -0.46734E+04
 
   -0.85344E+04         0.94674E+04         0.00000E+00
    0.94674E+04        -0.57953E+04         0.00000E+00
    0.00000E+00         0.00000E+00        -0.43468E+04
 
   -0.73175E+04         0.94252E+04         0.00000E+00
    0.94252E+04        -0.65246E+04         0.00000E+00
    0.00000E+00         0.00000E+00        -0.41537E+04
 
   -0.62163E+04         0.91762E+04         0.00000E+00
    0.91762E+04        -0.73106E+04         0.00000E+00
    0.00000E+00         0.00000E+00        -0.40581E+04
 
   -0.53287E+04         0.87700E+04         0.00000E+00
    0.87700E+04        -0.81417E+04         0.00000E+00
    0.00000E+00         0.00000E+00        -0.40411E+04
 
   -0.46466E+04         0.82748E+04         0.00000E+00
    0.82748E+04        -0.88033E+04         0.00000E+00
    0.00000E+00         0.00000E+00        -0.40350E+04
 
   -0.41769E+04         0.77446E+04         0.00000E+00
    0.77446E+04        -0.92796E+04         0.00000E+00
    0.00000E+00         0.00000E+00        -0.40369E+04
 
   -0.39173E+04         0.72612E+04         0.00000E+00
    0.72612E+04        -0.96135E+04         0.00000E+00
    0.00000E+00         0.00000E+00        -0.40592E+04
 
   -0.38119E+04         0.68594E+04         0.00000E+00
    0.68594E+04        -0.98191E+04         0.00000E+00
    0.00000E+00         0.00000E+00        -0.40893E+04
 
   -0.38220E+04         0.65663E+04         0.00000E+00
    0.65663E+04        -0.99264E+04         0.00000E+00
    0.00000E+00         0.00000E+00        -0.41245E+04
 
   -0.39085E+04         0.63977E+04         0.00000E+00
    0.63977E+04        -0.99609E+04         0.00000E+00
    0.00000E+00         0.00000E+00        -0.41608E+04
 
   -0.40364E+04         0.63660E+04         0.00000E+00
    0.63660E+04        -0.99458E+04         0.00000E+00
    0.00000E+00         0.00000E+00        -0.41947E+04
 
   -0.41703E+04         0.64827E+04         0.00000E+00
    0.64827E+04        -0.99042E+04         0.00000E+00
    0.00000E+00         0.00000E+00        -0.42224E+04
 
   -0.80647E+04        -0.38413E+03         0.00000E+00
   -0.38413E+03         0.79132E+02         0.00000E+00
    0.00000E+00         0.00000E+00        -0.23957E+04
 
   -0.10146E+05        -0.58713E+03         0.00000E+00
   -0.58713E+03         0.35939E+03         0.00000E+00
    0.00000E+00         0.00000E+00        -0.29361E+04
 
   -0.12251E+05        -0.60532E+02         0.00000E+00
   -0.60532E+02         0.64815E+03         0.00000E+00
    0.00000E+00         0.00000E+00        -0.34808E+04
 
   -0.13935E+05         0.10248E+04         0.00000E+00
    0.10248E+04         0.73677E+03         0.00000E+00
    0.00000E+00         0.00000E+00        -0.39595E+04
 
   -0.14937E+05         0.24159E+04         0.00000E+00
    0.24159E+04         0.55900E+03         0.00000E+00
    0.00000E+00         0.00000E+00        -0.43133E+04
 
   -0.15207E+05         0.38420E+04         0.00000E+00
    0.38420E+04         0.10876E+03         0.00000E+00
    0.00000E+00         0.00000E+00        -0.45293E+04
 
   -0.14893E+05         0.50911E+04         0.00000E+00
    0.50911E+04        -0.49709E+03         0.00000E+00
    0.00000E+00         0.00000E+00        -0.46170E+04
 
   -0.14127E+05         0.61596E+04         0.00000E+00
    0.61596E+04        -0.10431E+04         0.00000E+00
    0.00000E+00         0.00000E+00        -0.45511E+04
 
   -0.13103E+05         0.70370E+04         0.00000E+00
    0.70370E+04        -0.16792E+04         0.00000E+00
    0.00000E+00         0.00000E+00        -0.44346E+04
 
   -0.11960E+05         0.77096E+04         0.00000E+00
    0.77096E+04        -0.24165E+04         0.00000E+00
    0.00000E+00         0.00000E+00        -0.43131E+04
 
   -0.10772E+05         0.82009E+04         0.00000E+00
    0.82009E+04        -0.32268E+04         0.00000E+00
    0.00000E+00         0.00000E+00        -0.41996E+04
 
   -0.95799E+04         0.85001E+04         0.00000E+00
    0.85001E+04        -0.40904E+04         0.00000E+00
    0.00000E+00         0.00000E+00        -0.41011E+04
 
   -0.84849E+04         0.86037E+04         0.00000E+00
    0.86037E+04        -0.50147E+04         0.00000E+00
    0.00000E+00         0.00000E+00        -0.40499E+04
 
   -0.74644E+04         0.85728E+04         0.00000E+00
    0.85728E+04        -0.58906E+04         0.00000E+00
    0.00000E+00         0.00000E+00        -0.40065E+04
 
   -0.65193E+04         0.83886E+04         0.00000E+00
    0.83886E+04        -0.66870E+04         0.00000E+00
    0.00000E+00         0.00000E+00        -0.39619E+04
 
   -0.57193E+04         0.80869E+04         0.00000E+00
    0.80869E+04        -0.73717E+04         0.00000E+00
    0.00000E+00         0.00000E+00        -0.39273E+04
 
   -0.50903E+04         0.77297E+04         0.00000E+00
    0.77297E+04        -0.79507E+04         0.00000E+00
    0.00000E+00         0.00000E+00        -0.39123E+04
 
   -0.46212E+04         0.73483E+04         0.00000E+00
    0.73483E+04        -0.84074E+04         0.00000E+00
    0.00000E+00         0.00000E+00        -0.39086E+04
 
   -0.43047E+04         0.69894E+04         0.00000E+00
    0.69894E+04        -0.87397E+04         0.00000E+00
    0.00000E+00         0.00000E+00        -0.39133E+04
 
   -0.41155E+04         0.66910E+04         0.00000E+00
    0.66910E+04        -0.89688E+04         0.00000E+00
    0.00000E+00         0.00000E+00        -0.39253E+04
 
   -0.40200E+04         0.64773E+04         0.00000E+00
    0.64773E+04        -0.91134E+04         0.00000E+00
    0.00000E+00         0.00000E+00        -0.39400E+04
 
   -0.39865E+04         0.63658E+04         0.00000E+00
    0.63658E+04        -0.91946E+04         0.00000E+00
    0.00000E+00         0.00000E+00        -0.39543E+04
 
   -0.39828E+04         0.63695E+04         0.00000E+00
    0.63695E+04        -0.92330E+04         0.00000E+00
    0.00000E+00         0.00000E+00        -0.39647E+04
 
   -0.39755E+04         0.64985E+04         0.00000E+00
    0.64985E+04        -0.92498E+04         0.00000E+00
    0.00000E+00         0.00000E+00        -0.39676E+04
 
   -0.85028E+04        -0.21785E+03         0.00000E+00
   -0.21785E+03         0.58385E+02         0.00000E+00
    0.00000E+00         0.00000E+00        -0.25333E+04
 
   -0.99670E+04        -0.28460E+03         0.00000E+00
   -0.28460E+03         0.27468E+03         0.00000E+00
    0.00000E+00         0.00000E+00        -0.29077E+04
 
   -0.11504E+05         0.15677E+03         0.00000E+00
    0.15677E+03         0.51984E+03         0.00000E+00
    0.00000E+00         0.00000E+00        -0.32954E+04
 
   -0.12792E+05         0.10248E+04         0.00000E+00
    0.10248E+04         0.63897E+03         0.00000E+00
    0.00000E+00         0.00000E+00        -0.36459E+04
 
   -0.13625E+05         0.21560E+04         0.00000E+00
    0.21560E+04         0.54336E+03         0.00000E+00
    0.00000E+00         0.00000E+00        -0.39245E+04
 
   -0.13935E+05         0.33665E+04         0.00000E+00
    0.33665E+04         0.22791E+03         0.00000E+00
    0.00000E+00         0.00000E+00        -0.41122E+04
 
   -0.13756E+05         0.45189E+04         0.00000E+00
    0.45189E+04        -0.25085E+03         0.00000E+00
    0.00000E+00         0.00000E+00        -0.42022E+04
 
   -0.13190E+05         0.55226E+04         0.00000E+00
    0.55226E+04        -0.85678E+03         0.00000E+00
    0.00000E+00         0.00000E+00        -0.42139E+04
 
   -0.12364E+05         0.63284E+04         0.00000E+00
    0.63284E+04        -0.15334E+04         0.00000E+00
    0.00000E+00         0.00000E+00        -0.41693E+04
 
   -0.11408E+05         0.69439E+04         0.00000E+00
    0.69439E+04        -0.22614E+04         0.00000E+00
    0.00000E+00         0.00000E+00        -0.41009E+04
 
   -0.10397E+05         0.73850E+04         0.00000E+00
    0.73850E+04        -0.30292E+04         0.00000E+00
    0.00000E+00         0.00000E+00        -0.40278E+04
 
   -0.93906E+04         0.76556E+04         0.00000E+00
    0.76556E+04        -0.38223E+04         0.00000E+00
    0.00000E+00         0.00000E+00        -0.39639E+04
 
   -0.84338E+04         0.77791E+04         0.00000E+00
    0.77791E+04        -0.46000E+04         0.00000E+00
    0.00000E+00         0.00000E+00        -0.39101E+04
 
   -0.75409E+04         0.77877E+04         0.00000E+00
    0.77877E+04        -0.53509E+04         0.00000E+00
    0.00000E+00         0.00000E+00        -0.38675E+04
 
   -0.67194E+04         0.76837E+04         0.00000E+00
    0.76837E+04        -0.60510E+04         0.00000E+00
    0.00000E+00         0.00000E+00        -0.38311E+04
 
   -0.60015E+04         0.74860E+04         0.00000E+00
    0.74860E+04        -0.66710E+04         0.00000E+00
    0.00000E+00         0.00000E+00        -0.38017E+04
 
   -0.54081E+04         0.72339E+04         0.00000E+00
    0.72339E+04        -0.71943E+04         0.00000E+00
    0.00000E+00         0.00000E+00        -0.37807E+04
 
   -0.49405E+04         0.69639E+04         0.00000E+00
    0.69639E+04        -0.76199E+04         0.00000E+00
    0.00000E+00         0.00000E+00        -0.37681E+04
 
   -0.45885E+04         0.67082E+04         0.00000E+00
    0.67082E+04        -0.79496E+04         0.00000E+00
    0.00000E+00         0.00000E+00        -0.37614E+04
 
   -0.43344E+04         0.64962E+04         0.00000E+00
    0.64962E+04        -0.81930E+04         0.00000E+00
    0.00000E+00         0.00000E+00        -0.37582E+04
 
   -0.41545E+04         0.63507E+04         0.00000E+00
    0.63507E+04        -0.83656E+04         0.00000E+00
    0.00000E+00         0.00000E+00        -0.37560E+04
 
   -0.40216E+04         0.62883E+04         0.00000E+00
    0.62883E+04        -0.84841E+04         0.00000E+00
    0.00000E+00         0.00000E+00        -0.37517E+04
 
   -0.39075E+04         0.63216E+04         0.00000E+00
    0.63216E+04        -0.85665E+04         0.00000E+00
    0.00000E+00         0.00000E+00        -0.37422E+04
 
   -0.37820E+04         0.64594E+04         0.00000E+00
    0.64594E+04        -0.86318E+04         0.00000E+00
    0.00000E+00         0.00000E+00        -0.37241E+04
 
   -0.87116E+04        -0.97278E+02         0.00000E+00
   -0.97278E+02         0.41219E+02         0.00000E+00
    0.00000E+00         0.00000E+00        -0.26011E+04
 
   -0.97628E+04        -0.52517E+02         0.00000E+00
   -0.52517E+02         0.19847E+03         0.00000E+00
    0.00000E+00         0.00000E+00        -0.28693E+04
 
   -0.10891E+05         0.34354E+03         0.00000E+00
    0.34354E+03         0.38622E+03         0.00000E+00
    0.00000E+00         0.00000E+00        -0.31513E+04
 
   -0.11869E+05         0.10547E+04         0.00000E+00
    0.10547E+04         0.48744E+03         0.00000E+00
    0.00000E+00         0.00000E+00        -0.34143E+04
 
   -0.12538E+05         0.19811E+04         0.00000E+00
    0.19811E+04         0.42912E+03         0.00000E+00
    0.00000E+00         0.00000E+00        -0.36328E+04
 
   -0.12826E+05         0.30007E+04         0.00000E+00
    0.30007E+04         0.18863E+03         0.00000E+00
    0.00000E+00         0.00000E+00        -0.37913E+04
 
   -0.12735E+05         0.40005E+04         0.00000E+00
    0.40005E+04        -0.22070E+03         0.00000E+00
    0.00000E+00         0.00000E+00        -0.38868E+04
 
   -0.12323E+05         0.48961E+04         0.00000E+00
    0.48961E+04        -0.76090E+03         0.00000E+00
    0.00000E+00         0.00000E+00        -0.39252E+04
 
   -0.11680E+05         0.56390E+04         0.00000E+00
    0.56390E+04        -0.13915E+04         0.00000E+00
    0.00000E+00         0.00000E+00        -0.39214E+04
 
   -0.10897E+05         0.62160E+04         0.00000E+00
    0.62160E+04        -0.20733E+04         0.00000E+00
    0.00000E+00         0.00000E+00        -0.38911E+04
 
   -0.10049E+05         0.66344E+04         0.00000E+00
    0.66344E+04        -0.27815E+04         0.00000E+00
    0.00000E+00         0.00000E+00        -0.38492E+04
 
   -0.91892E+04         0.69083E+04         0.00000E+00
    0.69083E+04        -0.34934E+04         0.00000E+00
    0.00000E+00         0.00000E+00        -0.38048E+04
 
   -0.83547E+04         0.70575E+04         0.00000E+00
    0.70575E+04        -0.41896E+04         0.00000E+00
    0.00000E+00         0.00000E+00        -0.37633E+04
 
   -0.75656E+04         0.71025E+04         0.00000E+00
    0.71025E+04        -0.48540E+04         0.00000E+00
    0.00000E+00         0.00000E+00        -0.37259E+04
 
   -0.68373E+04         0.70578E+04         0.00000E+00
    0.70578E+04        -0.54732E+04         0.00000E+00
    0.00000E+00         0.00000E+00        -0.36932E+04
 
   -0.61869E+04         0.69407E+04         0.00000E+00
    0.69407E+04        -0.60293E+04         0.00000E+00
    0.00000E+00         0.00000E+00        -0.36649E+04
 
   -0.56277E+04         0.67771E+04         0.00000E+00
    0.67771E+04        -0.65098E+04         0.00000E+00
    0.00000E+00         0.00000E+00        -0.36412E+04
 
   -0.51627E+04         0.65955E+04         0.00000E+00
    0.65955E+04        -0.69101E+04         0.00000E+00
    0.00000E+00         0.00000E+00        -0.36219E+04
 
   -0.47855E+04         0.64230E+04         0.00000E+00
    0.64230E+04        -0.72329E+04         0.00000E+00
    0.00000E+00         0.00000E+00        -0.36055E+04
 
   -0.44824E+04         0.62829E+04         0.00000E+00
    0.62829E+04        -0.74853E+04         0.00000E+00
    0.00000E+00         0.00000E+00        -0.35903E+04
 
   -0.42348E+04         0.61948E+04         0.00000E+00
    0.61948E+04        -0.76786E+04         0.00000E+00
    0.00000E+00         0.00000E+00        -0.35740E+04
 
   -0.40205E+04         0.61739E+04         0.00000E+00
    0.61739E+04        -0.78268E+04         0.00000E+00
    0.00000E+00         0.00000E+00        -0.35542E+04
 
   -0.38150E+04         0.62314E+04         0.00000E+00
    0.62314E+04        -0.79451E+04         0.00000E+00
    0.00000E+00         0.00000E+00        -0.35280E+04
 
   -0.35917E+04         0.63748E+04         0.00000E+00
    0.63748E+04        -0.80504E+04         0.00000E+00
    0.00000E+00         0.00000E+00        -0.34926E+04
 
   -0.87539E+04        -0.13730E+02         0.00000E+00
   -0.13730E+02         0.27824E+02         0.00000E+00
    0.00000E+00         0.00000E+00        -0.26178E+04
 
   -0.95299E+04         0.11397E+03         0.00000E+00
    0.11397E+03         0.13588E+03         0.00000E+00
    0.00000E+00         0.00000E+00        -0.28182E+04
 
   -0.10367E+05         0.48279E+03         0.00000E+00
    0.48279E+03         0.26701E+03         0.00000E+00
    0.00000E+00         0.00000E+00        -0.30300E+04
 
   -0.11109E+05         0.10808E+04         0.00000E+00
    0.10808E+04         0.33707E+03         0.00000E+00
    0.00000E+00         0.00000E+00        -0.32315E+04
 
   -0.11637E+05         0.18479E+04         0.00000E+00
    0.18479E+04         0.28655E+03         0.00000E+00
    0.00000E+00         0.00000E+00        -0.34050E+04
 
   -0.11886E+05         0.27005E+04         0.00000E+00
    0.27005E+04         0.87910E+02         0.00000E+00
    0.00000E+00         0.00000E+00        -0.35393E+04
 
   -0.11845E+05         0.35541E+04         0.00000E+00
    0.35541E+04        -0.25642E+03         0.00000E+00
    0.00000E+00         0.00000E+00        -0.36303E+04
 
   -0.11546E+05         0.43394E+04         0.00000E+00
    0.43394E+04        -0.72376E+03         0.00000E+00
    0.00000E+00         0.00000E+00        -0.36808E+04
 
   -0.11046E+05         0.50114E+04         0.00000E+00
    0.50114E+04        -0.12801E+04         0.00000E+00
    0.00000E+00         0.00000E+00        -0.36979E+04
 
   -0.10413E+05         0.55505E+04         0.00000E+00
    0.55505E+04        -0.18914E+04         0.00000E+00
    0.00000E+00         0.00000E+00        -0.36914E+04
 
   -0.97061E+04         0.59559E+04         0.00000E+00
    0.59559E+04        -0.25284E+04         0.00000E+00
    0.00000E+00         0.00000E+00        -0.36703E+04
 
   -0.89719E+04         0.62375E+04         0.00000E+00
    0.62375E+04        -0.31683E+04         0.00000E+00
    0.00000E+00         0.00000E+00        -0.36421E+04
 
   -0.82441E+04         0.64109E+04         0.00000E+00
    0.64109E+04        -0.37931E+04         0.00000E+00
    0.00000E+00         0.00000E+00        -0.36112E+04
 
   -0.75454E+04         0.64926E+04         0.00000E+00
    0.64926E+04        -0.43892E+04         0.00000E+00
    0.00000E+00         0.00000E+00        -0.35804E+04
 
   -0.68915E+04         0.64983E+04         0.00000E+00
    0.64983E+04        -0.49444E+04         0.00000E+00
    0.00000E+00         0.00000E+00        -0.35508E+04
 
   -0.62957E+04         0.64447E+04         0.00000E+00
    0.64447E+04        -0.54476E+04         0.00000E+00
    0.00000E+00         0.00000E+00        -0.35230E+04
 
   -0.57666E+04         0.63521E+04         0.00000E+00
    0.63521E+04        -0.58900E+04         0.00000E+00
    0.00000E+00         0.00000E+00        -0.34970E+04
 
   -0.53068E+04         0.62425E+04         0.00000E+00
    0.62425E+04        -0.62680E+04         0.00000E+00
    0.00000E+00         0.00000E+00        -0.34724E+04
 
   -0.49117E+04         0.61375E+04         0.00000E+00
    0.61375E+04        -0.65827E+04         0.00000E+00
    0.00000E+00         0.00000E+00        -0.34483E+04
 
   -0.45711E+04         0.60567E+04         0.00000E+00
    0.60567E+04        -0.68400E+04         0.00000E+00
    0.00000E+00         0.00000E+00        -0.34233E+04
 
   -0.42698E+04         0.60163E+04         0.00000E+00
    0.60163E+04        -0.70487E+04         0.00000E+00
    0.00000E+00         0.00000E+00        -0.33956E+04
 
   -0.39896E+04         0.60296E+04         0.00000E+00
    0.60296E+04        -0.72201E+04         0.00000E+00
    0.00000E+00         0.00000E+00        -0.33629E+04
 
   -0.37094E+04         0.61064E+04         0.00000E+00
    0.61064E+04        -0.73675E+04         0.00000E+00
    0.00000E+00         0.00000E+00        -0.33231E+04
 
   -0.34062E+04         0.62530E+04         0.00000E+00
    0.62530E+04        -0.75053E+04         0.00000E+00
    0.00000E+00         0.00000E+00        -0.32734E+04
 
   -0.86818E+04         0.41390E+02         0.00000E+00
    0.41390E+02         0.17830E+02         0.00000E+00
    0.00000E+00         0.00000E+00        -0.25992E+04
 
   -0.92744E+04         0.22544E+03         0.00000E+00
    0.22544E+03         0.87376E+02         0.00000E+00
    0.00000E+00         0.00000E+00        -0.27561E+04
 
   -0.99069E+04         0.57488E+03         0.00000E+00
    0.57488E+03         0.17054E+03         0.00000E+00
    0.00000E+00         0.00000E+00        -0.29209E+04
 
   -0.10473E+05         0.10893E+04         0.00000E+00
    0.10893E+04         0.20775E+03         0.00000E+00
    0.00000E+00         0.00000E+00        -0.30794E+04
 
   -0.10885E+05         0.17326E+04         0.00000E+00
    0.17326E+04         0.15290E+03         0.00000E+00
    0.00000E+00         0.00000E+00        -0.32196E+04
 
   -0.11092E+05         0.24482E+04         0.00000E+00
    0.24482E+04        -0.19062E+02         0.00000E+00
    0.00000E+00         0.00000E+00        -0.33333E+04
 
   -0.11077E+05         0.31747E+04         0.00000E+00
    0.31747E+04        -0.31170E+03         0.00000E+00
    0.00000E+00         0.00000E+00        -0.34167E+04
 
   -0.10857E+05         0.38580E+04         0.00000E+00
    0.38580E+04        -0.71105E+03         0.00000E+00
    0.00000E+00         0.00000E+00        -0.34703E+04
 
   -0.10467E+05         0.44597E+04         0.00000E+00
    0.44597E+04        -0.11927E+04         0.00000E+00
    0.00000E+00         0.00000E+00        -0.34979E+04
 
   -0.99550E+04         0.49588E+04         0.00000E+00
    0.49588E+04        -0.17287E+04         0.00000E+00
    0.00000E+00         0.00000E+00        -0.35051E+04
 
   -0.93661E+04         0.53494E+04         0.00000E+00
    0.53494E+04        -0.22930E+04         0.00000E+00
    0.00000E+00         0.00000E+00        -0.34977E+04
 
   -0.87394E+04         0.56363E+04         0.00000E+00
    0.56363E+04        -0.28637E+04         0.00000E+00
    0.00000E+00         0.00000E+00        -0.34809E+04
 
   -0.81049E+04         0.58301E+04         0.00000E+00
    0.58301E+04        -0.34238E+04         0.00000E+00
    0.00000E+00         0.00000E+00        -0.34586E+04
 
   -0.74843E+04         0.59442E+04         0.00000E+00
    0.59442E+04        -0.39600E+04         0.00000E+00
    0.00000E+00         0.00000E+00        -0.34333E+04
 
   -0.68934E+04         0.59928E+04         0.00000E+00
    0.59928E+04        -0.44617E+04         0.00000E+00
    0.00000E+00         0.00000E+00        -0.34065E+04
 
   -0.63431E+04         0.59909E+04         0.00000E+00
    0.59909E+04        -0.49204E+04         0.00000E+00
    0.00000E+00         0.00000E+00        -0.33791E+04
 
   -0.58405E+04         0.59555E+04         0.00000E+00
    0.59555E+04        -0.53298E+04         0.00000E+00
    0.00000E+00         0.00000E+00        -0.33511E+04
 
   -0.53873E+04         0.59042E+04         0.00000E+00
    0.59042E+04        -0.56870E+04         0.00000E+00
    0.00000E+00         0.00000E+00        -0.33223E+04
 
   -0.49801E+04         0.58543E+04         0.00000E+00
    0.58543E+04        -0.59931E+04         0.00000E+00
    0.00000E+00         0.00000E+00        -0.32920E+04
 
   -0.46109E+04         0.58218E+04         0.00000E+00
    0.58218E+04        -0.62524E+04         0.00000E+00
    0.00000E+00         0.00000E+00        -0.32590E+04
 
   -0.42675E+04         0.58206E+04         0.00000E+00
    0.58206E+04        -0.64720E+04         0.00000E+00
    0.00000E+00         0.00000E+00        -0.32218E+04
 
   -0.39345E+04         0.58618E+04         0.00000E+00
    0.58618E+04        -0.66615E+04         0.00000E+00
    0.00000E+00         0.00000E+00        -0.31788E+04
 
   -0.35940E+04         0.59535E+04         0.00000E+00
    0.59535E+04        -0.68319E+04         0.00000E+00
    0.00000E+00         0.00000E+00        -0.31278E+04
 
   -0.32264E+04         0.61011E+04         0.00000E+00
    0.61011E+04        -0.69958E+04         0.00000E+00
    0.00000E+00         0.00000E+00        -0.30667E+04
 
   -0.85357E+04         0.75553E+02         0.00000E+00
    0.75553E+02         0.10632E+02         0.00000E+00
    0.00000E+00         0.00000E+00        -0.25575E+04
 
   -0.90052E+04         0.29401E+03         0.00000E+00
    0.29401E+03         0.51549E+02         0.00000E+00
    0.00000E+00         0.00000E+00        -0.26861E+04
 
   -0.94939E+04         0.62659E+03         0.00000E+00
    0.62659E+03         0.97058E+02         0.00000E+00
    0.00000E+00         0.00000E+00        -0.28191E+04
 
   -0.99301E+04         0.10774E+04         0.00000E+00
    0.10774E+04         0.10576E+03         0.00000E+00
    0.00000E+00         0.00000E+00        -0.29473E+04
 
   -0.10252E+05         0.16248E+04         0.00000E+00
    0.16248E+04         0.43315E+02         0.00000E+00
    0.00000E+00         0.00000E+00        -0.30627E+04
 
   -0.10420E+05         0.22308E+04         0.00000E+00
    0.22308E+04        -0.11117E+03         0.00000E+00
    0.00000E+00         0.00000E+00        -0.31594E+04
 
   -0.10417E+05         0.28513E+04         0.00000E+00
    0.28513E+04        -0.36325E+03         0.00000E+00
    0.00000E+00         0.00000E+00        -0.32341E+04
 
   -0.10250E+05         0.34454E+04         0.00000E+00
    0.34454E+04        -0.70512E+03         0.00000E+00
    0.00000E+00         0.00000E+00        -0.32866E+04
 
   -0.99418E+04         0.39815E+04         0.00000E+00
    0.39815E+04        -0.11197E+04         0.00000E+00
    0.00000E+00         0.00000E+00        -0.33184E+04
 
   -0.95245E+04         0.44400E+04         0.00000E+00
    0.44400E+04        -0.15854E+04         0.00000E+00
    0.00000E+00         0.00000E+00        -0.33330E+04
 
   -0.90322E+04         0.48125E+04         0.00000E+00
    0.48125E+04        -0.20808E+04         0.00000E+00
    0.00000E+00         0.00000E+00        -0.33339E+04
 
   -0.84961E+04         0.50999E+04         0.00000E+00
    0.50999E+04        -0.25865E+04         0.00000E+00
    0.00000E+00         0.00000E+00        -0.33248E+04
 
   -0.79417E+04         0.53089E+04         0.00000E+00
    0.53089E+04        -0.30868E+04         0.00000E+00
    0.00000E+00         0.00000E+00        -0.33086E+04
 
   -0.73888E+04         0.54494E+04         0.00000E+00
    0.54494E+04        -0.35692E+04         0.00000E+00
    0.00000E+00         0.00000E+00        -0.32874E+04
 
   -0.68519E+04         0.55333E+04         0.00000E+00
    0.55333E+04        -0.40241E+04         0.00000E+00
    0.00000E+00         0.00000E+00        -0.32628E+04
 
   -0.63410E+04         0.55737E+04         0.00000E+00
    0.55737E+04        -0.44440E+04         0.00000E+00
    0.00000E+00         0.00000E+00        -0.32355E+04
 
   -0.58619E+04         0.55845E+04         0.00000E+00
    0.55845E+04        -0.48241E+04         0.00000E+00
    0.00000E+00         0.00000E+00        -0.32058E+04
 
   -0.54162E+04         0.55801E+04         0.00000E+00
    0.55801E+04        -0.51622E+04         0.00000E+00
    0.00000E+00         0.00000E+00        -0.31735E+04
 
   -0.50014E+04         0.55749E+04         0.00000E+00
    0.55749E+04        -0.54590E+04         0.00000E+00
    0.00000E+00         0.00000E+00        -0.31381E+04
 
   -0.46109E+04         0.55817E+04         0.00000E+00
    0.55817E+04        -0.57180E+04         0.00000E+00
    0.00000E+00         0.00000E+00        -0.30987E+04
 
   -0.42348E+04         0.56122E+04         0.00000E+00
    0.56122E+04        -0.59451E+04         0.00000E+00
    0.00000E+00         0.00000E+00        -0.30540E+04
 
   -0.38602E+04         0.56755E+04         0.00000E+00
    0.56755E+04        -0.61481E+04         0.00000E+00
    0.00000E+00         0.00000E+00        -0.30025E+04
 
   -0.34720E+04         0.57784E+04         0.00000E+00
    0.57784E+04        -0.63365E+04         0.00000E+00
    0.00000E+00         0.00000E+00        -0.29426E+04
 
   -0.30534E+04         0.59252E+04         0.00000E+00
    0.59252E+04        -0.65209E+04         0.00000E+00
    0.00000E+00         0.00000E+00        -0.28723E+04
 
   -0.83457E+04         0.94825E+02         0.00000E+00
    0.94825E+02         0.56205E+01         0.00000E+00
    0.00000E+00         0.00000E+00        -0.25020E+04
 
   -0.87311E+04         0.33080E+03         0.00000E+00
    0.33080E+03         0.26092E+02         0.00000E+00
    0.00000E+00         0.00000E+00        -0.26115E+04
 
   -0.91184E+04         0.64666E+03         0.00000E+00
    0.64666E+03         0.43735E+02         0.00000E+00
    0.00000E+00         0.00000E+00        -0.27224E+04
 
   -0.94600E+04         0.10475E+04         0.00000E+00
    0.10475E+04         0.30232E+02         0.00000E+00
    0.00000E+00         0.00000E+00        -0.28289E+04
 
   -0.97129E+04         0.15202E+04         0.00000E+00
    0.15202E+04        -0.39344E+02         0.00000E+00
    0.00000E+00         0.00000E+00        -0.29257E+04
 
   -0.98469E+04         0.20391E+04         0.00000E+00
    0.20391E+04        -0.18143E+03         0.00000E+00
    0.00000E+00         0.00000E+00        -0.30085E+04
 
   -0.98475E+04         0.25730E+04         0.00000E+00
    0.25730E+04        -0.40189E+03         0.00000E+00
    0.00000E+00         0.00000E+00        -0.30748E+04
 
   -0.97164E+04         0.30913E+04         0.00000E+00
    0.30913E+04        -0.69659E+03         0.00000E+00
    0.00000E+00         0.00000E+00        -0.31239E+04
 
   -0.94677E+04         0.35686E+04         0.00000E+00
    0.35686E+04        -0.10539E+04         0.00000E+00
    0.00000E+00         0.00000E+00        -0.31565E+04
 
   -0.91234E+04         0.39878E+04         0.00000E+00
    0.39878E+04        -0.14578E+04         0.00000E+00
    0.00000E+00         0.00000E+00        -0.31743E+04
 
   -0.87084E+04         0.43400E+04         0.00000E+00
    0.43400E+04        -0.18911E+04         0.00000E+00
    0.00000E+00         0.00000E+00        -0.31798E+04
 
   -0.82471E+04         0.46235E+04         0.00000E+00
    0.46235E+04        -0.23376E+04         0.00000E+00
    0.00000E+00         0.00000E+00        -0.31754E+04
 
   -0.77604E+04         0.48420E+04         0.00000E+00
    0.48420E+04        -0.27833E+04         0.00000E+00
    0.00000E+00         0.00000E+00        -0.31631E+04
 
   -0.72655E+04         0.50025E+04         0.00000E+00
    0.50025E+04        -0.32170E+04         0.00000E+00
    0.00000E+00         0.00000E+00        -0.31448E+04
 
   -0.67754E+04         0.51145E+04         0.00000E+00
    0.51145E+04        -0.36298E+04         0.00000E+00
    0.00000E+00         0.00000E+00        -0.31215E+04
 
   -0.62988E+04         0.51887E+04         0.00000E+00
    0.51887E+04        -0.40151E+04         0.00000E+00
    0.00000E+00         0.00000E+00        -0.30942E+04
 
   -0.58410E+04         0.52365E+04         0.00000E+00
    0.52365E+04        -0.43688E+04         0.00000E+00
    0.00000E+00         0.00000E+00        -0.30629E+04
 
   -0.54036E+04         0.52700E+04         0.00000E+00
    0.52700E+04        -0.46889E+04         0.00000E+00
    0.00000E+00         0.00000E+00        -0.30278E+04
 
   -0.49847E+04         0.53006E+04         0.00000E+00
    0.53006E+04        -0.49761E+04         0.00000E+00
    0.00000E+00         0.00000E+00        -0.29882E+04
 
   -0.45788E+04         0.53390E+04         0.00000E+00
    0.53390E+04        -0.52331E+04         0.00000E+00
    0.00000E+00         0.00000E+00        -0.29436E+04
 
   -0.41779E+04         0.53947E+04         0.00000E+00
    0.53947E+04        -0.54647E+04         0.00000E+00
    0.00000E+00         0.00000E+00        -0.28928E+04
 
   -0.37711E+04         0.54753E+04         0.00000E+00
    0.54753E+04        -0.56775E+04         0.00000E+00
    0.00000E+00         0.00000E+00        -0.28346E+04
 
   -0.33459E+04         0.55861E+04         0.00000E+00
    0.55861E+04        -0.58795E+04         0.00000E+00
    0.00000E+00         0.00000E+00        -0.27676E+04
 
   -0.28878E+04         0.57306E+04         0.00000E+00
    0.57306E+04        -0.60796E+04         0.00000E+00
    0.00000E+00         0.00000E+00        -0.26902E+04
 
   -0.81333E+04         0.10386E+03         0.00000E+00
    0.10386E+03         0.22419E+01         0.00000E+00
    0.00000E+00         0.00000E+00        -0.24393E+04
 
   -0.84595E+04         0.34503E+03         0.00000E+00
    0.34503E+03         0.86606E+01         0.00000E+00
    0.00000E+00         0.00000E+00        -0.25353E+04
 
   -0.87744E+04         0.64353E+03         0.00000E+00
    0.64353E+03         0.67064E+01         0.00000E+00
    0.00000E+00         0.00000E+00        -0.26303E+04
 
   -0.90468E+04         0.10037E+04         0.00000E+00
    0.10037E+04        -0.22747E+02         0.00000E+00
    0.00000E+00         0.00000E+00        -0.27209E+04
 
   -0.92470E+04         0.14174E+04         0.00000E+00
    0.14174E+04        -0.97437E+02         0.00000E+00
    0.00000E+00         0.00000E+00        -0.28033E+04
 
   -0.93529E+04         0.18672E+04         0.00000E+00
    0.18672E+04        -0.22984E+03         0.00000E+00
    0.00000E+00         0.00000E+00        -0.28748E+04
 
   -0.93527E+04         0.23309E+04         0.00000E+00
    0.23309E+04        -0.42522E+03         0.00000E+00
    0.00000E+00         0.00000E+00        -0.29334E+04
 
   -0.92456E+04         0.27855E+04         0.00000E+00
    0.27855E+04        -0.68162E+03         0.00000E+00
    0.00000E+00         0.00000E+00        -0.29782E+04
 
   -0.90402E+04         0.32114E+04         0.00000E+00
    0.32114E+04        -0.99115E+03         0.00000E+00
    0.00000E+00         0.00000E+00        -0.30094E+04
 
   -0.87515E+04         0.35941E+04         0.00000E+00
    0.35941E+04        -0.13421E+04         0.00000E+00
    0.00000E+00         0.00000E+00        -0.30281E+04
 
   -0.83976E+04         0.39251E+04         0.00000E+00
    0.39251E+04        -0.17211E+04         0.00000E+00
    0.00000E+00         0.00000E+00        -0.30356E+04
 
   -0.79971E+04         0.42013E+04         0.00000E+00
    0.42013E+04        -0.21150E+04         0.00000E+00
    0.00000E+00         0.00000E+00        -0.30336E+04
 
   -0.75668E+04         0.44243E+04         0.00000E+00
    0.44243E+04        -0.25118E+04         0.00000E+00
    0.00000E+00         0.00000E+00        -0.30236E+04
 
   -0.71212E+04         0.45989E+04         0.00000E+00
    0.45989E+04        -0.29016E+04         0.00000E+00
    0.00000E+00         0.00000E+00        -0.30068E+04
 
   -0.66712E+04         0.47323E+04         0.00000E+00
    0.47323E+04        -0.32764E+04         0.00000E+00
    0.00000E+00         0.00000E+00        -0.29843E+04
 
   -0.62247E+04         0.48328E+04         0.00000E+00
    0.48328E+04        -0.36304E+04         0.00000E+00
    0.00000E+00         0.00000E+00        -0.29565E+04
 
   -0.57864E+04         0.49100E+04         0.00000E+00
    0.49100E+04        -0.39598E+04         0.00000E+00
    0.00000E+00         0.00000E+00        -0.29239E+04
 
   -0.53578E+04         0.49734E+04         0.00000E+00
    0.49734E+04        -0.42630E+04         0.00000E+00
    0.00000E+00         0.00000E+00        -0.28863E+04
 
   -0.49375E+04         0.50324E+04         0.00000E+00
    0.50324E+04        -0.45403E+04         0.00000E+00
    0.00000E+00         0.00000E+00        -0.28433E+04
 
   -0.45211E+04         0.50958E+04         0.00000E+00
    0.50958E+04        -0.47938E+04         0.00000E+00
    0.00000E+00         0.00000E+00        -0.27945E+04
 
   -0.41020E+04         0.51713E+04         0.00000E+00
    0.51713E+04        -0.50276E+04         0.00000E+00
    0.00000E+00         0.00000E+00        -0.27389E+04
 
   -0.36712E+04         0.52649E+04         0.00000E+00
    0.52649E+04        -0.52470E+04         0.00000E+00
    0.00000E+00         0.00000E+00        -0.26754E+04
 
   -0.32179E+04         0.53809E+04         0.00000E+00
    0.53809E+04        -0.54588E+04         0.00000E+00
    0.00000E+00         0.00000E+00        -0.26030E+04
 
   -0.27302E+04         0.55219E+04         0.00000E+00
    0.55219E+04        -0.56706E+04         0.00000E+00
    0.00000E+00         0.00000E+00        -0.25202E+04
 
   -0.79132E+04         0.10609E+03         0.00000E+00
    0.10609E+03         0.44625E-01         0.00000E+00
    0.00000E+00         0.00000E+00        -0.23740E+04
 
   -0.81959E+04         0.34395E+03         0.00000E+00
    0.34395E+03        -0.28050E+01         0.00000E+00
    0.00000E+00         0.00000E+00        -0.24596E+04
 
   -0.84581E+04         0.62437E+03         0.00000E+00
    0.62437E+03        -0.17832E+02         0.00000E+00
    0.00000E+00         0.00000E+00        -0.25428E+04
 
   -0.86794E+04         0.95043E+03         0.00000E+00
    0.95043E+03        -0.57834E+02         0.00000E+00
    0.00000E+00         0.00000E+00        -0.26212E+04
 
   -0.88396E+04         0.13167E+04         0.00000E+00
    0.13167E+04        -0.13524E+03         0.00000E+00
    0.00000E+00         0.00000E+00        -0.26924E+04
 
   -0.89226E+04         0.17112E+04         0.00000E+00
    0.17112E+04        -0.25926E+03         0.00000E+00
    0.00000E+00         0.00000E+00        -0.27546E+04
 
   -0.89194E+04         0.21177E+04         0.00000E+00
    0.21177E+04        -0.43426E+03         0.00000E+00
    0.00000E+00         0.00000E+00        -0.28061E+04
 
   -0.88283E+04         0.25194E+04         0.00000E+00
    0.25194E+04        -0.65943E+03         0.00000E+00
    0.00000E+00         0.00000E+00        -0.28463E+04
 
   -0.86543E+04         0.29011E+04         0.00000E+00
    0.29011E+04        -0.92943E+03         0.00000E+00
    0.00000E+00         0.00000E+00        -0.28751E+04
 
   -0.84077E+04         0.32506E+04         0.00000E+00
    0.32506E+04        -0.12357E+04         0.00000E+00
    0.00000E+00         0.00000E+00        -0.28930E+04
 
   -0.81015E+04         0.35605E+04         0.00000E+00
    0.35605E+04        -0.15681E+04         0.00000E+00
    0.00000E+00         0.00000E+00        -0.29009E+04
 
   -0.77499E+04         0.38271E+04         0.00000E+00
    0.38271E+04        -0.19160E+04         0.00000E+00
    0.00000E+00         0.00000E+00        -0.28998E+04
 
   -0.73660E+04         0.40507E+04         0.00000E+00
    0.40507E+04        -0.22695E+04         0.00000E+00
    0.00000E+00         0.00000E+00        -0.28907E+04
 
   -0.69616E+04         0.42343E+04         0.00000E+00
    0.42343E+04        -0.26200E+04         0.00000E+00
    0.00000E+00         0.00000E+00        -0.28745E+04
 
   -0.65460E+04         0.43830E+04         0.00000E+00
    0.43830E+04        -0.29607E+04         0.00000E+00
    0.00000E+00         0.00000E+00        -0.28520E+04
 
   -0.61259E+04         0.45036E+04         0.00000E+00
    0.45036E+04        -0.32864E+04         0.00000E+00
    0.00000E+00         0.00000E+00        -0.28237E+04
 
   -0.57054E+04         0.46033E+04         0.00000E+00
    0.46033E+04        -0.35935E+04         0.00000E+00
    0.00000E+00         0.00000E+00        -0.27897E+04
 
   -0.52859E+04         0.46900E+04         0.00000E+00
    0.46900E+04        -0.38806E+04         0.00000E+00
    0.00000E+00         0.00000E+00        -0.27500E+04
 
   -0.48665E+04         0.47712E+04         0.00000E+00
    0.47712E+04        -0.41478E+04         0.00000E+00
    0.00000E+00         0.00000E+00        -0.27043E+04
 
   -0.44436E+04         0.48540E+04         0.00000E+00
    0.48540E+04        -0.43967E+04         0.00000E+00
    0.00000E+00         0.00000E+00        -0.26521E+04
 
   -0.40117E+04         0.49444E+04         0.00000E+00
    0.49444E+04        -0.46306E+04         0.00000E+00
    0.00000E+00         0.00000E+00        -0.25927E+04
 
   -0.35634E+04         0.50475E+04         0.00000E+00
    0.50475E+04        -0.48541E+04         0.00000E+00
    0.00000E+00         0.00000E+00        -0.25253E+04
 
   -0.30898E+04         0.51664E+04         0.00000E+00
    0.51664E+04        -0.50726E+04         0.00000E+00
    0.00000E+00         0.00000E+00        -0.24487E+04
 
   -0.25807E+04         0.53029E+04         0.00000E+00
    0.53029E+04        -0.52927E+04         0.00000E+00
    0.00000E+00         0.00000E+00        -0.23620E+04
 
   -0.76952E+04         0.10398E+03         0.00000E+00
    0.10398E+03        -0.13200E+01         0.00000E+00
    0.00000E+00         0.00000E+00        -0.23089E+04
 
   -0.79442E+04         0.33294E+03         0.00000E+00
    0.33294E+03        -0.99733E+01         0.00000E+00
    0.00000E+00         0.00000E+00        -0.23862E+04
 
   -0.81668E+04         0.59489E+03         0.00000E+00
    0.59489E+03        -0.33159E+02         0.00000E+00
    0.00000E+00         0.00000E+00        -0.24600E+04
 
   -0.83497E+04         0.89152E+03         0.00000E+00
    0.89152E+03        -0.79395E+02         0.00000E+00
    0.00000E+00         0.00000E+00        -0.25287E+04
 
   -0.84792E+04         0.12189E+04         0.00000E+00
    0.12189E+04        -0.15729E+03         0.00000E+00
    0.00000E+00         0.00000E+00        -0.25909E+04
 
   -0.85438E+04         0.15684E+04         0.00000E+00
    0.15684E+04        -0.27350E+03         0.00000E+00
    0.00000E+00         0.00000E+00        -0.26452E+04
 
   -0.85367E+04         0.19283E+04         0.00000E+00
    0.19283E+04        -0.43144E+03         0.00000E+00
    0.00000E+00         0.00000E+00        -0.26905E+04
 
   -0.84560E+04         0.22860E+04         0.00000E+00
    0.22860E+04        -0.63086E+03         0.00000E+00
    0.00000E+00         0.00000E+00        -0.27261E+04
 
   -0.83048E+04         0.26297E+04         0.00000E+00
    0.26297E+04        -0.86810E+03         0.00000E+00
    0.00000E+00         0.00000E+00        -0.27519E+04
 
   -0.80899E+04         0.29496E+04         0.00000E+00
    0.29496E+04        -0.11370E+04         0.00000E+00
    0.00000E+00         0.00000E+00        -0.27681E+04
 
   -0.78209E+04         0.32392E+04         0.00000E+00
    0.32392E+04        -0.14296E+04         0.00000E+00
    0.00000E+00         0.00000E+00        -0.27752E+04
 
   -0.75082E+04         0.34949E+04         0.00000E+00
    0.34949E+04        -0.17378E+04         0.00000E+00
    0.00000E+00         0.00000E+00        -0.27738E+04
 
   -0.71621E+04         0.37160E+04         0.00000E+00
    0.37160E+04        -0.20535E+04         0.00000E+00
    0.00000E+00         0.00000E+00        -0.27647E+04
 
   -0.67921E+04         0.39043E+04         0.00000E+00
    0.39043E+04        -0.23694E+04         0.00000E+00
    0.00000E+00         0.00000E+00        -0.27484E+04
 
   -0.64056E+04         0.40635E+04         0.00000E+00
    0.40635E+04        -0.26796E+04         0.00000E+00
    0.00000E+00         0.00000E+00        -0.27255E+04
 
   -0.60084E+04         0.41985E+04         0.00000E+00
    0.41985E+04        -0.29795E+04         0.00000E+00
    0.00000E+00         0.00000E+00        -0.26964E+04
 
   -0.56041E+04         0.43151E+04         0.00000E+00
    0.43151E+04        -0.32662E+04         0.00000E+00
    0.00000E+00         0.00000E+00        -0.26611E+04
 
   -0.51939E+04         0.44194E+04         0.00000E+00
    0.44194E+04        -0.35380E+04         0.00000E+00
    0.00000E+00         0.00000E+00        -0.26196E+04
 
   -0.47770E+04         0.45174E+04         0.00000E+00
    0.45174E+04        -0.37950E+04         0.00000E+00
    0.00000E+00         0.00000E+00        -0.25716E+04
 
   -0.43509E+04         0.46148E+04         0.00000E+00
    0.46148E+04        -0.40385E+04         0.00000E+00
    0.00000E+00         0.00000E+00        -0.25168E+04
 
   -0.39108E+04         0.47163E+04         0.00000E+00
    0.47163E+04        -0.42710E+04         0.00000E+00
    0.00000E+00         0.00000E+00        -0.24545E+04
 
   -0.34508E+04         0.48258E+04         0.00000E+00
    0.48258E+04        -0.44963E+04         0.00000E+00
    0.00000E+00         0.00000E+00        -0.23841E+04
 
   -0.29632E+04         0.49456E+04         0.00000E+00
    0.49456E+04        -0.47189E+04         0.00000E+00
    0.00000E+00         0.00000E+00        -0.23046E+04
 
   -0.24397E+04         0.50769E+04         0.00000E+00
    0.50769E+04        -0.49443E+04         0.00000E+00
    0.00000E+00         0.00000E+00        -0.22152E+04
 
   -0.74852E+04         0.99252E+02         0.00000E+00
    0.99252E+02        -0.21112E+01         0.00000E+00
    0.00000E+00         0.00000E+00        -0.22462E+04
 
   -0.77067E+04         0.31593E+03         0.00000E+00
    0.31593E+03        -0.14128E+02         0.00000E+00
    0.00000E+00         0.00000E+00        -0.23163E+04
 
   -0.78985E+04         0.55937E+03         0.00000E+00
    0.55937E+03        -0.41906E+02         0.00000E+00
    0.00000E+00         0.00000E+00        -0.23821E+04
 
   -0.80519E+04         0.83007E+03         0.00000E+00
    0.83007E+03        -0.91113E+02         0.00000E+00
    0.00000E+00         0.00000E+00        -0.24429E+04
 
   -0.81574E+04         0.11249E+04         0.00000E+00
    0.11249E+04        -0.16767E+03         0.00000E+00
    0.00000E+00         0.00000E+00        -0.24975E+04
 
   -0.82071E+04         0.14373E+04         0.00000E+00
    0.14373E+04        -0.27630E+03         0.00000E+00
    0.00000E+00         0.00000E+00        -0.25450E+04
 
   -0.81958E+04         0.17587E+04         0.00000E+00
    0.17587E+04        -0.41957E+03         0.00000E+00
    0.00000E+00         0.00000E+00        -0.25846E+04
 
   -0.81219E+04         0.20796E+04         0.00000E+00
    0.20796E+04        -0.59746E+03         0.00000E+00
    0.00000E+00         0.00000E+00        -0.26158E+04
 
   -0.79870E+04         0.23907E+04         0.00000E+00
    0.23907E+04        -0.80742E+03         0.00000E+00
    0.00000E+00         0.00000E+00        -0.26383E+04
 
   -0.77960E+04         0.26844E+04         0.00000E+00
    0.26844E+04        -0.10449E+04         0.00000E+00
    0.00000E+00         0.00000E+00        -0.26523E+04
 
   -0.75557E+04         0.29550E+04         0.00000E+00
    0.29550E+04        -0.13040E+04         0.00000E+00
    0.00000E+00         0.00000E+00        -0.26579E+04
 
   -0.72738E+04         0.31990E+04         0.00000E+00
    0.31990E+04        -0.15781E+04         0.00000E+00
    0.00000E+00         0.00000E+00        -0.26556E+04
 
   -0.69584E+04         0.34155E+04         0.00000E+00
    0.34155E+04        -0.18609E+04         0.00000E+00
    0.00000E+00         0.00000E+00        -0.26458E+04
 
   -0.66166E+04         0.36052E+04         0.00000E+00
    0.36052E+04        -0.21463E+04         0.00000E+00
    0.00000E+00         0.00000E+00        -0.26289E+04
 
   -0.62548E+04         0.37707E+04         0.00000E+00
    0.37707E+04        -0.24295E+04         0.00000E+00
    0.00000E+00         0.00000E+00        -0.26053E+04
 
   -0.58775E+04         0.39155E+04         0.00000E+00
    0.39155E+04        -0.27063E+04         0.00000E+00
    0.00000E+00         0.00000E+00        -0.25751E+04
 
   -0.54878E+04         0.40442E+04         0.00000E+00
    0.40442E+04        -0.29742E+04         0.00000E+00
    0.00000E+00         0.00000E+00        -0.25386E+04
 
   -0.50868E+04         0.41613E+04         0.00000E+00
    0.41613E+04        -0.32317E+04         0.00000E+00
    0.00000E+00         0.00000E+00        -0.24955E+04
 
   -0.46740E+04         0.42716E+04         0.00000E+00
    0.42716E+04        -0.34786E+04         0.00000E+00
    0.00000E+00         0.00000E+00        -0.24458E+04
 
   -0.42472E+04         0.43795E+04         0.00000E+00
    0.43795E+04        -0.37159E+04         0.00000E+00
    0.00000E+00         0.00000E+00        -0.23889E+04
 
   -0.38026E+04         0.44886E+04         0.00000E+00
    0.44886E+04        -0.39457E+04         0.00000E+00
    0.00000E+00         0.00000E+00        -0.23245E+04
 
   -0.33354E+04         0.46020E+04         0.00000E+00
    0.46020E+04        -0.41711E+04         0.00000E+00
    0.00000E+00         0.00000E+00        -0.22519E+04
 
   -0.28392E+04         0.47211E+04         0.00000E+00
    0.47211E+04        -0.43957E+04         0.00000E+00
    0.00000E+00         0.00000E+00        -0.21705E+04
 
   -0.23072E+04         0.48466E+04         0.00000E+00
    0.48466E+04        -0.46240E+04         0.00000E+00
    0.00000E+00         0.00000E+00        -0.20794E+04
 
   -0.72869E+04         0.93090E+02         0.00000E+00
    0.93090E+02        -0.25167E+01         0.00000E+00
    0.00000E+00         0.00000E+00        -0.21868E+04
 
   -0.74849E+04         0.29567E+03         0.00000E+00
    0.29567E+03        -0.16224E+02         0.00000E+00
    0.00000E+00         0.00000E+00        -0.22503E+04
 
   -0.76517E+04         0.52092E+03         0.00000E+00
    0.52092E+03        -0.46091E+02         0.00000E+00
    0.00000E+00         0.00000E+00        -0.23093E+04
 
   -0.77816E+04         0.76842E+03         0.00000E+00
    0.76842E+03        -0.95917E+02         0.00000E+00
    0.00000E+00         0.00000E+00        -0.23632E+04
 
   -0.78680E+04         0.10354E+04         0.00000E+00
    0.10354E+04        -0.16976E+03         0.00000E+00
    0.00000E+00         0.00000E+00        -0.24113E+04
 
   -0.79054E+04         0.13168E+04         0.00000E+00
    0.13168E+04        -0.27095E+03         0.00000E+00
    0.00000E+00         0.00000E+00        -0.24529E+04
 
   -0.78898E+04         0.16060E+04         0.00000E+00
    0.16060E+04        -0.40134E+03         0.00000E+00
    0.00000E+00         0.00000E+00        -0.24873E+04
 
   -0.78200E+04         0.18958E+04         0.00000E+00
    0.18958E+04        -0.56096E+03         0.00000E+00
    0.00000E+00         0.00000E+00        -0.25143E+04
 
   -0.76969E+04         0.21790E+04         0.00000E+00
    0.21790E+04        -0.74800E+03         0.00000E+00
    0.00000E+00         0.00000E+00        -0.25335E+04
 
   -0.75238E+04         0.24494E+04         0.00000E+00
    0.24494E+04        -0.95907E+03         0.00000E+00
    0.00000E+00         0.00000E+00        -0.25449E+04
 
   -0.73056E+04         0.27022E+04         0.00000E+00
    0.27022E+04        -0.11897E+04         0.00000E+00
    0.00000E+00         0.00000E+00        -0.25486E+04
 
   -0.70480E+04         0.29344E+04         0.00000E+00
    0.29344E+04        -0.14348E+04         0.00000E+00
    0.00000E+00         0.00000E+00        -0.25448E+04
 
   -0.67572E+04         0.31446E+04         0.00000E+00
    0.31446E+04        -0.16892E+04         0.00000E+00
    0.00000E+00         0.00000E+00        -0.25339E+04
 
   -0.64388E+04         0.33332E+04         0.00000E+00
    0.33332E+04        -0.19481E+04         0.00000E+00
    0.00000E+00         0.00000E+00        -0.25161E+04
 
   -0.60976E+04         0.35016E+04         0.00000E+00
    0.35016E+04        -0.22073E+04         0.00000E+00
    0.00000E+00         0.00000E+00        -0.24915E+04
 
   -0.57376E+04         0.36525E+04         0.00000E+00
    0.36525E+04        -0.24634E+04         0.00000E+00
    0.00000E+00         0.00000E+00        -0.24603E+04
 
   -0.53610E+04         0.37891E+04         0.00000E+00
    0.37891E+04        -0.27141E+04         0.00000E+00
    0.00000E+00         0.00000E+00        -0.24225E+04
 
   -0.49690E+04         0.39150E+04         0.00000E+00
    0.39150E+04        -0.29582E+04         0.00000E+00
    0.00000E+00         0.00000E+00        -0.23782E+04
 
   -0.45612E+04         0.40338E+04         0.00000E+00
    0.40338E+04        -0.31952E+04         0.00000E+00
    0.00000E+00         0.00000E+00        -0.23269E+04
 
   -0.41358E+04         0.41488E+04         0.00000E+00
    0.41488E+04        -0.34260E+04         0.00000E+00
    0.00000E+00         0.00000E+00        -0.22686E+04
 
   -0.36899E+04         0.42628E+04         0.00000E+00
    0.42628E+04        -0.36522E+04         0.00000E+00
    0.00000E+00         0.00000E+00        -0.22026E+04
 
   -0.32192E+04         0.43778E+04         0.00000E+00
    0.43778E+04        -0.38762E+04         0.00000E+00
    0.00000E+00         0.00000E+00        -0.21286E+04
 
   -0.27189E+04         0.44950E+04         0.00000E+00
    0.44950E+04        -0.41010E+04         0.00000E+00
    0.00000E+00         0.00000E+00        -0.20460E+04
 
   -0.21831E+04         0.46142E+04         0.00000E+00
    0.46142E+04        -0.43302E+04         0.00000E+00
    0.00000E+00         0.00000E+00        -0.19540E+04
 
   -0.71021E+04         0.86273E+02         0.00000E+00
    0.86273E+02        -0.26694E+01         0.00000E+00
    0.00000E+00         0.00000E+00        -0.21314E+04
 
   -0.72791E+04         0.27404E+03         0.00000E+00
    0.27404E+03        -0.16953E+02         0.00000E+00
    0.00000E+00         0.00000E+00        -0.21888E+04
 
   -0.74249E+04         0.48172E+03         0.00000E+00
    0.48172E+03        -0.47211E+02         0.00000E+00
    0.00000E+00         0.00000E+00        -0.22416E+04
 
   -0.75354E+04         0.70824E+03         0.00000E+00
    0.70824E+03        -0.96044E+02         0.00000E+00
    0.00000E+00         0.00000E+00        -0.22894E+04
 
   -0.76061E+04         0.95099E+03         0.00000E+00
    0.95099E+03        -0.16625E+03         0.00000E+00
    0.00000E+00         0.00000E+00        -0.23317E+04
 
   -0.76330E+04         0.12059E+04         0.00000E+00
    0.12059E+04        -0.26014E+03         0.00000E+00
    0.00000E+00         0.00000E+00        -0.23679E+04
 
   -0.76132E+04         0.14679E+04         0.00000E+00
    0.14679E+04        -0.37905E+03         0.00000E+00
    0.00000E+00         0.00000E+00        -0.23977E+04
 
   -0.75456E+04         0.17312E+04         0.00000E+00
    0.17312E+04        -0.52297E+03         0.00000E+00
    0.00000E+00         0.00000E+00        -0.24206E+04
 
   -0.74309E+04         0.19901E+04         0.00000E+00
    0.19901E+04        -0.69059E+03         0.00000E+00
    0.00000E+00         0.00000E+00        -0.24364E+04
 
   -0.72711E+04         0.22398E+04         0.00000E+00
    0.22398E+04        -0.87936E+03         0.00000E+00
    0.00000E+00         0.00000E+00        -0.24451E+04
 
   -0.70699E+04         0.24762E+04         0.00000E+00
    0.24762E+04        -0.10859E+04         0.00000E+00
    0.00000E+00         0.00000E+00        -0.24467E+04
 
   -0.68315E+04         0.26966E+04         0.00000E+00
    0.26966E+04        -0.13062E+04         0.00000E+00
    0.00000E+00         0.00000E+00        -0.24413E+04
 
   -0.65604E+04         0.28995E+04         0.00000E+00
    0.28995E+04        -0.15362E+04         0.00000E+00
    0.00000E+00         0.00000E+00        -0.24290E+04
 
   -0.62611E+04         0.30849E+04         0.00000E+00
    0.30849E+04        -0.17720E+04         0.00000E+00
    0.00000E+00         0.00000E+00        -0.24099E+04
 
   -0.59373E+04         0.32537E+04         0.00000E+00
    0.32537E+04        -0.20101E+04         0.00000E+00
    0.00000E+00         0.00000E+00        -0.23842E+04
 
   -0.55921E+04         0.34075E+04         0.00000E+00
    0.34075E+04        -0.22477E+04         0.00000E+00
    0.00000E+00         0.00000E+00        -0.23519E+04
 
   -0.52274E+04         0.35488E+04         0.00000E+00
    0.35488E+04        -0.24829E+04         0.00000E+00
    0.00000E+00         0.00000E+00        -0.23131E+04
 
   -0.48442E+04         0.36801E+04         0.00000E+00
    0.36801E+04        -0.27144E+04         0.00000E+00
    0.00000E+00         0.00000E+00        -0.22676E+04
 
   -0.44421E+04         0.38042E+04         0.00000E+00
    0.38042E+04        -0.29419E+04         0.00000E+00
    0.00000E+00         0.00000E+00        -0.22152E+04
 
   -0.40198E+04         0.39234E+04         0.00000E+00
    0.39234E+04        -0.31660E+04         0.00000E+00
    0.00000E+00         0.00000E+00        -0.21557E+04
 
   -0.35748E+04         0.40398E+04         0.00000E+00
    0.40398E+04        -0.33877E+04         0.00000E+00
    0.00000E+00         0.00000E+00        -0.20888E+04
 
   -0.31039E+04         0.41548E+04         0.00000E+00
    0.41548E+04        -0.36092E+04         0.00000E+00
    0.00000E+00         0.00000E+00        -0.20139E+04
 
   -0.26029E+04         0.42689E+04         0.00000E+00
    0.42689E+04        -0.38328E+04         0.00000E+00
    0.00000E+00         0.00000E+00        -0.19307E+04
 
   -0.20673E+04         0.43817E+04         0.00000E+00
    0.43817E+04        -0.40614E+04         0.00000E+00
    0.00000E+00         0.00000E+00        -0.18386E+04
 
   -0.69315E+04         0.79309E+02         0.00000E+00
    0.79309E+02        -0.26622E+01         0.00000E+00
    0.00000E+00         0.00000E+00        -0.20802E+04
 
   -0.70892E+04         0.25226E+03         0.00000E+00
    0.25226E+03        -0.16807E+02         0.00000E+00
    0.00000E+00         0.00000E+00        -0.21318E+04
 
   -0.72166E+04         0.44322E+03         0.00000E+00
    0.44322E+03        -0.46357E+02         0.00000E+00
    0.00000E+00         0.00000E+00        -0.21789E+04
 
   -0.73106E+04         0.65064E+03         0.00000E+00
    0.65064E+03        -0.93154E+02         0.00000E+00
    0.00000E+00         0.00000E+00        -0.22211E+04
 
   -0.73679E+04         0.87206E+03         0.00000E+00
    0.87206E+03        -0.15916E+03         0.00000E+00
    0.00000E+00         0.00000E+00        -0.22581E+04
 
   -0.73857E+04         0.11041E+04         0.00000E+00
    0.11041E+04        -0.24598E+03         0.00000E+00
    0.00000E+00         0.00000E+00        -0.22895E+04
 
   -0.73618E+04         0.13425E+04         0.00000E+00
    0.13425E+04        -0.35456E+03         0.00000E+00
    0.00000E+00         0.00000E+00        -0.23149E+04
 
   -0.72951E+04         0.15829E+04         0.00000E+00
    0.15829E+04        -0.48486E+03         0.00000E+00
    0.00000E+00         0.00000E+00        -0.23340E+04
 
   -0.71861E+04         0.18207E+04         0.00000E+00
    0.18207E+04        -0.63588E+03         0.00000E+00
    0.00000E+00         0.00000E+00        -0.23466E+04
 
   -0.70363E+04         0.20518E+04         0.00000E+00
    0.20518E+04        -0.80572E+03         0.00000E+00
    0.00000E+00         0.00000E+00        -0.23526E+04
 
   -0.68480E+04         0.22729E+04         0.00000E+00
    0.22729E+04        -0.99173E+03         0.00000E+00
    0.00000E+00         0.00000E+00        -0.23519E+04
 
   -0.66246E+04         0.24817E+04         0.00000E+00
    0.24817E+04        -0.11909E+04         0.00000E+00
    0.00000E+00         0.00000E+00        -0.23446E+04
 
   -0.63694E+04         0.26766E+04         0.00000E+00
    0.26766E+04        -0.13998E+04         0.00000E+00
    0.00000E+00         0.00000E+00        -0.23308E+04
 
   -0.60856E+04         0.28574E+04         0.00000E+00
    0.28574E+04        -0.16156E+04         0.00000E+00
    0.00000E+00         0.00000E+00        -0.23104E+04
 
   -0.57764E+04         0.30244E+04         0.00000E+00
    0.30244E+04        -0.18352E+04         0.00000E+00
    0.00000E+00         0.00000E+00        -0.22835E+04
 
   -0.54440E+04         0.31786E+04         0.00000E+00
    0.31786E+04        -0.20565E+04         0.00000E+00
    0.00000E+00         0.00000E+00        -0.22502E+04
 
   -0.50901E+04         0.33219E+04         0.00000E+00
    0.33219E+04        -0.22776E+04         0.00000E+00
    0.00000E+00         0.00000E+00        -0.22103E+04
 
   -0.47153E+04         0.34559E+04         0.00000E+00
    0.34559E+04        -0.24975E+04         0.00000E+00
    0.00000E+00         0.00000E+00        -0.21638E+04
 
   -0.43195E+04         0.35826E+04         0.00000E+00
    0.35826E+04        -0.27158E+04         0.00000E+00
    0.00000E+00         0.00000E+00        -0.21106E+04
 
   -0.39014E+04         0.37037E+04         0.00000E+00
    0.37037E+04        -0.29330E+04         0.00000E+00
    0.00000E+00         0.00000E+00        -0.20503E+04
 
   -0.34594E+04         0.38206E+04         0.00000E+00
    0.38206E+04        -0.31499E+04         0.00000E+00
    0.00000E+00         0.00000E+00        -0.19828E+04
 
   -0.29906E+04         0.39341E+04         0.00000E+00
    0.39341E+04        -0.33680E+04         0.00000E+00
    0.00000E+00         0.00000E+00        -0.19076E+04
 
   -0.24919E+04         0.40443E+04         0.00000E+00
    0.40443E+04        -0.35892E+04         0.00000E+00
    0.00000E+00         0.00000E+00        -0.18243E+04
 
   -0.19597E+04         0.41505E+04         0.00000E+00
    0.41505E+04        -0.38159E+04         0.00000E+00
    0.00000E+00         0.00000E+00        -0.17327E+04
 
   -0.67748E+04         0.72512E+02         0.00000E+00
    0.72512E+02        -0.25588E+01         0.00000E+00
    0.00000E+00         0.00000E+00        -0.20332E+04
 
   -0.69146E+04         0.23113E+03         0.00000E+00
    0.23113E+03        -0.16130E+02         0.00000E+00
    0.00000E+00         0.00000E+00        -0.20792E+04
 
   -0.70255E+04         0.40632E+03         0.00000E+00
    0.40632E+03        -0.44303E+02         0.00000E+00
    0.00000E+00         0.00000E+00        -0.21209E+04
 
   -0.71050E+04         0.59629E+03         0.00000E+00
    0.59629E+03        -0.88452E+02         0.00000E+00
    0.00000E+00         0.00000E+00        -0.21580E+04
 
   -0.71507E+04         0.79868E+03         0.00000E+00
    0.79868E+03        -0.14999E+03         0.00000E+00
    0.00000E+00         0.00000E+00        -0.21902E+04
 
   -0.71603E+04         0.10106E+04         0.00000E+00
    0.10106E+04        -0.23006E+03         0.00000E+00
    0.00000E+00         0.00000E+00        -0.22171E+04
 
   -0.71322E+04         0.12285E+04         0.00000E+00
    0.12285E+04        -0.32931E+03         0.00000E+00
    0.00000E+00         0.00000E+00        -0.22384E+04
 
   -0.70654E+04         0.14488E+04         0.00000E+00
    0.14488E+04        -0.44770E+03         0.00000E+00
    0.00000E+00         0.00000E+00        -0.22539E+04
 
   -0.69602E+04         0.16678E+04         0.00000E+00
    0.16678E+04        -0.58445E+03         0.00000E+00
    0.00000E+00         0.00000E+00        -0.22634E+04
 
   -0.68176E+04         0.18821E+04         0.00000E+00
    0.18821E+04        -0.73809E+03         0.00000E+00
    0.00000E+00         0.00000E+00        -0.22667E+04
 
   -0.66393E+04         0.20891E+04         0.00000E+00
    0.20891E+04        -0.90661E+03         0.00000E+00
    0.00000E+00         0.00000E+00        -0.22638E+04
 
   -0.64276E+04         0.22865E+04         0.00000E+00
    0.22865E+04        -0.10876E+04         0.00000E+00
    0.00000E+00         0.00000E+00        -0.22546E+04
 
   -0.61850E+04         0.24730E+04         0.00000E+00
    0.24730E+04        -0.12785E+04         0.00000E+00
    0.00000E+00         0.00000E+00        -0.22391E+04
 
   -0.59141E+04         0.26479E+04         0.00000E+00
    0.26479E+04        -0.14769E+04         0.00000E+00
    0.00000E+00         0.00000E+00        -0.22173E+04
 
   -0.56171E+04         0.28115E+04         0.00000E+00
    0.28115E+04        -0.16803E+04         0.00000E+00
    0.00000E+00         0.00000E+00        -0.21892E+04
 
   -0.52958E+04         0.29643E+04         0.00000E+00
    0.29643E+04        -0.18870E+04         0.00000E+00
    0.00000E+00         0.00000E+00        -0.21548E+04
 
   -0.49515E+04         0.31072E+04         0.00000E+00
    0.31072E+04        -0.20954E+04         0.00000E+00
    0.00000E+00         0.00000E+00        -0.21141E+04
 
   -0.45848E+04         0.32417E+04         0.00000E+00
    0.32417E+04        -0.23046E+04         0.00000E+00
    0.00000E+00         0.00000E+00        -0.20668E+04
 
   -0.41955E+04         0.33688E+04         0.00000E+00
    0.33688E+04        -0.25143E+04         0.00000E+00
    0.00000E+00         0.00000E+00        -0.20129E+04
 
   -0.37828E+04         0.34899E+04         0.00000E+00
    0.34899E+04        -0.27246E+04         0.00000E+00
    0.00000E+00         0.00000E+00        -0.19522E+04
 
   -0.33451E+04         0.36056E+04         0.00000E+00
    0.36056E+04        -0.29363E+04         0.00000E+00
    0.00000E+00         0.00000E+00        -0.18844E+04
 
   -0.28805E+04         0.37165E+04         0.00000E+00
    0.37165E+04        -0.31504E+04         0.00000E+00
    0.00000E+00         0.00000E+00        -0.18093E+04
 
   -0.23863E+04         0.38222E+04         0.00000E+00
    0.38222E+04        -0.33684E+04         0.00000E+00
    0.00000E+00         0.00000E+00        -0.17264E+04
 
   -0.18598E+04         0.39218E+04         0.00000E+00
    0.39218E+04        -0.35921E+04         0.00000E+00
    0.00000E+00         0.00000E+00        -0.16356E+04
 
   -0.66317E+04         0.66064E+02         0.00000E+00
    0.66064E+02        -0.24026E+01         0.00000E+00
    0.00000E+00         0.00000E+00        -0.19902E+04
 
   -0.67547E+04         0.21109E+03         0.00000E+00
    0.21109E+03        -0.15160E+02         0.00000E+00
    0.00000E+00         0.00000E+00        -0.20309E+04
 
   -0.68504E+04         0.37155E+03         0.00000E+00
    0.37155E+03        -0.41591E+02         0.00000E+00
    0.00000E+00         0.00000E+00        -0.20676E+04
 
   -0.69169E+04         0.54553E+03         0.00000E+00
    0.54553E+03        -0.82789E+02         0.00000E+00
    0.00000E+00         0.00000E+00        -0.20999E+04
 
   -0.69521E+04         0.73078E+03         0.00000E+00
    0.73078E+03        -0.13982E+03         0.00000E+00
    0.00000E+00         0.00000E+00        -0.21276E+04
 
   -0.69542E+04         0.92472E+03         0.00000E+00
    0.92472E+03        -0.21352E+03         0.00000E+00
    0.00000E+00         0.00000E+00        -0.21503E+04
 
   -0.69218E+04         0.11244E+04         0.00000E+00
    0.11244E+04        -0.30436E+03         0.00000E+00
    0.00000E+00         0.00000E+00        -0.21678E+04
 
   -0.68542E+04         0.13269E+04         0.00000E+00
    0.13269E+04        -0.41228E+03         0.00000E+00
    0.00000E+00         0.00000E+00        -0.21799E+04
 
   -0.67513E+04         0.15291E+04         0.00000E+00
    0.15291E+04        -0.53668E+03         0.00000E+00
    0.00000E+00         0.00000E+00        -0.21864E+04
 
   -0.66139E+04         0.17282E+04         0.00000E+00
    0.17282E+04        -0.67643E+03         0.00000E+00
    0.00000E+00         0.00000E+00        -0.21871E+04
 
   -0.64431E+04         0.19218E+04         0.00000E+00
    0.19218E+04        -0.82996E+03         0.00000E+00
    0.00000E+00         0.00000E+00        -0.21819E+04
 
   -0.62405E+04         0.21082E+04         0.00000E+00
    0.21082E+04        -0.99541E+03         0.00000E+00
    0.00000E+00         0.00000E+00        -0.21708E+04
 
   -0.60081E+04         0.22859E+04         0.00000E+00
    0.22859E+04        -0.11708E+04         0.00000E+00
    0.00000E+00         0.00000E+00        -0.21536E+04
 
   -0.57476E+04         0.24542E+04         0.00000E+00
    0.24542E+04        -0.13540E+04         0.00000E+00
    0.00000E+00         0.00000E+00        -0.21305E+04
 
   -0.54609E+04         0.26131E+04         0.00000E+00
    0.26131E+04        -0.15433E+04         0.00000E+00
    0.00000E+00         0.00000E+00        -0.21013E+04
 
   -0.51492E+04         0.27628E+04         0.00000E+00
    0.27628E+04        -0.17371E+04         0.00000E+00
    0.00000E+00         0.00000E+00        -0.20659E+04
 
   -0.48137E+04         0.29037E+04         0.00000E+00
    0.29037E+04        -0.19341E+04         0.00000E+00
    0.00000E+00         0.00000E+00        -0.20243E+04
 
   -0.44547E+04         0.30368E+04         0.00000E+00
    0.30368E+04        -0.21335E+04         0.00000E+00
    0.00000E+00         0.00000E+00        -0.19764E+04
 
   -0.40721E+04         0.31627E+04         0.00000E+00
    0.31627E+04        -0.23350E+04         0.00000E+00
    0.00000E+00         0.00000E+00        -0.19221E+04
 
   -0.36654E+04         0.32821E+04         0.00000E+00
    0.32821E+04        -0.25386E+04         0.00000E+00
    0.00000E+00         0.00000E+00        -0.18612E+04
 
   -0.32333E+04         0.33954E+04         0.00000E+00
    0.33954E+04        -0.27448E+04         0.00000E+00
    0.00000E+00         0.00000E+00        -0.17934E+04
 
   -0.27742E+04         0.35027E+04         0.00000E+00
    0.35027E+04        -0.29544E+04         0.00000E+00
    0.00000E+00         0.00000E+00        -0.17186E+04
 
   -0.22864E+04         0.36034E+04         0.00000E+00
    0.36034E+04        -0.31686E+04         0.00000E+00
    0.00000E+00         0.00000E+00        -0.16365E+04
 
   -0.17676E+04         0.36965E+04         0.00000E+00
    0.36965E+04        -0.33886E+04         0.00000E+00
    0.00000E+00         0.00000E+00        -0.15469E+04
 
   -0.65012E+04         0.60059E+02         0.00000E+00
    0.60059E+02        -0.22221E+01         0.00000E+00
    0.00000E+00         0.00000E+00        -0.19510E+04
 
   -0.66083E+04         0.19239E+03         0.00000E+00
    0.19239E+03        -0.14055E+02         0.00000E+00
    0.00000E+00         0.00000E+00        -0.19867E+04
 
   -0.66901E+04         0.33916E+03         0.00000E+00
    0.33916E+03        -0.38588E+02         0.00000E+00
    0.00000E+00         0.00000E+00        -0.20186E+04
 
   -0.67447E+04         0.49845E+03         0.00000E+00
    0.49845E+03        -0.76754E+02         0.00000E+00
    0.00000E+00         0.00000E+00        -0.20464E+04
 
   -0.67702E+04         0.66815E+03         0.00000E+00
    0.66815E+03        -0.12940E+03         0.00000E+00
    0.00000E+00         0.00000E+00        -0.20699E+04
 
   -0.67652E+04         0.84595E+03         0.00000E+00
    0.84595E+03        -0.19719E+03         0.00000E+00
    0.00000E+00         0.00000E+00        -0.20887E+04
 
   -0.67285E+04         0.10293E+04         0.00000E+00
    0.10293E+04        -0.28045E+03         0.00000E+00
    0.00000E+00         0.00000E+00        -0.21027E+04
 
   -0.66594E+04         0.12158E+04         0.00000E+00
    0.12158E+04        -0.37915E+03         0.00000E+00
    0.00000E+00         0.00000E+00        -0.21116E+04
 
   -0.65578E+04         0.14027E+04         0.00000E+00
    0.14027E+04        -0.49282E+03         0.00000E+00
    0.00000E+00         0.00000E+00        -0.21152E+04
 
   -0.64240E+04         0.15877E+04         0.00000E+00
    0.15877E+04        -0.62059E+03         0.00000E+00
    0.00000E+00         0.00000E+00        -0.21134E+04
 
   -0.62588E+04         0.17688E+04         0.00000E+00
    0.17688E+04        -0.76124E+03         0.00000E+00
    0.00000E+00         0.00000E+00        -0.21060E+04
 
   -0.60633E+04         0.19444E+04         0.00000E+00
    0.19444E+04        -0.91331E+03         0.00000E+00
    0.00000E+00         0.00000E+00        -0.20930E+04
 
   -0.58390E+04         0.21131E+04         0.00000E+00
    0.21131E+04        -0.10752E+04         0.00000E+00
    0.00000E+00         0.00000E+00        -0.20743E+04
 
   -0.55871E+04         0.22743E+04         0.00000E+00
    0.22743E+04        -0.12454E+04         0.00000E+00
    0.00000E+00         0.00000E+00        -0.20498E+04
 
   -0.53091E+04         0.24275E+04         0.00000E+00
    0.24275E+04        -0.14223E+04         0.00000E+00
    0.00000E+00         0.00000E+00        -0.20194E+04
 
   -0.50059E+04         0.25728E+04         0.00000E+00
    0.25728E+04        -0.16046E+04         0.00000E+00
    0.00000E+00         0.00000E+00        -0.19831E+04
 
   -0.46782E+04         0.27104E+04         0.00000E+00
    0.27104E+04        -0.17913E+04         0.00000E+00
    0.00000E+00         0.00000E+00        -0.19409E+04
 
   -0.43266E+04         0.28406E+04         0.00000E+00
    0.28406E+04        -0.19817E+04         0.00000E+00
    0.00000E+00         0.00000E+00        -0.18925E+04
 
   -0.39508E+04         0.29638E+04         0.00000E+00
    0.29638E+04        -0.21755E+04         0.00000E+00
    0.00000E+00         0.00000E+00        -0.18379E+04
 
   -0.35505E+04         0.30803E+04         0.00000E+00
    0.30803E+04        -0.23726E+04         0.00000E+00
    0.00000E+00         0.00000E+00        -0.17769E+04
 
   -0.31248E+04         0.31902E+04         0.00000E+00
    0.31902E+04        -0.25733E+04         0.00000E+00
    0.00000E+00         0.00000E+00        -0.17094E+04
 
   -0.26725E+04         0.32932E+04         0.00000E+00
    0.32932E+04        -0.27782E+04         0.00000E+00
    0.00000E+00         0.00000E+00        -0.16352E+04
 
   -0.21923E+04         0.33886E+04         0.00000E+00
    0.33886E+04        -0.29881E+04         0.00000E+00
    0.00000E+00         0.00000E+00        -0.15541E+04
 
   -0.16825E+04         0.34752E+04         0.00000E+00
    0.34752E+04        -0.32039E+04         0.00000E+00
    0.00000E+00         0.00000E+00        -0.14659E+04
 
   -0.63825E+04         0.54530E+02         0.00000E+00
    0.54530E+02        -0.20362E+01         0.00000E+00
    0.00000E+00         0.00000E+00        -0.19154E+04
 
   -0.64747E+04         0.17510E+03         0.00000E+00
    0.17510E+03        -0.12921E+02         0.00000E+00
    0.00000E+00         0.00000E+00        -0.19463E+04
 
   -0.65435E+04         0.30921E+03         0.00000E+00
    0.30921E+03        -0.35542E+02         0.00000E+00
    0.00000E+00         0.00000E+00        -0.19737E+04
 
   -0.65869E+04         0.45498E+03         0.00000E+00
    0.45498E+03        -0.70742E+02         0.00000E+00
    0.00000E+00         0.00000E+00        -0.19973E+04
 
   -0.66035E+04         0.61047E+03         0.00000E+00
    0.61047E+03        -0.11925E+03         0.00000E+00
    0.00000E+00         0.00000E+00        -0.20168E+04
 
   -0.65918E+04         0.77359E+03         0.00000E+00
    0.77359E+03        -0.18159E+03         0.00000E+00
    0.00000E+00         0.00000E+00        -0.20320E+04
 
   -0.65508E+04         0.94216E+03         0.00000E+00
    0.94216E+03        -0.25807E+03         0.00000E+00
    0.00000E+00         0.00000E+00        -0.20427E+04
 
   -0.64797E+04         0.11140E+04         0.00000E+00
    0.11140E+04        -0.34864E+03         0.00000E+00
    0.00000E+00         0.00000E+00        -0.20485E+04
 
   -0.63784E+04         0.12869E+04         0.00000E+00
    0.12869E+04        -0.45296E+03         0.00000E+00
    0.00000E+00         0.00000E+00        -0.20494E+04
 
   -0.62470E+04         0.14588E+04         0.00000E+00
    0.14588E+04        -0.57036E+03         0.00000E+00
    0.00000E+00         0.00000E+00        -0.20452E+04
 
   -0.60859E+04         0.16281E+04         0.00000E+00
    0.16281E+04        -0.69990E+03         0.00000E+00
    0.00000E+00         0.00000E+00        -0.20357E+04
 
   -0.58960E+04         0.17931E+04         0.00000E+00
    0.17931E+04        -0.84044E+03         0.00000E+00
    0.00000E+00         0.00000E+00        -0.20209E+04
 
   -0.56781E+04         0.19528E+04         0.00000E+00
    0.19528E+04        -0.99073E+03         0.00000E+00
    0.00000E+00         0.00000E+00        -0.20007E+04
 
   -0.54334E+04         0.21063E+04         0.00000E+00
    0.21063E+04        -0.11495E+04         0.00000E+00
    0.00000E+00         0.00000E+00        -0.19749E+04
 
   -0.51627E+04         0.22531E+04         0.00000E+00
    0.22531E+04        -0.13155E+04         0.00000E+00
    0.00000E+00         0.00000E+00        -0.19435E+04
 
   -0.48669E+04         0.23931E+04         0.00000E+00
    0.23931E+04        -0.14877E+04         0.00000E+00
    0.00000E+00         0.00000E+00        -0.19064E+04
 
   -0.45465E+04         0.25261E+04         0.00000E+00
    0.25261E+04        -0.16652E+04         0.00000E+00
    0.00000E+00         0.00000E+00        -0.18635E+04
 
   -0.42018E+04         0.26523E+04         0.00000E+00
    0.26523E+04        -0.18474E+04         0.00000E+00
    0.00000E+00         0.00000E+00        -0.18148E+04
 
   -0.38328E+04         0.27718E+04         0.00000E+00
    0.27718E+04        -0.20340E+04         0.00000E+00
    0.00000E+00         0.00000E+00        -0.17600E+04
 
   -0.34393E+04         0.28844E+04         0.00000E+00
    0.28844E+04        -0.22248E+04         0.00000E+00
    0.00000E+00         0.00000E+00        -0.16992E+04
 
   -0.30205E+04         0.29901E+04         0.00000E+00
    0.29901E+04        -0.24201E+04         0.00000E+00
    0.00000E+00         0.00000E+00        -0.16322E+04
 
   -0.25758E+04         0.30883E+04         0.00000E+00
    0.30883E+04        -0.26201E+04         0.00000E+00
    0.00000E+00         0.00000E+00        -0.15588E+04
 
   -0.21041E+04         0.31782E+04         0.00000E+00
    0.31782E+04        -0.28254E+04         0.00000E+00
    0.00000E+00         0.00000E+00        -0.14788E+04
 
   -0.16043E+04         0.32585E+04         0.00000E+00
    0.32585E+04        -0.30366E+04         0.00000E+00
    0.00000E+00         0.00000E+00        -0.13923E+04
 
   -0.62746E+04         0.49474E+02         0.00000E+00
    0.49474E+02        -0.18563E+01         0.00000E+00
    0.00000E+00         0.00000E+00        -0.18829E+04
 
   -0.63529E+04         0.15921E+03         0.00000E+00
    0.15921E+03        -0.11823E+02         0.00000E+00
    0.00000E+00         0.00000E+00        -0.19094E+04
 
   -0.64094E+04         0.28162E+03         0.00000E+00
    0.28162E+03        -0.32607E+02         0.00000E+00
    0.00000E+00         0.00000E+00        -0.19326E+04
 
   -0.64425E+04         0.41494E+03         0.00000E+00
    0.41494E+03        -0.65005E+02         0.00000E+00
    0.00000E+00         0.00000E+00        -0.19523E+04
 
   -0.64507E+04         0.55737E+03         0.00000E+00
    0.55737E+03        -0.10967E+03         0.00000E+00
    0.00000E+00         0.00000E+00        -0.19681E+04
 
   -0.64325E+04         0.70703E+03         0.00000E+00
    0.70703E+03        -0.16708E+03         0.00000E+00
    0.00000E+00         0.00000E+00        -0.19799E+04
 
   -0.63872E+04         0.86202E+03         0.00000E+00
    0.86202E+03        -0.23749E+03         0.00000E+00
    0.00000E+00         0.00000E+00        -0.19874E+04
 
   -0.63138E+04         0.10204E+04         0.00000E+00
    0.10204E+04        -0.32091E+03         0.00000E+00
    0.00000E+00         0.00000E+00        -0.19904E+04
 
   -0.62121E+04         0.11803E+04         0.00000E+00
    0.11803E+04        -0.41708E+03         0.00000E+00
    0.00000E+00         0.00000E+00        -0.19888E+04
 
   -0.60821E+04         0.13400E+04         0.00000E+00
    0.13400E+04        -0.52550E+03         0.00000E+00
    0.00000E+00         0.00000E+00        -0.19823E+04
 
   -0.59240E+04         0.14979E+04         0.00000E+00
    0.14979E+04        -0.64544E+03         0.00000E+00
    0.00000E+00         0.00000E+00        -0.19708E+04
 
   -0.57384E+04         0.16527E+04         0.00000E+00
    0.16527E+04        -0.77600E+03         0.00000E+00
    0.00000E+00         0.00000E+00        -0.19543E+04
 
   -0.55257E+04         0.18032E+04         0.00000E+00
    0.18032E+04        -0.91621E+03         0.00000E+00
    0.00000E+00         0.00000E+00        -0.19326E+04
 
   -0.52869E+04         0.19487E+04         0.00000E+00
    0.19487E+04        -0.10650E+04         0.00000E+00
    0.00000E+00         0.00000E+00        -0.19056E+04
 
   -0.50225E+04         0.20886E+04         0.00000E+00
    0.20886E+04        -0.12215E+04         0.00000E+00
    0.00000E+00         0.00000E+00        -0.18732E+04
 
   -0.47332E+04         0.22225E+04         0.00000E+00
    0.22225E+04        -0.13847E+04         0.00000E+00
    0.00000E+00         0.00000E+00        -0.18354E+04
 
   -0.44193E+04         0.23502E+04         0.00000E+00
    0.23502E+04        -0.15540E+04         0.00000E+00
    0.00000E+00         0.00000E+00        -0.17920E+04
 
   -0.40813E+04         0.24715E+04         0.00000E+00
    0.24715E+04        -0.17287E+04         0.00000E+00
    0.00000E+00         0.00000E+00        -0.17430E+04
 
   -0.37190E+04         0.25863E+04         0.00000E+00
    0.25863E+04        -0.19086E+04         0.00000E+00
    0.00000E+00         0.00000E+00        -0.16883E+04
 
   -0.33324E+04         0.26943E+04         0.00000E+00
    0.26943E+04        -0.20935E+04         0.00000E+00
    0.00000E+00         0.00000E+00        -0.16277E+04
 
   -0.29210E+04         0.27951E+04         0.00000E+00
    0.27951E+04        -0.22833E+04         0.00000E+00
    0.00000E+00         0.00000E+00        -0.15613E+04
 
   -0.24843E+04         0.28882E+04         0.00000E+00
    0.28882E+04        -0.24784E+04         0.00000E+00
    0.00000E+00         0.00000E+00        -0.14888E+04
 
   -0.20217E+04         0.29724E+04         0.00000E+00
    0.29724E+04        -0.26789E+04         0.00000E+00
    0.00000E+00         0.00000E+00        -0.14102E+04
 
   -0.15326E+04         0.30466E+04         0.00000E+00
    0.30466E+04        -0.28853E+04         0.00000E+00
    0.00000E+00         0.00000E+00        -0.13254E+04
 
   -0.61767E+04         0.44868E+02         0.00000E+00
    0.44868E+02        -0.16894E+01         0.00000E+00
    0.00000E+00         0.00000E+00        -0.18535E+04
 
   -0.62418E+04         0.14466E+03         0.00000E+00
    0.14466E+03        -0.10802E+02         0.00000E+00
    0.00000E+00         0.00000E+00        -0.18758E+04
 
   -0.62870E+04         0.25627E+03         0.00000E+00
    0.25627E+03        -0.29879E+02         0.00000E+00
    0.00000E+00         0.00000E+00        -0.18951E+04
 
   -0.63104E+04         0.37808E+03         0.00000E+00
    0.37808E+03        -0.59694E+02         0.00000E+00
    0.00000E+00         0.00000E+00        -0.19110E+04
 
   -0.63106E+04         0.50844E+03         0.00000E+00
    0.50844E+03        -0.10087E+03         0.00000E+00
    0.00000E+00         0.00000E+00        -0.19234E+04
 
   -0.62863E+04         0.64568E+03         0.00000E+00
    0.64568E+03        -0.15384E+03         0.00000E+00
    0.00000E+00         0.00000E+00        -0.19320E+04
 
   -0.62366E+04         0.78810E+03         0.00000E+00
    0.78810E+03        -0.21887E+03         0.00000E+00
    0.00000E+00         0.00000E+00        -0.19366E+04
 
   -0.61607E+04         0.93401E+03         0.00000E+00
    0.93401E+03        -0.29601E+03         0.00000E+00
    0.00000E+00         0.00000E+00        -0.19370E+04
 
   -0.60581E+04         0.10818E+04         0.00000E+00
    0.10818E+04        -0.38507E+03         0.00000E+00
    0.00000E+00         0.00000E+00        -0.19330E+04
 
   -0.59288E+04         0.12299E+04         0.00000E+00
    0.12299E+04        -0.48569E+03         0.00000E+00
    0.00000E+00         0.00000E+00        -0.19244E+04
 
   -0.57728E+04         0.13769E+04         0.00000E+00
    0.13769E+04        -0.59731E+03         0.00000E+00
    0.00000E+00         0.00000E+00        -0.19110E+04
 
   -0.55904E+04         0.15216E+04         0.00000E+00
    0.15216E+04        -0.71923E+03         0.00000E+00
    0.00000E+00         0.00000E+00        -0.18929E+04
 
   -0.53819E+04         0.16630E+04         0.00000E+00
    0.16630E+04        -0.85069E+03         0.00000E+00
    0.00000E+00         0.00000E+00        -0.18698E+04
 
   -0.51480E+04         0.18003E+04         0.00000E+00
    0.18003E+04        -0.99086E+03         0.00000E+00
    0.00000E+00         0.00000E+00        -0.18417E+04
 
   -0.48890E+04         0.19328E+04         0.00000E+00
    0.19328E+04        -0.11390E+04         0.00000E+00
    0.00000E+00         0.00000E+00        -0.18084E+04
 
   -0.46055E+04         0.20601E+04         0.00000E+00
    0.20601E+04        -0.12942E+04         0.00000E+00
    0.00000E+00         0.00000E+00        -0.17699E+04
 
   -0.42977E+04         0.21818E+04         0.00000E+00
    0.21818E+04        -0.14561E+04         0.00000E+00
    0.00000E+00         0.00000E+00        -0.17261E+04
 
   -0.39659E+04         0.22975E+04         0.00000E+00
    0.22975E+04        -0.16240E+04         0.00000E+00
    0.00000E+00         0.00000E+00        -0.16770E+04
 
   -0.36102E+04         0.24070E+04         0.00000E+00
    0.24070E+04        -0.17976E+04         0.00000E+00
    0.00000E+00         0.00000E+00        -0.16224E+04
 
   -0.32305E+04         0.25097E+04         0.00000E+00
    0.25097E+04        -0.19768E+04         0.00000E+00
    0.00000E+00         0.00000E+00        -0.15622E+04
 
   -0.28266E+04         0.26053E+04         0.00000E+00
    0.26053E+04        -0.21614E+04         0.00000E+00
    0.00000E+00         0.00000E+00        -0.14964E+04
 
   -0.23983E+04         0.26928E+04         0.00000E+00
    0.26928E+04        -0.23516E+04         0.00000E+00
    0.00000E+00         0.00000E+00        -0.14250E+04
 
   -0.19452E+04         0.27714E+04         0.00000E+00
    0.27714E+04        -0.25473E+04         0.00000E+00
    0.00000E+00         0.00000E+00        -0.13477E+04
 
   -0.14671E+04         0.28397E+04         0.00000E+00
    0.28397E+04        -0.27487E+04         0.00000E+00
    0.00000E+00         0.00000E+00        -0.12647E+04
 
   -0.60878E+04         0.40671E+02         0.00000E+00
    0.40671E+02        -0.15390E+01         0.00000E+00
    0.00000E+00         0.00000E+00        -0.18268E+04
 
   -0.61408E+04         0.13132E+03         0.00000E+00
    0.13132E+03        -0.98779E+01         0.00000E+00
    0.00000E+00         0.00000E+00        -0.18452E+04
 
   -0.61753E+04         0.23295E+03         0.00000E+00
    0.23295E+03        -0.27408E+02         0.00000E+00
    0.00000E+00         0.00000E+00        -0.18608E+04
 
   -0.61896E+04         0.34410E+03         0.00000E+00
    0.34410E+03        -0.54889E+02         0.00000E+00
    0.00000E+00         0.00000E+00        -0.18733E+04
 
   -0.61823E+04         0.46326E+03         0.00000E+00
    0.46326E+03        -0.92925E+02         0.00000E+00
    0.00000E+00         0.00000E+00        -0.18826E+04
 
   -0.61521E+04         0.58895E+03         0.00000E+00
    0.58895E+03        -0.14195E+03         0.00000E+00
    0.00000E+00         0.00000E+00        -0.18882E+04
 
   -0.60981E+04         0.71966E+03         0.00000E+00
    0.71966E+03        -0.20224E+03         0.00000E+00
    0.00000E+00         0.00000E+00        -0.18901E+04
 
   -0.60195E+04         0.85390E+03         0.00000E+00
    0.85390E+03        -0.27386E+03         0.00000E+00
    0.00000E+00         0.00000E+00        -0.18880E+04
 
   -0.59157E+04         0.99022E+03         0.00000E+00
    0.99022E+03        -0.35673E+03         0.00000E+00
    0.00000E+00         0.00000E+00        -0.18817E+04
 
   -0.57865E+04         0.11273E+04         0.00000E+00
    0.11273E+04        -0.45058E+03         0.00000E+00
    0.00000E+00         0.00000E+00        -0.18711E+04
 
   -0.56319E+04         0.12638E+04         0.00000E+00
    0.12638E+04        -0.55499E+03         0.00000E+00
    0.00000E+00         0.00000E+00        -0.18561E+04
 
   -0.54519E+04         0.13987E+04         0.00000E+00
    0.13987E+04        -0.66943E+03         0.00000E+00
    0.00000E+00         0.00000E+00        -0.18364E+04
 
   -0.52469E+04         0.15310E+04         0.00000E+00
    0.15310E+04        -0.79328E+03         0.00000E+00
    0.00000E+00         0.00000E+00        -0.18120E+04
 
   -0.50170E+04         0.16599E+04         0.00000E+00
    0.16599E+04        -0.92589E+03         0.00000E+00
    0.00000E+00         0.00000E+00        -0.17829E+04
 
   -0.47627E+04         0.17848E+04         0.00000E+00
    0.17848E+04        -0.10666E+04         0.00000E+00
    0.00000E+00         0.00000E+00        -0.17488E+04
 
   -0.44843E+04         0.19050E+04         0.00000E+00
    0.19050E+04        -0.12148E+04         0.00000E+00
    0.00000E+00         0.00000E+00        -0.17098E+04
 
   -0.41821E+04         0.20201E+04         0.00000E+00
    0.20201E+04        -0.13700E+04         0.00000E+00
    0.00000E+00         0.00000E+00        -0.16656E+04
 
   -0.38562E+04         0.21297E+04         0.00000E+00
    0.21297E+04        -0.15318E+04         0.00000E+00
    0.00000E+00         0.00000E+00        -0.16164E+04
 
   -0.35069E+04         0.22333E+04         0.00000E+00
    0.22333E+04        -0.16996E+04         0.00000E+00
    0.00000E+00         0.00000E+00        -0.15620E+04
 
   -0.31340E+04         0.23304E+04         0.00000E+00
    0.23304E+04        -0.18735E+04         0.00000E+00
    0.00000E+00         0.00000E+00        -0.15023E+04
 
   -0.27377E+04         0.24204E+04         0.00000E+00
    0.24204E+04        -0.20531E+04         0.00000E+00
    0.00000E+00         0.00000E+00        -0.14372E+04
 
   -0.23179E+04         0.25024E+04         0.00000E+00
    0.25024E+04        -0.22383E+04         0.00000E+00
    0.00000E+00         0.00000E+00        -0.13669E+04
 
   -0.18744E+04         0.25753E+04         0.00000E+00
    0.25753E+04        -0.24293E+04         0.00000E+00
    0.00000E+00         0.00000E+00        -0.12911E+04
 
   -0.14074E+04         0.26380E+04         0.00000E+00
    0.26380E+04        -0.26258E+04         0.00000E+00
    0.00000E+00         0.00000E+00        -0.12100E+04
 
   -0.60072E+04         0.36839E+02         0.00000E+00
    0.36839E+02        -0.14067E+01         0.00000E+00
    0.00000E+00         0.00000E+00        -0.18026E+04
 
   -0.60489E+04         0.11908E+03         0.00000E+00
    0.11908E+03        -0.90605E+01         0.00000E+00
    0.00000E+00         0.00000E+00        -0.18174E+04
 
   -0.60736E+04         0.21147E+03         0.00000E+00
    0.21147E+03        -0.25215E+02         0.00000E+00
    0.00000E+00         0.00000E+00        -0.18296E+04
 
   -0.60794E+04         0.31269E+03         0.00000E+00
    0.31269E+03        -0.50622E+02         0.00000E+00
    0.00000E+00         0.00000E+00        -0.18390E+04
 
   -0.60651E+04         0.42142E+03         0.00000E+00
    0.42142E+03        -0.85877E+02         0.00000E+00
    0.00000E+00         0.00000E+00        -0.18453E+04
 
   -0.60293E+04         0.53631E+03         0.00000E+00
    0.53631E+03        -0.13142E+03         0.00000E+00
    0.00000E+00         0.00000E+00        -0.18482E+04
 
   -0.59710E+04         0.65603E+03         0.00000E+00
    0.65603E+03        -0.18754E+03         0.00000E+00
    0.00000E+00         0.00000E+00        -0.18476E+04
 
   -0.58895E+04         0.77926E+03         0.00000E+00
    0.77926E+03        -0.25436E+03         0.00000E+00
    0.00000E+00         0.00000E+00        -0.18432E+04
 
   -0.57842E+04         0.90473E+03         0.00000E+00
    0.90473E+03        -0.33184E+03         0.00000E+00
    0.00000E+00         0.00000E+00        -0.18348E+04
 
   -0.56548E+04         0.10312E+04         0.00000E+00
    0.10312E+04        -0.41981E+03         0.00000E+00
    0.00000E+00         0.00000E+00        -0.18224E+04
 
   -0.55010E+04         0.11576E+04         0.00000E+00
    0.11576E+04        -0.51797E+03         0.00000E+00
    0.00000E+00         0.00000E+00        -0.18057E+04
 
   -0.53229E+04         0.12828E+04         0.00000E+00
    0.12828E+04        -0.62591E+03         0.00000E+00
    0.00000E+00         0.00000E+00        -0.17846E+04
 
   -0.51206E+04         0.14061E+04         0.00000E+00
    0.14061E+04        -0.74314E+03         0.00000E+00
    0.00000E+00         0.00000E+00        -0.17591E+04
 
   -0.48942E+04         0.15265E+04         0.00000E+00
    0.15265E+04        -0.86915E+03         0.00000E+00
    0.00000E+00         0.00000E+00        -0.17290E+04
 
   -0.46439E+04         0.16435E+04         0.00000E+00
    0.16435E+04        -0.10034E+04         0.00000E+00
    0.00000E+00         0.00000E+00        -0.16942E+04
 
   -0.43701E+04         0.17563E+04         0.00000E+00
    0.17563E+04        -0.11454E+04         0.00000E+00
    0.00000E+00         0.00000E+00        -0.16547E+04
 
   -0.40730E+04         0.18646E+04         0.00000E+00
    0.18646E+04        -0.12946E+04         0.00000E+00
    0.00000E+00         0.00000E+00        -0.16103E+04
 
   -0.37527E+04         0.19677E+04         0.00000E+00
    0.19677E+04        -0.14507E+04         0.00000E+00
    0.00000E+00         0.00000E+00        -0.15610E+04
 
   -0.34095E+04         0.20651E+04         0.00000E+00
    0.20651E+04        -0.16133E+04         0.00000E+00
    0.00000E+00         0.00000E+00        -0.15068E+04
 
   -0.30434E+04         0.21562E+04         0.00000E+00
    0.21562E+04        -0.17821E+04         0.00000E+00
    0.00000E+00         0.00000E+00        -0.14476E+04
 
   -0.26545E+04         0.22403E+04         0.00000E+00
    0.22403E+04        -0.19569E+04         0.00000E+00
    0.00000E+00         0.00000E+00        -0.13834E+04
 
   -0.22431E+04         0.23166E+04         0.00000E+00
    0.23166E+04        -0.21375E+04         0.00000E+00
    0.00000E+00         0.00000E+00        -0.13142E+04
 
   -0.18092E+04         0.23840E+04         0.00000E+00
    0.23840E+04        -0.23237E+04         0.00000E+00
    0.00000E+00         0.00000E+00        -0.12399E+04
 
   -0.13532E+04         0.24412E+04         0.00000E+00
    0.24412E+04        -0.25153E+04         0.00000E+00
    0.00000E+00         0.00000E+00        -0.11606E+04
 
   -0.59342E+04         0.33325E+02         0.00000E+00
    0.33325E+02        -0.12923E+01         0.00000E+00
    0.00000E+00         0.00000E+00        -0.17806E+04
 
   -0.59656E+04         0.10781E+03         0.00000E+00
    0.10781E+03        -0.83502E+01         0.00000E+00
    0.00000E+00         0.00000E+00        -0.17922E+04
 
   -0.59811E+04         0.19160E+03         0.00000E+00
    0.19160E+03        -0.23301E+02         0.00000E+00
    0.00000E+00         0.00000E+00        -0.18013E+04
 
   -0.59791E+04         0.28356E+03         0.00000E+00
    0.28356E+03        -0.46889E+02         0.00000E+00
    0.00000E+00         0.00000E+00        -0.18078E+04
 
   -0.59581E+04         0.38251E+03         0.00000E+00
    0.38251E+03        -0.79708E+02         0.00000E+00
    0.00000E+00         0.00000E+00        -0.18113E+04
 
   -0.59170E+04         0.48725E+03         0.00000E+00
    0.48725E+03        -0.12221E+03         0.00000E+00
    0.00000E+00         0.00000E+00        -0.18118E+04
 
   -0.58546E+04         0.59661E+03         0.00000E+00
    0.59661E+03        -0.17469E+03         0.00000E+00
    0.00000E+00         0.00000E+00        -0.18088E+04
 
   -0.57703E+04         0.70940E+03         0.00000E+00
    0.70940E+03        -0.23733E+03         0.00000E+00
    0.00000E+00         0.00000E+00        -0.18023E+04
 
   -0.56633E+04         0.82449E+03         0.00000E+00
    0.82449E+03        -0.31014E+03         0.00000E+00
    0.00000E+00         0.00000E+00        -0.17920E+04
 
   -0.55333E+04         0.94081E+03         0.00000E+00
    0.94081E+03        -0.39302E+03         0.00000E+00
    0.00000E+00         0.00000E+00        -0.17779E+04
 
   -0.53799E+04         0.10573E+04         0.00000E+00
    0.10573E+04        -0.48576E+03         0.00000E+00
    0.00000E+00         0.00000E+00        -0.17597E+04
 
   -0.52032E+04         0.11731E+04         0.00000E+00
    0.11731E+04        -0.58805E+03         0.00000E+00
    0.00000E+00         0.00000E+00        -0.17374E+04
 
   -0.50030E+04         0.12874E+04         0.00000E+00
    0.12874E+04        -0.69952E+03         0.00000E+00
    0.00000E+00         0.00000E+00        -0.17108E+04
 
   -0.47795E+04         0.13993E+04         0.00000E+00
    0.13993E+04        -0.81976E+03         0.00000E+00
    0.00000E+00         0.00000E+00        -0.16798E+04
 
   -0.45329E+04         0.15082E+04         0.00000E+00
    0.15082E+04        -0.94831E+03         0.00000E+00
    0.00000E+00         0.00000E+00        -0.16444E+04
 
   -0.42632E+04         0.16134E+04         0.00000E+00
    0.16134E+04        -0.10847E+04         0.00000E+00
    0.00000E+00         0.00000E+00        -0.16044E+04
 
   -0.39707E+04         0.17145E+04         0.00000E+00
    0.17145E+04        -0.12286E+04         0.00000E+00
    0.00000E+00         0.00000E+00        -0.15598E+04
 
   -0.36557E+04         0.18108E+04         0.00000E+00
    0.18108E+04        -0.13796E+04         0.00000E+00
    0.00000E+00         0.00000E+00        -0.15106E+04
 
   -0.33183E+04         0.19018E+04         0.00000E+00
    0.19018E+04        -0.15373E+04         0.00000E+00
    0.00000E+00         0.00000E+00        -0.14567E+04
 
   -0.29587E+04         0.19867E+04         0.00000E+00
    0.19867E+04        -0.17015E+04         0.00000E+00
    0.00000E+00         0.00000E+00        -0.13980E+04
 
   -0.25772E+04         0.20649E+04         0.00000E+00
    0.20649E+04        -0.18717E+04         0.00000E+00
    0.00000E+00         0.00000E+00        -0.13347E+04
 
   -0.21739E+04         0.21354E+04         0.00000E+00
    0.21354E+04        -0.20478E+04         0.00000E+00
    0.00000E+00         0.00000E+00        -0.12665E+04
 
   -0.17494E+04         0.21973E+04         0.00000E+00
    0.21973E+04        -0.22295E+04         0.00000E+00
    0.00000E+00         0.00000E+00        -0.11937E+04
 
   -0.13041E+04         0.22494E+04         0.00000E+00
    0.22494E+04        -0.24165E+04         0.00000E+00
    0.00000E+00         0.00000E+00        -0.11162E+04
 
   -0.58682E+04         0.30084E+02         0.00000E+00
    0.30084E+02        -0.11952E+01         0.00000E+00
    0.00000E+00         0.00000E+00        -0.17608E+04
 
   -0.58901E+04         0.97362E+02         0.00000E+00
    0.97362E+02        -0.77424E+01         0.00000E+00
    0.00000E+00         0.00000E+00        -0.17694E+04
 
   -0.58973E+04         0.17314E+03         0.00000E+00
    0.17314E+03        -0.21655E+02         0.00000E+00
    0.00000E+00         0.00000E+00        -0.17757E+04
 
   -0.58880E+04         0.25642E+03         0.00000E+00
    0.25642E+03        -0.43667E+02         0.00000E+00
    0.00000E+00         0.00000E+00        -0.17795E+04
 
   -0.58609E+04         0.34616E+03         0.00000E+00
    0.34616E+03        -0.74372E+02         0.00000E+00
    0.00000E+00         0.00000E+00        -0.17806E+04
 
   -0.58147E+04         0.44131E+03         0.00000E+00
    0.44131E+03        -0.11423E+03         0.00000E+00
    0.00000E+00         0.00000E+00        -0.17787E+04
 
   -0.57484E+04         0.54083E+03         0.00000E+00
    0.54083E+03        -0.16357E+03         0.00000E+00
    0.00000E+00         0.00000E+00        -0.17736E+04
 
   -0.56612E+04         0.64366E+03         0.00000E+00
    0.64366E+03        -0.22258E+03         0.00000E+00
    0.00000E+00         0.00000E+00        -0.17651E+04
 
   -0.55524E+04         0.74882E+03         0.00000E+00
    0.74882E+03        -0.29134E+03         0.00000E+00
    0.00000E+00         0.00000E+00        -0.17531E+04
 
   -0.54216E+04         0.85531E+03         0.00000E+00
    0.85531E+03        -0.36982E+03         0.00000E+00
    0.00000E+00         0.00000E+00        -0.17374E+04
 
   -0.52684E+04         0.96224E+03         0.00000E+00
    0.96224E+03        -0.45787E+03         0.00000E+00
    0.00000E+00         0.00000E+00        -0.17179E+04
 
   -0.50927E+04         0.10687E+04         0.00000E+00
    0.10687E+04        -0.55527E+03         0.00000E+00
    0.00000E+00         0.00000E+00        -0.16944E+04
 
   -0.48943E+04         0.11740E+04         0.00000E+00
    0.11740E+04        -0.66174E+03         0.00000E+00
    0.00000E+00         0.00000E+00        -0.16668E+04
 
   -0.46732E+04         0.12774E+04         0.00000E+00
    0.12774E+04        -0.77693E+03         0.00000E+00
    0.00000E+00         0.00000E+00        -0.16350E+04
 
   -0.44297E+04         0.13781E+04         0.00000E+00
    0.13781E+04        -0.90047E+03         0.00000E+00
    0.00000E+00         0.00000E+00        -0.15990E+04
 
   -0.41637E+04         0.14757E+04         0.00000E+00
    0.14757E+04        -0.10320E+04         0.00000E+00
    0.00000E+00         0.00000E+00        -0.15587E+04
 
   -0.38755E+04         0.15694E+04         0.00000E+00
    0.15694E+04        -0.11711E+04         0.00000E+00
    0.00000E+00         0.00000E+00        -0.15140E+04
 
   -0.35654E+04         0.16587E+04         0.00000E+00
    0.16587E+04        -0.13175E+04         0.00000E+00
    0.00000E+00         0.00000E+00        -0.14649E+04
 
   -0.32335E+04         0.17430E+04         0.00000E+00
    0.17430E+04        -0.14707E+04         0.00000E+00
    0.00000E+00         0.00000E+00        -0.14113E+04
 
   -0.28801E+04         0.18216E+04         0.00000E+00
    0.18216E+04        -0.16305E+04         0.00000E+00
    0.00000E+00         0.00000E+00        -0.13532E+04
 
   -0.25056E+04         0.18938E+04         0.00000E+00
    0.18938E+04        -0.17965E+04         0.00000E+00
    0.00000E+00         0.00000E+00        -0.12906E+04
 
   -0.21104E+04         0.19586E+04         0.00000E+00
    0.19586E+04        -0.19684E+04         0.00000E+00
    0.00000E+00         0.00000E+00        -0.12236E+04
 
   -0.16949E+04         0.20152E+04         0.00000E+00
    0.20152E+04        -0.21458E+04         0.00000E+00
    0.00000E+00         0.00000E+00        -0.11522E+04
 
   -0.12598E+04         0.20623E+04         0.00000E+00
    0.20623E+04        -0.23282E+04         0.00000E+00
    0.00000E+00         0.00000E+00        -0.10764E+04
 
   -0.58087E+04         0.27075E+02         0.00000E+00
    0.27075E+02        -0.11139E+01         0.00000E+00
    0.00000E+00         0.00000E+00        -0.17429E+04
 
   -0.58221E+04         0.87631E+02         0.00000E+00
    0.87631E+02        -0.72296E+01         0.00000E+00
    0.00000E+00         0.00000E+00        -0.17488E+04
 
   -0.58216E+04         0.15589E+03         0.00000E+00
    0.15589E+03        -0.20257E+02         0.00000E+00
    0.00000E+00         0.00000E+00        -0.17526E+04
 
   -0.58056E+04         0.23099E+03         0.00000E+00
    0.23099E+03        -0.40919E+02         0.00000E+00
    0.00000E+00         0.00000E+00        -0.17540E+04
 
   -0.57728E+04         0.31202E+03         0.00000E+00
    0.31202E+03        -0.69808E+02         0.00000E+00
    0.00000E+00         0.00000E+00        -0.17528E+04
 
   -0.57219E+04         0.39806E+03         0.00000E+00
    0.39806E+03        -0.10739E+03         0.00000E+00
    0.00000E+00         0.00000E+00        -0.17488E+04
 
   -0.56518E+04         0.48820E+03         0.00000E+00
    0.48820E+03        -0.15401E+03         0.00000E+00
    0.00000E+00         0.00000E+00        -0.17418E+04
 
   -0.55619E+04         0.58150E+03         0.00000E+00
    0.58150E+03        -0.20990E+03         0.00000E+00
    0.00000E+00         0.00000E+00        -0.17315E+04
 
   -0.54513E+04         0.67708E+03         0.00000E+00
    0.67708E+03        -0.27518E+03         0.00000E+00
    0.00000E+00         0.00000E+00        -0.17179E+04
 
   -0.53195E+04         0.77406E+03         0.00000E+00
    0.77406E+03        -0.34986E+03         0.00000E+00
    0.00000E+00         0.00000E+00        -0.17008E+04
 
   -0.51663E+04         0.87162E+03         0.00000E+00
    0.87162E+03        -0.43386E+03         0.00000E+00
    0.00000E+00         0.00000E+00        -0.16800E+04
 
   -0.49912E+04         0.96898E+03         0.00000E+00
    0.96898E+03        -0.52703E+03         0.00000E+00
    0.00000E+00         0.00000E+00        -0.16555E+04
 
   -0.47942E+04         0.10654E+04         0.00000E+00
    0.10654E+04        -0.62915E+03         0.00000E+00
    0.00000E+00         0.00000E+00        -0.16270E+04
 
   -0.45753E+04         0.11602E+04         0.00000E+00
    0.11602E+04        -0.73993E+03         0.00000E+00
    0.00000E+00         0.00000E+00        -0.15946E+04
 
   -0.43344E+04         0.12528E+04         0.00000E+00
    0.12528E+04        -0.85908E+03         0.00000E+00
    0.00000E+00         0.00000E+00        -0.15581E+04
 
   -0.40718E+04         0.13425E+04         0.00000E+00
    0.13425E+04        -0.98627E+03         0.00000E+00
    0.00000E+00         0.00000E+00        -0.15174E+04
 
   -0.37876E+04         0.14288E+04         0.00000E+00
    0.14288E+04        -0.11211E+04         0.00000E+00
    0.00000E+00         0.00000E+00        -0.14726E+04
 
   -0.34820E+04         0.15110E+04         0.00000E+00
    0.15110E+04        -0.12634E+04         0.00000E+00
    0.00000E+00         0.00000E+00        -0.14236E+04
 
   -0.31553E+04         0.15885E+04         0.00000E+00
    0.15885E+04        -0.14125E+04         0.00000E+00
    0.00000E+00         0.00000E+00        -0.13703E+04
 
   -0.28078E+04         0.16607E+04         0.00000E+00
    0.16607E+04        -0.15684E+04         0.00000E+00
    0.00000E+00         0.00000E+00        -0.13128E+04
 
   -0.24399E+04         0.17268E+04         0.00000E+00
    0.17268E+04        -0.17304E+04         0.00000E+00
    0.00000E+00         0.00000E+00        -0.12511E+04
 
   -0.20523E+04         0.17860E+04         0.00000E+00
    0.17860E+04        -0.18983E+04         0.00000E+00
    0.00000E+00         0.00000E+00        -0.11852E+04
 
   -0.16454E+04         0.18373E+04         0.00000E+00
    0.18373E+04        -0.20716E+04         0.00000E+00
    0.00000E+00         0.00000E+00        -0.11151E+04
 
   -0.12200E+04         0.18798E+04         0.00000E+00
    0.18798E+04        -0.22497E+04         0.00000E+00
    0.00000E+00         0.00000E+00        -0.10409E+04
 
   -0.57553E+04         0.24257E+02         0.00000E+00
    0.24257E+02        -0.10467E+01         0.00000E+00
    0.00000E+00         0.00000E+00        -0.17269E+04
 
   -0.57610E+04         0.78499E+02         0.00000E+00
    0.78499E+02        -0.68025E+01         0.00000E+00
    0.00000E+00         0.00000E+00        -0.17303E+04
 
   -0.57536E+04         0.13967E+03         0.00000E+00
    0.13967E+03        -0.19085E+02         0.00000E+00
    0.00000E+00         0.00000E+00        -0.17318E+04
 
   -0.57315E+04         0.20702E+03         0.00000E+00
    0.20702E+03        -0.38602E+02         0.00000E+00
    0.00000E+00         0.00000E+00        -0.17310E+04
 
   -0.56934E+04         0.27977E+03         0.00000E+00
    0.27977E+03        -0.65943E+02         0.00000E+00
    0.00000E+00         0.00000E+00        -0.17278E+04
 
   -0.56381E+04         0.35713E+03         0.00000E+00
    0.35713E+03        -0.10158E+03         0.00000E+00
    0.00000E+00         0.00000E+00        -0.17219E+04
 
   -0.55646E+04         0.43828E+03         0.00000E+00
    0.43828E+03        -0.14588E+03         0.00000E+00
    0.00000E+00         0.00000E+00        -0.17131E+04
 
   -0.54720E+04         0.52241E+03         0.00000E+00
    0.52241E+03        -0.19910E+03         0.00000E+00
    0.00000E+00         0.00000E+00        -0.17013E+04
 
   -0.53596E+04         0.60873E+03         0.00000E+00
    0.60873E+03        -0.26138E+03         0.00000E+00
    0.00000E+00         0.00000E+00        -0.16863E+04
 
   -0.52268E+04         0.69646E+03         0.00000E+00
    0.69646E+03        -0.33280E+03         0.00000E+00
    0.00000E+00         0.00000E+00        -0.16679E+04
 
   -0.50733E+04         0.78486E+03         0.00000E+00
    0.78486E+03        -0.41331E+03         0.00000E+00
    0.00000E+00         0.00000E+00        -0.16460E+04
 
   -0.48987E+04         0.87322E+03         0.00000E+00
    0.87322E+03        -0.50283E+03         0.00000E+00
    0.00000E+00         0.00000E+00        -0.16204E+04
 
   -0.47028E+04         0.96088E+03         0.00000E+00
    0.96088E+03        -0.60118E+03         0.00000E+00
    0.00000E+00         0.00000E+00        -0.15912E+04
 
   -0.44857E+04         0.10472E+04         0.00000E+00
    0.10472E+04        -0.70813E+03         0.00000E+00
    0.00000E+00         0.00000E+00        -0.15581E+04
 
   -0.42473E+04         0.11316E+04         0.00000E+00
    0.11316E+04        -0.82344E+03         0.00000E+00
    0.00000E+00         0.00000E+00        -0.15212E+04
 
   -0.39876E+04         0.12134E+04         0.00000E+00
    0.12134E+04        -0.94680E+03         0.00000E+00
    0.00000E+00         0.00000E+00        -0.14803E+04
 
   -0.37070E+04         0.12921E+04         0.00000E+00
    0.12921E+04        -0.10779E+04         0.00000E+00
    0.00000E+00         0.00000E+00        -0.14355E+04
 
   -0.34055E+04         0.13671E+04         0.00000E+00
    0.13671E+04        -0.12164E+04         0.00000E+00
    0.00000E+00         0.00000E+00        -0.13866E+04
 
   -0.30836E+04         0.14378E+04         0.00000E+00
    0.14378E+04        -0.13619E+04         0.00000E+00
    0.00000E+00         0.00000E+00        -0.13337E+04
 
   -0.27417E+04         0.15035E+04         0.00000E+00
    0.15035E+04        -0.15141E+04         0.00000E+00
    0.00000E+00         0.00000E+00        -0.12767E+04
 
   -0.23801E+04         0.15636E+04         0.00000E+00
    0.15636E+04        -0.16725E+04         0.00000E+00
    0.00000E+00         0.00000E+00        -0.12158E+04
 
   -0.19996E+04         0.16172E+04         0.00000E+00
    0.16172E+04        -0.18366E+04         0.00000E+00
    0.00000E+00         0.00000E+00        -0.11509E+04
 
   -0.16007E+04         0.16635E+04         0.00000E+00
    0.16635E+04        -0.20061E+04         0.00000E+00
    0.00000E+00         0.00000E+00        -0.10820E+04
 
   -0.11845E+04         0.17015E+04         0.00000E+00
    0.17015E+04        -0.21802E+04         0.00000E+00
    0.00000E+00         0.00000E+00        -0.10094E+04
 
   -0.57075E+04         0.21598E+02         0.00000E+00
    0.21598E+02        -0.99205E+00         0.00000E+00
    0.00000E+00         0.00000E+00        -0.17126E+04
 
   -0.57064E+04         0.69868E+02         0.00000E+00
    0.69868E+02        -0.64512E+01         0.00000E+00
    0.00000E+00         0.00000E+00        -0.17138E+04
 
   -0.56928E+04         0.12431E+03         0.00000E+00
    0.12431E+03        -0.18113E+02         0.00000E+00
    0.00000E+00         0.00000E+00        -0.17133E+04
 
   -0.56652E+04         0.18428E+03         0.00000E+00
    0.18428E+03        -0.36670E+02         0.00000E+00
    0.00000E+00         0.00000E+00        -0.17106E+04
 
   -0.56223E+04         0.24914E+03         0.00000E+00
    0.24914E+03        -0.62704E+02         0.00000E+00
    0.00000E+00         0.00000E+00        -0.17055E+04
 
   -0.55630E+04         0.31817E+03         0.00000E+00
    0.31817E+03        -0.96696E+02         0.00000E+00
    0.00000E+00         0.00000E+00        -0.16979E+04
 
   -0.54863E+04         0.39067E+03         0.00000E+00
    0.39067E+03        -0.13902E+03         0.00000E+00
    0.00000E+00         0.00000E+00        -0.16876E+04
 
   -0.53911E+04         0.46594E+03         0.00000E+00
    0.46594E+03        -0.18996E+03         0.00000E+00
    0.00000E+00         0.00000E+00        -0.16743E+04
 
   -0.52770E+04         0.54328E+03         0.00000E+00
    0.54328E+03        -0.24969E+03         0.00000E+00
    0.00000E+00         0.00000E+00        -0.16580E+04
 
   -0.51432E+04         0.62199E+03         0.00000E+00
    0.62199E+03        -0.31831E+03         0.00000E+00
    0.00000E+00         0.00000E+00        -0.16384E+04
 
   -0.49893E+04         0.70141E+03         0.00000E+00
    0.70141E+03        -0.39584E+03         0.00000E+00
    0.00000E+00         0.00000E+00        -0.16155E+04
 
   -0.48150E+04         0.78092E+03         0.00000E+00
    0.78092E+03        -0.48222E+03         0.00000E+00
    0.00000E+00         0.00000E+00        -0.15892E+04
 
   -0.46201E+04         0.85989E+03         0.00000E+00
    0.85989E+03        -0.57731E+03         0.00000E+00
    0.00000E+00         0.00000E+00        -0.15592E+04
 
   -0.44045E+04         0.93774E+03         0.00000E+00
    0.93774E+03        -0.68095E+03         0.00000E+00
    0.00000E+00         0.00000E+00        -0.15256E+04
 
   -0.41681E+04         0.10139E+04         0.00000E+00
    0.10139E+04        -0.79290E+03         0.00000E+00
    0.00000E+00         0.00000E+00        -0.14883E+04
 
   -0.39112E+04         0.10878E+04         0.00000E+00
    0.10878E+04        -0.91291E+03         0.00000E+00
    0.00000E+00         0.00000E+00        -0.14472E+04
 
   -0.36337E+04         0.11590E+04         0.00000E+00
    0.11590E+04        -0.10407E+04         0.00000E+00
    0.00000E+00         0.00000E+00        -0.14023E+04
 
   -0.33361E+04         0.12267E+04         0.00000E+00
    0.12267E+04        -0.11758E+04         0.00000E+00
    0.00000E+00         0.00000E+00        -0.13536E+04
 
   -0.30187E+04         0.12906E+04         0.00000E+00
    0.12906E+04        -0.13180E+04         0.00000E+00
    0.00000E+00         0.00000E+00        -0.13010E+04
 
   -0.26818E+04         0.13499E+04         0.00000E+00
    0.13499E+04        -0.14669E+04         0.00000E+00
    0.00000E+00         0.00000E+00        -0.12446E+04
 
   -0.23261E+04         0.14039E+04         0.00000E+00
    0.14039E+04        -0.16220E+04         0.00000E+00
    0.00000E+00         0.00000E+00        -0.11844E+04
 
   -0.19521E+04         0.14520E+04         0.00000E+00
    0.14520E+04        -0.17828E+04         0.00000E+00
    0.00000E+00         0.00000E+00        -0.11205E+04
 
   -0.15608E+04         0.14934E+04         0.00000E+00
    0.14934E+04        -0.19487E+04         0.00000E+00
    0.00000E+00         0.00000E+00        -0.10528E+04
 
   -0.11530E+04         0.15271E+04         0.00000E+00
    0.15271E+04        -0.21191E+04         0.00000E+00
    0.00000E+00         0.00000E+00        -0.98165E+03
 
   -0.56652E+04         0.19066E+02         0.00000E+00
    0.19066E+02        -0.94813E+00         0.00000E+00
    0.00000E+00         0.00000E+00        -0.16999E+04
 
   -0.56580E+04         0.61647E+02         0.00000E+00
    0.61647E+02        -0.61660E+01         0.00000E+00
    0.00000E+00         0.00000E+00        -0.16993E+04
 
   -0.56389E+04         0.10966E+03         0.00000E+00
    0.10966E+03        -0.17317E+02         0.00000E+00
    0.00000E+00         0.00000E+00        -0.16969E+04
 
   -0.56064E+04         0.16259E+03         0.00000E+00
    0.16259E+03        -0.35076E+02         0.00000E+00
    0.00000E+00         0.00000E+00        -0.16924E+04
 
   -0.55592E+04         0.21985E+03         0.00000E+00
    0.21985E+03        -0.60018E+02         0.00000E+00
    0.00000E+00         0.00000E+00        -0.16858E+04
 
   -0.54963E+04         0.28087E+03         0.00000E+00
    0.28087E+03        -0.92626E+02         0.00000E+00
    0.00000E+00         0.00000E+00        -0.16767E+04
 
   -0.54165E+04         0.34503E+03         0.00000E+00
    0.34503E+03        -0.13329E+03         0.00000E+00
    0.00000E+00         0.00000E+00        -0.16649E+04
 
   -0.53191E+04         0.41171E+03         0.00000E+00
    0.41171E+03        -0.18230E+03         0.00000E+00
    0.00000E+00         0.00000E+00        -0.16504E+04
 
   -0.52033E+04         0.48030E+03         0.00000E+00
    0.48030E+03        -0.23987E+03         0.00000E+00
    0.00000E+00         0.00000E+00        -0.16329E+04
 
   -0.50684E+04         0.55019E+03         0.00000E+00
    0.55019E+03        -0.30612E+03         0.00000E+00
    0.00000E+00         0.00000E+00        -0.16124E+04
 
   -0.49141E+04         0.62081E+03         0.00000E+00
    0.62081E+03        -0.38110E+03         0.00000E+00
    0.00000E+00         0.00000E+00        -0.15886E+04
 
   -0.47400E+04         0.69158E+03         0.00000E+00
    0.69158E+03        -0.46479E+03         0.00000E+00
    0.00000E+00         0.00000E+00        -0.15614E+04
 
   -0.45458E+04         0.76195E+03         0.00000E+00
    0.76195E+03        -0.55709E+03         0.00000E+00
    0.00000E+00         0.00000E+00        -0.15309E+04
 
   -0.43315E+04         0.83139E+03         0.00000E+00
    0.83139E+03        -0.65787E+03         0.00000E+00
    0.00000E+00         0.00000E+00        -0.14968E+04
 
   -0.40970E+04         0.89938E+03         0.00000E+00
    0.89938E+03        -0.76692E+03         0.00000E+00
    0.00000E+00         0.00000E+00        -0.14592E+04
 
   -0.38424E+04         0.96540E+03         0.00000E+00
    0.96540E+03        -0.88400E+03         0.00000E+00
    0.00000E+00         0.00000E+00        -0.14179E+04
 
   -0.35679E+04         0.10289E+04         0.00000E+00
    0.10289E+04        -0.10088E+04         0.00000E+00
    0.00000E+00         0.00000E+00        -0.13730E+04
 
   -0.32738E+04         0.10895E+04         0.00000E+00
    0.10895E+04        -0.11410E+04         0.00000E+00
    0.00000E+00         0.00000E+00        -0.13244E+04
 
   -0.29603E+04         0.11465E+04         0.00000E+00
    0.11465E+04        -0.12803E+04         0.00000E+00
    0.00000E+00         0.00000E+00        -0.12722E+04
 
   -0.26281E+04         0.11993E+04         0.00000E+00
    0.11993E+04        -0.14262E+04         0.00000E+00
    0.00000E+00         0.00000E+00        -0.12163E+04
 
   -0.22777E+04         0.12475E+04         0.00000E+00
    0.12475E+04        -0.15783E+04         0.00000E+00
    0.00000E+00         0.00000E+00        -0.11568E+04
 
   -0.19098E+04         0.12902E+04         0.00000E+00
    0.12902E+04        -0.17360E+04         0.00000E+00
    0.00000E+00         0.00000E+00        -0.10937E+04
 
   -0.15254E+04         0.13268E+04         0.00000E+00
    0.13268E+04        -0.18987E+04         0.00000E+00
    0.00000E+00         0.00000E+00        -0.10272E+04
 
   -0.11253E+04         0.13564E+04         0.00000E+00
    0.13564E+04        -0.20658E+04         0.00000E+00
    0.00000E+00         0.00000E+00        -0.95734E+03
 
   -0.56281E+04         0.16637E+02         0.00000E+00
    0.16637E+02        -0.91333E+00         0.00000E+00
    0.00000E+00         0.00000E+00        -0.16887E+04
 
   -0.56156E+04         0.53761E+02         0.00000E+00
    0.53761E+02        -0.59373E+01         0.00000E+00
    0.00000E+00         0.00000E+00        -0.16865E+04
 
   -0.55916E+04         0.95609E+02         0.00000E+00
    0.95609E+02        -0.16673E+02         0.00000E+00
    0.00000E+00         0.00000E+00        -0.16825E+04
 
   -0.55548E+04         0.14175E+03         0.00000E+00
    0.14175E+03        -0.33776E+02         0.00000E+00
    0.00000E+00         0.00000E+00        -0.16766E+04
 
   -0.55038E+04         0.19170E+03         0.00000E+00
    0.19170E+03        -0.57815E+02         0.00000E+00
    0.00000E+00         0.00000E+00        -0.16685E+04
 
   -0.54376E+04         0.24497E+03         0.00000E+00
    0.24497E+03        -0.89273E+02         0.00000E+00
    0.00000E+00         0.00000E+00        -0.16581E+04
 
   -0.53552E+04         0.30103E+03         0.00000E+00
    0.30103E+03        -0.12854E+03         0.00000E+00
    0.00000E+00         0.00000E+00        -0.16451E+04
 
   -0.52556E+04         0.35935E+03         0.00000E+00
    0.35935E+03        -0.17594E+03         0.00000E+00
    0.00000E+00         0.00000E+00        -0.16295E+04
 
   -0.51383E+04         0.41940E+03         0.00000E+00
    0.41940E+03        -0.23169E+03         0.00000E+00
    0.00000E+00         0.00000E+00        -0.16110E+04
 
   -0.50024E+04         0.48067E+03         0.00000E+00
    0.48067E+03        -0.29594E+03         0.00000E+00
    0.00000E+00         0.00000E+00        -0.15895E+04
 
   -0.48477E+04         0.54263E+03         0.00000E+00
    0.54263E+03        -0.36877E+03         0.00000E+00
    0.00000E+00         0.00000E+00        -0.15649E+04
 
   -0.46737E+04         0.60478E+03         0.00000E+00
    0.60478E+03        -0.45018E+03         0.00000E+00
    0.00000E+00         0.00000E+00        -0.15372E+04
 
   -0.44801E+04         0.66664E+03         0.00000E+00
    0.66664E+03        -0.54011E+03         0.00000E+00
    0.00000E+00         0.00000E+00        -0.15061E+04
 
   -0.42669E+04         0.72773E+03         0.00000E+00
    0.72773E+03        -0.63844E+03         0.00000E+00
    0.00000E+00         0.00000E+00        -0.14716E+04
 
   -0.40340E+04         0.78757E+03         0.00000E+00
    0.78757E+03        -0.74499E+03         0.00000E+00
    0.00000E+00         0.00000E+00        -0.14337E+04
 
   -0.37815E+04         0.84571E+03         0.00000E+00
    0.84571E+03        -0.85954E+03         0.00000E+00
    0.00000E+00         0.00000E+00        -0.13923E+04
 
   -0.35095E+04         0.90168E+03         0.00000E+00
    0.90168E+03        -0.98181E+03         0.00000E+00
    0.00000E+00         0.00000E+00        -0.13474E+04
 
   -0.32185E+04         0.95499E+03         0.00000E+00
    0.95499E+03        -0.11115E+04         0.00000E+00
    0.00000E+00         0.00000E+00        -0.12990E+04
 
   -0.29086E+04         0.10051E+04         0.00000E+00
    0.10051E+04        -0.12482E+04         0.00000E+00
    0.00000E+00         0.00000E+00        -0.12470E+04
 
   -0.25806E+04         0.10516E+04         0.00000E+00
    0.10516E+04        -0.13914E+04         0.00000E+00
    0.00000E+00         0.00000E+00        -0.11916E+04
 
   -0.22350E+04         0.10939E+04         0.00000E+00
    0.10939E+04        -0.15408E+04         0.00000E+00
    0.00000E+00         0.00000E+00        -0.11328E+04
 
   -0.18726E+04         0.11313E+04         0.00000E+00
    0.11313E+04        -0.16958E+04         0.00000E+00
    0.00000E+00         0.00000E+00        -0.10705E+04
 
   -0.14943E+04         0.11632E+04         0.00000E+00
    0.11632E+04        -0.18556E+04         0.00000E+00
    0.00000E+00         0.00000E+00        -0.10050E+04
 
   -0.11012E+04         0.11890E+04         0.00000E+00
    0.11890E+04        -0.20197E+04         0.00000E+00
    0.00000E+00         0.00000E+00        -0.93628E+03
 
   -0.55959E+04         0.14289E+02         0.00000E+00
    0.14289E+02        -0.88619E+00         0.00000E+00
    0.00000E+00         0.00000E+00        -0.16790E+04
 
   -0.55789E+04         0.46143E+02         0.00000E+00
    0.46143E+02        -0.57566E+01         0.00000E+00
    0.00000E+00         0.00000E+00        -0.16754E+04
 
   -0.55507E+04         0.82036E+02         0.00000E+00
    0.82036E+02        -0.16159E+02         0.00000E+00
    0.00000E+00         0.00000E+00        -0.16701E+04
 
   -0.55101E+04         0.12161E+03         0.00000E+00
    0.12161E+03        -0.32731E+02         0.00000E+00
    0.00000E+00         0.00000E+00        -0.16628E+04
 
   -0.54558E+04         0.16448E+03         0.00000E+00
    0.16448E+03        -0.56032E+02         0.00000E+00
    0.00000E+00         0.00000E+00        -0.16536E+04
 
   -0.53868E+04         0.21023E+03         0.00000E+00
    0.21023E+03        -0.86544E+02         0.00000E+00
    0.00000E+00         0.00000E+00        -0.16420E+04
 
   -0.53020E+04         0.25840E+03         0.00000E+00
    0.25840E+03        -0.12467E+03         0.00000E+00
    0.00000E+00         0.00000E+00        -0.16280E+04
 
   -0.52005E+04         0.30856E+03         0.00000E+00
    0.30856E+03        -0.17073E+03         0.00000E+00
    0.00000E+00         0.00000E+00        -0.16114E+04
 
   -0.50818E+04         0.36026E+03         0.00000E+00
    0.36026E+03        -0.22496E+03         0.00000E+00
    0.00000E+00         0.00000E+00        -0.15920E+04
 
   -0.49450E+04         0.41305E+03         0.00000E+00
    0.41305E+03        -0.28755E+03         0.00000E+00
    0.00000E+00         0.00000E+00        -0.15698E+04
 
   -0.47898E+04         0.46648E+03         0.00000E+00
    0.46648E+03        -0.35858E+03         0.00000E+00
    0.00000E+00         0.00000E+00        -0.15445E+04
 
   -0.46158E+04         0.52012E+03         0.00000E+00
    0.52012E+03        -0.43807E+03         0.00000E+00
    0.00000E+00         0.00000E+00        -0.15162E+04
 
   -0.44228E+04         0.57355E+03         0.00000E+00
    0.57355E+03        -0.52600E+03         0.00000E+00
    0.00000E+00         0.00000E+00        -0.14846E+04
 
   -0.42105E+04         0.62634E+03         0.00000E+00
    0.62634E+03        -0.62226E+03         0.00000E+00
    0.00000E+00         0.00000E+00        -0.14498E+04
 
   -0.39789E+04         0.67809E+03         0.00000E+00
    0.67809E+03        -0.72670E+03         0.00000E+00
    0.00000E+00         0.00000E+00        -0.14117E+04
 
   -0.37282E+04         0.72838E+03         0.00000E+00
    0.72838E+03        -0.83909E+03         0.00000E+00
    0.00000E+00         0.00000E+00        -0.13702E+04
 
   -0.34585E+04         0.77679E+03         0.00000E+00
    0.77679E+03        -0.95917E+03         0.00000E+00
    0.00000E+00         0.00000E+00        -0.13253E+04
 
   -0.31702E+04         0.82290E+03         0.00000E+00
    0.82290E+03        -0.10866E+04         0.00000E+00
    0.00000E+00         0.00000E+00        -0.12770E+04
 
   -0.28635E+04         0.86626E+03         0.00000E+00
    0.86626E+03        -0.12211E+04         0.00000E+00
    0.00000E+00         0.00000E+00        -0.12254E+04
 
   -0.25392E+04         0.90641E+03         0.00000E+00
    0.90641E+03        -0.13621E+04         0.00000E+00
    0.00000E+00         0.00000E+00        -0.11704E+04
 
   -0.21979E+04         0.94285E+03         0.00000E+00
    0.94285E+03        -0.15091E+04         0.00000E+00
    0.00000E+00         0.00000E+00        -0.11121E+04
 
   -0.18403E+04         0.97505E+03         0.00000E+00
    0.97505E+03        -0.16616E+04         0.00000E+00
    0.00000E+00         0.00000E+00        -0.10506E+04
 
   -0.14675E+04         0.10025E+04         0.00000E+00
    0.10025E+04        -0.18189E+04         0.00000E+00
    0.00000E+00         0.00000E+00        -0.98592E+03
 
   -0.10805E+04         0.10245E+04         0.00000E+00
    0.10245E+04        -0.19803E+04         0.00000E+00
    0.00000E+00         0.00000E+00        -0.91826E+03
 
   -0.55686E+04         0.12003E+02         0.00000E+00
    0.12003E+02        -0.86538E+00         0.00000E+00
    0.00000E+00         0.00000E+00        -0.16708E+04
 
   -0.55477E+04         0.38738E+02         0.00000E+00
    0.38738E+02        -0.56162E+01         0.00000E+00
    0.00000E+00         0.00000E+00        -0.16660E+04
 
   -0.55160E+04         0.68847E+02         0.00000E+00
    0.68847E+02        -0.15755E+02         0.00000E+00
    0.00000E+00         0.00000E+00        -0.16595E+04
 
   -0.54721E+04         0.10205E+03         0.00000E+00
    0.10205E+03        -0.31903E+02         0.00000E+00
    0.00000E+00         0.00000E+00        -0.16512E+04
 
   -0.54150E+04         0.13802E+03         0.00000E+00
    0.13802E+03        -0.54611E+02         0.00000E+00
    0.00000E+00         0.00000E+00        -0.16409E+04
 
   -0.53435E+04         0.17643E+03         0.00000E+00
    0.17643E+03        -0.84358E+02         0.00000E+00
    0.00000E+00         0.00000E+00        -0.16284E+04
 
   -0.52567E+04         0.21690E+03         0.00000E+00
    0.21690E+03        -0.12155E+03         0.00000E+00
    0.00000E+00         0.00000E+00        -0.16135E+04
 
   -0.51536E+04         0.25907E+03         0.00000E+00
    0.25907E+03        -0.16652E+03         0.00000E+00
    0.00000E+00         0.00000E+00        -0.15960E+04
 
   -0.50336E+04         0.30256E+03         0.00000E+00
    0.30256E+03        -0.21952E+03         0.00000E+00
    0.00000E+00         0.00000E+00        -0.15759E+04
 
   -0.48961E+04         0.34701E+03         0.00000E+00
    0.34701E+03        -0.28073E+03         0.00000E+00
    0.00000E+00         0.00000E+00        -0.15530E+04
 
   -0.47405E+04         0.39202E+03         0.00000E+00
    0.39202E+03        -0.35028E+03         0.00000E+00
    0.00000E+00         0.00000E+00        -0.15272E+04
 
   -0.45665E+04         0.43725E+03         0.00000E+00
    0.43725E+03        -0.42820E+03         0.00000E+00
    0.00000E+00         0.00000E+00        -0.14984E+04
 
   -0.43738E+04         0.48232E+03         0.00000E+00
    0.48232E+03        -0.51447E+03         0.00000E+00
    0.00000E+00         0.00000E+00        -0.14665E+04
 
   -0.41622E+04         0.52688E+03         0.00000E+00
    0.52688E+03        -0.60901E+03         0.00000E+00
    0.00000E+00         0.00000E+00        -0.14314E+04
 
   -0.39318E+04         0.57057E+03         0.00000E+00
    0.57057E+03        -0.71167E+03         0.00000E+00
    0.00000E+00         0.00000E+00        -0.13931E+04
 
   -0.36827E+04         0.61304E+03         0.00000E+00
    0.61304E+03        -0.82225E+03         0.00000E+00
    0.00000E+00         0.00000E+00        -0.13515E+04
 
   -0.34149E+04         0.65393E+03         0.00000E+00
    0.65393E+03        -0.94049E+03         0.00000E+00
    0.00000E+00         0.00000E+00        -0.13066E+04
 
   -0.31289E+04         0.69286E+03         0.00000E+00
    0.69286E+03        -0.10661E+04         0.00000E+00
    0.00000E+00         0.00000E+00        -0.12585E+04
 
   -0.28250E+04         0.72946E+03         0.00000E+00
    0.72946E+03        -0.11986E+04         0.00000E+00
    0.00000E+00         0.00000E+00        -0.12071E+04
 
   -0.25039E+04         0.76333E+03         0.00000E+00
    0.76333E+03        -0.13376E+04         0.00000E+00
    0.00000E+00         0.00000E+00        -0.11525E+04
 
   -0.21662E+04         0.79403E+03         0.00000E+00
    0.79403E+03        -0.14826E+04         0.00000E+00
    0.00000E+00         0.00000E+00        -0.10947E+04
 
   -0.18128E+04         0.82111E+03         0.00000E+00
    0.82111E+03        -0.16331E+04         0.00000E+00
    0.00000E+00         0.00000E+00        -0.10338E+04
 
   -0.14447E+04         0.84410E+03         0.00000E+00
    0.84410E+03        -0.17882E+04         0.00000E+00
    0.00000E+00         0.00000E+00        -0.96988E+03
 
   -0.10631E+04         0.86249E+03         0.00000E+00
    0.86249E+03        -0.19473E+04         0.00000E+00
    0.00000E+00         0.00000E+00        -0.90312E+03
 
   -0.55460E+04         0.97649E+01         0.00000E+00
    0.97649E+01        -0.84978E+00         0.00000E+00
    0.00000E+00         0.00000E+00        -0.16640E+04
 
   -0.55219E+04         0.31496E+02         0.00000E+00
    0.31496E+02        -0.55094E+01         0.00000E+00
    0.00000E+00         0.00000E+00        -0.16582E+04
 
   -0.54873E+04         0.55959E+02         0.00000E+00
    0.55959E+02        -0.15445E+02         0.00000E+00
    0.00000E+00         0.00000E+00        -0.16508E+04
 
   -0.54408E+04         0.82932E+02         0.00000E+00
    0.82932E+02        -0.31262E+02         0.00000E+00
    0.00000E+00         0.00000E+00        -0.16416E+04
 
   -0.53813E+04         0.11217E+03         0.00000E+00
    0.11217E+03        -0.53502E+02         0.00000E+00
    0.00000E+00         0.00000E+00        -0.16304E+04
 
   -0.53077E+04         0.14339E+03         0.00000E+00
    0.14339E+03        -0.82645E+02         0.00000E+00
    0.00000E+00         0.00000E+00        -0.16171E+04
 
   -0.52192E+04         0.17631E+03         0.00000E+00
    0.17631E+03        -0.11910E+03         0.00000E+00
    0.00000E+00         0.00000E+00        -0.16015E+04
 
   -0.51147E+04         0.21063E+03         0.00000E+00
    0.21063E+03        -0.16319E+03         0.00000E+00
    0.00000E+00         0.00000E+00        -0.15834E+04
 
   -0.49937E+04         0.24604E+03         0.00000E+00
    0.24604E+03        -0.21520E+03         0.00000E+00
    0.00000E+00         0.00000E+00        -0.15627E+04
 
   -0.48554E+04         0.28225E+03         0.00000E+00
    0.28225E+03        -0.27532E+03         0.00000E+00
    0.00000E+00         0.00000E+00        -0.15392E+04
 
   -0.46995E+04         0.31895E+03         0.00000E+00
    0.31895E+03        -0.34367E+03         0.00000E+00
    0.00000E+00         0.00000E+00        -0.15129E+04
 
   -0.45254E+04         0.35584E+03         0.00000E+00
    0.35584E+03        -0.42032E+03         0.00000E+00
    0.00000E+00         0.00000E+00        -0.14837E+04
 
   -0.43330E+04         0.39262E+03         0.00000E+00
    0.39262E+03        -0.50524E+03         0.00000E+00
    0.00000E+00         0.00000E+00        -0.14515E+04
 
   -0.41221E+04         0.42899E+03         0.00000E+00
    0.42899E+03        -0.59839E+03         0.00000E+00
    0.00000E+00         0.00000E+00        -0.14161E+04
 
   -0.38927E+04         0.46467E+03         0.00000E+00
    0.46467E+03        -0.69960E+03         0.00000E+00
    0.00000E+00         0.00000E+00        -0.13777E+04
 
   -0.36448E+04         0.49936E+03         0.00000E+00
    0.49936E+03        -0.80871E+03         0.00000E+00
    0.00000E+00         0.00000E+00        -0.13360E+04
 
   -0.33786E+04         0.53276E+03         0.00000E+00
    0.53276E+03        -0.92543E+03         0.00000E+00
    0.00000E+00         0.00000E+00        -0.12912E+04
 
   -0.30945E+04         0.56456E+03         0.00000E+00
    0.56456E+03        -0.10495E+04         0.00000E+00
    0.00000E+00         0.00000E+00        -0.12432E+04
 
   -0.27930E+04         0.59444E+03         0.00000E+00
    0.59444E+03        -0.11804E+04         0.00000E+00
    0.00000E+00         0.00000E+00        -0.11920E+04
 
   -0.24745E+04         0.62206E+03         0.00000E+00
    0.62206E+03        -0.13178E+04         0.00000E+00
    0.00000E+00         0.00000E+00        -0.11377E+04
 
   -0.21399E+04         0.64709E+03         0.00000E+00
    0.64709E+03        -0.14611E+04         0.00000E+00
    0.00000E+00         0.00000E+00        -0.10803E+04
 
   -0.17901E+04         0.66914E+03         0.00000E+00
    0.66914E+03        -0.16098E+04         0.00000E+00
    0.00000E+00         0.00000E+00        -0.10200E+04
 
   -0.14259E+04         0.68781E+03         0.00000E+00
    0.68781E+03        -0.17631E+04         0.00000E+00
    0.00000E+00         0.00000E+00        -0.95672E+03
 
   -0.10487E+04         0.70269E+03         0.00000E+00
    0.70269E+03        -0.19203E+04         0.00000E+00
    0.00000E+00         0.00000E+00        -0.89071E+03
 
   -0.55280E+04         0.75623E+01         0.00000E+00
    0.75623E+01        -0.83843E+00         0.00000E+00
    0.00000E+00         0.00000E+00        -0.16586E+04
 
   -0.55014E+04         0.24380E+02         0.00000E+00
    0.24380E+02        -0.54306E+01         0.00000E+00
    0.00000E+00         0.00000E+00        -0.16520E+04
 
   -0.54644E+04         0.43302E+02         0.00000E+00
    0.43302E+02        -0.15214E+02         0.00000E+00
    0.00000E+00         0.00000E+00        -0.16439E+04
 
   -0.54158E+04         0.64165E+02         0.00000E+00
    0.64165E+02        -0.30780E+02         0.00000E+00
    0.00000E+00         0.00000E+00        -0.16340E+04
 
   -0.53545E+04         0.86780E+02         0.00000E+00
    0.86780E+02        -0.52666E+02         0.00000E+00
    0.00000E+00         0.00000E+00        -0.16221E+04
 
   -0.52793E+04         0.11094E+03         0.00000E+00
    0.11094E+03        -0.81345E+02         0.00000E+00
    0.00000E+00         0.00000E+00        -0.16082E+04
 
   -0.51893E+04         0.13642E+03         0.00000E+00
    0.13642E+03        -0.11723E+03         0.00000E+00
    0.00000E+00         0.00000E+00        -0.15920E+04
 
   -0.50838E+04         0.16300E+03         0.00000E+00
    0.16300E+03        -0.16065E+03         0.00000E+00
    0.00000E+00         0.00000E+00        -0.15733E+04
 
   -0.49619E+04         0.19044E+03         0.00000E+00
    0.19044E+03        -0.21190E+03         0.00000E+00
    0.00000E+00         0.00000E+00        -0.15521E+04
 
   -0.48231E+04         0.21851E+03         0.00000E+00
    0.21851E+03        -0.27116E+03         0.00000E+00
    0.00000E+00         0.00000E+00        -0.15283E+04
 
   -0.46668E+04         0.24697E+03         0.00000E+00
    0.24697E+03        -0.33859E+03         0.00000E+00
    0.00000E+00         0.00000E+00        -0.15016E+04
 
   -0.44927E+04         0.27559E+03         0.00000E+00
    0.27559E+03        -0.41424E+03         0.00000E+00
    0.00000E+00         0.00000E+00        -0.14721E+04
 
   -0.43005E+04         0.30414E+03         0.00000E+00
    0.30414E+03        -0.49812E+03         0.00000E+00
    0.00000E+00         0.00000E+00        -0.14396E+04
 
   -0.40901E+04         0.33238E+03         0.00000E+00
    0.33238E+03        -0.59016E+03         0.00000E+00
    0.00000E+00         0.00000E+00        -0.14041E+04
 
   -0.38614E+04         0.36008E+03         0.00000E+00
    0.36008E+03        -0.69025E+03         0.00000E+00
    0.00000E+00         0.00000E+00        -0.13655E+04
 
   -0.36145E+04         0.38702E+03         0.00000E+00
    0.38702E+03        -0.79818E+03         0.00000E+00
    0.00000E+00         0.00000E+00        -0.13238E+04
 
   -0.33496E+04         0.41296E+03         0.00000E+00
    0.41296E+03        -0.91371E+03         0.00000E+00
    0.00000E+00         0.00000E+00        -0.12790E+04
 
   -0.30671E+04         0.43765E+03         0.00000E+00
    0.43765E+03        -0.10365E+04         0.00000E+00
    0.00000E+00         0.00000E+00        -0.12311E+04
 
   -0.27674E+04         0.46085E+03         0.00000E+00
    0.46085E+03        -0.11662E+04         0.00000E+00
    0.00000E+00         0.00000E+00        -0.11801E+04
 
   -0.24511E+04         0.48229E+03         0.00000E+00
    0.48229E+03        -0.13023E+04         0.00000E+00
    0.00000E+00         0.00000E+00        -0.11260E+04
 
   -0.21190E+04         0.50169E+03         0.00000E+00
    0.50169E+03        -0.14443E+04         0.00000E+00
    0.00000E+00         0.00000E+00        -0.10690E+04
 
   -0.17720E+04         0.51876E+03         0.00000E+00
    0.51876E+03        -0.15916E+04         0.00000E+00
    0.00000E+00         0.00000E+00        -0.10091E+04
 
   -0.14110E+04         0.53320E+03         0.00000E+00
    0.53320E+03        -0.17434E+04         0.00000E+00
    0.00000E+00         0.00000E+00        -0.94633E+03
 
   -0.10374E+04         0.54468E+03         0.00000E+00
    0.54468E+03        -0.18990E+04         0.00000E+00
    0.00000E+00         0.00000E+00        -0.88093E+03
 
   -0.55145E+04         0.53850E+01         0.00000E+00
    0.53850E+01        -0.83057E+00         0.00000E+00
    0.00000E+00         0.00000E+00        -0.16546E+04
 
   -0.54861E+04         0.17353E+02         0.00000E+00
    0.17353E+02        -0.53754E+01         0.00000E+00
    0.00000E+00         0.00000E+00        -0.16474E+04
 
   -0.54474E+04         0.30815E+02         0.00000E+00
    0.30815E+02        -0.15050E+02         0.00000E+00
    0.00000E+00         0.00000E+00        -0.16387E+04
 
   -0.53972E+04         0.45656E+02         0.00000E+00
    0.45656E+02        -0.30437E+02         0.00000E+00
    0.00000E+00         0.00000E+00        -0.16283E+04
 
   -0.53344E+04         0.61745E+02         0.00000E+00
    0.61745E+02        -0.52067E+02         0.00000E+00
    0.00000E+00         0.00000E+00        -0.16159E+04
 
   -0.52580E+04         0.78937E+02         0.00000E+00
    0.78937E+02        -0.80412E+02         0.00000E+00
    0.00000E+00         0.00000E+00        -0.16015E+04
 
   -0.51670E+04         0.97076E+02         0.00000E+00
    0.97076E+02        -0.11588E+03         0.00000E+00
    0.00000E+00         0.00000E+00        -0.15849E+04
 
   -0.50606E+04         0.11600E+03         0.00000E+00
    0.11600E+03        -0.15882E+03         0.00000E+00
    0.00000E+00         0.00000E+00        -0.15658E+04
 
   -0.49381E+04         0.13555E+03         0.00000E+00
    0.13555E+03        -0.20950E+03         0.00000E+00
    0.00000E+00         0.00000E+00        -0.15443E+04
 
   -0.47988E+04         0.15554E+03         0.00000E+00
    0.15554E+03        -0.26815E+03         0.00000E+00
    0.00000E+00         0.00000E+00        -0.15201E+04
 
   -0.46423E+04         0.17583E+03         0.00000E+00
    0.17583E+03        -0.33489E+03         0.00000E+00
    0.00000E+00         0.00000E+00        -0.14932E+04
 
   -0.44682E+04         0.19623E+03         0.00000E+00
    0.19623E+03        -0.40981E+03         0.00000E+00
    0.00000E+00         0.00000E+00        -0.14634E+04
 
   -0.42762E+04         0.21659E+03         0.00000E+00
    0.21659E+03        -0.49292E+03         0.00000E+00
    0.00000E+00         0.00000E+00        -0.14307E+04
 
   -0.40661E+04         0.23673E+03         0.00000E+00
    0.23673E+03        -0.58416E+03         0.00000E+00
    0.00000E+00         0.00000E+00        -0.13951E+04
 
   -0.38379E+04         0.25650E+03         0.00000E+00
    0.25650E+03        -0.68340E+03         0.00000E+00
    0.00000E+00         0.00000E+00        -0.13564E+04
 
   -0.35918E+04         0.27572E+03         0.00000E+00
    0.27572E+03        -0.79047E+03         0.00000E+00
    0.00000E+00         0.00000E+00        -0.13147E+04
 
   -0.33279E+04         0.29422E+03         0.00000E+00
    0.29422E+03        -0.90511E+03         0.00000E+00
    0.00000E+00         0.00000E+00        -0.12699E+04
 
   -0.30466E+04         0.31184E+03         0.00000E+00
    0.31184E+03        -0.10270E+04         0.00000E+00
    0.00000E+00         0.00000E+00        -0.12221E+04
 
   -0.27483E+04         0.32838E+03         0.00000E+00
    0.32838E+03        -0.11557E+04         0.00000E+00
    0.00000E+00         0.00000E+00        -0.11712E+04
 
   -0.24336E+04         0.34367E+03         0.00000E+00
    0.34367E+03        -0.12909E+04         0.00000E+00
    0.00000E+00         0.00000E+00        -0.11173E+04
 
   -0.21034E+04         0.35749E+03         0.00000E+00
    0.35749E+03        -0.14318E+04         0.00000E+00
    0.00000E+00         0.00000E+00        -0.10606E+04
 
   -0.17585E+04         0.36965E+03         0.00000E+00
    0.36965E+03        -0.15781E+04         0.00000E+00
    0.00000E+00         0.00000E+00        -0.10010E+04
 
   -0.13999E+04         0.37992E+03         0.00000E+00
    0.37992E+03        -0.17288E+04         0.00000E+00
    0.00000E+00         0.00000E+00        -0.93861E+03
 
   -0.10290E+04         0.38806E+03         0.00000E+00
    0.38806E+03        -0.18833E+04         0.00000E+00
    0.00000E+00         0.00000E+00        -0.87367E+03
 
   -0.55056E+04         0.32246E+01         0.00000E+00
    0.32246E+01        -0.82565E+00         0.00000E+00
    0.00000E+00         0.00000E+00        -0.16519E+04
 
   -0.54759E+04         0.10388E+02         0.00000E+00
    0.10388E+02        -0.53405E+01         0.00000E+00
    0.00000E+00         0.00000E+00        -0.16444E+04
 
   -0.54361E+04         0.18444E+02         0.00000E+00
    0.18444E+02        -0.14946E+02         0.00000E+00
    0.00000E+00         0.00000E+00        -0.16353E+04
 
   -0.53848E+04         0.27325E+02         0.00000E+00
    0.27325E+02        -0.30218E+02         0.00000E+00
    0.00000E+00         0.00000E+00        -0.16245E+04
 
   -0.53211E+04         0.36953E+02         0.00000E+00
    0.36953E+02        -0.51682E+02         0.00000E+00
    0.00000E+00         0.00000E+00        -0.16118E+04
 
   -0.52439E+04         0.47242E+02         0.00000E+00
    0.47242E+02        -0.79809E+02         0.00000E+00
    0.00000E+00         0.00000E+00        -0.15971E+04
 
   -0.51522E+04         0.58100E+02         0.00000E+00
    0.58100E+02        -0.11501E+03         0.00000E+00
    0.00000E+00         0.00000E+00        -0.15802E+04
 
   -0.50452E+04         0.69430E+02         0.00000E+00
    0.69430E+02        -0.15763E+03         0.00000E+00
    0.00000E+00         0.00000E+00        -0.15609E+04
 
   -0.49223E+04         0.81135E+02         0.00000E+00
    0.81135E+02        -0.20795E+03         0.00000E+00
    0.00000E+00         0.00000E+00        -0.15391E+04
 
   -0.47827E+04         0.93114E+02         0.00000E+00
    0.93114E+02        -0.26618E+03         0.00000E+00
    0.00000E+00         0.00000E+00        -0.15147E+04
 
   -0.46260E+04         0.10527E+03         0.00000E+00
    0.10527E+03        -0.33248E+03         0.00000E+00
    0.00000E+00         0.00000E+00        -0.14876E+04
 
   -0.44519E+04         0.11749E+03         0.00000E+00
    0.11749E+03        -0.40692E+03         0.00000E+00
    0.00000E+00         0.00000E+00        -0.14576E+04
 
   -0.42600E+04         0.12969E+03         0.00000E+00
    0.12969E+03        -0.48952E+03         0.00000E+00
    0.00000E+00         0.00000E+00        -0.14248E+04
 
   -0.40501E+04         0.14177E+03         0.00000E+00
    0.14177E+03        -0.58023E+03         0.00000E+00
    0.00000E+00         0.00000E+00        -0.13891E+04
 
   -0.38223E+04         0.15362E+03         0.00000E+00
    0.15362E+03        -0.67892E+03         0.00000E+00
    0.00000E+00         0.00000E+00        -0.13504E+04
 
   -0.35767E+04         0.16514E+03         0.00000E+00
    0.16514E+03        -0.78541E+03         0.00000E+00
    0.00000E+00         0.00000E+00        -0.13086E+04
 
   -0.33134E+04         0.17624E+03         0.00000E+00
    0.17624E+03        -0.89946E+03         0.00000E+00
    0.00000E+00         0.00000E+00        -0.12639E+04
 
   -0.30329E+04         0.18680E+03         0.00000E+00
    0.18680E+03        -0.10207E+04         0.00000E+00
    0.00000E+00         0.00000E+00        -0.12161E+04
 
   -0.27355E+04         0.19671E+03         0.00000E+00
    0.19671E+03        -0.11488E+04         0.00000E+00
    0.00000E+00         0.00000E+00        -0.11653E+04
 
   -0.24220E+04         0.20587E+03         0.00000E+00
    0.20587E+03        -0.12833E+04         0.00000E+00
    0.00000E+00         0.00000E+00        -0.11116E+04
 
   -0.20930E+04         0.21415E+03         0.00000E+00
    0.21415E+03        -0.14236E+04         0.00000E+00
    0.00000E+00         0.00000E+00        -0.10550E+04
 
   -0.17495E+04         0.22143E+03         0.00000E+00
    0.22143E+03        -0.15692E+04         0.00000E+00
    0.00000E+00         0.00000E+00        -0.99559E+03
 
   -0.13925E+04         0.22757E+03         0.00000E+00
    0.22757E+03        -0.17192E+04         0.00000E+00
    0.00000E+00         0.00000E+00        -0.93351E+03
 
   -0.10234E+04         0.23244E+03         0.00000E+00
    0.23244E+03        -0.18729E+04         0.00000E+00
    0.00000E+00         0.00000E+00        -0.86888E+03
 
   -0.55011E+04         0.10738E+01         0.00000E+00
    0.10738E+01        -0.82328E+00         0.00000E+00
    0.00000E+00         0.00000E+00        -0.16506E+04
 
   -0.54709E+04         0.34590E+01         0.00000E+00
    0.34590E+01        -0.53236E+01         0.00000E+00
    0.00000E+00         0.00000E+00        -0.16429E+04
 
   -0.54304E+04         0.61406E+01         0.00000E+00
    0.61406E+01        -0.14895E+02         0.00000E+00
    0.00000E+00         0.00000E+00        -0.16336E+04
 
   -0.53787E+04         0.90968E+01         0.00000E+00
    0.90968E+01        -0.30111E+02         0.00000E+00
    0.00000E+00         0.00000E+00        -0.16226E+04
 
   -0.53145E+04         0.12302E+02         0.00000E+00
    0.12302E+02        -0.51494E+02         0.00000E+00
    0.00000E+00         0.00000E+00        -0.16098E+04
 
   -0.52368E+04         0.15727E+02         0.00000E+00
    0.15727E+02        -0.79514E+02         0.00000E+00
    0.00000E+00         0.00000E+00        -0.15949E+04
 
   -0.51448E+04         0.19343E+02         0.00000E+00
    0.19343E+02        -0.11458E+03         0.00000E+00
    0.00000E+00         0.00000E+00        -0.15778E+04
 
   -0.50375E+04         0.23115E+02         0.00000E+00
    0.23115E+02        -0.15704E+03         0.00000E+00
    0.00000E+00         0.00000E+00        -0.15584E+04
 
   -0.49144E+04         0.27013E+02         0.00000E+00
    0.27013E+02        -0.20718E+03         0.00000E+00
    0.00000E+00         0.00000E+00        -0.15365E+04
 
   -0.47747E+04         0.31003E+02         0.00000E+00
    0.31003E+02        -0.26522E+03         0.00000E+00
    0.00000E+00         0.00000E+00        -0.15120E+04
 
   -0.46179E+04         0.35051E+02         0.00000E+00
    0.35051E+02        -0.33130E+03         0.00000E+00
    0.00000E+00         0.00000E+00        -0.14848E+04
 
   -0.44437E+04         0.39123E+02         0.00000E+00
    0.39123E+02        -0.40550E+03         0.00000E+00
    0.00000E+00         0.00000E+00        -0.14548E+04
 
   -0.42519E+04         0.43188E+02         0.00000E+00
    0.43188E+02        -0.48785E+03         0.00000E+00
    0.00000E+00         0.00000E+00        -0.14219E+04
 
   -0.40421E+04         0.47211E+02         0.00000E+00
    0.47211E+02        -0.57829E+03         0.00000E+00
    0.00000E+00         0.00000E+00        -0.13861E+04
 
   -0.38145E+04         0.51159E+02         0.00000E+00
    0.51159E+02        -0.67670E+03         0.00000E+00
    0.00000E+00         0.00000E+00        -0.13474E+04
 
   -0.35692E+04         0.54999E+02         0.00000E+00
    0.54999E+02        -0.78291E+03         0.00000E+00
    0.00000E+00         0.00000E+00        -0.13056E+04
 
   -0.33062E+04         0.58695E+02         0.00000E+00
    0.58695E+02        -0.89666E+03         0.00000E+00
    0.00000E+00         0.00000E+00        -0.12609E+04
 
   -0.30260E+04         0.62214E+02         0.00000E+00
    0.62214E+02        -0.10176E+04         0.00000E+00
    0.00000E+00         0.00000E+00        -0.12131E+04
 
   -0.27291E+04         0.65518E+02         0.00000E+00
    0.65518E+02        -0.11454E+04         0.00000E+00
    0.00000E+00         0.00000E+00        -0.11624E+04
 
   -0.24161E+04         0.68569E+02         0.00000E+00
    0.68569E+02        -0.12796E+04         0.00000E+00
    0.00000E+00         0.00000E+00        -0.11087E+04
 
   -0.20878E+04         0.71327E+02         0.00000E+00
    0.71327E+02        -0.14196E+04         0.00000E+00
    0.00000E+00         0.00000E+00        -0.10522E+04
 
   -0.17450E+04         0.73750E+02         0.00000E+00
    0.73750E+02        -0.15647E+04         0.00000E+00
    0.00000E+00         0.00000E+00        -0.99292E+03
 
   -0.13889E+04         0.75794E+02         0.00000E+00
    0.75794E+02        -0.17144E+04         0.00000E+00
    0.00000E+00         0.00000E+00        -0.93097E+03
 
   -0.10206E+04         0.77413E+02         0.00000E+00
    0.77413E+02        -0.18677E+04         0.00000E+00
    0.00000E+00         0.00000E+00        -0.86649E+03
 
SCALARS stresss double 
LOOKUP_TABLE default
  -68946.3284073659     
  -67742.3782816390     
  -62348.4927774687     
  -55883.6438384251     
  -49578.4524050858     
  -43705.5834839603     
  -38353.3390967078     
  -33758.7621826056     
  -29767.6302774372     
  -26301.2412808941     
  -23322.7669498390     
  -20698.1090816254     
  -18330.9822583611     
  -16158.8313048191     
  -14176.8234540682     
  -12444.8509794866     
  -10913.1629896858     
  -9574.83671758169     
  -8368.64807373268     
  -7482.68857031146     
  -7777.38462652902     
  -8244.12372964139     
  -8732.57139789475     
  -9261.12743708987     
  -68516.0009353667     
  -63260.7682255476     
  -57758.1142742543     
  -52431.6604907949     
  -46903.7632855559     
  -41642.1575304104     
  -36879.8352266003     
  -32699.5808655567     
  -29032.0333024760     
  -25734.2535530875     
  -22840.9120820353     
  -20279.1011879021     
  -17971.9096076510     
  -15867.4587386073     
  -13979.0132451938     
  -12321.0521990534     
  -10827.1962561458     
  -9497.55904192406     
  -8313.28733237183     
  -7469.89738008838     
  -7777.61438354918     
  -8219.43539374410     
  -8690.54984009602     
  -9206.64258757111     
  -55134.8503102631     
  -50200.5025722464     
  -49008.4871073856     
  -45643.0845327082     
  -41890.6267632717     
  -37922.5606485396     
  -34109.5268041437     
  -30588.7401389895     
  -27384.8481274226     
  -24445.7391462522     
  -21752.3111238251     
  -19373.7015563961     
  -17267.1631497721     
  -15348.8813647077     
  -13612.0197753437     
  -12028.5003632611     
  -10606.1627381494     
  -9341.83768025415     
  -8201.43247176106     
  -7450.95476967521     
  -7766.32020995437     
  -8162.78800843130     
  -8602.91931146652     
  -9094.50418688020     
  -21960.6030429094     
  -37429.4236921880     
  -37398.7668949254     
  -36732.8004230173     
  -34839.3575388397     
  -32477.0118084758     
  -29871.9232043157     
  -27243.7204454771     
  -24738.6693994763     
  -22355.9527893816     
  -20155.0579051170     
  -18110.2117152339     
  -16248.0908683526     
  -14584.8478896185     
  -13070.1218061078     
  -11674.4112760627     
  -10351.0134011054     
  -9112.52797472153     
  -8011.52814915932     
  -7426.21971865983     
  -7717.24530219304     
  -8064.39220220771     
  -8464.69791680653     
  -8920.73649524430     
  -480.825868362428     
  -18872.0281522550     
  -25831.2700543105     
  -27385.5606985133     
  -27475.3758328761     
  -26571.6313816139     
  -25162.7168417589     
  -23499.2474656888     
  -21743.4287312427     
  -19974.9855529891     
  -18281.5594054634     
  -16671.1450180868     
  -15127.3833193226     
  -13713.5548016802     
  -12389.7219965140     
  -11140.1511958268     
  -9965.33469499226     
  -8816.36397359863     
  -7730.41398788383     
  -7369.65749895255     
  -7613.27207690369     
  -7916.10190995401     
  -8273.27666765858     
  -8684.01592049644     
  -503.873210752331     
  -12466.3425369113     
  -18796.3230041890     
  -21466.3937100815     
  -22216.9224565789     
  -22046.2527241471     
  -21310.0013461919     
  -20244.0406236634     
  -19012.7169091229     
  -17698.2003714369     
  -16361.6671873288     
  -15039.4324547413     
  -13819.3887534209     
  -12653.3987794827     
  -11509.0580472527     
  -10395.4750797289     
  -9346.36586806333     
  -8290.45138730730     
  -7322.81002246466     
  -7244.93047794562     
  -7449.28483354799     
  -7717.98159769279     
  -8030.71691200661     
  -8388.67310896446     
   449.488634691573     
  -8669.74049001145     
  -14600.7107869462     
  -16965.2324332217     
  -18150.4303577284     
  -18400.0670869996     
  -18087.8800038641     
  -17423.4794609836     
  -16564.8181012434     
  -15595.7614367620     
  -14546.3169412678     
  -13490.3133094187     
  -12466.8303718289     
  -11469.6677426835     
  -10521.7597912494     
  -9578.06457003597     
  -8627.25882760315     
  -7686.12459344604     
  -6911.66477185158     
  -7024.46085745526     
  -7240.11875869435     
  -7476.46620762405     
  -7744.90790259013     
  -8045.20817601765     
  -384.312091125118     
  -6224.21808440244     
  -10775.0125515626     
  -13615.2236446933     
  -14801.8104184488     
  -15247.8463105672     
  -15282.9097518355     
  -14923.5608751488     
  -14350.8699803809     
  -13621.5481689977     
  -12797.7748919913     
  -11936.1991985602     
  -11102.9734495126     
  -10289.0619175564     
  -9470.98559723466     
  -8662.22219925839     
  -7837.30442569704     
  -7010.42986943159     
  -6580.33478951316     
  -6799.88858850891     
  -6997.72482776028     
  -7204.51344793358     
  -7427.23450640967     
  -7668.46662393471     
  -1185.07962318856     
  -5047.24969568124     
  -8624.76641707886     
  -10835.7784106895     
  -12097.3328363660     
  -12626.5456037706     
  -12767.3138621839     
  -12622.0233697129     
  -12278.1637994570     
  -11749.5007100660     
  -11120.6260780925     
  -10453.5904403668     
  -9780.09262678227     
  -9090.71160880300     
  -8403.09367038162     
  -7729.97317373609     
  -7009.05595637108     
  -6363.15663810882     
  -6414.68296621700     
  -6577.47924453380     
  -6744.30158214911     
  -6913.62587438532     
  -7090.36320769436     
  -7274.01240951309     
  -1986.60551908925     
  -4600.12626707044     
  -6911.90195757493     
  -8720.60805140663     
  -9845.11436446368     
  -10450.4241977313     
  -10662.5473824197     
  -10614.4701609388     
  -10403.5454718173     
  -10039.2787264860     
  -9562.97010612113     
  -9040.53515713604     
  -8493.86598109123     
  -7951.82589149108     
  -7371.41366370080     
  -6790.87223685955     
  -6203.33079397215     
  -6140.46936111844     
  -6241.58578139223     
  -6360.44650048565     
  -6485.14285625572     
  -6614.12153293811     
  -6745.05788538444     
  -6875.18149238097     
  -2646.19423393851     
  -4367.12654860980     
  -5992.25825625384     
  -7305.07952039429     
  -8115.19995473099     
  -8609.70351924916     
  -8879.48705726700     
  -8903.71628654808     
  -8784.93478180478     
  -8504.36680919623     
  -8150.95383544489     
  -7754.70423043470     
  -7316.46694385142     
  -6827.65317824702     
  -6384.83233538241     
  -6015.19638268521     
  -5952.65089999519     
  -6001.91346160117     
  -6060.16100225111     
  -6137.15052130220     
  -6222.87368684825     
  -6311.67657894794     
  -6399.48380239474     
  -6481.50659112573     
  -3130.61986258196     
  -4283.62823227572     
  -5410.08751241166     
  -6350.94546663972     
  -7039.39584757020     
  -7337.35217916114     
  -7408.78930107196     
  -7450.14767025143     
  -7353.22900230602     
  -7149.86908084708     
  -6870.32484007925     
  -6548.59964185940     
  -6225.51803126380     
  -5998.60585370521     
  -5861.66774398511     
  -5837.16532472580     
  -5828.29243427946     
  -5831.12841200479     
  -5863.30652520481     
  -5906.79303694317     
  -5957.65484527273     
  -6010.06273827034     
  -6058.94048633721     
  -6098.98053750788     
  -3460.39688444687     
  -4241.04078414909     
  -5027.82985701851     
  -5719.29678056185     
  -6230.26954707598     
  -6542.37185716770     
  -6668.99470727333     
  -6573.84882160962     
  -6405.50314331079     
  -6229.99056889035     
  -6066.06165360194     
  -5923.79162085744     
  -5849.82207264994     
  -5787.19824150545     
  -5722.75628581052     
  -5672.76205918855     
  -5651.09884909847     
  -5645.73033434847     
  -5652.56883808458     
  -5669.83622622316     
  -5691.14536409951     
  -5711.81672094289     
  -5726.83663878285     
  -5730.97926981937     
  -3659.26111999017     
  -4199.99672389333     
  -4760.00088104628     
  -5266.32726157712     
  -5668.69287572987     
  -5939.90100489383     
  -6069.77846657079     
  -6086.73582245895     
  -6022.28824479380     
  -5923.51018256737     
  -5817.96796701563     
  -5725.61477086361     
  -5647.96265628974     
  -5586.44450287411     
  -5533.84455968941     
  -5491.40736309916     
  -5461.03645190226     
  -5442.82563293236     
  -5433.17661979300     
  -5428.56044142284     
  -5425.35812789988     
  -5419.11916852139     
  -5405.36959195130     
  -5379.31528505755     
  -3757.17083254886     
  -4144.54827291206     
  -4551.93614200043     
  -4931.79779912359     
  -5247.37570558463     
  -5476.34032995067     
  -5614.28432699935     
  -5669.75176918671     
  -5664.31165098406     
  -5620.52119031792     
  -5559.94942378273     
  -5495.78803558606     
  -5435.87073544108     
  -5381.85375084473     
  -5334.55735568611     
  -5293.68022246686     
  -5259.56577588309     
  -5231.56311156662     
  -5207.95780363734     
  -5186.00976872192     
  -5162.49395426271     
  -5133.83175023499     
  -5096.05552588038     
  -5044.93339929688     
  -3781.30708214717     
  -4070.73626458373     
  -4376.72571498567     
  -4667.77808154785     
  -4918.37572788749     
  -5112.38525049068     
  -5243.83153970576     
  -5316.71624974488     
  -5341.45011289083     
  -5332.04905102707     
  -5301.61359270436     
  -5260.75473222221     
  -5216.13291544434     
  -5171.62107231323     
  -5128.88651035423     
  -5088.73705503393     
  -5051.20064437520     
  -5015.71996513308     
  -4980.93869493081     
  -4944.80318571762     
  -4904.68764490793     
  -4857.54130790867     
  -4799.97547856274     
  -4728.30736938425     
  -3754.36706407618     
  -3981.04176194529     
  -4219.10132498844     
  -4448.07014241032     
  -4650.59530368221     
  -4814.76840565348     
  -4935.22657411405     
  -5012.67315810895     
  -5052.58340274784     
  -5062.93075052761     
  -5052.26839441223     
  -5027.99590495288     
  -4995.74227354440     
  -4959.19006944251     
  -4920.54358449054     
  -4880.86943896807     
  -4840.45136078766     
  -4798.86894304281     
  -4755.07317474254     
  -4707.42240211518     
  -4653.77193687949     
  -4591.56312848504     
  -4517.90230339971     
  -4429.62567678567     
  -3694.18004349509     
  -3879.92414719423     
  -4071.97506911976     
  -4257.19914016932     
  -4423.89863178650     
  -4563.52872815240     
  -4671.51559569304     
  -4747.24930295643     
  -4793.30471298581     
  -4814.30530352380     
  -4815.63650192919     
  -4802.45366953133     
  -4779.01763706167     
  -4748.48465680699     
  -4712.92431888176     
  -4673.49737216195     
  -4630.60176411464     
  -4583.99540681253     
  -4532.86332222084     
  -4475.88287039446     
  -4411.28636861565     
  -4336.93031262126     
  -4250.36119628894     
  -4148.87589649001     
  -3614.03724934119     
  -3772.18697767002     
  -3932.36153394206     
  -4086.22728364531     
  -4225.98863463665     
  -4345.59199753078     
  -4441.39909941983     
  -4512.29719136782     
  -4559.35534663677     
  -4585.16802252708     
  -4593.11292091231     
  -4586.67263116575     
  -4568.95945453772     
  -4542.44675749979     
  -4508.88959338741     
  -4469.34486526028     
  -4424.24082348577     
  -4373.44495093865     
  -4316.32680292497     
  -4251.81246588250     
  -4178.43970670926     
  -4094.41328590249     
  -3997.66036051093     
  -3885.88410060097     
  -3523.46912543226     
  -3662.03411443090     
  -3799.33687214485     
  -3930.13597025831     
  -4049.27521002539     
  -4152.52419936220     
  -4237.09345910108     
  -4301.80225120089     
  -4346.93832419532     
  -4373.90805730464     
  -4384.78734830573     
  -4381.88675131936     
  -4367.40052556403     
  -4343.17652241662     
  -4310.59553186467     
  -4270.53449491486     
  -4223.37630641159     
  -4169.04260580892     
  -4107.03340994703     
  -4036.46981743529     
  -3956.13803514612     
  -3864.53510163528     
  -3759.91535926831     
  -3640.33694946970     
  -3429.05231824373     
  -3552.77081639785     
  -3672.88862860305     
  -3786.12272432710     
  -3889.07696979185     
  -3978.81796153617     
  -4053.26018592160     
  -4111.33292260581     
  -4152.94734057100     
  -4178.81350631773     
  -4190.17572721075     
  -4188.53119856279     
  -4175.38361262355     
  -4152.05829395077     
  -4119.58523682001     
  -4078.63927252231     
  -4029.52160065746     
  -3972.16651916843     
  -3906.16259804204     
  -3830.78160320415     
  -3745.01221055288     
  -3647.59676973268     
  -3537.07010503611     
  -3411.79941924869     
  -3335.14854153472     
  -3446.79359152805     
  -3553.30033345367     
  -3652.60380260711     
  -3742.46149589256     
  -3820.84235460491     
  -3886.20611919703     
  -3937.64845556182     
  -3974.91567365781     
  -3998.31547212978     
  -4008.56218532382     
  -4006.59735736182     
  -3993.41910545884     
  -3969.94217955517     
  -3936.89744439970     
  -3894.76978923479     
  -3843.76742657439     
  -3783.81417337298     
  -3714.55716944556     
  -3635.38471758899     
  -3545.45074511287     
  -3443.70376319687     
  -3328.91888404500     
  -3199.73187194246     
  -3244.51241678411     
  -3345.70770157801     
  -3440.85571510747     
  -3528.63259840385     
  -3607.53829239035     
  -3676.15518885368     
  -3733.34596282870     
  -3778.36977717663     
  -3810.91451271316     
  -3831.05753234314     
  -3839.17684850235     
  -3835.83741466638     
  -3821.67480043902     
  -3797.29231748584     
  -3763.18046302475     
  -3719.66104398398     
  -3666.85402159636     
  -3604.66293686064     
  -3532.77445943766     
  -3450.66819818931     
  -3357.63386836200     
  -3252.79372973483     
  -3135.12882747040     
  -3003.50796393700     
  -3158.76487011464     
  -3250.48528248941     
  -3335.71731597422     
  -3413.57558981622     
  -3483.02779031004     
  -3543.06383858834     
  -3592.83279019824     
  -3631.73100759031     
  -3659.43680020580     
  -3675.89671600844     
  -3681.27542292272     
  -3675.88412419305     
  -3660.10196032524     
  -3634.30194272960     
  -3598.78887841138     
  -3553.75275938924     
  -3499.23795892715     
  -3435.12666622795     
  -3361.13415257231     
  -3276.81339729678     
  -3181.56691657480     
  -3074.66407745776     
  -2955.26258181697     
  -2822.43313383788     
  -3078.74800857809     
  -3161.62064667624     
  -3237.89622345955     
  -3306.93910979751     
  -3368.00424364163     
  -3420.34564425978     
  -3463.30900498267     
  -3496.39583057720     
  -3519.29391285670     
  -3531.87554344692     
  -3534.16971638794     
  -3526.31717574299     
  -3508.51759859650     
  -3480.97695631995     
  -3443.86090433589     
  -3397.25761994636     
  -3341.15139566628     
  -3275.40677646064     
  -3199.76215553393     
  -3113.83138884753     
  -3017.11197840076     
  -2908.99853759038     
  -2788.80047784192     
  -2655.76308363836     
  -3004.78399455551     
  -3079.26466012263     
  -3147.26463081804     
  -3208.28291990389     
  -3261.74531792532     
  -3307.07232386202     
  -3343.74022367708     
  -3371.32604873638     
  -3389.53169812374     
  -3398.18684949521     
  -3397.23369564785     
  -3386.69864555942     
  -3366.65687038613     
  -3337.19519005578     
  -3298.37767409999     
  -3250.21690075027     
  -3192.65243360715     
  -3125.53696196517     
  -3048.62979334463     
  -2961.59696623342     
  -2864.01708813029     
  -2755.39200850241     
  -2635.16153192600     
  -2502.72151505833     
  -2936.85999092925     
  -3003.33304366012     
  -3063.58514013125     
  -3117.18185749538     
  -3163.64648888090     
  -3202.50118491918     
  -3233.30606230656     
  -3255.68957394520     
  -3269.36623404810     
  -3274.14061581214     
  -3269.89890466089     
  -3256.59090203739     
  -3234.20614718689     
  -3202.74784752373     
  -3162.20778931842     
  -3112.54458821334     
  -3053.66676120827     
  -2985.42132153841     
  -2907.58800249388     
  -2819.87882497854     
  -2721.94251194116     
  -2613.37317607383     
  -2493.72272052895     
  -2362.51646082277     
  -2874.75795399434     
  -2933.58968620402     
  -2986.54343013806     
  -3033.21289342905     
  -3073.17404435645     
  -3106.00884605258     
  -3131.32934566770     
  -3148.79735113009     
  -3158.13662807214     
  -3159.13637059761     
  -3151.64631655761     
  -3135.56507403962     
  -3110.82390921399     
  -3077.36843886714     
  -3035.14047712211     
  -2984.06184777203     
  -2924.02143373558     
  -2854.86620765760     
  -2776.39654519106     
  -2688.36579680454     
  -2590.48388548882     
  -2482.42458882049     
  -2363.83613029690     
  -2234.35472409621     
  -2818.14415027758     
  -2869.70851379443     
  -2915.77808342112     
  -2955.95462416603     
  -2989.84056177025     
  -3017.05163118688     
  -3037.23091384178     
  -3050.06092498667     
  -3055.27142987766     
  -3052.64183025457     
  -3041.99805472775     
  -3023.20475205606     
  -2996.15414392479     
  -2960.75313496831     
  -2916.91024956960     
  -2864.52374667101     
  -2803.47194299875     
  -2733.60642868626     
  -2654.74854291811     
  -2566.68922241021     
  -2469.19215303748     
  -2362.00004104813     
  -2244.84376379670     
  -2117.45414721300     
  -2766.62969889757     
  -2811.31804427139     
  -2850.90520360427     
  -2884.99201631557     
  -2913.19305950795     
  -2935.14243011854     
  -2950.50122410505     
  -2958.96440774999     
  -2960.26537338211     
  -2954.17720611394     
  -2940.51041738896     
  -2919.10751506193     
  -2889.83521259288     
  -2852.57531147657     
  -2807.21533878168     
  -2753.63992783643     
  -2691.72374713954     
  -2621.32656096310     
  -2542.29078515565     
  -2454.44171000862     
  -2357.59041209917     
  -2251.53927166371     
  -2136.08994732986     
  -2011.05362840583     
  -2719.81051104955     
  -2758.03249131331     
  -2791.53739750595     
  -2819.92260672677     
  -2842.80797052352     
  -2859.83751739067     
  -2870.68279522049     
  -2875.04628621388     
  -2872.66366786676     
  -2863.30415130243     
  -2846.76860950785     
  -2822.88563638520     
  -2791.50600217349     
  -2752.49616936268     
  -2705.73160852970     
  -2651.09062651437     
  -2588.44932055996     
  -2517.67813370468     
  -2438.64033692080     
  -2351.19262299163     
  -2255.18787845509     
  -2150.48010843681     
  -2036.93142467877     
  -1914.42096577122     
  -2677.29272912924     
  -2709.47270159003     
  -2737.29759407832     
  -2760.36229746568     
  -2778.28952158720     
  -2790.72923467509     
  -2797.35952201254     
  -2797.88781624366     
  -2792.05163868731     
  -2779.61827147650     
  -2760.38309406659     
  -2734.16661204534     
  -2700.81044335720     
  -2660.17268665340     
  -2612.12317469218     
  -2556.53912166220     
  -2493.30162406360     
  -2422.29339040590     
  -2343.39797444301     
  -2256.50068524461     
  -2161.49125554358     
  -2058.26827313023     
  -1946.74532013069     
  -1826.85872026798     
  -2638.70806789513     
  -2665.27957231963     
  -2687.82851328381     
  -2705.94996039061     
  -2719.26958513842     
  -2727.44200104771     
  -2730.15024781557     
  -2727.10573472264     
  -2718.04805407458     
  -2702.74424346730     
  -2680.98727721083     
  -2652.59376658002     
  -2617.40101808492     
  -2575.26372172181     
  -2526.05061099629     
  -2469.64145622101     
  -2405.92473119429     
  -2334.79624295913     
  -2256.15894737753     
  -2169.92410056565     
  -2076.01382591666     
  -1974.36511350443     
  -1864.93521523697     
  -1747.70835492415     
  -2603.72221090759     
  -2625.12201502313     
  -2642.79865961052     
  -2656.35063909429     
  -2665.40796078474     
  -2669.63011299684     
  -2668.70490356902     
  -2662.34773457050     
  -2650.30092163236     
  -2632.33276371059     
  -2608.23619624486     
  -2577.82699351156     
  -2540.94160472468     
  -2497.43479974177     
  -2447.17735760993     
  -2390.05405433154     
  -2325.96219944549     
  -2254.81094133459     
  -2176.52151653395     
  -2091.02856616592     
  -1998.28258895544     
  -1898.25354917908     
  -1790.93561150883     
  -1676.35293339593     
  -2572.03850846717     
  -2588.70104260733     
  -2601.90564752681     
  -2611.25742140489     
  -2616.39256725707     
  -2616.97642683340     
  -2612.70213891403     
  -2603.28965893370     
  -2588.48488989102     
  -2568.05872810548     
  -2541.80590569807     
  -2509.54359856205     
  -2471.10985010764     
  -2426.36192700910     
  -2375.17476772455     
  -2317.43970602175     
  -2253.06365178992     
  -2181.96889392457     
  -2104.09365996310     
  -2019.39352939263     
  -1927.84375643333     
  -1829.44251679182     
  -1724.21505328704     
  -1612.21865805289     
  -2543.39856938272     
  -2555.75116484332     
  -2564.87754938424     
  -2570.39218047393     
  -2571.93932562226     
  -2569.19140976302     
  -2561.84777830444     
  -2549.63372815243     
  -2532.29965634178     
  -2509.62020288555     
  -2481.39331105930     
  -2447.43918385947     
  -2407.59917007656     
  -2361.73465971313     
  -2309.72610148848     
  -2251.47227280392     
  -2186.88993505423     
  -2115.91399653341     
  -2038.49828434317     
  -1954.61699890471     
  -1864.26689288529     
  -1767.47018296079     
  -1664.27816943977     
  -1554.77550616955     
  -2517.58086955194     
  -2526.03997155855     
  -2531.47283006758     
  -2533.50542085279     
  -2531.79167957055     
  -2526.01228726587     
  -2515.87370114293     
  -2501.10735940950     
  -2481.46897881827     
  -2456.73787471115     
  -2426.71625967546     
  -2391.22851128688     
  -2350.12043511293     
  -2303.25858063715     
  -2250.52969116628     
  -2191.84038203830     
  -2127.11714414200     
  -2056.30676274919     
  -1979.37722663629     
  -1896.31918148913     
  -1807.14795668168     
  -1711.90616744611     
  -1610.66686650301     
  -1503.53719119848     
  -2494.39816442443     
  -2499.36654885135     
  -2501.47931554465     
  -2500.37546042721     
  -2495.71978351735     
  -2487.20215908564     
  -2474.53691589287     
  -2457.46230595191     
  -2435.74002722934     
  -2409.15476787297     
  -2377.51375308268     
  -2340.64629602669     
  -2298.40337664156     
  -2250.65729274850     
  -2197.30144369167     
  -2138.25031584112     
  -2073.43974111874     
  -2002.82749444826     
  -1926.39428460979     
  -1844.14517667001     
  -1756.11146433489     
  -1662.35298850286     
  -1562.96087501690     
  -1458.06064087564     
  -2473.69425256666     
  -2475.55919689441     
  -2474.71254157377     
  -2470.80715355941     
  -2463.51942771584     
  -2452.54903999328     
  -2437.61870591683     
  -2418.47395407052     
  -2394.88291095073     
  -2366.63609090259     
  -2333.54619053806     
  -2295.44789809418     
  -2252.19774150837     
  -2203.67401173156     
  -2149.77680772941     
  -2090.42825524041     
  -2025.57295193151     
  -1955.17868705364     
  -1879.23747449867     
  -1797.76692506683     
  -1710.81196768854     
  -1618.44691122645     
  -1520.77781913118     
  -1417.94514931739     
  -2455.34046673227     
  -2454.47278576334     
  -2451.01374568856     
  -2444.63032831215     
  -2435.01078196455     
  -2421.86482767215     
  -2404.92379109798     
  -2383.94068874636     
  -2358.69028463441     
  -2328.96912866772     
  -2294.59558898086     
  -2255.40989563503     
  -2211.27422021807     
  -2162.07282308588     
  -2107.71230556808     
  -2048.12200725261     
  -1983.25458778699     
  -1913.08682828930     
  -1837.62067963363     
  -1756.88457402210     
  -1670.93500299152     
  -1579.85834999615     
  -1483.77294961000     
  -1382.83132879770     
  -2439.23214762173     
  -2435.98598781191     
  -2430.24769906909     
  -2421.69807796266     
  -2410.03703802089     
  -2394.98422332678     
  -2376.27948865652     
  -2353.68328521961     
  -2326.97698035021     
  -2295.96313370267     
  -2260.46575089568     
  -2220.33053696233     
  -2175.42517502599     
  -2125.63965896622     
  -2070.88671127587     
  -2011.10231793152     
  -1946.24641033736     
  -1876.30372001542     
  -1801.28482475376     
  -1721.22739565536     
  -1636.19764336985     
  -1546.29194922989     
  -1451.63865357324     
  -1352.39995972542     
  -2425.28526995109     
  -2419.99855317937     
  -2412.30052284705     
  -2401.88501736666     
  -2388.46302266783     
  -2371.76364027534     
  -2351.53487867617     
  -2327.54431228071     
  -2299.57964329424     
  -2267.44919600603     
  -2230.98237002359     
  -2190.03007813568     
  -2144.46519489423     
  -2094.18304273633     
  -2039.10194267952     
  -1979.16385564218     
  -1914.33513781042     
  -1844.60742896812     
  -1769.99868631054     
  -1690.55436813558     
  -1606.34876223493     
  -1517.48644316251     
  -1424.10383125645     
  -1326.37081477542     
  -2413.43333054286     
  -2406.42874266253     
  -2397.07759336284     
  -2385.08558935668     
  -2370.17384263152     
  -2352.08013768532     
  -2330.55999110801     
  -2305.38754977337     
  -2276.35636654957     
  -2243.28008702150     
  -2205.99307712801     
  -2164.35101946001     
  -2118.23150469447     
  -2067.53464363442     
  -2012.18372400583     
  -1952.12593403568     
  -1887.33317155596     
  -1817.80295275257     
  -1743.55942867097     
  -1664.65451029902     
  -1581.16909467997     
  -1493.21437535097     
  -1400.93321079668     
  -1304.50151492933     
  -2403.62456672521     
  -2395.21099452063     
  -2384.50161060562     
  -2371.21248546438     
  -2355.07361145242     
  -2335.83041434540     
  -2313.24503560725     
  -2287.09743172509     
  -2257.18633102321     
  -2223.33008350603     
  -2185.36743550667     
  -2143.15825804624     
  -2096.58425550774     
  -2045.54967910407     
  -1989.98206727274     
  -1929.83303221398     
  -1865.07910804810     
  -1795.72267135068     
  -1721.79293909460     
  -1643.34704235340     
  -1560.47116665941     
  -1473.28174189142     
  -1381.92665627487     
  -1286.58646083470     
  -2395.81954521057     
  -2386.29387507957     
  -2374.51088151690     
  -2360.19522853700     
  -2343.08429811306     
  -2322.92989309720     
  -2299.49969618687     
  -2272.57853045328     
  -2241.96946217040     
  -2207.49478237658     
  -2168.99689986494     
  -2126.33917506755     
  -2079.40672139375     
  -2028.10719775572     
  -1972.37161300169     
  -1912.15515953719     
  -1847.43808936274     
  -1778.22664098095     
  -1704.55402010025     
  -1626.48143083847     
  -1544.09914733808     
  -1457.52760853537     
  -1366.91851152099     
  -1272.45587176875     
  -2389.98914309027     
  -2379.63834444490     
  -2367.05785332913     
  -2351.97895173747     
  -2334.14472820605     
  -2313.31192153749     
  -2289.25251105364     
  -2261.75509779554     
  -2230.62611718460     
  -2195.69091982433     
  -2156.79475350490     
  -2113.80367608536     
  -2066.60542568540     
  -2015.11027137130     
  -1959.25186409448     
  -1898.98810387008     
  -1834.30203493361     
  -1765.20277580771     
  -1691.72648583065     
  -1613.93736379269     
  -1531.92866800711     
  -1445.82374057588     
  -1355.77701200836     
  -1261.97495596194     
  -2386.11293091390     
  -2375.21635607804     
  -2362.10792024875     
  -2346.52339836834     
  -2328.20976080361     
  -2306.92710953026     
  -2282.45035518977     
  -2254.57067850011     
  -2223.09681617543     
  -2187.85620801174     
  -2148.69603829721     
  -2105.48420126253     
  -2058.11021686974     
  -2006.48611975842     
  -1950.54734050612     
  -1890.25359439683     
  -1825.58978852883     
  -1756.56695327314     
  -1683.22319880945     
  -1605.62469176413     
  -1523.86664095775     
  -1438.07427508900     
  -1348.40378903053     
  -1255.04322951889     
  -2384.17796103655     
  -2373.00980081077     
  -2359.63851843468     
  -2343.80215933905     
  -2325.24965787327     
  -2303.74281927485     
  -2279.05803988741     
  -2250.98780858085     
  -2219.34202928871     
  -2183.94920125547     
  -2144.65749015662     
  -2101.33571979808     
  -2053.87431061213     
  -2002.18618758446     
  -1946.20767647914     
  -1885.89940317805     
  -1821.24720653697     
  -1752.26307033660     
  -1678.98607466946     
  -1601.48336150105     
  -1519.85110327415     
  -1434.21545743227     
  -1344.73348380795     
  -1251.59399616908     
SCALARS 2waySource double 
LOOKUP_TABLE default
  1.093143317708999E-018
  5.977014343192878E-019
  4.285060341294293E-018
 -2.217592364302602E-018
  7.373905786686696E-019
 -6.577511892436494E-019
  3.380580254186293E-018
 -4.088586381103987E-018
  5.137012595475312E-018
 -3.089017046944517E-018
  1.637527882086641E-018
 -9.399569981304831E-019
  2.411910635279743E-019
  1.522368681251107E-018
  1.616102771228436E-019
  5.590767902531270E-019
  3.776152687939140E-019
 -8.079927825943335E-019
 -5.825717895484267E-020
  6.449687453774562E-019
  9.135758756272294E-020
  3.035294163371194E-020
  1.712371366294413E-019
  1.075943784501050E-019
  6.677381342073364E-018
 -7.186757819587648E-019
  4.233290140118297E-018
 -3.592504072003075E-018
  2.797453839702728E-018
  2.550084516127166E-019
 -3.629230429184261E-019
 -1.518623422884259E-018
  4.737855009783423E-018
 -7.742655471533383E-019
  1.435281675480430E-018
 -1.077576254042768E-018
  5.895390866106820E-019
 -8.250165067426355E-019
 -3.765803245753667E-019
  3.260480744337566E-019
  8.485701090578176E-020
 -5.548355099710227E-019
  1.716238038208539E-020
  2.421967062365794E-019
  1.386542001308342E-019
  3.562916613436252E-020
 -5.450406927206982E-020
  1.075943784501050E-019
  8.000288436518344E-018
  1.053089210916958E-018
 -3.835210399032978E-018
  3.883950073205093E-018
  1.658195361193872E-018
  6.164162310291920E-019
  1.069413906334166E-018
 -1.847264605426541E-019
  8.255125286578893E-019
  2.509592990439768E-018
  6.529878166883672E-021
  2.634910121769271E-019
 -4.648623809923916E-019
  1.020994445017683E-019
  9.070459974603449E-019
  3.014595279000264E-019
 -2.698021808961231E-019
  6.879947761535200E-019
  2.902001988517081E-019
  1.537759935857687E-019
 -3.288169916019420E-020
 -1.096056638673137E-020
 -3.009265538105056E-036
  1.136868377216160E-019
 -6.376773098016361E-019
  1.486848869840582E-018
  6.775438305601368E-019
  2.242837039179401E-018
 -9.167822116907869E-019
  4.421250134480663E-019
  9.045972931477650E-019
 -2.350431417629497E-018
  8.980674149808818E-019
 -3.146207876417120E-019
  5.862741475272394E-019
  2.937345990867948E-019
 -4.547473508864624E-020
  9.103109365437895E-019
  1.555178178513323E-019
 -9.492557934655505E-019
 -7.289080181044594E-020
 -1.847264605426547E-019
  5.310631982081539E-019
  7.207456703958552E-021
 -5.836653367868573E-020
 -5.298095445419214E-020
  9.927192431369883E-020
  8.262701604088669E-020
 -2.238814468344975E-018
  1.954976189916418E-019
  1.679737678091846E-018
 -9.094947017729316E-020
 -5.911715561524042E-019
  2.479130694082205E-018
  2.550607735798608E-018
 -1.261982501729822E-018
  1.620008136023083E-018
  2.440185837160449E-018
  5.456968210637556E-019
 -1.437117151837987E-019
  6.317488826158853E-019
  0.000000000000000E+000
  7.735079154023586E-020
 -2.079012469823503E-019
 -3.796265542111230E-019
  5.036471314863528E-019
  1.153193072633368E-019
  2.095044150141294E-019
  3.035294163371197E-020
  2.720321757610180E-019
  2.641178390100422E-019
  1.106406080858604E-019
  3.012701199622831E-018
  1.409468776790410E-018
  4.279288094878392E-019
 -1.818989403545860E-018
 -2.476740592789508E-018
 -3.631448928924826E-018
 -3.939219625544049E-018
  1.742236137328790E-018
 -9.862479679899863E-019
 -9.398983951106037E-019
 -5.574443207114066E-019
  2.679510019067155E-019
  2.206836908485465E-019
  4.539311161156042E-019
  5.063145452466208E-019
 -6.500262604304214E-019
 -3.682578704389614E-019
  1.577478127162276E-019
  2.568010275822408E-019
  1.081118505593784E-019
  2.078719454724084E-019
 -1.288086311765505E-019
  5.268219179260496E-020
  7.389644451905041E-020
  2.196994983339577E-019
 -1.723849404790420E-018
 -1.529437481721279E-018
  2.159233681939840E-018
  2.463798042495518E-018
  1.544508523472254E-018
  7.722542617361286E-019
  2.424357163658490E-018
  4.283662283832087E-019
  9.216796203159537E-019
 -5.302469634372932E-019
 -1.090081385441395E-019
  1.924513893558864E-019
  1.577478127162281E-019
 -6.622111789734429E-019
  8.159207182233981E-020
 -4.522986465738820E-019
  8.221889865545644E-020
  2.686871834636753E-019
 -2.638190763484553E-019
  3.289849493456693E-019
  6.780398524753941E-020
  2.882982681583421E-020
  1.482010064235310E-019
 -8.566539436071389E-021
 -6.679501982214440E-019
 -1.711277819055985E-019
  9.273346606920850E-019
  2.825846247623206E-019
  1.093126487679013E-020
 -1.605433116187361E-018
  9.488769775900634E-019
 -3.520503810615195E-019
 -1.735764862181796E-019
 -7.377693945441547E-019
 -2.133375779108027E-019
 -4.403324374785458E-019
  3.666254008972399E-019
 -3.091844567132579E-019
  9.399569981304820E-020
  7.655349756314999E-019
 -1.533678762003386E-019
  9.715128417264672E-020
 -9.522005196933892E-020
  8.648948044750252E-020
  6.628087042966165E-020
  3.251224849390532E-019
  1.204861770401443E-019
  3.989042121857583E-019
  2.165478396323234E-019
  1.515081171333246E-018
  1.981064297320261E-019
 -1.288902546536370E-018
  6.783328675748168E-020
  1.712808785189785E-018
 -3.938227581713536E-020
 -3.765803245753672E-019
 -1.821176498022720E-019
 -1.062345105863995E-018
  5.905740308292300E-019
  1.296029950026423E-018
  7.819904759665700E-019
  5.565480327266455E-019
  3.266455997569315E-019
  1.456722488970488E-019
 -1.351998531096487E-019
 -1.041400314289195E-019
  3.826727838468786E-019
  1.156180699249239E-019
  6.598210776807449E-020
  2.967007755086490E-019
  9.247258499517048E-020
 -9.258135087031916E-019
 -4.858364740771355E-019
  1.623679088738214E-020
  4.324181007275718E-019
 -5.290519127909462E-019
 -8.790324054153703E-020
  1.009043938554197E-019
  2.038200731280485E-019
  0.000000000000000E+000
 -1.189630622222666E-019
 -6.228289031563059E-019
  9.849943143237549E-019
  3.227831353503134E-019
 -1.642483893731686E-019
  2.660490712133491E-019
  5.084351853876728E-019
 -6.123858088788480E-019
 -1.855426953135145E-019
  8.517256934174155E-019
  9.968004169912907E-020
 -3.258293649860708E-020
  1.163249499719414E-019
  2.345811321471908E-019
  1.617996850605877E-019
  9.008588342199602E-020
  1.462697742202237E-019
 -6.780398524753956E-020
  2.842170943040399E-019
  1.444230956449953E-018
  6.266913675629230E-019
  1.315123562611815E-018
  1.353470894210400E-018
 -6.455662707006289E-019
 -1.616903303367448E-019
 -1.400060626731498E-018
  3.569985413906428E-019
  2.498122803259675E-019
  1.294317427270801E-018
  1.356815886507746E-018
  4.293718710918162E-019
 -2.417885888511493E-019
 -2.924301937166031E-019
  2.852227370126448E-019
  3.361788071715375E-020
  5.558411526796276E-019
  1.885889249492708E-019
 -1.515459987208738E-019
  2.882982681583420E-020
  2.491454268859009E-019
 -5.795841629325571E-020
 -9.429446247463543E-020
 -1.136868377216162E-019
 -3.859670244402620E-019
 -2.861643371501273E-018
 -7.733985606785175E-019
 -3.470625585062910E-018
  2.861111736814824E-020
  3.660571770840089E-019
  8.323333181704363E-019
 -2.688765914014205E-019
  7.297085502434623E-020
 -4.053007966673597E-019
 -2.489960455551073E-019
 -9.184146812325102E-019
 -1.155809170990506E-020
 -1.122730776275812E-019
  1.871751648552361E-019
  2.110275298320075E-019
 -2.208730987862912E-019
 -8.901823797398503E-020
  2.578359718007876E-020
  2.114356472174373E-019
  7.659577437719015E-019
  8.675894159914844E-021
 -4.395162027076854E-020
  2.872047209199125E-020
  7.604638617004459E-020
  8.162347708605493E-022
 -1.174399474043896E-019
  5.234476241187629E-019
 -2.998563598682477E-019
 -5.115907697472737E-020
 -1.259067077011931E-018
 -9.736999362033353E-020
 -4.955433867976332E-019
 -2.689859461252628E-020
  7.532700038745783E-019
  1.412923123811595E-019
  6.728651313826647E-020
 -4.993472481843666E-020
  3.202543778238335E-019
  3.187312630059565E-019
 -2.689859461252632E-020
  5.227407440717489E-020
 -3.715228095224042E-020
  9.815692688125157E-020
 -1.379797339351738E-018
 -3.046229635755516E-021
  9.228317705742604E-020
  7.937672771241576E-019
  7.207456703958579E-021
  1.515459987208735E-019
  2.279712007664051E-019
 -9.982942302992235E-019
 -2.288967902611103E-019
  3.912139474309718E-019
  5.861647928033958E-019
 -3.876209441760010E-019
  1.580844569653632E-018
  7.006678652958731E-019
  2.712159409901576E-019
  1.013117261092576E-018
 -2.262801282048033E-020
 -4.297799884772447E-019
  7.914336750975907E-021
  4.084563810269572E-019
  1.910376292618516E-019
  4.585004605692357E-019
  1.023181539494543E-019
  1.080024958355351E-019
 -6.818076129131391E-019
  8.638012572365909E-020
  1.202674675924579E-019
 -1.371638917301094E-018
 -4.068668118732733E-020
  9.199377960503821E-019
  1.274749242964167E-019
 -6.152211803828406E-020
  1.727602514473188E-019
 -3.459286202800680E-019
  4.458273714268836E-019
  1.184543805659760E-018
 -7.930603970771412E-019
 -4.414474349109947E-019
  4.606211007102890E-019
  1.456722488970484E-019
  3.843052533885986E-019
  2.420873515127362E-019
 -7.887390635811393E-020
 -3.717122174601478E-019
 -3.175069108496645E-019
 -1.311479807652886E-019
 -9.358758242761816E-020
  1.307398633798585E-019
  1.320873306956830E-018
  2.502203977113986E-020
  5.461342399591298E-020
 -1.412923123811601E-019
 -2.028144304194451E-019
 -1.269102053903950E-018
  1.056879473425603E-018
  2.730671199795657E-020
  6.323464079390623E-020
 -2.461685253670388E-019
 -1.506131890363732E-018
  1.597883996433792E-019
  3.173175029119202E-019
  3.856389602687338E-019
  2.417885888511495E-019
  9.997880436071659E-020
  1.000881590845597E-019
  6.908694042371330E-021
  4.880371674320895E-019
  2.876714413252267E-019
  3.674416356681013E-020
  1.910376292618527E-019
  2.057513053313572E-019
  1.250555214937779E-019
 -9.511069724549630E-020
  6.724648653131556E-020
 -3.410605131648485E-020
 -3.715228095224007E-020
  2.240286831458908E-019
 -8.567324567664209E-020
  7.822091854142558E-019
  7.065709166296415E-019
  2.072744201492343E-019
 -2.106194124465779E-019
  6.312528607006305E-020
  2.319430198968661E-019
  5.307644355465665E-019
 -2.086081270293686E-019
 -8.810729923425250E-019
 -5.828198005060576E-019
  3.344505817840642E-019
 -7.400794426229516E-019
 -4.501780064328318E-019
  2.424954688981668E-019
 -1.545922283566298E-019
  2.444267011014750E-019
 -6.211964336145874E-020
  1.519541161063045E-019
  7.612643938394555E-020
 -5.019346087307339E-020
  7.501144195149797E-020
  2.297930782458710E-019
 -1.505913180916043E-018
  1.154286619871797E-019
  2.844065022417841E-019
 -4.107957306156954E-019
 -3.745104361382745E-020
  6.242719647602841E-019
  1.493160038559784E-019
 -2.720028742510756E-019
 -2.965914207848056E-019
  2.611809640981299E-019
  3.746490923720598E-019
  2.359948922412253E-019
 -3.143513264900659E-019
  5.860847395894968E-019
  4.770472995354151E-020
  1.644377973109131E-019
  1.856520500373587E-019
 -1.432235445844676E-019
  6.252776074688853E-020
  9.663381206337339E-020
 -1.369270266202420E-019
 -5.684341886080783E-020
 -1.786633027810861E-019
 -4.375302931424582E-019
 -1.746914836506271E-019
 -6.701841187443010E-019
 -1.346452845444193E-018
  1.790714201665159E-019
  7.478844246500820E-019
 -4.283662283832104E-020
  6.311168719197076E-021
  5.239650962280400E-019
 -3.347786459555931E-019
 -3.567798319429575E-019
  4.372862078427913E-019
  5.009289660221261E-019
 -1.542055611652154E-020
 -3.258293649860698E-020
 -2.527491552378811E-019
  1.598684528572802E-019
  3.762815619137804E-019
  2.507632456726510E-019
  1.614208691851007E-020
  7.597705805315222E-020
 -7.165258403077686E-019
  7.467265268296098E-020
  1.698149786482211E-018
  1.398413506434808E-018
 -7.385963544120254E-019
  1.957163284393280E-019
  6.375425792258136E-019
 -3.050525311549981E-019
 -1.637061161681335E-018
 -1.136868377216164E-020
 -2.162237011187568E-020
  9.925298351992460E-019
  7.749724272003534E-019
 -2.280805554902494E-019
  8.731293540816060E-019
 -2.836049182258963E-019
 -7.670727412043548E-019
 -6.184636173953904E-019
 -2.296983742769992E-019
 -1.933623280956195E-019
 -1.773295959009524E-019
 -1.225121132123250E-019
  1.136868377216163E-020
  2.654515458901765E-020
  2.031864186709301E-018
 -8.886885664319158E-019
 -7.414531761100334E-019
 -5.811619551123550E-019
  5.126843169857156E-021
  2.842170943040380E-021
  5.060157825850350E-020
  3.575706908618369E-019
  1.467700579893274E-018
  1.161208912792262E-019
 -3.126388037344440E-020
 -3.164465907791385E-019
  3.078800513430661E-019
  6.930669419614564E-019
 -1.472207395669061E-019
 -3.553446216549011E-020
 -3.625735285528789E-019
 -1.279029518212304E-021
 -5.658468280617153E-020
  1.437810433006915E-019
 -9.399569981304826E-020
  2.426048236220097E-020
  5.552436273564517E-020
  7.618111674586691E-020
  8.852742460176798E-019
  5.591861449769686E-019
  8.338857344982535E-020
 -3.654010487409500E-020
  1.738352222728175E-019
  7.753004913718839E-019
  8.147774711578915E-019
 -1.178480647898188E-019
  1.651993547198518E-019
  7.354300449554164E-020
 -9.938127903754175E-020
  6.351195326147928E-021
 -1.629693598549566E-019
 -3.004538851914221E-019
 -1.442291872930723E-019
  1.883487653075695E-020
  3.018276186785065E-019
  7.761567527496970E-019
  5.338907183962228E-020
  1.523622334917342E-019
  2.626347507991151E-019
 -6.557399038264413E-020
  1.136868377216161E-020
  4.207506542938227E-020
 -4.326368101752566E-019
 -1.202657151388525E-018
  8.979766366699724E-019
  8.260514509611834E-019
  5.846016513785681E-019
 -1.286552471850609E-018
 -6.199320548513406E-019
 -3.091044034993571E-020
  1.123677815964532E-019
  1.385741469169333E-020
  2.111954875757349E-020
  7.255004971292712E-019
  6.025255891695906E-019
  1.697286725665341E-019
 -1.965032617002447E-019
 -2.823805660696043E-019
 -2.682790660782445E-019
 -3.931705554862550E-019
  2.889904974503877E-019
 -2.361989509339405E-019
  1.004962764699884E-020
  1.464738329129382E-019
  1.354585891642853E-019
  5.323969050882859E-020
 -6.645105019552350E-019
 -4.605957248583124E-019
 -8.337217024124913E-019
 -8.922376174219719E-019
 -4.918849810837334E-019
 -1.307398633798594E-019
  8.353795478061979E-020
  1.081118505593783E-020
  4.623629249758536E-020
  1.091174932679833E-019
 -6.308525946311254E-020
  6.953115875813221E-020
  3.697956360118117E-019
  8.174302341631884E-019
 -6.456609746695065E-019
  3.513542261115139E-019
  2.159503143091491E-019
  2.821765073768908E-020
 -4.660066799347842E-019
  3.583322482707763E-020
 -1.430555868407391E-020
 -6.176620333795026E-020
  5.628592014458427E-020
  1.213024118110049E-020
  1.234377027070278E-019
  2.780699576706096E-019
  5.865075077298964E-019
  6.200414095751899E-019
  1.213024118110046E-020
 -1.025368633971408E-020
  8.394607216604914E-020
  5.684341886080800E-021
  8.526512829121191E-021
  2.162237011187571E-020
 -1.004962764699896E-020
  1.021140952567397E-019
  2.791888807610180E-020
  9.653910809450130E-020
 -1.984051923936133E-020
  8.491168826770317E-020
 -3.527279595985972E-019
  3.817618451071458E-019
  9.845568954283832E-021
 -6.044714721278732E-020
  2.284672226816662E-021
  1.593802822579488E-020
 -2.434053557610325E-021
  6.821210263296964E-020
  7.562361802964290E-020
  6.708245444555150E-020
  1.464045047960464E-019
 -6.625245923900037E-019
  3.588204188701091E-019
 -5.574987162238081E-022
  1.081118505593787E-020
 -3.390199262376982E-020
  1.005909804388617E-019
  0.000000000000000E+000
 -9.009320879948206E-020
 -3.717668948220696E-019
 -4.097754371521193E-019
 -2.737046719096904E-019
 -4.868107115220360E-021
  1.640296799254835E-019
 -2.326498999438835E-019
 -4.946324480579035E-019
  4.430506029427740E-020
  1.801170894820719E-019
 -2.054378919147990E-019
  2.106740898084985E-019
 -4.963596215684965E-020
  1.629146824930355E-020
  4.440308697993954E-019
 -3.821699624925762E-019
 -6.177020599864476E-019
  6.758245083654679E-019
 -2.399520606167124E-019
 -7.105427357600977E-020
 -1.120690189348654E-019
 -2.487373095004702E-019
 -4.040364179041160E-019
 -3.570932453595144E-019
  3.362324326565764E-019
  1.445572514646009E-019
  4.008408069375666E-019
  9.730066550344013E-020
  4.262709640941370E-019
 -3.016635865927406E-019
 -7.070083355250112E-020
  1.516006760827945E-019
  2.159503143091482E-019
  1.875286048787444E-019
 -8.998385407563834E-020
  5.968558980384818E-020
  8.730571521836270E-021
  6.460837428098994E-020
  5.086939214423133E-019
 -3.390199262376983E-020
 -2.030184891121602E-019
 -4.436374031689421E-019
 -5.474093438193848E-019
 -9.349287845874604E-020
  6.087674297718987E-019
  1.653087094436957E-019
  5.674871489193622E-020
 -5.684341886080827E-021
 -4.259722014325523E-019
 -3.102994541457087E-019
 -2.842170943040405E-020
 -9.633504940178684E-020
 -5.248760349677726E-019
  2.780953335225876E-020
  1.790567694115460E-019
  7.333894580282703E-020
  2.235658883985392E-019
  3.897415843170559E-020
  6.953115875813273E-020
  1.068328210411666E-019
 -1.280470737676126E-019
  5.892403239490998E-020
  2.074784788419489E-019
  4.710388191357665E-019
  2.597925798560753E-019
  1.761052437446643E-020
 -6.241840602304620E-021
  7.764955420182320E-021
  4.190088300282583E-019
 -3.237887780589200E-020
 -4.365285760918167E-021
 -6.507116902834216E-020
  3.776006180389431E-019
  7.770676914894287E-019
 -1.004962764699890E-020
  5.816247498597067E-020
  1.107899894166541E-019
  2.854814730672822E-019
 -1.437810433006920E-019
  9.226852630245544E-020
 -7.038742013594285E-020
  2.072744201492343E-019
  3.783074980859604E-019
 -5.084566355816911E-020
  5.476280532670651E-020
  3.268496584496461E-020
 -2.011819608777231E-019
  1.533131988384171E-019
  5.136313566744179E-020
  8.429951218955754E-020
 -4.623629249758531E-020
 -2.349892495326196E-020
  9.492128930775172E-021
  2.537547979464850E-020
  4.319006286182965E-020
  1.930782161890027E-019
  2.554272940951553E-019
 -7.587502870679428E-019
 -5.091020388277374E-019
 -4.323634233656468E-019
 -1.744327475959899E-019
 -1.930635654340320E-019
 -1.344929730626303E-019
  2.121972046263754E-019
 -1.558458820228620E-020
  2.557953848736354E-020
  5.385186658697376E-020
 -2.009925529399784E-020
 -5.019346087307326E-020
  2.273736754432315E-020
  5.115214416303813E-019
  8.972511802100316E-020
 -4.198797421610420E-019
  4.974531688069263E-020
  2.943614259199113E-019
  2.821765073768907E-020
 -6.100464592901090E-020
 -1.427754005920869E-019
 -3.790690554949006E-019
 -6.313993682503449E-020
 -4.757028675582734E-019
  4.984002084956470E-019
  3.445548867929849E-019
  1.796142681277697E-019
 -1.233429987381557E-020
 -5.994432585848523E-020
 -3.360322996218262E-020
  1.170865073808806E-019
 -1.597737488884081E-019
 -4.149569576838999E-019
 -1.521034974370980E-019
  5.247813309988986E-020
 -3.806321969197251E-020
  7.105427357601032E-021
 -3.412645718575611E-019
 -3.877449496548141E-019
  0.000000000000000E+000
 -3.821699624925779E-019
 -2.591403771709794E-019
 -4.679379121380875E-020
 -3.070638165722051E-020
  2.044322492061932E-019
  3.254212476006393E-019
  4.761002598466954E-020
  5.765965363166848E-020
  2.723856157845272E-019
 -1.046028261762715E-019
  3.282634185436797E-019
  2.232925015889310E-020
  1.173452434355171E-019
  1.881407809568904E-019
 -2.613156946739510E-019
  1.350104451719042E-019
  1.235324066759000E-019
 -1.969113790856772E-020
 -1.013525378478009E-019
  3.040029361814813E-020
 -1.705302565824236E-020
 -2.583788197620396E-019
 -8.506106959849648E-020
  4.376943252282213E-019
  1.837754951959726E-019
  7.125833226872489E-020
 -9.303008371139352E-020
 -4.161227068203056E-021
 -5.574987162237848E-022
 -2.444813784633954E-019
 -2.819724486841730E-019
  5.476280532670594E-020
  1.448013367642661E-019
  2.051938066151311E-019
 -2.446307597941897E-019
  1.268773989732415E-020
 -1.623571837768105E-019
 -1.830139377870332E-019
  1.931232203307956E-021
 -8.429951218955766E-020
 -7.764955420182324E-021
  3.012154426003617E-020
  1.355132665262058E-020
 -1.979316725492513E-020
  5.405592527968862E-021
  4.258628467087100E-019
 -5.534960555287096E-021
 -1.127358723749330E-019
 -6.789107646081763E-019
  7.207456703958555E-021
 -2.461392238570972E-020
  6.080058723629583E-020
 -6.800804394025489E-020
  1.319642155361492E-019
  1.969113790856777E-019
 -2.459498159193539E-019
  2.633562816011047E-019
  3.405977184174970E-019
 -7.410050321176570E-020
  5.136313566744225E-020
 -1.586987780629114E-019
  3.753109682772753E-021
 -2.288674887511698E-020
  6.267714207768271E-020
  2.297330383354455E-019
  1.022161246030967E-019
  3.195074711698663E-020
 -4.161227068203097E-021
  2.689859461252637E-020
 -6.145064490198988E-019
 -1.989519660128289E-020
  5.095501828201191E-020
  4.887440474791081E-020
 -7.850581557963503E-020
  3.131416250887486E-019
 -1.114021654947995E-019
 -2.815789820537141E-019
 -2.243274458074777E-019
 -1.687484057099116E-019
  2.715693810136663E-019
  1.918831655426554E-020
  7.003398011243440E-021
  3.603728351979324E-020
  4.063757674928586E-019
  3.172667512079593E-020
  1.207849397017315E-019
  1.690364432744887E-020
  1.538052950957117E-020
 -1.847411112976267E-020
  7.092490554869162E-020
  5.473546664574624E-020
 -1.487038277778333E-020
 -3.580588614611692E-020
  1.095256106534122E-019
 -7.785361289453792E-020
 -3.105982168072937E-020
  2.046363078989083E-019
 -8.699230180180474E-020
 -4.321046873110115E-019
  5.481748268862781E-020
  1.071462344577232E-019
  6.110120753917598E-019
  7.404582584984269E-020
 -8.546918698392657E-020
  1.492066491321343E-019
 -3.486760872542353E-020
 -6.649957987734737E-021
  1.136868377216151E-020
 -1.551497270728516E-019
  4.714723123731742E-020
 -1.337587543346523E-019
  2.928529618570024E-020
  2.657249326997836E-020
  1.260411508989060E-019
  1.421085471520191E-020
  5.389921857140971E-020
 -3.807787044694365E-022
  1.792608281042609E-019
 -1.305358046871438E-019
  7.008865747435619E-020
 -1.296248659474111E-019
 -3.090897527443876E-019
 -1.538306709476901E-019
 -1.247020814702695E-019
 -3.205131138784719E-019
 -5.529989817365870E-019
 -2.078319188654597E-019
  2.315349025114347E-019
  2.189018399760327E-019
  3.263761386052883E-020
  1.425166645374513E-019
 -2.763974615219380E-019
 -2.580800571004531E-019
  2.944200289397981E-021
  1.593109541410570E-019
  2.446454105491620E-020
 -2.298877822147439E-020
  1.143937177686334E-019
 -1.093215519606979E-019
 -6.346603816758212E-020
 -1.591068954483421E-020
  1.112527841640057E-019
 -1.538052950957118E-020
  5.816247498597044E-020
 -7.709205548560020E-020
 -1.603273219466692E-020
  1.362201465732243E-019
 -5.912809108762450E-020
  1.314467434268761E-019
  2.237699470912555E-019
  1.333232982682632E-019
 -8.019296248327704E-020
 -4.187100673666749E-019
 -2.080359775581735E-019
 -2.438692023852523E-019
  1.102871680623521E-019
 -9.297540634947352E-020
  2.610169320123668E-019
  2.773484268686193E-020
 -9.536210792264701E-020
 -1.601271889119181E-020
 -1.133060590171475E-019
 -3.227684845953494E-020
  4.443442832159599E-020
  4.575348444675863E-020
  1.051603248924944E-019
  1.365335599897816E-020
  9.815692688125043E-020
 -2.400067379786315E-019
  9.277134765675703E-020
 -3.731806549161009E-019
 -1.096749919842070E-019
  1.399732562559976E-019
  2.091549006485793E-020
  1.463644781890932E-019
 -1.162155952480986E-019
  1.847411112976254E-019
  1.489078864705487E-019
  9.115352887000747E-020
  1.830139377870316E-019
  1.558092551354337E-019
 -3.297640312906598E-021
 -8.026765314867312E-020
  4.760270060718370E-020
  6.280651010500029E-020
  1.629146824930349E-020
 -6.241840602304533E-021
  1.174946247663099E-020
  1.383007601073243E-020
 -3.004538851914229E-019
 -2.751330827586946E-019
 -2.166239671882618E-020
  1.764586837681708E-019
  5.888400578795927E-021
  4.215904430124539E-021
  3.560329252889866E-019
  2.871539692159496E-019
 -7.090489224521639E-020
 -2.025936172180402E-021
 -2.918326683934273E-020
  9.845568954283847E-021
  3.887945446283287E-020
  1.596643941645638E-019
 -8.673356574716806E-020
  1.867816982247755E-020
 -1.638529599137270E-019
 -1.292641005464155E-019
  6.186823268430753E-020
 -5.759032551477578E-021
 -1.892958049962882E-020
  5.833919499772504E-020
  1.202821183474300E-020
 -1.525116148225272E-020
  3.399455157324021E-019
  1.617450076986676E-019
 -2.608235984166536E-020
 -5.344374920154454E-020
  4.319006286183001E-020
  2.974076555556666E-020
  3.050232296450544E-020
 -1.815455003310771E-019
 -1.806745881982948E-019
  9.277134765675805E-020
 -1.310933034033669E-019
 -2.766015202146512E-020
 -1.091174932679826E-019
  5.643530147537791E-020
  2.562781929244627E-019
  1.099810800232794E-019
 -3.306574454943379E-020
  1.040653407635224E-019
 -7.161177229223395E-020
 -4.004180387971707E-020
 -1.174946247663104E-020
  1.240899053921239E-020
 -3.882477710091195E-021
  1.771255372082373E-020
  8.429951218955742E-020
 -2.009779021850062E-019
 -6.197026203066562E-020
 -5.435468794127590E-020
  5.095501828201228E-020
  3.111449904265089E-020
  4.415567896348398E-020
 -2.634109589630234E-020
  2.918326683934297E-020
 -5.004407954227978E-020
  5.983497113464248E-020
 -4.365285760918152E-021
 -5.684341886080820E-021
 -2.575625849911814E-020
 -7.792294101143084E-021
  4.509395638417698E-020
  9.924458563273889E-020
  1.083085838746078E-019
  1.028756526656782E-019
  1.231242892904706E-019
  7.140771359951871E-020
 -2.918326683934283E-020
 -3.780448363733477E-021
  1.202821183474302E-020
 -1.006456578007833E-019
 -2.244768271382693E-019
 -2.710265330524145E-020
 -3.126388037344472E-020
  0.000000000000000E+000
 -4.096006799693478E-020
 -4.227912412209725E-020
 -3.639072354330157E-020
  7.615574089388190E-022
  1.081118505593773E-020
 -1.672496148671096E-021
  3.694822225952540E-020
  4.922784477141965E-020
 -2.638112250325083E-021
  7.424988454255949E-020
  8.627809637730268E-020
 -3.532307809528984E-020
 -9.656161016539594E-022
 -3.760775032210664E-020
  1.060712636322266E-020
  2.273736754432319E-020
  1.695099631188487E-020
  2.273736754432337E-020
 -9.566819596171969E-021
  1.011484791550856E-019
  2.663478338749345E-019
  7.673861546209009E-020
  1.109940481093696E-019
  1.341395330391227E-019
  1.379473200838166E-019
  7.501144195149816E-020
 -8.526512829121158E-021
 -3.375261129297604E-020
 -9.698725208688151E-020
 -7.207456703958540E-021
  0.000000000000000E+000
  7.323691645646898E-020
  5.823716565136752E-020
 -2.423314368124022E-020
 -5.359313053233695E-020
  4.922784477141917E-021
  3.798852902657600E-020
  5.684341886080815E-021
  6.460837428099040E-020
  1.116462507944654E-020
 -2.755812267510739E-020
 -2.842170943040340E-021
  2.055472466386414E-020
  1.972247925022356E-019
 -4.354350288533903E-020
 -1.608340689589341E-019
 -4.852096472440191E-020
  3.938227581713578E-020
 -9.434913983655606E-020
 -1.350504717788551E-019
  1.062753223249430E-019
  1.026715939729631E-019
  7.008865747435652E-020
 -7.207456703958602E-021
 -8.730571521836309E-021
 -4.623629249758521E-020
 -4.166694804395201E-020
 -1.933769788505907E-020
 -4.357084156629950E-020
  4.973799150320702E-020
  1.699180805042788E-019
 -3.778447033386087E-020
 -2.738140266335326E-020
 -2.263533819796566E-020
 -2.149300208455735E-020
  1.525116148225275E-020
 -2.461392238570958E-021
  5.933214978033913E-020
 -3.126388037344441E-020
 -5.227407440717475E-020
  1.352545304715701E-019
 -1.497241212414088E-020
 -7.861517030347680E-020
 -1.157674512557175E-019
  6.440431558827522E-020
 -1.373351440056714E-019
  1.969113790856778E-020
  0.000000000000000E+000
 -4.658973252109407E-020
  6.308525946311247E-020
  3.542510744164744E-020
 -7.303285776375398E-020
 -3.920555580538108E-020
 -5.024813823499472E-021
 -2.821765073768888E-020
  3.362324326565781E-020
  4.433239897523818E-020
  3.220215779413763E-020
 -2.842170943040411E-021
  1.060712636322281E-020
  1.040306767050782E-021
  8.678824310908974E-020
  7.861517030347720E-020
  3.085576298801398E-020
  5.719685888431631E-020
 -7.709205548559941E-020
 -2.842170943040304E-021
 -1.064793810176571E-019
  3.046229635755498E-021
 -3.770977966846383E-020
  1.157274246487668E-020
  2.045269531750643E-020
  1.523114817877752E-021
  1.989519660128264E-020
  1.801864175989632E-020
  1.421085471520191E-020
  4.831690603168654E-020
  5.296094115071651E-020
 -1.733177501635415E-020
 -2.055472466386413E-020
  5.684341886080807E-021
  8.424483482763579E-021
 -1.591068954483421E-020
  1.344929730626303E-020
 -1.421085471520191E-021
  7.008865747435586E-020
 -3.202543778238294E-020
 -4.679379121380883E-020
  1.286592498457560E-019
  5.420530661048243E-020
 -1.108446667785748E-019
 -3.299105388403709E-020
  2.638112250325423E-021
 -3.105982168072904E-020
  1.969113790856788E-020
 -4.319006286182979E-020
  7.207456703958472E-021
  0.000000000000000E+000
 -5.024813823499467E-021
 -6.724648653131613E-021
  1.202821183474304E-020
 -2.557953848736344E-020
  1.060712636322264E-020
  7.764955420182284E-021
 -2.944200289397938E-021
 -1.108993441404960E-020
 -3.603728351979258E-021
  1.591068954483399E-020
 -1.421085471520180E-021
SCALARS elementIsPlast double 
LOOKUP_TABLE default
  0.000000000000000E+000
  0.000000000000000E+000
  0.000000000000000E+000
  0.000000000000000E+000
  0.000000000000000E+000
  0.000000000000000E+000
  0.000000000000000E+000
  0.000000000000000E+000
  0.000000000000000E+000
  0.000000000000000E+000
  0.000000000000000E+000
  0.000000000000000E+000
  0.000000000000000E+000
  0.000000000000000E+000
  0.000000000000000E+000
  0.000000000000000E+000
  0.000000000000000E+000
  0.000000000000000E+000
  0.000000000000000E+000
  0.000000000000000E+000
  0.000000000000000E+000
  0.000000000000000E+000
  0.000000000000000E+000
  0.000000000000000E+000
  0.000000000000000E+000
  0.000000000000000E+000
  0.000000000000000E+000
  0.000000000000000E+000
  0.000000000000000E+000
  0.000000000000000E+000
  0.000000000000000E+000
  0.000000000000000E+000
  0.000000000000000E+000
  0.000000000000000E+000
  0.000000000000000E+000
  0.000000000000000E+000
  0.000000000000000E+000
  0.000000000000000E+000
  0.000000000000000E+000
  0.000000000000000E+000
  0.000000000000000E+000
  0.000000000000000E+000
  0.000000000000000E+000
  0.000000000000000E+000
  0.000000000000000E+000
  0.000000000000000E+000
  0.000000000000000E+000
  0.000000000000000E+000
  0.000000000000000E+000
  0.000000000000000E+000
  0.000000000000000E+000
  0.000000000000000E+000
  0.000000000000000E+000
  0.000000000000000E+000
  0.000000000000000E+000
  0.000000000000000E+000
  0.000000000000000E+000
  0.000000000000000E+000
  0.000000000000000E+000
  0.000000000000000E+000
  0.000000000000000E+000
  0.000000000000000E+000
  0.000000000000000E+000
  0.000000000000000E+000
  0.000000000000000E+000
  0.000000000000000E+000
  0.000000000000000E+000
  0.000000000000000E+000
  0.000000000000000E+000
  0.000000000000000E+000
  0.000000000000000E+000
  0.000000000000000E+000
  0.000000000000000E+000
  0.000000000000000E+000
  0.000000000000000E+000
  0.000000000000000E+000
  0.000000000000000E+000
  0.000000000000000E+000
  0.000000000000000E+000
  0.000000000000000E+000
  0.000000000000000E+000
  0.000000000000000E+000
  0.000000000000000E+000
  0.000000000000000E+000
  0.000000000000000E+000
  0.000000000000000E+000
  0.000000000000000E+000
  0.000000000000000E+000
  0.000000000000000E+000
  0.000000000000000E+000
  0.000000000000000E+000
  0.000000000000000E+000
  0.000000000000000E+000
  0.000000000000000E+000
  0.000000000000000E+000
  0.000000000000000E+000
  0.000000000000000E+000
  0.000000000000000E+000
  0.000000000000000E+000
  0.000000000000000E+000
  0.000000000000000E+000
  0.000000000000000E+000
  0.000000000000000E+000
  0.000000000000000E+000
  0.000000000000000E+000
  0.000000000000000E+000
  0.000000000000000E+000
  0.000000000000000E+000
  0.000000000000000E+000
  0.000000000000000E+000
  0.000000000000000E+000
  0.000000000000000E+000
  0.000000000000000E+000
  0.000000000000000E+000
  0.000000000000000E+000
  0.000000000000000E+000
  0.000000000000000E+000
  0.000000000000000E+000
  0.000000000000000E+000
  0.000000000000000E+000
  0.000000000000000E+000
  0.000000000000000E+000
  0.000000000000000E+000
  0.000000000000000E+000
  0.000000000000000E+000
  0.000000000000000E+000
  0.000000000000000E+000
  0.000000000000000E+000
  0.000000000000000E+000
  0.000000000000000E+000
  0.000000000000000E+000
  0.000000000000000E+000
  0.000000000000000E+000
  0.000000000000000E+000
  0.000000000000000E+000
  0.000000000000000E+000
  0.000000000000000E+000
  0.000000000000000E+000
  0.000000000000000E+000
  0.000000000000000E+000
  0.000000000000000E+000
  0.000000000000000E+000
  0.000000000000000E+000
  0.000000000000000E+000
  0.000000000000000E+000
  0.000000000000000E+000
  0.000000000000000E+000
  0.000000000000000E+000
  0.000000000000000E+000
  0.000000000000000E+000
  0.000000000000000E+000
  0.000000000000000E+000
  0.000000000000000E+000
  0.000000000000000E+000
  0.000000000000000E+000
  0.000000000000000E+000
  0.000000000000000E+000
  0.000000000000000E+000
  0.000000000000000E+000
  0.000000000000000E+000
  0.000000000000000E+000
  0.000000000000000E+000
  0.000000000000000E+000
  0.000000000000000E+000
  0.000000000000000E+000
  0.000000000000000E+000
  0.000000000000000E+000
  0.000000000000000E+000
  0.000000000000000E+000
  0.000000000000000E+000
  0.000000000000000E+000
  0.000000000000000E+000
  0.000000000000000E+000
  0.000000000000000E+000
  0.000000000000000E+000
  0.000000000000000E+000
  0.000000000000000E+000
  0.000000000000000E+000
  0.000000000000000E+000
  0.000000000000000E+000
  0.000000000000000E+000
  0.000000000000000E+000
  0.000000000000000E+000
  0.000000000000000E+000
  0.000000000000000E+000
  0.000000000000000E+000
  0.000000000000000E+000
  0.000000000000000E+000
  0.000000000000000E+000
  0.000000000000000E+000
  0.000000000000000E+000
  0.000000000000000E+000
  0.000000000000000E+000
  0.000000000000000E+000
  0.000000000000000E+000
  0.000000000000000E+000
  0.000000000000000E+000
  0.000000000000000E+000
  0.000000000000000E+000
  0.000000000000000E+000
  0.000000000000000E+000
  0.000000000000000E+000
  0.000000000000000E+000
  0.000000000000000E+000
  0.000000000000000E+000
  0.000000000000000E+000
  0.000000000000000E+000
  0.000000000000000E+000
  0.000000000000000E+000
  0.000000000000000E+000
  0.000000000000000E+000
  0.000000000000000E+000
  0.000000000000000E+000
  0.000000000000000E+000
  0.000000000000000E+000
  0.000000000000000E+000
  0.000000000000000E+000
  0.000000000000000E+000
  0.000000000000000E+000
  0.000000000000000E+000
  0.000000000000000E+000
  0.000000000000000E+000
  0.000000000000000E+000
  0.000000000000000E+000
  0.000000000000000E+000
  0.000000000000000E+000
  0.000000000000000E+000
  0.000000000000000E+000
  0.000000000000000E+000
  0.000000000000000E+000
  0.000000000000000E+000
  0.000000000000000E+000
  0.000000000000000E+000
  0.000000000000000E+000
  0.000000000000000E+000
  0.000000000000000E+000
  0.000000000000000E+000
  0.000000000000000E+000
  0.000000000000000E+000
  0.000000000000000E+000
  0.000000000000000E+000
  0.000000000000000E+000
  0.000000000000000E+000
  0.000000000000000E+000
  0.000000000000000E+000
  0.000000000000000E+000
  0.000000000000000E+000
  0.000000000000000E+000
  0.000000000000000E+000
  0.000000000000000E+000
  0.000000000000000E+000
  0.000000000000000E+000
  0.000000000000000E+000
  0.000000000000000E+000
  0.000000000000000E+000
  0.000000000000000E+000
  0.000000000000000E+000
  0.000000000000000E+000
  0.000000000000000E+000
  0.000000000000000E+000
  0.000000000000000E+000
  0.000000000000000E+000
  0.000000000000000E+000
  0.000000000000000E+000
  0.000000000000000E+000
  0.000000000000000E+000
  0.000000000000000E+000
  0.000000000000000E+000
  0.000000000000000E+000
  0.000000000000000E+000
  0.000000000000000E+000
  0.000000000000000E+000
  0.000000000000000E+000
  0.000000000000000E+000
  0.000000000000000E+000
  0.000000000000000E+000
  0.000000000000000E+000
  0.000000000000000E+000
  0.000000000000000E+000
  0.000000000000000E+000
  0.000000000000000E+000
  0.000000000000000E+000
  0.000000000000000E+000
  0.000000000000000E+000
  0.000000000000000E+000
  0.000000000000000E+000
  0.000000000000000E+000
  0.000000000000000E+000
  0.000000000000000E+000
  0.000000000000000E+000
  0.000000000000000E+000
  0.000000000000000E+000
  0.000000000000000E+000
  0.000000000000000E+000
  0.000000000000000E+000
  0.000000000000000E+000
  0.000000000000000E+000
  0.000000000000000E+000
  0.000000000000000E+000
  0.000000000000000E+000
  0.000000000000000E+000
  0.000000000000000E+000
  0.000000000000000E+000
  0.000000000000000E+000
  0.000000000000000E+000
  0.000000000000000E+000
  0.000000000000000E+000
  0.000000000000000E+000
  0.000000000000000E+000
  0.000000000000000E+000
  0.000000000000000E+000
  0.000000000000000E+000
  0.000000000000000E+000
  0.000000000000000E+000
  0.000000000000000E+000
  0.000000000000000E+000
  0.000000000000000E+000
  0.000000000000000E+000
  0.000000000000000E+000
  0.000000000000000E+000
  0.000000000000000E+000
  0.000000000000000E+000
  0.000000000000000E+000
  0.000000000000000E+000
  0.000000000000000E+000
  0.000000000000000E+000
  0.000000000000000E+000
  0.000000000000000E+000
  0.000000000000000E+000
  0.000000000000000E+000
  0.000000000000000E+000
  0.000000000000000E+000
  0.000000000000000E+000
  0.000000000000000E+000
  0.000000000000000E+000
  0.000000000000000E+000
  0.000000000000000E+000
  0.000000000000000E+000
  0.000000000000000E+000
  0.000000000000000E+000
  0.000000000000000E+000
  0.000000000000000E+000
  0.000000000000000E+000
  0.000000000000000E+000
  0.000000000000000E+000
  0.000000000000000E+000
  0.000000000000000E+000
  0.000000000000000E+000
  0.000000000000000E+000
  0.000000000000000E+000
  0.000000000000000E+000
  0.000000000000000E+000
  0.000000000000000E+000
  0.000000000000000E+000
  0.000000000000000E+000
  0.000000000000000E+000
  0.000000000000000E+000
  0.000000000000000E+000
  0.000000000000000E+000
  0.000000000000000E+000
  0.000000000000000E+000
  0.000000000000000E+000
  0.000000000000000E+000
  0.000000000000000E+000
  0.000000000000000E+000
  0.000000000000000E+000
  0.000000000000000E+000
  0.000000000000000E+000
  0.000000000000000E+000
  0.000000000000000E+000
  0.000000000000000E+000
  0.000000000000000E+000
  0.000000000000000E+000
  0.000000000000000E+000
  0.000000000000000E+000
  0.000000000000000E+000
  0.000000000000000E+000
  0.000000000000000E+000
  0.000000000000000E+000
  0.000000000000000E+000
  0.000000000000000E+000
  0.000000000000000E+000
  0.000000000000000E+000
  0.000000000000000E+000
  0.000000000000000E+000
  0.000000000000000E+000
  0.000000000000000E+000
  0.000000000000000E+000
  0.000000000000000E+000
  0.000000000000000E+000
  0.000000000000000E+000
  0.000000000000000E+000
  0.000000000000000E+000
  0.000000000000000E+000
  0.000000000000000E+000
  0.000000000000000E+000
  0.000000000000000E+000
  0.000000000000000E+000
  0.000000000000000E+000
  0.000000000000000E+000
  0.000000000000000E+000
  0.000000000000000E+000
  0.000000000000000E+000
  0.000000000000000E+000
  0.000000000000000E+000
  0.000000000000000E+000
  0.000000000000000E+000
  0.000000000000000E+000
  0.000000000000000E+000
  0.000000000000000E+000
  0.000000000000000E+000
  0.000000000000000E+000
  0.000000000000000E+000
  0.000000000000000E+000
  0.000000000000000E+000
  0.000000000000000E+000
  0.000000000000000E+000
  0.000000000000000E+000
  0.000000000000000E+000
  0.000000000000000E+000
  0.000000000000000E+000
  0.000000000000000E+000
  0.000000000000000E+000
  0.000000000000000E+000
  0.000000000000000E+000
  0.000000000000000E+000
  0.000000000000000E+000
  0.000000000000000E+000
  0.000000000000000E+000
  0.000000000000000E+000
  0.000000000000000E+000
  0.000000000000000E+000
  0.000000000000000E+000
  0.000000000000000E+000
  0.000000000000000E+000
  0.000000000000000E+000
  0.000000000000000E+000
  0.000000000000000E+000
  0.000000000000000E+000
  0.000000000000000E+000
  0.000000000000000E+000
  0.000000000000000E+000
  0.000000000000000E+000
  0.000000000000000E+000
  0.000000000000000E+000
  0.000000000000000E+000
  0.000000000000000E+000
  0.000000000000000E+000
  0.000000000000000E+000
  0.000000000000000E+000
  0.000000000000000E+000
  0.000000000000000E+000
  0.000000000000000E+000
  0.000000000000000E+000
  0.000000000000000E+000
  0.000000000000000E+000
  0.000000000000000E+000
  0.000000000000000E+000
  0.000000000000000E+000
  0.000000000000000E+000
  0.000000000000000E+000
  0.000000000000000E+000
  0.000000000000000E+000
  0.000000000000000E+000
  0.000000000000000E+000
  0.000000000000000E+000
  0.000000000000000E+000
  0.000000000000000E+000
  0.000000000000000E+000
  0.000000000000000E+000
  0.000000000000000E+000
  0.000000000000000E+000
  0.000000000000000E+000
  0.000000000000000E+000
  0.000000000000000E+000
  0.000000000000000E+000
  0.000000000000000E+000
  0.000000000000000E+000
  0.000000000000000E+000
  0.000000000000000E+000
  0.000000000000000E+000
  0.000000000000000E+000
  0.000000000000000E+000
  0.000000000000000E+000
  0.000000000000000E+000
  0.000000000000000E+000
  0.000000000000000E+000
  0.000000000000000E+000
  0.000000000000000E+000
  0.000000000000000E+000
  0.000000000000000E+000
  0.000000000000000E+000
  0.000000000000000E+000
  0.000000000000000E+000
  0.000000000000000E+000
  0.000000000000000E+000
  0.000000000000000E+000
  0.000000000000000E+000
  0.000000000000000E+000
  0.000000000000000E+000
  0.000000000000000E+000
  0.000000000000000E+000
  0.000000000000000E+000
  0.000000000000000E+000
  0.000000000000000E+000
  0.000000000000000E+000
  0.000000000000000E+000
  0.000000000000000E+000
  0.000000000000000E+000
  0.000000000000000E+000
  0.000000000000000E+000
  0.000000000000000E+000
  0.000000000000000E+000
  0.000000000000000E+000
  0.000000000000000E+000
  0.000000000000000E+000
  0.000000000000000E+000
  0.000000000000000E+000
  0.000000000000000E+000
  0.000000000000000E+000
  0.000000000000000E+000
  0.000000000000000E+000
  0.000000000000000E+000
  0.000000000000000E+000
  0.000000000000000E+000
  0.000000000000000E+000
  0.000000000000000E+000
  0.000000000000000E+000
  0.000000000000000E+000
  0.000000000000000E+000
  0.000000000000000E+000
  0.000000000000000E+000
  0.000000000000000E+000
  0.000000000000000E+000
  0.000000000000000E+000
  0.000000000000000E+000
  0.000000000000000E+000
  0.000000000000000E+000
  0.000000000000000E+000
  0.000000000000000E+000
  0.000000000000000E+000
  0.000000000000000E+000
  0.000000000000000E+000
  0.000000000000000E+000
  0.000000000000000E+000
  0.000000000000000E+000
  0.000000000000000E+000
  0.000000000000000E+000
  0.000000000000000E+000
  0.000000000000000E+000
  0.000000000000000E+000
  0.000000000000000E+000
  0.000000000000000E+000
  0.000000000000000E+000
  0.000000000000000E+000
  0.000000000000000E+000
  0.000000000000000E+000
  0.000000000000000E+000
  0.000000000000000E+000
  0.000000000000000E+000
  0.000000000000000E+000
  0.000000000000000E+000
  0.000000000000000E+000
  0.000000000000000E+000
  0.000000000000000E+000
  0.000000000000000E+000
  0.000000000000000E+000
  0.000000000000000E+000
  0.000000000000000E+000
  0.000000000000000E+000
  0.000000000000000E+000
  0.000000000000000E+000
  0.000000000000000E+000
  0.000000000000000E+000
  0.000000000000000E+000
  0.000000000000000E+000
  0.000000000000000E+000
  0.000000000000000E+000
  0.000000000000000E+000
  0.000000000000000E+000
  0.000000000000000E+000
  0.000000000000000E+000
  0.000000000000000E+000
  0.000000000000000E+000
  0.000000000000000E+000
  0.000000000000000E+000
  0.000000000000000E+000
  0.000000000000000E+000
  0.000000000000000E+000
  0.000000000000000E+000
  0.000000000000000E+000
  0.000000000000000E+000
  0.000000000000000E+000
  0.000000000000000E+000
  0.000000000000000E+000
  0.000000000000000E+000
  0.000000000000000E+000
  0.000000000000000E+000
  0.000000000000000E+000
  0.000000000000000E+000
  0.000000000000000E+000
  0.000000000000000E+000
  0.000000000000000E+000
  0.000000000000000E+000
  0.000000000000000E+000
  0.000000000000000E+000
  0.000000000000000E+000
  0.000000000000000E+000
  0.000000000000000E+000
  0.000000000000000E+000
  0.000000000000000E+000
  0.000000000000000E+000
  0.000000000000000E+000
  0.000000000000000E+000
  0.000000000000000E+000
  0.000000000000000E+000
  0.000000000000000E+000
  0.000000000000000E+000
  0.000000000000000E+000
  0.000000000000000E+000
  0.000000000000000E+000
  0.000000000000000E+000
  0.000000000000000E+000
  0.000000000000000E+000
  0.000000000000000E+000
  0.000000000000000E+000
  0.000000000000000E+000
  0.000000000000000E+000
  0.000000000000000E+000
  0.000000000000000E+000
  0.000000000000000E+000
  0.000000000000000E+000
  0.000000000000000E+000
  0.000000000000000E+000
  0.000000000000000E+000
  0.000000000000000E+000
  0.000000000000000E+000
  0.000000000000000E+000
  0.000000000000000E+000
  0.000000000000000E+000
  0.000000000000000E+000
  0.000000000000000E+000
  0.000000000000000E+000
  0.000000000000000E+000
  0.000000000000000E+000
  0.000000000000000E+000
  0.000000000000000E+000
  0.000000000000000E+000
  0.000000000000000E+000
  0.000000000000000E+000
  0.000000000000000E+000
  0.000000000000000E+000
  0.000000000000000E+000
  0.000000000000000E+000
  0.000000000000000E+000
  0.000000000000000E+000
  0.000000000000000E+000
  0.000000000000000E+000
  0.000000000000000E+000
  0.000000000000000E+000
  0.000000000000000E+000
  0.000000000000000E+000
  0.000000000000000E+000
  0.000000000000000E+000
  0.000000000000000E+000
  0.000000000000000E+000
  0.000000000000000E+000
  0.000000000000000E+000
  0.000000000000000E+000
  0.000000000000000E+000
  0.000000000000000E+000
  0.000000000000000E+000
  0.000000000000000E+000
  0.000000000000000E+000
  0.000000000000000E+000
  0.000000000000000E+000
  0.000000000000000E+000
  0.000000000000000E+000
  0.000000000000000E+000
  0.000000000000000E+000
  0.000000000000000E+000
  0.000000000000000E+000
  0.000000000000000E+000
  0.000000000000000E+000
  0.000000000000000E+000
  0.000000000000000E+000
  0.000000000000000E+000
  0.000000000000000E+000
  0.000000000000000E+000
  0.000000000000000E+000
  0.000000000000000E+000
  0.000000000000000E+000
  0.000000000000000E+000
  0.000000000000000E+000
  0.000000000000000E+000
  0.000000000000000E+000
  0.000000000000000E+000
  0.000000000000000E+000
  0.000000000000000E+000
  0.000000000000000E+000
  0.000000000000000E+000
  0.000000000000000E+000
  0.000000000000000E+000
  0.000000000000000E+000
  0.000000000000000E+000
  0.000000000000000E+000
  0.000000000000000E+000
  0.000000000000000E+000
  0.000000000000000E+000
  0.000000000000000E+000
  0.000000000000000E+000
  0.000000000000000E+000
  0.000000000000000E+000
  0.000000000000000E+000
  0.000000000000000E+000
  0.000000000000000E+000
  0.000000000000000E+000
  0.000000000000000E+000
  0.000000000000000E+000
  0.000000000000000E+000
  0.000000000000000E+000
  0.000000000000000E+000
  0.000000000000000E+000
  0.000000000000000E+000
  0.000000000000000E+000
  0.000000000000000E+000
  0.000000000000000E+000
  0.000000000000000E+000
  0.000000000000000E+000
  0.000000000000000E+000
  0.000000000000000E+000
  0.000000000000000E+000
  0.000000000000000E+000
  0.000000000000000E+000
  0.000000000000000E+000
  0.000000000000000E+000
  0.000000000000000E+000
  0.000000000000000E+000
  0.000000000000000E+000
  0.000000000000000E+000
  0.000000000000000E+000
  0.000000000000000E+000
  0.000000000000000E+000
  0.000000000000000E+000
  0.000000000000000E+000
  0.000000000000000E+000
  0.000000000000000E+000
  0.000000000000000E+000
  0.000000000000000E+000
  0.000000000000000E+000
  0.000000000000000E+000
  0.000000000000000E+000
  0.000000000000000E+000
  0.000000000000000E+000
  0.000000000000000E+000
  0.000000000000000E+000
  0.000000000000000E+000
  0.000000000000000E+000
  0.000000000000000E+000
  0.000000000000000E+000
  0.000000000000000E+000
  0.000000000000000E+000
  0.000000000000000E+000
  0.000000000000000E+000
  0.000000000000000E+000
  0.000000000000000E+000
  0.000000000000000E+000
  0.000000000000000E+000
  0.000000000000000E+000
  0.000000000000000E+000
  0.000000000000000E+000
  0.000000000000000E+000
  0.000000000000000E+000
  0.000000000000000E+000
  0.000000000000000E+000
  0.000000000000000E+000
  0.000000000000000E+000
  0.000000000000000E+000
  0.000000000000000E+000
  0.000000000000000E+000
  0.000000000000000E+000
  0.000000000000000E+000
  0.000000000000000E+000
  0.000000000000000E+000
  0.000000000000000E+000
  0.000000000000000E+000
  0.000000000000000E+000
  0.000000000000000E+000
  0.000000000000000E+000
  0.000000000000000E+000
  0.000000000000000E+000
  0.000000000000000E+000
  0.000000000000000E+000
  0.000000000000000E+000
  0.000000000000000E+000
  0.000000000000000E+000
  0.000000000000000E+000
  0.000000000000000E+000
  0.000000000000000E+000
  0.000000000000000E+000
  0.000000000000000E+000
  0.000000000000000E+000
  0.000000000000000E+000
  0.000000000000000E+000
  0.000000000000000E+000
  0.000000000000000E+000
  0.000000000000000E+000
  0.000000000000000E+000
  0.000000000000000E+000
  0.000000000000000E+000
  0.000000000000000E+000
  0.000000000000000E+000
  0.000000000000000E+000
  0.000000000000000E+000
  0.000000000000000E+000
  0.000000000000000E+000
  0.000000000000000E+000
  0.000000000000000E+000
  0.000000000000000E+000
  0.000000000000000E+000
  0.000000000000000E+000
  0.000000000000000E+000
  0.000000000000000E+000
  0.000000000000000E+000
  0.000000000000000E+000
  0.000000000000000E+000
  0.000000000000000E+000
  0.000000000000000E+000
  0.000000000000000E+000
  0.000000000000000E+000
  0.000000000000000E+000
  0.000000000000000E+000
  0.000000000000000E+000
  0.000000000000000E+000
  0.000000000000000E+000
  0.000000000000000E+000
  0.000000000000000E+000
  0.000000000000000E+000
  0.000000000000000E+000
  0.000000000000000E+000
  0.000000000000000E+000
  0.000000000000000E+000
  0.000000000000000E+000
  0.000000000000000E+000
  0.000000000000000E+000
  0.000000000000000E+000
  0.000000000000000E+000
  0.000000000000000E+000
  0.000000000000000E+000
  0.000000000000000E+000
  0.000000000000000E+000
  0.000000000000000E+000
  0.000000000000000E+000
  0.000000000000000E+000
  0.000000000000000E+000
  0.000000000000000E+000
  0.000000000000000E+000
  0.000000000000000E+000
  0.000000000000000E+000
  0.000000000000000E+000
  0.000000000000000E+000
  0.000000000000000E+000
  0.000000000000000E+000
  0.000000000000000E+000
  0.000000000000000E+000
  0.000000000000000E+000
  0.000000000000000E+000
  0.000000000000000E+000
  0.000000000000000E+000
  0.000000000000000E+000
  0.000000000000000E+000
  0.000000000000000E+000
  0.000000000000000E+000
  0.000000000000000E+000
  0.000000000000000E+000
  0.000000000000000E+000
  0.000000000000000E+000
  0.000000000000000E+000
  0.000000000000000E+000
  0.000000000000000E+000
  0.000000000000000E+000
  0.000000000000000E+000
  0.000000000000000E+000
  0.000000000000000E+000
  0.000000000000000E+000
  0.000000000000000E+000
  0.000000000000000E+000
  0.000000000000000E+000
  0.000000000000000E+000
  0.000000000000000E+000
  0.000000000000000E+000
  0.000000000000000E+000
  0.000000000000000E+000
  0.000000000000000E+000
  0.000000000000000E+000
  0.000000000000000E+000
  0.000000000000000E+000
  0.000000000000000E+000
  0.000000000000000E+000
  0.000000000000000E+000
  0.000000000000000E+000
  0.000000000000000E+000
  0.000000000000000E+000
  0.000000000000000E+000
  0.000000000000000E+000
  0.000000000000000E+000
  0.000000000000000E+000
  0.000000000000000E+000
  0.000000000000000E+000
  0.000000000000000E+000
  0.000000000000000E+000
  0.000000000000000E+000
  0.000000000000000E+000
  0.000000000000000E+000
  0.000000000000000E+000
  0.000000000000000E+000
  0.000000000000000E+000
  0.000000000000000E+000
  0.000000000000000E+000
  0.000000000000000E+000
  0.000000000000000E+000
  0.000000000000000E+000
  0.000000000000000E+000
  0.000000000000000E+000
  0.000000000000000E+000
  0.000000000000000E+000
  0.000000000000000E+000
  0.000000000000000E+000
  0.000000000000000E+000
  0.000000000000000E+000
  0.000000000000000E+000
  0.000000000000000E+000
  0.000000000000000E+000
  0.000000000000000E+000
  0.000000000000000E+000
  0.000000000000000E+000
  0.000000000000000E+000
  0.000000000000000E+000
  0.000000000000000E+000
  0.000000000000000E+000
  0.000000000000000E+000
  0.000000000000000E+000
  0.000000000000000E+000
  0.000000000000000E+000
  0.000000000000000E+000
  0.000000000000000E+000
  0.000000000000000E+000
  0.000000000000000E+000
  0.000000000000000E+000
  0.000000000000000E+000
  0.000000000000000E+000
  0.000000000000000E+000
  0.000000000000000E+000
  0.000000000000000E+000
  0.000000000000000E+000
  0.000000000000000E+000
  0.000000000000000E+000
  0.000000000000000E+000
  0.000000000000000E+000
  0.000000000000000E+000
  0.000000000000000E+000
  0.000000000000000E+000
  0.000000000000000E+000
  0.000000000000000E+000
  0.000000000000000E+000
  0.000000000000000E+000
  0.000000000000000E+000
  0.000000000000000E+000
  0.000000000000000E+000
  0.000000000000000E+000
  0.000000000000000E+000
  0.000000000000000E+000
  0.000000000000000E+000
  0.000000000000000E+000
  0.000000000000000E+000
  0.000000000000000E+000
  0.000000000000000E+000
  0.000000000000000E+000
  0.000000000000000E+000
  0.000000000000000E+000
  0.000000000000000E+000
  0.000000000000000E+000
  0.000000000000000E+000
  0.000000000000000E+000
  0.000000000000000E+000
  0.000000000000000E+000
  0.000000000000000E+000
  0.000000000000000E+000
  0.000000000000000E+000
  0.000000000000000E+000
  0.000000000000000E+000
  0.000000000000000E+000
  0.000000000000000E+000
  0.000000000000000E+000
  0.000000000000000E+000
  0.000000000000000E+000
  0.000000000000000E+000
  0.000000000000000E+000
  0.000000000000000E+000
  0.000000000000000E+000
  0.000000000000000E+000
  0.000000000000000E+000
  0.000000000000000E+000
  0.000000000000000E+000
  0.000000000000000E+000
  0.000000000000000E+000
  0.000000000000000E+000
  0.000000000000000E+000
  0.000000000000000E+000
  0.000000000000000E+000
  0.000000000000000E+000
  0.000000000000000E+000
  0.000000000000000E+000
  0.000000000000000E+000
  0.000000000000000E+000
  0.000000000000000E+000
  0.000000000000000E+000
  0.000000000000000E+000
  0.000000000000000E+000
  0.000000000000000E+000
  0.000000000000000E+000
  0.000000000000000E+000
  0.000000000000000E+000
  0.000000000000000E+000
  0.000000000000000E+000
  0.000000000000000E+000
  0.000000000000000E+000
  0.000000000000000E+000
  0.000000000000000E+000
  0.000000000000000E+000
  0.000000000000000E+000
  0.000000000000000E+000
  0.000000000000000E+000
  0.000000000000000E+000
  0.000000000000000E+000
  0.000000000000000E+000
  0.000000000000000E+000
  0.000000000000000E+000
  0.000000000000000E+000
  0.000000000000000E+000
  0.000000000000000E+000
  0.000000000000000E+000
  0.000000000000000E+000
  0.000000000000000E+000
  0.000000000000000E+000
  0.000000000000000E+000
  0.000000000000000E+000
  0.000000000000000E+000
  0.000000000000000E+000
  0.000000000000000E+000
  0.000000000000000E+000
  0.000000000000000E+000
  0.000000000000000E+000
  0.000000000000000E+000
  0.000000000000000E+000
  0.000000000000000E+000
  0.000000000000000E+000
  0.000000000000000E+000
  0.000000000000000E+000
  0.000000000000000E+000
  0.000000000000000E+000
  0.000000000000000E+000
  0.000000000000000E+000
  0.000000000000000E+000
  0.000000000000000E+000
  0.000000000000000E+000
  0.000000000000000E+000
  0.000000000000000E+000
  0.000000000000000E+000
  0.000000000000000E+000
  0.000000000000000E+000
  0.000000000000000E+000
  0.000000000000000E+000
  0.000000000000000E+000
  0.000000000000000E+000
  0.000000000000000E+000
  0.000000000000000E+000
  0.000000000000000E+000
  0.000000000000000E+000
  0.000000000000000E+000
  0.000000000000000E+000
  0.000000000000000E+000
  0.000000000000000E+000
  0.000000000000000E+000
  0.000000000000000E+000
  0.000000000000000E+000
  0.000000000000000E+000
  0.000000000000000E+000
  0.000000000000000E+000
  0.000000000000000E+000
  0.000000000000000E+000
  0.000000000000000E+000
  0.000000000000000E+000
  0.000000000000000E+000
  0.000000000000000E+000
  0.000000000000000E+000
  0.000000000000000E+000
  0.000000000000000E+000
  0.000000000000000E+000
  0.000000000000000E+000
  0.000000000000000E+000
  0.000000000000000E+000
  0.000000000000000E+000
  0.000000000000000E+000
  0.000000000000000E+000
  0.000000000000000E+000
  0.000000000000000E+000
  0.000000000000000E+000
  0.000000000000000E+000
  0.000000000000000E+000
  0.000000000000000E+000
  0.000000000000000E+000
  0.000000000000000E+000
  0.000000000000000E+000
  0.000000000000000E+000
  0.000000000000000E+000
  0.000000000000000E+000
  0.000000000000000E+000
  0.000000000000000E+000
  0.000000000000000E+000
  0.000000000000000E+000
  0.000000000000000E+000
  0.000000000000000E+000
  0.000000000000000E+000
  0.000000000000000E+000
  0.000000000000000E+000
  0.000000000000000E+000
  0.000000000000000E+000
  0.000000000000000E+000
  0.000000000000000E+000
  0.000000000000000E+000
  0.000000000000000E+000
  0.000000000000000E+000
  0.000000000000000E+000
  0.000000000000000E+000
  0.000000000000000E+000
  0.000000000000000E+000
  0.000000000000000E+000
  0.000000000000000E+000
  0.000000000000000E+000
  0.000000000000000E+000
  0.000000000000000E+000
  0.000000000000000E+000
  0.000000000000000E+000
  0.000000000000000E+000
  0.000000000000000E+000
  0.000000000000000E+000
  0.000000000000000E+000
  0.000000000000000E+000
  0.000000000000000E+000
  0.000000000000000E+000
  0.000000000000000E+000
