# vtk DataFile Version 3.0
vtk output
ASCII
DATASET UNSTRUCTURED_GRID
POINTS      1225 double 
  0.00000000E+00  2.40000000E+01  0.00000000E+00
  0.00000000E+00  2.30000000E+01  0.00000000E+00
  0.00000000E+00  2.20000000E+01  0.00000000E+00
  0.00000000E+00  2.10000000E+01  0.00000000E+00
  0.00000000E+00  2.00000000E+01  0.00000000E+00
  0.00000000E+00  1.90000000E+01  0.00000000E+00
  0.00000000E+00  1.80000000E+01  0.00000000E+00
  0.00000000E+00  1.70000000E+01  0.00000000E+00
  0.00000000E+00  1.60000000E+01  0.00000000E+00
  0.00000000E+00  1.50000000E+01  0.00000000E+00
  0.00000000E+00  1.40000000E+01  0.00000000E+00
  0.00000000E+00  1.30000000E+01  0.00000000E+00
  0.00000000E+00  1.20000000E+01  0.00000000E+00
  0.00000000E+00  1.10000000E+01  0.00000000E+00
  0.00000000E+00  1.00000000E+01  0.00000000E+00
  0.00000000E+00  9.00000000E+00  0.00000000E+00
  0.00000000E+00  8.00000000E+00  0.00000000E+00
  0.00000000E+00  7.00000000E+00  0.00000000E+00
  0.00000000E+00  6.00000000E+00  0.00000000E+00
  0.00000000E+00  5.00000000E+00  0.00000000E+00
  0.00000000E+00  4.00000000E+00  0.00000000E+00
  0.00000000E+00  3.00000000E+00  0.00000000E+00
  0.00000000E+00  2.00000000E+00  0.00000000E+00
  0.00000000E+00  1.00000000E+00  0.00000000E+00
  0.00000000E+00 -2.66453526E-15  0.00000000E+00
  1.00000000E+00  2.40000000E+01  0.00000000E+00
  1.00000000E+00  2.30000000E+01  0.00000000E+00
  1.00000000E+00  2.20000000E+01  0.00000000E+00
  1.00000000E+00  2.10000000E+01  0.00000000E+00
  1.00000000E+00  2.00000000E+01  0.00000000E+00
  1.00000000E+00  1.90000000E+01  0.00000000E+00
  1.00000000E+00  1.80000000E+01  0.00000000E+00
  1.00000000E+00  1.70000000E+01  0.00000000E+00
  1.00000000E+00  1.60000000E+01  0.00000000E+00
  1.00000000E+00  1.50000000E+01  0.00000000E+00
  1.00000000E+00  1.40000000E+01  0.00000000E+00
  1.00000000E+00  1.30000000E+01  0.00000000E+00
  1.00000000E+00  1.20000000E+01  0.00000000E+00
  1.00000000E+00  1.10000000E+01  0.00000000E+00
  1.00000000E+00  1.00000000E+01  0.00000000E+00
  1.00000000E+00  9.00000000E+00  0.00000000E+00
  1.00000000E+00  8.00000000E+00  0.00000000E+00
  1.00000000E+00  7.00000000E+00  0.00000000E+00
  1.00000000E+00  6.00000000E+00  0.00000000E+00
  1.00000000E+00  5.00000000E+00  0.00000000E+00
  1.00000000E+00  4.00000000E+00  0.00000000E+00
  1.00000000E+00  3.00000000E+00  0.00000000E+00
  1.00000000E+00  2.00000000E+00  0.00000000E+00
  1.00000000E+00  1.00000000E+00  0.00000000E+00
  1.00000000E+00 -2.66453526E-15  0.00000000E+00
  2.00000000E+00  2.40000000E+01  0.00000000E+00
  2.00000000E+00  2.30000000E+01  0.00000000E+00
  2.00000000E+00  2.20000000E+01  0.00000000E+00
  2.00000000E+00  2.10000000E+01  0.00000000E+00
  2.00000000E+00  2.00000000E+01  0.00000000E+00
  2.00000000E+00  1.90000000E+01  0.00000000E+00
  2.00000000E+00  1.80000000E+01  0.00000000E+00
  2.00000000E+00  1.70000000E+01  0.00000000E+00
  2.00000000E+00  1.60000000E+01  0.00000000E+00
  2.00000000E+00  1.50000000E+01  0.00000000E+00
  2.00000000E+00  1.40000000E+01  0.00000000E+00
  2.00000000E+00  1.30000000E+01  0.00000000E+00
  2.00000000E+00  1.20000000E+01  0.00000000E+00
  2.00000000E+00  1.10000000E+01  0.00000000E+00
  2.00000000E+00  1.00000000E+01  0.00000000E+00
  2.00000000E+00  9.00000000E+00  0.00000000E+00
  2.00000000E+00  8.00000000E+00  0.00000000E+00
  2.00000000E+00  7.00000000E+00  0.00000000E+00
  2.00000000E+00  6.00000000E+00  0.00000000E+00
  2.00000000E+00  5.00000000E+00  0.00000000E+00
  2.00000000E+00  4.00000000E+00  0.00000000E+00
  2.00000000E+00  3.00000000E+00  0.00000000E+00
  2.00000000E+00  2.00000000E+00  0.00000000E+00
  2.00000000E+00  1.00000000E+00  0.00000000E+00
  2.00000000E+00 -2.66453526E-15  0.00000000E+00
  3.00000000E+00  2.40000000E+01  0.00000000E+00
  3.00000000E+00  2.30000000E+01  0.00000000E+00
  3.00000000E+00  2.20000000E+01  0.00000000E+00
  3.00000000E+00  2.10000000E+01  0.00000000E+00
  3.00000000E+00  2.00000000E+01  0.00000000E+00
  3.00000000E+00  1.90000000E+01  0.00000000E+00
  3.00000000E+00  1.80000000E+01  0.00000000E+00
  3.00000000E+00  1.70000000E+01  0.00000000E+00
  3.00000000E+00  1.60000000E+01  0.00000000E+00
  3.00000000E+00  1.50000000E+01  0.00000000E+00
  3.00000000E+00  1.40000000E+01  0.00000000E+00
  3.00000000E+00  1.30000000E+01  0.00000000E+00
  3.00000000E+00  1.20000000E+01  0.00000000E+00
  3.00000000E+00  1.10000000E+01  0.00000000E+00
  3.00000000E+00  1.00000000E+01  0.00000000E+00
  3.00000000E+00  9.00000000E+00  0.00000000E+00
  3.00000000E+00  8.00000000E+00  0.00000000E+00
  3.00000000E+00  7.00000000E+00  0.00000000E+00
  3.00000000E+00  6.00000000E+00  0.00000000E+00
  3.00000000E+00  5.00000000E+00  0.00000000E+00
  3.00000000E+00  4.00000000E+00  0.00000000E+00
  3.00000000E+00  3.00000000E+00  0.00000000E+00
  3.00000000E+00  2.00000000E+00  0.00000000E+00
  3.00000000E+00  1.00000000E+00  0.00000000E+00
  3.00000000E+00 -2.66453526E-15  0.00000000E+00
  4.00000000E+00  2.40000000E+01  0.00000000E+00
  4.00000000E+00  2.30000000E+01  0.00000000E+00
  4.00000000E+00  2.20000000E+01  0.00000000E+00
  4.00000000E+00  2.10000000E+01  0.00000000E+00
  4.00000000E+00  2.00000000E+01  0.00000000E+00
  4.00000000E+00  1.90000000E+01  0.00000000E+00
  4.00000000E+00  1.80000000E+01  0.00000000E+00
  4.00000000E+00  1.70000000E+01  0.00000000E+00
  4.00000000E+00  1.60000000E+01  0.00000000E+00
  4.00000000E+00  1.50000000E+01  0.00000000E+00
  4.00000000E+00  1.40000000E+01  0.00000000E+00
  4.00000000E+00  1.30000000E+01  0.00000000E+00
  4.00000000E+00  1.20000000E+01  0.00000000E+00
  4.00000000E+00  1.10000000E+01  0.00000000E+00
  4.00000000E+00  1.00000000E+01  0.00000000E+00
  4.00000000E+00  9.00000000E+00  0.00000000E+00
  4.00000000E+00  8.00000000E+00  0.00000000E+00
  4.00000000E+00  7.00000000E+00  0.00000000E+00
  4.00000000E+00  6.00000000E+00  0.00000000E+00
  4.00000000E+00  5.00000000E+00  0.00000000E+00
  4.00000000E+00  4.00000000E+00  0.00000000E+00
  4.00000000E+00  3.00000000E+00  0.00000000E+00
  4.00000000E+00  2.00000000E+00  0.00000000E+00
  4.00000000E+00  1.00000000E+00  0.00000000E+00
  4.00000000E+00 -2.66453526E-15  0.00000000E+00
  5.00000000E+00  2.40000000E+01  0.00000000E+00
  5.00000000E+00  2.30000000E+01  0.00000000E+00
  5.00000000E+00  2.20000000E+01  0.00000000E+00
  5.00000000E+00  2.10000000E+01  0.00000000E+00
  5.00000000E+00  2.00000000E+01  0.00000000E+00
  5.00000000E+00  1.90000000E+01  0.00000000E+00
  5.00000000E+00  1.80000000E+01  0.00000000E+00
  5.00000000E+00  1.70000000E+01  0.00000000E+00
  5.00000000E+00  1.60000000E+01  0.00000000E+00
  5.00000000E+00  1.50000000E+01  0.00000000E+00
  5.00000000E+00  1.40000000E+01  0.00000000E+00
  5.00000000E+00  1.30000000E+01  0.00000000E+00
  5.00000000E+00  1.20000000E+01  0.00000000E+00
  5.00000000E+00  1.10000000E+01  0.00000000E+00
  5.00000000E+00  1.00000000E+01  0.00000000E+00
  5.00000000E+00  9.00000000E+00  0.00000000E+00
  5.00000000E+00  8.00000000E+00  0.00000000E+00
  5.00000000E+00  7.00000000E+00  0.00000000E+00
  5.00000000E+00  6.00000000E+00  0.00000000E+00
  5.00000000E+00  5.00000000E+00  0.00000000E+00
  5.00000000E+00  4.00000000E+00  0.00000000E+00
  5.00000000E+00  3.00000000E+00  0.00000000E+00
  5.00000000E+00  2.00000000E+00  0.00000000E+00
  5.00000000E+00  1.00000000E+00  0.00000000E+00
  5.00000000E+00 -2.66453526E-15  0.00000000E+00
  6.00000000E+00  2.40000000E+01  0.00000000E+00
  6.00000000E+00  2.30000000E+01  0.00000000E+00
  6.00000000E+00  2.20000000E+01  0.00000000E+00
  6.00000000E+00  2.10000000E+01  0.00000000E+00
  6.00000000E+00  2.00000000E+01  0.00000000E+00
  6.00000000E+00  1.90000000E+01  0.00000000E+00
  6.00000000E+00  1.80000000E+01  0.00000000E+00
  6.00000000E+00  1.70000000E+01  0.00000000E+00
  6.00000000E+00  1.60000000E+01  0.00000000E+00
  6.00000000E+00  1.50000000E+01  0.00000000E+00
  6.00000000E+00  1.40000000E+01  0.00000000E+00
  6.00000000E+00  1.30000000E+01  0.00000000E+00
  6.00000000E+00  1.20000000E+01  0.00000000E+00
  6.00000000E+00  1.10000000E+01  0.00000000E+00
  6.00000000E+00  1.00000000E+01  0.00000000E+00
  6.00000000E+00  9.00000000E+00  0.00000000E+00
  6.00000000E+00  8.00000000E+00  0.00000000E+00
  6.00000000E+00  7.00000000E+00  0.00000000E+00
  6.00000000E+00  6.00000000E+00  0.00000000E+00
  6.00000000E+00  5.00000000E+00  0.00000000E+00
  6.00000000E+00  4.00000000E+00  0.00000000E+00
  6.00000000E+00  3.00000000E+00  0.00000000E+00
  6.00000000E+00  2.00000000E+00  0.00000000E+00
  6.00000000E+00  1.00000000E+00  0.00000000E+00
  6.00000000E+00 -2.66453526E-15  0.00000000E+00
  7.00000000E+00  2.40000000E+01  0.00000000E+00
  7.00000000E+00  2.30000000E+01  0.00000000E+00
  7.00000000E+00  2.20000000E+01  0.00000000E+00
  7.00000000E+00  2.10000000E+01  0.00000000E+00
  7.00000000E+00  2.00000000E+01  0.00000000E+00
  7.00000000E+00  1.90000000E+01  0.00000000E+00
  7.00000000E+00  1.80000000E+01  0.00000000E+00
  7.00000000E+00  1.70000000E+01  0.00000000E+00
  7.00000000E+00  1.60000000E+01  0.00000000E+00
  7.00000000E+00  1.50000000E+01  0.00000000E+00
  7.00000000E+00  1.40000000E+01  0.00000000E+00
  7.00000000E+00  1.30000000E+01  0.00000000E+00
  7.00000000E+00  1.20000000E+01  0.00000000E+00
  7.00000000E+00  1.10000000E+01  0.00000000E+00
  7.00000000E+00  1.00000000E+01  0.00000000E+00
  7.00000000E+00  9.00000000E+00  0.00000000E+00
  7.00000000E+00  8.00000000E+00  0.00000000E+00
  7.00000000E+00  7.00000000E+00  0.00000000E+00
  7.00000000E+00  6.00000000E+00  0.00000000E+00
  7.00000000E+00  5.00000000E+00  0.00000000E+00
  7.00000000E+00  4.00000000E+00  0.00000000E+00
  7.00000000E+00  3.00000000E+00  0.00000000E+00
  7.00000000E+00  2.00000000E+00  0.00000000E+00
  7.00000000E+00  1.00000000E+00  0.00000000E+00
  7.00000000E+00 -2.66453526E-15  0.00000000E+00
  8.00000000E+00  2.40000000E+01  0.00000000E+00
  8.00000000E+00  2.30000000E+01  0.00000000E+00
  8.00000000E+00  2.20000000E+01  0.00000000E+00
  8.00000000E+00  2.10000000E+01  0.00000000E+00
  8.00000000E+00  2.00000000E+01  0.00000000E+00
  8.00000000E+00  1.90000000E+01  0.00000000E+00
  8.00000000E+00  1.80000000E+01  0.00000000E+00
  8.00000000E+00  1.70000000E+01  0.00000000E+00
  8.00000000E+00  1.60000000E+01  0.00000000E+00
  8.00000000E+00  1.50000000E+01  0.00000000E+00
  8.00000000E+00  1.40000000E+01  0.00000000E+00
  8.00000000E+00  1.30000000E+01  0.00000000E+00
  8.00000000E+00  1.20000000E+01  0.00000000E+00
  8.00000000E+00  1.10000000E+01  0.00000000E+00
  8.00000000E+00  1.00000000E+01  0.00000000E+00
  8.00000000E+00  9.00000000E+00  0.00000000E+00
  8.00000000E+00  8.00000000E+00  0.00000000E+00
  8.00000000E+00  7.00000000E+00  0.00000000E+00
  8.00000000E+00  6.00000000E+00  0.00000000E+00
  8.00000000E+00  5.00000000E+00  0.00000000E+00
  8.00000000E+00  4.00000000E+00  0.00000000E+00
  8.00000000E+00  3.00000000E+00  0.00000000E+00
  8.00000000E+00  2.00000000E+00  0.00000000E+00
  8.00000000E+00  1.00000000E+00  0.00000000E+00
  8.00000000E+00 -2.66453526E-15  0.00000000E+00
  9.00000000E+00  2.40000000E+01  0.00000000E+00
  9.00000000E+00  2.30000000E+01  0.00000000E+00
  9.00000000E+00  2.20000000E+01  0.00000000E+00
  9.00000000E+00  2.10000000E+01  0.00000000E+00
  9.00000000E+00  2.00000000E+01  0.00000000E+00
  9.00000000E+00  1.90000000E+01  0.00000000E+00
  9.00000000E+00  1.80000000E+01  0.00000000E+00
  9.00000000E+00  1.70000000E+01  0.00000000E+00
  9.00000000E+00  1.60000000E+01  0.00000000E+00
  9.00000000E+00  1.50000000E+01  0.00000000E+00
  9.00000000E+00  1.40000000E+01  0.00000000E+00
  9.00000000E+00  1.30000000E+01  0.00000000E+00
  9.00000000E+00  1.20000000E+01  0.00000000E+00
  9.00000000E+00  1.10000000E+01  0.00000000E+00
  9.00000000E+00  1.00000000E+01  0.00000000E+00
  9.00000000E+00  9.00000000E+00  0.00000000E+00
  9.00000000E+00  8.00000000E+00  0.00000000E+00
  9.00000000E+00  7.00000000E+00  0.00000000E+00
  9.00000000E+00  6.00000000E+00  0.00000000E+00
  9.00000000E+00  5.00000000E+00  0.00000000E+00
  9.00000000E+00  4.00000000E+00  0.00000000E+00
  9.00000000E+00  3.00000000E+00  0.00000000E+00
  9.00000000E+00  2.00000000E+00  0.00000000E+00
  9.00000000E+00  1.00000000E+00  0.00000000E+00
  9.00000000E+00 -2.66453526E-15  0.00000000E+00
  1.00000000E+01  2.40000000E+01  0.00000000E+00
  1.00000000E+01  2.30000000E+01  0.00000000E+00
  1.00000000E+01  2.20000000E+01  0.00000000E+00
  1.00000000E+01  2.10000000E+01  0.00000000E+00
  1.00000000E+01  2.00000000E+01  0.00000000E+00
  1.00000000E+01  1.90000000E+01  0.00000000E+00
  1.00000000E+01  1.80000000E+01  0.00000000E+00
  1.00000000E+01  1.70000000E+01  0.00000000E+00
  1.00000000E+01  1.60000000E+01  0.00000000E+00
  1.00000000E+01  1.50000000E+01  0.00000000E+00
  1.00000000E+01  1.40000000E+01  0.00000000E+00
  1.00000000E+01  1.30000000E+01  0.00000000E+00
  1.00000000E+01  1.20000000E+01  0.00000000E+00
  1.00000000E+01  1.10000000E+01  0.00000000E+00
  1.00000000E+01  1.00000000E+01  0.00000000E+00
  1.00000000E+01  9.00000000E+00  0.00000000E+00
  1.00000000E+01  8.00000000E+00  0.00000000E+00
  1.00000000E+01  7.00000000E+00  0.00000000E+00
  1.00000000E+01  6.00000000E+00  0.00000000E+00
  1.00000000E+01  5.00000000E+00  0.00000000E+00
  1.00000000E+01  4.00000000E+00  0.00000000E+00
  1.00000000E+01  3.00000000E+00  0.00000000E+00
  1.00000000E+01  2.00000000E+00  0.00000000E+00
  1.00000000E+01  1.00000000E+00  0.00000000E+00
  1.00000000E+01 -2.66453526E-15  0.00000000E+00
  1.10000000E+01  2.40000000E+01  0.00000000E+00
  1.10000000E+01  2.30000000E+01  0.00000000E+00
  1.10000000E+01  2.20000000E+01  0.00000000E+00
  1.10000000E+01  2.10000000E+01  0.00000000E+00
  1.10000000E+01  2.00000000E+01  0.00000000E+00
  1.10000000E+01  1.90000000E+01  0.00000000E+00
  1.10000000E+01  1.80000000E+01  0.00000000E+00
  1.10000000E+01  1.70000000E+01  0.00000000E+00
  1.10000000E+01  1.60000000E+01  0.00000000E+00
  1.10000000E+01  1.50000000E+01  0.00000000E+00
  1.10000000E+01  1.40000000E+01  0.00000000E+00
  1.10000000E+01  1.30000000E+01  0.00000000E+00
  1.10000000E+01  1.20000000E+01  0.00000000E+00
  1.10000000E+01  1.10000000E+01  0.00000000E+00
  1.10000000E+01  1.00000000E+01  0.00000000E+00
  1.10000000E+01  9.00000000E+00  0.00000000E+00
  1.10000000E+01  8.00000000E+00  0.00000000E+00
  1.10000000E+01  7.00000000E+00  0.00000000E+00
  1.10000000E+01  6.00000000E+00  0.00000000E+00
  1.10000000E+01  5.00000000E+00  0.00000000E+00
  1.10000000E+01  4.00000000E+00  0.00000000E+00
  1.10000000E+01  3.00000000E+00  0.00000000E+00
  1.10000000E+01  2.00000000E+00  0.00000000E+00
  1.10000000E+01  1.00000000E+00  0.00000000E+00
  1.10000000E+01 -2.66453526E-15  0.00000000E+00
  1.20000000E+01  2.40000000E+01  0.00000000E+00
  1.20000000E+01  2.30000000E+01  0.00000000E+00
  1.20000000E+01  2.20000000E+01  0.00000000E+00
  1.20000000E+01  2.10000000E+01  0.00000000E+00
  1.20000000E+01  2.00000000E+01  0.00000000E+00
  1.20000000E+01  1.90000000E+01  0.00000000E+00
  1.20000000E+01  1.80000000E+01  0.00000000E+00
  1.20000000E+01  1.70000000E+01  0.00000000E+00
  1.20000000E+01  1.60000000E+01  0.00000000E+00
  1.20000000E+01  1.50000000E+01  0.00000000E+00
  1.20000000E+01  1.40000000E+01  0.00000000E+00
  1.20000000E+01  1.30000000E+01  0.00000000E+00
  1.20000000E+01  1.20000000E+01  0.00000000E+00
  1.20000000E+01  1.10000000E+01  0.00000000E+00
  1.20000000E+01  1.00000000E+01  0.00000000E+00
  1.20000000E+01  9.00000000E+00  0.00000000E+00
  1.20000000E+01  8.00000000E+00  0.00000000E+00
  1.20000000E+01  7.00000000E+00  0.00000000E+00
  1.20000000E+01  6.00000000E+00  0.00000000E+00
  1.20000000E+01  5.00000000E+00  0.00000000E+00
  1.20000000E+01  4.00000000E+00  0.00000000E+00
  1.20000000E+01  3.00000000E+00  0.00000000E+00
  1.20000000E+01  2.00000000E+00  0.00000000E+00
  1.20000000E+01  1.00000000E+00  0.00000000E+00
  1.20000000E+01 -2.66453526E-15  0.00000000E+00
  1.30000000E+01  2.40000000E+01  0.00000000E+00
  1.30000000E+01  2.30000000E+01  0.00000000E+00
  1.30000000E+01  2.20000000E+01  0.00000000E+00
  1.30000000E+01  2.10000000E+01  0.00000000E+00
  1.30000000E+01  2.00000000E+01  0.00000000E+00
  1.30000000E+01  1.90000000E+01  0.00000000E+00
  1.30000000E+01  1.80000000E+01  0.00000000E+00
  1.30000000E+01  1.70000000E+01  0.00000000E+00
  1.30000000E+01  1.60000000E+01  0.00000000E+00
  1.30000000E+01  1.50000000E+01  0.00000000E+00
  1.30000000E+01  1.40000000E+01  0.00000000E+00
  1.30000000E+01  1.30000000E+01  0.00000000E+00
  1.30000000E+01  1.20000000E+01  0.00000000E+00
  1.30000000E+01  1.10000000E+01  0.00000000E+00
  1.30000000E+01  1.00000000E+01  0.00000000E+00
  1.30000000E+01  9.00000000E+00  0.00000000E+00
  1.30000000E+01  8.00000000E+00  0.00000000E+00
  1.30000000E+01  7.00000000E+00  0.00000000E+00
  1.30000000E+01  6.00000000E+00  0.00000000E+00
  1.30000000E+01  5.00000000E+00  0.00000000E+00
  1.30000000E+01  4.00000000E+00  0.00000000E+00
  1.30000000E+01  3.00000000E+00  0.00000000E+00
  1.30000000E+01  2.00000000E+00  0.00000000E+00
  1.30000000E+01  1.00000000E+00  0.00000000E+00
  1.30000000E+01 -2.66453526E-15  0.00000000E+00
  1.40000000E+01  2.40000000E+01  0.00000000E+00
  1.40000000E+01  2.30000000E+01  0.00000000E+00
  1.40000000E+01  2.20000000E+01  0.00000000E+00
  1.40000000E+01  2.10000000E+01  0.00000000E+00
  1.40000000E+01  2.00000000E+01  0.00000000E+00
  1.40000000E+01  1.90000000E+01  0.00000000E+00
  1.40000000E+01  1.80000000E+01  0.00000000E+00
  1.40000000E+01  1.70000000E+01  0.00000000E+00
  1.40000000E+01  1.60000000E+01  0.00000000E+00
  1.40000000E+01  1.50000000E+01  0.00000000E+00
  1.40000000E+01  1.40000000E+01  0.00000000E+00
  1.40000000E+01  1.30000000E+01  0.00000000E+00
  1.40000000E+01  1.20000000E+01  0.00000000E+00
  1.40000000E+01  1.10000000E+01  0.00000000E+00
  1.40000000E+01  1.00000000E+01  0.00000000E+00
  1.40000000E+01  9.00000000E+00  0.00000000E+00
  1.40000000E+01  8.00000000E+00  0.00000000E+00
  1.40000000E+01  7.00000000E+00  0.00000000E+00
  1.40000000E+01  6.00000000E+00  0.00000000E+00
  1.40000000E+01  5.00000000E+00  0.00000000E+00
  1.40000000E+01  4.00000000E+00  0.00000000E+00
  1.40000000E+01  3.00000000E+00  0.00000000E+00
  1.40000000E+01  2.00000000E+00  0.00000000E+00
  1.40000000E+01  1.00000000E+00  0.00000000E+00
  1.40000000E+01 -2.66453526E-15  0.00000000E+00
  1.50000000E+01  2.40000000E+01  0.00000000E+00
  1.50000000E+01  2.30000000E+01  0.00000000E+00
  1.50000000E+01  2.20000000E+01  0.00000000E+00
  1.50000000E+01  2.10000000E+01  0.00000000E+00
  1.50000000E+01  2.00000000E+01  0.00000000E+00
  1.50000000E+01  1.90000000E+01  0.00000000E+00
  1.50000000E+01  1.80000000E+01  0.00000000E+00
  1.50000000E+01  1.70000000E+01  0.00000000E+00
  1.50000000E+01  1.60000000E+01  0.00000000E+00
  1.50000000E+01  1.50000000E+01  0.00000000E+00
  1.50000000E+01  1.40000000E+01  0.00000000E+00
  1.50000000E+01  1.30000000E+01  0.00000000E+00
  1.50000000E+01  1.20000000E+01  0.00000000E+00
  1.50000000E+01  1.10000000E+01  0.00000000E+00
  1.50000000E+01  1.00000000E+01  0.00000000E+00
  1.50000000E+01  9.00000000E+00  0.00000000E+00
  1.50000000E+01  8.00000000E+00  0.00000000E+00
  1.50000000E+01  7.00000000E+00  0.00000000E+00
  1.50000000E+01  6.00000000E+00  0.00000000E+00
  1.50000000E+01  5.00000000E+00  0.00000000E+00
  1.50000000E+01  4.00000000E+00  0.00000000E+00
  1.50000000E+01  3.00000000E+00  0.00000000E+00
  1.50000000E+01  2.00000000E+00  0.00000000E+00
  1.50000000E+01  1.00000000E+00  0.00000000E+00
  1.50000000E+01 -2.66453526E-15  0.00000000E+00
  1.60000000E+01  2.40000000E+01  0.00000000E+00
  1.60000000E+01  2.30000000E+01  0.00000000E+00
  1.60000000E+01  2.20000000E+01  0.00000000E+00
  1.60000000E+01  2.10000000E+01  0.00000000E+00
  1.60000000E+01  2.00000000E+01  0.00000000E+00
  1.60000000E+01  1.90000000E+01  0.00000000E+00
  1.60000000E+01  1.80000000E+01  0.00000000E+00
  1.60000000E+01  1.70000000E+01  0.00000000E+00
  1.60000000E+01  1.60000000E+01  0.00000000E+00
  1.60000000E+01  1.50000000E+01  0.00000000E+00
  1.60000000E+01  1.40000000E+01  0.00000000E+00
  1.60000000E+01  1.30000000E+01  0.00000000E+00
  1.60000000E+01  1.20000000E+01  0.00000000E+00
  1.60000000E+01  1.10000000E+01  0.00000000E+00
  1.60000000E+01  1.00000000E+01  0.00000000E+00
  1.60000000E+01  9.00000000E+00  0.00000000E+00
  1.60000000E+01  8.00000000E+00  0.00000000E+00
  1.60000000E+01  7.00000000E+00  0.00000000E+00
  1.60000000E+01  6.00000000E+00  0.00000000E+00
  1.60000000E+01  5.00000000E+00  0.00000000E+00
  1.60000000E+01  4.00000000E+00  0.00000000E+00
  1.60000000E+01  3.00000000E+00  0.00000000E+00
  1.60000000E+01  2.00000000E+00  0.00000000E+00
  1.60000000E+01  1.00000000E+00  0.00000000E+00
  1.60000000E+01 -2.66453526E-15  0.00000000E+00
  1.70000000E+01  2.40000000E+01  0.00000000E+00
  1.70000000E+01  2.30000000E+01  0.00000000E+00
  1.70000000E+01  2.20000000E+01  0.00000000E+00
  1.70000000E+01  2.10000000E+01  0.00000000E+00
  1.70000000E+01  2.00000000E+01  0.00000000E+00
  1.70000000E+01  1.90000000E+01  0.00000000E+00
  1.70000000E+01  1.80000000E+01  0.00000000E+00
  1.70000000E+01  1.70000000E+01  0.00000000E+00
  1.70000000E+01  1.60000000E+01  0.00000000E+00
  1.70000000E+01  1.50000000E+01  0.00000000E+00
  1.70000000E+01  1.40000000E+01  0.00000000E+00
  1.70000000E+01  1.30000000E+01  0.00000000E+00
  1.70000000E+01  1.20000000E+01  0.00000000E+00
  1.70000000E+01  1.10000000E+01  0.00000000E+00
  1.70000000E+01  1.00000000E+01  0.00000000E+00
  1.70000000E+01  9.00000000E+00  0.00000000E+00
  1.70000000E+01  8.00000000E+00  0.00000000E+00
  1.70000000E+01  7.00000000E+00  0.00000000E+00
  1.70000000E+01  6.00000000E+00  0.00000000E+00
  1.70000000E+01  5.00000000E+00  0.00000000E+00
  1.70000000E+01  4.00000000E+00  0.00000000E+00
  1.70000000E+01  3.00000000E+00  0.00000000E+00
  1.70000000E+01  2.00000000E+00  0.00000000E+00
  1.70000000E+01  1.00000000E+00  0.00000000E+00
  1.70000000E+01 -2.66453526E-15  0.00000000E+00
  1.80000000E+01  2.40000000E+01  0.00000000E+00
  1.80000000E+01  2.30000000E+01  0.00000000E+00
  1.80000000E+01  2.20000000E+01  0.00000000E+00
  1.80000000E+01  2.10000000E+01  0.00000000E+00
  1.80000000E+01  2.00000000E+01  0.00000000E+00
  1.80000000E+01  1.90000000E+01  0.00000000E+00
  1.80000000E+01  1.80000000E+01  0.00000000E+00
  1.80000000E+01  1.70000000E+01  0.00000000E+00
  1.80000000E+01  1.60000000E+01  0.00000000E+00
  1.80000000E+01  1.50000000E+01  0.00000000E+00
  1.80000000E+01  1.40000000E+01  0.00000000E+00
  1.80000000E+01  1.30000000E+01  0.00000000E+00
  1.80000000E+01  1.20000000E+01  0.00000000E+00
  1.80000000E+01  1.10000000E+01  0.00000000E+00
  1.80000000E+01  1.00000000E+01  0.00000000E+00
  1.80000000E+01  9.00000000E+00  0.00000000E+00
  1.80000000E+01  8.00000000E+00  0.00000000E+00
  1.80000000E+01  7.00000000E+00  0.00000000E+00
  1.80000000E+01  6.00000000E+00  0.00000000E+00
  1.80000000E+01  5.00000000E+00  0.00000000E+00
  1.80000000E+01  4.00000000E+00  0.00000000E+00
  1.80000000E+01  3.00000000E+00  0.00000000E+00
  1.80000000E+01  2.00000000E+00  0.00000000E+00
  1.80000000E+01  1.00000000E+00  0.00000000E+00
  1.80000000E+01 -2.66453526E-15  0.00000000E+00
  1.90000000E+01  2.40000000E+01  0.00000000E+00
  1.90000000E+01  2.30000000E+01  0.00000000E+00
  1.90000000E+01  2.20000000E+01  0.00000000E+00
  1.90000000E+01  2.10000000E+01  0.00000000E+00
  1.90000000E+01  2.00000000E+01  0.00000000E+00
  1.90000000E+01  1.90000000E+01  0.00000000E+00
  1.90000000E+01  1.80000000E+01  0.00000000E+00
  1.90000000E+01  1.70000000E+01  0.00000000E+00
  1.90000000E+01  1.60000000E+01  0.00000000E+00
  1.90000000E+01  1.50000000E+01  0.00000000E+00
  1.90000000E+01  1.40000000E+01  0.00000000E+00
  1.90000000E+01  1.30000000E+01  0.00000000E+00
  1.90000000E+01  1.20000000E+01  0.00000000E+00
  1.90000000E+01  1.10000000E+01  0.00000000E+00
  1.90000000E+01  1.00000000E+01  0.00000000E+00
  1.90000000E+01  9.00000000E+00  0.00000000E+00
  1.90000000E+01  8.00000000E+00  0.00000000E+00
  1.90000000E+01  7.00000000E+00  0.00000000E+00
  1.90000000E+01  6.00000000E+00  0.00000000E+00
  1.90000000E+01  5.00000000E+00  0.00000000E+00
  1.90000000E+01  4.00000000E+00  0.00000000E+00
  1.90000000E+01  3.00000000E+00  0.00000000E+00
  1.90000000E+01  2.00000000E+00  0.00000000E+00
  1.90000000E+01  1.00000000E+00  0.00000000E+00
  1.90000000E+01 -2.66453526E-15  0.00000000E+00
  2.00000000E+01  2.40000000E+01  0.00000000E+00
  2.00000000E+01  2.30000000E+01  0.00000000E+00
  2.00000000E+01  2.20000000E+01  0.00000000E+00
  2.00000000E+01  2.10000000E+01  0.00000000E+00
  2.00000000E+01  2.00000000E+01  0.00000000E+00
  2.00000000E+01  1.90000000E+01  0.00000000E+00
  2.00000000E+01  1.80000000E+01  0.00000000E+00
  2.00000000E+01  1.70000000E+01  0.00000000E+00
  2.00000000E+01  1.60000000E+01  0.00000000E+00
  2.00000000E+01  1.50000000E+01  0.00000000E+00
  2.00000000E+01  1.40000000E+01  0.00000000E+00
  2.00000000E+01  1.30000000E+01  0.00000000E+00
  2.00000000E+01  1.20000000E+01  0.00000000E+00
  2.00000000E+01  1.10000000E+01  0.00000000E+00
  2.00000000E+01  1.00000000E+01  0.00000000E+00
  2.00000000E+01  9.00000000E+00  0.00000000E+00
  2.00000000E+01  8.00000000E+00  0.00000000E+00
  2.00000000E+01  7.00000000E+00  0.00000000E+00
  2.00000000E+01  6.00000000E+00  0.00000000E+00
  2.00000000E+01  5.00000000E+00  0.00000000E+00
  2.00000000E+01  4.00000000E+00  0.00000000E+00
  2.00000000E+01  3.00000000E+00  0.00000000E+00
  2.00000000E+01  2.00000000E+00  0.00000000E+00
  2.00000000E+01  1.00000000E+00  0.00000000E+00
  2.00000000E+01 -2.66453526E-15  0.00000000E+00
  2.10000000E+01  2.40000000E+01  0.00000000E+00
  2.10000000E+01  2.30000000E+01  0.00000000E+00
  2.10000000E+01  2.20000000E+01  0.00000000E+00
  2.10000000E+01  2.10000000E+01  0.00000000E+00
  2.10000000E+01  2.00000000E+01  0.00000000E+00
  2.10000000E+01  1.90000000E+01  0.00000000E+00
  2.10000000E+01  1.80000000E+01  0.00000000E+00
  2.10000000E+01  1.70000000E+01  0.00000000E+00
  2.10000000E+01  1.60000000E+01  0.00000000E+00
  2.10000000E+01  1.50000000E+01  0.00000000E+00
  2.10000000E+01  1.40000000E+01  0.00000000E+00
  2.10000000E+01  1.30000000E+01  0.00000000E+00
  2.10000000E+01  1.20000000E+01  0.00000000E+00
  2.10000000E+01  1.10000000E+01  0.00000000E+00
  2.10000000E+01  1.00000000E+01  0.00000000E+00
  2.10000000E+01  9.00000000E+00  0.00000000E+00
  2.10000000E+01  8.00000000E+00  0.00000000E+00
  2.10000000E+01  7.00000000E+00  0.00000000E+00
  2.10000000E+01  6.00000000E+00  0.00000000E+00
  2.10000000E+01  5.00000000E+00  0.00000000E+00
  2.10000000E+01  4.00000000E+00  0.00000000E+00
  2.10000000E+01  3.00000000E+00  0.00000000E+00
  2.10000000E+01  2.00000000E+00  0.00000000E+00
  2.10000000E+01  1.00000000E+00  0.00000000E+00
  2.10000000E+01 -2.66453526E-15  0.00000000E+00
  2.20000000E+01  2.40000000E+01  0.00000000E+00
  2.20000000E+01  2.30000000E+01  0.00000000E+00
  2.20000000E+01  2.20000000E+01  0.00000000E+00
  2.20000000E+01  2.10000000E+01  0.00000000E+00
  2.20000000E+01  2.00000000E+01  0.00000000E+00
  2.20000000E+01  1.90000000E+01  0.00000000E+00
  2.20000000E+01  1.80000000E+01  0.00000000E+00
  2.20000000E+01  1.70000000E+01  0.00000000E+00
  2.20000000E+01  1.60000000E+01  0.00000000E+00
  2.20000000E+01  1.50000000E+01  0.00000000E+00
  2.20000000E+01  1.40000000E+01  0.00000000E+00
  2.20000000E+01  1.30000000E+01  0.00000000E+00
  2.20000000E+01  1.20000000E+01  0.00000000E+00
  2.20000000E+01  1.10000000E+01  0.00000000E+00
  2.20000000E+01  1.00000000E+01  0.00000000E+00
  2.20000000E+01  9.00000000E+00  0.00000000E+00
  2.20000000E+01  8.00000000E+00  0.00000000E+00
  2.20000000E+01  7.00000000E+00  0.00000000E+00
  2.20000000E+01  6.00000000E+00  0.00000000E+00
  2.20000000E+01  5.00000000E+00  0.00000000E+00
  2.20000000E+01  4.00000000E+00  0.00000000E+00
  2.20000000E+01  3.00000000E+00  0.00000000E+00
  2.20000000E+01  2.00000000E+00  0.00000000E+00
  2.20000000E+01  1.00000000E+00  0.00000000E+00
  2.20000000E+01 -2.66453526E-15  0.00000000E+00
  2.30000000E+01  2.40000000E+01  0.00000000E+00
  2.30000000E+01  2.30000000E+01  0.00000000E+00
  2.30000000E+01  2.20000000E+01  0.00000000E+00
  2.30000000E+01  2.10000000E+01  0.00000000E+00
  2.30000000E+01  2.00000000E+01  0.00000000E+00
  2.30000000E+01  1.90000000E+01  0.00000000E+00
  2.30000000E+01  1.80000000E+01  0.00000000E+00
  2.30000000E+01  1.70000000E+01  0.00000000E+00
  2.30000000E+01  1.60000000E+01  0.00000000E+00
  2.30000000E+01  1.50000000E+01  0.00000000E+00
  2.30000000E+01  1.40000000E+01  0.00000000E+00
  2.30000000E+01  1.30000000E+01  0.00000000E+00
  2.30000000E+01  1.20000000E+01  0.00000000E+00
  2.30000000E+01  1.10000000E+01  0.00000000E+00
  2.30000000E+01  1.00000000E+01  0.00000000E+00
  2.30000000E+01  9.00000000E+00  0.00000000E+00
  2.30000000E+01  8.00000000E+00  0.00000000E+00
  2.30000000E+01  7.00000000E+00  0.00000000E+00
  2.30000000E+01  6.00000000E+00  0.00000000E+00
  2.30000000E+01  5.00000000E+00  0.00000000E+00
  2.30000000E+01  4.00000000E+00  0.00000000E+00
  2.30000000E+01  3.00000000E+00  0.00000000E+00
  2.30000000E+01  2.00000000E+00  0.00000000E+00
  2.30000000E+01  1.00000000E+00  0.00000000E+00
  2.30000000E+01 -2.66453526E-15  0.00000000E+00
  2.40000000E+01  2.40000000E+01  0.00000000E+00
  2.40000000E+01  2.30000000E+01  0.00000000E+00
  2.40000000E+01  2.20000000E+01  0.00000000E+00
  2.40000000E+01  2.10000000E+01  0.00000000E+00
  2.40000000E+01  2.00000000E+01  0.00000000E+00
  2.40000000E+01  1.90000000E+01  0.00000000E+00
  2.40000000E+01  1.80000000E+01  0.00000000E+00
  2.40000000E+01  1.70000000E+01  0.00000000E+00
  2.40000000E+01  1.60000000E+01  0.00000000E+00
  2.40000000E+01  1.50000000E+01  0.00000000E+00
  2.40000000E+01  1.40000000E+01  0.00000000E+00
  2.40000000E+01  1.30000000E+01  0.00000000E+00
  2.40000000E+01  1.20000000E+01  0.00000000E+00
  2.40000000E+01  1.10000000E+01  0.00000000E+00
  2.40000000E+01  1.00000000E+01  0.00000000E+00
  2.40000000E+01  9.00000000E+00  0.00000000E+00
  2.40000000E+01  8.00000000E+00  0.00000000E+00
  2.40000000E+01  7.00000000E+00  0.00000000E+00
  2.40000000E+01  6.00000000E+00  0.00000000E+00
  2.40000000E+01  5.00000000E+00  0.00000000E+00
  2.40000000E+01  4.00000000E+00  0.00000000E+00
  2.40000000E+01  3.00000000E+00  0.00000000E+00
  2.40000000E+01  2.00000000E+00  0.00000000E+00
  2.40000000E+01  1.00000000E+00  0.00000000E+00
  2.40000000E+01 -2.66453526E-15  0.00000000E+00
  2.50000000E+01  2.40000000E+01  0.00000000E+00
  2.50000000E+01  2.30000000E+01  0.00000000E+00
  2.50000000E+01  2.20000000E+01  0.00000000E+00
  2.50000000E+01  2.10000000E+01  0.00000000E+00
  2.50000000E+01  2.00000000E+01  0.00000000E+00
  2.50000000E+01  1.90000000E+01  0.00000000E+00
  2.50000000E+01  1.80000000E+01  0.00000000E+00
  2.50000000E+01  1.70000000E+01  0.00000000E+00
  2.50000000E+01  1.60000000E+01  0.00000000E+00
  2.50000000E+01  1.50000000E+01  0.00000000E+00
  2.50000000E+01  1.40000000E+01  0.00000000E+00
  2.50000000E+01  1.30000000E+01  0.00000000E+00
  2.50000000E+01  1.20000000E+01  0.00000000E+00
  2.50000000E+01  1.10000000E+01  0.00000000E+00
  2.50000000E+01  1.00000000E+01  0.00000000E+00
  2.50000000E+01  9.00000000E+00  0.00000000E+00
  2.50000000E+01  8.00000000E+00  0.00000000E+00
  2.50000000E+01  7.00000000E+00  0.00000000E+00
  2.50000000E+01  6.00000000E+00  0.00000000E+00
  2.50000000E+01  5.00000000E+00  0.00000000E+00
  2.50000000E+01  4.00000000E+00  0.00000000E+00
  2.50000000E+01  3.00000000E+00  0.00000000E+00
  2.50000000E+01  2.00000000E+00  0.00000000E+00
  2.50000000E+01  1.00000000E+00  0.00000000E+00
  2.50000000E+01 -2.66453526E-15  0.00000000E+00
  2.60000000E+01  2.40000000E+01  0.00000000E+00
  2.60000000E+01  2.30000000E+01  0.00000000E+00
  2.60000000E+01  2.20000000E+01  0.00000000E+00
  2.60000000E+01  2.10000000E+01  0.00000000E+00
  2.60000000E+01  2.00000000E+01  0.00000000E+00
  2.60000000E+01  1.90000000E+01  0.00000000E+00
  2.60000000E+01  1.80000000E+01  0.00000000E+00
  2.60000000E+01  1.70000000E+01  0.00000000E+00
  2.60000000E+01  1.60000000E+01  0.00000000E+00
  2.60000000E+01  1.50000000E+01  0.00000000E+00
  2.60000000E+01  1.40000000E+01  0.00000000E+00
  2.60000000E+01  1.30000000E+01  0.00000000E+00
  2.60000000E+01  1.20000000E+01  0.00000000E+00
  2.60000000E+01  1.10000000E+01  0.00000000E+00
  2.60000000E+01  1.00000000E+01  0.00000000E+00
  2.60000000E+01  9.00000000E+00  0.00000000E+00
  2.60000000E+01  8.00000000E+00  0.00000000E+00
  2.60000000E+01  7.00000000E+00  0.00000000E+00
  2.60000000E+01  6.00000000E+00  0.00000000E+00
  2.60000000E+01  5.00000000E+00  0.00000000E+00
  2.60000000E+01  4.00000000E+00  0.00000000E+00
  2.60000000E+01  3.00000000E+00  0.00000000E+00
  2.60000000E+01  2.00000000E+00  0.00000000E+00
  2.60000000E+01  1.00000000E+00  0.00000000E+00
  2.60000000E+01 -2.66453526E-15  0.00000000E+00
  2.70000000E+01  2.40000000E+01  0.00000000E+00
  2.70000000E+01  2.30000000E+01  0.00000000E+00
  2.70000000E+01  2.20000000E+01  0.00000000E+00
  2.70000000E+01  2.10000000E+01  0.00000000E+00
  2.70000000E+01  2.00000000E+01  0.00000000E+00
  2.70000000E+01  1.90000000E+01  0.00000000E+00
  2.70000000E+01  1.80000000E+01  0.00000000E+00
  2.70000000E+01  1.70000000E+01  0.00000000E+00
  2.70000000E+01  1.60000000E+01  0.00000000E+00
  2.70000000E+01  1.50000000E+01  0.00000000E+00
  2.70000000E+01  1.40000000E+01  0.00000000E+00
  2.70000000E+01  1.30000000E+01  0.00000000E+00
  2.70000000E+01  1.20000000E+01  0.00000000E+00
  2.70000000E+01  1.10000000E+01  0.00000000E+00
  2.70000000E+01  1.00000000E+01  0.00000000E+00
  2.70000000E+01  9.00000000E+00  0.00000000E+00
  2.70000000E+01  8.00000000E+00  0.00000000E+00
  2.70000000E+01  7.00000000E+00  0.00000000E+00
  2.70000000E+01  6.00000000E+00  0.00000000E+00
  2.70000000E+01  5.00000000E+00  0.00000000E+00
  2.70000000E+01  4.00000000E+00  0.00000000E+00
  2.70000000E+01  3.00000000E+00  0.00000000E+00
  2.70000000E+01  2.00000000E+00  0.00000000E+00
  2.70000000E+01  1.00000000E+00  0.00000000E+00
  2.70000000E+01 -2.66453526E-15  0.00000000E+00
  2.80000000E+01  2.40000000E+01  0.00000000E+00
  2.80000000E+01  2.30000000E+01  0.00000000E+00
  2.80000000E+01  2.20000000E+01  0.00000000E+00
  2.80000000E+01  2.10000000E+01  0.00000000E+00
  2.80000000E+01  2.00000000E+01  0.00000000E+00
  2.80000000E+01  1.90000000E+01  0.00000000E+00
  2.80000000E+01  1.80000000E+01  0.00000000E+00
  2.80000000E+01  1.70000000E+01  0.00000000E+00
  2.80000000E+01  1.60000000E+01  0.00000000E+00
  2.80000000E+01  1.50000000E+01  0.00000000E+00
  2.80000000E+01  1.40000000E+01  0.00000000E+00
  2.80000000E+01  1.30000000E+01  0.00000000E+00
  2.80000000E+01  1.20000000E+01  0.00000000E+00
  2.80000000E+01  1.10000000E+01  0.00000000E+00
  2.80000000E+01  1.00000000E+01  0.00000000E+00
  2.80000000E+01  9.00000000E+00  0.00000000E+00
  2.80000000E+01  8.00000000E+00  0.00000000E+00
  2.80000000E+01  7.00000000E+00  0.00000000E+00
  2.80000000E+01  6.00000000E+00  0.00000000E+00
  2.80000000E+01  5.00000000E+00  0.00000000E+00
  2.80000000E+01  4.00000000E+00  0.00000000E+00
  2.80000000E+01  3.00000000E+00  0.00000000E+00
  2.80000000E+01  2.00000000E+00  0.00000000E+00
  2.80000000E+01  1.00000000E+00  0.00000000E+00
  2.80000000E+01 -2.66453526E-15  0.00000000E+00
  2.90000000E+01  2.40000000E+01  0.00000000E+00
  2.90000000E+01  2.30000000E+01  0.00000000E+00
  2.90000000E+01  2.20000000E+01  0.00000000E+00
  2.90000000E+01  2.10000000E+01  0.00000000E+00
  2.90000000E+01  2.00000000E+01  0.00000000E+00
  2.90000000E+01  1.90000000E+01  0.00000000E+00
  2.90000000E+01  1.80000000E+01  0.00000000E+00
  2.90000000E+01  1.70000000E+01  0.00000000E+00
  2.90000000E+01  1.60000000E+01  0.00000000E+00
  2.90000000E+01  1.50000000E+01  0.00000000E+00
  2.90000000E+01  1.40000000E+01  0.00000000E+00
  2.90000000E+01  1.30000000E+01  0.00000000E+00
  2.90000000E+01  1.20000000E+01  0.00000000E+00
  2.90000000E+01  1.10000000E+01  0.00000000E+00
  2.90000000E+01  1.00000000E+01  0.00000000E+00
  2.90000000E+01  9.00000000E+00  0.00000000E+00
  2.90000000E+01  8.00000000E+00  0.00000000E+00
  2.90000000E+01  7.00000000E+00  0.00000000E+00
  2.90000000E+01  6.00000000E+00  0.00000000E+00
  2.90000000E+01  5.00000000E+00  0.00000000E+00
  2.90000000E+01  4.00000000E+00  0.00000000E+00
  2.90000000E+01  3.00000000E+00  0.00000000E+00
  2.90000000E+01  2.00000000E+00  0.00000000E+00
  2.90000000E+01  1.00000000E+00  0.00000000E+00
  2.90000000E+01 -2.66453526E-15  0.00000000E+00
  3.00000000E+01  2.40000000E+01  0.00000000E+00
  3.00000000E+01  2.30000000E+01  0.00000000E+00
  3.00000000E+01  2.20000000E+01  0.00000000E+00
  3.00000000E+01  2.10000000E+01  0.00000000E+00
  3.00000000E+01  2.00000000E+01  0.00000000E+00
  3.00000000E+01  1.90000000E+01  0.00000000E+00
  3.00000000E+01  1.80000000E+01  0.00000000E+00
  3.00000000E+01  1.70000000E+01  0.00000000E+00
  3.00000000E+01  1.60000000E+01  0.00000000E+00
  3.00000000E+01  1.50000000E+01  0.00000000E+00
  3.00000000E+01  1.40000000E+01  0.00000000E+00
  3.00000000E+01  1.30000000E+01  0.00000000E+00
  3.00000000E+01  1.20000000E+01  0.00000000E+00
  3.00000000E+01  1.10000000E+01  0.00000000E+00
  3.00000000E+01  1.00000000E+01  0.00000000E+00
  3.00000000E+01  9.00000000E+00  0.00000000E+00
  3.00000000E+01  8.00000000E+00  0.00000000E+00
  3.00000000E+01  7.00000000E+00  0.00000000E+00
  3.00000000E+01  6.00000000E+00  0.00000000E+00
  3.00000000E+01  5.00000000E+00  0.00000000E+00
  3.00000000E+01  4.00000000E+00  0.00000000E+00
  3.00000000E+01  3.00000000E+00  0.00000000E+00
  3.00000000E+01  2.00000000E+00  0.00000000E+00
  3.00000000E+01  1.00000000E+00  0.00000000E+00
  3.00000000E+01 -2.66453526E-15  0.00000000E+00
  3.10000000E+01  2.40000000E+01  0.00000000E+00
  3.10000000E+01  2.30000000E+01  0.00000000E+00
  3.10000000E+01  2.20000000E+01  0.00000000E+00
  3.10000000E+01  2.10000000E+01  0.00000000E+00
  3.10000000E+01  2.00000000E+01  0.00000000E+00
  3.10000000E+01  1.90000000E+01  0.00000000E+00
  3.10000000E+01  1.80000000E+01  0.00000000E+00
  3.10000000E+01  1.70000000E+01  0.00000000E+00
  3.10000000E+01  1.60000000E+01  0.00000000E+00
  3.10000000E+01  1.50000000E+01  0.00000000E+00
  3.10000000E+01  1.40000000E+01  0.00000000E+00
  3.10000000E+01  1.30000000E+01  0.00000000E+00
  3.10000000E+01  1.20000000E+01  0.00000000E+00
  3.10000000E+01  1.10000000E+01  0.00000000E+00
  3.10000000E+01  1.00000000E+01  0.00000000E+00
  3.10000000E+01  9.00000000E+00  0.00000000E+00
  3.10000000E+01  8.00000000E+00  0.00000000E+00
  3.10000000E+01  7.00000000E+00  0.00000000E+00
  3.10000000E+01  6.00000000E+00  0.00000000E+00
  3.10000000E+01  5.00000000E+00  0.00000000E+00
  3.10000000E+01  4.00000000E+00  0.00000000E+00
  3.10000000E+01  3.00000000E+00  0.00000000E+00
  3.10000000E+01  2.00000000E+00  0.00000000E+00
  3.10000000E+01  1.00000000E+00  0.00000000E+00
  3.10000000E+01 -2.66453526E-15  0.00000000E+00
  3.20000000E+01  2.40000000E+01  0.00000000E+00
  3.20000000E+01  2.30000000E+01  0.00000000E+00
  3.20000000E+01  2.20000000E+01  0.00000000E+00
  3.20000000E+01  2.10000000E+01  0.00000000E+00
  3.20000000E+01  2.00000000E+01  0.00000000E+00
  3.20000000E+01  1.90000000E+01  0.00000000E+00
  3.20000000E+01  1.80000000E+01  0.00000000E+00
  3.20000000E+01  1.70000000E+01  0.00000000E+00
  3.20000000E+01  1.60000000E+01  0.00000000E+00
  3.20000000E+01  1.50000000E+01  0.00000000E+00
  3.20000000E+01  1.40000000E+01  0.00000000E+00
  3.20000000E+01  1.30000000E+01  0.00000000E+00
  3.20000000E+01  1.20000000E+01  0.00000000E+00
  3.20000000E+01  1.10000000E+01  0.00000000E+00
  3.20000000E+01  1.00000000E+01  0.00000000E+00
  3.20000000E+01  9.00000000E+00  0.00000000E+00
  3.20000000E+01  8.00000000E+00  0.00000000E+00
  3.20000000E+01  7.00000000E+00  0.00000000E+00
  3.20000000E+01  6.00000000E+00  0.00000000E+00
  3.20000000E+01  5.00000000E+00  0.00000000E+00
  3.20000000E+01  4.00000000E+00  0.00000000E+00
  3.20000000E+01  3.00000000E+00  0.00000000E+00
  3.20000000E+01  2.00000000E+00  0.00000000E+00
  3.20000000E+01  1.00000000E+00  0.00000000E+00
  3.20000000E+01 -2.66453526E-15  0.00000000E+00
  3.30000000E+01  2.40000000E+01  0.00000000E+00
  3.30000000E+01  2.30000000E+01  0.00000000E+00
  3.30000000E+01  2.20000000E+01  0.00000000E+00
  3.30000000E+01  2.10000000E+01  0.00000000E+00
  3.30000000E+01  2.00000000E+01  0.00000000E+00
  3.30000000E+01  1.90000000E+01  0.00000000E+00
  3.30000000E+01  1.80000000E+01  0.00000000E+00
  3.30000000E+01  1.70000000E+01  0.00000000E+00
  3.30000000E+01  1.60000000E+01  0.00000000E+00
  3.30000000E+01  1.50000000E+01  0.00000000E+00
  3.30000000E+01  1.40000000E+01  0.00000000E+00
  3.30000000E+01  1.30000000E+01  0.00000000E+00
  3.30000000E+01  1.20000000E+01  0.00000000E+00
  3.30000000E+01  1.10000000E+01  0.00000000E+00
  3.30000000E+01  1.00000000E+01  0.00000000E+00
  3.30000000E+01  9.00000000E+00  0.00000000E+00
  3.30000000E+01  8.00000000E+00  0.00000000E+00
  3.30000000E+01  7.00000000E+00  0.00000000E+00
  3.30000000E+01  6.00000000E+00  0.00000000E+00
  3.30000000E+01  5.00000000E+00  0.00000000E+00
  3.30000000E+01  4.00000000E+00  0.00000000E+00
  3.30000000E+01  3.00000000E+00  0.00000000E+00
  3.30000000E+01  2.00000000E+00  0.00000000E+00
  3.30000000E+01  1.00000000E+00  0.00000000E+00
  3.30000000E+01 -2.66453526E-15  0.00000000E+00
  3.40000000E+01  2.40000000E+01  0.00000000E+00
  3.40000000E+01  2.30000000E+01  0.00000000E+00
  3.40000000E+01  2.20000000E+01  0.00000000E+00
  3.40000000E+01  2.10000000E+01  0.00000000E+00
  3.40000000E+01  2.00000000E+01  0.00000000E+00
  3.40000000E+01  1.90000000E+01  0.00000000E+00
  3.40000000E+01  1.80000000E+01  0.00000000E+00
  3.40000000E+01  1.70000000E+01  0.00000000E+00
  3.40000000E+01  1.60000000E+01  0.00000000E+00
  3.40000000E+01  1.50000000E+01  0.00000000E+00
  3.40000000E+01  1.40000000E+01  0.00000000E+00
  3.40000000E+01  1.30000000E+01  0.00000000E+00
  3.40000000E+01  1.20000000E+01  0.00000000E+00
  3.40000000E+01  1.10000000E+01  0.00000000E+00
  3.40000000E+01  1.00000000E+01  0.00000000E+00
  3.40000000E+01  9.00000000E+00  0.00000000E+00
  3.40000000E+01  8.00000000E+00  0.00000000E+00
  3.40000000E+01  7.00000000E+00  0.00000000E+00
  3.40000000E+01  6.00000000E+00  0.00000000E+00
  3.40000000E+01  5.00000000E+00  0.00000000E+00
  3.40000000E+01  4.00000000E+00  0.00000000E+00
  3.40000000E+01  3.00000000E+00  0.00000000E+00
  3.40000000E+01  2.00000000E+00  0.00000000E+00
  3.40000000E+01  1.00000000E+00  0.00000000E+00
  3.40000000E+01 -2.66453526E-15  0.00000000E+00
  3.50000000E+01  2.40000000E+01  0.00000000E+00
  3.50000000E+01  2.30000000E+01  0.00000000E+00
  3.50000000E+01  2.20000000E+01  0.00000000E+00
  3.50000000E+01  2.10000000E+01  0.00000000E+00
  3.50000000E+01  2.00000000E+01  0.00000000E+00
  3.50000000E+01  1.90000000E+01  0.00000000E+00
  3.50000000E+01  1.80000000E+01  0.00000000E+00
  3.50000000E+01  1.70000000E+01  0.00000000E+00
  3.50000000E+01  1.60000000E+01  0.00000000E+00
  3.50000000E+01  1.50000000E+01  0.00000000E+00
  3.50000000E+01  1.40000000E+01  0.00000000E+00
  3.50000000E+01  1.30000000E+01  0.00000000E+00
  3.50000000E+01  1.20000000E+01  0.00000000E+00
  3.50000000E+01  1.10000000E+01  0.00000000E+00
  3.50000000E+01  1.00000000E+01  0.00000000E+00
  3.50000000E+01  9.00000000E+00  0.00000000E+00
  3.50000000E+01  8.00000000E+00  0.00000000E+00
  3.50000000E+01  7.00000000E+00  0.00000000E+00
  3.50000000E+01  6.00000000E+00  0.00000000E+00
  3.50000000E+01  5.00000000E+00  0.00000000E+00
  3.50000000E+01  4.00000000E+00  0.00000000E+00
  3.50000000E+01  3.00000000E+00  0.00000000E+00
  3.50000000E+01  2.00000000E+00  0.00000000E+00
  3.50000000E+01  1.00000000E+00  0.00000000E+00
  3.50000000E+01 -2.66453526E-15  0.00000000E+00
  3.60000000E+01  2.40000000E+01  0.00000000E+00
  3.60000000E+01  2.30000000E+01  0.00000000E+00
  3.60000000E+01  2.20000000E+01  0.00000000E+00
  3.60000000E+01  2.10000000E+01  0.00000000E+00
  3.60000000E+01  2.00000000E+01  0.00000000E+00
  3.60000000E+01  1.90000000E+01  0.00000000E+00
  3.60000000E+01  1.80000000E+01  0.00000000E+00
  3.60000000E+01  1.70000000E+01  0.00000000E+00
  3.60000000E+01  1.60000000E+01  0.00000000E+00
  3.60000000E+01  1.50000000E+01  0.00000000E+00
  3.60000000E+01  1.40000000E+01  0.00000000E+00
  3.60000000E+01  1.30000000E+01  0.00000000E+00
  3.60000000E+01  1.20000000E+01  0.00000000E+00
  3.60000000E+01  1.10000000E+01  0.00000000E+00
  3.60000000E+01  1.00000000E+01  0.00000000E+00
  3.60000000E+01  9.00000000E+00  0.00000000E+00
  3.60000000E+01  8.00000000E+00  0.00000000E+00
  3.60000000E+01  7.00000000E+00  0.00000000E+00
  3.60000000E+01  6.00000000E+00  0.00000000E+00
  3.60000000E+01  5.00000000E+00  0.00000000E+00
  3.60000000E+01  4.00000000E+00  0.00000000E+00
  3.60000000E+01  3.00000000E+00  0.00000000E+00
  3.60000000E+01  2.00000000E+00  0.00000000E+00
  3.60000000E+01  1.00000000E+00  0.00000000E+00
  3.60000000E+01 -2.66453526E-15  0.00000000E+00
  3.70000000E+01  2.40000000E+01  0.00000000E+00
  3.70000000E+01  2.30000000E+01  0.00000000E+00
  3.70000000E+01  2.20000000E+01  0.00000000E+00
  3.70000000E+01  2.10000000E+01  0.00000000E+00
  3.70000000E+01  2.00000000E+01  0.00000000E+00
  3.70000000E+01  1.90000000E+01  0.00000000E+00
  3.70000000E+01  1.80000000E+01  0.00000000E+00
  3.70000000E+01  1.70000000E+01  0.00000000E+00
  3.70000000E+01  1.60000000E+01  0.00000000E+00
  3.70000000E+01  1.50000000E+01  0.00000000E+00
  3.70000000E+01  1.40000000E+01  0.00000000E+00
  3.70000000E+01  1.30000000E+01  0.00000000E+00
  3.70000000E+01  1.20000000E+01  0.00000000E+00
  3.70000000E+01  1.10000000E+01  0.00000000E+00
  3.70000000E+01  1.00000000E+01  0.00000000E+00
  3.70000000E+01  9.00000000E+00  0.00000000E+00
  3.70000000E+01  8.00000000E+00  0.00000000E+00
  3.70000000E+01  7.00000000E+00  0.00000000E+00
  3.70000000E+01  6.00000000E+00  0.00000000E+00
  3.70000000E+01  5.00000000E+00  0.00000000E+00
  3.70000000E+01  4.00000000E+00  0.00000000E+00
  3.70000000E+01  3.00000000E+00  0.00000000E+00
  3.70000000E+01  2.00000000E+00  0.00000000E+00
  3.70000000E+01  1.00000000E+00  0.00000000E+00
  3.70000000E+01 -2.66453526E-15  0.00000000E+00
  3.80000000E+01  2.40000000E+01  0.00000000E+00
  3.80000000E+01  2.30000000E+01  0.00000000E+00
  3.80000000E+01  2.20000000E+01  0.00000000E+00
  3.80000000E+01  2.10000000E+01  0.00000000E+00
  3.80000000E+01  2.00000000E+01  0.00000000E+00
  3.80000000E+01  1.90000000E+01  0.00000000E+00
  3.80000000E+01  1.80000000E+01  0.00000000E+00
  3.80000000E+01  1.70000000E+01  0.00000000E+00
  3.80000000E+01  1.60000000E+01  0.00000000E+00
  3.80000000E+01  1.50000000E+01  0.00000000E+00
  3.80000000E+01  1.40000000E+01  0.00000000E+00
  3.80000000E+01  1.30000000E+01  0.00000000E+00
  3.80000000E+01  1.20000000E+01  0.00000000E+00
  3.80000000E+01  1.10000000E+01  0.00000000E+00
  3.80000000E+01  1.00000000E+01  0.00000000E+00
  3.80000000E+01  9.00000000E+00  0.00000000E+00
  3.80000000E+01  8.00000000E+00  0.00000000E+00
  3.80000000E+01  7.00000000E+00  0.00000000E+00
  3.80000000E+01  6.00000000E+00  0.00000000E+00
  3.80000000E+01  5.00000000E+00  0.00000000E+00
  3.80000000E+01  4.00000000E+00  0.00000000E+00
  3.80000000E+01  3.00000000E+00  0.00000000E+00
  3.80000000E+01  2.00000000E+00  0.00000000E+00
  3.80000000E+01  1.00000000E+00  0.00000000E+00
  3.80000000E+01 -2.66453526E-15  0.00000000E+00
  3.90000000E+01  2.40000000E+01  0.00000000E+00
  3.90000000E+01  2.30000000E+01  0.00000000E+00
  3.90000000E+01  2.20000000E+01  0.00000000E+00
  3.90000000E+01  2.10000000E+01  0.00000000E+00
  3.90000000E+01  2.00000000E+01  0.00000000E+00
  3.90000000E+01  1.90000000E+01  0.00000000E+00
  3.90000000E+01  1.80000000E+01  0.00000000E+00
  3.90000000E+01  1.70000000E+01  0.00000000E+00
  3.90000000E+01  1.60000000E+01  0.00000000E+00
  3.90000000E+01  1.50000000E+01  0.00000000E+00
  3.90000000E+01  1.40000000E+01  0.00000000E+00
  3.90000000E+01  1.30000000E+01  0.00000000E+00
  3.90000000E+01  1.20000000E+01  0.00000000E+00
  3.90000000E+01  1.10000000E+01  0.00000000E+00
  3.90000000E+01  1.00000000E+01  0.00000000E+00
  3.90000000E+01  9.00000000E+00  0.00000000E+00
  3.90000000E+01  8.00000000E+00  0.00000000E+00
  3.90000000E+01  7.00000000E+00  0.00000000E+00
  3.90000000E+01  6.00000000E+00  0.00000000E+00
  3.90000000E+01  5.00000000E+00  0.00000000E+00
  3.90000000E+01  4.00000000E+00  0.00000000E+00
  3.90000000E+01  3.00000000E+00  0.00000000E+00
  3.90000000E+01  2.00000000E+00  0.00000000E+00
  3.90000000E+01  1.00000000E+00  0.00000000E+00
  3.90000000E+01 -2.66453526E-15  0.00000000E+00
  4.00000000E+01  2.40000000E+01  0.00000000E+00
  4.00000000E+01  2.30000000E+01  0.00000000E+00
  4.00000000E+01  2.20000000E+01  0.00000000E+00
  4.00000000E+01  2.10000000E+01  0.00000000E+00
  4.00000000E+01  2.00000000E+01  0.00000000E+00
  4.00000000E+01  1.90000000E+01  0.00000000E+00
  4.00000000E+01  1.80000000E+01  0.00000000E+00
  4.00000000E+01  1.70000000E+01  0.00000000E+00
  4.00000000E+01  1.60000000E+01  0.00000000E+00
  4.00000000E+01  1.50000000E+01  0.00000000E+00
  4.00000000E+01  1.40000000E+01  0.00000000E+00
  4.00000000E+01  1.30000000E+01  0.00000000E+00
  4.00000000E+01  1.20000000E+01  0.00000000E+00
  4.00000000E+01  1.10000000E+01  0.00000000E+00
  4.00000000E+01  1.00000000E+01  0.00000000E+00
  4.00000000E+01  9.00000000E+00  0.00000000E+00
  4.00000000E+01  8.00000000E+00  0.00000000E+00
  4.00000000E+01  7.00000000E+00  0.00000000E+00
  4.00000000E+01  6.00000000E+00  0.00000000E+00
  4.00000000E+01  5.00000000E+00  0.00000000E+00
  4.00000000E+01  4.00000000E+00  0.00000000E+00
  4.00000000E+01  3.00000000E+00  0.00000000E+00
  4.00000000E+01  2.00000000E+00  0.00000000E+00
  4.00000000E+01  1.00000000E+00  0.00000000E+00
  4.00000000E+01 -2.66453526E-15  0.00000000E+00
  4.10000000E+01  2.40000000E+01  0.00000000E+00
  4.10000000E+01  2.30000000E+01  0.00000000E+00
  4.10000000E+01  2.20000000E+01  0.00000000E+00
  4.10000000E+01  2.10000000E+01  0.00000000E+00
  4.10000000E+01  2.00000000E+01  0.00000000E+00
  4.10000000E+01  1.90000000E+01  0.00000000E+00
  4.10000000E+01  1.80000000E+01  0.00000000E+00
  4.10000000E+01  1.70000000E+01  0.00000000E+00
  4.10000000E+01  1.60000000E+01  0.00000000E+00
  4.10000000E+01  1.50000000E+01  0.00000000E+00
  4.10000000E+01  1.40000000E+01  0.00000000E+00
  4.10000000E+01  1.30000000E+01  0.00000000E+00
  4.10000000E+01  1.20000000E+01  0.00000000E+00
  4.10000000E+01  1.10000000E+01  0.00000000E+00
  4.10000000E+01  1.00000000E+01  0.00000000E+00
  4.10000000E+01  9.00000000E+00  0.00000000E+00
  4.10000000E+01  8.00000000E+00  0.00000000E+00
  4.10000000E+01  7.00000000E+00  0.00000000E+00
  4.10000000E+01  6.00000000E+00  0.00000000E+00
  4.10000000E+01  5.00000000E+00  0.00000000E+00
  4.10000000E+01  4.00000000E+00  0.00000000E+00
  4.10000000E+01  3.00000000E+00  0.00000000E+00
  4.10000000E+01  2.00000000E+00  0.00000000E+00
  4.10000000E+01  1.00000000E+00  0.00000000E+00
  4.10000000E+01 -2.66453526E-15  0.00000000E+00
  4.20000000E+01  2.40000000E+01  0.00000000E+00
  4.20000000E+01  2.30000000E+01  0.00000000E+00
  4.20000000E+01  2.20000000E+01  0.00000000E+00
  4.20000000E+01  2.10000000E+01  0.00000000E+00
  4.20000000E+01  2.00000000E+01  0.00000000E+00
  4.20000000E+01  1.90000000E+01  0.00000000E+00
  4.20000000E+01  1.80000000E+01  0.00000000E+00
  4.20000000E+01  1.70000000E+01  0.00000000E+00
  4.20000000E+01  1.60000000E+01  0.00000000E+00
  4.20000000E+01  1.50000000E+01  0.00000000E+00
  4.20000000E+01  1.40000000E+01  0.00000000E+00
  4.20000000E+01  1.30000000E+01  0.00000000E+00
  4.20000000E+01  1.20000000E+01  0.00000000E+00
  4.20000000E+01  1.10000000E+01  0.00000000E+00
  4.20000000E+01  1.00000000E+01  0.00000000E+00
  4.20000000E+01  9.00000000E+00  0.00000000E+00
  4.20000000E+01  8.00000000E+00  0.00000000E+00
  4.20000000E+01  7.00000000E+00  0.00000000E+00
  4.20000000E+01  6.00000000E+00  0.00000000E+00
  4.20000000E+01  5.00000000E+00  0.00000000E+00
  4.20000000E+01  4.00000000E+00  0.00000000E+00
  4.20000000E+01  3.00000000E+00  0.00000000E+00
  4.20000000E+01  2.00000000E+00  0.00000000E+00
  4.20000000E+01  1.00000000E+00  0.00000000E+00
  4.20000000E+01 -2.66453526E-15  0.00000000E+00
  4.30000000E+01  2.40000000E+01  0.00000000E+00
  4.30000000E+01  2.30000000E+01  0.00000000E+00
  4.30000000E+01  2.20000000E+01  0.00000000E+00
  4.30000000E+01  2.10000000E+01  0.00000000E+00
  4.30000000E+01  2.00000000E+01  0.00000000E+00
  4.30000000E+01  1.90000000E+01  0.00000000E+00
  4.30000000E+01  1.80000000E+01  0.00000000E+00
  4.30000000E+01  1.70000000E+01  0.00000000E+00
  4.30000000E+01  1.60000000E+01  0.00000000E+00
  4.30000000E+01  1.50000000E+01  0.00000000E+00
  4.30000000E+01  1.40000000E+01  0.00000000E+00
  4.30000000E+01  1.30000000E+01  0.00000000E+00
  4.30000000E+01  1.20000000E+01  0.00000000E+00
  4.30000000E+01  1.10000000E+01  0.00000000E+00
  4.30000000E+01  1.00000000E+01  0.00000000E+00
  4.30000000E+01  9.00000000E+00  0.00000000E+00
  4.30000000E+01  8.00000000E+00  0.00000000E+00
  4.30000000E+01  7.00000000E+00  0.00000000E+00
  4.30000000E+01  6.00000000E+00  0.00000000E+00
  4.30000000E+01  5.00000000E+00  0.00000000E+00
  4.30000000E+01  4.00000000E+00  0.00000000E+00
  4.30000000E+01  3.00000000E+00  0.00000000E+00
  4.30000000E+01  2.00000000E+00  0.00000000E+00
  4.30000000E+01  1.00000000E+00  0.00000000E+00
  4.30000000E+01 -2.66453526E-15  0.00000000E+00
  4.40000000E+01  2.40000000E+01  0.00000000E+00
  4.40000000E+01  2.30000000E+01  0.00000000E+00
  4.40000000E+01  2.20000000E+01  0.00000000E+00
  4.40000000E+01  2.10000000E+01  0.00000000E+00
  4.40000000E+01  2.00000000E+01  0.00000000E+00
  4.40000000E+01  1.90000000E+01  0.00000000E+00
  4.40000000E+01  1.80000000E+01  0.00000000E+00
  4.40000000E+01  1.70000000E+01  0.00000000E+00
  4.40000000E+01  1.60000000E+01  0.00000000E+00
  4.40000000E+01  1.50000000E+01  0.00000000E+00
  4.40000000E+01  1.40000000E+01  0.00000000E+00
  4.40000000E+01  1.30000000E+01  0.00000000E+00
  4.40000000E+01  1.20000000E+01  0.00000000E+00
  4.40000000E+01  1.10000000E+01  0.00000000E+00
  4.40000000E+01  1.00000000E+01  0.00000000E+00
  4.40000000E+01  9.00000000E+00  0.00000000E+00
  4.40000000E+01  8.00000000E+00  0.00000000E+00
  4.40000000E+01  7.00000000E+00  0.00000000E+00
  4.40000000E+01  6.00000000E+00  0.00000000E+00
  4.40000000E+01  5.00000000E+00  0.00000000E+00
  4.40000000E+01  4.00000000E+00  0.00000000E+00
  4.40000000E+01  3.00000000E+00  0.00000000E+00
  4.40000000E+01  2.00000000E+00  0.00000000E+00
  4.40000000E+01  1.00000000E+00  0.00000000E+00
  4.40000000E+01 -2.66453526E-15  0.00000000E+00
  4.50000000E+01  2.40000000E+01  0.00000000E+00
  4.50000000E+01  2.30000000E+01  0.00000000E+00
  4.50000000E+01  2.20000000E+01  0.00000000E+00
  4.50000000E+01  2.10000000E+01  0.00000000E+00
  4.50000000E+01  2.00000000E+01  0.00000000E+00
  4.50000000E+01  1.90000000E+01  0.00000000E+00
  4.50000000E+01  1.80000000E+01  0.00000000E+00
  4.50000000E+01  1.70000000E+01  0.00000000E+00
  4.50000000E+01  1.60000000E+01  0.00000000E+00
  4.50000000E+01  1.50000000E+01  0.00000000E+00
  4.50000000E+01  1.40000000E+01  0.00000000E+00
  4.50000000E+01  1.30000000E+01  0.00000000E+00
  4.50000000E+01  1.20000000E+01  0.00000000E+00
  4.50000000E+01  1.10000000E+01  0.00000000E+00
  4.50000000E+01  1.00000000E+01  0.00000000E+00
  4.50000000E+01  9.00000000E+00  0.00000000E+00
  4.50000000E+01  8.00000000E+00  0.00000000E+00
  4.50000000E+01  7.00000000E+00  0.00000000E+00
  4.50000000E+01  6.00000000E+00  0.00000000E+00
  4.50000000E+01  5.00000000E+00  0.00000000E+00
  4.50000000E+01  4.00000000E+00  0.00000000E+00
  4.50000000E+01  3.00000000E+00  0.00000000E+00
  4.50000000E+01  2.00000000E+00  0.00000000E+00
  4.50000000E+01  1.00000000E+00  0.00000000E+00
  4.50000000E+01 -2.66453526E-15  0.00000000E+00
  4.60000000E+01  2.40000000E+01  0.00000000E+00
  4.60000000E+01  2.30000000E+01  0.00000000E+00
  4.60000000E+01  2.20000000E+01  0.00000000E+00
  4.60000000E+01  2.10000000E+01  0.00000000E+00
  4.60000000E+01  2.00000000E+01  0.00000000E+00
  4.60000000E+01  1.90000000E+01  0.00000000E+00
  4.60000000E+01  1.80000000E+01  0.00000000E+00
  4.60000000E+01  1.70000000E+01  0.00000000E+00
  4.60000000E+01  1.60000000E+01  0.00000000E+00
  4.60000000E+01  1.50000000E+01  0.00000000E+00
  4.60000000E+01  1.40000000E+01  0.00000000E+00
  4.60000000E+01  1.30000000E+01  0.00000000E+00
  4.60000000E+01  1.20000000E+01  0.00000000E+00
  4.60000000E+01  1.10000000E+01  0.00000000E+00
  4.60000000E+01  1.00000000E+01  0.00000000E+00
  4.60000000E+01  9.00000000E+00  0.00000000E+00
  4.60000000E+01  8.00000000E+00  0.00000000E+00
  4.60000000E+01  7.00000000E+00  0.00000000E+00
  4.60000000E+01  6.00000000E+00  0.00000000E+00
  4.60000000E+01  5.00000000E+00  0.00000000E+00
  4.60000000E+01  4.00000000E+00  0.00000000E+00
  4.60000000E+01  3.00000000E+00  0.00000000E+00
  4.60000000E+01  2.00000000E+00  0.00000000E+00
  4.60000000E+01  1.00000000E+00  0.00000000E+00
  4.60000000E+01 -2.66453526E-15  0.00000000E+00
  4.70000000E+01  2.40000000E+01  0.00000000E+00
  4.70000000E+01  2.30000000E+01  0.00000000E+00
  4.70000000E+01  2.20000000E+01  0.00000000E+00
  4.70000000E+01  2.10000000E+01  0.00000000E+00
  4.70000000E+01  2.00000000E+01  0.00000000E+00
  4.70000000E+01  1.90000000E+01  0.00000000E+00
  4.70000000E+01  1.80000000E+01  0.00000000E+00
  4.70000000E+01  1.70000000E+01  0.00000000E+00
  4.70000000E+01  1.60000000E+01  0.00000000E+00
  4.70000000E+01  1.50000000E+01  0.00000000E+00
  4.70000000E+01  1.40000000E+01  0.00000000E+00
  4.70000000E+01  1.30000000E+01  0.00000000E+00
  4.70000000E+01  1.20000000E+01  0.00000000E+00
  4.70000000E+01  1.10000000E+01  0.00000000E+00
  4.70000000E+01  1.00000000E+01  0.00000000E+00
  4.70000000E+01  9.00000000E+00  0.00000000E+00
  4.70000000E+01  8.00000000E+00  0.00000000E+00
  4.70000000E+01  7.00000000E+00  0.00000000E+00
  4.70000000E+01  6.00000000E+00  0.00000000E+00
  4.70000000E+01  5.00000000E+00  0.00000000E+00
  4.70000000E+01  4.00000000E+00  0.00000000E+00
  4.70000000E+01  3.00000000E+00  0.00000000E+00
  4.70000000E+01  2.00000000E+00  0.00000000E+00
  4.70000000E+01  1.00000000E+00  0.00000000E+00
  4.70000000E+01 -2.66453526E-15  0.00000000E+00
  4.80000000E+01  2.40000000E+01  0.00000000E+00
  4.80000000E+01  2.30000000E+01  0.00000000E+00
  4.80000000E+01  2.20000000E+01  0.00000000E+00
  4.80000000E+01  2.10000000E+01  0.00000000E+00
  4.80000000E+01  2.00000000E+01  0.00000000E+00
  4.80000000E+01  1.90000000E+01  0.00000000E+00
  4.80000000E+01  1.80000000E+01  0.00000000E+00
  4.80000000E+01  1.70000000E+01  0.00000000E+00
  4.80000000E+01  1.60000000E+01  0.00000000E+00
  4.80000000E+01  1.50000000E+01  0.00000000E+00
  4.80000000E+01  1.40000000E+01  0.00000000E+00
  4.80000000E+01  1.30000000E+01  0.00000000E+00
  4.80000000E+01  1.20000000E+01  0.00000000E+00
  4.80000000E+01  1.10000000E+01  0.00000000E+00
  4.80000000E+01  1.00000000E+01  0.00000000E+00
  4.80000000E+01  9.00000000E+00  0.00000000E+00
  4.80000000E+01  8.00000000E+00  0.00000000E+00
  4.80000000E+01  7.00000000E+00  0.00000000E+00
  4.80000000E+01  6.00000000E+00  0.00000000E+00
  4.80000000E+01  5.00000000E+00  0.00000000E+00
  4.80000000E+01  4.00000000E+00  0.00000000E+00
  4.80000000E+01  3.00000000E+00  0.00000000E+00
  4.80000000E+01  2.00000000E+00  0.00000000E+00
  4.80000000E+01  1.00000000E+00  0.00000000E+00
  4.80000000E+01 -2.66453526E-15  0.00000000E+00
CELLS      1152      5760
         4           0           1          26          25
         4           1           2          27          26
         4           2           3          28          27
         4           3           4          29          28
         4           4           5          30          29
         4           5           6          31          30
         4           6           7          32          31
         4           7           8          33          32
         4           8           9          34          33
         4           9          10          35          34
         4          10          11          36          35
         4          11          12          37          36
         4          12          13          38          37
         4          13          14          39          38
         4          14          15          40          39
         4          15          16          41          40
         4          16          17          42          41
         4          17          18          43          42
         4          18          19          44          43
         4          19          20          45          44
         4          20          21          46          45
         4          21          22          47          46
         4          22          23          48          47
         4          23          24          49          48
         4          25          26          51          50
         4          26          27          52          51
         4          27          28          53          52
         4          28          29          54          53
         4          29          30          55          54
         4          30          31          56          55
         4          31          32          57          56
         4          32          33          58          57
         4          33          34          59          58
         4          34          35          60          59
         4          35          36          61          60
         4          36          37          62          61
         4          37          38          63          62
         4          38          39          64          63
         4          39          40          65          64
         4          40          41          66          65
         4          41          42          67          66
         4          42          43          68          67
         4          43          44          69          68
         4          44          45          70          69
         4          45          46          71          70
         4          46          47          72          71
         4          47          48          73          72
         4          48          49          74          73
         4          50          51          76          75
         4          51          52          77          76
         4          52          53          78          77
         4          53          54          79          78
         4          54          55          80          79
         4          55          56          81          80
         4          56          57          82          81
         4          57          58          83          82
         4          58          59          84          83
         4          59          60          85          84
         4          60          61          86          85
         4          61          62          87          86
         4          62          63          88          87
         4          63          64          89          88
         4          64          65          90          89
         4          65          66          91          90
         4          66          67          92          91
         4          67          68          93          92
         4          68          69          94          93
         4          69          70          95          94
         4          70          71          96          95
         4          71          72          97          96
         4          72          73          98          97
         4          73          74          99          98
         4          75          76         101         100
         4          76          77         102         101
         4          77          78         103         102
         4          78          79         104         103
         4          79          80         105         104
         4          80          81         106         105
         4          81          82         107         106
         4          82          83         108         107
         4          83          84         109         108
         4          84          85         110         109
         4          85          86         111         110
         4          86          87         112         111
         4          87          88         113         112
         4          88          89         114         113
         4          89          90         115         114
         4          90          91         116         115
         4          91          92         117         116
         4          92          93         118         117
         4          93          94         119         118
         4          94          95         120         119
         4          95          96         121         120
         4          96          97         122         121
         4          97          98         123         122
         4          98          99         124         123
         4         100         101         126         125
         4         101         102         127         126
         4         102         103         128         127
         4         103         104         129         128
         4         104         105         130         129
         4         105         106         131         130
         4         106         107         132         131
         4         107         108         133         132
         4         108         109         134         133
         4         109         110         135         134
         4         110         111         136         135
         4         111         112         137         136
         4         112         113         138         137
         4         113         114         139         138
         4         114         115         140         139
         4         115         116         141         140
         4         116         117         142         141
         4         117         118         143         142
         4         118         119         144         143
         4         119         120         145         144
         4         120         121         146         145
         4         121         122         147         146
         4         122         123         148         147
         4         123         124         149         148
         4         125         126         151         150
         4         126         127         152         151
         4         127         128         153         152
         4         128         129         154         153
         4         129         130         155         154
         4         130         131         156         155
         4         131         132         157         156
         4         132         133         158         157
         4         133         134         159         158
         4         134         135         160         159
         4         135         136         161         160
         4         136         137         162         161
         4         137         138         163         162
         4         138         139         164         163
         4         139         140         165         164
         4         140         141         166         165
         4         141         142         167         166
         4         142         143         168         167
         4         143         144         169         168
         4         144         145         170         169
         4         145         146         171         170
         4         146         147         172         171
         4         147         148         173         172
         4         148         149         174         173
         4         150         151         176         175
         4         151         152         177         176
         4         152         153         178         177
         4         153         154         179         178
         4         154         155         180         179
         4         155         156         181         180
         4         156         157         182         181
         4         157         158         183         182
         4         158         159         184         183
         4         159         160         185         184
         4         160         161         186         185
         4         161         162         187         186
         4         162         163         188         187
         4         163         164         189         188
         4         164         165         190         189
         4         165         166         191         190
         4         166         167         192         191
         4         167         168         193         192
         4         168         169         194         193
         4         169         170         195         194
         4         170         171         196         195
         4         171         172         197         196
         4         172         173         198         197
         4         173         174         199         198
         4         175         176         201         200
         4         176         177         202         201
         4         177         178         203         202
         4         178         179         204         203
         4         179         180         205         204
         4         180         181         206         205
         4         181         182         207         206
         4         182         183         208         207
         4         183         184         209         208
         4         184         185         210         209
         4         185         186         211         210
         4         186         187         212         211
         4         187         188         213         212
         4         188         189         214         213
         4         189         190         215         214
         4         190         191         216         215
         4         191         192         217         216
         4         192         193         218         217
         4         193         194         219         218
         4         194         195         220         219
         4         195         196         221         220
         4         196         197         222         221
         4         197         198         223         222
         4         198         199         224         223
         4         200         201         226         225
         4         201         202         227         226
         4         202         203         228         227
         4         203         204         229         228
         4         204         205         230         229
         4         205         206         231         230
         4         206         207         232         231
         4         207         208         233         232
         4         208         209         234         233
         4         209         210         235         234
         4         210         211         236         235
         4         211         212         237         236
         4         212         213         238         237
         4         213         214         239         238
         4         214         215         240         239
         4         215         216         241         240
         4         216         217         242         241
         4         217         218         243         242
         4         218         219         244         243
         4         219         220         245         244
         4         220         221         246         245
         4         221         222         247         246
         4         222         223         248         247
         4         223         224         249         248
         4         225         226         251         250
         4         226         227         252         251
         4         227         228         253         252
         4         228         229         254         253
         4         229         230         255         254
         4         230         231         256         255
         4         231         232         257         256
         4         232         233         258         257
         4         233         234         259         258
         4         234         235         260         259
         4         235         236         261         260
         4         236         237         262         261
         4         237         238         263         262
         4         238         239         264         263
         4         239         240         265         264
         4         240         241         266         265
         4         241         242         267         266
         4         242         243         268         267
         4         243         244         269         268
         4         244         245         270         269
         4         245         246         271         270
         4         246         247         272         271
         4         247         248         273         272
         4         248         249         274         273
         4         250         251         276         275
         4         251         252         277         276
         4         252         253         278         277
         4         253         254         279         278
         4         254         255         280         279
         4         255         256         281         280
         4         256         257         282         281
         4         257         258         283         282
         4         258         259         284         283
         4         259         260         285         284
         4         260         261         286         285
         4         261         262         287         286
         4         262         263         288         287
         4         263         264         289         288
         4         264         265         290         289
         4         265         266         291         290
         4         266         267         292         291
         4         267         268         293         292
         4         268         269         294         293
         4         269         270         295         294
         4         270         271         296         295
         4         271         272         297         296
         4         272         273         298         297
         4         273         274         299         298
         4         275         276         301         300
         4         276         277         302         301
         4         277         278         303         302
         4         278         279         304         303
         4         279         280         305         304
         4         280         281         306         305
         4         281         282         307         306
         4         282         283         308         307
         4         283         284         309         308
         4         284         285         310         309
         4         285         286         311         310
         4         286         287         312         311
         4         287         288         313         312
         4         288         289         314         313
         4         289         290         315         314
         4         290         291         316         315
         4         291         292         317         316
         4         292         293         318         317
         4         293         294         319         318
         4         294         295         320         319
         4         295         296         321         320
         4         296         297         322         321
         4         297         298         323         322
         4         298         299         324         323
         4         300         301         326         325
         4         301         302         327         326
         4         302         303         328         327
         4         303         304         329         328
         4         304         305         330         329
         4         305         306         331         330
         4         306         307         332         331
         4         307         308         333         332
         4         308         309         334         333
         4         309         310         335         334
         4         310         311         336         335
         4         311         312         337         336
         4         312         313         338         337
         4         313         314         339         338
         4         314         315         340         339
         4         315         316         341         340
         4         316         317         342         341
         4         317         318         343         342
         4         318         319         344         343
         4         319         320         345         344
         4         320         321         346         345
         4         321         322         347         346
         4         322         323         348         347
         4         323         324         349         348
         4         325         326         351         350
         4         326         327         352         351
         4         327         328         353         352
         4         328         329         354         353
         4         329         330         355         354
         4         330         331         356         355
         4         331         332         357         356
         4         332         333         358         357
         4         333         334         359         358
         4         334         335         360         359
         4         335         336         361         360
         4         336         337         362         361
         4         337         338         363         362
         4         338         339         364         363
         4         339         340         365         364
         4         340         341         366         365
         4         341         342         367         366
         4         342         343         368         367
         4         343         344         369         368
         4         344         345         370         369
         4         345         346         371         370
         4         346         347         372         371
         4         347         348         373         372
         4         348         349         374         373
         4         350         351         376         375
         4         351         352         377         376
         4         352         353         378         377
         4         353         354         379         378
         4         354         355         380         379
         4         355         356         381         380
         4         356         357         382         381
         4         357         358         383         382
         4         358         359         384         383
         4         359         360         385         384
         4         360         361         386         385
         4         361         362         387         386
         4         362         363         388         387
         4         363         364         389         388
         4         364         365         390         389
         4         365         366         391         390
         4         366         367         392         391
         4         367         368         393         392
         4         368         369         394         393
         4         369         370         395         394
         4         370         371         396         395
         4         371         372         397         396
         4         372         373         398         397
         4         373         374         399         398
         4         375         376         401         400
         4         376         377         402         401
         4         377         378         403         402
         4         378         379         404         403
         4         379         380         405         404
         4         380         381         406         405
         4         381         382         407         406
         4         382         383         408         407
         4         383         384         409         408
         4         384         385         410         409
         4         385         386         411         410
         4         386         387         412         411
         4         387         388         413         412
         4         388         389         414         413
         4         389         390         415         414
         4         390         391         416         415
         4         391         392         417         416
         4         392         393         418         417
         4         393         394         419         418
         4         394         395         420         419
         4         395         396         421         420
         4         396         397         422         421
         4         397         398         423         422
         4         398         399         424         423
         4         400         401         426         425
         4         401         402         427         426
         4         402         403         428         427
         4         403         404         429         428
         4         404         405         430         429
         4         405         406         431         430
         4         406         407         432         431
         4         407         408         433         432
         4         408         409         434         433
         4         409         410         435         434
         4         410         411         436         435
         4         411         412         437         436
         4         412         413         438         437
         4         413         414         439         438
         4         414         415         440         439
         4         415         416         441         440
         4         416         417         442         441
         4         417         418         443         442
         4         418         419         444         443
         4         419         420         445         444
         4         420         421         446         445
         4         421         422         447         446
         4         422         423         448         447
         4         423         424         449         448
         4         425         426         451         450
         4         426         427         452         451
         4         427         428         453         452
         4         428         429         454         453
         4         429         430         455         454
         4         430         431         456         455
         4         431         432         457         456
         4         432         433         458         457
         4         433         434         459         458
         4         434         435         460         459
         4         435         436         461         460
         4         436         437         462         461
         4         437         438         463         462
         4         438         439         464         463
         4         439         440         465         464
         4         440         441         466         465
         4         441         442         467         466
         4         442         443         468         467
         4         443         444         469         468
         4         444         445         470         469
         4         445         446         471         470
         4         446         447         472         471
         4         447         448         473         472
         4         448         449         474         473
         4         450         451         476         475
         4         451         452         477         476
         4         452         453         478         477
         4         453         454         479         478
         4         454         455         480         479
         4         455         456         481         480
         4         456         457         482         481
         4         457         458         483         482
         4         458         459         484         483
         4         459         460         485         484
         4         460         461         486         485
         4         461         462         487         486
         4         462         463         488         487
         4         463         464         489         488
         4         464         465         490         489
         4         465         466         491         490
         4         466         467         492         491
         4         467         468         493         492
         4         468         469         494         493
         4         469         470         495         494
         4         470         471         496         495
         4         471         472         497         496
         4         472         473         498         497
         4         473         474         499         498
         4         475         476         501         500
         4         476         477         502         501
         4         477         478         503         502
         4         478         479         504         503
         4         479         480         505         504
         4         480         481         506         505
         4         481         482         507         506
         4         482         483         508         507
         4         483         484         509         508
         4         484         485         510         509
         4         485         486         511         510
         4         486         487         512         511
         4         487         488         513         512
         4         488         489         514         513
         4         489         490         515         514
         4         490         491         516         515
         4         491         492         517         516
         4         492         493         518         517
         4         493         494         519         518
         4         494         495         520         519
         4         495         496         521         520
         4         496         497         522         521
         4         497         498         523         522
         4         498         499         524         523
         4         500         501         526         525
         4         501         502         527         526
         4         502         503         528         527
         4         503         504         529         528
         4         504         505         530         529
         4         505         506         531         530
         4         506         507         532         531
         4         507         508         533         532
         4         508         509         534         533
         4         509         510         535         534
         4         510         511         536         535
         4         511         512         537         536
         4         512         513         538         537
         4         513         514         539         538
         4         514         515         540         539
         4         515         516         541         540
         4         516         517         542         541
         4         517         518         543         542
         4         518         519         544         543
         4         519         520         545         544
         4         520         521         546         545
         4         521         522         547         546
         4         522         523         548         547
         4         523         524         549         548
         4         525         526         551         550
         4         526         527         552         551
         4         527         528         553         552
         4         528         529         554         553
         4         529         530         555         554
         4         530         531         556         555
         4         531         532         557         556
         4         532         533         558         557
         4         533         534         559         558
         4         534         535         560         559
         4         535         536         561         560
         4         536         537         562         561
         4         537         538         563         562
         4         538         539         564         563
         4         539         540         565         564
         4         540         541         566         565
         4         541         542         567         566
         4         542         543         568         567
         4         543         544         569         568
         4         544         545         570         569
         4         545         546         571         570
         4         546         547         572         571
         4         547         548         573         572
         4         548         549         574         573
         4         550         551         576         575
         4         551         552         577         576
         4         552         553         578         577
         4         553         554         579         578
         4         554         555         580         579
         4         555         556         581         580
         4         556         557         582         581
         4         557         558         583         582
         4         558         559         584         583
         4         559         560         585         584
         4         560         561         586         585
         4         561         562         587         586
         4         562         563         588         587
         4         563         564         589         588
         4         564         565         590         589
         4         565         566         591         590
         4         566         567         592         591
         4         567         568         593         592
         4         568         569         594         593
         4         569         570         595         594
         4         570         571         596         595
         4         571         572         597         596
         4         572         573         598         597
         4         573         574         599         598
         4         575         576         601         600
         4         576         577         602         601
         4         577         578         603         602
         4         578         579         604         603
         4         579         580         605         604
         4         580         581         606         605
         4         581         582         607         606
         4         582         583         608         607
         4         583         584         609         608
         4         584         585         610         609
         4         585         586         611         610
         4         586         587         612         611
         4         587         588         613         612
         4         588         589         614         613
         4         589         590         615         614
         4         590         591         616         615
         4         591         592         617         616
         4         592         593         618         617
         4         593         594         619         618
         4         594         595         620         619
         4         595         596         621         620
         4         596         597         622         621
         4         597         598         623         622
         4         598         599         624         623
         4         600         601         626         625
         4         601         602         627         626
         4         602         603         628         627
         4         603         604         629         628
         4         604         605         630         629
         4         605         606         631         630
         4         606         607         632         631
         4         607         608         633         632
         4         608         609         634         633
         4         609         610         635         634
         4         610         611         636         635
         4         611         612         637         636
         4         612         613         638         637
         4         613         614         639         638
         4         614         615         640         639
         4         615         616         641         640
         4         616         617         642         641
         4         617         618         643         642
         4         618         619         644         643
         4         619         620         645         644
         4         620         621         646         645
         4         621         622         647         646
         4         622         623         648         647
         4         623         624         649         648
         4         625         626         651         650
         4         626         627         652         651
         4         627         628         653         652
         4         628         629         654         653
         4         629         630         655         654
         4         630         631         656         655
         4         631         632         657         656
         4         632         633         658         657
         4         633         634         659         658
         4         634         635         660         659
         4         635         636         661         660
         4         636         637         662         661
         4         637         638         663         662
         4         638         639         664         663
         4         639         640         665         664
         4         640         641         666         665
         4         641         642         667         666
         4         642         643         668         667
         4         643         644         669         668
         4         644         645         670         669
         4         645         646         671         670
         4         646         647         672         671
         4         647         648         673         672
         4         648         649         674         673
         4         650         651         676         675
         4         651         652         677         676
         4         652         653         678         677
         4         653         654         679         678
         4         654         655         680         679
         4         655         656         681         680
         4         656         657         682         681
         4         657         658         683         682
         4         658         659         684         683
         4         659         660         685         684
         4         660         661         686         685
         4         661         662         687         686
         4         662         663         688         687
         4         663         664         689         688
         4         664         665         690         689
         4         665         666         691         690
         4         666         667         692         691
         4         667         668         693         692
         4         668         669         694         693
         4         669         670         695         694
         4         670         671         696         695
         4         671         672         697         696
         4         672         673         698         697
         4         673         674         699         698
         4         675         676         701         700
         4         676         677         702         701
         4         677         678         703         702
         4         678         679         704         703
         4         679         680         705         704
         4         680         681         706         705
         4         681         682         707         706
         4         682         683         708         707
         4         683         684         709         708
         4         684         685         710         709
         4         685         686         711         710
         4         686         687         712         711
         4         687         688         713         712
         4         688         689         714         713
         4         689         690         715         714
         4         690         691         716         715
         4         691         692         717         716
         4         692         693         718         717
         4         693         694         719         718
         4         694         695         720         719
         4         695         696         721         720
         4         696         697         722         721
         4         697         698         723         722
         4         698         699         724         723
         4         700         701         726         725
         4         701         702         727         726
         4         702         703         728         727
         4         703         704         729         728
         4         704         705         730         729
         4         705         706         731         730
         4         706         707         732         731
         4         707         708         733         732
         4         708         709         734         733
         4         709         710         735         734
         4         710         711         736         735
         4         711         712         737         736
         4         712         713         738         737
         4         713         714         739         738
         4         714         715         740         739
         4         715         716         741         740
         4         716         717         742         741
         4         717         718         743         742
         4         718         719         744         743
         4         719         720         745         744
         4         720         721         746         745
         4         721         722         747         746
         4         722         723         748         747
         4         723         724         749         748
         4         725         726         751         750
         4         726         727         752         751
         4         727         728         753         752
         4         728         729         754         753
         4         729         730         755         754
         4         730         731         756         755
         4         731         732         757         756
         4         732         733         758         757
         4         733         734         759         758
         4         734         735         760         759
         4         735         736         761         760
         4         736         737         762         761
         4         737         738         763         762
         4         738         739         764         763
         4         739         740         765         764
         4         740         741         766         765
         4         741         742         767         766
         4         742         743         768         767
         4         743         744         769         768
         4         744         745         770         769
         4         745         746         771         770
         4         746         747         772         771
         4         747         748         773         772
         4         748         749         774         773
         4         750         751         776         775
         4         751         752         777         776
         4         752         753         778         777
         4         753         754         779         778
         4         754         755         780         779
         4         755         756         781         780
         4         756         757         782         781
         4         757         758         783         782
         4         758         759         784         783
         4         759         760         785         784
         4         760         761         786         785
         4         761         762         787         786
         4         762         763         788         787
         4         763         764         789         788
         4         764         765         790         789
         4         765         766         791         790
         4         766         767         792         791
         4         767         768         793         792
         4         768         769         794         793
         4         769         770         795         794
         4         770         771         796         795
         4         771         772         797         796
         4         772         773         798         797
         4         773         774         799         798
         4         775         776         801         800
         4         776         777         802         801
         4         777         778         803         802
         4         778         779         804         803
         4         779         780         805         804
         4         780         781         806         805
         4         781         782         807         806
         4         782         783         808         807
         4         783         784         809         808
         4         784         785         810         809
         4         785         786         811         810
         4         786         787         812         811
         4         787         788         813         812
         4         788         789         814         813
         4         789         790         815         814
         4         790         791         816         815
         4         791         792         817         816
         4         792         793         818         817
         4         793         794         819         818
         4         794         795         820         819
         4         795         796         821         820
         4         796         797         822         821
         4         797         798         823         822
         4         798         799         824         823
         4         800         801         826         825
         4         801         802         827         826
         4         802         803         828         827
         4         803         804         829         828
         4         804         805         830         829
         4         805         806         831         830
         4         806         807         832         831
         4         807         808         833         832
         4         808         809         834         833
         4         809         810         835         834
         4         810         811         836         835
         4         811         812         837         836
         4         812         813         838         837
         4         813         814         839         838
         4         814         815         840         839
         4         815         816         841         840
         4         816         817         842         841
         4         817         818         843         842
         4         818         819         844         843
         4         819         820         845         844
         4         820         821         846         845
         4         821         822         847         846
         4         822         823         848         847
         4         823         824         849         848
         4         825         826         851         850
         4         826         827         852         851
         4         827         828         853         852
         4         828         829         854         853
         4         829         830         855         854
         4         830         831         856         855
         4         831         832         857         856
         4         832         833         858         857
         4         833         834         859         858
         4         834         835         860         859
         4         835         836         861         860
         4         836         837         862         861
         4         837         838         863         862
         4         838         839         864         863
         4         839         840         865         864
         4         840         841         866         865
         4         841         842         867         866
         4         842         843         868         867
         4         843         844         869         868
         4         844         845         870         869
         4         845         846         871         870
         4         846         847         872         871
         4         847         848         873         872
         4         848         849         874         873
         4         850         851         876         875
         4         851         852         877         876
         4         852         853         878         877
         4         853         854         879         878
         4         854         855         880         879
         4         855         856         881         880
         4         856         857         882         881
         4         857         858         883         882
         4         858         859         884         883
         4         859         860         885         884
         4         860         861         886         885
         4         861         862         887         886
         4         862         863         888         887
         4         863         864         889         888
         4         864         865         890         889
         4         865         866         891         890
         4         866         867         892         891
         4         867         868         893         892
         4         868         869         894         893
         4         869         870         895         894
         4         870         871         896         895
         4         871         872         897         896
         4         872         873         898         897
         4         873         874         899         898
         4         875         876         901         900
         4         876         877         902         901
         4         877         878         903         902
         4         878         879         904         903
         4         879         880         905         904
         4         880         881         906         905
         4         881         882         907         906
         4         882         883         908         907
         4         883         884         909         908
         4         884         885         910         909
         4         885         886         911         910
         4         886         887         912         911
         4         887         888         913         912
         4         888         889         914         913
         4         889         890         915         914
         4         890         891         916         915
         4         891         892         917         916
         4         892         893         918         917
         4         893         894         919         918
         4         894         895         920         919
         4         895         896         921         920
         4         896         897         922         921
         4         897         898         923         922
         4         898         899         924         923
         4         900         901         926         925
         4         901         902         927         926
         4         902         903         928         927
         4         903         904         929         928
         4         904         905         930         929
         4         905         906         931         930
         4         906         907         932         931
         4         907         908         933         932
         4         908         909         934         933
         4         909         910         935         934
         4         910         911         936         935
         4         911         912         937         936
         4         912         913         938         937
         4         913         914         939         938
         4         914         915         940         939
         4         915         916         941         940
         4         916         917         942         941
         4         917         918         943         942
         4         918         919         944         943
         4         919         920         945         944
         4         920         921         946         945
         4         921         922         947         946
         4         922         923         948         947
         4         923         924         949         948
         4         925         926         951         950
         4         926         927         952         951
         4         927         928         953         952
         4         928         929         954         953
         4         929         930         955         954
         4         930         931         956         955
         4         931         932         957         956
         4         932         933         958         957
         4         933         934         959         958
         4         934         935         960         959
         4         935         936         961         960
         4         936         937         962         961
         4         937         938         963         962
         4         938         939         964         963
         4         939         940         965         964
         4         940         941         966         965
         4         941         942         967         966
         4         942         943         968         967
         4         943         944         969         968
         4         944         945         970         969
         4         945         946         971         970
         4         946         947         972         971
         4         947         948         973         972
         4         948         949         974         973
         4         950         951         976         975
         4         951         952         977         976
         4         952         953         978         977
         4         953         954         979         978
         4         954         955         980         979
         4         955         956         981         980
         4         956         957         982         981
         4         957         958         983         982
         4         958         959         984         983
         4         959         960         985         984
         4         960         961         986         985
         4         961         962         987         986
         4         962         963         988         987
         4         963         964         989         988
         4         964         965         990         989
         4         965         966         991         990
         4         966         967         992         991
         4         967         968         993         992
         4         968         969         994         993
         4         969         970         995         994
         4         970         971         996         995
         4         971         972         997         996
         4         972         973         998         997
         4         973         974         999         998
         4         975         976        1001        1000
         4         976         977        1002        1001
         4         977         978        1003        1002
         4         978         979        1004        1003
         4         979         980        1005        1004
         4         980         981        1006        1005
         4         981         982        1007        1006
         4         982         983        1008        1007
         4         983         984        1009        1008
         4         984         985        1010        1009
         4         985         986        1011        1010
         4         986         987        1012        1011
         4         987         988        1013        1012
         4         988         989        1014        1013
         4         989         990        1015        1014
         4         990         991        1016        1015
         4         991         992        1017        1016
         4         992         993        1018        1017
         4         993         994        1019        1018
         4         994         995        1020        1019
         4         995         996        1021        1020
         4         996         997        1022        1021
         4         997         998        1023        1022
         4         998         999        1024        1023
         4        1000        1001        1026        1025
         4        1001        1002        1027        1026
         4        1002        1003        1028        1027
         4        1003        1004        1029        1028
         4        1004        1005        1030        1029
         4        1005        1006        1031        1030
         4        1006        1007        1032        1031
         4        1007        1008        1033        1032
         4        1008        1009        1034        1033
         4        1009        1010        1035        1034
         4        1010        1011        1036        1035
         4        1011        1012        1037        1036
         4        1012        1013        1038        1037
         4        1013        1014        1039        1038
         4        1014        1015        1040        1039
         4        1015        1016        1041        1040
         4        1016        1017        1042        1041
         4        1017        1018        1043        1042
         4        1018        1019        1044        1043
         4        1019        1020        1045        1044
         4        1020        1021        1046        1045
         4        1021        1022        1047        1046
         4        1022        1023        1048        1047
         4        1023        1024        1049        1048
         4        1025        1026        1051        1050
         4        1026        1027        1052        1051
         4        1027        1028        1053        1052
         4        1028        1029        1054        1053
         4        1029        1030        1055        1054
         4        1030        1031        1056        1055
         4        1031        1032        1057        1056
         4        1032        1033        1058        1057
         4        1033        1034        1059        1058
         4        1034        1035        1060        1059
         4        1035        1036        1061        1060
         4        1036        1037        1062        1061
         4        1037        1038        1063        1062
         4        1038        1039        1064        1063
         4        1039        1040        1065        1064
         4        1040        1041        1066        1065
         4        1041        1042        1067        1066
         4        1042        1043        1068        1067
         4        1043        1044        1069        1068
         4        1044        1045        1070        1069
         4        1045        1046        1071        1070
         4        1046        1047        1072        1071
         4        1047        1048        1073        1072
         4        1048        1049        1074        1073
         4        1050        1051        1076        1075
         4        1051        1052        1077        1076
         4        1052        1053        1078        1077
         4        1053        1054        1079        1078
         4        1054        1055        1080        1079
         4        1055        1056        1081        1080
         4        1056        1057        1082        1081
         4        1057        1058        1083        1082
         4        1058        1059        1084        1083
         4        1059        1060        1085        1084
         4        1060        1061        1086        1085
         4        1061        1062        1087        1086
         4        1062        1063        1088        1087
         4        1063        1064        1089        1088
         4        1064        1065        1090        1089
         4        1065        1066        1091        1090
         4        1066        1067        1092        1091
         4        1067        1068        1093        1092
         4        1068        1069        1094        1093
         4        1069        1070        1095        1094
         4        1070        1071        1096        1095
         4        1071        1072        1097        1096
         4        1072        1073        1098        1097
         4        1073        1074        1099        1098
         4        1075        1076        1101        1100
         4        1076        1077        1102        1101
         4        1077        1078        1103        1102
         4        1078        1079        1104        1103
         4        1079        1080        1105        1104
         4        1080        1081        1106        1105
         4        1081        1082        1107        1106
         4        1082        1083        1108        1107
         4        1083        1084        1109        1108
         4        1084        1085        1110        1109
         4        1085        1086        1111        1110
         4        1086        1087        1112        1111
         4        1087        1088        1113        1112
         4        1088        1089        1114        1113
         4        1089        1090        1115        1114
         4        1090        1091        1116        1115
         4        1091        1092        1117        1116
         4        1092        1093        1118        1117
         4        1093        1094        1119        1118
         4        1094        1095        1120        1119
         4        1095        1096        1121        1120
         4        1096        1097        1122        1121
         4        1097        1098        1123        1122
         4        1098        1099        1124        1123
         4        1100        1101        1126        1125
         4        1101        1102        1127        1126
         4        1102        1103        1128        1127
         4        1103        1104        1129        1128
         4        1104        1105        1130        1129
         4        1105        1106        1131        1130
         4        1106        1107        1132        1131
         4        1107        1108        1133        1132
         4        1108        1109        1134        1133
         4        1109        1110        1135        1134
         4        1110        1111        1136        1135
         4        1111        1112        1137        1136
         4        1112        1113        1138        1137
         4        1113        1114        1139        1138
         4        1114        1115        1140        1139
         4        1115        1116        1141        1140
         4        1116        1117        1142        1141
         4        1117        1118        1143        1142
         4        1118        1119        1144        1143
         4        1119        1120        1145        1144
         4        1120        1121        1146        1145
         4        1121        1122        1147        1146
         4        1122        1123        1148        1147
         4        1123        1124        1149        1148
         4        1125        1126        1151        1150
         4        1126        1127        1152        1151
         4        1127        1128        1153        1152
         4        1128        1129        1154        1153
         4        1129        1130        1155        1154
         4        1130        1131        1156        1155
         4        1131        1132        1157        1156
         4        1132        1133        1158        1157
         4        1133        1134        1159        1158
         4        1134        1135        1160        1159
         4        1135        1136        1161        1160
         4        1136        1137        1162        1161
         4        1137        1138        1163        1162
         4        1138        1139        1164        1163
         4        1139        1140        1165        1164
         4        1140        1141        1166        1165
         4        1141        1142        1167        1166
         4        1142        1143        1168        1167
         4        1143        1144        1169        1168
         4        1144        1145        1170        1169
         4        1145        1146        1171        1170
         4        1146        1147        1172        1171
         4        1147        1148        1173        1172
         4        1148        1149        1174        1173
         4        1150        1151        1176        1175
         4        1151        1152        1177        1176
         4        1152        1153        1178        1177
         4        1153        1154        1179        1178
         4        1154        1155        1180        1179
         4        1155        1156        1181        1180
         4        1156        1157        1182        1181
         4        1157        1158        1183        1182
         4        1158        1159        1184        1183
         4        1159        1160        1185        1184
         4        1160        1161        1186        1185
         4        1161        1162        1187        1186
         4        1162        1163        1188        1187
         4        1163        1164        1189        1188
         4        1164        1165        1190        1189
         4        1165        1166        1191        1190
         4        1166        1167        1192        1191
         4        1167        1168        1193        1192
         4        1168        1169        1194        1193
         4        1169        1170        1195        1194
         4        1170        1171        1196        1195
         4        1171        1172        1197        1196
         4        1172        1173        1198        1197
         4        1173        1174        1199        1198
         4        1175        1176        1201        1200
         4        1176        1177        1202        1201
         4        1177        1178        1203        1202
         4        1178        1179        1204        1203
         4        1179        1180        1205        1204
         4        1180        1181        1206        1205
         4        1181        1182        1207        1206
         4        1182        1183        1208        1207
         4        1183        1184        1209        1208
         4        1184        1185        1210        1209
         4        1185        1186        1211        1210
         4        1186        1187        1212        1211
         4        1187        1188        1213        1212
         4        1188        1189        1214        1213
         4        1189        1190        1215        1214
         4        1190        1191        1216        1215
         4        1191        1192        1217        1216
         4        1192        1193        1218        1217
         4        1193        1194        1219        1218
         4        1194        1195        1220        1219
         4        1195        1196        1221        1220
         4        1196        1197        1222        1221
         4        1197        1198        1223        1222
         4        1198        1199        1224        1223
CELL_TYPES       1152
9
9
9
9
9
9
9
9
9
9
9
9
9
9
9
9
9
9
9
9
9
9
9
9
9
9
9
9
9
9
9
9
9
9
9
9
9
9
9
9
9
9
9
9
9
9
9
9
9
9
9
9
9
9
9
9
9
9
9
9
9
9
9
9
9
9
9
9
9
9
9
9
9
9
9
9
9
9
9
9
9
9
9
9
9
9
9
9
9
9
9
9
9
9
9
9
9
9
9
9
9
9
9
9
9
9
9
9
9
9
9
9
9
9
9
9
9
9
9
9
9
9
9
9
9
9
9
9
9
9
9
9
9
9
9
9
9
9
9
9
9
9
9
9
9
9
9
9
9
9
9
9
9
9
9
9
9
9
9
9
9
9
9
9
9
9
9
9
9
9
9
9
9
9
9
9
9
9
9
9
9
9
9
9
9
9
9
9
9
9
9
9
9
9
9
9
9
9
9
9
9
9
9
9
9
9
9
9
9
9
9
9
9
9
9
9
9
9
9
9
9
9
9
9
9
9
9
9
9
9
9
9
9
9
9
9
9
9
9
9
9
9
9
9
9
9
9
9
9
9
9
9
9
9
9
9
9
9
9
9
9
9
9
9
9
9
9
9
9
9
9
9
9
9
9
9
9
9
9
9
9
9
9
9
9
9
9
9
9
9
9
9
9
9
9
9
9
9
9
9
9
9
9
9
9
9
9
9
9
9
9
9
9
9
9
9
9
9
9
9
9
9
9
9
9
9
9
9
9
9
9
9
9
9
9
9
9
9
9
9
9
9
9
9
9
9
9
9
9
9
9
9
9
9
9
9
9
9
9
9
9
9
9
9
9
9
9
9
9
9
9
9
9
9
9
9
9
9
9
9
9
9
9
9
9
9
9
9
9
9
9
9
9
9
9
9
9
9
9
9
9
9
9
9
9
9
9
9
9
9
9
9
9
9
9
9
9
9
9
9
9
9
9
9
9
9
9
9
9
9
9
9
9
9
9
9
9
9
9
9
9
9
9
9
9
9
9
9
9
9
9
9
9
9
9
9
9
9
9
9
9
9
9
9
9
9
9
9
9
9
9
9
9
9
9
9
9
9
9
9
9
9
9
9
9
9
9
9
9
9
9
9
9
9
9
9
9
9
9
9
9
9
9
9
9
9
9
9
9
9
9
9
9
9
9
9
9
9
9
9
9
9
9
9
9
9
9
9
9
9
9
9
9
9
9
9
9
9
9
9
9
9
9
9
9
9
9
9
9
9
9
9
9
9
9
9
9
9
9
9
9
9
9
9
9
9
9
9
9
9
9
9
9
9
9
9
9
9
9
9
9
9
9
9
9
9
9
9
9
9
9
9
9
9
9
9
9
9
9
9
9
9
9
9
9
9
9
9
9
9
9
9
9
9
9
9
9
9
9
9
9
9
9
9
9
9
9
9
9
9
9
9
9
9
9
9
9
9
9
9
9
9
9
9
9
9
9
9
9
9
9
9
9
9
9
9
9
9
9
9
9
9
9
9
9
9
9
9
9
9
9
9
9
9
9
9
9
9
9
9
9
9
9
9
9
9
9
9
9
9
9
9
9
9
9
9
9
9
9
9
9
9
9
9
9
9
9
9
9
9
9
9
9
9
9
9
9
9
9
9
9
9
9
9
9
9
9
9
9
9
9
9
9
9
9
9
9
9
9
9
9
9
9
9
9
9
9
9
9
9
9
9
9
9
9
9
9
9
9
9
9
9
9
9
9
9
9
9
9
9
9
9
9
9
9
9
9
9
9
9
9
9
9
9
9
9
9
9
9
9
9
9
9
9
9
9
9
9
9
9
9
9
9
9
9
9
9
9
9
9
9
9
9
9
9
9
9
9
9
9
9
9
9
9
9
9
9
9
9
9
9
9
9
9
9
9
9
9
9
9
9
9
9
9
9
9
9
9
9
9
9
9
9
9
9
9
9
9
9
9
9
9
9
9
9
9
9
9
9
9
9
9
9
9
9
9
9
9
9
9
9
9
9
9
9
9
9
9
9
9
9
9
9
9
9
9
9
9
9
9
9
9
9
9
9
9
9
9
9
9
9
9
9
9
9
9
9
9
9
9
9
9
9
9
9
9
9
9
9
9
9
9
9
9
9
9
9
9
9
9
9
9
9
9
9
9
9
9
9
9
9
9
9
9
9
9
9
9
9
9
9
9
9
9
9
9
9
9
9
9
9
9
9
9
9
9
9
9
9
9
9
9
9
9
9
9
9
9
9
9
9
9
9
9
9
9
9
9
9
9
9
9
9
9
9
9
9
9
9
9
9
9
9
9
9
9
9
9
9
9
9
9
9
9
9
9
9
9
9
9
9
9
9
9
9
9
9
9
9
9
9
9
9
9
9
9
9
9
9
9
9
9
9
9
9
9
9
9
9
9
9
9
9
9
9
9
9
9
9
9
9
9
9
9
9
9
9
9
9
9
9
9
9
9
9
9
9
9
9
9
9
9
9
9
9
9
9
9
9
9
9
9
9
9
9
9
9
9
9
9
9
9
9
9
9
9
9
9
9
9
9
9
9
9
9
9
9
9
9
9
9
9
9
9
9
9
9
9
9
9
9
9
9
9
9
9
9
9
9
9
9
9
POINT_DATA      1225
SCALARS p double 
LOOKUP_TABLE default
  0.108713353101929     
  0.114673402559354     
  0.131306972515056     
  0.155284752350231     
  0.183426389909142     
  0.213483869645595     
  0.244280044940289     
  0.275103430835189     
  0.305485257854348     
  0.335088870386318     
  0.363655968666022     
  0.390979244432300     
  0.416889701320460     
  0.441246680414515     
  0.463927289885172     
  0.484817419680498     
  0.503830093248779     
  0.520875639166472     
  0.535857337071022     
  0.548665885403533     
  0.559213932084138     
  0.567467994067223     
  0.573400546273297     
  0.576974027369572     
  0.578167121508439     
  0.101648335007888     
  0.108768081522846     
  0.127307249531862     
  0.153175359190304     
  0.182183898633816     
  0.212709839077400     
  0.243770946201323     
  0.274754860915562     
  0.305240068680759     
  0.334914366253236     
  0.363532463795721     
  0.390894141828723     
  0.416833081541969     
  0.441214312718699     
  0.463917497331701     
  0.484821523060068     
  0.503849517018911     
  0.520902065278936     
  0.535879835811481     
  0.548680511790972     
  0.559224255592567     
  0.567476436586680     
  0.573406975243868     
  0.576979161793521     
  0.578171828304442     
  7.889887681953839E-002
  8.841322802842393E-002
  0.117374960096846     
  0.147534158828707     
  0.178811055482606     
  0.210562862205809     
  0.242336973742772     
  0.273760951318118     
  0.304533977624385     
  0.334407599122377     
  0.363171827644669     
  0.390645451955521     
  0.416670604233721     
  0.441112767605991     
  0.463870717578526     
  0.484845739795536     
  0.503912317135826     
  0.520976356800847     
  0.535943371723334     
  0.548719823794063     
  0.559253319438157     
  0.567497991156455     
  0.573422213113291     
  0.576990119046052     
  0.578181483039196     
  0.000000000000000E+000
  6.689279898971914E-002
  0.104945742111310     
  0.140219637346212     
  0.174181730064596     
  0.207496131454194     
  0.240224234388975     
  0.272261013665738     
  0.303447279453107     
  0.333614051641258     
  0.362598144501390     
  0.390247627430883     
  0.416423902827269     
  0.440996482131701     
  0.463855378616102     
  0.484907734546662     
  0.504013419164086     
  0.521077888308442     
  0.536030676547273     
  0.548790192823387     
  0.559292148954061     
  0.567521390320787     
  0.573432952176262     
  0.576993500671369     
  0.578182824356866     
  0.000000000000000E+000
  4.994450212247974E-002
  9.454117686700421E-002
  0.133119768584455     
  0.169304512599603     
  0.204060584518076     
  0.237748451975924     
  0.270441147293962     
  0.302090554760651     
  0.332596904032549     
  0.361841167828795     
  0.389700574861858     
  0.416055193457733     
  0.440791499964388     
  0.463787712461618     
  0.484917232675753     
  0.504074486590911     
  0.521155791492869     
  0.536087631421858     
  0.548826720293879     
  0.559309336207301     
  0.567518580311846     
  0.573415672727776     
  0.576968052465499     
  0.578155234318330     
  0.000000000000000E+000
  4.484850378184529E-002
  8.757417740311579E-002
  0.127454416683595     
  0.164920377755405     
  0.200723049010893     
  0.235203123889090     
  0.268487010789754     
  0.300580373497088     
  0.331426086333127     
  0.360936069954762     
  0.389008523827169     
  0.415536921721664     
  0.440411389344501     
  0.463515199560244     
  0.484732441129069     
  0.503958267659406     
  0.521093765860161     
  0.536049917631533     
  0.548770694933131     
  0.559250400860018     
  0.567452693284683     
  0.573341867313200     
  0.576889035589375     
  0.578074805712220     
  0.000000000000000E+000
  4.237643932812584E-002
  8.370871587846819E-002
  0.123396854742451     
  0.161357097422131     
  0.197763059237702     
  0.232798358869424     
  0.266547884276423     
  0.299019215017226     
  0.330169073764274     
  0.359924054860914     
  0.388194155727836     
  0.414880343710880     
  0.439877467992417     
  0.463076383490617     
  0.484369136675770     
  0.503654178514791     
  0.520837786331832     
  0.535842388666699     
  0.548598999718628     
  0.559090794279392     
  0.567297772022902     
  0.573187613450346     
  0.576734358775989     
  0.577919932849644     
  0.000000000000000E+000
  4.097138148119703E-002
  8.131988537312929E-002
  0.120601074943150     
  0.158601148513621     
  0.195275847639756     
  0.230644986043950     
  0.264721041435687     
  0.297483913417754     
  0.328883391979648     
  0.358847326221227     
  0.387289251072777     
  0.414113712717930     
  0.439219701530287     
  0.462503753667278     
  0.483863855107067     
  0.503203204149771     
  0.520434235222857     
  0.535480728211830     
  0.548284449843930     
  0.558811506984713     
  0.567037819741649     
  0.572937822636268     
  0.576489014441730     
  0.577675657772663     
  0.000000000000000E+000
  4.007924519506163E-002
  7.973275707046702E-002
  0.118614471413978     
  0.156492577654407     
  0.193236118668017     
  0.228773916656808     
  0.263054602559266     
  0.296023090708350     
  0.327612241573338     
  0.357742841982664     
  0.386326264827490     
  0.413267438779907     
  0.438467567734748     
  0.461826914976017     
  0.483247888348686     
  0.502638381559816     
  0.519914773685885     
  0.535005188934849     
  0.547853146118112     
  0.558418390246145     
  0.566671299176855     
  0.572587381241055     
  0.576146644643516     
  0.577335341212081     
  0.000000000000000E+000
  3.946783781396399E-002
  7.861320541660134E-002
  0.117151062244627     
  0.154857459419090     
  0.191569299668688     
  0.227168301197349     
  0.261560680267092     
  0.294661145023512     
  0.326383901710511     
  0.356639230863820     
  0.385333205066751     
  0.412368795485902     
  0.437647586138825     
  0.461071881656698     
  0.482547162423846     
  0.501984692623825     
  0.519304151040929     
  0.534436189010881     
  0.547324368216283     
  0.557925161774226     
  0.566205439481782     
  0.572139624611748     
  0.575708574794422     
  0.576899892636030     
  0.000000000000000E+000
  3.902373843640262E-002
  7.778400227985457E-002
  0.116034119474313     
  0.153562484866378     
  0.190195409882812     
  0.225791223372858     
  0.260230254617344     
  0.293405158137560     
  0.325213981445469     
  0.355556318903567     
  0.384331821218027     
  0.411440190369305     
  0.436782061525048     
  0.460260456577593     
  0.481782613264071     
  0.501262018017326     
  0.518620459603729     
  0.533789857478352     
  0.546713426725071     
  0.557345650598722     
  0.565651072508853     
  0.571602784620984     
  0.575181535730724     
  0.576375643138043     
  0.000000000000000E+000
  3.868584668439397E-002
  7.714421809693672E-002
  0.115153297956176     
  0.152512716699971     
  0.189046706123097     
  0.224602340367194     
  0.259044774757701     
  0.292251726123650     
  0.324108798553058     
  0.354506324821639     
  0.383337702429209     
  0.410498906919254     
  0.435888846706465     
  0.459410298968942     
  0.480971227026716     
  0.500486297762368     
  0.517878406475567     
  0.533079973744940     
  0.546033731925571     
  0.556692791228518     
  0.565020060439794     
  0.570987438450599     
  0.574575237063824     
  0.575772046191613     
  0.000000000000000E+000
  3.841872235134558E-002
  7.663308238658915E-002
  0.114437892337339     
  0.151641858684524     
  0.188070348670938     
  0.223565328685986     
  0.257983274551172     
  0.291192183635571     
  0.323068666067104     
  0.353495697436738     
  0.382361230605435     
  0.409557620497774     
  0.434981714513757     
  0.458535442201712     
  0.480126742736612     
  0.499670669547273     
  0.517090501457912     
  0.532318676240275     
  0.545297373221528     
  0.555978649973119     
  0.564324195721480     
  0.570304917597146     
  0.573900611691200     
  0.575099883541038     
  0.000000000000000E+000
  3.820061269721564E-002
  7.621230101946840E-002
  0.113841358453932     
  0.150903563898875     
  0.187226477045878     
  0.222650057741067     
  0.257025945163525     
  0.290215971762681     
  0.322090488560854     
  0.352526923307717     
  0.381408793978436     
  0.408625237308251     
  0.434071011706764     
  0.457646883980470     
  0.479260286616848     
  0.498826119809362     
  0.516267564138930     
  0.531516770715070     
  0.544515319366686     
  0.555214395913645     
  0.563574728987695     
  0.569566406486545     
  0.573168717384196     
  0.574370131835170     
  0.000000000000000E+000
  3.801755652171428E-002
  7.585682783575237E-002
  0.113332273920100     
  0.150265146584962     
  0.186485387521175     
  0.221832501948563     
  0.256155546611054     
  0.289312528854900     
  0.321169553900068     
  0.351600004140200     
  0.380483936111448     
  0.407707781483671     
  0.433164361451397     
  0.456753173142276     
  0.478380875928374     
  0.497961887802315     
  0.515418994313233     
  0.530683877129822     
  0.543697491321890     
  0.554410262123346     
  0.562782125069350     
  0.568782478298920     
  0.572390133304137     
  0.573593336303318     
  0.000000000000000E+000
  3.786026620859848E-002
  7.554976972330524E-002
  0.112888940533174     
  0.149703287716826     
  0.185824995402506     
  0.221093872604814     
  0.255357711400564     
  0.288472208834216     
  0.320300649875815     
  0.350713536376605     
  0.379588300559705     
  0.406809183840204     
  0.432267308721028     
  0.455860930231515     
  0.477495824651154     
  0.497085755639420     
  0.514552950631663     
  0.529828524308002     
  0.542852802301599     
  0.553575525819530     
  0.561955950187046     
  0.567962876963019     
  0.571574670583968     
  0.572779303240061     
  0.000000000000000E+000
  3.772238048716448E-002
  7.527943734719217E-002
  0.112496074400681     
  0.149201147296733     
  0.185228837994519     
  0.220419608719969     
  0.254620753950218     
  0.287686632784318     
  0.319478697813961     
  0.349865439129606     
  0.378722341360921     
  0.405931919044038     
  0.431383861048835     
  0.454975284526997     
  0.476611075702687     
  0.496204279764927     
  0.513676495540791     
  0.528958232903228     
  0.541989201781579     
  0.552718519247533     
  0.561104841037008     
  0.567116439983534     
  0.570731260868003     
  0.571936976858948     
  0.000000000000000E+000
  3.759943727973712E-002
  7.503756759539118E-002
  0.112142722233439     
  0.148746420540778     
  0.184684583412034     
  0.219798464517825     
  0.253935302799418     
  0.286948740132920     
  0.318699072868157     
  0.349053412749003     
  0.377885824330122     
  0.405077488005152     
  0.430516916003875     
  0.454100227777841     
  0.475731473994554     
  0.495322986527719     
  0.512795726203369     
  0.528079600892678     
  0.541113733295382     
  0.551846668722401     
  0.560236525377920     
  0.566251099413517     
  0.569867941258782     
  0.571074416952577     
  0.000000000000000E+000
  3.748824502217817E-002
  7.481821444977173E-002
  0.111820916827214     
  0.148330018838969     
  0.184182941095941     
  0.219221758753478     
  0.253293904443995     
  0.286252696756683     
  0.317957735011912     
  0.348275208137917     
  0.377078162793330     
  0.404246766176010     
  0.429668585584880     
  0.453238892851417     
  0.474860989592018     
  0.494446540423266     
  0.511915896711369     
  0.527198393332093     
  0.540232604823620     
  0.550966553948413     
  0.559357873063314     
  0.565373924574509     
  0.568991889240416     
  0.570198829279400     
  0.000000000000000E+000
  3.738648438950115E-002
  7.461703580839785E-002
  0.111524789606684     
  0.147945164628789     
  0.183716871753881     
  0.218682783631605     
  0.252690660861708     
  0.285593746488819     
  0.317251252856800     
  0.347528770894330     
  0.376298631758489     
  0.403440245705203     
  0.428840434999550     
  0.452393768629219     
  0.474002898264470     
  0.493578888587992     
  0.511041531558443     
  0.526319633603426     
  0.539351266831032     
  0.550083979232138     
  0.558474963234129     
  0.564491185451683     
  0.568109481914806     
  0.569316621907599     
  0.000000000000000E+000
  3.729244835190643E-002
  7.443082265232111E-002
  0.111249972543907     
  0.147586762485967     
  0.183281014437843     
  0.218176349192703     
  0.252120920939306     
  0.284968050531488     
  0.316576771381683     
  0.346812306665520     
  0.375546497381781     
  0.402658198324998     
  0.428033654279434     
  0.451566862999233     
  0.473159925991372     
  0.492723383705955     
  0.510176529060834     
  0.525447692491535     
  0.538474492725060     
  0.549204049662121     
  0.557593158299133     
  0.563608424652278     
  0.567226365464996     
  0.568433472784234     
  0.000000000000000E+000
  3.720486803415549E-002
  7.425718084871501E-002
  0.110993187307901     
  0.147250956425115     
  0.182871269336992     
  0.217698435452251     
  0.251581027289057     
  0.284372535800226     
  0.315931953865115     
  0.346124299284585     
  0.374821089782198     
  0.401900781433725     
  0.427249179227700     
  0.450759824891549     
  0.472334363496814     
  0.491882887345408     
  0.509324253683063     
  0.524586372059338     
  0.537606457551516     
  0.548331247242614     
  0.556717178780678     
  0.562730531009146     
  0.566347527127456     
  0.567554400448063     
  0.000000000000000E+000
  3.712279334055830E-002
  7.409431155443735E-002
  0.110751957995804     
  0.146934814180745     
  0.182484491941805     
  0.217245927562248     
  0.251068112552127     
  0.283804760699624     
  0.315314915175858     
  0.345463502246060     
  0.374121839317984     
  0.401168104732721     
  0.426487775216265     
  0.449974034750652     
  0.471528156310256     
  0.491059855898095     
  0.508487616926030     
  0.523738982353170     
  0.536750812081363     
  0.547469503697946     
  0.555851175442864     
  0.561861810933941     
  0.565477365461035     
  0.566683833466721     
  0.000000000000000E+000
  3.704550943111773E-002
  7.394085677249428E-002
  0.110524406949165     
  0.146636099128189     
  0.182118267036646     
  0.216816413942944     
  0.250579937169460     
  0.283262800473638     
  0.314724155601867     
  0.344828916427465     
  0.373448290160247     
  0.400460270182554     
  0.425750094322443     
  0.449210671114523     
  0.470742975161260     
  0.490256411397081     
  0.507669147097048     
  0.522908409971662     
  0.535910750635684     
  0.546622268014157     
  0.554998796669064     
  0.561006055401166     
  0.564619756658678     
  0.565825676219523     
  0.000000000000000E+000
  3.697247720492473E-002
  7.379578885135986E-002
  0.110309107393938     
  0.146353103438518     
  0.181770740204640     
  0.216408031853419     
  0.250114760758586     
  0.282745151274001     
  0.314158499713877     
  0.344219761875904     
  0.372800100377706     
  0.399777394340992     
  0.425036713653123     
  0.448470759346505     
  0.469980270776862     
  0.489474399455195     
  0.506871048748990     
  0.522097178299361     
  0.535089071906520     
  0.545792567753872     
  0.554163250064758     
  0.560166601504098     
  0.563778115766510     
  0.564983369808581     
  0.000000000000000E+000
  3.690329019097505E-002
  7.365833018068597E-002
  0.110104975572202     
  0.146084524547250     
  0.181440491055315     
  0.216019348648934     
  0.249671240240121     
  0.282250650858586     
  0.313617042099818     
  0.343635448202251     
  0.372177034500198     
  0.399119619349453     
  0.424348160575781     
  0.447755207164787     
  0.469241316431684     
  0.488715436415328     
  0.506095252837577     
  0.521307499719202     
  0.534288232659105     
  0.544983063834409     
  0.553347357906945     
  0.559346388163798     
  0.562955452330146     
  0.564159947559603     
  0.000000000000000E+000
  3.683764286159266E-002
  7.352789399793816E-002
  0.109911190738977     
  0.145829372636546     
  0.181126436966157     
  0.215649269935560     
  0.249248349057722     
  0.281778413490086     
  0.313099100359110     
  0.343075546073840     
  0.371578952320653     
  0.398487116809728     
  0.423684928944018     
  0.447064830471553     
  0.468527240949470     
  0.487980947579501     
  0.505343458743469     
  0.520541320418033     
  0.533510394596117     
  0.544196098875529     
  0.552553606464206     
  0.558548005961288     
  0.562154420380319     
  0.563358084980033     
  0.000000000000000E+000
  3.677530703359737E-002
  7.340404019054951E-002
  0.109727135103576     
  0.145586900592149     
  0.180827759337250     
  0.215296968078978     
  0.248845312963366     
  0.281327776684652     
  0.312604175008038     
  0.342539761043805     
  0.371005796231507     
  0.397880087368244     
  0.423047489195626     
  0.446400372085796     
  0.467839054293998     
  0.487272198129891     
  0.504617169292041     
  0.519800358542779     
  0.532757464888434     
  0.543433739470604     
  0.551784189453929     
  0.557773741297307     
  0.561377362906941     
  0.562580144288896     
  0.000000000000000E+000
  3.671611408434312E-002
  7.328644190767322E-002
  0.109552348240481     
  0.145356550438089     
  0.180543846607682     
  0.214961826198940     
  0.248461558800988     
  0.280898257715740     
  0.312131915613765     
  0.342027910215304     
  0.370457578442240     
  0.397298757844627     
  0.422436294325715     
  0.445762515296783     
  0.467177667422009     
  0.486590318101762     
  0.503917719823122     
  0.519086136503783     
  0.532031130982339     
  0.542697812866852     
  0.551041046039481     
  0.557025615220259     
  0.560626351112044     
  0.561828213781462     
  0.000000000000000E+000
  3.665994140775959E-002
  7.317486007112647E-002
  0.109386492131957     
  0.145137911989640     
  0.180274249866915     
  0.214643394017304     
  0.248096673502575     
  0.280489518084837     
  0.311682092364635     
  0.341539901818376     
  0.369934368821706     
  0.396743377078838     
  0.421851783114542     
  0.445151893639751     
  0.466543907695192     
  0.485936322534314     
  0.503246302250127     
  0.518400008197309     
  0.531332890322548     
  0.541989938596215     
  0.550325893837088     
  0.556305417336007     
  0.559903218812231     
  0.561104142378172     
  0.000000000000000E+000
  3.660670200187093E-002
  7.306912373184457E-002
  0.109229324116179     
  0.144930690663956     
  0.180018648016104     
  0.214341352839397     
  0.247750371128834     
  0.280101334470447     
  0.311254572290811     
  0.341075717553160     
  0.369436283735088     
  0.396214211229819     
  0.421294381552694     
  0.444569097913808     
  0.465938530851023     
  0.485311127720026     
  0.502603984925295     
  0.517743181860070     
  0.530664075613916     
  0.541311555607165     
  0.549640257424505     
  0.555614735244805     
  0.559209592400925     
  0.560409569751986     
  0.000000000000000E+000
  3.655633639645284E-002
  7.296911480273481E-002
  0.109080675779515     
  0.144734682224748     
  0.179776820234355     
  0.214055487619569     
  0.247422466268850     
  0.279733574934514     
  0.310849299412309     
  0.340635397446480     
  0.368963476019832     
  0.395711538969403     
  0.420764503102961     
  0.444014681182891     
  0.465362230300879     
  0.484715564298665     
  0.501991729007897     
  0.517116739194059     
  0.530025876203050     
  0.540663945427650     
  0.548985492837981     
  0.554954979955347     
  0.558546916793442     
  0.559745952445313     
  0.000000000000000E+000
  3.650880634793026E-002
  7.287475610288251E-002
  0.108940436364253     
  0.144549752827797     
  0.179548624079554     
  0.213785664557920     
  0.247112852485955     
  0.279386179394411     
  0.310466278177193     
  0.340219026930594     
  0.368516126114084     
  0.395235646828094     
  0.420262548229071     
  0.443489162297671     
  0.464815644345709     
  0.484150387797933     
  0.501410401923207     
  0.516521651321838     
  0.529419356107241     
  0.540048251853753     
  0.548362808521421     
  0.554327407713292     
  0.557916477772547     
  0.559114586385760     
  0.000000000000000E+000
  3.646408988219283E-002
  7.278600193199342E-002
  0.108808539639328     
  0.144375823155013     
  0.179333977970166     
  0.213531813043935     
  0.246821484785683     
  0.279059143558760     
  0.310105559642260     
  0.339826725852609     
  0.368094434280084     
  0.394786824830823     
  0.419788903479180     
  0.442993028329601     
  0.464299361763063     
  0.483616287105082     
  0.500860788404309     
  0.515958792057445     
  0.528845469160900     
  0.539465497615548     
  0.547773283159674     
  0.553733138658313     
  0.557319421135080     
  0.558516626195591     
  0.000000000000000E+000
  3.642217737433762E-002
  7.270283059547764E-002
  0.108684953450297     
  0.144212855728229     
  0.179132847098607     
  0.213293911037337     
  0.246548365303275     
  0.278752505680856     
  0.309767229933511     
  0.339458639142356     
  0.367698613830289     
  0.394365362487193     
  0.419343940315128     
  0.442526736202735     
  0.463813926115838     
  0.483113891259377     
  0.500343599526818     
  0.515428948909549     
  0.528305071693606     
  0.538916598426202     
  0.547217880791435     
  0.553173172694361     
  0.556756769015893     
  0.557953101667555     
  0.000000000000000E+000
  3.638306843269430E-002
  7.262523844571328E-002
  0.108569671358789     
  0.144060844715002     
  0.178945232051811     
  0.213071973183566     
  0.246293531580324     
  0.278466335609324     
  0.309451400599958     
  0.339114928894753     
  0.367328885251039     
  0.393971545156468     
  0.418928013813512     
  0.442090713733098     
  0.463359839054542     
  0.482643774880009     
  0.499859480077924     
  0.514932832172869     
  0.527798933101455     
  0.538402374775775     
  0.546697463559296     
  0.552648402925438     
  0.556229433736796     
  0.557424931752787     
  0.000000000000000E+000
  3.634676941132556E-002
  7.255323511059082E-002
  0.108462705923784     
  0.143919807701449     
  0.178771159581476     
  0.212866041117472     
  0.246057046933264     
  0.278200725717417     
  0.309158200540253     
  0.338795767653886     
  0.366985471118575     
  0.393605650782194     
  0.418541461321283     
  0.441685360230901     
  0.462937562825409     
  0.482206462484025     
  0.499409014543896     
  0.514471082410969     
  0.527327744625837     
  0.537923561788849     
  0.546212802417141     
  0.552159626975926     
  0.555738229497885     
  0.556932936377248     
  0.000000000000000E+000
  3.631329141684504E-002
  7.248683965831099E-002
  0.108364083281946     
  0.143789779028464     
  0.178610675092288     
  0.212676175527948     
  0.245838992519774     
  0.277955783373756     
  0.308887769237879     
  0.338501332716251     
  0.366668591708635     
  0.393267946977870     
  0.418184601119662     
  0.441311046781753     
  0.462547522151466     
  0.481802431901332     
  0.498992731952858     
  0.514044276588428     
  0.526892126611497     
  0.537480817426202     
  0.545764586079429     
  0.551707556481716     
  0.555283882197821     
  0.556477846373258     
  0.000000000000000E+000
  3.628264870656354E-002
  7.242607750540531E-002
  0.108273838762551     
  0.143670804378135     
  0.178463836511631     
  0.212502449647890     
  0.245639460790558     
  0.277731624683070     
  0.308640251087951     
  0.338231801298630     
  0.366378461210697     
  0.392958688439078     
  0.417857731131471     
  0.440968116294702     
  0.462190105619200     
  0.481432116955931     
  0.498611109770673     
  0.513652933071587     
  0.526492634478450     
  0.537074729275385     
  0.545353428463639     
  0.551292825007021     
  0.554867037639608     
  0.556060311783083     
  0.000000000000000E+000
  3.625485739844363E-002
  7.237097791831518E-002
  0.108192013331626     
  0.143562936366745     
  0.178330709276982     
  0.212344943904433     
  0.245458550077241     
  0.277528369277996     
  0.308415790637776     
  0.337987346441172     
  0.366115284469042     
  0.392678114655857     
  0.417561127694763     
  0.440656883384530     
  0.461865666677152     
  0.481095909552422     
  0.498264577015347     
  0.513297515684061     
  0.526129763609499     
  0.536705820143195     
  0.544979874846446     
  0.550915994612142     
  0.554488268349688     
  0.555680908763194     
  0.000000000000000E+000
  3.622993443080808E-002
  7.232157199213175E-002
  0.108118650705090     
  0.143466230953098     
  0.178211362233438     
  0.212203741519700     
  0.245296360117611     
  0.277346135985475     
  0.308214528596160     
  0.337768133537934     
  0.365879254183677     
  0.392426447900024     
  0.417295044417725     
  0.440377634140692     
  0.461574524332231     
  0.480794161282355     
  0.497953516728694     
  0.512978436975141     
  0.525803953326599     
  0.536374552634528     
  0.544644406926156     
  0.550577561269996     
  0.554148079211103     
  0.555340145290906     
  0.000000000000000E+000
  3.620789672351679E-002
  7.227789101537482E-002
  0.108053795005205     
  0.143380744511968     
  0.178105864277314     
  0.212078924895336     
  0.245152988359271     
  0.277185039225632     
  0.308036598493161     
  0.337574317405932     
  0.365670548514509     
  0.392203891464342     
  0.417059711124829     
  0.440130625824240     
  0.461316963613543     
  0.480527184645327     
  0.497678267921564     
  0.512696060835124     
  0.525515590104312     
  0.536081332876802     
  0.544347446958521     
  0.550277959303922     
  0.553846912086366     
  0.555038465850067     
  0.000000000000000E+000
  3.618876050271437E-002
  7.223996514938386E-002
  0.107997488861473     
  0.143306531454140     
  0.178014281616088     
  0.211970572648331     
  0.245028526914541     
  0.277045186028523     
  0.307882123894306     
  0.337406039819596     
  0.365489329041510     
  0.392010628133429     
  0.416855332901292     
  0.439916086525649     
  0.461093235860806     
  0.480295253963538     
  0.497439127090101     
  0.512450704570915     
  0.525265010146579     
  0.535826513526337     
  0.544089361109982     
  0.550017564996060     
  0.553585149582414     
  0.554776255249196     
  0.000000000000000E+000
  3.617254075942367E-002
  7.220782236609356E-002
  0.107949771878254     
  0.143243642299539     
  0.177936675541957     
  0.211878757192900     
  0.244923060065221     
  0.276926673576966     
  0.307751216091825     
  0.337263427451167     
  0.365335739041839     
  0.391846818869227     
  0.416682089240798     
  0.439734214810152     
  0.460903558884138     
  0.480098606054996     
  0.497236349384534     
  0.512242640537283     
  0.525052501433819     
  0.535610396172900     
  0.543870462151514     
  0.549796699494401     
  0.553363118088658     
  0.554553841704047     
  0.000000000000000E+000
  3.615925081868739E-002
  7.218148760024787E-002
  0.107910679408040     
  0.143192122129810     
  0.177873100637844     
  0.211803542784945     
  0.244836662236455     
  0.276829587201950     
  0.307643972210466     
  0.337146590168840     
  0.365209902052117     
  0.391712601696778     
  0.416540133300208     
  0.439585179372036     
  0.460748117033558     
  0.479937440719205     
  0.497070149498166     
  0.512072097403507     
  0.524878305330123     
  0.535433233240438     
  0.543691011597377     
  0.549615631127210     
  0.553181090199460     
  0.554371499296842     
  0.000000000000000E+000
  3.614890200116980E-002
  7.216098208166376E-002
  0.107880241582559     
  0.143152009362713     
  0.177823603352215     
  0.211744983963427     
  0.244769396375966     
  0.276753998772355     
  0.307560473678313     
  0.337055619654136     
  0.365111920690210     
  0.391608090778751     
  0.416429591264246     
  0.439469118715276     
  0.460627061209409     
  0.479811921079415     
  0.496940702332276     
  0.511939261121282     
  0.524742617825128     
  0.535295229465543     
  0.543551221375799     
  0.549474577215766     
  0.553039286614330     
  0.554229449906225     
  0.000000000000000E+000
  3.614150336317385E-002
  7.214632282098432E-002
  0.107858482564820     
  0.143123334803587     
  0.177788220893185     
  0.211703124337533     
  0.244721312688873     
  0.276699965433449     
  0.307500785023646     
  0.336990588308171     
  0.365041875716308     
  0.391533375669540     
  0.416350561822552     
  0.439386140874435     
  0.460540508838765     
  0.479722173816986     
  0.496848143482003     
  0.511844275647433     
  0.524645590471265     
  0.535196543020331     
  0.543451255102865     
  0.549373705459990     
  0.552937877592400     
  0.554127864685163     
  0.000000000000000E+000
  3.613706150450408E-002
  7.213752222885898E-002
  0.107845419994045     
  0.143106120939993     
  0.177766980404362     
  0.211677995680653     
  0.244692447690140     
  0.276667528659272     
  0.307464952967983     
  0.336951548423520     
  0.364999825317733     
  0.391488520741907     
  0.416303115760951     
  0.439336323186724     
  0.460488543837521     
  0.479668289325843     
  0.496792569578809     
  0.511787243463713     
  0.524587331064527     
  0.535137286332669     
  0.543391229016339     
  0.549313134956374     
  0.552876984022213     
  0.554066865148400     
  0.000000000000000E+000
  3.613558043642792E-002
  7.213458785381446E-002
  0.107841064603047     
  0.143100381454695     
  0.177759898394816     
  0.211669617302625     
  0.244682823546694     
  0.276656713593226     
  0.307453005793254     
  0.336938531604425     
  0.364985804605928     
  0.391473564780961     
  0.416287295668438     
  0.439319712123469     
  0.460471216573011     
  0.479650321808139     
  0.496774038516388     
  0.511768225925776     
  0.524567904105256     
  0.535117526643959     
  0.543371212612509     
  0.549292936893426     
  0.552856678153299     
  0.554046523916353     
VECTORS u double 
    0.00000E+00        -0.74038E+00         0.00000E+00
    0.00000E+00        -0.69737E+00         0.00000E+00
    0.00000E+00        -0.63656E+00         0.00000E+00
    0.00000E+00        -0.56775E+00         0.00000E+00
    0.00000E+00        -0.49934E+00         0.00000E+00
    0.00000E+00        -0.43603E+00         0.00000E+00
    0.00000E+00        -0.37959E+00         0.00000E+00
    0.00000E+00        -0.33015E+00         0.00000E+00
    0.00000E+00        -0.28689E+00         0.00000E+00
    0.00000E+00        -0.24878E+00         0.00000E+00
    0.00000E+00        -0.21497E+00         0.00000E+00
    0.00000E+00        -0.18479E+00         0.00000E+00
    0.00000E+00        -0.15782E+00         0.00000E+00
    0.00000E+00        -0.13385E+00         0.00000E+00
    0.00000E+00        -0.11263E+00         0.00000E+00
    0.00000E+00        -0.93927E-01         0.00000E+00
    0.00000E+00        -0.77455E-01         0.00000E+00
    0.00000E+00        -0.63020E-01         0.00000E+00
    0.00000E+00        -0.50421E-01         0.00000E+00
    0.00000E+00        -0.39387E-01         0.00000E+00
    0.00000E+00        -0.29678E-01         0.00000E+00
    0.00000E+00        -0.20974E-01         0.00000E+00
    0.00000E+00        -0.13147E-01         0.00000E+00
    0.00000E+00        -0.61550E-02         0.00000E+00
    0.00000E+00         0.00000E+00         0.00000E+00
   -0.11925E-01        -0.71830E+00         0.00000E+00
    0.31925E-01        -0.67387E+00         0.00000E+00
    0.58397E-01        -0.61142E+00         0.00000E+00
    0.67910E-01        -0.54479E+00         0.00000E+00
    0.66625E-01        -0.48053E+00         0.00000E+00
    0.60326E-01        -0.42139E+00         0.00000E+00
    0.52458E-01        -0.36837E+00         0.00000E+00
    0.44965E-01        -0.32141E+00         0.00000E+00
    0.38755E-01        -0.27994E+00         0.00000E+00
    0.33730E-01        -0.24319E+00         0.00000E+00
    0.29590E-01        -0.21044E+00         0.00000E+00
    0.26019E-01        -0.18119E+00         0.00000E+00
    0.22680E-01        -0.15505E+00         0.00000E+00
    0.19545E-01        -0.13174E+00         0.00000E+00
    0.16625E-01        -0.11106E+00         0.00000E+00
    0.13959E-01        -0.92777E-01         0.00000E+00
    0.11635E-01        -0.76670E-01         0.00000E+00
    0.93747E-02        -0.62521E-01         0.00000E+00
    0.75053E-02        -0.50092E-01         0.00000E+00
    0.59269E-02        -0.39175E-01         0.00000E+00
    0.46030E-02        -0.29541E-01         0.00000E+00
    0.34224E-02        -0.20887E-01         0.00000E+00
    0.23010E-02        -0.13097E-01         0.00000E+00
    0.11759E-02        -0.61338E-02         0.00000E+00
    0.00000E+00         0.00000E+00         0.00000E+00
   -0.19420E-01        -0.64386E+00         0.00000E+00
    0.77748E-01        -0.59159E+00         0.00000E+00
    0.11874E+00        -0.53173E+00         0.00000E+00
    0.12992E+00        -0.47681E+00         0.00000E+00
    0.12565E+00        -0.42609E+00         0.00000E+00
    0.11398E+00        -0.37914E+00         0.00000E+00
    0.10005E+00        -0.33578E+00         0.00000E+00
    0.86582E-01        -0.29599E+00         0.00000E+00
    0.74844E-01        -0.25977E+00         0.00000E+00
    0.65246E-01        -0.22701E+00         0.00000E+00
    0.57157E-01        -0.19752E+00         0.00000E+00
    0.50083E-01        -0.17100E+00         0.00000E+00
    0.43691E-01        -0.14716E+00         0.00000E+00
    0.37702E-01        -0.12579E+00         0.00000E+00
    0.32110E-01        -0.10667E+00         0.00000E+00
    0.27036E-01        -0.89602E-01         0.00000E+00
    0.22387E-01        -0.74460E-01         0.00000E+00
    0.18250E-01        -0.61049E-01         0.00000E+00
    0.14683E-01        -0.49121E-01         0.00000E+00
    0.11650E-01        -0.38539E-01         0.00000E+00
    0.90840E-02        -0.29126E-01         0.00000E+00
    0.67691E-02        -0.20619E-01         0.00000E+00
    0.45566E-02        -0.12943E-01         0.00000E+00
    0.23305E-02        -0.60684E-02         0.00000E+00
    0.00000E+00         0.00000E+00         0.00000E+00
    0.38452E-02        -0.45364E+00         0.00000E+00
    0.13256E+00        -0.41413E+00         0.00000E+00
    0.16851E+00        -0.39158E+00         0.00000E+00
    0.17702E+00        -0.36797E+00         0.00000E+00
    0.17021E+00        -0.34199E+00         0.00000E+00
    0.15584E+00        -0.31393E+00         0.00000E+00
    0.13869E+00        -0.28492E+00         0.00000E+00
    0.12157E+00        -0.25608E+00         0.00000E+00
    0.10588E+00        -0.22829E+00         0.00000E+00
    0.92287E-01        -0.20216E+00         0.00000E+00
    0.80776E-01        -0.17797E+00         0.00000E+00
    0.70699E-01        -0.15579E+00         0.00000E+00
    0.61590E-01        -0.13554E+00         0.00000E+00
    0.53222E-01        -0.11704E+00         0.00000E+00
    0.45499E-01        -0.10019E+00         0.00000E+00
    0.38434E-01        -0.84906E-01         0.00000E+00
    0.31888E-01        -0.71144E-01         0.00000E+00
    0.26196E-01        -0.58741E-01         0.00000E+00
    0.21270E-01        -0.47556E-01         0.00000E+00
    0.16988E-01        -0.37486E-01         0.00000E+00
    0.13331E-01        -0.28408E-01         0.00000E+00
    0.99657E-02        -0.20152E-01         0.00000E+00
    0.67185E-02        -0.12674E-01         0.00000E+00
    0.34403E-02        -0.59544E-02         0.00000E+00
    0.00000E+00         0.00000E+00         0.00000E+00
    0.80675E-01        -0.18150E+00         0.00000E+00
    0.15826E+00        -0.18853E+00         0.00000E+00
    0.19402E+00        -0.21211E+00         0.00000E+00
    0.20258E+00        -0.22767E+00         0.00000E+00
    0.19717E+00        -0.23274E+00         0.00000E+00
    0.18316E+00        -0.22932E+00         0.00000E+00
    0.16538E+00        -0.21961E+00         0.00000E+00
    0.14675E+00        -0.20577E+00         0.00000E+00
    0.12892E+00        -0.18957E+00         0.00000E+00
    0.11277E+00        -0.17236E+00         0.00000E+00
    0.98696E-01        -0.15502E+00         0.00000E+00
    0.86483E-01        -0.13813E+00         0.00000E+00
    0.75575E-01        -0.12198E+00         0.00000E+00
    0.65577E-01        -0.10674E+00         0.00000E+00
    0.56311E-01        -0.92466E-01         0.00000E+00
    0.47708E-01        -0.79238E-01         0.00000E+00
    0.39858E-01        -0.67016E-01         0.00000E+00
    0.33027E-01        -0.55737E-01         0.00000E+00
    0.27073E-01        -0.45420E-01         0.00000E+00
    0.21866E-01        -0.35988E-01         0.00000E+00
    0.17250E-01        -0.27358E-01         0.00000E+00
    0.12936E-01        -0.19466E-01         0.00000E+00
    0.87351E-02        -0.12280E-01         0.00000E+00
    0.44784E-02        -0.57882E-02         0.00000E+00
    0.00000E+00         0.00000E+00         0.00000E+00
    0.92168E-01        -0.11804E+00         0.00000E+00
    0.14336E+00        -0.11559E+00         0.00000E+00
    0.17887E+00        -0.12419E+00         0.00000E+00
    0.19539E+00        -0.14061E+00         0.00000E+00
    0.19702E+00        -0.15455E+00         0.00000E+00
    0.18868E+00        -0.16272E+00         0.00000E+00
    0.17473E+00        -0.16462E+00         0.00000E+00
    0.15828E+00        -0.16125E+00         0.00000E+00
    0.14136E+00        -0.15395E+00         0.00000E+00
    0.12515E+00        -0.14405E+00         0.00000E+00
    0.11040E+00        -0.13261E+00         0.00000E+00
    0.97254E-01        -0.12045E+00         0.00000E+00
    0.85469E-01        -0.10811E+00         0.00000E+00
    0.74649E-01        -0.95942E-01         0.00000E+00
    0.64510E-01        -0.84176E-01         0.00000E+00
    0.55047E-01        -0.72915E-01         0.00000E+00
    0.46473E-01        -0.62193E-01         0.00000E+00
    0.38771E-01        -0.52100E-01         0.00000E+00
    0.32050E-01        -0.42699E-01         0.00000E+00
    0.26186E-01        -0.34008E-01         0.00000E+00
    0.20750E-01        -0.25975E-01         0.00000E+00
    0.15604E-01        -0.18564E-01         0.00000E+00
    0.10554E-01        -0.11764E-01         0.00000E+00
    0.54170E-02        -0.55708E-02         0.00000E+00
    0.00000E+00         0.00000E+00         0.00000E+00
    0.10367E+00        -0.77409E-01         0.00000E+00
    0.13560E+00        -0.77009E-01         0.00000E+00
    0.16290E+00        -0.80392E-01         0.00000E+00
    0.17968E+00        -0.89566E-01         0.00000E+00
    0.18584E+00        -0.10170E+00         0.00000E+00
    0.18286E+00        -0.11230E+00         0.00000E+00
    0.17371E+00        -0.11922E+00         0.00000E+00
    0.16086E+00        -0.12190E+00         0.00000E+00
    0.14639E+00        -0.12074E+00         0.00000E+00
    0.13158E+00        -0.11650E+00         0.00000E+00
    0.11741E+00        -0.11002E+00         0.00000E+00
    0.10434E+00        -0.10207E+00         0.00000E+00
    0.92346E-01        -0.93292E-01         0.00000E+00
    0.81176E-01        -0.84116E-01         0.00000E+00
    0.70727E-01        -0.74798E-01         0.00000E+00
    0.60978E-01        -0.65496E-01         0.00000E+00
    0.51972E-01        -0.56393E-01         0.00000E+00
    0.43709E-01        -0.47650E-01         0.00000E+00
    0.36306E-01        -0.39380E-01         0.00000E+00
    0.29829E-01        -0.31613E-01         0.00000E+00
    0.23750E-01        -0.24310E-01         0.00000E+00
    0.17904E-01        -0.17482E-01         0.00000E+00
    0.12130E-01        -0.11144E-01         0.00000E+00
    0.62316E-02        -0.53098E-02         0.00000E+00
    0.00000E+00         0.00000E+00         0.00000E+00
    0.10951E+00        -0.52913E-01         0.00000E+00
    0.13113E+00        -0.52776E-01         0.00000E+00
    0.15095E+00        -0.55410E-01         0.00000E+00
    0.16498E+00        -0.60329E-01         0.00000E+00
    0.17192E+00        -0.68621E-01         0.00000E+00
    0.17198E+00        -0.77862E-01         0.00000E+00
    0.16662E+00        -0.85530E-01         0.00000E+00
    0.15730E+00        -0.90600E-01         0.00000E+00
    0.14573E+00        -0.92723E-01         0.00000E+00
    0.13303E+00        -0.92138E-01         0.00000E+00
    0.12021E+00        -0.89285E-01         0.00000E+00
    0.10791E+00        -0.84682E-01         0.00000E+00
    0.96329E-01        -0.78853E-01         0.00000E+00
    0.85415E-01        -0.72220E-01         0.00000E+00
    0.75093E-01        -0.65089E-01         0.00000E+00
    0.65311E-01        -0.57711E-01         0.00000E+00
    0.56107E-01        -0.50279E-01         0.00000E+00
    0.47532E-01        -0.42969E-01         0.00000E+00
    0.39752E-01        -0.35842E-01         0.00000E+00
    0.32784E-01        -0.29005E-01         0.00000E+00
    0.26189E-01        -0.22484E-01         0.00000E+00
    0.19798E-01        -0.16291E-01         0.00000E+00
    0.13435E-01        -0.10458E-01         0.00000E+00
    0.69065E-02        -0.50189E-02         0.00000E+00
    0.00000E+00         0.00000E+00         0.00000E+00
    0.11247E+00        -0.36645E-01         0.00000E+00
    0.12741E+00        -0.37092E-01         0.00000E+00
    0.14203E+00        -0.39632E-01         0.00000E+00
    0.15296E+00        -0.43099E-01         0.00000E+00
    0.15898E+00        -0.48464E-01         0.00000E+00
    0.16021E+00        -0.55256E-01         0.00000E+00
    0.15707E+00        -0.62047E-01         0.00000E+00
    0.15043E+00        -0.67453E-01         0.00000E+00
    0.14143E+00        -0.70867E-01         0.00000E+00
    0.13092E+00        -0.72195E-01         0.00000E+00
    0.11979E+00        -0.71562E-01         0.00000E+00
    0.10870E+00        -0.69253E-01         0.00000E+00
    0.97973E-01        -0.65624E-01         0.00000E+00
    0.87621E-01        -0.61051E-01         0.00000E+00
    0.77652E-01        -0.55831E-01         0.00000E+00
    0.68081E-01        -0.50183E-01         0.00000E+00
    0.58901E-01        -0.44307E-01         0.00000E+00
    0.50296E-01        -0.38299E-01         0.00000E+00
    0.42347E-01        -0.32308E-01         0.00000E+00
    0.35028E-01        -0.26410E-01         0.00000E+00
    0.28076E-01        -0.20640E-01         0.00000E+00
    0.21280E-01        -0.15068E-01         0.00000E+00
    0.14463E-01        -0.97457E-02         0.00000E+00
    0.74375E-02        -0.47137E-02         0.00000E+00
    0.00000E+00         0.00000E+00         0.00000E+00
    0.11337E+00        -0.25747E-01         0.00000E+00
    0.12381E+00        -0.26573E-01         0.00000E+00
    0.13465E+00        -0.28949E-01         0.00000E+00
    0.14309E+00        -0.32377E-01         0.00000E+00
    0.14797E+00        -0.36147E-01         0.00000E+00
    0.14926E+00        -0.40937E-01         0.00000E+00
    0.14730E+00        -0.46133E-01         0.00000E+00
    0.14240E+00        -0.50943E-01         0.00000E+00
    0.13537E+00        -0.54562E-01         0.00000E+00
    0.12673E+00        -0.56693E-01         0.00000E+00
    0.11724E+00        -0.57291E-01         0.00000E+00
    0.10743E+00        -0.56455E-01         0.00000E+00
    0.97689E-01        -0.54401E-01         0.00000E+00
    0.88074E-01        -0.51394E-01         0.00000E+00
    0.78630E-01        -0.47686E-01         0.00000E+00
    0.69427E-01        -0.43470E-01         0.00000E+00
    0.60501E-01        -0.38873E-01         0.00000E+00
    0.52018E-01        -0.34058E-01         0.00000E+00
    0.44068E-01        -0.29078E-01         0.00000E+00
    0.36624E-01        -0.23962E-01         0.00000E+00
    0.29453E-01        -0.18867E-01         0.00000E+00
    0.22376E-01        -0.13875E-01         0.00000E+00
    0.15227E-01        -0.90411E-02         0.00000E+00
    0.78307E-02        -0.44079E-02         0.00000E+00
    0.00000E+00         0.00000E+00         0.00000E+00
    0.11269E+00        -0.18192E-01         0.00000E+00
    0.12013E+00        -0.19340E-01         0.00000E+00
    0.12811E+00        -0.21665E-01         0.00000E+00
    0.13468E+00        -0.24902E-01         0.00000E+00
    0.13860E+00        -0.28451E-01         0.00000E+00
    0.13966E+00        -0.32017E-01         0.00000E+00
    0.13812E+00        -0.35930E-01         0.00000E+00
    0.13431E+00        -0.39740E-01         0.00000E+00
    0.12866E+00        -0.42948E-01         0.00000E+00
    0.12147E+00        -0.45260E-01         0.00000E+00
    0.11339E+00        -0.46399E-01         0.00000E+00
    0.10479E+00        -0.46399E-01         0.00000E+00
    0.96025E-01        -0.45369E-01         0.00000E+00
    0.87189E-01        -0.43498E-01         0.00000E+00
    0.78334E-01        -0.40939E-01         0.00000E+00
    0.69630E-01        -0.37821E-01         0.00000E+00
    0.61046E-01        -0.34334E-01         0.00000E+00
    0.52867E-01        -0.30419E-01         0.00000E+00
    0.45105E-01        -0.26144E-01         0.00000E+00
    0.37655E-01        -0.21702E-01         0.00000E+00
    0.30378E-01        -0.17208E-01         0.00000E+00
    0.23126E-01        -0.12744E-01         0.00000E+00
    0.15752E-01        -0.83654E-02         0.00000E+00
    0.80995E-02        -0.41107E-02         0.00000E+00
    0.00000E+00         0.00000E+00         0.00000E+00
    0.11084E+00        -0.12779E-01         0.00000E+00
    0.11626E+00        -0.14173E-01         0.00000E+00
    0.12216E+00        -0.16422E-01         0.00000E+00
    0.12718E+00        -0.19440E-01         0.00000E+00
    0.13035E+00        -0.22878E-01         0.00000E+00
    0.13122E+00        -0.26262E-01         0.00000E+00
    0.12988E+00        -0.29437E-01         0.00000E+00
    0.12669E+00        -0.32431E-01         0.00000E+00
    0.12192E+00        -0.35118E-01         0.00000E+00
    0.11583E+00        -0.37239E-01         0.00000E+00
    0.10888E+00        -0.38528E-01         0.00000E+00
    0.10131E+00        -0.38958E-01         0.00000E+00
    0.93411E-01        -0.38545E-01         0.00000E+00
    0.85343E-01        -0.37412E-01         0.00000E+00
    0.77129E-01        -0.35695E-01         0.00000E+00
    0.68923E-01        -0.33414E-01         0.00000E+00
    0.60915E-01        -0.30521E-01         0.00000E+00
    0.53127E-01        -0.27164E-01         0.00000E+00
    0.45583E-01        -0.23498E-01         0.00000E+00
    0.38210E-01        -0.19636E-01         0.00000E+00
    0.30913E-01        -0.15675E-01         0.00000E+00
    0.23575E-01        -0.11689E-01         0.00000E+00
    0.16069E-01        -0.77284E-02         0.00000E+00
    0.82598E-02        -0.38270E-02         0.00000E+00
    0.00000E+00         0.00000E+00         0.00000E+00
    0.10817E+00        -0.87379E-02         0.00000E+00
    0.11223E+00        -0.10296E-01         0.00000E+00
    0.11663E+00        -0.12474E-01         0.00000E+00
    0.12041E+00        -0.15266E-01         0.00000E+00
    0.12287E+00        -0.18454E-01         0.00000E+00
    0.12358E+00        -0.21748E-01         0.00000E+00
    0.12246E+00        -0.24842E-01         0.00000E+00
    0.11970E+00        -0.27542E-01         0.00000E+00
    0.11553E+00        -0.29863E-01         0.00000E+00
    0.11026E+00        -0.31698E-01         0.00000E+00
    0.10416E+00        -0.32959E-01         0.00000E+00
    0.97441E-01        -0.33594E-01         0.00000E+00
    0.90307E-01        -0.33571E-01         0.00000E+00
    0.82947E-01        -0.32853E-01         0.00000E+00
    0.75411E-01        -0.31490E-01         0.00000E+00
    0.67836E-01        -0.29542E-01         0.00000E+00
    0.60329E-01        -0.27105E-01         0.00000E+00
    0.52918E-01        -0.24263E-01         0.00000E+00
    0.45610E-01        -0.21114E-01         0.00000E+00
    0.38368E-01        -0.17756E-01         0.00000E+00
    0.31116E-01        -0.14269E-01         0.00000E+00
    0.23765E-01        -0.10713E-01         0.00000E+00
    0.16207E-01        -0.71337E-02         0.00000E+00
    0.83274E-02        -0.35590E-02         0.00000E+00
    0.00000E+00         0.00000E+00         0.00000E+00
    0.10494E+00        -0.55823E-02         0.00000E+00
    0.10809E+00        -0.72414E-02         0.00000E+00
    0.11140E+00        -0.93472E-02         0.00000E+00
    0.11424E+00        -0.11923E-01         0.00000E+00
    0.11607E+00        -0.14841E-01         0.00000E+00
    0.11656E+00        -0.17881E-01         0.00000E+00
    0.11559E+00        -0.20816E-01         0.00000E+00
    0.11321E+00        -0.23473E-01         0.00000E+00
    0.10958E+00        -0.25712E-01         0.00000E+00
    0.10494E+00        -0.27459E-01         0.00000E+00
    0.99532E-01        -0.28664E-01         0.00000E+00
    0.93525E-01        -0.29294E-01         0.00000E+00
    0.87100E-01        -0.29331E-01         0.00000E+00
    0.80389E-01        -0.28795E-01         0.00000E+00
    0.73475E-01        -0.27710E-01         0.00000E+00
    0.66448E-01        -0.26115E-01         0.00000E+00
    0.59387E-01        -0.24074E-01         0.00000E+00
    0.52328E-01        -0.21667E-01         0.00000E+00
    0.45274E-01        -0.18968E-01         0.00000E+00
    0.38196E-01        -0.16052E-01         0.00000E+00
    0.31041E-01        -0.12983E-01         0.00000E+00
    0.23736E-01        -0.98139E-02         0.00000E+00
    0.16194E-01        -0.65811E-02         0.00000E+00
    0.83172E-02        -0.33074E-02         0.00000E+00
    0.00000E+00         0.00000E+00         0.00000E+00
    0.10138E+00        -0.30150E-02         0.00000E+00
    0.10389E+00        -0.47252E-02         0.00000E+00
    0.10642E+00        -0.67565E-02         0.00000E+00
    0.10855E+00        -0.91402E-02         0.00000E+00
    0.10988E+00        -0.11793E-01         0.00000E+00
    0.11015E+00        -0.14562E-01         0.00000E+00
    0.10923E+00        -0.17269E-01         0.00000E+00
    0.10714E+00        -0.19749E-01         0.00000E+00
    0.10397E+00        -0.21874E-01         0.00000E+00
    0.99895E-01        -0.23554E-01         0.00000E+00
    0.95082E-01        -0.24741E-01         0.00000E+00
    0.89695E-01        -0.25409E-01         0.00000E+00
    0.83875E-01        -0.25557E-01         0.00000E+00
    0.77733E-01        -0.25196E-01         0.00000E+00
    0.71355E-01        -0.24353E-01         0.00000E+00
    0.64813E-01        -0.23063E-01         0.00000E+00
    0.58163E-01        -0.21373E-01         0.00000E+00
    0.51437E-01        -0.19344E-01         0.00000E+00
    0.44641E-01        -0.17036E-01         0.00000E+00
    0.37753E-01        -0.14508E-01         0.00000E+00
    0.30734E-01        -0.11811E-01         0.00000E+00
    0.23525E-01        -0.89884E-02         0.00000E+00
    0.16054E-01        -0.60695E-02         0.00000E+00
    0.82419E-02        -0.30721E-02         0.00000E+00
    0.00000E+00         0.00000E+00         0.00000E+00
    0.97635E-01        -0.85444E-03         0.00000E+00
    0.99688E-01        -0.25793E-02         0.00000E+00
    0.10166E+00        -0.45361E-02         0.00000E+00
    0.10325E+00        -0.67514E-02         0.00000E+00
    0.10418E+00        -0.91707E-02         0.00000E+00
    0.10426E+00        -0.11683E-01         0.00000E+00
    0.10337E+00        -0.14150E-01         0.00000E+00
    0.10150E+00        -0.16436E-01         0.00000E+00
    0.98698E-01        -0.18425E-01         0.00000E+00
    0.95084E-01        -0.20034E-01         0.00000E+00
    0.90786E-01        -0.21211E-01         0.00000E+00
    0.85932E-01        -0.21930E-01         0.00000E+00
    0.80639E-01        -0.22188E-01         0.00000E+00
    0.75001E-01        -0.21995E-01         0.00000E+00
    0.69096E-01        -0.21371E-01         0.00000E+00
    0.62984E-01        -0.20348E-01         0.00000E+00
    0.56712E-01        -0.18964E-01         0.00000E+00
    0.50305E-01        -0.17265E-01         0.00000E+00
    0.43770E-01        -0.15298E-01         0.00000E+00
    0.37091E-01        -0.13111E-01         0.00000E+00
    0.30237E-01        -0.10745E-01         0.00000E+00
    0.23163E-01        -0.82320E-02         0.00000E+00
    0.15810E-01        -0.55969E-02         0.00000E+00
    0.81131E-02        -0.28526E-02         0.00000E+00
    0.00000E+00         0.00000E+00         0.00000E+00
    0.93813E-01         0.10086E-02         0.00000E+00
    0.95532E-01        -0.70587E-03         0.00000E+00
    0.97087E-01        -0.25894E-02         0.00000E+00
    0.98279E-01        -0.46604E-02         0.00000E+00
    0.98913E-01        -0.68804E-02         0.00000E+00
    0.98835E-01        -0.91674E-02         0.00000E+00
    0.97953E-01        -0.11416E-01         0.00000E+00
    0.96241E-01        -0.13516E-01         0.00000E+00
    0.93732E-01        -0.15372E-01         0.00000E+00
    0.90498E-01        -0.16906E-01         0.00000E+00
    0.86633E-01        -0.18070E-01         0.00000E+00
    0.82238E-01        -0.18835E-01         0.00000E+00
    0.77404E-01        -0.19193E-01         0.00000E+00
    0.72212E-01        -0.19150E-01         0.00000E+00
    0.66730E-01        -0.18723E-01         0.00000E+00
    0.61008E-01        -0.17934E-01         0.00000E+00
    0.55085E-01        -0.16817E-01         0.00000E+00
    0.48983E-01        -0.15405E-01         0.00000E+00
    0.42708E-01        -0.13738E-01         0.00000E+00
    0.36250E-01        -0.11851E-01         0.00000E+00
    0.29586E-01        -0.97762E-02         0.00000E+00
    0.22678E-01        -0.75403E-02         0.00000E+00
    0.15480E-01        -0.51614E-02         0.00000E+00
    0.79405E-02        -0.26484E-02         0.00000E+00
    0.00000E+00         0.00000E+00         0.00000E+00
    0.89988E-01         0.26396E-02         0.00000E+00
    0.91450E-01         0.95196E-03         0.00000E+00
    0.92696E-01        -0.86105E-03         0.00000E+00
    0.93589E-01        -0.28090E-02         0.00000E+00
    0.93992E-01        -0.48625E-02         0.00000E+00
    0.93791E-01        -0.69599E-02         0.00000E+00
    0.92911E-01        -0.90201E-02         0.00000E+00
    0.91324E-01        -0.10956E-01         0.00000E+00
    0.89046E-01        -0.12688E-01         0.00000E+00
    0.86123E-01        -0.14151E-01         0.00000E+00
    0.82623E-01        -0.15297E-01         0.00000E+00
    0.78619E-01        -0.16098E-01         0.00000E+00
    0.74186E-01        -0.16542E-01         0.00000E+00
    0.69390E-01        -0.16631E-01         0.00000E+00
    0.64286E-01        -0.16374E-01         0.00000E+00
    0.58919E-01        -0.15791E-01         0.00000E+00
    0.53320E-01        -0.14905E-01         0.00000E+00
    0.47511E-01        -0.13745E-01         0.00000E+00
    0.41495E-01        -0.12338E-01         0.00000E+00
    0.35268E-01        -0.10714E-01         0.00000E+00
    0.28810E-01        -0.88981E-02         0.00000E+00
    0.22094E-01        -0.69091E-02         0.00000E+00
    0.15082E-01        -0.47609E-02         0.00000E+00
    0.77328E-02        -0.24590E-02         0.00000E+00
    0.00000E+00         0.00000E+00         0.00000E+00
    0.86206E-01         0.40784E-02         0.00000E+00
    0.87461E-01         0.24275E-02         0.00000E+00
    0.88470E-01         0.68152E-03         0.00000E+00
    0.89137E-01        -0.11615E-02         0.00000E+00
    0.89366E-01        -0.30771E-02         0.00000E+00
    0.89070E-01        -0.50177E-02         0.00000E+00
    0.88192E-01        -0.69203E-02         0.00000E+00
    0.86705E-01        -0.87164E-02         0.00000E+00
    0.84613E-01        -0.10340E-01         0.00000E+00
    0.81946E-01        -0.11737E-01         0.00000E+00
    0.78751E-01        -0.12863E-01         0.00000E+00
    0.75083E-01        -0.13691E-01         0.00000E+00
    0.71000E-01        -0.14206E-01         0.00000E+00
    0.66553E-01        -0.14407E-01         0.00000E+00
    0.61790E-01        -0.14297E-01         0.00000E+00
    0.56748E-01        -0.13891E-01         0.00000E+00
    0.51454E-01        -0.13206E-01         0.00000E+00
    0.45924E-01        -0.12263E-01         0.00000E+00
    0.40166E-01        -0.11085E-01         0.00000E+00
    0.34175E-01        -0.96918E-02         0.00000E+00
    0.27937E-01        -0.81034E-02         0.00000E+00
    0.21432E-01        -0.63343E-02         0.00000E+00
    0.14629E-01        -0.43935E-02         0.00000E+00
    0.74974E-02        -0.22837E-02         0.00000E+00
    0.00000E+00         0.00000E+00         0.00000E+00
    0.82493E-01         0.53503E-02         0.00000E+00
    0.83577E-01         0.37413E-02         0.00000E+00
    0.84399E-01         0.20583E-02         0.00000E+00
    0.84893E-01         0.30533E-03         0.00000E+00
    0.84989E-01        -0.14961E-02         0.00000E+00
    0.84623E-01        -0.33079E-02         0.00000E+00
    0.83749E-01        -0.50806E-02         0.00000E+00
    0.82343E-01        -0.67595E-02         0.00000E+00
    0.80404E-01        -0.82912E-02         0.00000E+00
    0.77950E-01        -0.96286E-02         0.00000E+00
    0.75013E-01        -0.10734E-01         0.00000E+00
    0.71634E-01        -0.11582E-01         0.00000E+00
    0.67856E-01        -0.12156E-01         0.00000E+00
    0.63721E-01        -0.12450E-01         0.00000E+00
    0.59266E-01        -0.12465E-01         0.00000E+00
    0.54523E-01        -0.12211E-01         0.00000E+00
    0.49513E-01        -0.11699E-01         0.00000E+00
    0.44253E-01        -0.10945E-01         0.00000E+00
    0.38748E-01        -0.99643E-02         0.00000E+00
    0.32997E-01        -0.87733E-02         0.00000E+00
    0.26989E-01        -0.73858E-02         0.00000E+00
    0.20709E-01        -0.58118E-02         0.00000E+00
    0.14134E-01        -0.40572E-02         0.00000E+00
    0.72405E-02        -0.21220E-02         0.00000E+00
    0.00000E+00         0.00000E+00         0.00000E+00
    0.78867E-01         0.64723E-02         0.00000E+00
    0.79801E-01         0.49073E-02         0.00000E+00
    0.80473E-01         0.32831E-02         0.00000E+00
    0.80832E-01         0.16079E-02         0.00000E+00
    0.80827E-01        -0.98339E-04         0.00000E+00
    0.80409E-01        -0.18043E-02         0.00000E+00
    0.79542E-01        -0.34703E-02         0.00000E+00
    0.78205E-01        -0.50522E-02         0.00000E+00
    0.76395E-01        -0.65062E-02         0.00000E+00
    0.74120E-01        -0.77927E-02         0.00000E+00
    0.71403E-01        -0.88790E-02         0.00000E+00
    0.68274E-01        -0.97406E-02         0.00000E+00
    0.64764E-01        -0.10361E-01         0.00000E+00
    0.60907E-01        -0.10733E-01         0.00000E+00
    0.56732E-01        -0.10854E-01         0.00000E+00
    0.52264E-01        -0.10729E-01         0.00000E+00
    0.47523E-01        -0.10366E-01         0.00000E+00
    0.42522E-01        -0.97736E-02         0.00000E+00
    0.37267E-01        -0.89647E-02         0.00000E+00
    0.31757E-01        -0.79500E-02         0.00000E+00
    0.25985E-01        -0.67389E-02         0.00000E+00
    0.19941E-01        -0.53380E-02         0.00000E+00
    0.13608E-01        -0.37500E-02         0.00000E+00
    0.69675E-02        -0.19731E-02         0.00000E+00
    0.00000E+00         0.00000E+00         0.00000E+00
    0.75332E-01         0.74573E-02         0.00000E+00
    0.76135E-01         0.59362E-02         0.00000E+00
    0.76682E-01         0.43665E-02         0.00000E+00
    0.76933E-01         0.27592E-02         0.00000E+00
    0.76850E-01         0.11330E-02         0.00000E+00
    0.76395E-01        -0.48551E-03         0.00000E+00
    0.75538E-01        -0.20636E-02         0.00000E+00
    0.74262E-01        -0.35653E-02         0.00000E+00
    0.72561E-01        -0.49544E-02         0.00000E+00
    0.70440E-01        -0.61975E-02         0.00000E+00
    0.67914E-01        -0.72659E-02         0.00000E+00
    0.65002E-01        -0.81373E-02         0.00000E+00
    0.61730E-01        -0.87958E-02         0.00000E+00
    0.58122E-01        -0.92318E-02         0.00000E+00
    0.54203E-01        -0.94416E-02         0.00000E+00
    0.49991E-01        -0.94257E-02         0.00000E+00
    0.45503E-01        -0.91883E-02         0.00000E+00
    0.40751E-01        -0.87356E-02         0.00000E+00
    0.35741E-01        -0.80750E-02         0.00000E+00
    0.30472E-01        -0.72136E-02         0.00000E+00
    0.24941E-01        -0.61571E-02         0.00000E+00
    0.19140E-01        -0.49091E-02         0.00000E+00
    0.13059E-01        -0.34701E-02         0.00000E+00
    0.66832E-02        -0.18363E-02         0.00000E+00
    0.00000E+00         0.00000E+00         0.00000E+00
    0.71889E-01         0.83162E-02         0.00000E+00
    0.72575E-01         0.68374E-02         0.00000E+00
    0.73016E-01         0.53179E-02         0.00000E+00
    0.73180E-01         0.37703E-02         0.00000E+00
    0.73036E-01         0.22123E-02         0.00000E+00
    0.72554E-01         0.66689E-03         0.00000E+00
    0.71710E-01        -0.83837E-03         0.00000E+00
    0.70490E-01        -0.22736E-02         0.00000E+00
    0.68885E-01        -0.36084E-02         0.00000E+00
    0.66898E-01        -0.48145E-02         0.00000E+00
    0.64538E-01        -0.58667E-02         0.00000E+00
    0.61819E-01        -0.67448E-02         0.00000E+00
    0.58759E-01        -0.74334E-02         0.00000E+00
    0.55377E-01        -0.79222E-02         0.00000E+00
    0.51691E-01        -0.82055E-02         0.00000E+00
    0.47718E-01        -0.82815E-02         0.00000E+00
    0.43471E-01        -0.81513E-02         0.00000E+00
    0.38958E-01        -0.78177E-02         0.00000E+00
    0.34187E-01        -0.72846E-02         0.00000E+00
    0.29158E-01        -0.65561E-02         0.00000E+00
    0.23870E-01        -0.56348E-02         0.00000E+00
    0.18318E-01        -0.45218E-02         0.00000E+00
    0.12495E-01        -0.32155E-02         0.00000E+00
    0.63914E-02        -0.17111E-02         0.00000E+00
    0.00000E+00         0.00000E+00         0.00000E+00
    0.68537E-01         0.90586E-02         0.00000E+00
    0.69117E-01         0.76200E-02         0.00000E+00
    0.69467E-01         0.61467E-02         0.00000E+00
    0.69558E-01         0.46519E-02         0.00000E+00
    0.69366E-01         0.31525E-02         0.00000E+00
    0.68866E-01         0.16690E-02         0.00000E+00
    0.68038E-01         0.22475E-03         0.00000E+00
    0.66868E-01        -0.11548E-02         0.00000E+00
    0.65349E-01        -0.24440E-02         0.00000E+00
    0.63481E-01        -0.36183E-02         0.00000E+00
    0.61268E-01        -0.46559E-02         0.00000E+00
    0.58721E-01        -0.55383E-02         0.00000E+00
    0.55853E-01        -0.62507E-02         0.00000E+00
    0.52677E-01        -0.67825E-02         0.00000E+00
    0.49207E-01        -0.71268E-02         0.00000E+00
    0.45458E-01        -0.72797E-02         0.00000E+00
    0.41438E-01        -0.72398E-02         0.00000E+00
    0.37157E-01        -0.70075E-02         0.00000E+00
    0.32620E-01        -0.65840E-02         0.00000E+00
    0.27829E-01        -0.59703E-02         0.00000E+00
    0.22784E-01        -0.51669E-02         0.00000E+00
    0.17483E-01        -0.41727E-02         0.00000E+00
    0.11921E-01        -0.29845E-02         0.00000E+00
    0.60952E-02        -0.15966E-02         0.00000E+00
    0.00000E+00         0.00000E+00         0.00000E+00
    0.65269E-01         0.96938E-02         0.00000E+00
    0.65755E-01         0.82928E-02         0.00000E+00
    0.66024E-01         0.68617E-02         0.00000E+00
    0.66055E-01         0.54141E-02         0.00000E+00
    0.65825E-01         0.39659E-02         0.00000E+00
    0.65313E-01         0.25353E-02         0.00000E+00
    0.64502E-01         0.11429E-02         0.00000E+00
    0.63380E-01        -0.18957E-03         0.00000E+00
    0.61939E-01        -0.14399E-02         0.00000E+00
    0.60178E-01        -0.25868E-02         0.00000E+00
    0.58098E-01        -0.36110E-02         0.00000E+00
    0.55707E-01        -0.44955E-02         0.00000E+00
    0.53013E-01        -0.52264E-02         0.00000E+00
    0.50026E-01        -0.57930E-02         0.00000E+00
    0.46758E-01        -0.61874E-02         0.00000E+00
    0.43219E-01        -0.64043E-02         0.00000E+00
    0.39416E-01        -0.64405E-02         0.00000E+00
    0.35359E-01        -0.62940E-02         0.00000E+00
    0.31050E-01        -0.59640E-02         0.00000E+00
    0.26494E-01        -0.54493E-02         0.00000E+00
    0.21691E-01        -0.47484E-02         0.00000E+00
    0.16642E-01        -0.38585E-02         0.00000E+00
    0.11344E-01        -0.27753E-02         0.00000E+00
    0.57974E-02        -0.14921E-02         0.00000E+00
    0.00000E+00         0.00000E+00         0.00000E+00
    0.62081E-01         0.10231E-01         0.00000E+00
    0.62481E-01         0.88647E-02         0.00000E+00
    0.62681E-01         0.74723E-02         0.00000E+00
    0.62661E-01         0.60670E-02         0.00000E+00
    0.62400E-01         0.46638E-02         0.00000E+00
    0.61882E-01         0.32792E-02         0.00000E+00
    0.61089E-01         0.19313E-02         0.00000E+00
    0.60013E-01         0.63939E-03         0.00000E+00
    0.58644E-01        -0.57738E-03         0.00000E+00
    0.56980E-01        -0.17002E-02         0.00000E+00
    0.55022E-01        -0.27118E-02         0.00000E+00
    0.52773E-01        -0.35967E-02         0.00000E+00
    0.50240E-01        -0.43417E-02         0.00000E+00
    0.47429E-01        -0.49361E-02         0.00000E+00
    0.44349E-01        -0.53713E-02         0.00000E+00
    0.41009E-01        -0.56412E-02         0.00000E+00
    0.37414E-01        -0.57408E-02         0.00000E+00
    0.33572E-01        -0.56669E-02         0.00000E+00
    0.29487E-01        -0.54164E-02         0.00000E+00
    0.25162E-01        -0.49868E-02         0.00000E+00
    0.20600E-01        -0.43748E-02         0.00000E+00
    0.15802E-01        -0.35764E-02         0.00000E+00
    0.10768E-01        -0.25862E-02         0.00000E+00
    0.55000E-02        -0.13971E-02         0.00000E+00
    0.00000E+00         0.00000E+00         0.00000E+00
    0.58966E-01         0.10679E-01         0.00000E+00
    0.59289E-01         0.93447E-02         0.00000E+00
    0.59428E-01         0.79875E-02         0.00000E+00
    0.59365E-01         0.66204E-02         0.00000E+00
    0.59080E-01         0.52572E-02         0.00000E+00
    0.58559E-01         0.39130E-02         0.00000E+00
    0.57787E-01         0.26042E-02         0.00000E+00
    0.56754E-01         0.13475E-02         0.00000E+00
    0.55453E-01         0.16019E-03         0.00000E+00
    0.53880E-01        -0.94109E-03         0.00000E+00
    0.52034E-01        -0.19407E-02         0.00000E+00
    0.49916E-01        -0.28243E-02         0.00000E+00
    0.47532E-01        -0.35795E-02         0.00000E+00
    0.44886E-01        -0.41957E-02         0.00000E+00
    0.41984E-01        -0.46640E-02         0.00000E+00
    0.38833E-01        -0.49772E-02         0.00000E+00
    0.35438E-01        -0.51297E-02         0.00000E+00
    0.31805E-01        -0.51166E-02         0.00000E+00
    0.27937E-01        -0.49337E-02         0.00000E+00
    0.23840E-01        -0.45769E-02         0.00000E+00
    0.19516E-01        -0.40418E-02         0.00000E+00
    0.14966E-01        -0.33234E-02         0.00000E+00
    0.10195E-01        -0.24155E-02         0.00000E+00
    0.52049E-02        -0.13107E-02         0.00000E+00
    0.00000E+00         0.00000E+00         0.00000E+00
    0.55919E-01         0.11047E-01         0.00000E+00
    0.56173E-01         0.97416E-02         0.00000E+00
    0.56258E-01         0.84167E-02         0.00000E+00
    0.56158E-01         0.70841E-02         0.00000E+00
    0.55855E-01         0.57567E-02         0.00000E+00
    0.55335E-01         0.44485E-02         0.00000E+00
    0.54585E-01         0.31740E-02         0.00000E+00
    0.53595E-01         0.19487E-02         0.00000E+00
    0.52358E-01         0.78766E-03         0.00000E+00
    0.50869E-01        -0.29393E-03         0.00000E+00
    0.49128E-01        -0.12818E-02         0.00000E+00
    0.47134E-01        -0.21627E-02         0.00000E+00
    0.44890E-01        -0.29248E-02         0.00000E+00
    0.42399E-01        -0.35577E-02         0.00000E+00
    0.39666E-01        -0.40523E-02         0.00000E+00
    0.36695E-01        -0.44009E-02         0.00000E+00
    0.33492E-01        -0.45969E-02         0.00000E+00
    0.30062E-01        -0.46347E-02         0.00000E+00
    0.26407E-01        -0.45088E-02         0.00000E+00
    0.22533E-01        -0.42142E-02         0.00000E+00
    0.18443E-01        -0.37455E-02         0.00000E+00
    0.14140E-01        -0.30969E-02         0.00000E+00
    0.96288E-02        -0.22618E-02         0.00000E+00
    0.49134E-02        -0.12324E-02         0.00000E+00
    0.00000E+00         0.00000E+00         0.00000E+00
    0.52932E-01         0.11343E-01         0.00000E+00
    0.53125E-01         0.10064E-01         0.00000E+00
    0.53165E-01         0.87686E-02         0.00000E+00
    0.53034E-01         0.74673E-02         0.00000E+00
    0.52717E-01         0.61723E-02         0.00000E+00
    0.52201E-01         0.48963E-02         0.00000E+00
    0.51474E-01         0.36527E-02         0.00000E+00
    0.50526E-01         0.24554E-02         0.00000E+00
    0.49350E-01         0.13183E-02         0.00000E+00
    0.47942E-01         0.25502E-03         0.00000E+00
    0.46300E-01        -0.72123E-03         0.00000E+00
    0.44422E-01        -0.15981E-02         0.00000E+00
    0.42311E-01        -0.23642E-02         0.00000E+00
    0.39967E-01        -0.30094E-02         0.00000E+00
    0.37395E-01        -0.35246E-02         0.00000E+00
    0.34598E-01        -0.39016E-02         0.00000E+00
    0.31581E-01        -0.41334E-02         0.00000E+00
    0.28347E-01        -0.42134E-02         0.00000E+00
    0.24900E-01        -0.41355E-02         0.00000E+00
    0.21245E-01        -0.38938E-02         0.00000E+00
    0.17385E-01        -0.34823E-02         0.00000E+00
    0.13326E-01        -0.28945E-02         0.00000E+00
    0.90708E-02        -0.21235E-02         0.00000E+00
    0.46265E-02        -0.11615E-02         0.00000E+00
    0.00000E+00         0.00000E+00         0.00000E+00
    0.50001E-01         0.11575E-01         0.00000E+00
    0.50141E-01         0.10321E-01         0.00000E+00
    0.50141E-01         0.90519E-02         0.00000E+00
    0.49985E-01         0.77791E-02         0.00000E+00
    0.49659E-01         0.65134E-02         0.00000E+00
    0.49149E-01         0.52666E-02         0.00000E+00
    0.48446E-01         0.40510E-02         0.00000E+00
    0.47540E-01         0.28792E-02         0.00000E+00
    0.46424E-01         0.17640E-02         0.00000E+00
    0.45093E-01         0.71801E-03         0.00000E+00
    0.43545E-01        -0.24660E-03         0.00000E+00
    0.41779E-01        -0.11182E-02         0.00000E+00
    0.39793E-01        -0.18859E-02         0.00000E+00
    0.37591E-01        -0.25398E-02         0.00000E+00
    0.35173E-01        -0.30706E-02         0.00000E+00
    0.32544E-01        -0.34702E-02         0.00000E+00
    0.29706E-01        -0.37309E-02         0.00000E+00
    0.26663E-01        -0.38457E-02         0.00000E+00
    0.23420E-01        -0.38080E-02         0.00000E+00
    0.19979E-01        -0.36112E-02         0.00000E+00
    0.16346E-01        -0.32487E-02         0.00000E+00
    0.12525E-01        -0.27138E-02         0.00000E+00
    0.85228E-02        -0.19993E-02         0.00000E+00
    0.43450E-02        -0.10975E-02         0.00000E+00
    0.00000E+00         0.00000E+00         0.00000E+00
    0.47121E-01         0.11752E-01         0.00000E+00
    0.47214E-01         0.10519E-01         0.00000E+00
    0.47181E-01         0.92749E-02         0.00000E+00
    0.47005E-01         0.80280E-02         0.00000E+00
    0.46673E-01         0.67891E-02         0.00000E+00
    0.46173E-01         0.55689E-02         0.00000E+00
    0.45495E-01         0.43788E-02         0.00000E+00
    0.44630E-01         0.32304E-02         0.00000E+00
    0.43573E-01         0.21356E-02         0.00000E+00
    0.42317E-01         0.11060E-02         0.00000E+00
    0.40860E-01         0.15310E-03         0.00000E+00
    0.39199E-01        -0.71216E-03         0.00000E+00
    0.37335E-01        -0.14793E-02         0.00000E+00
    0.35268E-01        -0.21387E-02         0.00000E+00
    0.33000E-01        -0.26812E-02         0.00000E+00
    0.30532E-01        -0.30983E-02         0.00000E+00
    0.27869E-01        -0.33822E-02         0.00000E+00
    0.25012E-01        -0.35255E-02         0.00000E+00
    0.21967E-01        -0.35212E-02         0.00000E+00
    0.18737E-01        -0.33622E-02         0.00000E+00
    0.15326E-01        -0.30418E-02         0.00000E+00
    0.11740E-01        -0.25528E-02         0.00000E+00
    0.79857E-02        -0.18880E-02         0.00000E+00
    0.40693E-02        -0.10397E-02         0.00000E+00
    0.00000E+00         0.00000E+00         0.00000E+00
    0.44286E-01         0.11881E-01         0.00000E+00
    0.44340E-01         0.10668E-01         0.00000E+00
    0.44279E-01         0.94454E-02         0.00000E+00
    0.44087E-01         0.82222E-02         0.00000E+00
    0.43753E-01         0.70076E-02         0.00000E+00
    0.43265E-01         0.58118E-02         0.00000E+00
    0.42614E-01         0.46451E-02         0.00000E+00
    0.41791E-01         0.35184E-02         0.00000E+00
    0.40791E-01         0.24426E-02         0.00000E+00
    0.39608E-01         0.14288E-02         0.00000E+00
    0.38239E-01         0.48768E-03         0.00000E+00
    0.36681E-01        -0.37035E-03         0.00000E+00
    0.34934E-01        -0.11352E-02         0.00000E+00
    0.32998E-01        -0.17975E-02         0.00000E+00
    0.30874E-01        -0.23480E-02         0.00000E+00
    0.28564E-01        -0.27785E-02         0.00000E+00
    0.26070E-01        -0.30807E-02         0.00000E+00
    0.23396E-01        -0.32472E-02         0.00000E+00
    0.20544E-01        -0.32704E-02         0.00000E+00
    0.17520E-01        -0.31434E-02         0.00000E+00
    0.14327E-01        -0.28588E-02         0.00000E+00
    0.10972E-01        -0.24096E-02         0.00000E+00
    0.74601E-02        -0.17884E-02         0.00000E+00
    0.37998E-02        -0.98772E-03         0.00000E+00
    0.00000E+00         0.00000E+00         0.00000E+00
    0.41492E-01         0.11968E-01         0.00000E+00
    0.41513E-01         0.10773E-01         0.00000E+00
    0.41429E-01         0.95708E-02         0.00000E+00
    0.41227E-01         0.83692E-02         0.00000E+00
    0.40894E-01         0.71769E-02         0.00000E+00
    0.40421E-01         0.60033E-02         0.00000E+00
    0.39798E-01         0.48582E-02         0.00000E+00
    0.39018E-01         0.37516E-02         0.00000E+00
    0.38074E-01         0.26939E-02         0.00000E+00
    0.36962E-01         0.16952E-02         0.00000E+00
    0.35679E-01         0.76587E-03         0.00000E+00
    0.34221E-01        -0.84210E-04         0.00000E+00
    0.32587E-01        -0.84535E-03         0.00000E+00
    0.30779E-01        -0.15083E-02         0.00000E+00
    0.28795E-01        -0.20640E-02         0.00000E+00
    0.26638E-01        -0.25042E-02         0.00000E+00
    0.24310E-01        -0.28207E-02         0.00000E+00
    0.21813E-01        -0.30057E-02         0.00000E+00
    0.19151E-01        -0.30517E-02         0.00000E+00
    0.16328E-01        -0.29512E-02         0.00000E+00
    0.13350E-01        -0.26972E-02         0.00000E+00
    0.10220E-01        -0.22823E-02         0.00000E+00
    0.69465E-02        -0.16993E-02         0.00000E+00
    0.35368E-02        -0.94100E-03         0.00000E+00
    0.00000E+00         0.00000E+00         0.00000E+00
    0.38736E-01         0.12020E-01         0.00000E+00
    0.38730E-01         0.10842E-01         0.00000E+00
    0.38628E-01         0.96577E-02         0.00000E+00
    0.38419E-01         0.84759E-02         0.00000E+00
    0.38091E-01         0.73040E-02         0.00000E+00
    0.37634E-01         0.61509E-02         0.00000E+00
    0.37041E-01         0.50257E-02         0.00000E+00
    0.36304E-01         0.39379E-02         0.00000E+00
    0.35417E-01         0.28971E-02         0.00000E+00
    0.34375E-01         0.19130E-02         0.00000E+00
    0.33175E-01         0.99545E-03         0.00000E+00
    0.31815E-01         0.15386E-03         0.00000E+00
    0.30293E-01        -0.60236E-03         0.00000E+00
    0.28608E-01        -0.12642E-02         0.00000E+00
    0.26761E-01        -0.18228E-02         0.00000E+00
    0.24754E-01        -0.22698E-02         0.00000E+00
    0.22587E-01        -0.25970E-02         0.00000E+00
    0.20264E-01        -0.27967E-02         0.00000E+00
    0.17788E-01        -0.28611E-02         0.00000E+00
    0.15163E-01        -0.27829E-02         0.00000E+00
    0.12394E-01        -0.25548E-02         0.00000E+00
    0.94853E-02        -0.21695E-02         0.00000E+00
    0.64449E-02        -0.16200E-02         0.00000E+00
    0.32801E-02        -0.89913E-03         0.00000E+00
    0.00000E+00         0.00000E+00         0.00000E+00
    0.36014E-01         0.12043E-01         0.00000E+00
    0.35986E-01         0.10880E-01         0.00000E+00
    0.35871E-01         0.97127E-02         0.00000E+00
    0.35659E-01         0.85487E-02         0.00000E+00
    0.35338E-01         0.73956E-02         0.00000E+00
    0.34901E-01         0.62613E-02         0.00000E+00
    0.34339E-01         0.51545E-02         0.00000E+00
    0.33646E-01         0.40842E-02         0.00000E+00
    0.32815E-01         0.30593E-02         0.00000E+00
    0.31843E-01         0.20893E-02         0.00000E+00
    0.30726E-01         0.11833E-02         0.00000E+00
    0.29461E-01         0.35060E-03         0.00000E+00
    0.28047E-01        -0.39982E-03         0.00000E+00
    0.26484E-01        -0.10591E-02         0.00000E+00
    0.24771E-01        -0.16186E-02         0.00000E+00
    0.22909E-01        -0.20700E-02         0.00000E+00
    0.20901E-01        -0.24051E-02         0.00000E+00
    0.18749E-01        -0.26162E-02         0.00000E+00
    0.16455E-01        -0.26956E-02         0.00000E+00
    0.14023E-01        -0.26358E-02         0.00000E+00
    0.11459E-01        -0.24295E-02         0.00000E+00
    0.87675E-02        -0.20697E-02         0.00000E+00
    0.59551E-02        -0.15494E-02         0.00000E+00
    0.30297E-02        -0.86168E-03         0.00000E+00
    0.00000E+00         0.00000E+00         0.00000E+00
    0.33323E-01         0.12043E-01         0.00000E+00
    0.33278E-01         0.10893E-01         0.00000E+00
    0.33154E-01         0.97413E-02         0.00000E+00
    0.32942E-01         0.85937E-02         0.00000E+00
    0.32632E-01         0.74576E-02         0.00000E+00
    0.32216E-01         0.63406E-02         0.00000E+00
    0.31687E-01         0.52508E-02         0.00000E+00
    0.31038E-01         0.41967E-02         0.00000E+00
    0.30264E-01         0.31869E-02         0.00000E+00
    0.29361E-01         0.22302E-02         0.00000E+00
    0.28325E-01         0.13356E-02         0.00000E+00
    0.27155E-01         0.51197E-03         0.00000E+00
    0.25848E-01        -0.23201E-03         0.00000E+00
    0.24403E-01        -0.88766E-03         0.00000E+00
    0.22822E-01        -0.14465E-02         0.00000E+00
    0.21104E-01        -0.19003E-02         0.00000E+00
    0.19251E-01        -0.22410E-02         0.00000E+00
    0.17265E-01        -0.24608E-02         0.00000E+00
    0.15150E-01        -0.25521E-02         0.00000E+00
    0.12908E-01        -0.25075E-02         0.00000E+00
    0.10545E-01        -0.23197E-02         0.00000E+00
    0.80660E-02        -0.19817E-02         0.00000E+00
    0.54769E-02        -0.14868E-02         0.00000E+00
    0.27854E-02        -0.82830E-03         0.00000E+00
    0.00000E+00         0.00000E+00         0.00000E+00
    0.30659E-01         0.12025E-01         0.00000E+00
    0.30602E-01         0.10887E-01         0.00000E+00
    0.30473E-01         0.97487E-02         0.00000E+00
    0.30265E-01         0.86160E-02         0.00000E+00
    0.29968E-01         0.74954E-02         0.00000E+00
    0.29576E-01         0.63942E-02         0.00000E+00
    0.29081E-01         0.53201E-02         0.00000E+00
    0.28477E-01         0.42810E-02         0.00000E+00
    0.27760E-01         0.32853E-02         0.00000E+00
    0.26926E-01         0.23414E-02         0.00000E+00
    0.25971E-01         0.14579E-02         0.00000E+00
    0.24893E-01         0.64325E-03         0.00000E+00
    0.23691E-01        -0.93888E-04         0.00000E+00
    0.22364E-01        -0.74512E-03         0.00000E+00
    0.20911E-01        -0.13021E-02         0.00000E+00
    0.19334E-01        -0.17568E-02         0.00000E+00
    0.17634E-01        -0.21012E-02         0.00000E+00
    0.15812E-01        -0.23275E-02         0.00000E+00
    0.13872E-01        -0.24282E-02         0.00000E+00
    0.11817E-01        -0.23959E-02         0.00000E+00
    0.96514E-02        -0.22236E-02         0.00000E+00
    0.73804E-02        -0.19043E-02         0.00000E+00
    0.50099E-02        -0.14314E-02         0.00000E+00
    0.25470E-02        -0.79863E-03         0.00000E+00
    0.00000E+00         0.00000E+00         0.00000E+00
    0.28021E-01         0.11992E-01         0.00000E+00
    0.27955E-01         0.10866E-01         0.00000E+00
    0.27825E-01         0.97398E-02         0.00000E+00
    0.27624E-01         0.86205E-02         0.00000E+00
    0.27343E-01         0.75140E-02         0.00000E+00
    0.26976E-01         0.64272E-02         0.00000E+00
    0.26516E-01         0.53674E-02         0.00000E+00
    0.25959E-01         0.43422E-02         0.00000E+00
    0.25299E-01         0.33596E-02         0.00000E+00
    0.24534E-01         0.24277E-02         0.00000E+00
    0.23659E-01         0.15548E-02         0.00000E+00
    0.22673E-01         0.74910E-03         0.00000E+00
    0.21575E-01         0.18989E-04         0.00000E+00
    0.20363E-01        -0.62730E-03         0.00000E+00
    0.19037E-01        -0.11816E-02         0.00000E+00
    0.17599E-01        -0.16359E-02         0.00000E+00
    0.16048E-01        -0.19824E-02         0.00000E+00
    0.14388E-01        -0.22134E-02         0.00000E+00
    0.12620E-01        -0.23214E-02         0.00000E+00
    0.10748E-01        -0.22992E-02         0.00000E+00
    0.87766E-02        -0.21398E-02         0.00000E+00
    0.67097E-02        -0.18364E-02         0.00000E+00
    0.45533E-02        -0.13826E-02         0.00000E+00
    0.23142E-02        -0.77238E-03         0.00000E+00
    0.00000E+00         0.00000E+00         0.00000E+00
    0.25405E-01         0.11950E-01         0.00000E+00
    0.25334E-01         0.10833E-01         0.00000E+00
    0.25206E-01         0.97187E-02         0.00000E+00
    0.25014E-01         0.86114E-02         0.00000E+00
    0.24751E-01         0.75176E-02         0.00000E+00
    0.24411E-01         0.64439E-02         0.00000E+00
    0.23989E-01         0.53971E-02         0.00000E+00
    0.23479E-01         0.43847E-02         0.00000E+00
    0.22877E-01         0.34142E-02         0.00000E+00
    0.22180E-01         0.24935E-02         0.00000E+00
    0.21386E-01         0.16306E-02         0.00000E+00
    0.20491E-01         0.83359E-03         0.00000E+00
    0.19495E-01         0.11051E-03         0.00000E+00
    0.18397E-01        -0.53054E-03         0.00000E+00
    0.17197E-01        -0.10816E-02         0.00000E+00
    0.15895E-01        -0.15347E-02         0.00000E+00
    0.14492E-01        -0.18821E-02         0.00000E+00
    0.12991E-01        -0.21163E-02         0.00000E+00
    0.11393E-01        -0.22299E-02         0.00000E+00
    0.97010E-02        -0.22158E-02         0.00000E+00
    0.79196E-02        -0.20671E-02         0.00000E+00
    0.60531E-02        -0.17772E-02         0.00000E+00
    0.41066E-02        -0.13399E-02         0.00000E+00
    0.20866E-02        -0.74927E-03         0.00000E+00
    0.00000E+00         0.00000E+00         0.00000E+00
    0.22809E-01         0.11902E-01         0.00000E+00
    0.22736E-01         0.10794E-01         0.00000E+00
    0.22613E-01         0.96891E-02         0.00000E+00
    0.22434E-01         0.85926E-02         0.00000E+00
    0.22191E-01         0.75102E-02         0.00000E+00
    0.21880E-01         0.64482E-02         0.00000E+00
    0.21496E-01         0.54132E-02         0.00000E+00
    0.21034E-01         0.44124E-02         0.00000E+00
    0.20490E-01         0.34530E-02         0.00000E+00
    0.19863E-01         0.25426E-02         0.00000E+00
    0.19148E-01         0.16891E-02         0.00000E+00
    0.18344E-01         0.90031E-03         0.00000E+00
    0.17449E-01         0.18408E-03         0.00000E+00
    0.16464E-01        -0.45164E-03         0.00000E+00
    0.15388E-01        -0.99902E-03         0.00000E+00
    0.14221E-01        -0.14503E-02         0.00000E+00
    0.12964E-01        -0.17978E-02         0.00000E+00
    0.11619E-01        -0.20341E-02         0.00000E+00
    0.10187E-01        -0.21519E-02         0.00000E+00
    0.86732E-02        -0.21443E-02         0.00000E+00
    0.70791E-02        -0.20044E-02         0.00000E+00
    0.54094E-02        -0.17259E-02         0.00000E+00
    0.36691E-02        -0.13026E-02         0.00000E+00
    0.18638E-02        -0.72906E-03         0.00000E+00
    0.00000E+00         0.00000E+00         0.00000E+00
    0.20231E-01         0.11851E-01         0.00000E+00
    0.20159E-01         0.10751E-01         0.00000E+00
    0.20044E-01         0.96543E-02         0.00000E+00
    0.19878E-01         0.85674E-02         0.00000E+00
    0.19658E-01         0.74951E-02         0.00000E+00
    0.19378E-01         0.64435E-02         0.00000E+00
    0.19033E-01         0.54191E-02         0.00000E+00
    0.18620E-01         0.44286E-02         0.00000E+00
    0.18135E-01         0.34792E-02         0.00000E+00
    0.17576E-01         0.25784E-02         0.00000E+00
    0.16941E-01         0.17335E-02         0.00000E+00
    0.16227E-01         0.95236E-03         0.00000E+00
    0.15434E-01         0.24265E-03         0.00000E+00
    0.14560E-01        -0.38785E-03         0.00000E+00
    0.13607E-01        -0.93144E-03         0.00000E+00
    0.12573E-01        -0.13805E-02         0.00000E+00
    0.11460E-01        -0.17274E-02         0.00000E+00
    0.10269E-01        -0.19649E-02         0.00000E+00
    0.90028E-02        -0.20859E-02         0.00000E+00
    0.76632E-02        -0.20834E-02         0.00000E+00
    0.62536E-02        -0.19507E-02         0.00000E+00
    0.47777E-02        -0.16817E-02         0.00000E+00
    0.32399E-02        -0.12705E-02         0.00000E+00
    0.16454E-02        -0.71153E-03         0.00000E+00
    0.00000E+00         0.00000E+00         0.00000E+00
    0.17668E-01         0.11800E-01         0.00000E+00
    0.17601E-01         0.10706E-01         0.00000E+00
    0.17495E-01         0.96173E-02         0.00000E+00
    0.17346E-01         0.85387E-02         0.00000E+00
    0.17149E-01         0.74752E-02         0.00000E+00
    0.16901E-01         0.64328E-02         0.00000E+00
    0.16596E-01         0.54177E-02         0.00000E+00
    0.16233E-01         0.44364E-02         0.00000E+00
    0.15808E-01         0.34960E-02         0.00000E+00
    0.15318E-01         0.26036E-02         0.00000E+00
    0.14762E-01         0.17666E-02         0.00000E+00
    0.14138E-01         0.99242E-03         0.00000E+00
    0.13445E-01         0.28877E-03         0.00000E+00
    0.12683E-01        -0.33677E-03         0.00000E+00
    0.11850E-01        -0.87661E-03         0.00000E+00
    0.10949E-01        -0.13232E-02         0.00000E+00
    0.99780E-02        -0.16692E-02         0.00000E+00
    0.89401E-02        -0.19073E-02         0.00000E+00
    0.78365E-02        -0.20305E-02         0.00000E+00
    0.66695E-02        -0.20320E-02         0.00000E+00
    0.54417E-02        -0.19052E-02         0.00000E+00
    0.41567E-02        -0.16441E-02         0.00000E+00
    0.28182E-02        -0.12430E-02         0.00000E+00
    0.14309E-02        -0.69649E-03         0.00000E+00
    0.00000E+00         0.00000E+00         0.00000E+00
    0.15120E-01         0.11750E-01         0.00000E+00
    0.15058E-01         0.10662E-01         0.00000E+00
    0.14963E-01         0.95804E-02         0.00000E+00
    0.14832E-01         0.85089E-02         0.00000E+00
    0.14661E-01         0.74531E-02         0.00000E+00
    0.14446E-01         0.64186E-02         0.00000E+00
    0.14183E-01         0.54116E-02         0.00000E+00
    0.13870E-01         0.44383E-02         0.00000E+00
    0.13505E-01         0.35057E-02         0.00000E+00
    0.13085E-01         0.26207E-02         0.00000E+00
    0.12608E-01         0.17906E-02         0.00000E+00
    0.12074E-01         0.10228E-02         0.00000E+00
    0.11480E-01         0.32461E-03         0.00000E+00
    0.10828E-01        -0.29637E-03         0.00000E+00
    0.10116E-01        -0.83267E-03         0.00000E+00
    0.93453E-02        -0.12769E-02         0.00000E+00
    0.85159E-02        -0.16217E-02         0.00000E+00
    0.76291E-02        -0.18599E-02         0.00000E+00
    0.66865E-02        -0.19846E-02         0.00000E+00
    0.56899E-02        -0.19892E-02         0.00000E+00
    0.46418E-02        -0.18672E-02         0.00000E+00
    0.35451E-02        -0.16126E-02         0.00000E+00
    0.24031E-02        -0.12198E-02         0.00000E+00
    0.12199E-02        -0.68378E-03         0.00000E+00
    0.00000E+00         0.00000E+00         0.00000E+00
    0.12582E-01         0.11705E-01         0.00000E+00
    0.12528E-01         0.10622E-01         0.00000E+00
    0.12447E-01         0.95458E-02         0.00000E+00
    0.12335E-01         0.84804E-02         0.00000E+00
    0.12191E-01         0.74310E-02         0.00000E+00
    0.12010E-01         0.64032E-02         0.00000E+00
    0.11789E-01         0.54029E-02         0.00000E+00
    0.11528E-01         0.44365E-02         0.00000E+00
    0.11222E-01         0.35105E-02         0.00000E+00
    0.10872E-01         0.26319E-02         0.00000E+00
    0.10475E-01         0.18078E-02         0.00000E+00
    0.10030E-01         0.10454E-02         0.00000E+00
    0.95359E-02         0.35198E-03         0.00000E+00
    0.89930E-02        -0.26495E-03         0.00000E+00
    0.84010E-02        -0.79804E-03         0.00000E+00
    0.77600E-02        -0.12400E-02         0.00000E+00
    0.70706E-02        -0.15835E-02         0.00000E+00
    0.63336E-02        -0.18216E-02         0.00000E+00
    0.55504E-02        -0.19474E-02         0.00000E+00
    0.47226E-02        -0.19542E-02         0.00000E+00
    0.38522E-02        -0.18359E-02         0.00000E+00
    0.29416E-02        -0.15866E-02         0.00000E+00
    0.19938E-02        -0.12007E-02         0.00000E+00
    0.10120E-02        -0.67325E-03         0.00000E+00
    0.00000E+00         0.00000E+00         0.00000E+00
    0.10054E-01         0.11666E-01         0.00000E+00
    0.10009E-01         0.10587E-01         0.00000E+00
    0.99427E-02         0.95152E-02         0.00000E+00
    0.98522E-02         0.84546E-02         0.00000E+00
    0.97351E-02         0.74105E-02         0.00000E+00
    0.95891E-02         0.63881E-02         0.00000E+00
    0.94120E-02         0.53935E-02         0.00000E+00
    0.92020E-02         0.44326E-02         0.00000E+00
    0.89574E-02         0.35121E-02         0.00000E+00
    0.86767E-02         0.26388E-02         0.00000E+00
    0.83589E-02         0.18196E-02         0.00000E+00
    0.80029E-02         0.10617E-02         0.00000E+00
    0.76083E-02         0.37240E-03         0.00000E+00
    0.71746E-02        -0.24109E-03         0.00000E+00
    0.67017E-02        -0.77141E-03         0.00000E+00
    0.61898E-02        -0.12113E-02         0.00000E+00
    0.56394E-02        -0.15537E-02         0.00000E+00
    0.50512E-02        -0.17914E-02         0.00000E+00
    0.44261E-02        -0.19179E-02         0.00000E+00
    0.37656E-02        -0.19265E-02         0.00000E+00
    0.30713E-02        -0.18111E-02         0.00000E+00
    0.23451E-02        -0.15658E-02         0.00000E+00
    0.15893E-02        -0.11853E-02         0.00000E+00
    0.80655E-03        -0.66480E-03         0.00000E+00
    0.00000E+00         0.00000E+00         0.00000E+00
    0.75341E-02         0.11635E-01         0.00000E+00
    0.74992E-02         0.10559E-01         0.00000E+00
    0.74484E-02         0.94900E-02         0.00000E+00
    0.73797E-02         0.84332E-02         0.00000E+00
    0.72912E-02         0.73931E-02         0.00000E+00
    0.71810E-02         0.63750E-02         0.00000E+00
    0.70477E-02         0.53847E-02         0.00000E+00
    0.68898E-02         0.44282E-02         0.00000E+00
    0.67060E-02         0.35120E-02         0.00000E+00
    0.64954E-02         0.26428E-02         0.00000E+00
    0.62570E-02         0.18275E-02         0.00000E+00
    0.59901E-02         0.10732E-02         0.00000E+00
    0.56943E-02         0.38706E-03         0.00000E+00
    0.53694E-02        -0.22367E-03         0.00000E+00
    0.50151E-02        -0.75175E-03         0.00000E+00
    0.46318E-02        -0.11900E-02         0.00000E+00
    0.42196E-02        -0.15313E-02         0.00000E+00
    0.37792E-02        -0.17687E-02         0.00000E+00
    0.33113E-02        -0.18956E-02         0.00000E+00
    0.28170E-02        -0.19055E-02         0.00000E+00
    0.22973E-02        -0.17921E-02         0.00000E+00
    0.17540E-02        -0.15499E-02         0.00000E+00
    0.11886E-02        -0.11736E-02         0.00000E+00
    0.60314E-03        -0.65832E-03         0.00000E+00
    0.00000E+00         0.00000E+00         0.00000E+00
    0.50196E-02         0.11611E-01         0.00000E+00
    0.49959E-02         0.10537E-01         0.00000E+00
    0.49616E-02         0.94712E-02         0.00000E+00
    0.49153E-02         0.84171E-02         0.00000E+00
    0.48559E-02         0.73799E-02         0.00000E+00
    0.47822E-02         0.63649E-02         0.00000E+00
    0.46931E-02         0.53776E-02         0.00000E+00
    0.45876E-02         0.44242E-02         0.00000E+00
    0.44650E-02         0.35111E-02         0.00000E+00
    0.43245E-02         0.26449E-02         0.00000E+00
    0.41655E-02         0.18324E-02         0.00000E+00
    0.39876E-02         0.10807E-02         0.00000E+00
    0.37905E-02         0.39689E-03         0.00000E+00
    0.35740E-02        -0.21183E-03         0.00000E+00
    0.33381E-02        -0.73826E-03         0.00000E+00
    0.30828E-02        -0.11753E-02         0.00000E+00
    0.28083E-02        -0.15158E-02         0.00000E+00
    0.25151E-02        -0.17529E-02         0.00000E+00
    0.22036E-02        -0.18800E-02         0.00000E+00
    0.18745E-02        -0.18907E-02         0.00000E+00
    0.15286E-02        -0.17788E-02         0.00000E+00
    0.11670E-02        -0.15388E-02         0.00000E+00
    0.79076E-03        -0.11653E-02         0.00000E+00
    0.40125E-03        -0.65374E-03         0.00000E+00
    0.00000E+00         0.00000E+00         0.00000E+00
    0.25089E-02         0.11597E-01         0.00000E+00
    0.24968E-02         0.10524E-01         0.00000E+00
    0.24796E-02         0.94597E-02         0.00000E+00
    0.24563E-02         0.84072E-02         0.00000E+00
    0.24265E-02         0.73717E-02         0.00000E+00
    0.23896E-02         0.63585E-02         0.00000E+00
    0.23449E-02         0.53731E-02         0.00000E+00
    0.22921E-02         0.44216E-02         0.00000E+00
    0.22308E-02         0.35103E-02         0.00000E+00
    0.21605E-02         0.26459E-02         0.00000E+00
    0.20810E-02         0.18351E-02         0.00000E+00
    0.19921E-02         0.10849E-02         0.00000E+00
    0.18936E-02         0.40253E-03         0.00000E+00
    0.17854E-02        -0.20497E-03         0.00000E+00
    0.16675E-02        -0.73039E-03         0.00000E+00
    0.15399E-02        -0.11666E-02         0.00000E+00
    0.14027E-02        -0.15066E-02         0.00000E+00
    0.12562E-02        -0.17436E-02         0.00000E+00
    0.11006E-02        -0.18708E-02         0.00000E+00
    0.93620E-03        -0.18819E-02         0.00000E+00
    0.76344E-03        -0.17709E-02         0.00000E+00
    0.58281E-03        -0.15321E-02         0.00000E+00
    0.39489E-03        -0.11604E-02         0.00000E+00
    0.20037E-03        -0.65102E-03         0.00000E+00
    0.00000E+00         0.00000E+00         0.00000E+00
    0.00000E+00         0.11592E-01         0.00000E+00
    0.00000E+00         0.10520E-01         0.00000E+00
    0.00000E+00         0.94558E-02         0.00000E+00
    0.00000E+00         0.84038E-02         0.00000E+00
    0.00000E+00         0.73689E-02         0.00000E+00
    0.00000E+00         0.63563E-02         0.00000E+00
    0.00000E+00         0.53715E-02         0.00000E+00
    0.00000E+00         0.44206E-02         0.00000E+00
    0.00000E+00         0.35100E-02         0.00000E+00
    0.00000E+00         0.26461E-02         0.00000E+00
    0.00000E+00         0.18359E-02         0.00000E+00
    0.00000E+00         0.10863E-02         0.00000E+00
    0.00000E+00         0.40437E-03         0.00000E+00
    0.00000E+00        -0.20272E-03         0.00000E+00
    0.00000E+00        -0.72781E-03         0.00000E+00
    0.00000E+00        -0.11638E-02         0.00000E+00
    0.00000E+00        -0.15036E-02         0.00000E+00
    0.00000E+00        -0.17405E-02         0.00000E+00
    0.00000E+00        -0.18678E-02         0.00000E+00
    0.00000E+00        -0.18791E-02         0.00000E+00
    0.00000E+00        -0.17683E-02         0.00000E+00
    0.00000E+00        -0.15299E-02         0.00000E+00
    0.00000E+00        -0.11588E-02         0.00000E+00
    0.00000E+00        -0.65011E-03         0.00000E+00
    0.00000E+00         0.00000E+00         0.00000E+00
CELL_DATA       1152
VECTORS vDarcy double 
    0.64852E-07         0.65399E-07         0.00000E+00
    0.49525E-07         0.17586E-06         0.00000E+00
    0.30546E-07         0.24923E-06         0.00000E+00
    0.16759E-07         0.28575E-06         0.00000E+00
    0.10083E-07         0.30292E-06         0.00000E+00
    0.64156E-08         0.30929E-06         0.00000E+00
    0.42883E-08         0.30904E-06         0.00000E+00
    0.29688E-08         0.30434E-06         0.00000E+00
    0.20985E-08         0.29639E-06         0.00000E+00
    0.14900E-08         0.28593E-06         0.00000E+00
    0.10430E-08         0.27342E-06         0.00000E+00
    0.70861E-09         0.25925E-06         0.00000E+00
    0.44494E-09         0.24369E-06         0.00000E+00
    0.21080E-09         0.22692E-06         0.00000E+00
    0.28446E-10         0.20897E-06         0.00000E+00
   -0.11764E-09         0.19020E-06         0.00000E+00
   -0.22925E-09         0.17049E-06         0.00000E+00
   -0.24462E-09         0.14980E-06         0.00000E+00
   -0.18563E-09         0.12805E-06         0.00000E+00
   -0.12475E-09         0.10546E-06         0.00000E+00
   -0.93830E-10         0.82531E-07         0.00000E+00
   -0.74357E-10         0.59315E-07         0.00000E+00
   -0.57817E-10         0.35728E-07         0.00000E+00
   -0.49206E-10         0.11929E-07         0.00000E+00
    0.21552E-06         0.83170E-07         0.00000E+00
    0.15144E-06         0.23750E-06         0.00000E+00
    0.77867E-07         0.28014E-06         0.00000E+00
    0.45070E-07         0.30143E-06         0.00000E+00
    0.27599E-07         0.31139E-06         0.00000E+00
    0.17905E-07         0.31418E-06         0.00000E+00
    0.12139E-07         0.31204E-06         0.00000E+00
    0.85000E-08         0.30629E-06         0.00000E+00
    0.60643E-08         0.29774E-06         0.00000E+00
    0.43370E-08         0.28691E-06         0.00000E+00
    0.30466E-08         0.27418E-06         0.00000E+00
    0.20558E-08         0.25982E-06         0.00000E+00
    0.13201E-08         0.24412E-06         0.00000E+00
    0.74162E-09         0.22731E-06         0.00000E+00
    0.11282E-09         0.20940E-06         0.00000E+00
   -0.43508E-09         0.19047E-06         0.00000E+00
   -0.68546E-09         0.17058E-06         0.00000E+00
   -0.68914E-09         0.14972E-06         0.00000E+00
   -0.51424E-09         0.12789E-06         0.00000E+00
   -0.34188E-09         0.10539E-06         0.00000E+00
   -0.25309E-09         0.82484E-07         0.00000E+00
   -0.18396E-09         0.59274E-07         0.00000E+00
   -0.13098E-09         0.35700E-07         0.00000E+00
   -0.10306E-09         0.11920E-07         0.00000E+00
    0.50210E-06         0.38204E-06         0.00000E+00
    0.16975E-06         0.33507E-06         0.00000E+00
    0.98719E-07         0.32717E-06         0.00000E+00
    0.59719E-07         0.32619E-06         0.00000E+00
    0.38480E-07         0.32533E-06         0.00000E+00
    0.25897E-07         0.32251E-06         0.00000E+00
    0.18063E-07         0.31730E-06         0.00000E+00
    0.12933E-07         0.30980E-06         0.00000E+00
    0.94012E-08         0.30020E-06         0.00000E+00
    0.68362E-08         0.28874E-06         0.00000E+00
    0.48575E-08         0.27562E-06         0.00000E+00
    0.32226E-08         0.26101E-06         0.00000E+00
    0.18149E-08         0.24507E-06         0.00000E+00
    0.65812E-09         0.22808E-06         0.00000E+00
   -0.23328E-09         0.21014E-06         0.00000E+00
   -0.81548E-09         0.19086E-06         0.00000E+00
   -0.10132E-08         0.17064E-06         0.00000E+00
   -0.94418E-09         0.14960E-06         0.00000E+00
   -0.78837E-09         0.12768E-06         0.00000E+00
   -0.54599E-09         0.10518E-06         0.00000E+00
   -0.31114E-09         0.82370E-07         0.00000E+00
   -0.17069E-09         0.59179E-07         0.00000E+00
   -0.70603E-10         0.35642E-07         0.00000E+00
   -0.23615E-10         0.11903E-07         0.00000E+00
    0.84741E-07         0.58419E-06         0.00000E+00
    0.13676E-06         0.41325E-06         0.00000E+00
    0.87522E-07         0.36926E-06         0.00000E+00
    0.59885E-07         0.35073E-06         0.00000E+00
    0.41564E-07         0.34035E-06         0.00000E+00
    0.29557E-07         0.33208E-06         0.00000E+00
    0.21478E-07         0.32365E-06         0.00000E+00
    0.15883E-07         0.31418E-06         0.00000E+00
    0.11869E-07         0.30337E-06         0.00000E+00
    0.88706E-08         0.29114E-06         0.00000E+00
    0.65201E-08         0.27754E-06         0.00000E+00
    0.45788E-08         0.26265E-06         0.00000E+00
    0.28685E-08         0.24654E-06         0.00000E+00
    0.13632E-08         0.22928E-06         0.00000E+00
    0.29084E-09         0.21091E-06         0.00000E+00
   -0.35283E-09         0.19131E-06         0.00000E+00
   -0.69485E-09         0.17073E-06         0.00000E+00
   -0.67429E-09         0.14942E-06         0.00000E+00
   -0.46741E-09         0.12749E-06         0.00000E+00
   -0.26857E-09         0.10492E-06         0.00000E+00
   -0.71886E-10         0.82192E-07         0.00000E+00
    0.10045E-09         0.59043E-07         0.00000E+00
    0.21364E-09         0.35565E-07         0.00000E+00
    0.26519E-09         0.11883E-07         0.00000E+00
    0.25480E-07         0.47397E-06         0.00000E+00
    0.60315E-07         0.43661E-06         0.00000E+00
    0.63162E-07         0.39229E-06         0.00000E+00
    0.50247E-07         0.36825E-06         0.00000E+00
    0.38608E-07         0.35279E-06         0.00000E+00
    0.29414E-07         0.34084E-06         0.00000E+00
    0.22497E-07         0.32988E-06         0.00000E+00
    0.17322E-07         0.31871E-06         0.00000E+00
    0.13405E-07         0.30676E-06         0.00000E+00
    0.10380E-07         0.29377E-06         0.00000E+00
    0.79857E-08         0.27966E-06         0.00000E+00
    0.60516E-08         0.26442E-06         0.00000E+00
    0.44919E-08         0.24805E-06         0.00000E+00
    0.32631E-08         0.23050E-06         0.00000E+00
    0.22865E-08         0.21173E-06         0.00000E+00
    0.15051E-08         0.19192E-06         0.00000E+00
    0.89122E-09         0.17108E-06         0.00000E+00
    0.49870E-09         0.14944E-06         0.00000E+00
    0.46870E-09         0.12730E-06         0.00000E+00
    0.57480E-09         0.10481E-06         0.00000E+00
    0.62411E-09         0.82058E-07         0.00000E+00
    0.69846E-09         0.58931E-07         0.00000E+00
    0.76411E-09         0.35498E-07         0.00000E+00
    0.79723E-09         0.11865E-07         0.00000E+00
    0.12360E-07         0.43612E-06         0.00000E+00
    0.31688E-07         0.42029E-06         0.00000E+00
    0.39615E-07         0.39784E-06         0.00000E+00
    0.38104E-07         0.37713E-06         0.00000E+00
    0.32616E-07         0.36104E-06         0.00000E+00
    0.26824E-07         0.34758E-06         0.00000E+00
    0.21719E-07         0.33517E-06         0.00000E+00
    0.17501E-07         0.32282E-06         0.00000E+00
    0.14091E-07         0.30998E-06         0.00000E+00
    0.11345E-07         0.29632E-06         0.00000E+00
    0.91319E-08         0.28171E-06         0.00000E+00
    0.73547E-08         0.26607E-06         0.00000E+00
    0.59525E-08         0.24936E-06         0.00000E+00
    0.48637E-08         0.23151E-06         0.00000E+00
    0.40106E-08         0.21255E-06         0.00000E+00
    0.33370E-08         0.19255E-06         0.00000E+00
    0.28003E-08         0.17160E-06         0.00000E+00
    0.23175E-08         0.14980E-06         0.00000E+00
    0.18961E-08         0.12739E-06         0.00000E+00
    0.16565E-08         0.10486E-06         0.00000E+00
    0.15726E-08         0.82046E-07         0.00000E+00
    0.15459E-08         0.58895E-07         0.00000E+00
    0.15447E-08         0.35470E-07         0.00000E+00
    0.15477E-08         0.11857E-07         0.00000E+00
    0.70253E-08         0.41674E-06         0.00000E+00
    0.18969E-07         0.40840E-06         0.00000E+00
    0.25923E-07         0.39485E-06         0.00000E+00
    0.27759E-07         0.37980E-06         0.00000E+00
    0.26216E-07         0.36540E-06         0.00000E+00
    0.23203E-07         0.35202E-06         0.00000E+00
    0.19901E-07         0.33913E-06         0.00000E+00
    0.16811E-07         0.32617E-06         0.00000E+00
    0.14105E-07         0.31275E-06         0.00000E+00
    0.11812E-07         0.29859E-06         0.00000E+00
    0.99082E-08         0.28356E-06         0.00000E+00
    0.83577E-08         0.26755E-06         0.00000E+00
    0.71220E-08         0.25052E-06         0.00000E+00
    0.61520E-08         0.23241E-06         0.00000E+00
    0.53896E-08         0.21326E-06         0.00000E+00
    0.47813E-08         0.19312E-06         0.00000E+00
    0.42726E-08         0.17207E-06         0.00000E+00
    0.38261E-08         0.15026E-06         0.00000E+00
    0.33811E-08         0.12780E-06         0.00000E+00
    0.29692E-08         0.10509E-06         0.00000E+00
    0.26962E-08         0.82166E-07         0.00000E+00
    0.25487E-08         0.58949E-07         0.00000E+00
    0.24757E-08         0.35490E-07         0.00000E+00
    0.24481E-08         0.11861E-07         0.00000E+00
    0.44607E-08         0.40525E-06         0.00000E+00
    0.12396E-07         0.40001E-06         0.00000E+00
    0.17869E-07         0.39081E-06         0.00000E+00
    0.20476E-07         0.37939E-06         0.00000E+00
    0.20741E-07         0.36709E-06         0.00000E+00
    0.19554E-07         0.35453E-06         0.00000E+00
    0.17688E-07         0.34178E-06         0.00000E+00
    0.15636E-07         0.32866E-06         0.00000E+00
    0.13660E-07         0.31494E-06         0.00000E+00
    0.11878E-07         0.30047E-06         0.00000E+00
    0.10337E-07         0.28513E-06         0.00000E+00
    0.90463E-08         0.26883E-06         0.00000E+00
    0.79920E-08         0.25153E-06         0.00000E+00
    0.71449E-08         0.23322E-06         0.00000E+00
    0.64640E-08         0.21391E-06         0.00000E+00
    0.59039E-08         0.19365E-06         0.00000E+00
    0.54214E-08         0.17254E-06         0.00000E+00
    0.49750E-08         0.15068E-06         0.00000E+00
    0.45342E-08         0.12826E-06         0.00000E+00
    0.41221E-08         0.10546E-06         0.00000E+00
    0.37982E-08         0.82396E-07         0.00000E+00
    0.35848E-08         0.59080E-07         0.00000E+00
    0.34641E-08         0.35552E-07         0.00000E+00
    0.34134E-08         0.11877E-07         0.00000E+00
    0.30570E-08         0.39774E-06         0.00000E+00
    0.86548E-08         0.39399E-06         0.00000E+00
    0.12915E-07         0.38710E-06         0.00000E+00
    0.15493E-07         0.37792E-06         0.00000E+00
    0.16510E-07         0.36728E-06         0.00000E+00
    0.16362E-07         0.35568E-06         0.00000E+00
    0.15498E-07         0.34337E-06         0.00000E+00
    0.14279E-07         0.33034E-06         0.00000E+00
    0.12951E-07         0.31656E-06         0.00000E+00
    0.11660E-07         0.30193E-06         0.00000E+00
    0.10483E-07         0.28639E-06         0.00000E+00
    0.94585E-08         0.26988E-06         0.00000E+00
    0.85931E-08         0.25239E-06         0.00000E+00
    0.78751E-08         0.23392E-06         0.00000E+00
    0.72788E-08         0.21448E-06         0.00000E+00
    0.67721E-08         0.19414E-06         0.00000E+00
    0.63216E-08         0.17298E-06         0.00000E+00
    0.58981E-08         0.15111E-06         0.00000E+00
    0.54889E-08         0.12868E-06         0.00000E+00
    0.51100E-08         0.10583E-06         0.00000E+00
    0.47954E-08         0.82666E-07         0.00000E+00
    0.45681E-08         0.59251E-07         0.00000E+00
    0.44291E-08         0.35641E-07         0.00000E+00
    0.43676E-08         0.11900E-07         0.00000E+00
    0.22205E-08         0.39246E-06         0.00000E+00
    0.63665E-08         0.38953E-06         0.00000E+00
    0.97307E-08         0.38394E-06         0.00000E+00
    0.12060E-07         0.37617E-06         0.00000E+00
    0.13344E-07         0.36672E-06         0.00000E+00
    0.13755E-07         0.35597E-06         0.00000E+00
    0.13538E-07         0.34416E-06         0.00000E+00
    0.12932E-07         0.33138E-06         0.00000E+00
    0.12130E-07         0.31766E-06         0.00000E+00
    0.11264E-07         0.30299E-06         0.00000E+00
    0.10421E-07         0.28735E-06         0.00000E+00
    0.96499E-08         0.27072E-06         0.00000E+00
    0.89706E-08         0.25310E-06         0.00000E+00
    0.83847E-08         0.23451E-06         0.00000E+00
    0.78799E-08         0.21499E-06         0.00000E+00
    0.74361E-08         0.19458E-06         0.00000E+00
    0.70318E-08         0.17339E-06         0.00000E+00
    0.66501E-08         0.15151E-06         0.00000E+00
    0.62864E-08         0.12906E-06         0.00000E+00
    0.59523E-08         0.10617E-06         0.00000E+00
    0.56694E-08         0.82928E-07         0.00000E+00
    0.54560E-08         0.59429E-07         0.00000E+00
    0.53194E-08         0.35739E-07         0.00000E+00
    0.52564E-08         0.11927E-07         0.00000E+00
    0.16895E-08         0.38855E-06         0.00000E+00
    0.48884E-08         0.38609E-06         0.00000E+00
    0.76030E-08         0.38130E-06         0.00000E+00
    0.96529E-08         0.37444E-06         0.00000E+00
    0.10992E-07         0.36583E-06         0.00000E+00
    0.11688E-07         0.35576E-06         0.00000E+00
    0.11872E-07         0.34441E-06         0.00000E+00
    0.11695E-07         0.33191E-06         0.00000E+00
    0.11293E-07         0.31833E-06         0.00000E+00
    0.10776E-07         0.30370E-06         0.00000E+00
    0.10221E-07         0.28803E-06         0.00000E+00
    0.96770E-08         0.27135E-06         0.00000E+00
    0.91725E-08         0.25366E-06         0.00000E+00
    0.87169E-08         0.23500E-06         0.00000E+00
    0.83077E-08         0.21542E-06         0.00000E+00
    0.79355E-08         0.19497E-06         0.00000E+00
    0.75889E-08         0.17375E-06         0.00000E+00
    0.72597E-08         0.15185E-06         0.00000E+00
    0.69479E-08         0.12939E-06         0.00000E+00
    0.66628E-08         0.10646E-06         0.00000E+00
    0.64194E-08         0.83163E-07         0.00000E+00
    0.62318E-08         0.59595E-07         0.00000E+00
    0.61082E-08         0.35833E-07         0.00000E+00
    0.60495E-08         0.11955E-07         0.00000E+00
    0.13356E-08         0.38552E-06         0.00000E+00
    0.38913E-08         0.38336E-06         0.00000E+00
    0.61327E-08         0.37907E-06         0.00000E+00
    0.79313E-08         0.37282E-06         0.00000E+00
    0.92361E-08         0.36481E-06         0.00000E+00
    0.10067E-07         0.35525E-06         0.00000E+00
    0.10493E-07         0.34430E-06         0.00000E+00
    0.10605E-07         0.33208E-06         0.00000E+00
    0.10498E-07         0.31867E-06         0.00000E+00
    0.10254E-07         0.30412E-06         0.00000E+00
    0.99355E-08         0.28848E-06         0.00000E+00
    0.95888E-08         0.27179E-06         0.00000E+00
    0.92421E-08         0.25407E-06         0.00000E+00
    0.89099E-08         0.23538E-06         0.00000E+00
    0.85967E-08         0.21576E-06         0.00000E+00
    0.83006E-08         0.19529E-06         0.00000E+00
    0.80177E-08         0.17406E-06         0.00000E+00
    0.77460E-08         0.15215E-06         0.00000E+00
    0.74883E-08         0.12966E-06         0.00000E+00
    0.72525E-08         0.10670E-06         0.00000E+00
    0.70500E-08         0.83364E-07         0.00000E+00
    0.68919E-08         0.59740E-07         0.00000E+00
    0.67857E-08         0.35917E-07         0.00000E+00
    0.67339E-08         0.11980E-07         0.00000E+00
    0.10905E-08         0.38310E-06         0.00000E+00
    0.31945E-08         0.38113E-06         0.00000E+00
    0.50866E-08         0.37717E-06         0.00000E+00
    0.66741E-08         0.37133E-06         0.00000E+00
    0.79108E-08         0.36376E-06         0.00000E+00
    0.87957E-08         0.35459E-06         0.00000E+00
    0.93630E-08         0.34397E-06         0.00000E+00
    0.96677E-08         0.33199E-06         0.00000E+00
    0.97719E-08         0.31875E-06         0.00000E+00
    0.97348E-08         0.30432E-06         0.00000E+00
    0.96061E-08         0.28874E-06         0.00000E+00
    0.94241E-08         0.27206E-06         0.00000E+00
    0.92154E-08         0.25435E-06         0.00000E+00
    0.89963E-08         0.23565E-06         0.00000E+00
    0.87751E-08         0.21602E-06         0.00000E+00
    0.85550E-08         0.19555E-06         0.00000E+00
    0.83374E-08         0.17431E-06         0.00000E+00
    0.81242E-08         0.15239E-06         0.00000E+00
    0.79198E-08         0.12989E-06         0.00000E+00
    0.77315E-08         0.10690E-06         0.00000E+00
    0.75686E-08         0.83529E-07         0.00000E+00
    0.74399E-08         0.59862E-07         0.00000E+00
    0.73520E-08         0.35990E-07         0.00000E+00
    0.73082E-08         0.12003E-07         0.00000E+00
    0.91528E-09         0.38109E-06         0.00000E+00
    0.26926E-08         0.37925E-06         0.00000E+00
    0.43228E-08         0.37552E-06         0.00000E+00
    0.57375E-08         0.36998E-06         0.00000E+00
    0.68975E-08         0.36272E-06         0.00000E+00
    0.77932E-08         0.35385E-06         0.00000E+00
    0.84398E-08         0.34349E-06         0.00000E+00
    0.88692E-08         0.33174E-06         0.00000E+00
    0.91219E-08         0.31866E-06         0.00000E+00
    0.92393E-08         0.30433E-06         0.00000E+00
    0.92589E-08         0.28883E-06         0.00000E+00
    0.92116E-08         0.27220E-06         0.00000E+00
    0.91205E-08         0.25451E-06         0.00000E+00
    0.90018E-08         0.23582E-06         0.00000E+00
    0.88656E-08         0.21621E-06         0.00000E+00
    0.87182E-08         0.19573E-06         0.00000E+00
    0.85640E-08         0.17449E-06         0.00000E+00
    0.84073E-08         0.15257E-06         0.00000E+00
    0.82536E-08         0.13006E-06         0.00000E+00
    0.81098E-08         0.10706E-06         0.00000E+00
    0.79837E-08         0.83661E-07         0.00000E+00
    0.78827E-08         0.59960E-07         0.00000E+00
    0.78126E-08         0.36050E-07         0.00000E+00
    0.77769E-08         0.12023E-07         0.00000E+00
    0.78645E-09         0.37939E-06         0.00000E+00
    0.23217E-08         0.37764E-06         0.00000E+00
    0.37520E-08         0.37407E-06         0.00000E+00
    0.50260E-08         0.36874E-06         0.00000E+00
    0.61113E-08         0.36171E-06         0.00000E+00
    0.69951E-08         0.35308E-06         0.00000E+00
    0.76823E-08         0.34293E-06         0.00000E+00
    0.81908E-08         0.33136E-06         0.00000E+00
    0.85461E-08         0.31843E-06         0.00000E+00
    0.87769E-08         0.30422E-06         0.00000E+00
    0.89105E-08         0.28879E-06         0.00000E+00
    0.89712E-08         0.27222E-06         0.00000E+00
    0.89783E-08         0.25457E-06         0.00000E+00
    0.89465E-08         0.23591E-06         0.00000E+00
    0.88865E-08         0.21631E-06         0.00000E+00
    0.88059E-08         0.19585E-06         0.00000E+00
    0.87109E-08         0.17462E-06         0.00000E+00
    0.86070E-08         0.15270E-06         0.00000E+00
    0.85002E-08         0.13019E-06         0.00000E+00
    0.83971E-08         0.10718E-06         0.00000E+00
    0.83046E-08         0.83761E-07         0.00000E+00
    0.82289E-08         0.60036E-07         0.00000E+00
    0.81753E-08         0.36097E-07         0.00000E+00
    0.81475E-08         0.12039E-07         0.00000E+00
    0.68943E-09         0.37791E-06         0.00000E+00
    0.20411E-08         0.37623E-06         0.00000E+00
    0.33160E-08         0.37278E-06         0.00000E+00
    0.44750E-08         0.36760E-06         0.00000E+00
    0.54915E-08         0.36075E-06         0.00000E+00
    0.63521E-08         0.35230E-06         0.00000E+00
    0.70561E-08         0.34232E-06         0.00000E+00
    0.76127E-08         0.33090E-06         0.00000E+00
    0.80376E-08         0.31810E-06         0.00000E+00
    0.83502E-08         0.30400E-06         0.00000E+00
    0.85703E-08         0.28866E-06         0.00000E+00
    0.87161E-08         0.27215E-06         0.00000E+00
    0.88036E-08         0.25455E-06         0.00000E+00
    0.88455E-08         0.23593E-06         0.00000E+00
    0.88520E-08         0.21635E-06         0.00000E+00
    0.88311E-08         0.19592E-06         0.00000E+00
    0.87897E-08         0.17470E-06         0.00000E+00
    0.87337E-08         0.15279E-06         0.00000E+00
    0.86695E-08         0.13028E-06         0.00000E+00
    0.86030E-08         0.10726E-06         0.00000E+00
    0.85406E-08         0.83834E-07         0.00000E+00
    0.84877E-08         0.60093E-07         0.00000E+00
    0.84492E-08         0.36133E-07         0.00000E+00
    0.84287E-08         0.12052E-07         0.00000E+00
    0.61472E-09         0.37661E-06         0.00000E+00
    0.18241E-08         0.37498E-06         0.00000E+00
    0.29761E-08         0.37161E-06         0.00000E+00
    0.40404E-08         0.36654E-06         0.00000E+00
    0.49949E-08         0.35983E-06         0.00000E+00
    0.58270E-08         0.35152E-06         0.00000E+00
    0.65330E-08         0.34169E-06         0.00000E+00
    0.71167E-08         0.33040E-06         0.00000E+00
    0.75876E-08         0.31771E-06         0.00000E+00
    0.79583E-08         0.30371E-06         0.00000E+00
    0.82427E-08         0.28845E-06         0.00000E+00
    0.84547E-08         0.27201E-06         0.00000E+00
    0.86069E-08         0.25446E-06         0.00000E+00
    0.87100E-08         0.23587E-06         0.00000E+00
    0.87733E-08         0.21634E-06         0.00000E+00
    0.88045E-08         0.19592E-06         0.00000E+00
    0.88103E-08         0.17472E-06         0.00000E+00
    0.87970E-08         0.15283E-06         0.00000E+00
    0.87705E-08         0.13033E-06         0.00000E+00
    0.87366E-08         0.10731E-06         0.00000E+00
    0.87008E-08         0.83881E-07         0.00000E+00
    0.86683E-08         0.60131E-07         0.00000E+00
    0.86433E-08         0.36158E-07         0.00000E+00
    0.86294E-08         0.12061E-07         0.00000E+00
    0.55596E-09         0.37544E-06         0.00000E+00
    0.16527E-08         0.37384E-06         0.00000E+00
    0.27058E-08         0.37054E-06         0.00000E+00
    0.36910E-08         0.36556E-06         0.00000E+00
    0.45902E-08         0.35896E-06         0.00000E+00
    0.53917E-08         0.35076E-06         0.00000E+00
    0.60905E-08         0.34104E-06         0.00000E+00
    0.66872E-08         0.32986E-06         0.00000E+00
    0.71869E-08         0.31728E-06         0.00000E+00
    0.75977E-08         0.30336E-06         0.00000E+00
    0.79293E-08         0.28818E-06         0.00000E+00
    0.81919E-08         0.27180E-06         0.00000E+00
    0.83953E-08         0.25431E-06         0.00000E+00
    0.85483E-08         0.23577E-06         0.00000E+00
    0.86591E-08         0.21627E-06         0.00000E+00
    0.87347E-08         0.19589E-06         0.00000E+00
    0.87814E-08         0.17471E-06         0.00000E+00
    0.88052E-08         0.15283E-06         0.00000E+00
    0.88117E-08         0.13034E-06         0.00000E+00
    0.88062E-08         0.10733E-06         0.00000E+00
    0.87938E-08         0.83906E-07         0.00000E+00
    0.87791E-08         0.60153E-07         0.00000E+00
    0.87661E-08         0.36174E-07         0.00000E+00
    0.87582E-08         0.12067E-07         0.00000E+00
    0.50880E-09         0.37437E-06         0.00000E+00
    0.15147E-08         0.37280E-06         0.00000E+00
    0.24865E-08         0.36955E-06         0.00000E+00
    0.34049E-08         0.36465E-06         0.00000E+00
    0.42546E-08         0.35812E-06         0.00000E+00
    0.50252E-08         0.35002E-06         0.00000E+00
    0.57111E-08         0.34040E-06         0.00000E+00
    0.63110E-08         0.32931E-06         0.00000E+00
    0.68272E-08         0.31681E-06         0.00000E+00
    0.72646E-08         0.30297E-06         0.00000E+00
    0.76298E-08         0.28786E-06         0.00000E+00
    0.79303E-08         0.27155E-06         0.00000E+00
    0.81734E-08         0.25411E-06         0.00000E+00
    0.83664E-08         0.23562E-06         0.00000E+00
    0.85161E-08         0.21616E-06         0.00000E+00
    0.86287E-08         0.19581E-06         0.00000E+00
    0.87101E-08         0.17466E-06         0.00000E+00
    0.87656E-08         0.15280E-06         0.00000E+00
    0.88005E-08         0.13033E-06         0.00000E+00
    0.88196E-08         0.10733E-06         0.00000E+00
    0.88274E-08         0.83912E-07         0.00000E+00
    0.88282E-08         0.60161E-07         0.00000E+00
    0.88257E-08         0.36181E-07         0.00000E+00
    0.88231E-08         0.12070E-07         0.00000E+00
    0.47018E-09         0.37339E-06         0.00000E+00
    0.14012E-08         0.37184E-06         0.00000E+00
    0.23052E-08         0.36863E-06         0.00000E+00
    0.31661E-08         0.36379E-06         0.00000E+00
    0.39713E-08         0.35733E-06         0.00000E+00
    0.47115E-08         0.34931E-06         0.00000E+00
    0.53809E-08         0.33976E-06         0.00000E+00
    0.59772E-08         0.32875E-06         0.00000E+00
    0.65009E-08         0.31633E-06         0.00000E+00
    0.69547E-08         0.30257E-06         0.00000E+00
    0.73430E-08         0.28752E-06         0.00000E+00
    0.76709E-08         0.27127E-06         0.00000E+00
    0.79441E-08         0.25388E-06         0.00000E+00
    0.81684E-08         0.23543E-06         0.00000E+00
    0.83494E-08         0.21601E-06         0.00000E+00
    0.84924E-08         0.19570E-06         0.00000E+00
    0.86025E-08         0.17458E-06         0.00000E+00
    0.86847E-08         0.15275E-06         0.00000E+00
    0.87436E-08         0.13029E-06         0.00000E+00
    0.87835E-08         0.10731E-06         0.00000E+00
    0.88087E-08         0.83900E-07         0.00000E+00
    0.88228E-08         0.60157E-07         0.00000E+00
    0.88294E-08         0.36181E-07         0.00000E+00
    0.88313E-08         0.12071E-07         0.00000E+00
    0.43790E-09         0.37249E-06         0.00000E+00
    0.13061E-08         0.37095E-06         0.00000E+00
    0.21521E-08         0.36778E-06         0.00000E+00
    0.29630E-08         0.36297E-06         0.00000E+00
    0.37278E-08         0.35657E-06         0.00000E+00
    0.44383E-08         0.34861E-06         0.00000E+00
    0.50890E-08         0.33914E-06         0.00000E+00
    0.56770E-08         0.32819E-06         0.00000E+00
    0.62017E-08         0.31584E-06         0.00000E+00
    0.66641E-08         0.30214E-06         0.00000E+00
    0.70671E-08         0.28715E-06         0.00000E+00
    0.74141E-08         0.27096E-06         0.00000E+00
    0.77095E-08         0.25362E-06         0.00000E+00
    0.79576E-08         0.23522E-06         0.00000E+00
    0.81630E-08         0.21584E-06         0.00000E+00
    0.83303E-08         0.19556E-06         0.00000E+00
    0.84639E-08         0.17447E-06         0.00000E+00
    0.85680E-08         0.15267E-06         0.00000E+00
    0.86468E-08         0.13023E-06         0.00000E+00
    0.87042E-08         0.10727E-06         0.00000E+00
    0.87439E-08         0.83875E-07         0.00000E+00
    0.87694E-08         0.60143E-07         0.00000E+00
    0.87837E-08         0.36175E-07         0.00000E+00
    0.87896E-08         0.12070E-07         0.00000E+00
    0.41037E-09         0.37164E-06         0.00000E+00
    0.12247E-08         0.37012E-06         0.00000E+00
    0.20205E-08         0.36697E-06         0.00000E+00
    0.27869E-08         0.36220E-06         0.00000E+00
    0.35146E-08         0.35585E-06         0.00000E+00
    0.41964E-08         0.34794E-06         0.00000E+00
    0.48271E-08         0.33852E-06         0.00000E+00
    0.54034E-08         0.32764E-06         0.00000E+00
    0.59241E-08         0.31535E-06         0.00000E+00
    0.63892E-08         0.30170E-06         0.00000E+00
    0.68002E-08         0.28678E-06         0.00000E+00
    0.71596E-08         0.27063E-06         0.00000E+00
    0.74704E-08         0.25334E-06         0.00000E+00
    0.77360E-08         0.23498E-06         0.00000E+00
    0.79600E-08         0.21564E-06         0.00000E+00
    0.81462E-08         0.19540E-06         0.00000E+00
    0.82983E-08         0.17435E-06         0.00000E+00
    0.84201E-08         0.15257E-06         0.00000E+00
    0.85152E-08         0.13016E-06         0.00000E+00
    0.85869E-08         0.10722E-06         0.00000E+00
    0.86387E-08         0.83838E-07         0.00000E+00
    0.86736E-08         0.60120E-07         0.00000E+00
    0.86944E-08         0.36163E-07         0.00000E+00
    0.87036E-08         0.12067E-07         0.00000E+00
    0.38642E-09         0.37084E-06         0.00000E+00
    0.11537E-08         0.36933E-06         0.00000E+00
    0.19050E-08         0.36621E-06         0.00000E+00
    0.26313E-08         0.36147E-06         0.00000E+00
    0.33247E-08         0.35516E-06         0.00000E+00
    0.39787E-08         0.34730E-06         0.00000E+00
    0.45884E-08         0.33793E-06         0.00000E+00
    0.51507E-08         0.32710E-06         0.00000E+00
    0.56636E-08         0.31486E-06         0.00000E+00
    0.61267E-08         0.30127E-06         0.00000E+00
    0.65407E-08         0.28639E-06         0.00000E+00
    0.69069E-08         0.27029E-06         0.00000E+00
    0.72276E-08         0.25305E-06         0.00000E+00
    0.75052E-08         0.23473E-06         0.00000E+00
    0.77427E-08         0.21543E-06         0.00000E+00
    0.79431E-08         0.19523E-06         0.00000E+00
    0.81096E-08         0.17420E-06         0.00000E+00
    0.82452E-08         0.15245E-06         0.00000E+00
    0.83532E-08         0.13007E-06         0.00000E+00
    0.84365E-08         0.10715E-06         0.00000E+00
    0.84981E-08         0.83791E-07         0.00000E+00
    0.85407E-08         0.60089E-07         0.00000E+00
    0.85668E-08         0.36146E-07         0.00000E+00
    0.85788E-08         0.12062E-07         0.00000E+00
    0.36516E-09         0.37009E-06         0.00000E+00
    0.10905E-08         0.36859E-06         0.00000E+00
    0.18018E-08         0.36548E-06         0.00000E+00
    0.24915E-08         0.36078E-06         0.00000E+00
    0.31526E-08         0.35450E-06         0.00000E+00
    0.37795E-08         0.34668E-06         0.00000E+00
    0.43678E-08         0.33735E-06         0.00000E+00
    0.49141E-08         0.32657E-06         0.00000E+00
    0.54165E-08         0.31437E-06         0.00000E+00
    0.58741E-08         0.30083E-06         0.00000E+00
    0.62867E-08         0.28600E-06         0.00000E+00
    0.66553E-08         0.26995E-06         0.00000E+00
    0.69813E-08         0.25275E-06         0.00000E+00
    0.72665E-08         0.23447E-06         0.00000E+00
    0.75131E-08         0.21521E-06         0.00000E+00
    0.77236E-08         0.19504E-06         0.00000E+00
    0.79006E-08         0.17405E-06         0.00000E+00
    0.80467E-08         0.15233E-06         0.00000E+00
    0.81646E-08         0.12997E-06         0.00000E+00
    0.82569E-08         0.10708E-06         0.00000E+00
    0.83262E-08         0.83736E-07         0.00000E+00
    0.83750E-08         0.60053E-07         0.00000E+00
    0.84055E-08         0.36126E-07         0.00000E+00
    0.84197E-08         0.12056E-07         0.00000E+00
    0.34594E-09         0.36938E-06         0.00000E+00
    0.10332E-08         0.36789E-06         0.00000E+00
    0.17080E-08         0.36480E-06         0.00000E+00
    0.23636E-08         0.36012E-06         0.00000E+00
    0.29941E-08         0.35387E-06         0.00000E+00
    0.35947E-08         0.34608E-06         0.00000E+00
    0.41610E-08         0.33679E-06         0.00000E+00
    0.46901E-08         0.32605E-06         0.00000E+00
    0.51798E-08         0.31390E-06         0.00000E+00
    0.56289E-08         0.30040E-06         0.00000E+00
    0.60369E-08         0.28561E-06         0.00000E+00
    0.64042E-08         0.26960E-06         0.00000E+00
    0.67316E-08         0.25244E-06         0.00000E+00
    0.70205E-08         0.23421E-06         0.00000E+00
    0.72725E-08         0.21498E-06         0.00000E+00
    0.74896E-08         0.19484E-06         0.00000E+00
    0.76738E-08         0.17388E-06         0.00000E+00
    0.78274E-08         0.15219E-06         0.00000E+00
    0.79526E-08         0.12986E-06         0.00000E+00
    0.80517E-08         0.10699E-06         0.00000E+00
    0.81270E-08         0.83675E-07         0.00000E+00
    0.81805E-08         0.60012E-07         0.00000E+00
    0.82144E-08         0.36103E-07         0.00000E+00
    0.82304E-08         0.12049E-07         0.00000E+00
    0.32824E-09         0.36870E-06         0.00000E+00
    0.98042E-09         0.36723E-06         0.00000E+00
    0.16211E-08         0.36415E-06         0.00000E+00
    0.22447E-08         0.35949E-06         0.00000E+00
    0.28460E-08         0.35327E-06         0.00000E+00
    0.34207E-08         0.34551E-06         0.00000E+00
    0.39648E-08         0.33625E-06         0.00000E+00
    0.44756E-08         0.32555E-06         0.00000E+00
    0.49509E-08         0.31344E-06         0.00000E+00
    0.53892E-08         0.29997E-06         0.00000E+00
    0.57899E-08         0.28522E-06         0.00000E+00
    0.61529E-08         0.26925E-06         0.00000E+00
    0.64787E-08         0.25213E-06         0.00000E+00
    0.67680E-08         0.23393E-06         0.00000E+00
    0.70223E-08         0.21474E-06         0.00000E+00
    0.72428E-08         0.19464E-06         0.00000E+00
    0.74314E-08         0.17371E-06         0.00000E+00
    0.75899E-08         0.15205E-06         0.00000E+00
    0.77201E-08         0.12975E-06         0.00000E+00
    0.78240E-08         0.10690E-06         0.00000E+00
    0.79036E-08         0.83609E-07         0.00000E+00
    0.79607E-08         0.59967E-07         0.00000E+00
    0.79971E-08         0.36077E-07         0.00000E+00
    0.80145E-08         0.12041E-07         0.00000E+00
    0.31168E-09         0.36806E-06         0.00000E+00
    0.93095E-09         0.36659E-06         0.00000E+00
    0.15395E-08         0.36353E-06         0.00000E+00
    0.21326E-08         0.35889E-06         0.00000E+00
    0.27057E-08         0.35269E-06         0.00000E+00
    0.32549E-08         0.34496E-06         0.00000E+00
    0.37767E-08         0.33574E-06         0.00000E+00
    0.42684E-08         0.32506E-06         0.00000E+00
    0.47278E-08         0.31299E-06         0.00000E+00
    0.51536E-08         0.29956E-06         0.00000E+00
    0.55447E-08         0.28485E-06         0.00000E+00
    0.59009E-08         0.26891E-06         0.00000E+00
    0.62223E-08         0.25183E-06         0.00000E+00
    0.65095E-08         0.23366E-06         0.00000E+00
    0.67632E-08         0.21451E-06         0.00000E+00
    0.69847E-08         0.19443E-06         0.00000E+00
    0.71752E-08         0.17354E-06         0.00000E+00
    0.73363E-08         0.15191E-06         0.00000E+00
    0.74695E-08         0.12963E-06         0.00000E+00
    0.75764E-08         0.10681E-06         0.00000E+00
    0.76589E-08         0.83540E-07         0.00000E+00
    0.77184E-08         0.59920E-07         0.00000E+00
    0.77566E-08         0.36050E-07         0.00000E+00
    0.77750E-08         0.12032E-07         0.00000E+00
    0.29596E-09         0.36746E-06         0.00000E+00
    0.88396E-09         0.36600E-06         0.00000E+00
    0.14619E-08         0.36295E-06         0.00000E+00
    0.20257E-08         0.35832E-06         0.00000E+00
    0.25713E-08         0.35214E-06         0.00000E+00
    0.30953E-08         0.34444E-06         0.00000E+00
    0.35945E-08         0.33524E-06         0.00000E+00
    0.40664E-08         0.32460E-06         0.00000E+00
    0.45089E-08         0.31255E-06         0.00000E+00
    0.49206E-08         0.29916E-06         0.00000E+00
    0.53003E-08         0.28448E-06         0.00000E+00
    0.56477E-08         0.26858E-06         0.00000E+00
    0.59626E-08         0.25152E-06         0.00000E+00
    0.62453E-08         0.23340E-06         0.00000E+00
    0.64962E-08         0.21427E-06         0.00000E+00
    0.67163E-08         0.19423E-06         0.00000E+00
    0.69066E-08         0.17336E-06         0.00000E+00
    0.70684E-08         0.15176E-06         0.00000E+00
    0.72028E-08         0.12951E-06         0.00000E+00
    0.73113E-08         0.10671E-06         0.00000E+00
    0.73954E-08         0.83468E-07         0.00000E+00
    0.74563E-08         0.59871E-07         0.00000E+00
    0.74957E-08         0.36022E-07         0.00000E+00
    0.75147E-08         0.12023E-07         0.00000E+00
    0.28086E-09         0.36688E-06         0.00000E+00
    0.83877E-09         0.36543E-06         0.00000E+00
    0.13872E-08         0.36239E-06         0.00000E+00
    0.19225E-08         0.35778E-06         0.00000E+00
    0.24412E-08         0.35162E-06         0.00000E+00
    0.29401E-08         0.34394E-06         0.00000E+00
    0.34166E-08         0.33477E-06         0.00000E+00
    0.38681E-08         0.32415E-06         0.00000E+00
    0.42928E-08         0.31213E-06         0.00000E+00
    0.46892E-08         0.29877E-06         0.00000E+00
    0.50561E-08         0.28412E-06         0.00000E+00
    0.53930E-08         0.26825E-06         0.00000E+00
    0.56995E-08         0.25123E-06         0.00000E+00
    0.59757E-08         0.23313E-06         0.00000E+00
    0.62219E-08         0.21404E-06         0.00000E+00
    0.64388E-08         0.19403E-06         0.00000E+00
    0.66271E-08         0.17319E-06         0.00000E+00
    0.67877E-08         0.15161E-06         0.00000E+00
    0.69218E-08         0.12939E-06         0.00000E+00
    0.70306E-08         0.10662E-06         0.00000E+00
    0.71151E-08         0.83396E-07         0.00000E+00
    0.71768E-08         0.59820E-07         0.00000E+00
    0.72167E-08         0.35993E-07         0.00000E+00
    0.72360E-08         0.12014E-07         0.00000E+00
    0.26620E-09         0.36633E-06         0.00000E+00
    0.79488E-09         0.36489E-06         0.00000E+00
    0.13145E-08         0.36186E-06         0.00000E+00
    0.18219E-08         0.35726E-06         0.00000E+00
    0.23141E-08         0.35112E-06         0.00000E+00
    0.27882E-08         0.34346E-06         0.00000E+00
    0.32417E-08         0.33431E-06         0.00000E+00
    0.36724E-08         0.32372E-06         0.00000E+00
    0.40785E-08         0.31173E-06         0.00000E+00
    0.44585E-08         0.29839E-06         0.00000E+00
    0.48113E-08         0.28378E-06         0.00000E+00
    0.51363E-08         0.26793E-06         0.00000E+00
    0.54328E-08         0.25094E-06         0.00000E+00
    0.57010E-08         0.23287E-06         0.00000E+00
    0.59409E-08         0.21381E-06         0.00000E+00
    0.61529E-08         0.19383E-06         0.00000E+00
    0.63376E-08         0.17301E-06         0.00000E+00
    0.64957E-08         0.15146E-06         0.00000E+00
    0.66282E-08         0.12927E-06         0.00000E+00
    0.67360E-08         0.10652E-06         0.00000E+00
    0.68201E-08         0.83323E-07         0.00000E+00
    0.68816E-08         0.59770E-07         0.00000E+00
    0.69215E-08         0.35963E-07         0.00000E+00
    0.69410E-08         0.12005E-07         0.00000E+00
    0.25183E-09         0.36582E-06         0.00000E+00
    0.75187E-09         0.36438E-06         0.00000E+00
    0.12433E-08         0.36136E-06         0.00000E+00
    0.17233E-08         0.35678E-06         0.00000E+00
    0.21892E-08         0.35065E-06         0.00000E+00
    0.26385E-08         0.34301E-06         0.00000E+00
    0.30689E-08         0.33388E-06         0.00000E+00
    0.34783E-08         0.32331E-06         0.00000E+00
    0.38652E-08         0.31134E-06         0.00000E+00
    0.42280E-08         0.29804E-06         0.00000E+00
    0.45656E-08         0.28344E-06         0.00000E+00
    0.48774E-08         0.26763E-06         0.00000E+00
    0.51628E-08         0.25067E-06         0.00000E+00
    0.54215E-08         0.23262E-06         0.00000E+00
    0.56536E-08         0.21358E-06         0.00000E+00
    0.58593E-08         0.19363E-06         0.00000E+00
    0.60391E-08         0.17285E-06         0.00000E+00
    0.61935E-08         0.15132E-06         0.00000E+00
    0.63232E-08         0.12915E-06         0.00000E+00
    0.64290E-08         0.10643E-06         0.00000E+00
    0.65119E-08         0.83251E-07         0.00000E+00
    0.65726E-08         0.59720E-07         0.00000E+00
    0.66122E-08         0.35934E-07         0.00000E+00
    0.66315E-08         0.11995E-07         0.00000E+00
    0.23765E-09         0.36533E-06         0.00000E+00
    0.70944E-09         0.36389E-06         0.00000E+00
    0.11730E-08         0.36089E-06         0.00000E+00
    0.16258E-08         0.35632E-06         0.00000E+00
    0.20656E-08         0.35021E-06         0.00000E+00
    0.24901E-08         0.34258E-06         0.00000E+00
    0.28972E-08         0.33347E-06         0.00000E+00
    0.32850E-08         0.32292E-06         0.00000E+00
    0.36521E-08         0.31098E-06         0.00000E+00
    0.39970E-08         0.29769E-06         0.00000E+00
    0.43186E-08         0.28313E-06         0.00000E+00
    0.46162E-08         0.26734E-06         0.00000E+00
    0.48892E-08         0.25040E-06         0.00000E+00
    0.51374E-08         0.23238E-06         0.00000E+00
    0.53605E-08         0.21337E-06         0.00000E+00
    0.55588E-08         0.19344E-06         0.00000E+00
    0.57325E-08         0.17268E-06         0.00000E+00
    0.58821E-08         0.15118E-06         0.00000E+00
    0.60080E-08         0.12903E-06         0.00000E+00
    0.61111E-08         0.10633E-06         0.00000E+00
    0.61919E-08         0.83181E-07         0.00000E+00
    0.62513E-08         0.59670E-07         0.00000E+00
    0.62901E-08         0.35905E-07         0.00000E+00
    0.63090E-08         0.11986E-07         0.00000E+00
    0.22358E-09         0.36486E-06         0.00000E+00
    0.66735E-09         0.36344E-06         0.00000E+00
    0.11033E-08         0.36044E-06         0.00000E+00
    0.15291E-08         0.35588E-06         0.00000E+00
    0.19429E-08         0.34979E-06         0.00000E+00
    0.23425E-08         0.34217E-06         0.00000E+00
    0.27261E-08         0.33308E-06         0.00000E+00
    0.30920E-08         0.32255E-06         0.00000E+00
    0.34388E-08         0.31063E-06         0.00000E+00
    0.37651E-08         0.29737E-06         0.00000E+00
    0.40700E-08         0.28282E-06         0.00000E+00
    0.43526E-08         0.26706E-06         0.00000E+00
    0.46123E-08         0.25014E-06         0.00000E+00
    0.48489E-08         0.23215E-06         0.00000E+00
    0.50621E-08         0.21316E-06         0.00000E+00
    0.52519E-08         0.19326E-06         0.00000E+00
    0.54186E-08         0.17252E-06         0.00000E+00
    0.55624E-08         0.15105E-06         0.00000E+00
    0.56837E-08         0.12892E-06         0.00000E+00
    0.57832E-08         0.10624E-06         0.00000E+00
    0.58614E-08         0.83112E-07         0.00000E+00
    0.59190E-08         0.59622E-07         0.00000E+00
    0.59566E-08         0.35877E-07         0.00000E+00
    0.59751E-08         0.11977E-07         0.00000E+00
    0.20956E-09         0.36443E-06         0.00000E+00
    0.62542E-09         0.36301E-06         0.00000E+00
    0.10338E-08         0.36002E-06         0.00000E+00
    0.14328E-08         0.35548E-06         0.00000E+00
    0.18205E-08         0.34939E-06         0.00000E+00
    0.21952E-08         0.34179E-06         0.00000E+00
    0.25551E-08         0.33272E-06         0.00000E+00
    0.28988E-08         0.32221E-06         0.00000E+00
    0.32248E-08         0.31031E-06         0.00000E+00
    0.35321E-08         0.29706E-06         0.00000E+00
    0.38195E-08         0.28254E-06         0.00000E+00
    0.40864E-08         0.26680E-06         0.00000E+00
    0.43321E-08         0.24990E-06         0.00000E+00
    0.45563E-08         0.23193E-06         0.00000E+00
    0.47586E-08         0.21297E-06         0.00000E+00
    0.49392E-08         0.19308E-06         0.00000E+00
    0.50979E-08         0.17237E-06         0.00000E+00
    0.52352E-08         0.15092E-06         0.00000E+00
    0.53512E-08         0.12881E-06         0.00000E+00
    0.54465E-08         0.10616E-06         0.00000E+00
    0.55215E-08         0.83045E-07         0.00000E+00
    0.55768E-08         0.59576E-07         0.00000E+00
    0.56131E-08         0.35849E-07         0.00000E+00
    0.56309E-08         0.11968E-07         0.00000E+00
    0.19554E-09         0.36403E-06         0.00000E+00
    0.58351E-09         0.36261E-06         0.00000E+00
    0.96437E-09         0.35963E-06         0.00000E+00
    0.13365E-08         0.35510E-06         0.00000E+00
    0.16981E-08         0.34902E-06         0.00000E+00
    0.20478E-08         0.34144E-06         0.00000E+00
    0.23839E-08         0.33238E-06         0.00000E+00
    0.27050E-08         0.32188E-06         0.00000E+00
    0.30100E-08         0.31000E-06         0.00000E+00
    0.32977E-08         0.29677E-06         0.00000E+00
    0.35672E-08         0.28227E-06         0.00000E+00
    0.38177E-08         0.26655E-06         0.00000E+00
    0.40487E-08         0.24968E-06         0.00000E+00
    0.42597E-08         0.23173E-06         0.00000E+00
    0.44505E-08         0.21278E-06         0.00000E+00
    0.46210E-08         0.19292E-06         0.00000E+00
    0.47712E-08         0.17223E-06         0.00000E+00
    0.49012E-08         0.15079E-06         0.00000E+00
    0.50113E-08         0.12871E-06         0.00000E+00
    0.51018E-08         0.10607E-06         0.00000E+00
    0.51732E-08         0.82982E-07         0.00000E+00
    0.52259E-08         0.59531E-07         0.00000E+00
    0.52605E-08         0.35823E-07         0.00000E+00
    0.52775E-08         0.11959E-07         0.00000E+00
    0.18150E-09         0.36365E-06         0.00000E+00
    0.54151E-09         0.36224E-06         0.00000E+00
    0.89484E-09         0.35927E-06         0.00000E+00
    0.12400E-08         0.35474E-06         0.00000E+00
    0.15755E-08         0.34868E-06         0.00000E+00
    0.19000E-08         0.34111E-06         0.00000E+00
    0.22121E-08         0.33206E-06         0.00000E+00
    0.25105E-08         0.32158E-06         0.00000E+00
    0.27940E-08         0.30971E-06         0.00000E+00
    0.30618E-08         0.29651E-06         0.00000E+00
    0.33129E-08         0.28202E-06         0.00000E+00
    0.35465E-08         0.26631E-06         0.00000E+00
    0.37622E-08         0.24946E-06         0.00000E+00
    0.39595E-08         0.23153E-06         0.00000E+00
    0.41381E-08         0.21261E-06         0.00000E+00
    0.42979E-08         0.19276E-06         0.00000E+00
    0.44389E-08         0.17209E-06         0.00000E+00
    0.45611E-08         0.15068E-06         0.00000E+00
    0.46647E-08         0.12861E-06         0.00000E+00
    0.47500E-08         0.10600E-06         0.00000E+00
    0.48174E-08         0.82922E-07         0.00000E+00
    0.48672E-08         0.59489E-07         0.00000E+00
    0.48999E-08         0.35798E-07         0.00000E+00
    0.49160E-08         0.11951E-07         0.00000E+00
    0.16739E-09         0.36330E-06         0.00000E+00
    0.49937E-09         0.36190E-06         0.00000E+00
    0.82509E-09         0.35893E-06         0.00000E+00
    0.11433E-08         0.35441E-06         0.00000E+00
    0.14526E-08         0.34836E-06         0.00000E+00
    0.17518E-08         0.34080E-06         0.00000E+00
    0.20396E-08         0.33177E-06         0.00000E+00
    0.23150E-08         0.32130E-06         0.00000E+00
    0.25769E-08         0.30945E-06         0.00000E+00
    0.28243E-08         0.29626E-06         0.00000E+00
    0.30566E-08         0.28178E-06         0.00000E+00
    0.32729E-08         0.26610E-06         0.00000E+00
    0.34728E-08         0.24926E-06         0.00000E+00
    0.36559E-08         0.23135E-06         0.00000E+00
    0.38218E-08         0.21244E-06         0.00000E+00
    0.39704E-08         0.19262E-06         0.00000E+00
    0.41016E-08         0.17196E-06         0.00000E+00
    0.42154E-08         0.15057E-06         0.00000E+00
    0.43121E-08         0.12852E-06         0.00000E+00
    0.43918E-08         0.10592E-06         0.00000E+00
    0.44548E-08         0.82865E-07         0.00000E+00
    0.45014E-08         0.59449E-07         0.00000E+00
    0.45321E-08         0.35775E-07         0.00000E+00
    0.45472E-08         0.11943E-07         0.00000E+00
    0.15321E-09         0.36298E-06         0.00000E+00
    0.45702E-09         0.36158E-06         0.00000E+00
    0.75503E-09         0.35863E-06         0.00000E+00
    0.10461E-08         0.35411E-06         0.00000E+00
    0.13291E-08         0.34807E-06         0.00000E+00
    0.16028E-08         0.34052E-06         0.00000E+00
    0.18663E-08         0.33150E-06         0.00000E+00
    0.21185E-08         0.32104E-06         0.00000E+00
    0.23584E-08         0.30920E-06         0.00000E+00
    0.25852E-08         0.29603E-06         0.00000E+00
    0.27983E-08         0.28157E-06         0.00000E+00
    0.29969E-08         0.26590E-06         0.00000E+00
    0.31806E-08         0.24908E-06         0.00000E+00
    0.33490E-08         0.23118E-06         0.00000E+00
    0.35017E-08         0.21229E-06         0.00000E+00
    0.36387E-08         0.19248E-06         0.00000E+00
    0.37597E-08         0.17185E-06         0.00000E+00
    0.38648E-08         0.15047E-06         0.00000E+00
    0.39542E-08         0.12844E-06         0.00000E+00
    0.40279E-08         0.10585E-06         0.00000E+00
    0.40862E-08         0.82812E-07         0.00000E+00
    0.41294E-08         0.59412E-07         0.00000E+00
    0.41579E-08         0.35753E-07         0.00000E+00
    0.41719E-08         0.11936E-07         0.00000E+00
    0.13896E-09         0.36269E-06         0.00000E+00
    0.41445E-09         0.36130E-06         0.00000E+00
    0.68463E-09         0.35834E-06         0.00000E+00
    0.94847E-09         0.35384E-06         0.00000E+00
    0.12050E-08         0.34780E-06         0.00000E+00
    0.14532E-08         0.34026E-06         0.00000E+00
    0.16921E-08         0.33125E-06         0.00000E+00
    0.19208E-08         0.32081E-06         0.00000E+00
    0.21386E-08         0.30898E-06         0.00000E+00
    0.23446E-08         0.29582E-06         0.00000E+00
    0.25382E-08         0.28137E-06         0.00000E+00
    0.27188E-08         0.26572E-06         0.00000E+00
    0.28859E-08         0.24891E-06         0.00000E+00
    0.30392E-08         0.23103E-06         0.00000E+00
    0.31784E-08         0.21215E-06         0.00000E+00
    0.33032E-08         0.19236E-06         0.00000E+00
    0.34137E-08         0.17174E-06         0.00000E+00
    0.35098E-08         0.15037E-06         0.00000E+00
    0.35914E-08         0.12836E-06         0.00000E+00
    0.36589E-08         0.10579E-06         0.00000E+00
    0.37123E-08         0.82764E-07         0.00000E+00
    0.37519E-08         0.59378E-07         0.00000E+00
    0.37780E-08         0.35732E-07         0.00000E+00
    0.37909E-08         0.11930E-07         0.00000E+00
    0.12461E-09         0.36242E-06         0.00000E+00
    0.37164E-09         0.36104E-06         0.00000E+00
    0.61384E-09         0.35809E-06         0.00000E+00
    0.85034E-09         0.35359E-06         0.00000E+00
    0.10803E-08         0.34756E-06         0.00000E+00
    0.13027E-08         0.34003E-06         0.00000E+00
    0.15170E-08         0.33103E-06         0.00000E+00
    0.17221E-08         0.32060E-06         0.00000E+00
    0.19175E-08         0.30878E-06         0.00000E+00
    0.21024E-08         0.29563E-06         0.00000E+00
    0.22762E-08         0.28120E-06         0.00000E+00
    0.24385E-08         0.26555E-06         0.00000E+00
    0.25888E-08         0.24876E-06         0.00000E+00
    0.27267E-08         0.23089E-06         0.00000E+00
    0.28520E-08         0.21203E-06         0.00000E+00
    0.29645E-08         0.19225E-06         0.00000E+00
    0.30640E-08         0.17164E-06         0.00000E+00
    0.31507E-08         0.15029E-06         0.00000E+00
    0.32244E-08         0.12829E-06         0.00000E+00
    0.32854E-08         0.10573E-06         0.00000E+00
    0.33337E-08         0.82720E-07         0.00000E+00
    0.33695E-08         0.59346E-07         0.00000E+00
    0.33931E-08         0.35714E-07         0.00000E+00
    0.34048E-08         0.11924E-07         0.00000E+00
    0.11019E-09         0.36219E-06         0.00000E+00
    0.32859E-09         0.36081E-06         0.00000E+00
    0.54268E-09         0.35786E-06         0.00000E+00
    0.75171E-09         0.35337E-06         0.00000E+00
    0.95492E-09         0.34735E-06         0.00000E+00
    0.11516E-08         0.33983E-06         0.00000E+00
    0.13409E-08         0.33083E-06         0.00000E+00
    0.15223E-08         0.32041E-06         0.00000E+00
    0.16951E-08         0.30860E-06         0.00000E+00
    0.18587E-08         0.29546E-06         0.00000E+00
    0.20126E-08         0.28104E-06         0.00000E+00
    0.21563E-08         0.26540E-06         0.00000E+00
    0.22894E-08         0.24862E-06         0.00000E+00
    0.24117E-08         0.23077E-06         0.00000E+00
    0.25228E-08         0.21192E-06         0.00000E+00
    0.26227E-08         0.19215E-06         0.00000E+00
    0.27111E-08         0.17155E-06         0.00000E+00
    0.27881E-08         0.15021E-06         0.00000E+00
    0.28537E-08         0.12823E-06         0.00000E+00
    0.29079E-08         0.10568E-06         0.00000E+00
    0.29509E-08         0.82680E-07         0.00000E+00
    0.29828E-08         0.59318E-07         0.00000E+00
    0.30038E-08         0.35697E-07         0.00000E+00
    0.30142E-08         0.11918E-07         0.00000E+00
    0.95681E-10         0.36198E-06         0.00000E+00
    0.28531E-09         0.36061E-06         0.00000E+00
    0.47116E-09         0.35767E-06         0.00000E+00
    0.65260E-09         0.35318E-06         0.00000E+00
    0.82898E-09         0.34716E-06         0.00000E+00
    0.99967E-09         0.33965E-06         0.00000E+00
    0.11641E-08         0.33066E-06         0.00000E+00
    0.13216E-08         0.32024E-06         0.00000E+00
    0.14716E-08         0.30844E-06         0.00000E+00
    0.16138E-08         0.29531E-06         0.00000E+00
    0.17475E-08         0.28090E-06         0.00000E+00
    0.18724E-08         0.26527E-06         0.00000E+00
    0.19882E-08         0.24850E-06         0.00000E+00
    0.20946E-08         0.23066E-06         0.00000E+00
    0.21913E-08         0.21182E-06         0.00000E+00
    0.22783E-08         0.19206E-06         0.00000E+00
    0.23554E-08         0.17147E-06         0.00000E+00
    0.24225E-08         0.15015E-06         0.00000E+00
    0.24797E-08         0.12817E-06         0.00000E+00
    0.25270E-08         0.10564E-06         0.00000E+00
    0.25645E-08         0.82645E-07         0.00000E+00
    0.25924E-08         0.59294E-07         0.00000E+00
    0.26108E-08         0.35683E-07         0.00000E+00
    0.26199E-08         0.11913E-07         0.00000E+00
    0.81099E-10         0.36181E-06         0.00000E+00
    0.24181E-09         0.36043E-06         0.00000E+00
    0.39930E-09         0.35750E-06         0.00000E+00
    0.55303E-09         0.35301E-06         0.00000E+00
    0.70248E-09         0.34700E-06         0.00000E+00
    0.84711E-09         0.33949E-06         0.00000E+00
    0.98641E-09         0.33051E-06         0.00000E+00
    0.11199E-08         0.32010E-06         0.00000E+00
    0.12471E-08         0.30831E-06         0.00000E+00
    0.13676E-08         0.29518E-06         0.00000E+00
    0.14810E-08         0.28078E-06         0.00000E+00
    0.15870E-08         0.26516E-06         0.00000E+00
    0.16853E-08         0.24840E-06         0.00000E+00
    0.17756E-08         0.23056E-06         0.00000E+00
    0.18577E-08         0.21173E-06         0.00000E+00
    0.19316E-08         0.19199E-06         0.00000E+00
    0.19971E-08         0.17141E-06         0.00000E+00
    0.20542E-08         0.15009E-06         0.00000E+00
    0.21029E-08         0.12812E-06         0.00000E+00
    0.21431E-08         0.10560E-06         0.00000E+00
    0.21751E-08         0.82615E-07         0.00000E+00
    0.21988E-08         0.59272E-07         0.00000E+00
    0.22145E-08         0.35670E-07         0.00000E+00
    0.22222E-08         0.11909E-07         0.00000E+00
    0.66450E-10         0.36166E-06         0.00000E+00
    0.19812E-09         0.36029E-06         0.00000E+00
    0.32714E-09         0.35736E-06         0.00000E+00
    0.45306E-09         0.35288E-06         0.00000E+00
    0.57548E-09         0.34687E-06         0.00000E+00
    0.69395E-09         0.33936E-06         0.00000E+00
    0.80806E-09         0.33039E-06         0.00000E+00
    0.91742E-09         0.31998E-06         0.00000E+00
    0.10217E-08         0.30819E-06         0.00000E+00
    0.11204E-08         0.29507E-06         0.00000E+00
    0.12134E-08         0.28068E-06         0.00000E+00
    0.13003E-08         0.26507E-06         0.00000E+00
    0.13809E-08         0.24831E-06         0.00000E+00
    0.14550E-08         0.23049E-06         0.00000E+00
    0.15224E-08         0.21166E-06         0.00000E+00
    0.15830E-08         0.19192E-06         0.00000E+00
    0.16368E-08         0.17135E-06         0.00000E+00
    0.16837E-08         0.15004E-06         0.00000E+00
    0.17237E-08         0.12808E-06         0.00000E+00
    0.17568E-08         0.10556E-06         0.00000E+00
    0.17831E-08         0.82589E-07         0.00000E+00
    0.18026E-08         0.59254E-07         0.00000E+00
    0.18155E-08         0.35659E-07         0.00000E+00
    0.18219E-08         0.11906E-07         0.00000E+00
    0.51744E-10         0.36154E-06         0.00000E+00
    0.15427E-09         0.36017E-06         0.00000E+00
    0.25472E-09         0.35724E-06         0.00000E+00
    0.35275E-09         0.35277E-06         0.00000E+00
    0.44805E-09         0.34676E-06         0.00000E+00
    0.54028E-09         0.33926E-06         0.00000E+00
    0.62912E-09         0.33029E-06         0.00000E+00
    0.71427E-09         0.31989E-06         0.00000E+00
    0.79543E-09         0.30810E-06         0.00000E+00
    0.87235E-09         0.29499E-06         0.00000E+00
    0.94476E-09         0.28060E-06         0.00000E+00
    0.10125E-08         0.26499E-06         0.00000E+00
    0.10753E-08         0.24825E-06         0.00000E+00
    0.11330E-08         0.23042E-06         0.00000E+00
    0.11856E-08         0.21160E-06         0.00000E+00
    0.12329E-08         0.19187E-06         0.00000E+00
    0.12748E-08         0.17131E-06         0.00000E+00
    0.13114E-08         0.15000E-06         0.00000E+00
    0.13426E-08         0.12805E-06         0.00000E+00
    0.13685E-08         0.10554E-06         0.00000E+00
    0.13890E-08         0.82569E-07         0.00000E+00
    0.14042E-08         0.59240E-07         0.00000E+00
    0.14143E-08         0.35651E-07         0.00000E+00
    0.14193E-08         0.11903E-07         0.00000E+00
    0.36993E-10         0.36145E-06         0.00000E+00
    0.11029E-09         0.36008E-06         0.00000E+00
    0.18209E-09         0.35716E-06         0.00000E+00
    0.25217E-09         0.35268E-06         0.00000E+00
    0.32029E-09         0.34668E-06         0.00000E+00
    0.38621E-09         0.33918E-06         0.00000E+00
    0.44972E-09         0.33021E-06         0.00000E+00
    0.51059E-09         0.31982E-06         0.00000E+00
    0.56861E-09         0.30804E-06         0.00000E+00
    0.62360E-09         0.29492E-06         0.00000E+00
    0.67538E-09         0.28054E-06         0.00000E+00
    0.72380E-09         0.26494E-06         0.00000E+00
    0.76872E-09         0.24819E-06         0.00000E+00
    0.81004E-09         0.23038E-06         0.00000E+00
    0.84765E-09         0.21156E-06         0.00000E+00
    0.88150E-09         0.19183E-06         0.00000E+00
    0.91153E-09         0.17127E-06         0.00000E+00
    0.93772E-09         0.14997E-06         0.00000E+00
    0.96006E-09         0.12802E-06         0.00000E+00
    0.97857E-09         0.10552E-06         0.00000E+00
    0.99326E-09         0.82554E-07         0.00000E+00
    0.10042E-08         0.59229E-07         0.00000E+00
    0.10114E-08         0.35644E-07         0.00000E+00
    0.10150E-08         0.11901E-07         0.00000E+00
    0.22209E-10         0.36139E-06         0.00000E+00
    0.66212E-10         0.36003E-06         0.00000E+00
    0.10932E-09         0.35710E-06         0.00000E+00
    0.15138E-09         0.35263E-06         0.00000E+00
    0.19227E-09         0.34663E-06         0.00000E+00
    0.23185E-09         0.33913E-06         0.00000E+00
    0.26997E-09         0.33016E-06         0.00000E+00
    0.30651E-09         0.31977E-06         0.00000E+00
    0.34134E-09         0.30799E-06         0.00000E+00
    0.37436E-09         0.29488E-06         0.00000E+00
    0.40545E-09         0.28050E-06         0.00000E+00
    0.43453E-09         0.26490E-06         0.00000E+00
    0.46150E-09         0.24816E-06         0.00000E+00
    0.48632E-09         0.23034E-06         0.00000E+00
    0.50891E-09         0.21153E-06         0.00000E+00
    0.52925E-09         0.19181E-06         0.00000E+00
    0.54729E-09         0.17125E-06         0.00000E+00
    0.56303E-09         0.14995E-06         0.00000E+00
    0.57646E-09         0.12801E-06         0.00000E+00
    0.58758E-09         0.10550E-06         0.00000E+00
    0.59641E-09         0.82543E-07         0.00000E+00
    0.60298E-09         0.59222E-07         0.00000E+00
    0.60732E-09         0.35640E-07         0.00000E+00
    0.60947E-09         0.11899E-07         0.00000E+00
    0.74053E-11         0.36136E-06         0.00000E+00
    0.22077E-10         0.36000E-06         0.00000E+00
    0.36449E-10         0.35707E-06         0.00000E+00
    0.50474E-10         0.35260E-06         0.00000E+00
    0.64107E-10         0.34660E-06         0.00000E+00
    0.77302E-10         0.33910E-06         0.00000E+00
    0.90013E-10         0.33014E-06         0.00000E+00
    0.10220E-09         0.31974E-06         0.00000E+00
    0.11381E-09         0.30797E-06         0.00000E+00
    0.12482E-09         0.29486E-06         0.00000E+00
    0.13519E-09         0.28048E-06         0.00000E+00
    0.14488E-09         0.26488E-06         0.00000E+00
    0.15388E-09         0.24814E-06         0.00000E+00
    0.16216E-09         0.23033E-06         0.00000E+00
    0.16969E-09         0.21152E-06         0.00000E+00
    0.17647E-09         0.19179E-06         0.00000E+00
    0.18249E-09         0.17124E-06         0.00000E+00
    0.18774E-09         0.14994E-06         0.00000E+00
    0.19222E-09         0.12800E-06         0.00000E+00
    0.19593E-09         0.10550E-06         0.00000E+00
    0.19888E-09         0.82538E-07         0.00000E+00
    0.20107E-09         0.59218E-07         0.00000E+00
    0.20252E-09         0.35638E-07         0.00000E+00
    0.20324E-09         0.11899E-07         0.00000E+00
POINT_DATA       1225
VECTORS vDarcyNodal double 
    0.70650E-07         0.59600E-07         0.00000E+00
    0.59053E-07         0.11297E-06         0.00000E+00
    0.39997E-07         0.20306E-06         0.00000E+00
    0.21094E-07         0.26060E-06         0.00000E+00
    0.12425E-07         0.29100E-06         0.00000E+00
    0.77403E-08         0.30427E-06         0.00000E+00
    0.50910E-08         0.30810E-06         0.00000E+00
    0.34857E-08         0.30603E-06         0.00000E+00
    0.24519E-08         0.29993E-06         0.00000E+00
    0.17450E-08         0.29085E-06         0.00000E+00
    0.12350E-08         0.27945E-06         0.00000E+00
    0.85103E-09         0.26617E-06         0.00000E+00
    0.56620E-09         0.25134E-06         0.00000E+00
    0.32368E-09         0.23519E-06         0.00000E+00
    0.97926E-10         0.21785E-06         0.00000E+00
   -0.41034E-10         0.19951E-06         0.00000E+00
   -0.19424E-09         0.18029E-06         0.00000E+00
   -0.26426E-09         0.16014E-06         0.00000E+00
   -0.22499E-09         0.13895E-06         0.00000E+00
   -0.14626E-09         0.11678E-06         0.00000E+00
   -0.10324E-09         0.94011E-07         0.00000E+00
   -0.84425E-10         0.70933E-07         0.00000E+00
   -0.64290E-10         0.47530E-07         0.00000E+00
   -0.51344E-10         0.23833E-07         0.00000E+00
   -0.47068E-10         0.11931E-07         0.00000E+00
    0.14907E-06         0.71197E-07         0.00000E+00
    0.13130E-06         0.12829E-06         0.00000E+00
    0.69660E-07         0.22204E-06         0.00000E+00
    0.38753E-07         0.27438E-06         0.00000E+00
    0.23077E-07         0.29767E-06         0.00000E+00
    0.14605E-07         0.30794E-06         0.00000E+00
    0.97154E-08         0.31023E-06         0.00000E+00
    0.67124E-08         0.30735E-06         0.00000E+00
    0.47564E-08         0.30080E-06         0.00000E+00
    0.34064E-08         0.29146E-06         0.00000E+00
    0.24207E-08         0.27990E-06         0.00000E+00
    0.16690E-08         0.26650E-06         0.00000E+00
    0.10955E-08         0.25160E-06         0.00000E+00
    0.66956E-09         0.23542E-06         0.00000E+00
    0.28286E-09         0.21804E-06         0.00000E+00
   -0.14160E-09         0.19966E-06         0.00000E+00
   -0.41112E-09         0.18040E-06         0.00000E+00
   -0.50359E-09         0.16015E-06         0.00000E+00
   -0.43017E-09         0.13889E-06         0.00000E+00
   -0.26969E-09         0.11672E-06         0.00000E+00
   -0.19694E-09         0.93980E-07         0.00000E+00
   -0.14999E-09         0.70914E-07         0.00000E+00
   -0.10833E-09         0.47514E-07         0.00000E+00
   -0.80458E-10         0.23824E-07         0.00000E+00
   -0.71808E-10         0.11927E-07         0.00000E+00
    0.50824E-06         0.95144E-07         0.00000E+00
    0.20938E-06         0.19238E-06         0.00000E+00
    0.11181E-06         0.29560E-06         0.00000E+00
    0.64779E-07         0.30718E-06         0.00000E+00
    0.40011E-07         0.31514E-06         0.00000E+00
    0.26069E-07         0.31763E-06         0.00000E+00
    0.17734E-07         0.31599E-06         0.00000E+00
    0.12469E-07         0.31099E-06         0.00000E+00
    0.89639E-08         0.30323E-06         0.00000E+00
    0.65016E-08         0.29319E-06         0.00000E+00
    0.46716E-08         0.28119E-06         0.00000E+00
    0.32326E-08         0.26749E-06         0.00000E+00
    0.20459E-08         0.25234E-06         0.00000E+00
    0.10892E-08         0.23600E-06         0.00000E+00
    0.31059E-09         0.21866E-06         0.00000E+00
   -0.43106E-09         0.20021E-06         0.00000E+00
   -0.81951E-09         0.18065E-06         0.00000E+00
   -0.87912E-09         0.16016E-06         0.00000E+00
   -0.75420E-09         0.13872E-06         0.00000E+00
   -0.54841E-09         0.11655E-06         0.00000E+00
   -0.33947E-09         0.93891E-07         0.00000E+00
   -0.22477E-09         0.70844E-07         0.00000E+00
   -0.12988E-09         0.47461E-07         0.00000E+00
   -0.71694E-10         0.23796E-07         0.00000E+00
   -0.54980E-10         0.11914E-07         0.00000E+00
    0.39449E-06         0.66893E-06         0.00000E+00
    0.19234E-06         0.52473E-06         0.00000E+00
    0.11417E-06         0.36663E-06         0.00000E+00
    0.72072E-07         0.34618E-06         0.00000E+00
    0.47533E-07         0.33638E-06         0.00000E+00
    0.32511E-07         0.33021E-06         0.00000E+00
    0.22943E-07         0.32382E-06         0.00000E+00
    0.16599E-07         0.31612E-06         0.00000E+00
    0.12217E-07         0.30677E-06         0.00000E+00
    0.90535E-08         0.29575E-06         0.00000E+00
    0.66533E-08         0.28317E-06         0.00000E+00
    0.47244E-08         0.26913E-06         0.00000E+00
    0.30771E-08         0.25374E-06         0.00000E+00
    0.16063E-08         0.23716E-06         0.00000E+00
    0.41503E-09         0.21956E-06         0.00000E+00
   -0.35746E-09         0.20079E-06         0.00000E+00
   -0.81085E-09         0.18085E-06         0.00000E+00
   -0.89717E-09         0.16009E-06         0.00000E+00
   -0.72130E-09         0.13856E-06         0.00000E+00
   -0.53448E-09         0.11631E-06         0.00000E+00
   -0.28008E-09         0.93656E-07         0.00000E+00
   -0.10295E-09         0.70704E-07         0.00000E+00
    0.32702E-10         0.47361E-07         0.00000E+00
    0.11033E-09         0.23749E-07         0.00000E+00
    0.13124E-09         0.11893E-07         0.00000E+00
    0.00000E+00         0.49945E-06         0.00000E+00
    0.11022E-06         0.47271E-06         0.00000E+00
    0.86858E-07         0.41588E-06         0.00000E+00
    0.63826E-07         0.37382E-06         0.00000E+00
    0.46307E-07         0.35470E-06         0.00000E+00
    0.33865E-07         0.34222E-06         0.00000E+00
    0.25106E-07         0.33190E-06         0.00000E+00
    0.18870E-07         0.32171E-06         0.00000E+00
    0.14335E-07         0.31078E-06         0.00000E+00
    0.10940E-07         0.29875E-06         0.00000E+00
    0.83104E-08         0.28552E-06         0.00000E+00
    0.61955E-08         0.27107E-06         0.00000E+00
    0.44349E-08         0.25545E-06         0.00000E+00
    0.29255E-08         0.23866E-06         0.00000E+00
    0.17009E-08         0.22063E-06         0.00000E+00
    0.87647E-09         0.20143E-06         0.00000E+00
    0.27576E-09         0.18119E-06         0.00000E+00
   -0.79388E-10         0.16007E-06         0.00000E+00
   -0.96205E-10         0.13835E-06         0.00000E+00
    0.97489E-10         0.11611E-06         0.00000E+00
    0.20874E-09         0.93459E-07         0.00000E+00
    0.34349E-09         0.70532E-07         0.00000E+00
    0.45542E-09         0.47247E-07         0.00000E+00
    0.52233E-09         0.23698E-07         0.00000E+00
    0.54009E-09         0.11872E-07         0.00000E+00
    0.00000E+00         0.44849E-06         0.00000E+00
    0.37840E-07         0.43787E-06         0.00000E+00
    0.54162E-07         0.41303E-06         0.00000E+00
    0.48615E-07         0.38673E-06         0.00000E+00
    0.39737E-07         0.36634E-06         0.00000E+00
    0.31488E-07         0.35141E-06         0.00000E+00
    0.24750E-07         0.33882E-06         0.00000E+00
    0.19466E-07         0.32689E-06         0.00000E+00
    0.15357E-07         0.31470E-06         0.00000E+00
    0.12139E-07         0.30178E-06         0.00000E+00
    0.95856E-08         0.28791E-06         0.00000E+00
    0.75321E-08         0.27300E-06         0.00000E+00
    0.58742E-08         0.25701E-06         0.00000E+00
    0.45702E-08         0.23989E-06         0.00000E+00
    0.35566E-08         0.22161E-06         0.00000E+00
    0.27405E-08         0.20222E-06         0.00000E+00
    0.21015E-08         0.18181E-06         0.00000E+00
    0.15900E-08         0.16046E-06         0.00000E+00
    0.12262E-08         0.13838E-06         0.00000E+00
    0.11386E-08         0.11600E-06         0.00000E+00
    0.10927E-08         0.93410E-07         0.00000E+00
    0.11040E-08         0.70457E-07         0.00000E+00
    0.11403E-08         0.47182E-07         0.00000E+00
    0.11685E-08         0.23665E-07         0.00000E+00
    0.11765E-08         0.11858E-07         0.00000E+00
    0.75276E-21         0.42376E-06         0.00000E+00
    0.19386E-07         0.41854E-06         0.00000E+00
    0.31271E-07         0.40510E-06         0.00000E+00
    0.34267E-07         0.38824E-06         0.00000E+00
    0.31596E-07         0.37183E-06         0.00000E+00
    0.27236E-07         0.35721E-06         0.00000E+00
    0.22791E-07         0.34392E-06         0.00000E+00
    0.18830E-07         0.33110E-06         0.00000E+00
    0.15482E-07         0.31811E-06         0.00000E+00
    0.12713E-07         0.30452E-06         0.00000E+00
    0.10444E-07         0.29013E-06         0.00000E+00
    0.85964E-08         0.27478E-06         0.00000E+00
    0.71160E-08         0.25842E-06         0.00000E+00
    0.59584E-08         0.24098E-06         0.00000E+00
    0.50572E-08         0.22246E-06         0.00000E+00
    0.43429E-08         0.20289E-06         0.00000E+00
    0.37753E-08         0.18234E-06         0.00000E+00
    0.32977E-08         0.16094E-06         0.00000E+00
    0.28459E-08         0.13881E-06         0.00000E+00
    0.24312E-08         0.11624E-06         0.00000E+00
    0.21945E-08         0.93494E-07         0.00000E+00
    0.20744E-08         0.70484E-07         0.00000E+00
    0.20202E-08         0.47183E-07         0.00000E+00
    0.20001E-08         0.23662E-07         0.00000E+00
    0.19957E-08         0.11856E-07         0.00000E+00
    0.00000E+00         0.40971E-06         0.00000E+00
    0.11486E-07         0.40660E-06         0.00000E+00
    0.19880E-07         0.39815E-06         0.00000E+00
    0.23912E-07         0.38641E-06         0.00000E+00
    0.24323E-07         0.37337E-06         0.00000E+00
    0.22635E-07         0.36022E-06         0.00000E+00
    0.20122E-07         0.34723E-06         0.00000E+00
    0.17466E-07         0.33419E-06         0.00000E+00
    0.14981E-07         0.32081E-06         0.00000E+00
    0.12784E-07         0.30682E-06         0.00000E+00
    0.10906E-07         0.29203E-06         0.00000E+00
    0.93395E-08         0.27633E-06         0.00000E+00
    0.80645E-08         0.25965E-06         0.00000E+00
    0.70495E-08         0.24195E-06         0.00000E+00
    0.62473E-08         0.22322E-06         0.00000E+00
    0.56062E-08         0.20350E-06         0.00000E+00
    0.50790E-08         0.18285E-06         0.00000E+00
    0.46151E-08         0.16139E-06         0.00000E+00
    0.41860E-08         0.13925E-06         0.00000E+00
    0.37293E-08         0.11665E-06         0.00000E+00
    0.33620E-08         0.93767E-07         0.00000E+00
    0.31324E-08         0.70632E-07         0.00000E+00
    0.30012E-08         0.47256E-07         0.00000E+00
    0.29386E-08         0.23689E-07         0.00000E+00
    0.29230E-08         0.11866E-07         0.00000E+00
   -0.14239E-20         0.40079E-06         0.00000E+00
    0.75177E-08         0.39866E-06         0.00000E+00
    0.13533E-07         0.39268E-06         0.00000E+00
    0.17250E-07         0.38380E-06         0.00000E+00
    0.18718E-07         0.37311E-06         0.00000E+00
    0.18533E-07         0.36141E-06         0.00000E+00
    0.17383E-07         0.34909E-06         0.00000E+00
    0.15802E-07         0.33625E-06         0.00000E+00
    0.14114E-07         0.32279E-06         0.00000E+00
    0.12497E-07         0.30860E-06         0.00000E+00
    0.11040E-07         0.29357E-06         0.00000E+00
    0.97802E-08         0.27762E-06         0.00000E+00
    0.87246E-08         0.26071E-06         0.00000E+00
    0.78606E-08         0.24280E-06         0.00000E+00
    0.71594E-08         0.22390E-06         0.00000E+00
    0.65835E-08         0.20406E-06         0.00000E+00
    0.60926E-08         0.18333E-06         0.00000E+00
    0.56504E-08         0.16183E-06         0.00000E+00
    0.52227E-08         0.13969E-06         0.00000E+00
    0.48004E-08         0.11707E-06         0.00000E+00
    0.44317E-08         0.94091E-07         0.00000E+00
    0.41619E-08         0.70845E-07         0.00000E+00
    0.39910E-08         0.47377E-07         0.00000E+00
    0.39022E-08         0.23740E-07         0.00000E+00
    0.38788E-08         0.11887E-07         0.00000E+00
    0.12225E-35         0.39468E-06         0.00000E+00
    0.52775E-08         0.39307E-06         0.00000E+00
    0.97438E-08         0.38842E-06         0.00000E+00
    0.12902E-07         0.38122E-06         0.00000E+00
    0.14650E-07         0.37209E-06         0.00000E+00
    0.15204E-07         0.36155E-06         0.00000E+00
    0.14913E-07         0.34996E-06         0.00000E+00
    0.14122E-07         0.33746E-06         0.00000E+00
    0.13090E-07         0.32412E-06         0.00000E+00
    0.11991E-07         0.30989E-06         0.00000E+00
    0.10933E-07         0.29475E-06         0.00000E+00
    0.99722E-08         0.27865E-06         0.00000E+00
    0.91362E-08         0.26157E-06         0.00000E+00
    0.84275E-08         0.24352E-06         0.00000E+00
    0.78323E-08         0.22450E-06         0.00000E+00
    0.73264E-08         0.20456E-06         0.00000E+00
    0.68818E-08         0.18378E-06         0.00000E+00
    0.64716E-08         0.16226E-06         0.00000E+00
    0.60767E-08         0.14010E-06         0.00000E+00
    0.56986E-08         0.11744E-06         0.00000E+00
    0.53637E-08         0.94405E-07         0.00000E+00
    0.51011E-08         0.71072E-07         0.00000E+00
    0.49230E-08         0.47516E-07         0.00000E+00
    0.48255E-08         0.23801E-07         0.00000E+00
    0.47985E-08         0.11913E-07         0.00000E+00
    0.69320E-21         0.39024E-06         0.00000E+00
    0.39100E-08         0.38892E-06         0.00000E+00
    0.73449E-08         0.38505E-06         0.00000E+00
    0.99888E-08         0.37889E-06         0.00000E+00
    0.11724E-07         0.37081E-06         0.00000E+00
    0.12613E-07         0.36114E-06         0.00000E+00
    0.12830E-07         0.35017E-06         0.00000E+00
    0.12580E-07         0.33807E-06         0.00000E+00
    0.12047E-07         0.32492E-06         0.00000E+00
    0.11376E-07         0.31076E-06         0.00000E+00
    0.10665E-07         0.29559E-06         0.00000E+00
    0.99775E-08         0.27942E-06         0.00000E+00
    0.93494E-08         0.26225E-06         0.00000E+00
    0.87937E-08         0.24410E-06         0.00000E+00
    0.83079E-08         0.22500E-06         0.00000E+00
    0.78797E-08         0.20501E-06         0.00000E+00
    0.74920E-08         0.18419E-06         0.00000E+00
    0.71287E-08         0.16264E-06         0.00000E+00
    0.67811E-08         0.14046E-06         0.00000E+00
    0.64532E-08         0.11778E-06         0.00000E+00
    0.61619E-08         0.94688E-07         0.00000E+00
    0.59269E-08         0.71286E-07         0.00000E+00
    0.57609E-08         0.47652E-07         0.00000E+00
    0.56667E-08         0.23864E-07         0.00000E+00
    0.56392E-08         0.11941E-07         0.00000E+00
    0.00000E+00         0.38686E-06         0.00000E+00
    0.30251E-08         0.38572E-06         0.00000E+00
    0.57546E-08         0.38234E-06         0.00000E+00
    0.79811E-08         0.37684E-06         0.00000E+00
    0.96031E-08         0.36947E-06         0.00000E+00
    0.10625E-07         0.36045E-06         0.00000E+00
    0.11129E-07         0.34999E-06         0.00000E+00
    0.11235E-07         0.33825E-06         0.00000E+00
    0.11065E-07         0.32532E-06         0.00000E+00
    0.10727E-07         0.31127E-06         0.00000E+00
    0.10303E-07         0.29614E-06         0.00000E+00
    0.98530E-08         0.27996E-06         0.00000E+00
    0.94128E-08         0.26276E-06         0.00000E+00
    0.90017E-08         0.24456E-06         0.00000E+00
    0.86251E-08         0.22541E-06         0.00000E+00
    0.82794E-08         0.20538E-06         0.00000E+00
    0.79567E-08         0.18454E-06         0.00000E+00
    0.76498E-08         0.16297E-06         0.00000E+00
    0.73559E-08         0.14078E-06         0.00000E+00
    0.70803E-08         0.11806E-06         0.00000E+00
    0.68350E-08         0.94932E-07         0.00000E+00
    0.66344E-08         0.71473E-07         0.00000E+00
    0.64893E-08         0.47776E-07         0.00000E+00
    0.64046E-08         0.23923E-07         0.00000E+00
    0.63788E-08         0.11968E-07         0.00000E+00
    0.00000E+00         0.38419E-06         0.00000E+00
    0.24262E-08         0.38317E-06         0.00000E+00
    0.46596E-08         0.38010E-06         0.00000E+00
    0.65597E-08         0.37504E-06         0.00000E+00
    0.80458E-08         0.36816E-06         0.00000E+00
    0.91011E-08         0.35962E-06         0.00000E+00
    0.97614E-08         0.34956E-06         0.00000E+00
    0.10094E-07         0.33813E-06         0.00000E+00
    0.10179E-07         0.32543E-06         0.00000E+00
    0.10092E-07         0.31152E-06         0.00000E+00
    0.98970E-08         0.29646E-06         0.00000E+00
    0.96445E-08         0.28031E-06         0.00000E+00
    0.93683E-08         0.26310E-06         0.00000E+00
    0.90892E-08         0.24489E-06         0.00000E+00
    0.88171E-08         0.22573E-06         0.00000E+00
    0.85547E-08         0.20568E-06         0.00000E+00
    0.83009E-08         0.18482E-06         0.00000E+00
    0.80542E-08         0.16324E-06         0.00000E+00
    0.78160E-08         0.14103E-06         0.00000E+00
    0.75921E-08         0.11830E-06         0.00000E+00
    0.73920E-08         0.95134E-07         0.00000E+00
    0.72267E-08         0.71631E-07         0.00000E+00
    0.71052E-08         0.47882E-07         0.00000E+00
    0.70326E-08         0.23975E-07         0.00000E+00
    0.70096E-08         0.11993E-07         0.00000E+00
    0.00000E+00         0.38201E-06         0.00000E+00
    0.20058E-08         0.38106E-06         0.00000E+00
    0.38813E-08         0.37820E-06         0.00000E+00
    0.55281E-08         0.37346E-06         0.00000E+00
    0.68836E-08         0.36693E-06         0.00000E+00
    0.79248E-08         0.35873E-06         0.00000E+00
    0.86641E-08         0.34900E-06         0.00000E+00
    0.91386E-08         0.33783E-06         0.00000E+00
    0.93983E-08         0.32532E-06         0.00000E+00
    0.94956E-08         0.31155E-06         0.00000E+00
    0.94785E-08         0.29659E-06         0.00000E+00
    0.93865E-08         0.28049E-06         0.00000E+00
    0.92492E-08         0.26331E-06         0.00000E+00
    0.90868E-08         0.24511E-06         0.00000E+00
    0.89113E-08         0.22595E-06         0.00000E+00
    0.87293E-08         0.20590E-06         0.00000E+00
    0.85439E-08         0.18504E-06         0.00000E+00
    0.83575E-08         0.16345E-06         0.00000E+00
    0.81740E-08         0.14124E-06         0.00000E+00
    0.79994E-08         0.11849E-06         0.00000E+00
    0.78419E-08         0.95297E-07         0.00000E+00
    0.77104E-08         0.71760E-07         0.00000E+00
    0.76122E-08         0.47970E-07         0.00000E+00
    0.75524E-08         0.24019E-07         0.00000E+00
    0.75327E-08         0.12014E-07         0.00000E+00
    0.00000E+00         0.38018E-06         0.00000E+00
    0.17017E-08         0.37928E-06         0.00000E+00
    0.33127E-08         0.37657E-06         0.00000E+00
    0.47621E-08         0.37204E-06         0.00000E+00
    0.60014E-08         0.36577E-06         0.00000E+00
    0.70074E-08         0.35784E-06         0.00000E+00
    0.77809E-08         0.34835E-06         0.00000E+00
    0.83412E-08         0.33740E-06         0.00000E+00
    0.87188E-08         0.32507E-06         0.00000E+00
    0.89492E-08         0.31144E-06         0.00000E+00
    0.90669E-08         0.29657E-06         0.00000E+00
    0.91025E-08         0.28054E-06         0.00000E+00
    0.90803E-08         0.26340E-06         0.00000E+00
    0.90185E-08         0.24523E-06         0.00000E+00
    0.89298E-08         0.22608E-06         0.00000E+00
    0.88223E-08         0.20604E-06         0.00000E+00
    0.87018E-08         0.18519E-06         0.00000E+00
    0.85731E-08         0.16361E-06         0.00000E+00
    0.84412E-08         0.14139E-06         0.00000E+00
    0.83126E-08         0.11863E-06         0.00000E+00
    0.81944E-08         0.95423E-07         0.00000E+00
    0.80939E-08         0.71861E-07         0.00000E+00
    0.80176E-08         0.48040E-07         0.00000E+00
    0.79702E-08         0.24054E-07         0.00000E+00
    0.79541E-08         0.12032E-07         0.00000E+00
    0.00000E+00         0.37860E-06         0.00000E+00
    0.14759E-08         0.37775E-06         0.00000E+00
    0.28870E-08         0.37514E-06         0.00000E+00
    0.41810E-08         0.37077E-06         0.00000E+00
    0.53200E-08         0.36468E-06         0.00000E+00
    0.62827E-08         0.35695E-06         0.00000E+00
    0.70645E-08         0.34766E-06         0.00000E+00
    0.76740E-08         0.33689E-06         0.00000E+00
    0.81295E-08         0.32471E-06         0.00000E+00
    0.84543E-08         0.31121E-06         0.00000E+00
    0.86728E-08         0.29644E-06         0.00000E+00
    0.88080E-08         0.28048E-06         0.00000E+00
    0.88793E-08         0.26340E-06         0.00000E+00
    0.89025E-08         0.24526E-06         0.00000E+00
    0.88894E-08         0.22614E-06         0.00000E+00
    0.88490E-08         0.20612E-06         0.00000E+00
    0.87880E-08         0.18529E-06         0.00000E+00
    0.87125E-08         0.16371E-06         0.00000E+00
    0.86282E-08         0.14150E-06         0.00000E+00
    0.85414E-08         0.11874E-06         0.00000E+00
    0.84587E-08         0.95516E-07         0.00000E+00
    0.83864E-08         0.71937E-07         0.00000E+00
    0.83302E-08         0.48094E-07         0.00000E+00
    0.82944E-08         0.24082E-07         0.00000E+00
    0.82818E-08         0.12046E-07         0.00000E+00
    0.00000E+00         0.37722E-06         0.00000E+00
    0.13041E-08         0.37640E-06         0.00000E+00
    0.25610E-08         0.37387E-06         0.00000E+00
    0.37311E-08         0.36961E-06         0.00000E+00
    0.47843E-08         0.36366E-06         0.00000E+00
    0.57021E-08         0.35609E-06         0.00000E+00
    0.64770E-08         0.34696E-06         0.00000E+00
    0.71120E-08         0.33634E-06         0.00000E+00
    0.76173E-08         0.32429E-06         0.00000E+00
    0.80079E-08         0.31089E-06         0.00000E+00
    0.83006E-08         0.29622E-06         0.00000E+00
    0.85124E-08         0.28033E-06         0.00000E+00
    0.86585E-08         0.26331E-06         0.00000E+00
    0.87520E-08         0.24522E-06         0.00000E+00
    0.88035E-08         0.22614E-06         0.00000E+00
    0.88218E-08         0.20614E-06         0.00000E+00
    0.88138E-08         0.18533E-06         0.00000E+00
    0.87861E-08         0.16377E-06         0.00000E+00
    0.87446E-08         0.14156E-06         0.00000E+00
    0.86953E-08         0.11880E-06         0.00000E+00
    0.86443E-08         0.95578E-07         0.00000E+00
    0.85971E-08         0.71990E-07         0.00000E+00
    0.85589E-08         0.48132E-07         0.00000E+00
    0.85336E-08         0.24103E-07         0.00000E+00
    0.85244E-08         0.12057E-07         0.00000E+00
    0.00000E+00         0.37599E-06         0.00000E+00
    0.11707E-08         0.37519E-06         0.00000E+00
    0.23061E-08         0.37272E-06         0.00000E+00
    0.33758E-08         0.36854E-06         0.00000E+00
    0.43556E-08         0.36271E-06         0.00000E+00
    0.52295E-08         0.35526E-06         0.00000E+00
    0.59892E-08         0.34625E-06         0.00000E+00
    0.66342E-08         0.33575E-06         0.00000E+00
    0.71697E-08         0.32382E-06         0.00000E+00
    0.76048E-08         0.31052E-06         0.00000E+00
    0.79512E-08         0.29593E-06         0.00000E+00
    0.82209E-08         0.28012E-06         0.00000E+00
    0.84258E-08         0.26316E-06         0.00000E+00
    0.85764E-08         0.24511E-06         0.00000E+00
    0.86820E-08         0.22607E-06         0.00000E+00
    0.87504E-08         0.20611E-06         0.00000E+00
    0.87887E-08         0.18532E-06         0.00000E+00
    0.88030E-08         0.16378E-06         0.00000E+00
    0.87992E-08         0.14159E-06         0.00000E+00
    0.87830E-08         0.11884E-06         0.00000E+00
    0.87598E-08         0.95614E-07         0.00000E+00
    0.87348E-08         0.72022E-07         0.00000E+00
    0.87126E-08         0.48157E-07         0.00000E+00
    0.86969E-08         0.24117E-07         0.00000E+00
    0.86907E-08         0.12065E-07         0.00000E+00
    0.00000E+00         0.37488E-06         0.00000E+00
    0.10648E-08         0.37409E-06         0.00000E+00
    0.21027E-08         0.37166E-06         0.00000E+00
    0.30897E-08         0.36756E-06         0.00000E+00
    0.40063E-08         0.36181E-06         0.00000E+00
    0.48386E-08         0.35446E-06         0.00000E+00
    0.55784E-08         0.34555E-06         0.00000E+00
    0.62232E-08         0.33515E-06         0.00000E+00
    0.67750E-08         0.32332E-06         0.00000E+00
    0.72391E-08         0.31011E-06         0.00000E+00
    0.76232E-08         0.29560E-06         0.00000E+00
    0.79360E-08         0.27986E-06         0.00000E+00
    0.81862E-08         0.26295E-06         0.00000E+00
    0.83824E-08         0.24496E-06         0.00000E+00
    0.85323E-08         0.22596E-06         0.00000E+00
    0.86429E-08         0.20604E-06         0.00000E+00
    0.87205E-08         0.18527E-06         0.00000E+00
    0.87710E-08         0.16376E-06         0.00000E+00
    0.87998E-08         0.14158E-06         0.00000E+00
    0.88123E-08         0.11884E-06         0.00000E+00
    0.88134E-08         0.95626E-07         0.00000E+00
    0.88078E-08         0.72037E-07         0.00000E+00
    0.87996E-08         0.48170E-07         0.00000E+00
    0.87923E-08         0.24125E-07         0.00000E+00
    0.87890E-08         0.12069E-07         0.00000E+00
    0.00000E+00         0.37386E-06         0.00000E+00
    0.97898E-09         0.37309E-06         0.00000E+00
    0.19370E-08         0.37069E-06         0.00000E+00
    0.28547E-08         0.36664E-06         0.00000E+00
    0.37163E-08         0.36096E-06         0.00000E+00
    0.45096E-08         0.35369E-06         0.00000E+00
    0.52270E-08         0.34487E-06         0.00000E+00
    0.58649E-08         0.33455E-06         0.00000E+00
    0.64232E-08         0.32280E-06         0.00000E+00
    0.69048E-08         0.30968E-06         0.00000E+00
    0.73145E-08         0.29524E-06         0.00000E+00
    0.76583E-08         0.27956E-06         0.00000E+00
    0.79428E-08         0.26271E-06         0.00000E+00
    0.81747E-08         0.24477E-06         0.00000E+00
    0.83601E-08         0.22581E-06         0.00000E+00
    0.85053E-08         0.20593E-06         0.00000E+00
    0.86158E-08         0.18519E-06         0.00000E+00
    0.86968E-08         0.16370E-06         0.00000E+00
    0.87535E-08         0.14155E-06         0.00000E+00
    0.87906E-08         0.11882E-06         0.00000E+00
    0.88125E-08         0.95618E-07         0.00000E+00
    0.88236E-08         0.72036E-07         0.00000E+00
    0.88275E-08         0.48173E-07         0.00000E+00
    0.88276E-08         0.24127E-07         0.00000E+00
    0.88268E-08         0.12071E-07         0.00000E+00
    0.00000E+00         0.37292E-06         0.00000E+00
    0.90808E-09         0.37215E-06         0.00000E+00
    0.17993E-08         0.36979E-06         0.00000E+00
    0.26580E-08         0.36578E-06         0.00000E+00
    0.34710E-08         0.36016E-06         0.00000E+00
    0.42280E-08         0.35295E-06         0.00000E+00
    0.49217E-08         0.34420E-06         0.00000E+00
    0.55482E-08         0.33396E-06         0.00000E+00
    0.61061E-08         0.32228E-06         0.00000E+00
    0.65965E-08         0.30922E-06         0.00000E+00
    0.70224E-08         0.29485E-06         0.00000E+00
    0.73877E-08         0.27923E-06         0.00000E+00
    0.76973E-08         0.26244E-06         0.00000E+00
    0.79563E-08         0.24454E-06         0.00000E+00
    0.81697E-08         0.22563E-06         0.00000E+00
    0.83427E-08         0.20578E-06         0.00000E+00
    0.84800E-08         0.18508E-06         0.00000E+00
    0.85864E-08         0.16362E-06         0.00000E+00
    0.86663E-08         0.14149E-06         0.00000E+00
    0.87240E-08         0.11878E-06         0.00000E+00
    0.87637E-08         0.95593E-07         0.00000E+00
    0.87889E-08         0.72022E-07         0.00000E+00
    0.88033E-08         0.48166E-07         0.00000E+00
    0.88098E-08         0.24125E-07         0.00000E+00
    0.88111E-08         0.12071E-07         0.00000E+00
    0.00000E+00         0.37205E-06         0.00000E+00
    0.84828E-09         0.37129E-06         0.00000E+00
    0.16826E-08         0.36894E-06         0.00000E+00
    0.24901E-08         0.36497E-06         0.00000E+00
    0.32597E-08         0.35939E-06         0.00000E+00
    0.39826E-08         0.35224E-06         0.00000E+00
    0.46521E-08         0.34355E-06         0.00000E+00
    0.52640E-08         0.33337E-06         0.00000E+00
    0.58164E-08         0.32175E-06         0.00000E+00
    0.63093E-08         0.30876E-06         0.00000E+00
    0.67440E-08         0.29445E-06         0.00000E+00
    0.71233E-08         0.27888E-06         0.00000E+00
    0.74505E-08         0.26214E-06         0.00000E+00
    0.77294E-08         0.24430E-06         0.00000E+00
    0.79641E-08         0.22543E-06         0.00000E+00
    0.81588E-08         0.20562E-06         0.00000E+00
    0.83176E-08         0.18495E-06         0.00000E+00
    0.84446E-08         0.16352E-06         0.00000E+00
    0.85436E-08         0.14141E-06         0.00000E+00
    0.86184E-08         0.11872E-06         0.00000E+00
    0.86727E-08         0.95554E-07         0.00000E+00
    0.87099E-08         0.71996E-07         0.00000E+00
    0.87331E-08         0.48152E-07         0.00000E+00
    0.87450E-08         0.24119E-07         0.00000E+00
    0.87482E-08         0.12069E-07         0.00000E+00
    0.00000E+00         0.37123E-06         0.00000E+00
    0.79679E-09         0.37047E-06         0.00000E+00
    0.15816E-08         0.36815E-06         0.00000E+00
    0.23439E-08         0.36420E-06         0.00000E+00
    0.30743E-08         0.35866E-06         0.00000E+00
    0.37650E-08         0.35156E-06         0.00000E+00
    0.44101E-08         0.34292E-06         0.00000E+00
    0.50055E-08         0.33279E-06         0.00000E+00
    0.55487E-08         0.32123E-06         0.00000E+00
    0.60390E-08         0.30829E-06         0.00000E+00
    0.64769E-08         0.29403E-06         0.00000E+00
    0.68640E-08         0.27852E-06         0.00000E+00
    0.72026E-08         0.26183E-06         0.00000E+00
    0.74954E-08         0.24403E-06         0.00000E+00
    0.77458E-08         0.22520E-06         0.00000E+00
    0.79569E-08         0.20543E-06         0.00000E+00
    0.81324E-08         0.18480E-06         0.00000E+00
    0.82755E-08         0.16340E-06         0.00000E+00
    0.83898E-08         0.14132E-06         0.00000E+00
    0.84785E-08         0.11865E-06         0.00000E+00
    0.85449E-08         0.95502E-07         0.00000E+00
    0.85919E-08         0.71962E-07         0.00000E+00
    0.86224E-08         0.48131E-07         0.00000E+00
    0.86389E-08         0.24110E-07         0.00000E+00
    0.86436E-08         0.12065E-07         0.00000E+00
    0.00000E+00         0.37046E-06         0.00000E+00
    0.75158E-09         0.36970E-06         0.00000E+00
    0.14926E-08         0.36739E-06         0.00000E+00
    0.22143E-08         0.36348E-06         0.00000E+00
    0.29086E-08         0.35797E-06         0.00000E+00
    0.35688E-08         0.35090E-06         0.00000E+00
    0.41895E-08         0.34231E-06         0.00000E+00
    0.47668E-08         0.33223E-06         0.00000E+00
    0.52980E-08         0.32072E-06         0.00000E+00
    0.57821E-08         0.30783E-06         0.00000E+00
    0.62187E-08         0.29362E-06         0.00000E+00
    0.66087E-08         0.27816E-06         0.00000E+00
    0.69536E-08         0.26151E-06         0.00000E+00
    0.72553E-08         0.24375E-06         0.00000E+00
    0.75164E-08         0.22496E-06         0.00000E+00
    0.77394E-08         0.20523E-06         0.00000E+00
    0.79273E-08         0.18463E-06         0.00000E+00
    0.80828E-08         0.16326E-06         0.00000E+00
    0.82090E-08         0.14121E-06         0.00000E+00
    0.83087E-08         0.11857E-06         0.00000E+00
    0.83847E-08         0.95440E-07         0.00000E+00
    0.84396E-08         0.71919E-07         0.00000E+00
    0.84760E-08         0.48105E-07         0.00000E+00
    0.84962E-08         0.24098E-07         0.00000E+00
    0.85023E-08         0.12059E-07         0.00000E+00
    0.00000E+00         0.36972E-06         0.00000E+00
    0.71110E-09         0.36898E-06         0.00000E+00
    0.14126E-08         0.36668E-06         0.00000E+00
    0.20972E-08         0.36279E-06         0.00000E+00
    0.27579E-08         0.35731E-06         0.00000E+00
    0.33889E-08         0.35027E-06         0.00000E+00
    0.39853E-08         0.34172E-06         0.00000E+00
    0.45435E-08         0.33169E-06         0.00000E+00
    0.50607E-08         0.32022E-06         0.00000E+00
    0.55356E-08         0.30737E-06         0.00000E+00
    0.59673E-08         0.29321E-06         0.00000E+00
    0.63563E-08         0.27779E-06         0.00000E+00
    0.67033E-08         0.26118E-06         0.00000E+00
    0.70097E-08         0.24347E-06         0.00000E+00
    0.72773E-08         0.22472E-06         0.00000E+00
    0.75083E-08         0.20502E-06         0.00000E+00
    0.77049E-08         0.18445E-06         0.00000E+00
    0.78695E-08         0.16311E-06         0.00000E+00
    0.80046E-08         0.14109E-06         0.00000E+00
    0.81126E-08         0.11848E-06         0.00000E+00
    0.81960E-08         0.95371E-07         0.00000E+00
    0.82572E-08         0.71870E-07         0.00000E+00
    0.82983E-08         0.48074E-07         0.00000E+00
    0.83215E-08         0.24084E-07         0.00000E+00
    0.83286E-08         0.12053E-07         0.00000E+00
    0.00000E+00         0.36903E-06         0.00000E+00
    0.67417E-09         0.36829E-06         0.00000E+00
    0.13395E-08         0.36601E-06         0.00000E+00
    0.19896E-08         0.36213E-06         0.00000E+00
    0.26187E-08         0.35668E-06         0.00000E+00
    0.32215E-08         0.34967E-06         0.00000E+00
    0.37938E-08         0.34115E-06         0.00000E+00
    0.43321E-08         0.33116E-06         0.00000E+00
    0.48337E-08         0.31973E-06         0.00000E+00
    0.52970E-08         0.30692E-06         0.00000E+00
    0.57211E-08         0.29280E-06         0.00000E+00
    0.61057E-08         0.27742E-06         0.00000E+00
    0.64514E-08         0.26086E-06         0.00000E+00
    0.67589E-08         0.24318E-06         0.00000E+00
    0.70296E-08         0.22447E-06         0.00000E+00
    0.72651E-08         0.20480E-06         0.00000E+00
    0.74673E-08         0.18427E-06         0.00000E+00
    0.76380E-08         0.16296E-06         0.00000E+00
    0.77793E-08         0.14096E-06         0.00000E+00
    0.78934E-08         0.11838E-06         0.00000E+00
    0.79823E-08         0.95296E-07         0.00000E+00
    0.80482E-08         0.71817E-07         0.00000E+00
    0.80930E-08         0.48040E-07         0.00000E+00
    0.81185E-08         0.24068E-07         0.00000E+00
    0.81264E-08         0.12045E-07         0.00000E+00
    0.00000E+00         0.36838E-06         0.00000E+00
    0.63992E-09         0.36764E-06         0.00000E+00
    0.12714E-08         0.36537E-06         0.00000E+00
    0.18892E-08         0.36151E-06         0.00000E+00
    0.24881E-08         0.35608E-06         0.00000E+00
    0.30637E-08         0.34910E-06         0.00000E+00
    0.36119E-08         0.34061E-06         0.00000E+00
    0.41296E-08         0.33065E-06         0.00000E+00
    0.46144E-08         0.31925E-06         0.00000E+00
    0.50643E-08         0.30649E-06         0.00000E+00
    0.54784E-08         0.29240E-06         0.00000E+00
    0.58562E-08         0.27706E-06         0.00000E+00
    0.61977E-08         0.26053E-06         0.00000E+00
    0.65034E-08         0.24289E-06         0.00000E+00
    0.67742E-08         0.22421E-06         0.00000E+00
    0.70113E-08         0.20458E-06         0.00000E+00
    0.72162E-08         0.18408E-06         0.00000E+00
    0.73904E-08         0.16280E-06         0.00000E+00
    0.75357E-08         0.14083E-06         0.00000E+00
    0.76538E-08         0.11827E-06         0.00000E+00
    0.77466E-08         0.95216E-07         0.00000E+00
    0.78158E-08         0.71760E-07         0.00000E+00
    0.78632E-08         0.48004E-07         0.00000E+00
    0.78904E-08         0.24050E-07         0.00000E+00
    0.78990E-08         0.12037E-07         0.00000E+00
    0.00000E+00         0.36775E-06         0.00000E+00
    0.60764E-09         0.36702E-06         0.00000E+00
    0.12073E-08         0.36476E-06         0.00000E+00
    0.17942E-08         0.36091E-06         0.00000E+00
    0.23641E-08         0.35550E-06         0.00000E+00
    0.29130E-08         0.34855E-06         0.00000E+00
    0.34372E-08         0.34009E-06         0.00000E+00
    0.39340E-08         0.33015E-06         0.00000E+00
    0.44008E-08         0.31879E-06         0.00000E+00
    0.48359E-08         0.30606E-06         0.00000E+00
    0.52382E-08         0.29201E-06         0.00000E+00
    0.56069E-08         0.27670E-06         0.00000E+00
    0.59418E-08         0.26021E-06         0.00000E+00
    0.62432E-08         0.24260E-06         0.00000E+00
    0.65116E-08         0.22396E-06         0.00000E+00
    0.67479E-08         0.20436E-06         0.00000E+00
    0.69531E-08         0.18389E-06         0.00000E+00
    0.71287E-08         0.16264E-06         0.00000E+00
    0.72759E-08         0.14070E-06         0.00000E+00
    0.73963E-08         0.11817E-06         0.00000E+00
    0.74914E-08         0.95134E-07         0.00000E+00
    0.75628E-08         0.71700E-07         0.00000E+00
    0.76120E-08         0.47966E-07         0.00000E+00
    0.76403E-08         0.24032E-07         0.00000E+00
    0.76494E-08         0.12028E-07         0.00000E+00
    0.00000E+00         0.36716E-06         0.00000E+00
    0.57683E-09         0.36643E-06         0.00000E+00
    0.11459E-08         0.36418E-06         0.00000E+00
    0.17032E-08         0.36035E-06         0.00000E+00
    0.22449E-08         0.35496E-06         0.00000E+00
    0.27675E-08         0.34803E-06         0.00000E+00
    0.32679E-08         0.33959E-06         0.00000E+00
    0.37432E-08         0.32968E-06         0.00000E+00
    0.41913E-08         0.31835E-06         0.00000E+00
    0.46104E-08         0.30565E-06         0.00000E+00
    0.49993E-08         0.29163E-06         0.00000E+00
    0.53571E-08         0.27635E-06         0.00000E+00
    0.56836E-08         0.25989E-06         0.00000E+00
    0.59785E-08         0.24232E-06         0.00000E+00
    0.62424E-08         0.22371E-06         0.00000E+00
    0.64757E-08         0.20414E-06         0.00000E+00
    0.66794E-08         0.18370E-06         0.00000E+00
    0.68543E-08         0.16248E-06         0.00000E+00
    0.70018E-08         0.14057E-06         0.00000E+00
    0.71229E-08         0.11806E-06         0.00000E+00
    0.72190E-08         0.95050E-07         0.00000E+00
    0.72915E-08         0.71639E-07         0.00000E+00
    0.73416E-08         0.47927E-07         0.00000E+00
    0.73707E-08         0.24013E-07         0.00000E+00
    0.73800E-08         0.12019E-07         0.00000E+00
    0.00000E+00         0.36660E-06         0.00000E+00
    0.54706E-09         0.36587E-06         0.00000E+00
    0.10866E-08         0.36363E-06         0.00000E+00
    0.16151E-08         0.35982E-06         0.00000E+00
    0.21293E-08         0.35444E-06         0.00000E+00
    0.26260E-08         0.34753E-06         0.00000E+00
    0.31024E-08         0.33911E-06         0.00000E+00
    0.35559E-08         0.32923E-06         0.00000E+00
    0.39846E-08         0.31793E-06         0.00000E+00
    0.43867E-08         0.30525E-06         0.00000E+00
    0.47610E-08         0.29126E-06         0.00000E+00
    0.51065E-08         0.27602E-06         0.00000E+00
    0.54227E-08         0.25959E-06         0.00000E+00
    0.57096E-08         0.24204E-06         0.00000E+00
    0.59671E-08         0.22346E-06         0.00000E+00
    0.61957E-08         0.20392E-06         0.00000E+00
    0.63960E-08         0.18351E-06         0.00000E+00
    0.65687E-08         0.16232E-06         0.00000E+00
    0.67148E-08         0.14043E-06         0.00000E+00
    0.68353E-08         0.11795E-06         0.00000E+00
    0.69313E-08         0.94965E-07         0.00000E+00
    0.70039E-08         0.71577E-07         0.00000E+00
    0.70544E-08         0.47887E-07         0.00000E+00
    0.70838E-08         0.23994E-07         0.00000E+00
    0.70932E-08         0.12009E-07         0.00000E+00
    0.00000E+00         0.36607E-06         0.00000E+00
    0.51803E-09         0.36535E-06         0.00000E+00
    0.10287E-08         0.36311E-06         0.00000E+00
    0.15291E-08         0.35931E-06         0.00000E+00
    0.20161E-08         0.35395E-06         0.00000E+00
    0.24871E-08         0.34705E-06         0.00000E+00
    0.29395E-08         0.33866E-06         0.00000E+00
    0.33710E-08         0.32880E-06         0.00000E+00
    0.37797E-08         0.31752E-06         0.00000E+00
    0.41640E-08         0.30487E-06         0.00000E+00
    0.45225E-08         0.29091E-06         0.00000E+00
    0.48545E-08         0.27569E-06         0.00000E+00
    0.51592E-08         0.25929E-06         0.00000E+00
    0.54364E-08         0.24177E-06         0.00000E+00
    0.56861E-08         0.22322E-06         0.00000E+00
    0.59084E-08         0.20371E-06         0.00000E+00
    0.61038E-08         0.18333E-06         0.00000E+00
    0.62729E-08         0.16216E-06         0.00000E+00
    0.64163E-08         0.14030E-06         0.00000E+00
    0.65351E-08         0.11784E-06         0.00000E+00
    0.66300E-08         0.94881E-07         0.00000E+00
    0.67020E-08         0.71516E-07         0.00000E+00
    0.67522E-08         0.47847E-07         0.00000E+00
    0.67815E-08         0.23974E-07         0.00000E+00
    0.67909E-08         0.12000E-07         0.00000E+00
    0.00000E+00         0.36556E-06         0.00000E+00
    0.48948E-09         0.36485E-06         0.00000E+00
    0.97184E-09         0.36262E-06         0.00000E+00
    0.14444E-08         0.35883E-06         0.00000E+00
    0.19047E-08         0.35348E-06         0.00000E+00
    0.23501E-08         0.34660E-06         0.00000E+00
    0.27784E-08         0.33823E-06         0.00000E+00
    0.31876E-08         0.32839E-06         0.00000E+00
    0.35758E-08         0.31713E-06         0.00000E+00
    0.39415E-08         0.30451E-06         0.00000E+00
    0.42835E-08         0.29057E-06         0.00000E+00
    0.46008E-08         0.27538E-06         0.00000E+00
    0.48928E-08         0.25901E-06         0.00000E+00
    0.51592E-08         0.24152E-06         0.00000E+00
    0.53997E-08         0.22299E-06         0.00000E+00
    0.56144E-08         0.20350E-06         0.00000E+00
    0.58037E-08         0.18315E-06         0.00000E+00
    0.59679E-08         0.16201E-06         0.00000E+00
    0.61077E-08         0.14017E-06         0.00000E+00
    0.62236E-08         0.11774E-06         0.00000E+00
    0.63165E-08         0.94798E-07         0.00000E+00
    0.63872E-08         0.71455E-07         0.00000E+00
    0.64366E-08         0.47807E-07         0.00000E+00
    0.64656E-08         0.23955E-07         0.00000E+00
    0.64749E-08         0.11990E-07         0.00000E+00
    0.00000E+00         0.36509E-06         0.00000E+00
    0.46123E-09         0.36437E-06         0.00000E+00
    0.91556E-09         0.36216E-06         0.00000E+00
    0.13607E-08         0.35837E-06         0.00000E+00
    0.17943E-08         0.35304E-06         0.00000E+00
    0.22142E-08         0.34618E-06         0.00000E+00
    0.26184E-08         0.33782E-06         0.00000E+00
    0.30049E-08         0.32800E-06         0.00000E+00
    0.33722E-08         0.31677E-06         0.00000E+00
    0.37187E-08         0.30416E-06         0.00000E+00
    0.40434E-08         0.29025E-06         0.00000E+00
    0.43452E-08         0.27508E-06         0.00000E+00
    0.46236E-08         0.25873E-06         0.00000E+00
    0.48780E-08         0.24127E-06         0.00000E+00
    0.51083E-08         0.22277E-06         0.00000E+00
    0.53143E-08         0.20331E-06         0.00000E+00
    0.54964E-08         0.18297E-06         0.00000E+00
    0.56547E-08         0.16186E-06         0.00000E+00
    0.57897E-08         0.14004E-06         0.00000E+00
    0.59020E-08         0.11763E-06         0.00000E+00
    0.59922E-08         0.94717E-07         0.00000E+00
    0.60610E-08         0.71396E-07         0.00000E+00
    0.61092E-08         0.47768E-07         0.00000E+00
    0.61375E-08         0.23936E-07         0.00000E+00
    0.61466E-08         0.11981E-07         0.00000E+00
    0.00000E+00         0.36464E-06         0.00000E+00
    0.43314E-09         0.36393E-06         0.00000E+00
    0.85963E-09         0.36172E-06         0.00000E+00
    0.12774E-08         0.35795E-06         0.00000E+00
    0.16845E-08         0.35263E-06         0.00000E+00
    0.20789E-08         0.34578E-06         0.00000E+00
    0.24588E-08         0.33744E-06         0.00000E+00
    0.28224E-08         0.32764E-06         0.00000E+00
    0.31684E-08         0.31642E-06         0.00000E+00
    0.34952E-08         0.30384E-06         0.00000E+00
    0.38019E-08         0.28994E-06         0.00000E+00
    0.40876E-08         0.27480E-06         0.00000E+00
    0.43514E-08         0.25847E-06         0.00000E+00
    0.45930E-08         0.24103E-06         0.00000E+00
    0.48121E-08         0.22255E-06         0.00000E+00
    0.50086E-08         0.20312E-06         0.00000E+00
    0.51825E-08         0.18281E-06         0.00000E+00
    0.53340E-08         0.16171E-06         0.00000E+00
    0.54635E-08         0.13992E-06         0.00000E+00
    0.55714E-08         0.11753E-06         0.00000E+00
    0.56583E-08         0.94639E-07         0.00000E+00
    0.57246E-08         0.71338E-07         0.00000E+00
    0.57712E-08         0.47731E-07         0.00000E+00
    0.57985E-08         0.23917E-07         0.00000E+00
    0.58074E-08         0.11972E-07         0.00000E+00
    0.00000E+00         0.36422E-06         0.00000E+00
    0.40511E-09         0.36351E-06         0.00000E+00
    0.80382E-09         0.36131E-06         0.00000E+00
    0.11943E-08         0.35755E-06         0.00000E+00
    0.15749E-08         0.35224E-06         0.00000E+00
    0.19437E-08         0.34541E-06         0.00000E+00
    0.22992E-08         0.33708E-06         0.00000E+00
    0.26398E-08         0.32729E-06         0.00000E+00
    0.29640E-08         0.31609E-06         0.00000E+00
    0.32708E-08         0.30353E-06         0.00000E+00
    0.35590E-08         0.28966E-06         0.00000E+00
    0.38277E-08         0.27453E-06         0.00000E+00
    0.40764E-08         0.25823E-06         0.00000E+00
    0.43044E-08         0.24081E-06         0.00000E+00
    0.45116E-08         0.22235E-06         0.00000E+00
    0.46976E-08         0.20294E-06         0.00000E+00
    0.48626E-08         0.18265E-06         0.00000E+00
    0.50065E-08         0.16158E-06         0.00000E+00
    0.51298E-08         0.13981E-06         0.00000E+00
    0.52327E-08         0.11744E-06         0.00000E+00
    0.53156E-08         0.94564E-07         0.00000E+00
    0.53791E-08         0.71283E-07         0.00000E+00
    0.54237E-08         0.47694E-07         0.00000E+00
    0.54499E-08         0.23900E-07         0.00000E+00
    0.54585E-08         0.11963E-07         0.00000E+00
    0.64629E-21         0.36383E-06         0.00000E+00
    0.37704E-09         0.36313E-06         0.00000E+00
    0.74798E-09         0.36093E-06         0.00000E+00
    0.11112E-08         0.35718E-06         0.00000E+00
    0.14652E-08         0.35188E-06         0.00000E+00
    0.18084E-08         0.34506E-06         0.00000E+00
    0.21393E-08         0.33674E-06         0.00000E+00
    0.24566E-08         0.32697E-06         0.00000E+00
    0.27589E-08         0.31579E-06         0.00000E+00
    0.30451E-08         0.30324E-06         0.00000E+00
    0.33144E-08         0.28939E-06         0.00000E+00
    0.35657E-08         0.27428E-06         0.00000E+00
    0.37986E-08         0.25800E-06         0.00000E+00
    0.40124E-08         0.24060E-06         0.00000E+00
    0.42069E-08         0.22216E-06         0.00000E+00
    0.43818E-08         0.20277E-06         0.00000E+00
    0.45371E-08         0.18250E-06         0.00000E+00
    0.46729E-08         0.16145E-06         0.00000E+00
    0.47893E-08         0.13970E-06         0.00000E+00
    0.48866E-08         0.11735E-06         0.00000E+00
    0.49652E-08         0.94493E-07         0.00000E+00
    0.50254E-08         0.71230E-07         0.00000E+00
    0.50677E-08         0.47660E-07         0.00000E+00
    0.50927E-08         0.23883E-07         0.00000E+00
    0.51008E-08         0.11955E-07         0.00000E+00
    0.91218E-35         0.36347E-06         0.00000E+00
    0.34889E-09         0.36277E-06         0.00000E+00
    0.69199E-09         0.36058E-06         0.00000E+00
    0.10279E-08         0.35683E-06         0.00000E+00
    0.13553E-08         0.35154E-06         0.00000E+00
    0.16728E-08         0.34473E-06         0.00000E+00
    0.19790E-08         0.33643E-06         0.00000E+00
    0.22727E-08         0.32667E-06         0.00000E+00
    0.25528E-08         0.31551E-06         0.00000E+00
    0.28182E-08         0.30298E-06         0.00000E+00
    0.30680E-08         0.28914E-06         0.00000E+00
    0.33015E-08         0.27405E-06         0.00000E+00
    0.35180E-08         0.25778E-06         0.00000E+00
    0.37171E-08         0.24040E-06         0.00000E+00
    0.38983E-08         0.22198E-06         0.00000E+00
    0.40616E-08         0.20261E-06         0.00000E+00
    0.42067E-08         0.18236E-06         0.00000E+00
    0.43337E-08         0.16132E-06         0.00000E+00
    0.44428E-08         0.13959E-06         0.00000E+00
    0.45340E-08         0.11726E-06         0.00000E+00
    0.46078E-08         0.94425E-07         0.00000E+00
    0.46644E-08         0.71180E-07         0.00000E+00
    0.47042E-08         0.47627E-07         0.00000E+00
    0.47278E-08         0.23867E-07         0.00000E+00
    0.47354E-08         0.11947E-07         0.00000E+00
   -0.64505E-21         0.36313E-06         0.00000E+00
    0.32060E-09         0.36243E-06         0.00000E+00
    0.63579E-09         0.36025E-06         0.00000E+00
    0.94434E-09         0.35651E-06         0.00000E+00
    0.12450E-08         0.35123E-06         0.00000E+00
    0.15366E-08         0.34443E-06         0.00000E+00
    0.18180E-08         0.33614E-06         0.00000E+00
    0.20879E-08         0.32640E-06         0.00000E+00
    0.23455E-08         0.31524E-06         0.00000E+00
    0.25897E-08         0.30273E-06         0.00000E+00
    0.28198E-08         0.28890E-06         0.00000E+00
    0.30350E-08         0.27383E-06         0.00000E+00
    0.32348E-08         0.25758E-06         0.00000E+00
    0.34187E-08         0.24022E-06         0.00000E+00
    0.35862E-08         0.22181E-06         0.00000E+00
    0.37373E-08         0.20246E-06         0.00000E+00
    0.38717E-08         0.18223E-06         0.00000E+00
    0.39895E-08         0.16121E-06         0.00000E+00
    0.40907E-08         0.13950E-06         0.00000E+00
    0.41756E-08         0.11718E-06         0.00000E+00
    0.42442E-08         0.94362E-07         0.00000E+00
    0.42969E-08         0.71134E-07         0.00000E+00
    0.43340E-08         0.47596E-07         0.00000E+00
    0.43560E-08         0.23851E-07         0.00000E+00
    0.43631E-08         0.11940E-07         0.00000E+00
    0.00000E+00         0.36283E-06         0.00000E+00
    0.29217E-09         0.36213E-06         0.00000E+00
    0.57931E-09         0.35996E-06         0.00000E+00
    0.86035E-09         0.35622E-06         0.00000E+00
    0.11342E-08         0.35095E-06         0.00000E+00
    0.13998E-08         0.34416E-06         0.00000E+00
    0.16562E-08         0.33588E-06         0.00000E+00
    0.19022E-08         0.32615E-06         0.00000E+00
    0.21371E-08         0.31500E-06         0.00000E+00
    0.23599E-08         0.30250E-06         0.00000E+00
    0.25699E-08         0.28869E-06         0.00000E+00
    0.27665E-08         0.27363E-06         0.00000E+00
    0.29492E-08         0.25740E-06         0.00000E+00
    0.31174E-08         0.24005E-06         0.00000E+00
    0.32708E-08         0.22166E-06         0.00000E+00
    0.34093E-08         0.20232E-06         0.00000E+00
    0.35326E-08         0.18211E-06         0.00000E+00
    0.36408E-08         0.16110E-06         0.00000E+00
    0.37338E-08         0.13941E-06         0.00000E+00
    0.38118E-08         0.11711E-06         0.00000E+00
    0.38750E-08         0.94304E-07         0.00000E+00
    0.39236E-08         0.71090E-07         0.00000E+00
    0.39578E-08         0.47568E-07         0.00000E+00
    0.39781E-08         0.23837E-07         0.00000E+00
    0.39847E-08         0.11933E-07         0.00000E+00
    0.00000E+00         0.36255E-06         0.00000E+00
    0.26357E-09         0.36185E-06         0.00000E+00
    0.52253E-09         0.35969E-06         0.00000E+00
    0.77594E-09         0.35596E-06         0.00000E+00
    0.10229E-08         0.35069E-06         0.00000E+00
    0.12624E-08         0.34391E-06         0.00000E+00
    0.14935E-08         0.33564E-06         0.00000E+00
    0.17155E-08         0.32592E-06         0.00000E+00
    0.19274E-08         0.31479E-06         0.00000E+00
    0.21286E-08         0.30229E-06         0.00000E+00
    0.23183E-08         0.28850E-06         0.00000E+00
    0.24960E-08         0.27345E-06         0.00000E+00
    0.26612E-08         0.25723E-06         0.00000E+00
    0.28134E-08         0.23989E-06         0.00000E+00
    0.29524E-08         0.22152E-06         0.00000E+00
    0.30779E-08         0.20220E-06         0.00000E+00
    0.31898E-08         0.18199E-06         0.00000E+00
    0.32880E-08         0.16101E-06         0.00000E+00
    0.33725E-08         0.13933E-06         0.00000E+00
    0.34434E-08         0.11704E-06         0.00000E+00
    0.35009E-08         0.94251E-07         0.00000E+00
    0.35451E-08         0.71051E-07         0.00000E+00
    0.35763E-08         0.47542E-07         0.00000E+00
    0.35948E-08         0.23825E-07         0.00000E+00
    0.36008E-08         0.11926E-07         0.00000E+00
    0.00000E+00         0.36230E-06         0.00000E+00
    0.23480E-09         0.36161E-06         0.00000E+00
    0.46543E-09         0.35944E-06         0.00000E+00
    0.69109E-09         0.35572E-06         0.00000E+00
    0.91096E-09         0.35046E-06         0.00000E+00
    0.11242E-08         0.34369E-06         0.00000E+00
    0.13301E-08         0.33542E-06         0.00000E+00
    0.15278E-08         0.32571E-06         0.00000E+00
    0.17167E-08         0.31459E-06         0.00000E+00
    0.18960E-08         0.30211E-06         0.00000E+00
    0.20651E-08         0.28832E-06         0.00000E+00
    0.22237E-08         0.27329E-06         0.00000E+00
    0.23711E-08         0.25708E-06         0.00000E+00
    0.25071E-08         0.23976E-06         0.00000E+00
    0.26313E-08         0.22140E-06         0.00000E+00
    0.27435E-08         0.20208E-06         0.00000E+00
    0.28436E-08         0.18189E-06         0.00000E+00
    0.29315E-08         0.16092E-06         0.00000E+00
    0.30073E-08         0.13925E-06         0.00000E+00
    0.30709E-08         0.11698E-06         0.00000E+00
    0.31224E-08         0.94202E-07         0.00000E+00
    0.31621E-08         0.71015E-07         0.00000E+00
    0.31902E-08         0.47518E-07         0.00000E+00
    0.32068E-08         0.23813E-07         0.00000E+00
    0.32122E-08         0.11921E-07         0.00000E+00
    0.00000E+00         0.36208E-06         0.00000E+00
    0.20587E-09         0.36139E-06         0.00000E+00
    0.40803E-09         0.35923E-06         0.00000E+00
    0.60581E-09         0.35551E-06         0.00000E+00
    0.79850E-09         0.35026E-06         0.00000E+00
    0.98540E-09         0.34349E-06         0.00000E+00
    0.11658E-08         0.33524E-06         0.00000E+00
    0.13392E-08         0.32553E-06         0.00000E+00
    0.15047E-08         0.31442E-06         0.00000E+00
    0.16620E-08         0.30195E-06         0.00000E+00
    0.18105E-08         0.28817E-06         0.00000E+00
    0.19496E-08         0.27315E-06         0.00000E+00
    0.20791E-08         0.25695E-06         0.00000E+00
    0.21986E-08         0.23963E-06         0.00000E+00
    0.23077E-08         0.22129E-06         0.00000E+00
    0.24064E-08         0.20198E-06         0.00000E+00
    0.24945E-08         0.18181E-06         0.00000E+00
    0.25719E-08         0.16084E-06         0.00000E+00
    0.26387E-08         0.13919E-06         0.00000E+00
    0.26947E-08         0.11693E-06         0.00000E+00
    0.27402E-08         0.94159E-07         0.00000E+00
    0.27752E-08         0.70983E-07         0.00000E+00
    0.28000E-08         0.47497E-07         0.00000E+00
    0.28146E-08         0.23803E-07         0.00000E+00
    0.28195E-08         0.11916E-07         0.00000E+00
    0.00000E+00         0.36189E-06         0.00000E+00
    0.17678E-09         0.36120E-06         0.00000E+00
    0.35034E-09         0.35904E-06         0.00000E+00
    0.52012E-09         0.35533E-06         0.00000E+00
    0.68551E-09         0.35008E-06         0.00000E+00
    0.84594E-09         0.34332E-06         0.00000E+00
    0.10008E-08         0.33507E-06         0.00000E+00
    0.11496E-08         0.32537E-06         0.00000E+00
    0.12918E-08         0.31427E-06         0.00000E+00
    0.14269E-08         0.30180E-06         0.00000E+00
    0.15544E-08         0.28804E-06         0.00000E+00
    0.16740E-08         0.27302E-06         0.00000E+00
    0.17854E-08         0.25683E-06         0.00000E+00
    0.18881E-08         0.23953E-06         0.00000E+00
    0.19821E-08         0.22119E-06         0.00000E+00
    0.20670E-08         0.20190E-06         0.00000E+00
    0.21429E-08         0.18173E-06         0.00000E+00
    0.22096E-08         0.16078E-06         0.00000E+00
    0.22671E-08         0.13913E-06         0.00000E+00
    0.23154E-08         0.11688E-06         0.00000E+00
    0.23547E-08         0.94122E-07         0.00000E+00
    0.23849E-08         0.70955E-07         0.00000E+00
    0.24063E-08         0.47479E-07         0.00000E+00
    0.24190E-08         0.23793E-07         0.00000E+00
    0.24231E-08         0.11911E-07         0.00000E+00
    0.00000E+00         0.36173E-06         0.00000E+00
    0.14755E-09         0.36104E-06         0.00000E+00
    0.29239E-09         0.35889E-06         0.00000E+00
    0.43405E-09         0.35518E-06         0.00000E+00
    0.57205E-09         0.34993E-06         0.00000E+00
    0.70590E-09         0.34318E-06         0.00000E+00
    0.83515E-09         0.33493E-06         0.00000E+00
    0.95932E-09         0.32524E-06         0.00000E+00
    0.10780E-08         0.31414E-06         0.00000E+00
    0.11908E-08         0.30168E-06         0.00000E+00
    0.12972E-08         0.28792E-06         0.00000E+00
    0.13971E-08         0.27292E-06         0.00000E+00
    0.14901E-08         0.25673E-06         0.00000E+00
    0.15760E-08         0.23944E-06         0.00000E+00
    0.16545E-08         0.22111E-06         0.00000E+00
    0.17256E-08         0.20182E-06         0.00000E+00
    0.17891E-08         0.18166E-06         0.00000E+00
    0.18449E-08         0.16072E-06         0.00000E+00
    0.18930E-08         0.13908E-06         0.00000E+00
    0.19335E-08         0.11684E-06         0.00000E+00
    0.19664E-08         0.94090E-07         0.00000E+00
    0.19917E-08         0.70932E-07         0.00000E+00
    0.20097E-08         0.47463E-07         0.00000E+00
    0.20203E-08         0.23786E-07         0.00000E+00
    0.20238E-08         0.11907E-07         0.00000E+00
    0.00000E+00         0.36159E-06         0.00000E+00
    0.11819E-09         0.36091E-06         0.00000E+00
    0.23420E-09         0.35876E-06         0.00000E+00
    0.34765E-09         0.35505E-06         0.00000E+00
    0.45816E-09         0.34981E-06         0.00000E+00
    0.56536E-09         0.34306E-06         0.00000E+00
    0.66887E-09         0.33482E-06         0.00000E+00
    0.76832E-09         0.32513E-06         0.00000E+00
    0.86337E-09         0.31404E-06         0.00000E+00
    0.95371E-09         0.30159E-06         0.00000E+00
    0.10390E-08         0.28783E-06         0.00000E+00
    0.11191E-08         0.27283E-06         0.00000E+00
    0.11936E-08         0.25665E-06         0.00000E+00
    0.12625E-08         0.23936E-06         0.00000E+00
    0.13255E-08         0.22104E-06         0.00000E+00
    0.13825E-08         0.20176E-06         0.00000E+00
    0.14334E-08         0.18161E-06         0.00000E+00
    0.14782E-08         0.16067E-06         0.00000E+00
    0.15169E-08         0.13904E-06         0.00000E+00
    0.15494E-08         0.11681E-06         0.00000E+00
    0.15758E-08         0.94064E-07         0.00000E+00
    0.15962E-08         0.70912E-07         0.00000E+00
    0.16106E-08         0.47450E-07         0.00000E+00
    0.16192E-08         0.23779E-07         0.00000E+00
    0.16220E-08         0.11904E-07         0.00000E+00
    0.00000E+00         0.36149E-06         0.00000E+00
    0.88737E-10         0.36080E-06         0.00000E+00
    0.17582E-09         0.35866E-06         0.00000E+00
    0.26098E-09         0.35496E-06         0.00000E+00
    0.34394E-09         0.34972E-06         0.00000E+00
    0.42440E-09         0.34296E-06         0.00000E+00
    0.50209E-09         0.33473E-06         0.00000E+00
    0.57675E-09         0.32505E-06         0.00000E+00
    0.64811E-09         0.31396E-06         0.00000E+00
    0.71594E-09         0.30151E-06         0.00000E+00
    0.78001E-09         0.28776E-06         0.00000E+00
    0.84013E-09         0.27276E-06         0.00000E+00
    0.89613E-09         0.25659E-06         0.00000E+00
    0.94786E-09         0.23931E-06         0.00000E+00
    0.99519E-09         0.22099E-06         0.00000E+00
    0.10380E-08         0.20171E-06         0.00000E+00
    0.10763E-08         0.18157E-06         0.00000E+00
    0.11100E-08         0.16064E-06         0.00000E+00
    0.11391E-08         0.13901E-06         0.00000E+00
    0.11636E-08         0.11678E-06         0.00000E+00
    0.11835E-08         0.94043E-07         0.00000E+00
    0.11988E-08         0.70897E-07         0.00000E+00
    0.12096E-08         0.47440E-07         0.00000E+00
    0.12161E-08         0.23774E-07         0.00000E+00
    0.12182E-08         0.11902E-07         0.00000E+00
    0.00000E+00         0.36142E-06         0.00000E+00
    0.59202E-10         0.36073E-06         0.00000E+00
    0.11730E-09         0.35858E-06         0.00000E+00
    0.17411E-09         0.35489E-06         0.00000E+00
    0.22944E-09         0.34965E-06         0.00000E+00
    0.28311E-09         0.34290E-06         0.00000E+00
    0.33494E-09         0.33467E-06         0.00000E+00
    0.38474E-09         0.32498E-06         0.00000E+00
    0.43235E-09         0.31390E-06         0.00000E+00
    0.47760E-09         0.30145E-06         0.00000E+00
    0.52036E-09         0.28771E-06         0.00000E+00
    0.56048E-09         0.27271E-06         0.00000E+00
    0.59785E-09         0.25654E-06         0.00000E+00
    0.63238E-09         0.23926E-06         0.00000E+00
    0.66398E-09         0.22095E-06         0.00000E+00
    0.69259E-09         0.20168E-06         0.00000E+00
    0.71816E-09         0.18154E-06         0.00000E+00
    0.74066E-09         0.16061E-06         0.00000E+00
    0.76009E-09         0.13899E-06         0.00000E+00
    0.77643E-09         0.11676E-06         0.00000E+00
    0.78972E-09         0.94028E-07         0.00000E+00
    0.79996E-09         0.70886E-07         0.00000E+00
    0.80721E-09         0.47433E-07         0.00000E+00
    0.81151E-09         0.23771E-07         0.00000E+00
    0.81292E-09         0.11900E-07         0.00000E+00
    0.00000E+00         0.36137E-06         0.00000E+00
    0.29615E-10         0.36069E-06         0.00000E+00
    0.58675E-10         0.35854E-06         0.00000E+00
    0.87090E-10         0.35484E-06         0.00000E+00
    0.11477E-09         0.34961E-06         0.00000E+00
    0.14161E-09         0.34286E-06         0.00000E+00
    0.16754E-09         0.33463E-06         0.00000E+00
    0.19245E-09         0.32495E-06         0.00000E+00
    0.21626E-09         0.31386E-06         0.00000E+00
    0.23890E-09         0.30142E-06         0.00000E+00
    0.26028E-09         0.28767E-06         0.00000E+00
    0.28036E-09         0.27268E-06         0.00000E+00
    0.29905E-09         0.25652E-06         0.00000E+00
    0.31633E-09         0.23924E-06         0.00000E+00
    0.33214E-09         0.22093E-06         0.00000E+00
    0.34646E-09         0.20166E-06         0.00000E+00
    0.35926E-09         0.18152E-06         0.00000E+00
    0.37052E-09         0.16059E-06         0.00000E+00
    0.38025E-09         0.13897E-06         0.00000E+00
    0.38843E-09         0.11675E-06         0.00000E+00
    0.39508E-09         0.94019E-07         0.00000E+00
    0.40021E-09         0.70879E-07         0.00000E+00
    0.40384E-09         0.47429E-07         0.00000E+00
    0.40600E-09         0.23769E-07         0.00000E+00
    0.40670E-09         0.11899E-07         0.00000E+00
    0.00000E+00         0.36136E-06         0.00000E+00
    0.14811E-10         0.36067E-06         0.00000E+00
    0.29344E-10         0.35853E-06         0.00000E+00
    0.43554E-10         0.35483E-06         0.00000E+00
    0.57395E-10         0.34959E-06         0.00000E+00
    0.70820E-10         0.34285E-06         0.00000E+00
    0.83784E-10         0.33461E-06         0.00000E+00
    0.96241E-10         0.32494E-06         0.00000E+00
    0.10815E-09         0.31385E-06         0.00000E+00
    0.11947E-09         0.30141E-06         0.00000E+00
    0.13017E-09         0.28766E-06         0.00000E+00
    0.14021E-09         0.27268E-06         0.00000E+00
    0.14956E-09         0.25651E-06         0.00000E+00
    0.15820E-09         0.23923E-06         0.00000E+00
    0.16611E-09         0.22092E-06         0.00000E+00
    0.17327E-09         0.20165E-06         0.00000E+00
    0.17968E-09         0.18151E-06         0.00000E+00
    0.18531E-09         0.16059E-06         0.00000E+00
    0.19018E-09         0.13897E-06         0.00000E+00
    0.19427E-09         0.11675E-06         0.00000E+00
    0.19760E-09         0.94017E-07         0.00000E+00
    0.20016E-09         0.70877E-07         0.00000E+00
    0.20198E-09         0.47427E-07         0.00000E+00
    0.20306E-09         0.23768E-07         0.00000E+00
    0.20341E-09         0.11898E-07         0.00000E+00
CELL_DATA       1152
TENSORS stressef double 
   -0.50391E+05         0.36730E+03         0.00000E+00
    0.36730E+03        -0.10022E+06         0.00000E+00
    0.00000E+00         0.00000E+00        -0.56226E+05
 
   -0.40546E+05         0.26486E+04         0.00000E+00
    0.26486E+04        -0.96900E+05         0.00000E+00
    0.00000E+00         0.00000E+00        -0.65781E+05
 
   -0.34885E+05         0.38063E+04         0.00000E+00
    0.38063E+04        -0.88952E+05         0.00000E+00
    0.00000E+00         0.00000E+00        -0.63209E+05
 
   -0.29645E+05         0.40509E+04         0.00000E+00
    0.40509E+04        -0.80509E+05         0.00000E+00
    0.00000E+00         0.00000E+00        -0.57496E+05
 
   -0.24761E+05         0.38935E+04         0.00000E+00
    0.38935E+04        -0.72692E+05         0.00000E+00
    0.00000E+00         0.00000E+00        -0.51282E+05
 
   -0.20330E+05         0.35934E+04         0.00000E+00
    0.35934E+04        -0.65568E+05         0.00000E+00
    0.00000E+00         0.00000E+00        -0.45219E+05
 
   -0.16348E+05         0.32081E+04         0.00000E+00
    0.32081E+04        -0.59151E+05         0.00000E+00
    0.00000E+00         0.00000E+00        -0.39561E+05
 
   -0.13259E+05         0.27880E+04         0.00000E+00
    0.27880E+04        -0.53412E+05         0.00000E+00
    0.00000E+00         0.00000E+00        -0.34605E+05
 
   -0.10653E+05         0.24213E+04         0.00000E+00
    0.24213E+04        -0.48357E+05         0.00000E+00
    0.00000E+00         0.00000E+00        -0.30293E+05
 
   -0.83766E+04         0.20929E+04         0.00000E+00
    0.20929E+04        -0.43954E+05         0.00000E+00
    0.00000E+00         0.00000E+00        -0.26572E+05
 
   -0.64941E+04         0.18174E+04         0.00000E+00
    0.18174E+04        -0.40076E+05         0.00000E+00
    0.00000E+00         0.00000E+00        -0.23398E+05
 
   -0.48384E+04         0.16290E+04         0.00000E+00
    0.16290E+04        -0.36660E+05         0.00000E+00
    0.00000E+00         0.00000E+00        -0.20595E+05
 
   -0.33191E+04         0.14654E+04         0.00000E+00
    0.14654E+04        -0.33629E+05         0.00000E+00
    0.00000E+00         0.00000E+00        -0.18044E+05
 
   -0.19101E+04         0.13215E+04         0.00000E+00
    0.13215E+04        -0.30891E+05         0.00000E+00
    0.00000E+00         0.00000E+00        -0.15675E+05
 
   -0.62643E+03         0.11691E+04         0.00000E+00
    0.11691E+04        -0.28435E+05         0.00000E+00
    0.00000E+00         0.00000E+00        -0.13468E+05
 
    0.38855E+03         0.10430E+04         0.00000E+00
    0.10430E+04        -0.26254E+05         0.00000E+00
    0.00000E+00         0.00000E+00        -0.11468E+05
 
    0.12314E+04         0.89578E+03         0.00000E+00
    0.89578E+03        -0.24358E+05         0.00000E+00
    0.00000E+00         0.00000E+00        -0.96119E+04
 
    0.19404E+04         0.79589E+03         0.00000E+00
    0.79589E+03        -0.22702E+05         0.00000E+00
    0.00000E+00         0.00000E+00        -0.79615E+04
 
    0.25348E+04         0.70733E+03         0.00000E+00
    0.70733E+03        -0.21226E+05         0.00000E+00
    0.00000E+00         0.00000E+00        -0.64139E+04
 
    0.27048E+04         0.63230E+03         0.00000E+00
    0.63230E+03        -0.19900E+05         0.00000E+00
    0.00000E+00         0.00000E+00        -0.52515E+04
 
    0.78921E+03         0.54023E+03         0.00000E+00
    0.54023E+03        -0.18736E+05         0.00000E+00
    0.00000E+00         0.00000E+00        -0.53841E+04
 
   -0.13046E+04         0.48390E+03         0.00000E+00
    0.48390E+03        -0.17719E+05         0.00000E+00
    0.00000E+00         0.00000E+00        -0.57072E+04
 
   -0.33708E+04         0.46006E+03         0.00000E+00
    0.46006E+03        -0.16780E+05         0.00000E+00
    0.00000E+00         0.00000E+00        -0.60454E+04
 
   -0.55068E+04         0.46042E+03         0.00000E+00
    0.46042E+03        -0.15864E+05         0.00000E+00
    0.00000E+00         0.00000E+00        -0.64113E+04
 
   -0.46905E+05         0.27391E+04         0.00000E+00
    0.27391E+04        -0.99614E+05         0.00000E+00
    0.00000E+00         0.00000E+00        -0.59029E+05
 
   -0.37182E+05         0.97166E+04         0.00000E+00
    0.97166E+04        -0.88863E+05         0.00000E+00
    0.00000E+00         0.00000E+00        -0.63738E+05
 
   -0.33484E+05         0.11696E+05         0.00000E+00
    0.11696E+05        -0.80360E+05         0.00000E+00
    0.00000E+00         0.00000E+00        -0.59430E+05
 
   -0.29650E+05         0.11870E+05         0.00000E+00
    0.11870E+05        -0.73325E+05         0.00000E+00
    0.00000E+00         0.00000E+00        -0.54320E+05
 
   -0.25346E+05         0.11185E+05         0.00000E+00
    0.11185E+05        -0.66651E+05         0.00000E+00
    0.00000E+00         0.00000E+00        -0.48714E+05
 
   -0.21103E+05         0.10180E+05         0.00000E+00
    0.10180E+05        -0.60606E+05         0.00000E+00
    0.00000E+00         0.00000E+00        -0.43217E+05
 
   -0.17293E+05         0.90435E+04         0.00000E+00
    0.90435E+04        -0.55212E+05         0.00000E+00
    0.00000E+00         0.00000E+00        -0.38134E+05
 
   -0.14047E+05         0.79392E+04         0.00000E+00
    0.79392E+04        -0.50454E+05         0.00000E+00
    0.00000E+00         0.00000E+00        -0.33598E+05
 
   -0.11359E+05         0.69290E+04         0.00000E+00
    0.69290E+04        -0.46144E+05         0.00000E+00
    0.00000E+00         0.00000E+00        -0.29593E+05
 
   -0.89789E+04         0.60580E+04         0.00000E+00
    0.60580E+04        -0.42208E+05         0.00000E+00
    0.00000E+00         0.00000E+00        -0.26015E+05
 
   -0.69212E+04         0.53488E+04         0.00000E+00
    0.53488E+04        -0.38725E+05         0.00000E+00
    0.00000E+00         0.00000E+00        -0.22876E+05
 
   -0.51689E+04         0.47850E+04         0.00000E+00
    0.47850E+04        -0.35550E+05         0.00000E+00
    0.00000E+00         0.00000E+00        -0.20117E+05
 
   -0.36321E+04         0.42983E+04         0.00000E+00
    0.42983E+04        -0.32657E+05         0.00000E+00
    0.00000E+00         0.00000E+00        -0.17626E+05
 
   -0.21936E+04         0.38774E+04         0.00000E+00
    0.38774E+04        -0.30101E+05         0.00000E+00
    0.00000E+00         0.00000E+00        -0.15307E+05
 
   -0.92440E+03         0.34478E+04         0.00000E+00
    0.34478E+04        -0.27827E+05         0.00000E+00
    0.00000E+00         0.00000E+00        -0.13185E+05
 
    0.11999E+03         0.30234E+04         0.00000E+00
    0.30234E+04        -0.25817E+05         0.00000E+00
    0.00000E+00         0.00000E+00        -0.11265E+05
 
    0.99418E+03         0.26574E+04         0.00000E+00
    0.26574E+04        -0.24029E+05         0.00000E+00
    0.00000E+00         0.00000E+00        -0.94458E+04
 
    0.17510E+04         0.23527E+04         0.00000E+00
    0.23527E+04        -0.22424E+05         0.00000E+00
    0.00000E+00         0.00000E+00        -0.78182E+04
 
    0.23771E+04         0.21001E+04         0.00000E+00
    0.21001E+04        -0.21003E+05         0.00000E+00
    0.00000E+00         0.00000E+00        -0.63126E+04
 
    0.25251E+04         0.18769E+04         0.00000E+00
    0.18769E+04        -0.19710E+05         0.00000E+00
    0.00000E+00         0.00000E+00        -0.52242E+04
 
    0.63710E+03         0.16069E+04         0.00000E+00
    0.16069E+04        -0.18585E+05         0.00000E+00
    0.00000E+00         0.00000E+00        -0.53843E+04
 
   -0.13807E+04         0.14443E+04         0.00000E+00
    0.14443E+04        -0.17586E+05         0.00000E+00
    0.00000E+00         0.00000E+00        -0.56901E+04
 
   -0.33931E+04         0.13733E+04         0.00000E+00
    0.13733E+04        -0.16661E+05         0.00000E+00
    0.00000E+00         0.00000E+00        -0.60163E+04
 
   -0.54854E+04         0.13738E+04         0.00000E+00
    0.13738E+04        -0.15760E+05         0.00000E+00
    0.00000E+00         0.00000E+00        -0.63736E+04
 
   -0.34308E+05         0.16166E+05         0.00000E+00
    0.16166E+05        -0.75384E+05         0.00000E+00
    0.00000E+00         0.00000E+00        -0.55713E+05
 
   -0.33389E+05         0.18376E+05         0.00000E+00
    0.18376E+05        -0.64371E+05         0.00000E+00
    0.00000E+00         0.00000E+00        -0.52842E+05
 
   -0.33536E+05         0.18913E+05         0.00000E+00
    0.18913E+05        -0.61965E+05         0.00000E+00
    0.00000E+00         0.00000E+00        -0.51523E+05
 
   -0.30579E+05         0.17942E+05         0.00000E+00
    0.17942E+05        -0.58431E+05         0.00000E+00
    0.00000E+00         0.00000E+00        -0.47919E+05
 
   -0.26760E+05         0.16566E+05         0.00000E+00
    0.16566E+05        -0.55017E+05         0.00000E+00
    0.00000E+00         0.00000E+00        -0.43895E+05
 
   -0.22640E+05         0.14973E+05         0.00000E+00
    0.14973E+05        -0.51500E+05         0.00000E+00
    0.00000E+00         0.00000E+00        -0.39628E+05
 
   -0.18792E+05         0.13368E+05         0.00000E+00
    0.13368E+05        -0.48055E+05         0.00000E+00
    0.00000E+00         0.00000E+00        -0.35481E+05
 
   -0.15435E+05         0.11880E+05         0.00000E+00
    0.11880E+05        -0.44737E+05         0.00000E+00
    0.00000E+00         0.00000E+00        -0.31594E+05
 
   -0.12522E+05         0.10622E+05         0.00000E+00
    0.10622E+05        -0.41612E+05         0.00000E+00
    0.00000E+00         0.00000E+00        -0.28020E+05
 
   -0.99564E+04         0.94652E+04         0.00000E+00
    0.94652E+04        -0.38612E+05         0.00000E+00
    0.00000E+00         0.00000E+00        -0.24768E+05
 
   -0.77451E+04         0.84419E+04         0.00000E+00
    0.84419E+04        -0.35717E+05         0.00000E+00
    0.00000E+00         0.00000E+00        -0.21794E+05
 
   -0.58437E+04         0.75695E+04         0.00000E+00
    0.75695E+04        -0.33139E+05         0.00000E+00
    0.00000E+00         0.00000E+00        -0.19137E+05
 
   -0.42039E+04         0.68304E+04         0.00000E+00
    0.68304E+04        -0.30829E+05         0.00000E+00
    0.00000E+00         0.00000E+00        -0.16768E+05
 
   -0.27500E+04         0.61366E+04         0.00000E+00
    0.61366E+04        -0.28683E+05         0.00000E+00
    0.00000E+00         0.00000E+00        -0.14613E+05
 
   -0.14928E+04         0.54808E+04         0.00000E+00
    0.54808E+04        -0.26720E+05         0.00000E+00
    0.00000E+00         0.00000E+00        -0.12623E+05
 
   -0.38844E+03         0.48451E+04         0.00000E+00
    0.48451E+04        -0.24951E+05         0.00000E+00
    0.00000E+00         0.00000E+00        -0.10745E+05
 
    0.57379E+03         0.42774E+04         0.00000E+00
    0.42774E+04        -0.23345E+05         0.00000E+00
    0.00000E+00         0.00000E+00        -0.90462E+04
 
    0.13889E+04         0.38061E+04         0.00000E+00
    0.38061E+04        -0.21894E+05         0.00000E+00
    0.00000E+00         0.00000E+00        -0.75199E+04
 
    0.20781E+04         0.34279E+04         0.00000E+00
    0.34279E+04        -0.20565E+05         0.00000E+00
    0.00000E+00         0.00000E+00        -0.61160E+04
 
    0.21728E+04         0.30632E+04         0.00000E+00
    0.30632E+04        -0.19351E+05         0.00000E+00
    0.00000E+00         0.00000E+00        -0.51736E+04
 
    0.34973E+03         0.26406E+04         0.00000E+00
    0.26406E+04        -0.18271E+05         0.00000E+00
    0.00000E+00         0.00000E+00        -0.53765E+04
 
   -0.15290E+04         0.23831E+04         0.00000E+00
    0.23831E+04        -0.17307E+05         0.00000E+00
    0.00000E+00         0.00000E+00        -0.56509E+04
 
   -0.34389E+04         0.22644E+04         0.00000E+00
    0.22644E+04        -0.16413E+05         0.00000E+00
    0.00000E+00         0.00000E+00        -0.59556E+04
 
   -0.54423E+04         0.22634E+04         0.00000E+00
    0.22634E+04        -0.15544E+05         0.00000E+00
    0.00000E+00         0.00000E+00        -0.62960E+04
 
   -0.13667E+05         0.14261E+05         0.00000E+00
    0.14261E+05        -0.27519E+05         0.00000E+00
    0.00000E+00         0.00000E+00        -0.24696E+05
 
   -0.33315E+05         0.19993E+05         0.00000E+00
    0.19993E+05        -0.37879E+05         0.00000E+00
    0.00000E+00         0.00000E+00        -0.41094E+05
 
   -0.33834E+05         0.19630E+05         0.00000E+00
    0.19630E+05        -0.37797E+05         0.00000E+00
    0.00000E+00         0.00000E+00        -0.40565E+05
 
   -0.31843E+05         0.19156E+05         0.00000E+00
    0.19156E+05        -0.38809E+05         0.00000E+00
    0.00000E+00         0.00000E+00        -0.39546E+05
 
   -0.28267E+05         0.18222E+05         0.00000E+00
    0.18222E+05        -0.38968E+05         0.00000E+00
    0.00000E+00         0.00000E+00        -0.37282E+05
 
   -0.24305E+05         0.17046E+05         0.00000E+00
    0.17046E+05        -0.38593E+05         0.00000E+00
    0.00000E+00         0.00000E+00        -0.34533E+05
 
   -0.20436E+05         0.15706E+05         0.00000E+00
    0.15706E+05        -0.37658E+05         0.00000E+00
    0.00000E+00         0.00000E+00        -0.31522E+05
 
   -0.16926E+05         0.14338E+05         0.00000E+00
    0.14338E+05        -0.36332E+05         0.00000E+00
    0.00000E+00         0.00000E+00        -0.28473E+05
 
   -0.13888E+05         0.13037E+05         0.00000E+00
    0.13037E+05        -0.34813E+05         0.00000E+00
    0.00000E+00         0.00000E+00        -0.25514E+05
 
   -0.11146E+05         0.11875E+05         0.00000E+00
    0.11875E+05        -0.33248E+05         0.00000E+00
    0.00000E+00         0.00000E+00        -0.22674E+05
 
   -0.87929E+04         0.10766E+05         0.00000E+00
    0.10766E+05        -0.31606E+05         0.00000E+00
    0.00000E+00         0.00000E+00        -0.20065E+05
 
   -0.67724E+04         0.96977E+04         0.00000E+00
    0.96977E+04        -0.29870E+05         0.00000E+00
    0.00000E+00         0.00000E+00        -0.17688E+05
 
   -0.50153E+04         0.87620E+04         0.00000E+00
    0.87620E+04        -0.28191E+05         0.00000E+00
    0.00000E+00         0.00000E+00        -0.15537E+05
 
   -0.35110E+04         0.79189E+04         0.00000E+00
    0.79189E+04        -0.26640E+05         0.00000E+00
    0.00000E+00         0.00000E+00        -0.13603E+05
 
   -0.22064E+04         0.71245E+04         0.00000E+00
    0.71245E+04        -0.25199E+05         0.00000E+00
    0.00000E+00         0.00000E+00        -0.11804E+05
 
   -0.10638E+04         0.63871E+04         0.00000E+00
    0.63871E+04        -0.23831E+05         0.00000E+00
    0.00000E+00         0.00000E+00        -0.10127E+05
 
   -0.25734E+02         0.57347E+04         0.00000E+00
    0.57347E+04        -0.22452E+05         0.00000E+00
    0.00000E+00         0.00000E+00        -0.85747E+04
 
    0.91749E+03         0.51303E+04         0.00000E+00
    0.51303E+04        -0.21117E+05         0.00000E+00
    0.00000E+00         0.00000E+00        -0.71369E+04
 
    0.17004E+04         0.46607E+04         0.00000E+00
    0.46607E+04        -0.19884E+05         0.00000E+00
    0.00000E+00         0.00000E+00        -0.58496E+04
 
    0.16259E+04         0.41619E+04         0.00000E+00
    0.41619E+04        -0.18763E+05         0.00000E+00
    0.00000E+00         0.00000E+00        -0.51410E+04
 
   -0.43611E+02         0.36219E+04         0.00000E+00
    0.36219E+04        -0.17765E+05         0.00000E+00
    0.00000E+00         0.00000E+00        -0.53425E+04
 
   -0.17471E+04         0.32798E+04         0.00000E+00
    0.32798E+04        -0.16862E+05         0.00000E+00
    0.00000E+00         0.00000E+00        -0.55828E+04
 
   -0.35102E+04         0.31135E+04         0.00000E+00
    0.31135E+04        -0.16023E+05         0.00000E+00
    0.00000E+00         0.00000E+00        -0.58599E+04
 
   -0.53771E+04         0.31096E+04         0.00000E+00
    0.31096E+04        -0.15208E+05         0.00000E+00
    0.00000E+00         0.00000E+00        -0.61757E+04
 
   -0.53469E+04         0.32349E+04         0.00000E+00
    0.32349E+04         0.36724E+04         0.00000E+00
    0.00000E+00         0.00000E+00         0.23213E+03
 
   -0.27103E+05         0.11085E+05         0.00000E+00
    0.11085E+05        -0.97058E+04         0.00000E+00
    0.00000E+00         0.00000E+00        -0.19807E+05
 
   -0.32124E+05         0.14176E+05         0.00000E+00
    0.14176E+05        -0.17695E+05         0.00000E+00
    0.00000E+00         0.00000E+00        -0.27674E+05
 
   -0.30963E+05         0.15562E+05         0.00000E+00
    0.15562E+05        -0.21987E+05         0.00000E+00
    0.00000E+00         0.00000E+00        -0.29206E+05
 
   -0.28342E+05         0.16162E+05         0.00000E+00
    0.16162E+05        -0.24972E+05         0.00000E+00
    0.00000E+00         0.00000E+00        -0.29112E+05
 
   -0.24961E+05         0.16103E+05         0.00000E+00
    0.16103E+05        -0.26820E+05         0.00000E+00
    0.00000E+00         0.00000E+00        -0.27933E+05
 
   -0.21430E+05         0.15590E+05         0.00000E+00
    0.15590E+05        -0.27860E+05         0.00000E+00
    0.00000E+00         0.00000E+00        -0.26198E+05
 
   -0.18058E+05         0.14789E+05         0.00000E+00
    0.14789E+05        -0.28262E+05         0.00000E+00
    0.00000E+00         0.00000E+00        -0.24177E+05
 
   -0.15009E+05         0.13853E+05         0.00000E+00
    0.13853E+05        -0.28171E+05         0.00000E+00
    0.00000E+00         0.00000E+00        -0.22050E+05
 
   -0.12272E+05         0.12870E+05         0.00000E+00
    0.12870E+05        -0.27743E+05         0.00000E+00
    0.00000E+00         0.00000E+00        -0.19909E+05
 
   -0.98616E+04         0.11908E+05         0.00000E+00
    0.11908E+05        -0.27142E+05         0.00000E+00
    0.00000E+00         0.00000E+00        -0.17841E+05
 
   -0.77534E+04         0.10979E+05         0.00000E+00
    0.10979E+05        -0.26368E+05         0.00000E+00
    0.00000E+00         0.00000E+00        -0.15892E+05
 
   -0.59142E+04         0.10067E+05         0.00000E+00
    0.10067E+05        -0.25390E+05         0.00000E+00
    0.00000E+00         0.00000E+00        -0.14077E+05
 
   -0.43692E+04         0.91818E+04         0.00000E+00
    0.91818E+04        -0.24354E+05         0.00000E+00
    0.00000E+00         0.00000E+00        -0.12417E+05
 
   -0.29848E+04         0.83396E+04         0.00000E+00
    0.83396E+04        -0.23314E+05         0.00000E+00
    0.00000E+00         0.00000E+00        -0.10870E+05
 
   -0.17768E+04         0.76113E+04         0.00000E+00
    0.76113E+04        -0.22205E+05         0.00000E+00
    0.00000E+00         0.00000E+00        -0.94381E+04
 
   -0.68982E+03         0.69418E+04         0.00000E+00
    0.69418E+04        -0.21128E+05         0.00000E+00
    0.00000E+00         0.00000E+00        -0.80768E+04
 
    0.34368E+03         0.63231E+04         0.00000E+00
    0.63231E+04        -0.20068E+05         0.00000E+00
    0.00000E+00         0.00000E+00        -0.67232E+04
 
    0.12774E+04         0.57860E+04         0.00000E+00
    0.57860E+04        -0.18954E+05         0.00000E+00
    0.00000E+00         0.00000E+00        -0.55139E+04
 
    0.91350E+03         0.51595E+04         0.00000E+00
    0.51595E+04        -0.17920E+05         0.00000E+00
    0.00000E+00         0.00000E+00        -0.51018E+04
 
   -0.52589E+03         0.45179E+04         0.00000E+00
    0.45179E+04        -0.17042E+05         0.00000E+00
    0.00000E+00         0.00000E+00        -0.52705E+04
 
   -0.20288E+04         0.41035E+04         0.00000E+00
    0.41035E+04        -0.16238E+05         0.00000E+00
    0.00000E+00         0.00000E+00        -0.54801E+04
 
   -0.36064E+04         0.38952E+04         0.00000E+00
    0.38952E+04        -0.15485E+05         0.00000E+00
    0.00000E+00         0.00000E+00        -0.57274E+04
 
   -0.52898E+04         0.38895E+04         0.00000E+00
    0.38895E+04        -0.14749E+05         0.00000E+00
    0.00000E+00         0.00000E+00        -0.60118E+04
 
    0.33640E+03        -0.11882E+04         0.00000E+00
   -0.11882E+04        -0.16838E+04         0.00000E+00
    0.00000E+00         0.00000E+00        -0.16419E+03
 
   -0.24262E+05         0.58099E+04         0.00000E+00
    0.58099E+04        -0.31117E+04         0.00000E+00
    0.00000E+00         0.00000E+00        -0.10025E+05
 
   -0.28863E+05         0.95685E+04         0.00000E+00
    0.95685E+04        -0.92096E+04         0.00000E+00
    0.00000E+00         0.00000E+00        -0.18316E+05
 
   -0.29153E+05         0.11881E+05         0.00000E+00
    0.11881E+05        -0.13478E+05         0.00000E+00
    0.00000E+00         0.00000E+00        -0.21767E+05
 
   -0.27273E+05         0.13319E+05         0.00000E+00
    0.13319E+05        -0.16586E+05         0.00000E+00
    0.00000E+00         0.00000E+00        -0.22791E+05
 
   -0.24636E+05         0.14068E+05         0.00000E+00
    0.14068E+05        -0.18911E+05         0.00000E+00
    0.00000E+00         0.00000E+00        -0.22591E+05
 
   -0.21632E+05         0.14282E+05         0.00000E+00
    0.14282E+05        -0.20586E+05         0.00000E+00
    0.00000E+00         0.00000E+00        -0.21711E+05
 
   -0.18605E+05         0.14091E+05         0.00000E+00
    0.14091E+05        -0.21699E+05         0.00000E+00
    0.00000E+00         0.00000E+00        -0.20427E+05
 
   -0.15747E+05         0.13634E+05         0.00000E+00
    0.13634E+05        -0.22353E+05         0.00000E+00
    0.00000E+00         0.00000E+00        -0.18938E+05
 
   -0.13116E+05         0.13006E+05         0.00000E+00
    0.13006E+05        -0.22632E+05         0.00000E+00
    0.00000E+00         0.00000E+00        -0.17346E+05
 
   -0.10738E+05         0.12268E+05         0.00000E+00
    0.12268E+05        -0.22614E+05         0.00000E+00
    0.00000E+00         0.00000E+00        -0.15732E+05
 
   -0.86041E+04         0.11540E+05         0.00000E+00
    0.11540E+05        -0.22381E+05         0.00000E+00
    0.00000E+00         0.00000E+00        -0.14132E+05
 
   -0.67727E+04         0.10766E+05         0.00000E+00
    0.10766E+05        -0.22038E+05         0.00000E+00
    0.00000E+00         0.00000E+00        -0.12647E+05
 
   -0.51814E+04         0.99913E+04         0.00000E+00
    0.99913E+04        -0.21522E+05         0.00000E+00
    0.00000E+00         0.00000E+00        -0.11256E+05
 
   -0.37700E+04         0.92553E+04         0.00000E+00
    0.92553E+04        -0.20804E+05         0.00000E+00
    0.00000E+00         0.00000E+00        -0.99525E+04
 
   -0.24760E+04         0.85359E+04         0.00000E+00
    0.85359E+04        -0.20023E+05         0.00000E+00
    0.00000E+00         0.00000E+00        -0.86861E+04
 
   -0.13429E+04         0.78591E+04         0.00000E+00
    0.78591E+04        -0.19229E+05         0.00000E+00
    0.00000E+00         0.00000E+00        -0.74662E+04
 
   -0.22822E+03         0.72841E+04         0.00000E+00
    0.72841E+04        -0.18419E+05         0.00000E+00
    0.00000E+00         0.00000E+00        -0.62233E+04
 
    0.76188E+03         0.67704E+04         0.00000E+00
    0.67704E+04        -0.17586E+05         0.00000E+00
    0.00000E+00         0.00000E+00        -0.51437E+04
 
    0.94252E+02         0.59908E+04         0.00000E+00
    0.59908E+04        -0.16813E+05         0.00000E+00
    0.00000E+00         0.00000E+00        -0.50155E+04
 
   -0.10799E+04         0.52840E+04         0.00000E+00
    0.52840E+04        -0.16110E+05         0.00000E+00
    0.00000E+00         0.00000E+00        -0.51570E+04
 
   -0.23608E+04         0.48173E+04         0.00000E+00
    0.48173E+04        -0.15449E+05         0.00000E+00
    0.00000E+00         0.00000E+00        -0.53430E+04
 
   -0.37205E+04         0.45829E+04         0.00000E+00
    0.45829E+04        -0.14811E+05         0.00000E+00
    0.00000E+00         0.00000E+00        -0.55595E+04
 
   -0.51807E+04         0.45806E+04         0.00000E+00
    0.45806E+04        -0.14177E+05         0.00000E+00
    0.00000E+00         0.00000E+00        -0.58073E+04
 
    0.94887E+03        -0.17039E+04         0.00000E+00
   -0.17039E+04         0.49021E+02         0.00000E+00
    0.00000E+00         0.00000E+00         0.35062E+03
 
   -0.18633E+05         0.80513E+03         0.00000E+00
    0.80513E+03        -0.13738E+04         0.00000E+00
    0.00000E+00         0.00000E+00        -0.60021E+04
 
   -0.26652E+05         0.61350E+04         0.00000E+00
    0.61350E+04        -0.49878E+04         0.00000E+00
    0.00000E+00         0.00000E+00        -0.12163E+05
 
   -0.26866E+05         0.88909E+04         0.00000E+00
    0.88909E+04        -0.83076E+04         0.00000E+00
    0.00000E+00         0.00000E+00        -0.15722E+05
 
   -0.25819E+05         0.10756E+05         0.00000E+00
    0.10756E+05        -0.11200E+05         0.00000E+00
    0.00000E+00         0.00000E+00        -0.17432E+05
 
   -0.23743E+05         0.12012E+05         0.00000E+00
    0.12012E+05        -0.13532E+05         0.00000E+00
    0.00000E+00         0.00000E+00        -0.17925E+05
 
   -0.21274E+05         0.12691E+05         0.00000E+00
    0.12691E+05        -0.15312E+05         0.00000E+00
    0.00000E+00         0.00000E+00        -0.17677E+05
 
   -0.18639E+05         0.12948E+05         0.00000E+00
    0.12948E+05        -0.16671E+05         0.00000E+00
    0.00000E+00         0.00000E+00        -0.16960E+05
 
   -0.16062E+05         0.12881E+05         0.00000E+00
    0.12881E+05        -0.17656E+05         0.00000E+00
    0.00000E+00         0.00000E+00        -0.15976E+05
 
   -0.13629E+05         0.12588E+05         0.00000E+00
    0.12588E+05        -0.18329E+05         0.00000E+00
    0.00000E+00         0.00000E+00        -0.14829E+05
 
   -0.11342E+05         0.12166E+05         0.00000E+00
    0.12166E+05        -0.18723E+05         0.00000E+00
    0.00000E+00         0.00000E+00        -0.13573E+05
 
   -0.92755E+04         0.11624E+05         0.00000E+00
    0.11624E+05        -0.18891E+05         0.00000E+00
    0.00000E+00         0.00000E+00        -0.12303E+05
 
   -0.74746E+04         0.11037E+05         0.00000E+00
    0.11037E+05        -0.18828E+05         0.00000E+00
    0.00000E+00         0.00000E+00        -0.11097E+05
 
   -0.58743E+04         0.10419E+05         0.00000E+00
    0.10419E+05        -0.18584E+05         0.00000E+00
    0.00000E+00         0.00000E+00        -0.99496E+04
 
   -0.44465E+04         0.97933E+04         0.00000E+00
    0.97933E+04        -0.18254E+05         0.00000E+00
    0.00000E+00         0.00000E+00        -0.88635E+04
 
   -0.31400E+04         0.91719E+04         0.00000E+00
    0.91719E+04        -0.17824E+05         0.00000E+00
    0.00000E+00         0.00000E+00        -0.77692E+04
 
   -0.19318E+04         0.85745E+04         0.00000E+00
    0.85745E+04        -0.17271E+05         0.00000E+00
    0.00000E+00         0.00000E+00        -0.66784E+04
 
   -0.77412E+03         0.80332E+04         0.00000E+00
    0.80332E+04        -0.16616E+05         0.00000E+00
    0.00000E+00         0.00000E+00        -0.56675E+04
 
    0.50065E+02         0.74566E+04         0.00000E+00
    0.74566E+04        -0.15970E+05         0.00000E+00
    0.00000E+00         0.00000E+00        -0.48138E+04
 
   -0.71303E+03         0.65799E+04         0.00000E+00
    0.65799E+04        -0.15496E+05         0.00000E+00
    0.00000E+00         0.00000E+00        -0.48628E+04
 
   -0.16785E+04         0.58664E+04         0.00000E+00
    0.58664E+04        -0.15029E+05         0.00000E+00
    0.00000E+00         0.00000E+00        -0.50121E+04
 
   -0.27149E+04         0.53907E+04         0.00000E+00
    0.53907E+04        -0.14538E+05         0.00000E+00
    0.00000E+00         0.00000E+00        -0.51758E+04
 
   -0.38386E+04         0.51553E+04         0.00000E+00
    0.51553E+04        -0.14033E+05         0.00000E+00
    0.00000E+00         0.00000E+00        -0.53616E+04
 
   -0.50503E+04         0.51650E+04         0.00000E+00
    0.51650E+04        -0.13515E+05         0.00000E+00
    0.00000E+00         0.00000E+00        -0.55695E+04
 
   -0.85878E+03        -0.17690E+04         0.00000E+00
   -0.17690E+04        -0.28062E+02         0.00000E+00
    0.00000E+00         0.00000E+00        -0.26605E+03
 
   -0.14035E+05        -0.11455E+04         0.00000E+00
   -0.11455E+04        -0.32858E+03         0.00000E+00
    0.00000E+00         0.00000E+00        -0.43090E+04
 
   -0.23208E+05         0.29835E+04         0.00000E+00
    0.29835E+04        -0.14804E+04         0.00000E+00
    0.00000E+00         0.00000E+00        -0.76369E+04
 
   -0.24778E+05         0.62787E+04         0.00000E+00
    0.62787E+04        -0.46970E+04         0.00000E+00
    0.00000E+00         0.00000E+00        -0.11370E+05
 
   -0.24089E+05         0.84507E+04         0.00000E+00
    0.84507E+04        -0.71059E+04         0.00000E+00
    0.00000E+00         0.00000E+00        -0.13210E+05
 
   -0.22523E+05         0.10024E+05         0.00000E+00
    0.10024E+05        -0.92863E+04         0.00000E+00
    0.00000E+00         0.00000E+00        -0.13934E+05
 
   -0.20561E+05         0.11079E+05         0.00000E+00
    0.11079E+05        -0.11178E+05         0.00000E+00
    0.00000E+00         0.00000E+00        -0.14109E+05
 
   -0.18317E+05         0.11676E+05         0.00000E+00
    0.11676E+05        -0.12664E+05         0.00000E+00
    0.00000E+00         0.00000E+00        -0.13789E+05
 
   -0.16049E+05         0.11923E+05         0.00000E+00
    0.11923E+05        -0.13809E+05         0.00000E+00
    0.00000E+00         0.00000E+00        -0.13194E+05
 
   -0.13818E+05         0.11917E+05         0.00000E+00
    0.11917E+05        -0.14650E+05         0.00000E+00
    0.00000E+00         0.00000E+00        -0.12395E+05
 
   -0.11692E+05         0.11738E+05         0.00000E+00
    0.11738E+05        -0.15235E+05         0.00000E+00
    0.00000E+00         0.00000E+00        -0.11466E+05
 
   -0.97377E+04         0.11432E+05         0.00000E+00
    0.11432E+05        -0.15588E+05         0.00000E+00
    0.00000E+00         0.00000E+00        -0.10482E+05
 
   -0.79964E+04         0.11021E+05         0.00000E+00
    0.11021E+05        -0.15782E+05         0.00000E+00
    0.00000E+00         0.00000E+00        -0.95296E+04
 
   -0.64291E+04         0.10558E+05         0.00000E+00
    0.10558E+05        -0.15833E+05         0.00000E+00
    0.00000E+00         0.00000E+00        -0.86044E+04
 
   -0.50030E+04         0.10065E+05         0.00000E+00
    0.10065E+05        -0.15713E+05         0.00000E+00
    0.00000E+00         0.00000E+00        -0.76957E+04
 
   -0.37030E+04         0.95621E+04         0.00000E+00
    0.95621E+04        -0.15458E+05         0.00000E+00
    0.00000E+00         0.00000E+00        -0.68245E+04
 
   -0.24580E+04         0.90654E+04         0.00000E+00
    0.90654E+04        -0.15114E+05         0.00000E+00
    0.00000E+00         0.00000E+00        -0.59389E+04
 
   -0.12846E+04         0.85754E+04         0.00000E+00
    0.85754E+04        -0.14687E+05         0.00000E+00
    0.00000E+00         0.00000E+00        -0.50590E+04
 
   -0.83288E+03         0.78527E+04         0.00000E+00
    0.78527E+04        -0.14352E+05         0.00000E+00
    0.00000E+00         0.00000E+00        -0.45554E+04
 
   -0.15298E+04         0.69179E+04         0.00000E+00
    0.69179E+04        -0.14161E+05         0.00000E+00
    0.00000E+00         0.00000E+00        -0.47074E+04
 
   -0.22526E+04         0.62514E+04         0.00000E+00
    0.62514E+04        -0.13895E+05         0.00000E+00
    0.00000E+00         0.00000E+00        -0.48443E+04
 
   -0.30569E+04         0.58140E+04         0.00000E+00
    0.58140E+04        -0.13568E+05         0.00000E+00
    0.00000E+00         0.00000E+00        -0.49875E+04
 
   -0.39427E+04         0.56042E+04         0.00000E+00
    0.56042E+04        -0.13196E+05         0.00000E+00
    0.00000E+00         0.00000E+00        -0.51417E+04
 
   -0.49003E+04         0.56343E+04         0.00000E+00
    0.56343E+04        -0.12795E+05         0.00000E+00
    0.00000E+00         0.00000E+00        -0.53087E+04
 
   -0.28933E+04        -0.15202E+04         0.00000E+00
   -0.15202E+04         0.15848E+03         0.00000E+00
    0.00000E+00         0.00000E+00        -0.82043E+03
 
   -0.11935E+05        -0.16427E+04         0.00000E+00
   -0.16427E+04         0.28794E+03         0.00000E+00
    0.00000E+00         0.00000E+00        -0.34942E+04
 
   -0.19235E+05         0.78366E+03         0.00000E+00
    0.78366E+03        -0.66774E+03         0.00000E+00
    0.00000E+00         0.00000E+00        -0.59709E+04
 
   -0.22452E+05         0.41344E+04         0.00000E+00
    0.41344E+04        -0.20290E+04         0.00000E+00
    0.00000E+00         0.00000E+00        -0.80265E+04
 
   -0.22272E+05         0.65008E+04         0.00000E+00
    0.65008E+04        -0.41137E+04         0.00000E+00
    0.00000E+00         0.00000E+00        -0.99063E+04
 
   -0.21132E+05         0.82004E+04         0.00000E+00
    0.82004E+04        -0.59004E+04         0.00000E+00
    0.00000E+00         0.00000E+00        -0.10847E+05
 
   -0.19582E+05         0.94568E+04         0.00000E+00
    0.94568E+04        -0.75615E+04         0.00000E+00
    0.00000E+00         0.00000E+00        -0.11158E+05
 
   -0.17718E+05         0.10347E+05         0.00000E+00
    0.10347E+05        -0.90531E+04         0.00000E+00
    0.00000E+00         0.00000E+00        -0.11095E+05
 
   -0.15778E+05         0.10864E+05         0.00000E+00
    0.10864E+05        -0.10293E+05         0.00000E+00
    0.00000E+00         0.00000E+00        -0.10763E+05
 
   -0.13763E+05         0.11108E+05         0.00000E+00
    0.11108E+05        -0.11264E+05         0.00000E+00
    0.00000E+00         0.00000E+00        -0.10221E+05
 
   -0.11810E+05         0.11158E+05         0.00000E+00
    0.11158E+05        -0.12010E+05         0.00000E+00
    0.00000E+00         0.00000E+00        -0.95410E+04
 
   -0.99981E+04         0.11044E+05         0.00000E+00
    0.11044E+05        -0.12560E+05         0.00000E+00
    0.00000E+00         0.00000E+00        -0.88015E+04
 
   -0.83530E+04         0.10809E+05         0.00000E+00
    0.10809E+05        -0.12920E+05         0.00000E+00
    0.00000E+00         0.00000E+00        -0.80667E+04
 
   -0.68351E+04         0.10502E+05         0.00000E+00
    0.10502E+05        -0.13103E+05         0.00000E+00
    0.00000E+00         0.00000E+00        -0.73332E+04
 
   -0.54345E+04         0.10142E+05         0.00000E+00
    0.10142E+05        -0.13176E+05         0.00000E+00
    0.00000E+00         0.00000E+00        -0.65979E+04
 
   -0.41535E+04         0.97446E+04         0.00000E+00
    0.97446E+04        -0.13151E+05         0.00000E+00
    0.00000E+00         0.00000E+00        -0.58848E+04
 
   -0.29113E+04         0.93335E+04         0.00000E+00
    0.93335E+04        -0.12982E+05         0.00000E+00
    0.00000E+00         0.00000E+00        -0.51325E+04
 
   -0.18338E+04         0.88775E+04         0.00000E+00
    0.88775E+04        -0.12817E+05         0.00000E+00
    0.00000E+00         0.00000E+00        -0.44381E+04
 
   -0.18897E+04         0.78617E+04         0.00000E+00
    0.78617E+04        -0.12913E+05         0.00000E+00
    0.00000E+00         0.00000E+00        -0.44407E+04
 
   -0.22671E+04         0.70549E+04         0.00000E+00
    0.70549E+04        -0.12911E+05         0.00000E+00
    0.00000E+00         0.00000E+00        -0.45534E+04
 
   -0.27673E+04         0.64762E+04         0.00000E+00
    0.64762E+04        -0.12796E+05         0.00000E+00
    0.00000E+00         0.00000E+00        -0.46689E+04
 
   -0.33555E+04         0.61020E+04         0.00000E+00
    0.61020E+04        -0.12598E+05         0.00000E+00
    0.00000E+00         0.00000E+00        -0.47861E+04
 
   -0.40184E+04         0.59351E+04         0.00000E+00
    0.59351E+04        -0.12343E+05         0.00000E+00
    0.00000E+00         0.00000E+00        -0.49085E+04
 
   -0.47331E+04         0.59900E+04         0.00000E+00
    0.59900E+04        -0.12052E+05         0.00000E+00
    0.00000E+00         0.00000E+00        -0.50356E+04
 
   -0.47269E+04        -0.11862E+04         0.00000E+00
   -0.11862E+04         0.14247E+03         0.00000E+00
    0.00000E+00         0.00000E+00        -0.13753E+04
 
   -0.11047E+05        -0.16568E+04         0.00000E+00
   -0.16568E+04         0.43179E+03         0.00000E+00
    0.00000E+00         0.00000E+00        -0.31847E+04
 
   -0.16292E+05        -0.95860E+02         0.00000E+00
   -0.95860E+02         0.34147E+03         0.00000E+00
    0.00000E+00         0.00000E+00        -0.47851E+04
 
   -0.19717E+05         0.24489E+04         0.00000E+00
    0.24489E+04        -0.40726E+03         0.00000E+00
    0.00000E+00         0.00000E+00        -0.60373E+04
 
   -0.20417E+05         0.48762E+04         0.00000E+00
    0.48762E+04        -0.18354E+04         0.00000E+00
    0.00000E+00         0.00000E+00        -0.72831E+04
 
   -0.19683E+05         0.66865E+04         0.00000E+00
    0.66865E+04        -0.34014E+04         0.00000E+00
    0.00000E+00         0.00000E+00        -0.82662E+04
 
   -0.18455E+05         0.80361E+04         0.00000E+00
    0.80361E+04        -0.47979E+04         0.00000E+00
    0.00000E+00         0.00000E+00        -0.87343E+04
 
   -0.16918E+05         0.90457E+04         0.00000E+00
    0.90457E+04        -0.60911E+04         0.00000E+00
    0.00000E+00         0.00000E+00        -0.88334E+04
 
   -0.15274E+05         0.97703E+04         0.00000E+00
    0.97703E+04        -0.72623E+04         0.00000E+00
    0.00000E+00         0.00000E+00        -0.86738E+04
 
   -0.13501E+05         0.10223E+05         0.00000E+00
    0.10223E+05        -0.82788E+04         0.00000E+00
    0.00000E+00         0.00000E+00        -0.83369E+04
 
   -0.11742E+05         0.10460E+05         0.00000E+00
    0.10460E+05        -0.90913E+04         0.00000E+00
    0.00000E+00         0.00000E+00        -0.78549E+04
 
   -0.10087E+05         0.10516E+05         0.00000E+00
    0.10516E+05        -0.97323E+04         0.00000E+00
    0.00000E+00         0.00000E+00        -0.73019E+04
 
   -0.85414E+04         0.10444E+05         0.00000E+00
    0.10444E+05        -0.10233E+05         0.00000E+00
    0.00000E+00         0.00000E+00        -0.67060E+04
 
   -0.70978E+04         0.10280E+05         0.00000E+00
    0.10280E+05        -0.10625E+05         0.00000E+00
    0.00000E+00         0.00000E+00        -0.61319E+04
 
   -0.57465E+04         0.10048E+05         0.00000E+00
    0.10048E+05        -0.10834E+05         0.00000E+00
    0.00000E+00         0.00000E+00        -0.55332E+04
 
   -0.45155E+04         0.97447E+04         0.00000E+00
    0.97447E+04        -0.10909E+05         0.00000E+00
    0.00000E+00         0.00000E+00        -0.49473E+04
 
   -0.32798E+04         0.94363E+04         0.00000E+00
    0.94363E+04        -0.11002E+05         0.00000E+00
    0.00000E+00         0.00000E+00        -0.43274E+04
 
   -0.27998E+04         0.85713E+04         0.00000E+00
    0.85713E+04        -0.11370E+05         0.00000E+00
    0.00000E+00         0.00000E+00        -0.42509E+04
 
   -0.27297E+04         0.77261E+04         0.00000E+00
    0.77261E+04        -0.11673E+05         0.00000E+00
    0.00000E+00         0.00000E+00        -0.43209E+04
 
   -0.28981E+04         0.70649E+04         0.00000E+00
    0.70649E+04        -0.11779E+05         0.00000E+00
    0.00000E+00         0.00000E+00        -0.44031E+04
 
   -0.32008E+04         0.65838E+04         0.00000E+00
    0.65838E+04        -0.11764E+05         0.00000E+00
    0.00000E+00         0.00000E+00        -0.44895E+04
 
   -0.35976E+04         0.62810E+04         0.00000E+00
    0.62810E+04        -0.11665E+05         0.00000E+00
    0.00000E+00         0.00000E+00        -0.45788E+04
 
   -0.40584E+04         0.61621E+04         0.00000E+00
    0.61621E+04        -0.11506E+05         0.00000E+00
    0.00000E+00         0.00000E+00        -0.46694E+04
 
   -0.45527E+04         0.62413E+04         0.00000E+00
    0.62413E+04        -0.11312E+05         0.00000E+00
    0.00000E+00         0.00000E+00        -0.47595E+04
 
   -0.62296E+04        -0.87760E+03         0.00000E+00
   -0.87760E+03         0.12300E+03         0.00000E+00
    0.00000E+00         0.00000E+00        -0.18320E+04
 
   -0.10573E+05        -0.13323E+04         0.00000E+00
   -0.13323E+04         0.49517E+03         0.00000E+00
    0.00000E+00         0.00000E+00        -0.30234E+04
 
   -0.14492E+05        -0.34043E+03         0.00000E+00
   -0.34043E+03         0.66371E+03         0.00000E+00
    0.00000E+00         0.00000E+00        -0.41484E+04
 
   -0.17174E+05         0.15172E+04         0.00000E+00
    0.15172E+04         0.31674E+03         0.00000E+00
    0.00000E+00         0.00000E+00        -0.50573E+04
 
   -0.18455E+05         0.36122E+04         0.00000E+00
    0.36122E+04        -0.27207E+03         0.00000E+00
    0.00000E+00         0.00000E+00        -0.56181E+04
 
   -0.18199E+05         0.53906E+04         0.00000E+00
    0.53906E+04        -0.13930E+04         0.00000E+00
    0.00000E+00         0.00000E+00        -0.62367E+04
 
   -0.17279E+05         0.68192E+04         0.00000E+00
    0.68192E+04        -0.26542E+04         0.00000E+00
    0.00000E+00         0.00000E+00        -0.67049E+04
 
   -0.16023E+05         0.79157E+04         0.00000E+00
    0.79157E+04        -0.37926E+04         0.00000E+00
    0.00000E+00         0.00000E+00        -0.68946E+04
 
   -0.14609E+05         0.87133E+04         0.00000E+00
    0.87133E+04        -0.48586E+04         0.00000E+00
    0.00000E+00         0.00000E+00        -0.68865E+04
 
   -0.13078E+05         0.93270E+04         0.00000E+00
    0.93270E+04        -0.57888E+04         0.00000E+00
    0.00000E+00         0.00000E+00        -0.66457E+04
 
   -0.11514E+05         0.97069E+04         0.00000E+00
    0.97069E+04        -0.66266E+04         0.00000E+00
    0.00000E+00         0.00000E+00        -0.63116E+04
 
   -0.10016E+05         0.99219E+04         0.00000E+00
    0.99219E+04        -0.73428E+04         0.00000E+00
    0.00000E+00         0.00000E+00        -0.59043E+04
 
   -0.85958E+04         0.99736E+04         0.00000E+00
    0.99736E+04        -0.78911E+04         0.00000E+00
    0.00000E+00         0.00000E+00        -0.54618E+04
 
   -0.72243E+04         0.99317E+04         0.00000E+00
    0.99317E+04        -0.82708E+04         0.00000E+00
    0.00000E+00         0.00000E+00        -0.49870E+04
 
   -0.59827E+04         0.98139E+04         0.00000E+00
    0.98139E+04        -0.86434E+04         0.00000E+00
    0.00000E+00         0.00000E+00        -0.45275E+04
 
   -0.48082E+04         0.95439E+04         0.00000E+00
    0.95439E+04        -0.90723E+04         0.00000E+00
    0.00000E+00         0.00000E+00        -0.41642E+04
 
   -0.40214E+04         0.88593E+04         0.00000E+00
    0.88593E+04        -0.97147E+04         0.00000E+00
    0.00000E+00         0.00000E+00        -0.41208E+04
 
   -0.35871E+04         0.81566E+04         0.00000E+00
    0.81566E+04        -0.10263E+05         0.00000E+00
    0.00000E+00         0.00000E+00        -0.41549E+04
 
   -0.34005E+04         0.75135E+04         0.00000E+00
    0.75135E+04        -0.10584E+05         0.00000E+00
    0.00000E+00         0.00000E+00        -0.41953E+04
 
   -0.34101E+04         0.69899E+04         0.00000E+00
    0.69899E+04        -0.10752E+05         0.00000E+00
    0.00000E+00         0.00000E+00        -0.42486E+04
 
   -0.35514E+04         0.66068E+04         0.00000E+00
    0.66068E+04        -0.10808E+05         0.00000E+00
    0.00000E+00         0.00000E+00        -0.43079E+04
 
   -0.37806E+04         0.63737E+04         0.00000E+00
    0.63737E+04        -0.10784E+05         0.00000E+00
    0.00000E+00         0.00000E+00        -0.43694E+04
 
   -0.40631E+04         0.63009E+04         0.00000E+00
    0.63009E+04        -0.10704E+05         0.00000E+00
    0.00000E+00         0.00000E+00        -0.44302E+04
 
   -0.43637E+04         0.64011E+04         0.00000E+00
    0.64011E+04        -0.10593E+05         0.00000E+00
    0.00000E+00         0.00000E+00        -0.44869E+04
 
   -0.73281E+04        -0.60329E+03         0.00000E+00
   -0.60329E+03         0.10363E+03         0.00000E+00
    0.00000E+00         0.00000E+00        -0.21673E+04
 
   -0.10325E+05        -0.94944E+03         0.00000E+00
   -0.94944E+03         0.43999E+03         0.00000E+00
    0.00000E+00         0.00000E+00        -0.29656E+04
 
   -0.13209E+05        -0.26268E+03         0.00000E+00
   -0.26268E+03         0.72384E+03         0.00000E+00
    0.00000E+00         0.00000E+00        -0.37454E+04
 
   -0.15356E+05         0.11436E+04         0.00000E+00
    0.11436E+04         0.69982E+03         0.00000E+00
    0.00000E+00         0.00000E+00        -0.43968E+04
 
   -0.16508E+05         0.28279E+04         0.00000E+00
    0.28279E+04         0.26388E+03         0.00000E+00
    0.00000E+00         0.00000E+00        -0.48734E+04
 
   -0.16675E+05         0.44510E+04         0.00000E+00
    0.44510E+04        -0.25719E+03         0.00000E+00
    0.00000E+00         0.00000E+00        -0.50796E+04
 
   -0.16101E+05         0.58299E+04         0.00000E+00
    0.58299E+04        -0.93829E+03         0.00000E+00
    0.00000E+00         0.00000E+00        -0.51866E+04
 
   -0.15094E+05         0.69051E+04         0.00000E+00
    0.69051E+04        -0.19085E+04         0.00000E+00
    0.00000E+00         0.00000E+00        -0.53478E+04
 
   -0.13870E+05         0.78024E+04         0.00000E+00
    0.78024E+04        -0.28342E+04         0.00000E+00
    0.00000E+00         0.00000E+00        -0.53551E+04
 
   -0.12534E+05         0.84782E+04         0.00000E+00
    0.84782E+04        -0.37024E+04         0.00000E+00
    0.00000E+00         0.00000E+00        -0.52130E+04
 
   -0.11162E+05         0.89547E+04         0.00000E+00
    0.89547E+04        -0.44691E+04         0.00000E+00
    0.00000E+00         0.00000E+00        -0.49792E+04
 
   -0.98214E+04         0.92662E+04         0.00000E+00
    0.92662E+04        -0.51504E+04         0.00000E+00
    0.00000E+00         0.00000E+00        -0.46732E+04
 
   -0.85342E+04         0.94674E+04         0.00000E+00
    0.94674E+04        -0.57949E+04         0.00000E+00
    0.00000E+00         0.00000E+00        -0.43466E+04
 
   -0.73173E+04         0.94252E+04         0.00000E+00
    0.94252E+04        -0.65242E+04         0.00000E+00
    0.00000E+00         0.00000E+00        -0.41535E+04
 
   -0.62161E+04         0.91762E+04         0.00000E+00
    0.91762E+04        -0.73101E+04         0.00000E+00
    0.00000E+00         0.00000E+00        -0.40579E+04
 
   -0.53285E+04         0.87700E+04         0.00000E+00
    0.87700E+04        -0.81412E+04         0.00000E+00
    0.00000E+00         0.00000E+00        -0.40409E+04
 
   -0.46464E+04         0.82748E+04         0.00000E+00
    0.82748E+04        -0.88028E+04         0.00000E+00
    0.00000E+00         0.00000E+00        -0.40347E+04
 
   -0.41767E+04         0.77446E+04         0.00000E+00
    0.77446E+04        -0.92790E+04         0.00000E+00
    0.00000E+00         0.00000E+00        -0.40367E+04
 
   -0.39170E+04         0.72612E+04         0.00000E+00
    0.72612E+04        -0.96129E+04         0.00000E+00
    0.00000E+00         0.00000E+00        -0.40590E+04
 
   -0.38117E+04         0.68594E+04         0.00000E+00
    0.68594E+04        -0.98186E+04         0.00000E+00
    0.00000E+00         0.00000E+00        -0.40891E+04
 
   -0.38218E+04         0.65663E+04         0.00000E+00
    0.65663E+04        -0.99258E+04         0.00000E+00
    0.00000E+00         0.00000E+00        -0.41243E+04
 
   -0.39082E+04         0.63977E+04         0.00000E+00
    0.63977E+04        -0.99604E+04         0.00000E+00
    0.00000E+00         0.00000E+00        -0.41606E+04
 
   -0.40361E+04         0.63660E+04         0.00000E+00
    0.63660E+04        -0.99452E+04         0.00000E+00
    0.00000E+00         0.00000E+00        -0.41944E+04
 
   -0.41701E+04         0.64827E+04         0.00000E+00
    0.64827E+04        -0.99037E+04         0.00000E+00
    0.00000E+00         0.00000E+00        -0.42221E+04
 
   -0.80647E+04        -0.38413E+03         0.00000E+00
   -0.38413E+03         0.79151E+02         0.00000E+00
    0.00000E+00         0.00000E+00        -0.23957E+04
 
   -0.10146E+05        -0.58713E+03         0.00000E+00
   -0.58713E+03         0.35944E+03         0.00000E+00
    0.00000E+00         0.00000E+00        -0.29361E+04
 
   -0.12251E+05        -0.60533E+02         0.00000E+00
   -0.60533E+02         0.64824E+03         0.00000E+00
    0.00000E+00         0.00000E+00        -0.34808E+04
 
   -0.13935E+05         0.10248E+04         0.00000E+00
    0.10248E+04         0.73690E+03         0.00000E+00
    0.00000E+00         0.00000E+00        -0.39595E+04
 
   -0.14936E+05         0.24159E+04         0.00000E+00
    0.24159E+04         0.55917E+03         0.00000E+00
    0.00000E+00         0.00000E+00        -0.43132E+04
 
   -0.15206E+05         0.38420E+04         0.00000E+00
    0.38420E+04         0.10896E+03         0.00000E+00
    0.00000E+00         0.00000E+00        -0.45292E+04
 
   -0.14893E+05         0.50911E+04         0.00000E+00
    0.50911E+04        -0.49685E+03         0.00000E+00
    0.00000E+00         0.00000E+00        -0.46169E+04
 
   -0.14127E+05         0.61596E+04         0.00000E+00
    0.61596E+04        -0.10428E+04         0.00000E+00
    0.00000E+00         0.00000E+00        -0.45510E+04
 
   -0.13103E+05         0.70370E+04         0.00000E+00
    0.70370E+04        -0.16789E+04         0.00000E+00
    0.00000E+00         0.00000E+00        -0.44344E+04
 
   -0.11960E+05         0.77096E+04         0.00000E+00
    0.77096E+04        -0.24161E+04         0.00000E+00
    0.00000E+00         0.00000E+00        -0.43129E+04
 
   -0.10772E+05         0.82009E+04         0.00000E+00
    0.82009E+04        -0.32264E+04         0.00000E+00
    0.00000E+00         0.00000E+00        -0.41994E+04
 
   -0.95798E+04         0.85001E+04         0.00000E+00
    0.85001E+04        -0.40900E+04         0.00000E+00
    0.00000E+00         0.00000E+00        -0.41009E+04
 
   -0.84847E+04         0.86037E+04         0.00000E+00
    0.86037E+04        -0.50143E+04         0.00000E+00
    0.00000E+00         0.00000E+00        -0.40497E+04
 
   -0.74642E+04         0.85728E+04         0.00000E+00
    0.85728E+04        -0.58902E+04         0.00000E+00
    0.00000E+00         0.00000E+00        -0.40063E+04
 
   -0.65191E+04         0.83886E+04         0.00000E+00
    0.83886E+04        -0.66865E+04         0.00000E+00
    0.00000E+00         0.00000E+00        -0.39617E+04
 
   -0.57190E+04         0.80869E+04         0.00000E+00
    0.80869E+04        -0.73712E+04         0.00000E+00
    0.00000E+00         0.00000E+00        -0.39271E+04
 
   -0.50900E+04         0.77297E+04         0.00000E+00
    0.77297E+04        -0.79502E+04         0.00000E+00
    0.00000E+00         0.00000E+00        -0.39121E+04
 
   -0.46210E+04         0.73483E+04         0.00000E+00
    0.73483E+04        -0.84069E+04         0.00000E+00
    0.00000E+00         0.00000E+00        -0.39084E+04
 
   -0.43044E+04         0.69893E+04         0.00000E+00
    0.69893E+04        -0.87392E+04         0.00000E+00
    0.00000E+00         0.00000E+00        -0.39131E+04
 
   -0.41152E+04         0.66910E+04         0.00000E+00
    0.66910E+04        -0.89682E+04         0.00000E+00
    0.00000E+00         0.00000E+00        -0.39250E+04
 
   -0.40197E+04         0.64773E+04         0.00000E+00
    0.64773E+04        -0.91129E+04         0.00000E+00
    0.00000E+00         0.00000E+00        -0.39398E+04
 
   -0.39862E+04         0.63658E+04         0.00000E+00
    0.63658E+04        -0.91941E+04         0.00000E+00
    0.00000E+00         0.00000E+00        -0.39541E+04
 
   -0.39825E+04         0.63695E+04         0.00000E+00
    0.63695E+04        -0.92324E+04         0.00000E+00
    0.00000E+00         0.00000E+00        -0.39645E+04
 
   -0.39753E+04         0.64985E+04         0.00000E+00
    0.64985E+04        -0.92493E+04         0.00000E+00
    0.00000E+00         0.00000E+00        -0.39674E+04
 
   -0.85028E+04        -0.21785E+03         0.00000E+00
   -0.21785E+03         0.58404E+02         0.00000E+00
    0.00000E+00         0.00000E+00        -0.25333E+04
 
   -0.99670E+04        -0.28460E+03         0.00000E+00
   -0.28460E+03         0.27474E+03         0.00000E+00
    0.00000E+00         0.00000E+00        -0.29077E+04
 
   -0.11504E+05         0.15677E+03         0.00000E+00
    0.15677E+03         0.51994E+03         0.00000E+00
    0.00000E+00         0.00000E+00        -0.32953E+04
 
   -0.12792E+05         0.10248E+04         0.00000E+00
    0.10248E+04         0.63910E+03         0.00000E+00
    0.00000E+00         0.00000E+00        -0.36459E+04
 
   -0.13625E+05         0.21560E+04         0.00000E+00
    0.21560E+04         0.54353E+03         0.00000E+00
    0.00000E+00         0.00000E+00        -0.39244E+04
 
   -0.13935E+05         0.33665E+04         0.00000E+00
    0.33665E+04         0.22811E+03         0.00000E+00
    0.00000E+00         0.00000E+00        -0.41122E+04
 
   -0.13756E+05         0.45189E+04         0.00000E+00
    0.45189E+04        -0.25061E+03         0.00000E+00
    0.00000E+00         0.00000E+00        -0.42021E+04
 
   -0.13189E+05         0.55226E+04         0.00000E+00
    0.55226E+04        -0.85651E+03         0.00000E+00
    0.00000E+00         0.00000E+00        -0.42138E+04
 
   -0.12364E+05         0.63284E+04         0.00000E+00
    0.63284E+04        -0.15331E+04         0.00000E+00
    0.00000E+00         0.00000E+00        -0.41691E+04
 
   -0.11408E+05         0.69439E+04         0.00000E+00
    0.69439E+04        -0.22610E+04         0.00000E+00
    0.00000E+00         0.00000E+00        -0.41007E+04
 
   -0.10397E+05         0.73850E+04         0.00000E+00
    0.73850E+04        -0.30289E+04         0.00000E+00
    0.00000E+00         0.00000E+00        -0.40277E+04
 
   -0.93905E+04         0.76556E+04         0.00000E+00
    0.76556E+04        -0.38219E+04         0.00000E+00
    0.00000E+00         0.00000E+00        -0.39637E+04
 
   -0.84336E+04         0.77791E+04         0.00000E+00
    0.77791E+04        -0.45996E+04         0.00000E+00
    0.00000E+00         0.00000E+00        -0.39099E+04
 
   -0.75407E+04         0.77877E+04         0.00000E+00
    0.77877E+04        -0.53504E+04         0.00000E+00
    0.00000E+00         0.00000E+00        -0.38673E+04
 
   -0.67192E+04         0.76837E+04         0.00000E+00
    0.76837E+04        -0.60506E+04         0.00000E+00
    0.00000E+00         0.00000E+00        -0.38309E+04
 
   -0.60012E+04         0.74860E+04         0.00000E+00
    0.74860E+04        -0.66705E+04         0.00000E+00
    0.00000E+00         0.00000E+00        -0.38015E+04
 
   -0.54079E+04         0.72339E+04         0.00000E+00
    0.72339E+04        -0.71938E+04         0.00000E+00
    0.00000E+00         0.00000E+00        -0.37805E+04
 
   -0.49402E+04         0.69639E+04         0.00000E+00
    0.69639E+04        -0.76194E+04         0.00000E+00
    0.00000E+00         0.00000E+00        -0.37679E+04
 
   -0.45882E+04         0.67082E+04         0.00000E+00
    0.67082E+04        -0.79491E+04         0.00000E+00
    0.00000E+00         0.00000E+00        -0.37612E+04
 
   -0.43342E+04         0.64962E+04         0.00000E+00
    0.64962E+04        -0.81925E+04         0.00000E+00
    0.00000E+00         0.00000E+00        -0.37580E+04
 
   -0.41542E+04         0.63507E+04         0.00000E+00
    0.63507E+04        -0.83650E+04         0.00000E+00
    0.00000E+00         0.00000E+00        -0.37558E+04
 
   -0.40214E+04         0.62883E+04         0.00000E+00
    0.62883E+04        -0.84835E+04         0.00000E+00
    0.00000E+00         0.00000E+00        -0.37515E+04
 
   -0.39072E+04         0.63216E+04         0.00000E+00
    0.63216E+04        -0.85659E+04         0.00000E+00
    0.00000E+00         0.00000E+00        -0.37419E+04
 
   -0.37818E+04         0.64594E+04         0.00000E+00
    0.64594E+04        -0.86312E+04         0.00000E+00
    0.00000E+00         0.00000E+00        -0.37239E+04
 
   -0.87116E+04        -0.97278E+02         0.00000E+00
   -0.97278E+02         0.41238E+02         0.00000E+00
    0.00000E+00         0.00000E+00        -0.26011E+04
 
   -0.97628E+04        -0.52517E+02         0.00000E+00
   -0.52517E+02         0.19853E+03         0.00000E+00
    0.00000E+00         0.00000E+00        -0.28693E+04
 
   -0.10891E+05         0.34354E+03         0.00000E+00
    0.34354E+03         0.38631E+03         0.00000E+00
    0.00000E+00         0.00000E+00        -0.31513E+04
 
   -0.11868E+05         0.10547E+04         0.00000E+00
    0.10547E+04         0.48758E+03         0.00000E+00
    0.00000E+00         0.00000E+00        -0.34143E+04
 
   -0.12538E+05         0.19811E+04         0.00000E+00
    0.19811E+04         0.42929E+03         0.00000E+00
    0.00000E+00         0.00000E+00        -0.36327E+04
 
   -0.12826E+05         0.30007E+04         0.00000E+00
    0.30007E+04         0.18884E+03         0.00000E+00
    0.00000E+00         0.00000E+00        -0.37912E+04
 
   -0.12735E+05         0.40005E+04         0.00000E+00
    0.40005E+04        -0.22046E+03         0.00000E+00
    0.00000E+00         0.00000E+00        -0.38867E+04
 
   -0.12323E+05         0.48961E+04         0.00000E+00
    0.48961E+04        -0.76063E+03         0.00000E+00
    0.00000E+00         0.00000E+00        -0.39251E+04
 
   -0.11680E+05         0.56390E+04         0.00000E+00
    0.56390E+04        -0.13912E+04         0.00000E+00
    0.00000E+00         0.00000E+00        -0.39213E+04
 
   -0.10897E+05         0.62160E+04         0.00000E+00
    0.62160E+04        -0.20729E+04         0.00000E+00
    0.00000E+00         0.00000E+00        -0.38910E+04
 
   -0.10049E+05         0.66344E+04         0.00000E+00
    0.66344E+04        -0.27812E+04         0.00000E+00
    0.00000E+00         0.00000E+00        -0.38490E+04
 
   -0.91890E+04         0.69083E+04         0.00000E+00
    0.69083E+04        -0.34930E+04         0.00000E+00
    0.00000E+00         0.00000E+00        -0.38046E+04
 
   -0.83545E+04         0.70575E+04         0.00000E+00
    0.70575E+04        -0.41892E+04         0.00000E+00
    0.00000E+00         0.00000E+00        -0.37631E+04
 
   -0.75654E+04         0.71025E+04         0.00000E+00
    0.71025E+04        -0.48536E+04         0.00000E+00
    0.00000E+00         0.00000E+00        -0.37257E+04
 
   -0.68371E+04         0.70578E+04         0.00000E+00
    0.70578E+04        -0.54727E+04         0.00000E+00
    0.00000E+00         0.00000E+00        -0.36930E+04
 
   -0.61866E+04         0.69407E+04         0.00000E+00
    0.69407E+04        -0.60288E+04         0.00000E+00
    0.00000E+00         0.00000E+00        -0.36646E+04
 
   -0.56274E+04         0.67771E+04         0.00000E+00
    0.67771E+04        -0.65093E+04         0.00000E+00
    0.00000E+00         0.00000E+00        -0.36410E+04
 
   -0.51625E+04         0.65955E+04         0.00000E+00
    0.65955E+04        -0.69096E+04         0.00000E+00
    0.00000E+00         0.00000E+00        -0.36216E+04
 
   -0.47853E+04         0.64230E+04         0.00000E+00
    0.64230E+04        -0.72323E+04         0.00000E+00
    0.00000E+00         0.00000E+00        -0.36053E+04
 
   -0.44822E+04         0.62829E+04         0.00000E+00
    0.62829E+04        -0.74847E+04         0.00000E+00
    0.00000E+00         0.00000E+00        -0.35901E+04
 
   -0.42346E+04         0.61948E+04         0.00000E+00
    0.61948E+04        -0.76781E+04         0.00000E+00
    0.00000E+00         0.00000E+00        -0.35738E+04
 
   -0.40203E+04         0.61739E+04         0.00000E+00
    0.61739E+04        -0.78262E+04         0.00000E+00
    0.00000E+00         0.00000E+00        -0.35539E+04
 
   -0.38148E+04         0.62314E+04         0.00000E+00
    0.62314E+04        -0.79446E+04         0.00000E+00
    0.00000E+00         0.00000E+00        -0.35278E+04
 
   -0.35915E+04         0.63748E+04         0.00000E+00
    0.63748E+04        -0.80498E+04         0.00000E+00
    0.00000E+00         0.00000E+00        -0.34924E+04
 
   -0.87539E+04        -0.13730E+02         0.00000E+00
   -0.13730E+02         0.27843E+02         0.00000E+00
    0.00000E+00         0.00000E+00        -0.26178E+04
 
   -0.95299E+04         0.11397E+03         0.00000E+00
    0.11397E+03         0.13594E+03         0.00000E+00
    0.00000E+00         0.00000E+00        -0.28182E+04
 
   -0.10367E+05         0.48279E+03         0.00000E+00
    0.48279E+03         0.26710E+03         0.00000E+00
    0.00000E+00         0.00000E+00        -0.30300E+04
 
   -0.11109E+05         0.10808E+04         0.00000E+00
    0.10808E+04         0.33720E+03         0.00000E+00
    0.00000E+00         0.00000E+00        -0.32315E+04
 
   -0.11637E+05         0.18479E+04         0.00000E+00
    0.18479E+04         0.28672E+03         0.00000E+00
    0.00000E+00         0.00000E+00        -0.34050E+04
 
   -0.11886E+05         0.27005E+04         0.00000E+00
    0.27005E+04         0.88114E+02         0.00000E+00
    0.00000E+00         0.00000E+00        -0.35393E+04
 
   -0.11845E+05         0.35541E+04         0.00000E+00
    0.35541E+04        -0.25618E+03         0.00000E+00
    0.00000E+00         0.00000E+00        -0.36302E+04
 
   -0.11545E+05         0.43394E+04         0.00000E+00
    0.43394E+04        -0.72349E+03         0.00000E+00
    0.00000E+00         0.00000E+00        -0.36807E+04
 
   -0.11046E+05         0.50114E+04         0.00000E+00
    0.50114E+04        -0.12798E+04         0.00000E+00
    0.00000E+00         0.00000E+00        -0.36978E+04
 
   -0.10413E+05         0.55505E+04         0.00000E+00
    0.55505E+04        -0.18911E+04         0.00000E+00
    0.00000E+00         0.00000E+00        -0.36913E+04
 
   -0.97060E+04         0.59559E+04         0.00000E+00
    0.59559E+04        -0.25280E+04         0.00000E+00
    0.00000E+00         0.00000E+00        -0.36702E+04
 
   -0.89717E+04         0.62376E+04         0.00000E+00
    0.62376E+04        -0.31679E+04         0.00000E+00
    0.00000E+00         0.00000E+00        -0.36419E+04
 
   -0.82440E+04         0.64109E+04         0.00000E+00
    0.64109E+04        -0.37927E+04         0.00000E+00
    0.00000E+00         0.00000E+00        -0.36110E+04
 
   -0.75452E+04         0.64926E+04         0.00000E+00
    0.64926E+04        -0.43887E+04         0.00000E+00
    0.00000E+00         0.00000E+00        -0.35802E+04
 
   -0.68913E+04         0.64983E+04         0.00000E+00
    0.64983E+04        -0.49439E+04         0.00000E+00
    0.00000E+00         0.00000E+00        -0.35506E+04
 
   -0.62954E+04         0.64447E+04         0.00000E+00
    0.64447E+04        -0.54471E+04         0.00000E+00
    0.00000E+00         0.00000E+00        -0.35228E+04
 
   -0.57664E+04         0.63521E+04         0.00000E+00
    0.63521E+04        -0.58895E+04         0.00000E+00
    0.00000E+00         0.00000E+00        -0.34968E+04
 
   -0.53066E+04         0.62425E+04         0.00000E+00
    0.62425E+04        -0.62674E+04         0.00000E+00
    0.00000E+00         0.00000E+00        -0.34722E+04
 
   -0.49115E+04         0.61375E+04         0.00000E+00
    0.61375E+04        -0.65822E+04         0.00000E+00
    0.00000E+00         0.00000E+00        -0.34481E+04
 
   -0.45709E+04         0.60566E+04         0.00000E+00
    0.60566E+04        -0.68394E+04         0.00000E+00
    0.00000E+00         0.00000E+00        -0.34231E+04
 
   -0.42696E+04         0.60163E+04         0.00000E+00
    0.60163E+04        -0.70481E+04         0.00000E+00
    0.00000E+00         0.00000E+00        -0.33953E+04
 
   -0.39893E+04         0.60296E+04         0.00000E+00
    0.60296E+04        -0.72196E+04         0.00000E+00
    0.00000E+00         0.00000E+00        -0.33627E+04
 
   -0.37091E+04         0.61064E+04         0.00000E+00
    0.61064E+04        -0.73669E+04         0.00000E+00
    0.00000E+00         0.00000E+00        -0.33228E+04
 
   -0.34059E+04         0.62530E+04         0.00000E+00
    0.62530E+04        -0.75047E+04         0.00000E+00
    0.00000E+00         0.00000E+00        -0.32732E+04
 
   -0.86818E+04         0.41390E+02         0.00000E+00
    0.41390E+02         0.17849E+02         0.00000E+00
    0.00000E+00         0.00000E+00        -0.25992E+04
 
   -0.92744E+04         0.22544E+03         0.00000E+00
    0.22544E+03         0.87433E+02         0.00000E+00
    0.00000E+00         0.00000E+00        -0.27561E+04
 
   -0.99069E+04         0.57488E+03         0.00000E+00
    0.57488E+03         0.17063E+03         0.00000E+00
    0.00000E+00         0.00000E+00        -0.29209E+04
 
   -0.10472E+05         0.10893E+04         0.00000E+00
    0.10893E+04         0.20788E+03         0.00000E+00
    0.00000E+00         0.00000E+00        -0.30794E+04
 
   -0.10885E+05         0.17326E+04         0.00000E+00
    0.17326E+04         0.15307E+03         0.00000E+00
    0.00000E+00         0.00000E+00        -0.32196E+04
 
   -0.11092E+05         0.24482E+04         0.00000E+00
    0.24482E+04        -0.18859E+02         0.00000E+00
    0.00000E+00         0.00000E+00        -0.33332E+04
 
   -0.11077E+05         0.31747E+04         0.00000E+00
    0.31747E+04        -0.31146E+03         0.00000E+00
    0.00000E+00         0.00000E+00        -0.34166E+04
 
   -0.10857E+05         0.38580E+04         0.00000E+00
    0.38580E+04        -0.71078E+03         0.00000E+00
    0.00000E+00         0.00000E+00        -0.34702E+04
 
   -0.10467E+05         0.44597E+04         0.00000E+00
    0.44597E+04        -0.11924E+04         0.00000E+00
    0.00000E+00         0.00000E+00        -0.34978E+04
 
   -0.99548E+04         0.49588E+04         0.00000E+00
    0.49588E+04        -0.17284E+04         0.00000E+00
    0.00000E+00         0.00000E+00        -0.35050E+04
 
   -0.93659E+04         0.53494E+04         0.00000E+00
    0.53494E+04        -0.22926E+04         0.00000E+00
    0.00000E+00         0.00000E+00        -0.34976E+04
 
   -0.87392E+04         0.56363E+04         0.00000E+00
    0.56363E+04        -0.28633E+04         0.00000E+00
    0.00000E+00         0.00000E+00        -0.34808E+04
 
   -0.81047E+04         0.58301E+04         0.00000E+00
    0.58301E+04        -0.34233E+04         0.00000E+00
    0.00000E+00         0.00000E+00        -0.34584E+04
 
   -0.74841E+04         0.59442E+04         0.00000E+00
    0.59442E+04        -0.39595E+04         0.00000E+00
    0.00000E+00         0.00000E+00        -0.34331E+04
 
   -0.68932E+04         0.59928E+04         0.00000E+00
    0.59928E+04        -0.44613E+04         0.00000E+00
    0.00000E+00         0.00000E+00        -0.34063E+04
 
   -0.63429E+04         0.59909E+04         0.00000E+00
    0.59909E+04        -0.49199E+04         0.00000E+00
    0.00000E+00         0.00000E+00        -0.33789E+04
 
   -0.58403E+04         0.59555E+04         0.00000E+00
    0.59555E+04        -0.53293E+04         0.00000E+00
    0.00000E+00         0.00000E+00        -0.33509E+04
 
   -0.53870E+04         0.59042E+04         0.00000E+00
    0.59042E+04        -0.56865E+04         0.00000E+00
    0.00000E+00         0.00000E+00        -0.33221E+04
 
   -0.49799E+04         0.58543E+04         0.00000E+00
    0.58543E+04        -0.59926E+04         0.00000E+00
    0.00000E+00         0.00000E+00        -0.32917E+04
 
   -0.46107E+04         0.58218E+04         0.00000E+00
    0.58218E+04        -0.62518E+04         0.00000E+00
    0.00000E+00         0.00000E+00        -0.32587E+04
 
   -0.42672E+04         0.58206E+04         0.00000E+00
    0.58206E+04        -0.64714E+04         0.00000E+00
    0.00000E+00         0.00000E+00        -0.32216E+04
 
   -0.39342E+04         0.58618E+04         0.00000E+00
    0.58618E+04        -0.66609E+04         0.00000E+00
    0.00000E+00         0.00000E+00        -0.31785E+04
 
   -0.35938E+04         0.59535E+04         0.00000E+00
    0.59535E+04        -0.68313E+04         0.00000E+00
    0.00000E+00         0.00000E+00        -0.31275E+04
 
   -0.32262E+04         0.61011E+04         0.00000E+00
    0.61011E+04        -0.69952E+04         0.00000E+00
    0.00000E+00         0.00000E+00        -0.30664E+04
 
   -0.85357E+04         0.75553E+02         0.00000E+00
    0.75553E+02         0.10650E+02         0.00000E+00
    0.00000E+00         0.00000E+00        -0.25575E+04
 
   -0.90052E+04         0.29401E+03         0.00000E+00
    0.29401E+03         0.51606E+02         0.00000E+00
    0.00000E+00         0.00000E+00        -0.26861E+04
 
   -0.94939E+04         0.62659E+03         0.00000E+00
    0.62659E+03         0.97151E+02         0.00000E+00
    0.00000E+00         0.00000E+00        -0.28190E+04
 
   -0.99300E+04         0.10774E+04         0.00000E+00
    0.10774E+04         0.10589E+03         0.00000E+00
    0.00000E+00         0.00000E+00        -0.29472E+04
 
   -0.10252E+05         0.16248E+04         0.00000E+00
    0.16248E+04         0.43481E+02         0.00000E+00
    0.00000E+00         0.00000E+00        -0.30626E+04
 
   -0.10420E+05         0.22308E+04         0.00000E+00
    0.22308E+04        -0.11096E+03         0.00000E+00
    0.00000E+00         0.00000E+00        -0.31593E+04
 
   -0.10417E+05         0.28513E+04         0.00000E+00
    0.28513E+04        -0.36302E+03         0.00000E+00
    0.00000E+00         0.00000E+00        -0.32340E+04
 
   -0.10250E+05         0.34454E+04         0.00000E+00
    0.34454E+04        -0.70485E+03         0.00000E+00
    0.00000E+00         0.00000E+00        -0.32864E+04
 
   -0.99417E+04         0.39815E+04         0.00000E+00
    0.39815E+04        -0.11193E+04         0.00000E+00
    0.00000E+00         0.00000E+00        -0.33183E+04
 
   -0.95244E+04         0.44400E+04         0.00000E+00
    0.44400E+04        -0.15851E+04         0.00000E+00
    0.00000E+00         0.00000E+00        -0.33328E+04
 
   -0.90321E+04         0.48125E+04         0.00000E+00
    0.48125E+04        -0.20804E+04         0.00000E+00
    0.00000E+00         0.00000E+00        -0.33337E+04
 
   -0.84959E+04         0.50999E+04         0.00000E+00
    0.50999E+04        -0.25861E+04         0.00000E+00
    0.00000E+00         0.00000E+00        -0.33246E+04
 
   -0.79415E+04         0.53089E+04         0.00000E+00
    0.53089E+04        -0.30864E+04         0.00000E+00
    0.00000E+00         0.00000E+00        -0.33084E+04
 
   -0.73886E+04         0.54494E+04         0.00000E+00
    0.54494E+04        -0.35688E+04         0.00000E+00
    0.00000E+00         0.00000E+00        -0.32872E+04
 
   -0.68517E+04         0.55333E+04         0.00000E+00
    0.55333E+04        -0.40236E+04         0.00000E+00
    0.00000E+00         0.00000E+00        -0.32626E+04
 
   -0.63408E+04         0.55737E+04         0.00000E+00
    0.55737E+04        -0.44435E+04         0.00000E+00
    0.00000E+00         0.00000E+00        -0.32353E+04
 
   -0.58617E+04         0.55845E+04         0.00000E+00
    0.55845E+04        -0.48236E+04         0.00000E+00
    0.00000E+00         0.00000E+00        -0.32056E+04
 
   -0.54160E+04         0.55801E+04         0.00000E+00
    0.55801E+04        -0.51617E+04         0.00000E+00
    0.00000E+00         0.00000E+00        -0.31733E+04
 
   -0.50012E+04         0.55749E+04         0.00000E+00
    0.55749E+04        -0.54585E+04         0.00000E+00
    0.00000E+00         0.00000E+00        -0.31379E+04
 
   -0.46107E+04         0.55817E+04         0.00000E+00
    0.55817E+04        -0.57175E+04         0.00000E+00
    0.00000E+00         0.00000E+00        -0.30985E+04
 
   -0.42345E+04         0.56122E+04         0.00000E+00
    0.56122E+04        -0.59446E+04         0.00000E+00
    0.00000E+00         0.00000E+00        -0.30537E+04
 
   -0.38599E+04         0.56755E+04         0.00000E+00
    0.56755E+04        -0.61476E+04         0.00000E+00
    0.00000E+00         0.00000E+00        -0.30022E+04
 
   -0.34718E+04         0.57784E+04         0.00000E+00
    0.57784E+04        -0.63359E+04         0.00000E+00
    0.00000E+00         0.00000E+00        -0.29423E+04
 
   -0.30532E+04         0.59252E+04         0.00000E+00
    0.59252E+04        -0.65203E+04         0.00000E+00
    0.00000E+00         0.00000E+00        -0.28721E+04
 
   -0.83457E+04         0.94825E+02         0.00000E+00
    0.94825E+02         0.56392E+01         0.00000E+00
    0.00000E+00         0.00000E+00        -0.25020E+04
 
   -0.87311E+04         0.33080E+03         0.00000E+00
    0.33080E+03         0.26148E+02         0.00000E+00
    0.00000E+00         0.00000E+00        -0.26115E+04
 
   -0.91184E+04         0.64666E+03         0.00000E+00
    0.64666E+03         0.43828E+02         0.00000E+00
    0.00000E+00         0.00000E+00        -0.27224E+04
 
   -0.94599E+04         0.10475E+04         0.00000E+00
    0.10475E+04         0.30362E+02         0.00000E+00
    0.00000E+00         0.00000E+00        -0.28289E+04
 
   -0.97129E+04         0.15202E+04         0.00000E+00
    0.15202E+04        -0.39178E+02         0.00000E+00
    0.00000E+00         0.00000E+00        -0.29256E+04
 
   -0.98468E+04         0.20391E+04         0.00000E+00
    0.20391E+04        -0.18123E+03         0.00000E+00
    0.00000E+00         0.00000E+00        -0.30084E+04
 
   -0.98474E+04         0.25730E+04         0.00000E+00
    0.25730E+04        -0.40165E+03         0.00000E+00
    0.00000E+00         0.00000E+00        -0.30747E+04
 
   -0.97163E+04         0.30913E+04         0.00000E+00
    0.30913E+04        -0.69632E+03         0.00000E+00
    0.00000E+00         0.00000E+00        -0.31238E+04
 
   -0.94676E+04         0.35686E+04         0.00000E+00
    0.35686E+04        -0.10536E+04         0.00000E+00
    0.00000E+00         0.00000E+00        -0.31563E+04
 
   -0.91232E+04         0.39878E+04         0.00000E+00
    0.39878E+04        -0.14574E+04         0.00000E+00
    0.00000E+00         0.00000E+00        -0.31742E+04
 
   -0.87083E+04         0.43400E+04         0.00000E+00
    0.43400E+04        -0.18907E+04         0.00000E+00
    0.00000E+00         0.00000E+00        -0.31797E+04
 
   -0.82469E+04         0.46235E+04         0.00000E+00
    0.46235E+04        -0.23372E+04         0.00000E+00
    0.00000E+00         0.00000E+00        -0.31752E+04
 
   -0.77602E+04         0.48420E+04         0.00000E+00
    0.48420E+04        -0.27829E+04         0.00000E+00
    0.00000E+00         0.00000E+00        -0.31629E+04
 
   -0.72653E+04         0.50025E+04         0.00000E+00
    0.50025E+04        -0.32166E+04         0.00000E+00
    0.00000E+00         0.00000E+00        -0.31446E+04
 
   -0.67751E+04         0.51145E+04         0.00000E+00
    0.51145E+04        -0.36293E+04         0.00000E+00
    0.00000E+00         0.00000E+00        -0.31213E+04
 
   -0.62986E+04         0.51887E+04         0.00000E+00
    0.51887E+04        -0.40146E+04         0.00000E+00
    0.00000E+00         0.00000E+00        -0.30940E+04
 
   -0.58408E+04         0.52365E+04         0.00000E+00
    0.52365E+04        -0.43683E+04         0.00000E+00
    0.00000E+00         0.00000E+00        -0.30627E+04
 
   -0.54034E+04         0.52700E+04         0.00000E+00
    0.52700E+04        -0.46884E+04         0.00000E+00
    0.00000E+00         0.00000E+00        -0.30275E+04
 
   -0.49844E+04         0.53006E+04         0.00000E+00
    0.53006E+04        -0.49756E+04         0.00000E+00
    0.00000E+00         0.00000E+00        -0.29880E+04
 
   -0.45786E+04         0.53390E+04         0.00000E+00
    0.53390E+04        -0.52325E+04         0.00000E+00
    0.00000E+00         0.00000E+00        -0.29433E+04
 
   -0.41776E+04         0.53947E+04         0.00000E+00
    0.53947E+04        -0.54641E+04         0.00000E+00
    0.00000E+00         0.00000E+00        -0.28925E+04
 
   -0.37709E+04         0.54753E+04         0.00000E+00
    0.54753E+04        -0.56769E+04         0.00000E+00
    0.00000E+00         0.00000E+00        -0.28344E+04
 
   -0.33457E+04         0.55861E+04         0.00000E+00
    0.55861E+04        -0.58789E+04         0.00000E+00
    0.00000E+00         0.00000E+00        -0.27674E+04
 
   -0.28876E+04         0.57306E+04         0.00000E+00
    0.57306E+04        -0.60790E+04         0.00000E+00
    0.00000E+00         0.00000E+00        -0.26900E+04
 
   -0.81333E+04         0.10386E+03         0.00000E+00
    0.10386E+03         0.22605E+01         0.00000E+00
    0.00000E+00         0.00000E+00        -0.24393E+04
 
   -0.84595E+04         0.34503E+03         0.00000E+00
    0.34503E+03         0.87166E+01         0.00000E+00
    0.00000E+00         0.00000E+00        -0.25352E+04
 
   -0.87744E+04         0.64353E+03         0.00000E+00
    0.64353E+03         0.67994E+01         0.00000E+00
    0.00000E+00         0.00000E+00        -0.26303E+04
 
   -0.90467E+04         0.10037E+04         0.00000E+00
    0.10037E+04        -0.22618E+02         0.00000E+00
    0.00000E+00         0.00000E+00        -0.27208E+04
 
   -0.92470E+04         0.14174E+04         0.00000E+00
    0.14174E+04        -0.97271E+02         0.00000E+00
    0.00000E+00         0.00000E+00        -0.28033E+04
 
   -0.93528E+04         0.18672E+04         0.00000E+00
    0.18672E+04        -0.22963E+03         0.00000E+00
    0.00000E+00         0.00000E+00        -0.28747E+04
 
   -0.93526E+04         0.23309E+04         0.00000E+00
    0.23309E+04        -0.42499E+03         0.00000E+00
    0.00000E+00         0.00000E+00        -0.29333E+04
 
   -0.92455E+04         0.27855E+04         0.00000E+00
    0.27855E+04        -0.68136E+03         0.00000E+00
    0.00000E+00         0.00000E+00        -0.29781E+04
 
   -0.90401E+04         0.32114E+04         0.00000E+00
    0.32114E+04        -0.99085E+03         0.00000E+00
    0.00000E+00         0.00000E+00        -0.30093E+04
 
   -0.87514E+04         0.35941E+04         0.00000E+00
    0.35941E+04        -0.13418E+04         0.00000E+00
    0.00000E+00         0.00000E+00        -0.30279E+04
 
   -0.83975E+04         0.39251E+04         0.00000E+00
    0.39251E+04        -0.17207E+04         0.00000E+00
    0.00000E+00         0.00000E+00        -0.30355E+04
 
   -0.79969E+04         0.42013E+04         0.00000E+00
    0.42013E+04        -0.21146E+04         0.00000E+00
    0.00000E+00         0.00000E+00        -0.30334E+04
 
   -0.75667E+04         0.44243E+04         0.00000E+00
    0.44243E+04        -0.25114E+04         0.00000E+00
    0.00000E+00         0.00000E+00        -0.30234E+04
 
   -0.71210E+04         0.45989E+04         0.00000E+00
    0.45989E+04        -0.29011E+04         0.00000E+00
    0.00000E+00         0.00000E+00        -0.30066E+04
 
   -0.66710E+04         0.47323E+04         0.00000E+00
    0.47323E+04        -0.32759E+04         0.00000E+00
    0.00000E+00         0.00000E+00        -0.29841E+04
 
   -0.62245E+04         0.48328E+04         0.00000E+00
    0.48328E+04        -0.36299E+04         0.00000E+00
    0.00000E+00         0.00000E+00        -0.29563E+04
 
   -0.57862E+04         0.49100E+04         0.00000E+00
    0.49100E+04        -0.39593E+04         0.00000E+00
    0.00000E+00         0.00000E+00        -0.29237E+04
 
   -0.53576E+04         0.49734E+04         0.00000E+00
    0.49734E+04        -0.42625E+04         0.00000E+00
    0.00000E+00         0.00000E+00        -0.28860E+04
 
   -0.49373E+04         0.50324E+04         0.00000E+00
    0.50324E+04        -0.45397E+04         0.00000E+00
    0.00000E+00         0.00000E+00        -0.28431E+04
 
   -0.45209E+04         0.50958E+04         0.00000E+00
    0.50958E+04        -0.47932E+04         0.00000E+00
    0.00000E+00         0.00000E+00        -0.27942E+04
 
   -0.41018E+04         0.51713E+04         0.00000E+00
    0.51713E+04        -0.50270E+04         0.00000E+00
    0.00000E+00         0.00000E+00        -0.27386E+04
 
   -0.36709E+04         0.52649E+04         0.00000E+00
    0.52649E+04        -0.52464E+04         0.00000E+00
    0.00000E+00         0.00000E+00        -0.26752E+04
 
   -0.32177E+04         0.53809E+04         0.00000E+00
    0.53809E+04        -0.54582E+04         0.00000E+00
    0.00000E+00         0.00000E+00        -0.26028E+04
 
   -0.27299E+04         0.55219E+04         0.00000E+00
    0.55219E+04        -0.56700E+04         0.00000E+00
    0.00000E+00         0.00000E+00        -0.25200E+04
 
   -0.79132E+04         0.10609E+03         0.00000E+00
    0.10609E+03         0.63248E-01         0.00000E+00
    0.00000E+00         0.00000E+00        -0.23740E+04
 
   -0.81959E+04         0.34395E+03         0.00000E+00
    0.34395E+03        -0.27492E+01         0.00000E+00
    0.00000E+00         0.00000E+00        -0.24596E+04
 
   -0.84580E+04         0.62437E+03         0.00000E+00
    0.62437E+03        -0.17739E+02         0.00000E+00
    0.00000E+00         0.00000E+00        -0.25427E+04
 
   -0.86793E+04         0.95043E+03         0.00000E+00
    0.95043E+03        -0.57705E+02         0.00000E+00
    0.00000E+00         0.00000E+00        -0.26211E+04
 
   -0.88395E+04         0.13167E+04         0.00000E+00
    0.13167E+04        -0.13507E+03         0.00000E+00
    0.00000E+00         0.00000E+00        -0.26924E+04
 
   -0.89225E+04         0.17112E+04         0.00000E+00
    0.17112E+04        -0.25906E+03         0.00000E+00
    0.00000E+00         0.00000E+00        -0.27545E+04
 
   -0.89193E+04         0.21177E+04         0.00000E+00
    0.21177E+04        -0.43403E+03         0.00000E+00
    0.00000E+00         0.00000E+00        -0.28060E+04
 
   -0.88281E+04         0.25194E+04         0.00000E+00
    0.25194E+04        -0.65916E+03         0.00000E+00
    0.00000E+00         0.00000E+00        -0.28462E+04
 
   -0.86542E+04         0.29011E+04         0.00000E+00
    0.29011E+04        -0.92913E+03         0.00000E+00
    0.00000E+00         0.00000E+00        -0.28750E+04
 
   -0.84076E+04         0.32506E+04         0.00000E+00
    0.32506E+04        -0.12354E+04         0.00000E+00
    0.00000E+00         0.00000E+00        -0.28929E+04
 
   -0.81014E+04         0.35605E+04         0.00000E+00
    0.35605E+04        -0.15677E+04         0.00000E+00
    0.00000E+00         0.00000E+00        -0.29007E+04
 
   -0.77497E+04         0.38271E+04         0.00000E+00
    0.38271E+04        -0.19156E+04         0.00000E+00
    0.00000E+00         0.00000E+00        -0.28996E+04
 
   -0.73658E+04         0.40507E+04         0.00000E+00
    0.40507E+04        -0.22691E+04         0.00000E+00
    0.00000E+00         0.00000E+00        -0.28905E+04
 
   -0.69614E+04         0.42343E+04         0.00000E+00
    0.42343E+04        -0.26196E+04         0.00000E+00
    0.00000E+00         0.00000E+00        -0.28743E+04
 
   -0.65458E+04         0.43830E+04         0.00000E+00
    0.43830E+04        -0.29603E+04         0.00000E+00
    0.00000E+00         0.00000E+00        -0.28518E+04
 
   -0.61257E+04         0.45036E+04         0.00000E+00
    0.45036E+04        -0.32859E+04         0.00000E+00
    0.00000E+00         0.00000E+00        -0.28235E+04
 
   -0.57051E+04         0.46033E+04         0.00000E+00
    0.46033E+04        -0.35930E+04         0.00000E+00
    0.00000E+00         0.00000E+00        -0.27895E+04
 
   -0.52857E+04         0.46900E+04         0.00000E+00
    0.46900E+04        -0.38801E+04         0.00000E+00
    0.00000E+00         0.00000E+00        -0.27497E+04
 
   -0.48662E+04         0.47712E+04         0.00000E+00
    0.47712E+04        -0.41472E+04         0.00000E+00
    0.00000E+00         0.00000E+00        -0.27040E+04
 
   -0.44433E+04         0.48540E+04         0.00000E+00
    0.48540E+04        -0.43962E+04         0.00000E+00
    0.00000E+00         0.00000E+00        -0.26518E+04
 
   -0.40115E+04         0.49444E+04         0.00000E+00
    0.49444E+04        -0.46301E+04         0.00000E+00
    0.00000E+00         0.00000E+00        -0.25925E+04
 
   -0.35632E+04         0.50475E+04         0.00000E+00
    0.50475E+04        -0.48535E+04         0.00000E+00
    0.00000E+00         0.00000E+00        -0.25250E+04
 
   -0.30896E+04         0.51664E+04         0.00000E+00
    0.51664E+04        -0.50721E+04         0.00000E+00
    0.00000E+00         0.00000E+00        -0.24485E+04
 
   -0.25805E+04         0.53029E+04         0.00000E+00
    0.53029E+04        -0.52921E+04         0.00000E+00
    0.00000E+00         0.00000E+00        -0.23618E+04
 
   -0.76952E+04         0.10398E+03         0.00000E+00
    0.10398E+03        -0.13014E+01         0.00000E+00
    0.00000E+00         0.00000E+00        -0.23089E+04
 
   -0.79441E+04         0.33294E+03         0.00000E+00
    0.33294E+03        -0.99176E+01         0.00000E+00
    0.00000E+00         0.00000E+00        -0.23862E+04
 
   -0.81667E+04         0.59489E+03         0.00000E+00
    0.59489E+03        -0.33067E+02         0.00000E+00
    0.00000E+00         0.00000E+00        -0.24599E+04
 
   -0.83496E+04         0.89152E+03         0.00000E+00
    0.89152E+03        -0.79266E+02         0.00000E+00
    0.00000E+00         0.00000E+00        -0.25287E+04
 
   -0.84791E+04         0.12189E+04         0.00000E+00
    0.12189E+04        -0.15712E+03         0.00000E+00
    0.00000E+00         0.00000E+00        -0.25909E+04
 
   -0.85437E+04         0.15684E+04         0.00000E+00
    0.15684E+04        -0.27330E+03         0.00000E+00
    0.00000E+00         0.00000E+00        -0.26451E+04
 
   -0.85366E+04         0.19283E+04         0.00000E+00
    0.19283E+04        -0.43121E+03         0.00000E+00
    0.00000E+00         0.00000E+00        -0.26904E+04
 
   -0.84559E+04         0.22860E+04         0.00000E+00
    0.22860E+04        -0.63059E+03         0.00000E+00
    0.00000E+00         0.00000E+00        -0.27259E+04
 
   -0.83046E+04         0.26297E+04         0.00000E+00
    0.26297E+04        -0.86780E+03         0.00000E+00
    0.00000E+00         0.00000E+00        -0.27517E+04
 
   -0.80898E+04         0.29496E+04         0.00000E+00
    0.29496E+04        -0.11366E+04         0.00000E+00
    0.00000E+00         0.00000E+00        -0.27679E+04
 
   -0.78207E+04         0.32392E+04         0.00000E+00
    0.32392E+04        -0.14293E+04         0.00000E+00
    0.00000E+00         0.00000E+00        -0.27750E+04
 
   -0.75080E+04         0.34949E+04         0.00000E+00
    0.34949E+04        -0.17374E+04         0.00000E+00
    0.00000E+00         0.00000E+00        -0.27736E+04
 
   -0.71619E+04         0.37160E+04         0.00000E+00
    0.37160E+04        -0.20530E+04         0.00000E+00
    0.00000E+00         0.00000E+00        -0.27645E+04
 
   -0.67919E+04         0.39043E+04         0.00000E+00
    0.39043E+04        -0.23689E+04         0.00000E+00
    0.00000E+00         0.00000E+00        -0.27482E+04
 
   -0.64054E+04         0.40635E+04         0.00000E+00
    0.40635E+04        -0.26791E+04         0.00000E+00
    0.00000E+00         0.00000E+00        -0.27253E+04
 
   -0.60082E+04         0.41985E+04         0.00000E+00
    0.41985E+04        -0.29790E+04         0.00000E+00
    0.00000E+00         0.00000E+00        -0.26962E+04
 
   -0.56038E+04         0.43151E+04         0.00000E+00
    0.43151E+04        -0.32657E+04         0.00000E+00
    0.00000E+00         0.00000E+00        -0.26609E+04
 
   -0.51936E+04         0.44194E+04         0.00000E+00
    0.44194E+04        -0.35375E+04         0.00000E+00
    0.00000E+00         0.00000E+00        -0.26193E+04
 
   -0.47768E+04         0.45174E+04         0.00000E+00
    0.45174E+04        -0.37945E+04         0.00000E+00
    0.00000E+00         0.00000E+00        -0.25714E+04
 
   -0.43507E+04         0.46148E+04         0.00000E+00
    0.46148E+04        -0.40379E+04         0.00000E+00
    0.00000E+00         0.00000E+00        -0.25166E+04
 
   -0.39106E+04         0.47163E+04         0.00000E+00
    0.47163E+04        -0.42704E+04         0.00000E+00
    0.00000E+00         0.00000E+00        -0.24543E+04
 
   -0.34505E+04         0.48258E+04         0.00000E+00
    0.48258E+04        -0.44957E+04         0.00000E+00
    0.00000E+00         0.00000E+00        -0.23839E+04
 
   -0.29630E+04         0.49456E+04         0.00000E+00
    0.49456E+04        -0.47184E+04         0.00000E+00
    0.00000E+00         0.00000E+00        -0.23044E+04
 
   -0.24395E+04         0.50769E+04         0.00000E+00
    0.50769E+04        -0.49437E+04         0.00000E+00
    0.00000E+00         0.00000E+00        -0.22150E+04
 
   -0.74852E+04         0.99252E+02         0.00000E+00
    0.99252E+02        -0.20927E+01         0.00000E+00
    0.00000E+00         0.00000E+00        -0.22462E+04
 
   -0.77067E+04         0.31593E+03         0.00000E+00
    0.31593E+03        -0.14073E+02         0.00000E+00
    0.00000E+00         0.00000E+00        -0.23162E+04
 
   -0.78985E+04         0.55937E+03         0.00000E+00
    0.55937E+03        -0.41814E+02         0.00000E+00
    0.00000E+00         0.00000E+00        -0.23821E+04
 
   -0.80518E+04         0.83007E+03         0.00000E+00
    0.83007E+03        -0.90985E+02         0.00000E+00
    0.00000E+00         0.00000E+00        -0.24428E+04
 
   -0.81574E+04         0.11249E+04         0.00000E+00
    0.11249E+04        -0.16750E+03         0.00000E+00
    0.00000E+00         0.00000E+00        -0.24975E+04
 
   -0.82071E+04         0.14373E+04         0.00000E+00
    0.14373E+04        -0.27610E+03         0.00000E+00
    0.00000E+00         0.00000E+00        -0.25449E+04
 
   -0.81957E+04         0.17587E+04         0.00000E+00
    0.17587E+04        -0.41934E+03         0.00000E+00
    0.00000E+00         0.00000E+00        -0.25845E+04
 
   -0.81217E+04         0.20796E+04         0.00000E+00
    0.20796E+04        -0.59719E+03         0.00000E+00
    0.00000E+00         0.00000E+00        -0.26157E+04
 
   -0.79869E+04         0.23907E+04         0.00000E+00
    0.23907E+04        -0.80712E+03         0.00000E+00
    0.00000E+00         0.00000E+00        -0.26382E+04
 
   -0.77959E+04         0.26844E+04         0.00000E+00
    0.26844E+04        -0.10446E+04         0.00000E+00
    0.00000E+00         0.00000E+00        -0.26521E+04
 
   -0.75555E+04         0.29550E+04         0.00000E+00
    0.29550E+04        -0.13036E+04         0.00000E+00
    0.00000E+00         0.00000E+00        -0.26577E+04
 
   -0.72736E+04         0.31990E+04         0.00000E+00
    0.31990E+04        -0.15777E+04         0.00000E+00
    0.00000E+00         0.00000E+00        -0.26554E+04
 
   -0.69582E+04         0.34155E+04         0.00000E+00
    0.34155E+04        -0.18605E+04         0.00000E+00
    0.00000E+00         0.00000E+00        -0.26456E+04
 
   -0.66164E+04         0.36052E+04         0.00000E+00
    0.36052E+04        -0.21459E+04         0.00000E+00
    0.00000E+00         0.00000E+00        -0.26287E+04
 
   -0.62546E+04         0.37707E+04         0.00000E+00
    0.37707E+04        -0.24290E+04         0.00000E+00
    0.00000E+00         0.00000E+00        -0.26051E+04
 
   -0.58773E+04         0.39155E+04         0.00000E+00
    0.39155E+04        -0.27058E+04         0.00000E+00
    0.00000E+00         0.00000E+00        -0.25749E+04
 
   -0.54876E+04         0.40442E+04         0.00000E+00
    0.40442E+04        -0.29737E+04         0.00000E+00
    0.00000E+00         0.00000E+00        -0.25384E+04
 
   -0.50866E+04         0.41613E+04         0.00000E+00
    0.41613E+04        -0.32311E+04         0.00000E+00
    0.00000E+00         0.00000E+00        -0.24953E+04
 
   -0.46737E+04         0.42716E+04         0.00000E+00
    0.42716E+04        -0.34780E+04         0.00000E+00
    0.00000E+00         0.00000E+00        -0.24455E+04
 
   -0.42469E+04         0.43795E+04         0.00000E+00
    0.43795E+04        -0.37154E+04         0.00000E+00
    0.00000E+00         0.00000E+00        -0.23887E+04
 
   -0.38024E+04         0.44886E+04         0.00000E+00
    0.44886E+04        -0.39452E+04         0.00000E+00
    0.00000E+00         0.00000E+00        -0.23243E+04
 
   -0.33351E+04         0.46020E+04         0.00000E+00
    0.46020E+04        -0.41705E+04         0.00000E+00
    0.00000E+00         0.00000E+00        -0.22517E+04
 
   -0.28390E+04         0.47211E+04         0.00000E+00
    0.47211E+04        -0.43951E+04         0.00000E+00
    0.00000E+00         0.00000E+00        -0.21702E+04
 
   -0.23069E+04         0.48466E+04         0.00000E+00
    0.48466E+04        -0.46234E+04         0.00000E+00
    0.00000E+00         0.00000E+00        -0.20791E+04
 
   -0.72869E+04         0.93090E+02         0.00000E+00
    0.93090E+02        -0.24982E+01         0.00000E+00
    0.00000E+00         0.00000E+00        -0.21868E+04
 
   -0.74849E+04         0.29567E+03         0.00000E+00
    0.29567E+03        -0.16168E+02         0.00000E+00
    0.00000E+00         0.00000E+00        -0.22503E+04
 
   -0.76517E+04         0.52092E+03         0.00000E+00
    0.52092E+03        -0.45998E+02         0.00000E+00
    0.00000E+00         0.00000E+00        -0.23093E+04
 
   -0.77815E+04         0.76842E+03         0.00000E+00
    0.76842E+03        -0.95789E+02         0.00000E+00
    0.00000E+00         0.00000E+00        -0.23632E+04
 
   -0.78679E+04         0.10354E+04         0.00000E+00
    0.10354E+04        -0.16960E+03         0.00000E+00
    0.00000E+00         0.00000E+00        -0.24113E+04
 
   -0.79053E+04         0.13168E+04         0.00000E+00
    0.13168E+04        -0.27075E+03         0.00000E+00
    0.00000E+00         0.00000E+00        -0.24528E+04
 
   -0.78897E+04         0.16060E+04         0.00000E+00
    0.16060E+04        -0.40111E+03         0.00000E+00
    0.00000E+00         0.00000E+00        -0.24872E+04
 
   -0.78198E+04         0.18958E+04         0.00000E+00
    0.18958E+04        -0.56069E+03         0.00000E+00
    0.00000E+00         0.00000E+00        -0.25142E+04
 
   -0.76967E+04         0.21790E+04         0.00000E+00
    0.21790E+04        -0.74770E+03         0.00000E+00
    0.00000E+00         0.00000E+00        -0.25333E+04
 
   -0.75236E+04         0.24494E+04         0.00000E+00
    0.24494E+04        -0.95874E+03         0.00000E+00
    0.00000E+00         0.00000E+00        -0.25447E+04
 
   -0.73054E+04         0.27022E+04         0.00000E+00
    0.27022E+04        -0.11893E+04         0.00000E+00
    0.00000E+00         0.00000E+00        -0.25484E+04
 
   -0.70478E+04         0.29344E+04         0.00000E+00
    0.29344E+04        -0.14344E+04         0.00000E+00
    0.00000E+00         0.00000E+00        -0.25447E+04
 
   -0.67570E+04         0.31446E+04         0.00000E+00
    0.31446E+04        -0.16888E+04         0.00000E+00
    0.00000E+00         0.00000E+00        -0.25337E+04
 
   -0.64386E+04         0.33332E+04         0.00000E+00
    0.33332E+04        -0.19477E+04         0.00000E+00
    0.00000E+00         0.00000E+00        -0.25159E+04
 
   -0.60974E+04         0.35016E+04         0.00000E+00
    0.35016E+04        -0.22068E+04         0.00000E+00
    0.00000E+00         0.00000E+00        -0.24913E+04
 
   -0.57374E+04         0.36525E+04         0.00000E+00
    0.36525E+04        -0.24629E+04         0.00000E+00
    0.00000E+00         0.00000E+00        -0.24601E+04
 
   -0.53608E+04         0.37891E+04         0.00000E+00
    0.37891E+04        -0.27136E+04         0.00000E+00
    0.00000E+00         0.00000E+00        -0.24223E+04
 
   -0.49688E+04         0.39150E+04         0.00000E+00
    0.39150E+04        -0.29577E+04         0.00000E+00
    0.00000E+00         0.00000E+00        -0.23779E+04
 
   -0.45610E+04         0.40338E+04         0.00000E+00
    0.40338E+04        -0.31947E+04         0.00000E+00
    0.00000E+00         0.00000E+00        -0.23267E+04
 
   -0.41356E+04         0.41488E+04         0.00000E+00
    0.41488E+04        -0.34255E+04         0.00000E+00
    0.00000E+00         0.00000E+00        -0.22683E+04
 
   -0.36896E+04         0.42628E+04         0.00000E+00
    0.42628E+04        -0.36517E+04         0.00000E+00
    0.00000E+00         0.00000E+00        -0.22024E+04
 
   -0.32190E+04         0.43778E+04         0.00000E+00
    0.43778E+04        -0.38756E+04         0.00000E+00
    0.00000E+00         0.00000E+00        -0.21284E+04
 
   -0.27186E+04         0.44950E+04         0.00000E+00
    0.44950E+04        -0.41004E+04         0.00000E+00
    0.00000E+00         0.00000E+00        -0.20457E+04
 
   -0.21829E+04         0.46142E+04         0.00000E+00
    0.46142E+04        -0.43296E+04         0.00000E+00
    0.00000E+00         0.00000E+00        -0.19537E+04
 
   -0.71021E+04         0.86273E+02         0.00000E+00
    0.86273E+02        -0.26510E+01         0.00000E+00
    0.00000E+00         0.00000E+00        -0.21314E+04
 
   -0.72791E+04         0.27404E+03         0.00000E+00
    0.27404E+03        -0.16897E+02         0.00000E+00
    0.00000E+00         0.00000E+00        -0.21888E+04
 
   -0.74248E+04         0.48172E+03         0.00000E+00
    0.48172E+03        -0.47119E+02         0.00000E+00
    0.00000E+00         0.00000E+00        -0.22416E+04
 
   -0.75353E+04         0.70824E+03         0.00000E+00
    0.70824E+03        -0.95916E+02         0.00000E+00
    0.00000E+00         0.00000E+00        -0.22894E+04
 
   -0.76060E+04         0.95099E+03         0.00000E+00
    0.95099E+03        -0.16608E+03         0.00000E+00
    0.00000E+00         0.00000E+00        -0.23316E+04
 
   -0.76329E+04         0.12059E+04         0.00000E+00
    0.12059E+04        -0.25994E+03         0.00000E+00
    0.00000E+00         0.00000E+00        -0.23678E+04
 
   -0.76131E+04         0.14679E+04         0.00000E+00
    0.14679E+04        -0.37881E+03         0.00000E+00
    0.00000E+00         0.00000E+00        -0.23976E+04
 
   -0.75455E+04         0.17312E+04         0.00000E+00
    0.17312E+04        -0.52271E+03         0.00000E+00
    0.00000E+00         0.00000E+00        -0.24205E+04
 
   -0.74307E+04         0.19901E+04         0.00000E+00
    0.19901E+04        -0.69029E+03         0.00000E+00
    0.00000E+00         0.00000E+00        -0.24363E+04
 
   -0.72710E+04         0.22398E+04         0.00000E+00
    0.22398E+04        -0.87904E+03         0.00000E+00
    0.00000E+00         0.00000E+00        -0.24450E+04
 
   -0.70697E+04         0.24762E+04         0.00000E+00
    0.24762E+04        -0.10855E+04         0.00000E+00
    0.00000E+00         0.00000E+00        -0.24466E+04
 
   -0.68313E+04         0.26966E+04         0.00000E+00
    0.26966E+04        -0.13058E+04         0.00000E+00
    0.00000E+00         0.00000E+00        -0.24411E+04
 
   -0.65602E+04         0.28995E+04         0.00000E+00
    0.28995E+04        -0.15358E+04         0.00000E+00
    0.00000E+00         0.00000E+00        -0.24288E+04
 
   -0.62609E+04         0.30849E+04         0.00000E+00
    0.30849E+04        -0.17715E+04         0.00000E+00
    0.00000E+00         0.00000E+00        -0.24097E+04
 
   -0.59371E+04         0.32537E+04         0.00000E+00
    0.32537E+04        -0.20096E+04         0.00000E+00
    0.00000E+00         0.00000E+00        -0.23840E+04
 
   -0.55919E+04         0.34075E+04         0.00000E+00
    0.34075E+04        -0.22473E+04         0.00000E+00
    0.00000E+00         0.00000E+00        -0.23517E+04
 
   -0.52272E+04         0.35488E+04         0.00000E+00
    0.35488E+04        -0.24824E+04         0.00000E+00
    0.00000E+00         0.00000E+00        -0.23129E+04
 
   -0.48440E+04         0.36801E+04         0.00000E+00
    0.36801E+04        -0.27139E+04         0.00000E+00
    0.00000E+00         0.00000E+00        -0.22674E+04
 
   -0.44419E+04         0.38042E+04         0.00000E+00
    0.38042E+04        -0.29414E+04         0.00000E+00
    0.00000E+00         0.00000E+00        -0.22150E+04
 
   -0.40196E+04         0.39234E+04         0.00000E+00
    0.39234E+04        -0.31654E+04         0.00000E+00
    0.00000E+00         0.00000E+00        -0.21555E+04
 
   -0.35746E+04         0.40398E+04         0.00000E+00
    0.40398E+04        -0.33872E+04         0.00000E+00
    0.00000E+00         0.00000E+00        -0.20885E+04
 
   -0.31036E+04         0.41548E+04         0.00000E+00
    0.41548E+04        -0.36086E+04         0.00000E+00
    0.00000E+00         0.00000E+00        -0.20137E+04
 
   -0.26027E+04         0.42689E+04         0.00000E+00
    0.42689E+04        -0.38322E+04         0.00000E+00
    0.00000E+00         0.00000E+00        -0.19305E+04
 
   -0.20671E+04         0.43817E+04         0.00000E+00
    0.43817E+04        -0.40608E+04         0.00000E+00
    0.00000E+00         0.00000E+00        -0.18384E+04
 
   -0.69315E+04         0.79309E+02         0.00000E+00
    0.79309E+02        -0.26438E+01         0.00000E+00
    0.00000E+00         0.00000E+00        -0.20802E+04
 
   -0.70892E+04         0.25226E+03         0.00000E+00
    0.25226E+03        -0.16751E+02         0.00000E+00
    0.00000E+00         0.00000E+00        -0.21318E+04
 
   -0.72165E+04         0.44322E+03         0.00000E+00
    0.44322E+03        -0.46265E+02         0.00000E+00
    0.00000E+00         0.00000E+00        -0.21788E+04
 
   -0.73105E+04         0.65064E+03         0.00000E+00
    0.65064E+03        -0.93026E+02         0.00000E+00
    0.00000E+00         0.00000E+00        -0.22211E+04
 
   -0.73679E+04         0.87206E+03         0.00000E+00
    0.87206E+03        -0.15899E+03         0.00000E+00
    0.00000E+00         0.00000E+00        -0.22581E+04
 
   -0.73856E+04         0.11041E+04         0.00000E+00
    0.11041E+04        -0.24579E+03         0.00000E+00
    0.00000E+00         0.00000E+00        -0.22894E+04
 
   -0.73617E+04         0.13425E+04         0.00000E+00
    0.13425E+04        -0.35432E+03         0.00000E+00
    0.00000E+00         0.00000E+00        -0.23148E+04
 
   -0.72950E+04         0.15829E+04         0.00000E+00
    0.15829E+04        -0.48459E+03         0.00000E+00
    0.00000E+00         0.00000E+00        -0.23339E+04
 
   -0.71860E+04         0.18207E+04         0.00000E+00
    0.18207E+04        -0.63559E+03         0.00000E+00
    0.00000E+00         0.00000E+00        -0.23465E+04
 
   -0.70361E+04         0.20518E+04         0.00000E+00
    0.20518E+04        -0.80539E+03         0.00000E+00
    0.00000E+00         0.00000E+00        -0.23525E+04
 
   -0.68479E+04         0.22729E+04         0.00000E+00
    0.22729E+04        -0.99137E+03         0.00000E+00
    0.00000E+00         0.00000E+00        -0.23518E+04
 
   -0.66244E+04         0.24817E+04         0.00000E+00
    0.24817E+04        -0.11905E+04         0.00000E+00
    0.00000E+00         0.00000E+00        -0.23445E+04
 
   -0.63692E+04         0.26766E+04         0.00000E+00
    0.26766E+04        -0.13994E+04         0.00000E+00
    0.00000E+00         0.00000E+00        -0.23306E+04
 
   -0.60855E+04         0.28574E+04         0.00000E+00
    0.28574E+04        -0.16151E+04         0.00000E+00
    0.00000E+00         0.00000E+00        -0.23102E+04
 
   -0.57762E+04         0.30244E+04         0.00000E+00
    0.30244E+04        -0.18348E+04         0.00000E+00
    0.00000E+00         0.00000E+00        -0.22833E+04
 
   -0.54438E+04         0.31786E+04         0.00000E+00
    0.31786E+04        -0.20560E+04         0.00000E+00
    0.00000E+00         0.00000E+00        -0.22499E+04
 
   -0.50899E+04         0.33219E+04         0.00000E+00
    0.33219E+04        -0.22771E+04         0.00000E+00
    0.00000E+00         0.00000E+00        -0.22101E+04
 
   -0.47151E+04         0.34559E+04         0.00000E+00
    0.34559E+04        -0.24970E+04         0.00000E+00
    0.00000E+00         0.00000E+00        -0.21636E+04
 
   -0.43192E+04         0.35826E+04         0.00000E+00
    0.35826E+04        -0.27153E+04         0.00000E+00
    0.00000E+00         0.00000E+00        -0.21104E+04
 
   -0.39012E+04         0.37037E+04         0.00000E+00
    0.37037E+04        -0.29325E+04         0.00000E+00
    0.00000E+00         0.00000E+00        -0.20501E+04
 
   -0.34591E+04         0.38206E+04         0.00000E+00
    0.38206E+04        -0.31493E+04         0.00000E+00
    0.00000E+00         0.00000E+00        -0.19825E+04
 
   -0.29904E+04         0.39341E+04         0.00000E+00
    0.39341E+04        -0.33674E+04         0.00000E+00
    0.00000E+00         0.00000E+00        -0.19073E+04
 
   -0.24917E+04         0.40443E+04         0.00000E+00
    0.40443E+04        -0.35887E+04         0.00000E+00
    0.00000E+00         0.00000E+00        -0.18241E+04
 
   -0.19594E+04         0.41505E+04         0.00000E+00
    0.41505E+04        -0.38153E+04         0.00000E+00
    0.00000E+00         0.00000E+00        -0.17324E+04
 
   -0.67748E+04         0.72512E+02         0.00000E+00
    0.72512E+02        -0.25404E+01         0.00000E+00
    0.00000E+00         0.00000E+00        -0.20332E+04
 
   -0.69146E+04         0.23113E+03         0.00000E+00
    0.23113E+03        -0.16075E+02         0.00000E+00
    0.00000E+00         0.00000E+00        -0.20792E+04
 
   -0.70255E+04         0.40632E+03         0.00000E+00
    0.40632E+03        -0.44212E+02         0.00000E+00
    0.00000E+00         0.00000E+00        -0.21209E+04
 
   -0.71050E+04         0.59629E+03         0.00000E+00
    0.59629E+03        -0.88324E+02         0.00000E+00
    0.00000E+00         0.00000E+00        -0.21580E+04
 
   -0.71507E+04         0.79868E+03         0.00000E+00
    0.79868E+03        -0.14982E+03         0.00000E+00
    0.00000E+00         0.00000E+00        -0.21901E+04
 
   -0.71602E+04         0.10106E+04         0.00000E+00
    0.10106E+04        -0.22986E+03         0.00000E+00
    0.00000E+00         0.00000E+00        -0.22170E+04
 
   -0.71321E+04         0.12285E+04         0.00000E+00
    0.12285E+04        -0.32908E+03         0.00000E+00
    0.00000E+00         0.00000E+00        -0.22383E+04
 
   -0.70653E+04         0.14488E+04         0.00000E+00
    0.14488E+04        -0.44743E+03         0.00000E+00
    0.00000E+00         0.00000E+00        -0.22538E+04
 
   -0.69601E+04         0.16678E+04         0.00000E+00
    0.16678E+04        -0.58415E+03         0.00000E+00
    0.00000E+00         0.00000E+00        -0.22633E+04
 
   -0.68175E+04         0.18821E+04         0.00000E+00
    0.18821E+04        -0.73777E+03         0.00000E+00
    0.00000E+00         0.00000E+00        -0.22666E+04
 
   -0.66392E+04         0.20891E+04         0.00000E+00
    0.20891E+04        -0.90626E+03         0.00000E+00
    0.00000E+00         0.00000E+00        -0.22636E+04
 
   -0.64274E+04         0.22865E+04         0.00000E+00
    0.22865E+04        -0.10872E+04         0.00000E+00
    0.00000E+00         0.00000E+00        -0.22544E+04
 
   -0.61848E+04         0.24730E+04         0.00000E+00
    0.24730E+04        -0.12781E+04         0.00000E+00
    0.00000E+00         0.00000E+00        -0.22389E+04
 
   -0.59139E+04         0.26479E+04         0.00000E+00
    0.26479E+04        -0.14764E+04         0.00000E+00
    0.00000E+00         0.00000E+00        -0.22171E+04
 
   -0.56169E+04         0.28115E+04         0.00000E+00
    0.28115E+04        -0.16799E+04         0.00000E+00
    0.00000E+00         0.00000E+00        -0.21890E+04
 
   -0.52956E+04         0.29643E+04         0.00000E+00
    0.29643E+04        -0.18865E+04         0.00000E+00
    0.00000E+00         0.00000E+00        -0.21546E+04
 
   -0.49513E+04         0.31072E+04         0.00000E+00
    0.31072E+04        -0.20949E+04         0.00000E+00
    0.00000E+00         0.00000E+00        -0.21139E+04
 
   -0.45846E+04         0.32417E+04         0.00000E+00
    0.32417E+04        -0.23041E+04         0.00000E+00
    0.00000E+00         0.00000E+00        -0.20666E+04
 
   -0.41953E+04         0.33688E+04         0.00000E+00
    0.33688E+04        -0.25138E+04         0.00000E+00
    0.00000E+00         0.00000E+00        -0.20127E+04
 
   -0.37825E+04         0.34899E+04         0.00000E+00
    0.34899E+04        -0.27241E+04         0.00000E+00
    0.00000E+00         0.00000E+00        -0.19520E+04
 
   -0.33449E+04         0.36056E+04         0.00000E+00
    0.36056E+04        -0.29357E+04         0.00000E+00
    0.00000E+00         0.00000E+00        -0.18842E+04
 
   -0.28802E+04         0.37165E+04         0.00000E+00
    0.37165E+04        -0.31498E+04         0.00000E+00
    0.00000E+00         0.00000E+00        -0.18090E+04
 
   -0.23861E+04         0.38222E+04         0.00000E+00
    0.38222E+04        -0.33679E+04         0.00000E+00
    0.00000E+00         0.00000E+00        -0.17262E+04
 
   -0.18596E+04         0.39218E+04         0.00000E+00
    0.39218E+04        -0.35916E+04         0.00000E+00
    0.00000E+00         0.00000E+00        -0.16353E+04
 
   -0.66317E+04         0.66064E+02         0.00000E+00
    0.66064E+02        -0.23842E+01         0.00000E+00
    0.00000E+00         0.00000E+00        -0.19902E+04
 
   -0.67546E+04         0.21109E+03         0.00000E+00
    0.21109E+03        -0.15105E+02         0.00000E+00
    0.00000E+00         0.00000E+00        -0.20309E+04
 
   -0.68504E+04         0.37155E+03         0.00000E+00
    0.37155E+03        -0.41499E+02         0.00000E+00
    0.00000E+00         0.00000E+00        -0.20676E+04
 
   -0.69169E+04         0.54553E+03         0.00000E+00
    0.54553E+03        -0.82661E+02         0.00000E+00
    0.00000E+00         0.00000E+00        -0.20999E+04
 
   -0.69521E+04         0.73078E+03         0.00000E+00
    0.73078E+03        -0.13966E+03         0.00000E+00
    0.00000E+00         0.00000E+00        -0.21275E+04
 
   -0.69541E+04         0.92472E+03         0.00000E+00
    0.92472E+03        -0.21333E+03         0.00000E+00
    0.00000E+00         0.00000E+00        -0.21502E+04
 
   -0.69217E+04         0.11244E+04         0.00000E+00
    0.11244E+04        -0.30413E+03         0.00000E+00
    0.00000E+00         0.00000E+00        -0.21677E+04
 
   -0.68541E+04         0.13269E+04         0.00000E+00
    0.13269E+04        -0.41202E+03         0.00000E+00
    0.00000E+00         0.00000E+00        -0.21798E+04
 
   -0.67512E+04         0.15291E+04         0.00000E+00
    0.15291E+04        -0.53638E+03         0.00000E+00
    0.00000E+00         0.00000E+00        -0.21863E+04
 
   -0.66137E+04         0.17282E+04         0.00000E+00
    0.17282E+04        -0.67610E+03         0.00000E+00
    0.00000E+00         0.00000E+00        -0.21870E+04
 
   -0.64429E+04         0.19218E+04         0.00000E+00
    0.19218E+04        -0.82961E+03         0.00000E+00
    0.00000E+00         0.00000E+00        -0.21818E+04
 
   -0.62403E+04         0.21082E+04         0.00000E+00
    0.21082E+04        -0.99503E+03         0.00000E+00
    0.00000E+00         0.00000E+00        -0.21706E+04
 
   -0.60079E+04         0.22859E+04         0.00000E+00
    0.22859E+04        -0.11704E+04         0.00000E+00
    0.00000E+00         0.00000E+00        -0.21535E+04
 
   -0.57474E+04         0.24542E+04         0.00000E+00
    0.24542E+04        -0.13536E+04         0.00000E+00
    0.00000E+00         0.00000E+00        -0.21303E+04
 
   -0.54607E+04         0.26131E+04         0.00000E+00
    0.26131E+04        -0.15429E+04         0.00000E+00
    0.00000E+00         0.00000E+00        -0.21011E+04
 
   -0.51490E+04         0.27628E+04         0.00000E+00
    0.27628E+04        -0.17366E+04         0.00000E+00
    0.00000E+00         0.00000E+00        -0.20657E+04
 
   -0.48135E+04         0.29037E+04         0.00000E+00
    0.29037E+04        -0.19336E+04         0.00000E+00
    0.00000E+00         0.00000E+00        -0.20241E+04
 
   -0.44545E+04         0.30368E+04         0.00000E+00
    0.30368E+04        -0.21330E+04         0.00000E+00
    0.00000E+00         0.00000E+00        -0.19762E+04
 
   -0.40719E+04         0.31627E+04         0.00000E+00
    0.31627E+04        -0.23344E+04         0.00000E+00
    0.00000E+00         0.00000E+00        -0.19219E+04
 
   -0.36651E+04         0.32821E+04         0.00000E+00
    0.32821E+04        -0.25380E+04         0.00000E+00
    0.00000E+00         0.00000E+00        -0.18609E+04
 
   -0.32330E+04         0.33954E+04         0.00000E+00
    0.33954E+04        -0.27442E+04         0.00000E+00
    0.00000E+00         0.00000E+00        -0.17932E+04
 
   -0.27740E+04         0.35027E+04         0.00000E+00
    0.35027E+04        -0.29539E+04         0.00000E+00
    0.00000E+00         0.00000E+00        -0.17184E+04
 
   -0.22861E+04         0.36034E+04         0.00000E+00
    0.36034E+04        -0.31681E+04         0.00000E+00
    0.00000E+00         0.00000E+00        -0.16363E+04
 
   -0.17673E+04         0.36965E+04         0.00000E+00
    0.36965E+04        -0.33881E+04         0.00000E+00
    0.00000E+00         0.00000E+00        -0.15466E+04
 
   -0.65012E+04         0.60059E+02         0.00000E+00
    0.60059E+02        -0.22038E+01         0.00000E+00
    0.00000E+00         0.00000E+00        -0.19510E+04
 
   -0.66083E+04         0.19239E+03         0.00000E+00
    0.19239E+03        -0.14000E+02         0.00000E+00
    0.00000E+00         0.00000E+00        -0.19867E+04
 
   -0.66901E+04         0.33916E+03         0.00000E+00
    0.33916E+03        -0.38497E+02         0.00000E+00
    0.00000E+00         0.00000E+00        -0.20186E+04
 
   -0.67446E+04         0.49845E+03         0.00000E+00
    0.49845E+03        -0.76627E+02         0.00000E+00
    0.00000E+00         0.00000E+00        -0.20464E+04
 
   -0.67702E+04         0.66815E+03         0.00000E+00
    0.66815E+03        -0.12924E+03         0.00000E+00
    0.00000E+00         0.00000E+00        -0.20698E+04
 
   -0.67652E+04         0.84595E+03         0.00000E+00
    0.84595E+03        -0.19699E+03         0.00000E+00
    0.00000E+00         0.00000E+00        -0.20886E+04
 
   -0.67284E+04         0.10293E+04         0.00000E+00
    0.10293E+04        -0.28022E+03         0.00000E+00
    0.00000E+00         0.00000E+00        -0.21026E+04
 
   -0.66593E+04         0.12158E+04         0.00000E+00
    0.12158E+04        -0.37889E+03         0.00000E+00
    0.00000E+00         0.00000E+00        -0.21115E+04
 
   -0.65577E+04         0.14027E+04         0.00000E+00
    0.14027E+04        -0.49252E+03         0.00000E+00
    0.00000E+00         0.00000E+00        -0.21151E+04
 
   -0.64238E+04         0.15877E+04         0.00000E+00
    0.15877E+04        -0.62026E+03         0.00000E+00
    0.00000E+00         0.00000E+00        -0.21132E+04
 
   -0.62586E+04         0.17688E+04         0.00000E+00
    0.17688E+04        -0.76088E+03         0.00000E+00
    0.00000E+00         0.00000E+00        -0.21058E+04
 
   -0.60632E+04         0.19444E+04         0.00000E+00
    0.19444E+04        -0.91293E+03         0.00000E+00
    0.00000E+00         0.00000E+00        -0.20928E+04
 
   -0.58388E+04         0.21131E+04         0.00000E+00
    0.21131E+04        -0.10748E+04         0.00000E+00
    0.00000E+00         0.00000E+00        -0.20741E+04
 
   -0.55870E+04         0.22743E+04         0.00000E+00
    0.22743E+04        -0.12449E+04         0.00000E+00
    0.00000E+00         0.00000E+00        -0.20496E+04
 
   -0.53089E+04         0.24275E+04         0.00000E+00
    0.24275E+04        -0.14218E+04         0.00000E+00
    0.00000E+00         0.00000E+00        -0.20192E+04
 
   -0.50057E+04         0.25728E+04         0.00000E+00
    0.25728E+04        -0.16041E+04         0.00000E+00
    0.00000E+00         0.00000E+00        -0.19829E+04
 
   -0.46780E+04         0.27104E+04         0.00000E+00
    0.27104E+04        -0.17908E+04         0.00000E+00
    0.00000E+00         0.00000E+00        -0.19407E+04
 
   -0.43264E+04         0.28406E+04         0.00000E+00
    0.28406E+04        -0.19812E+04         0.00000E+00
    0.00000E+00         0.00000E+00        -0.18923E+04
 
   -0.39506E+04         0.29638E+04         0.00000E+00
    0.29638E+04        -0.21750E+04         0.00000E+00
    0.00000E+00         0.00000E+00        -0.18377E+04
 
   -0.35503E+04         0.30803E+04         0.00000E+00
    0.30803E+04        -0.23721E+04         0.00000E+00
    0.00000E+00         0.00000E+00        -0.17767E+04
 
   -0.31246E+04         0.31902E+04         0.00000E+00
    0.31902E+04        -0.25728E+04         0.00000E+00
    0.00000E+00         0.00000E+00        -0.17092E+04
 
   -0.26723E+04         0.32932E+04         0.00000E+00
    0.32932E+04        -0.27777E+04         0.00000E+00
    0.00000E+00         0.00000E+00        -0.16350E+04
 
   -0.21920E+04         0.33886E+04         0.00000E+00
    0.33886E+04        -0.29876E+04         0.00000E+00
    0.00000E+00         0.00000E+00        -0.15539E+04
 
   -0.16823E+04         0.34752E+04         0.00000E+00
    0.34752E+04        -0.32034E+04         0.00000E+00
    0.00000E+00         0.00000E+00        -0.14657E+04
 
   -0.63825E+04         0.54529E+02         0.00000E+00
    0.54529E+02        -0.20178E+01         0.00000E+00
    0.00000E+00         0.00000E+00        -0.19154E+04
 
   -0.64747E+04         0.17510E+03         0.00000E+00
    0.17510E+03        -0.12866E+02         0.00000E+00
    0.00000E+00         0.00000E+00        -0.19463E+04
 
   -0.65434E+04         0.30921E+03         0.00000E+00
    0.30921E+03        -0.35451E+02         0.00000E+00
    0.00000E+00         0.00000E+00        -0.19737E+04
 
   -0.65869E+04         0.45498E+03         0.00000E+00
    0.45498E+03        -0.70615E+02         0.00000E+00
    0.00000E+00         0.00000E+00        -0.19972E+04
 
   -0.66034E+04         0.61047E+03         0.00000E+00
    0.61047E+03        -0.11908E+03         0.00000E+00
    0.00000E+00         0.00000E+00        -0.20168E+04
 
   -0.65917E+04         0.77359E+03         0.00000E+00
    0.77359E+03        -0.18140E+03         0.00000E+00
    0.00000E+00         0.00000E+00        -0.20319E+04
 
   -0.65507E+04         0.94216E+03         0.00000E+00
    0.94216E+03        -0.25784E+03         0.00000E+00
    0.00000E+00         0.00000E+00        -0.20426E+04
 
   -0.64796E+04         0.11140E+04         0.00000E+00
    0.11140E+04        -0.34838E+03         0.00000E+00
    0.00000E+00         0.00000E+00        -0.20484E+04
 
   -0.63783E+04         0.12869E+04         0.00000E+00
    0.12869E+04        -0.45267E+03         0.00000E+00
    0.00000E+00         0.00000E+00        -0.20493E+04
 
   -0.62468E+04         0.14588E+04         0.00000E+00
    0.14588E+04        -0.57004E+03         0.00000E+00
    0.00000E+00         0.00000E+00        -0.20451E+04
 
   -0.60857E+04         0.16281E+04         0.00000E+00
    0.16281E+04        -0.69955E+03         0.00000E+00
    0.00000E+00         0.00000E+00        -0.20356E+04
 
   -0.58958E+04         0.17931E+04         0.00000E+00
    0.17931E+04        -0.84006E+03         0.00000E+00
    0.00000E+00         0.00000E+00        -0.20208E+04
 
   -0.56780E+04         0.19528E+04         0.00000E+00
    0.19528E+04        -0.99032E+03         0.00000E+00
    0.00000E+00         0.00000E+00        -0.20005E+04
 
   -0.54332E+04         0.21063E+04         0.00000E+00
    0.21063E+04        -0.11490E+04         0.00000E+00
    0.00000E+00         0.00000E+00        -0.19747E+04
 
   -0.51625E+04         0.22531E+04         0.00000E+00
    0.22531E+04        -0.13150E+04         0.00000E+00
    0.00000E+00         0.00000E+00        -0.19433E+04
 
   -0.48667E+04         0.23931E+04         0.00000E+00
    0.23931E+04        -0.14872E+04         0.00000E+00
    0.00000E+00         0.00000E+00        -0.19062E+04
 
   -0.45462E+04         0.25261E+04         0.00000E+00
    0.25261E+04        -0.16647E+04         0.00000E+00
    0.00000E+00         0.00000E+00        -0.18633E+04
 
   -0.42016E+04         0.26523E+04         0.00000E+00
    0.26523E+04        -0.18469E+04         0.00000E+00
    0.00000E+00         0.00000E+00        -0.18145E+04
 
   -0.38326E+04         0.27718E+04         0.00000E+00
    0.27718E+04        -0.20335E+04         0.00000E+00
    0.00000E+00         0.00000E+00        -0.17598E+04
 
   -0.34390E+04         0.28844E+04         0.00000E+00
    0.28844E+04        -0.22243E+04         0.00000E+00
    0.00000E+00         0.00000E+00        -0.16990E+04
 
   -0.30203E+04         0.29901E+04         0.00000E+00
    0.29901E+04        -0.24195E+04         0.00000E+00
    0.00000E+00         0.00000E+00        -0.16319E+04
 
   -0.25755E+04         0.30883E+04         0.00000E+00
    0.30883E+04        -0.26195E+04         0.00000E+00
    0.00000E+00         0.00000E+00        -0.15585E+04
 
   -0.21038E+04         0.31782E+04         0.00000E+00
    0.31782E+04        -0.28248E+04         0.00000E+00
    0.00000E+00         0.00000E+00        -0.14786E+04
 
   -0.16041E+04         0.32585E+04         0.00000E+00
    0.32585E+04        -0.30360E+04         0.00000E+00
    0.00000E+00         0.00000E+00        -0.13920E+04
 
   -0.62746E+04         0.49474E+02         0.00000E+00
    0.49474E+02        -0.18380E+01         0.00000E+00
    0.00000E+00         0.00000E+00        -0.18829E+04
 
   -0.63528E+04         0.15921E+03         0.00000E+00
    0.15921E+03        -0.11768E+02         0.00000E+00
    0.00000E+00         0.00000E+00        -0.19094E+04
 
   -0.64094E+04         0.28162E+03         0.00000E+00
    0.28162E+03        -0.32516E+02         0.00000E+00
    0.00000E+00         0.00000E+00        -0.19326E+04
 
   -0.64425E+04         0.41494E+03         0.00000E+00
    0.41494E+03        -0.64878E+02         0.00000E+00
    0.00000E+00         0.00000E+00        -0.19522E+04
 
   -0.64506E+04         0.55737E+03         0.00000E+00
    0.55737E+03        -0.10951E+03         0.00000E+00
    0.00000E+00         0.00000E+00        -0.19680E+04
 
   -0.64325E+04         0.70703E+03         0.00000E+00
    0.70703E+03        -0.16688E+03         0.00000E+00
    0.00000E+00         0.00000E+00        -0.19798E+04
 
   -0.63871E+04         0.86202E+03         0.00000E+00
    0.86202E+03        -0.23726E+03         0.00000E+00
    0.00000E+00         0.00000E+00        -0.19873E+04
 
   -0.63137E+04         0.10204E+04         0.00000E+00
    0.10204E+04        -0.32065E+03         0.00000E+00
    0.00000E+00         0.00000E+00        -0.19903E+04
 
   -0.62120E+04         0.11803E+04         0.00000E+00
    0.11803E+04        -0.41679E+03         0.00000E+00
    0.00000E+00         0.00000E+00        -0.19886E+04
 
   -0.60820E+04         0.13400E+04         0.00000E+00
    0.13400E+04        -0.52518E+03         0.00000E+00
    0.00000E+00         0.00000E+00        -0.19821E+04
 
   -0.59239E+04         0.14979E+04         0.00000E+00
    0.14979E+04        -0.64508E+03         0.00000E+00
    0.00000E+00         0.00000E+00        -0.19707E+04
 
   -0.57382E+04         0.16527E+04         0.00000E+00
    0.16527E+04        -0.77562E+03         0.00000E+00
    0.00000E+00         0.00000E+00        -0.19541E+04
 
   -0.55256E+04         0.18032E+04         0.00000E+00
    0.18032E+04        -0.91580E+03         0.00000E+00
    0.00000E+00         0.00000E+00        -0.19324E+04
 
   -0.52867E+04         0.19487E+04         0.00000E+00
    0.19487E+04        -0.10646E+04         0.00000E+00
    0.00000E+00         0.00000E+00        -0.19054E+04
 
   -0.50223E+04         0.20886E+04         0.00000E+00
    0.20886E+04        -0.12211E+04         0.00000E+00
    0.00000E+00         0.00000E+00        -0.18730E+04
 
   -0.47330E+04         0.22225E+04         0.00000E+00
    0.22225E+04        -0.13843E+04         0.00000E+00
    0.00000E+00         0.00000E+00        -0.18352E+04
 
   -0.44191E+04         0.23502E+04         0.00000E+00
    0.23502E+04        -0.15535E+04         0.00000E+00
    0.00000E+00         0.00000E+00        -0.17918E+04
 
   -0.40811E+04         0.24715E+04         0.00000E+00
    0.24715E+04        -0.17282E+04         0.00000E+00
    0.00000E+00         0.00000E+00        -0.17428E+04
 
   -0.37188E+04         0.25863E+04         0.00000E+00
    0.25863E+04        -0.19081E+04         0.00000E+00
    0.00000E+00         0.00000E+00        -0.16881E+04
 
   -0.33321E+04         0.26943E+04         0.00000E+00
    0.26943E+04        -0.20929E+04         0.00000E+00
    0.00000E+00         0.00000E+00        -0.16275E+04
 
   -0.29207E+04         0.27951E+04         0.00000E+00
    0.27951E+04        -0.22828E+04         0.00000E+00
    0.00000E+00         0.00000E+00        -0.15611E+04
 
   -0.24841E+04         0.28882E+04         0.00000E+00
    0.28882E+04        -0.24778E+04         0.00000E+00
    0.00000E+00         0.00000E+00        -0.14886E+04
 
   -0.20215E+04         0.29724E+04         0.00000E+00
    0.29724E+04        -0.26783E+04         0.00000E+00
    0.00000E+00         0.00000E+00        -0.14099E+04
 
   -0.15324E+04         0.30466E+04         0.00000E+00
    0.30466E+04        -0.28847E+04         0.00000E+00
    0.00000E+00         0.00000E+00        -0.13251E+04
 
   -0.61767E+04         0.44868E+02         0.00000E+00
    0.44868E+02        -0.16711E+01         0.00000E+00
    0.00000E+00         0.00000E+00        -0.18535E+04
 
   -0.62418E+04         0.14466E+03         0.00000E+00
    0.14466E+03        -0.10747E+02         0.00000E+00
    0.00000E+00         0.00000E+00        -0.18758E+04
 
   -0.62869E+04         0.25627E+03         0.00000E+00
    0.25627E+03        -0.29788E+02         0.00000E+00
    0.00000E+00         0.00000E+00        -0.18950E+04
 
   -0.63103E+04         0.37808E+03         0.00000E+00
    0.37808E+03        -0.59567E+02         0.00000E+00
    0.00000E+00         0.00000E+00        -0.19110E+04
 
   -0.63105E+04         0.50844E+03         0.00000E+00
    0.50844E+03        -0.10070E+03         0.00000E+00
    0.00000E+00         0.00000E+00        -0.19234E+04
 
   -0.62862E+04         0.64568E+03         0.00000E+00
    0.64568E+03        -0.15364E+03         0.00000E+00
    0.00000E+00         0.00000E+00        -0.19320E+04
 
   -0.62365E+04         0.78810E+03         0.00000E+00
    0.78810E+03        -0.21864E+03         0.00000E+00
    0.00000E+00         0.00000E+00        -0.19365E+04
 
   -0.61605E+04         0.93401E+03         0.00000E+00
    0.93401E+03        -0.29574E+03         0.00000E+00
    0.00000E+00         0.00000E+00        -0.19369E+04
 
   -0.60580E+04         0.10818E+04         0.00000E+00
    0.10818E+04        -0.38478E+03         0.00000E+00
    0.00000E+00         0.00000E+00        -0.19328E+04
 
   -0.59287E+04         0.12299E+04         0.00000E+00
    0.12299E+04        -0.48536E+03         0.00000E+00
    0.00000E+00         0.00000E+00        -0.19242E+04
 
   -0.57727E+04         0.13769E+04         0.00000E+00
    0.13769E+04        -0.59695E+03         0.00000E+00
    0.00000E+00         0.00000E+00        -0.19109E+04
 
   -0.55902E+04         0.15216E+04         0.00000E+00
    0.15216E+04        -0.71885E+03         0.00000E+00
    0.00000E+00         0.00000E+00        -0.18927E+04
 
   -0.53818E+04         0.16630E+04         0.00000E+00
    0.16630E+04        -0.85028E+03         0.00000E+00
    0.00000E+00         0.00000E+00        -0.18696E+04
 
   -0.51478E+04         0.18003E+04         0.00000E+00
    0.18003E+04        -0.99043E+03         0.00000E+00
    0.00000E+00         0.00000E+00        -0.18415E+04
 
   -0.48888E+04         0.19328E+04         0.00000E+00
    0.19328E+04        -0.11385E+04         0.00000E+00
    0.00000E+00         0.00000E+00        -0.18082E+04
 
   -0.46053E+04         0.20601E+04         0.00000E+00
    0.20601E+04        -0.12938E+04         0.00000E+00
    0.00000E+00         0.00000E+00        -0.17697E+04
 
   -0.42975E+04         0.21818E+04         0.00000E+00
    0.21818E+04        -0.14556E+04         0.00000E+00
    0.00000E+00         0.00000E+00        -0.17259E+04
 
   -0.39657E+04         0.22975E+04         0.00000E+00
    0.22975E+04        -0.16235E+04         0.00000E+00
    0.00000E+00         0.00000E+00        -0.16768E+04
 
   -0.36100E+04         0.24070E+04         0.00000E+00
    0.24070E+04        -0.17971E+04         0.00000E+00
    0.00000E+00         0.00000E+00        -0.16221E+04
 
   -0.32303E+04         0.25097E+04         0.00000E+00
    0.25097E+04        -0.19763E+04         0.00000E+00
    0.00000E+00         0.00000E+00        -0.15620E+04
 
   -0.28264E+04         0.26053E+04         0.00000E+00
    0.26053E+04        -0.21609E+04         0.00000E+00
    0.00000E+00         0.00000E+00        -0.14962E+04
 
   -0.23981E+04         0.26928E+04         0.00000E+00
    0.26928E+04        -0.23510E+04         0.00000E+00
    0.00000E+00         0.00000E+00        -0.14247E+04
 
   -0.19450E+04         0.27714E+04         0.00000E+00
    0.27714E+04        -0.25467E+04         0.00000E+00
    0.00000E+00         0.00000E+00        -0.13475E+04
 
   -0.14669E+04         0.28397E+04         0.00000E+00
    0.28397E+04        -0.27481E+04         0.00000E+00
    0.00000E+00         0.00000E+00        -0.12645E+04
 
   -0.60878E+04         0.40671E+02         0.00000E+00
    0.40671E+02        -0.15208E+01         0.00000E+00
    0.00000E+00         0.00000E+00        -0.18268E+04
 
   -0.61407E+04         0.13132E+03         0.00000E+00
    0.13132E+03        -0.98232E+01         0.00000E+00
    0.00000E+00         0.00000E+00        -0.18452E+04
 
   -0.61752E+04         0.23295E+03         0.00000E+00
    0.23295E+03        -0.27317E+02         0.00000E+00
    0.00000E+00         0.00000E+00        -0.18608E+04
 
   -0.61896E+04         0.34409E+03         0.00000E+00
    0.34409E+03        -0.54763E+02         0.00000E+00
    0.00000E+00         0.00000E+00        -0.18733E+04
 
   -0.61822E+04         0.46326E+03         0.00000E+00
    0.46326E+03        -0.92763E+02         0.00000E+00
    0.00000E+00         0.00000E+00        -0.18825E+04
 
   -0.61521E+04         0.58895E+03         0.00000E+00
    0.58895E+03        -0.14176E+03         0.00000E+00
    0.00000E+00         0.00000E+00        -0.18881E+04
 
   -0.60980E+04         0.71966E+03         0.00000E+00
    0.71966E+03        -0.20201E+03         0.00000E+00
    0.00000E+00         0.00000E+00        -0.18900E+04
 
   -0.60193E+04         0.85390E+03         0.00000E+00
    0.85390E+03        -0.27360E+03         0.00000E+00
    0.00000E+00         0.00000E+00        -0.18879E+04
 
   -0.59156E+04         0.99022E+03         0.00000E+00
    0.99022E+03        -0.35644E+03         0.00000E+00
    0.00000E+00         0.00000E+00        -0.18816E+04
 
   -0.57864E+04         0.11273E+04         0.00000E+00
    0.11273E+04        -0.45026E+03         0.00000E+00
    0.00000E+00         0.00000E+00        -0.18710E+04
 
   -0.56318E+04         0.12638E+04         0.00000E+00
    0.12638E+04        -0.55464E+03         0.00000E+00
    0.00000E+00         0.00000E+00        -0.18559E+04
 
   -0.54518E+04         0.13987E+04         0.00000E+00
    0.13987E+04        -0.66904E+03         0.00000E+00
    0.00000E+00         0.00000E+00        -0.18362E+04
 
   -0.52467E+04         0.15310E+04         0.00000E+00
    0.15310E+04        -0.79287E+03         0.00000E+00
    0.00000E+00         0.00000E+00        -0.18119E+04
 
   -0.50168E+04         0.16599E+04         0.00000E+00
    0.16599E+04        -0.92546E+03         0.00000E+00
    0.00000E+00         0.00000E+00        -0.17827E+04
 
   -0.47625E+04         0.17848E+04         0.00000E+00
    0.17848E+04        -0.10662E+04         0.00000E+00
    0.00000E+00         0.00000E+00        -0.17486E+04
 
   -0.44841E+04         0.19050E+04         0.00000E+00
    0.19050E+04        -0.12144E+04         0.00000E+00
    0.00000E+00         0.00000E+00        -0.17095E+04
 
   -0.41819E+04         0.20201E+04         0.00000E+00
    0.20201E+04        -0.13696E+04         0.00000E+00
    0.00000E+00         0.00000E+00        -0.16654E+04
 
   -0.38560E+04         0.21297E+04         0.00000E+00
    0.21297E+04        -0.15313E+04         0.00000E+00
    0.00000E+00         0.00000E+00        -0.16162E+04
 
   -0.35066E+04         0.22333E+04         0.00000E+00
    0.22333E+04        -0.16991E+04         0.00000E+00
    0.00000E+00         0.00000E+00        -0.15617E+04
 
   -0.31338E+04         0.23304E+04         0.00000E+00
    0.23304E+04        -0.18729E+04         0.00000E+00
    0.00000E+00         0.00000E+00        -0.15020E+04
 
   -0.27375E+04         0.24204E+04         0.00000E+00
    0.24204E+04        -0.20525E+04         0.00000E+00
    0.00000E+00         0.00000E+00        -0.14370E+04
 
   -0.23176E+04         0.25024E+04         0.00000E+00
    0.25024E+04        -0.22378E+04         0.00000E+00
    0.00000E+00         0.00000E+00        -0.13666E+04
 
   -0.18742E+04         0.25753E+04         0.00000E+00
    0.25753E+04        -0.24287E+04         0.00000E+00
    0.00000E+00         0.00000E+00        -0.12909E+04
 
   -0.14072E+04         0.26380E+04         0.00000E+00
    0.26380E+04        -0.26252E+04         0.00000E+00
    0.00000E+00         0.00000E+00        -0.12097E+04
 
   -0.60072E+04         0.36838E+02         0.00000E+00
    0.36838E+02        -0.13884E+01         0.00000E+00
    0.00000E+00         0.00000E+00        -0.18026E+04
 
   -0.60489E+04         0.11908E+03         0.00000E+00
    0.11908E+03        -0.90059E+01         0.00000E+00
    0.00000E+00         0.00000E+00        -0.18174E+04
 
   -0.60735E+04         0.21147E+03         0.00000E+00
    0.21147E+03        -0.25124E+02         0.00000E+00
    0.00000E+00         0.00000E+00        -0.18296E+04
 
   -0.60794E+04         0.31269E+03         0.00000E+00
    0.31269E+03        -0.50495E+02         0.00000E+00
    0.00000E+00         0.00000E+00        -0.18390E+04
 
   -0.60650E+04         0.42142E+03         0.00000E+00
    0.42142E+03        -0.85716E+02         0.00000E+00
    0.00000E+00         0.00000E+00        -0.18452E+04
 
   -0.60292E+04         0.53631E+03         0.00000E+00
    0.53631E+03        -0.13123E+03         0.00000E+00
    0.00000E+00         0.00000E+00        -0.18481E+04
 
   -0.59709E+04         0.65603E+03         0.00000E+00
    0.65603E+03        -0.18731E+03         0.00000E+00
    0.00000E+00         0.00000E+00        -0.18475E+04
 
   -0.58894E+04         0.77926E+03         0.00000E+00
    0.77926E+03        -0.25410E+03         0.00000E+00
    0.00000E+00         0.00000E+00        -0.18431E+04
 
   -0.57841E+04         0.90473E+03         0.00000E+00
    0.90473E+03        -0.33155E+03         0.00000E+00
    0.00000E+00         0.00000E+00        -0.18347E+04
 
   -0.56547E+04         0.10312E+04         0.00000E+00
    0.10312E+04        -0.41949E+03         0.00000E+00
    0.00000E+00         0.00000E+00        -0.18222E+04
 
   -0.55009E+04         0.11576E+04         0.00000E+00
    0.11576E+04        -0.51762E+03         0.00000E+00
    0.00000E+00         0.00000E+00        -0.18056E+04
 
   -0.53228E+04         0.12828E+04         0.00000E+00
    0.12828E+04        -0.62553E+03         0.00000E+00
    0.00000E+00         0.00000E+00        -0.17845E+04
 
   -0.51204E+04         0.14061E+04         0.00000E+00
    0.14061E+04        -0.74273E+03         0.00000E+00
    0.00000E+00         0.00000E+00        -0.17589E+04
 
   -0.48940E+04         0.15265E+04         0.00000E+00
    0.15265E+04        -0.86872E+03         0.00000E+00
    0.00000E+00         0.00000E+00        -0.17288E+04
 
   -0.46437E+04         0.16435E+04         0.00000E+00
    0.16435E+04        -0.10029E+04         0.00000E+00
    0.00000E+00         0.00000E+00        -0.16940E+04
 
   -0.43699E+04         0.17563E+04         0.00000E+00
    0.17563E+04        -0.11449E+04         0.00000E+00
    0.00000E+00         0.00000E+00        -0.16545E+04
 
   -0.40728E+04         0.18646E+04         0.00000E+00
    0.18646E+04        -0.12941E+04         0.00000E+00
    0.00000E+00         0.00000E+00        -0.16101E+04
 
   -0.37525E+04         0.19677E+04         0.00000E+00
    0.19677E+04        -0.14502E+04         0.00000E+00
    0.00000E+00         0.00000E+00        -0.15608E+04
 
   -0.34092E+04         0.20651E+04         0.00000E+00
    0.20651E+04        -0.16128E+04         0.00000E+00
    0.00000E+00         0.00000E+00        -0.15066E+04
 
   -0.30431E+04         0.21562E+04         0.00000E+00
    0.21562E+04        -0.17815E+04         0.00000E+00
    0.00000E+00         0.00000E+00        -0.14474E+04
 
   -0.26543E+04         0.22403E+04         0.00000E+00
    0.22403E+04        -0.19563E+04         0.00000E+00
    0.00000E+00         0.00000E+00        -0.13832E+04
 
   -0.22429E+04         0.23166E+04         0.00000E+00
    0.23166E+04        -0.21369E+04         0.00000E+00
    0.00000E+00         0.00000E+00        -0.13139E+04
 
   -0.18090E+04         0.23840E+04         0.00000E+00
    0.23840E+04        -0.23232E+04         0.00000E+00
    0.00000E+00         0.00000E+00        -0.12396E+04
 
   -0.13529E+04         0.24412E+04         0.00000E+00
    0.24412E+04        -0.25148E+04         0.00000E+00
    0.00000E+00         0.00000E+00        -0.11603E+04
 
   -0.59342E+04         0.33325E+02         0.00000E+00
    0.33325E+02        -0.12741E+01         0.00000E+00
    0.00000E+00         0.00000E+00        -0.17806E+04
 
   -0.59656E+04         0.10781E+03         0.00000E+00
    0.10781E+03        -0.82957E+01         0.00000E+00
    0.00000E+00         0.00000E+00        -0.17922E+04
 
   -0.59811E+04         0.19160E+03         0.00000E+00
    0.19160E+03        -0.23210E+02         0.00000E+00
    0.00000E+00         0.00000E+00        -0.18013E+04
 
   -0.59790E+04         0.28356E+03         0.00000E+00
    0.28356E+03        -0.46762E+02         0.00000E+00
    0.00000E+00         0.00000E+00        -0.18077E+04
 
   -0.59581E+04         0.38251E+03         0.00000E+00
    0.38251E+03        -0.79547E+02         0.00000E+00
    0.00000E+00         0.00000E+00        -0.18113E+04
 
   -0.59169E+04         0.48725E+03         0.00000E+00
    0.48725E+03        -0.12201E+03         0.00000E+00
    0.00000E+00         0.00000E+00        -0.18117E+04
 
   -0.58545E+04         0.59660E+03         0.00000E+00
    0.59660E+03        -0.17446E+03         0.00000E+00
    0.00000E+00         0.00000E+00        -0.18087E+04
 
   -0.57702E+04         0.70940E+03         0.00000E+00
    0.70940E+03        -0.23707E+03         0.00000E+00
    0.00000E+00         0.00000E+00        -0.18022E+04
 
   -0.56632E+04         0.82449E+03         0.00000E+00
    0.82449E+03        -0.30984E+03         0.00000E+00
    0.00000E+00         0.00000E+00        -0.17919E+04
 
   -0.55331E+04         0.94081E+03         0.00000E+00
    0.94081E+03        -0.39269E+03         0.00000E+00
    0.00000E+00         0.00000E+00        -0.17777E+04
 
   -0.53798E+04         0.10573E+04         0.00000E+00
    0.10573E+04        -0.48540E+03         0.00000E+00
    0.00000E+00         0.00000E+00        -0.17596E+04
 
   -0.52030E+04         0.11731E+04         0.00000E+00
    0.11731E+04        -0.58767E+03         0.00000E+00
    0.00000E+00         0.00000E+00        -0.17372E+04
 
   -0.50029E+04         0.12874E+04         0.00000E+00
    0.12874E+04        -0.69912E+03         0.00000E+00
    0.00000E+00         0.00000E+00        -0.17106E+04
 
   -0.47794E+04         0.13993E+04         0.00000E+00
    0.13993E+04        -0.81933E+03         0.00000E+00
    0.00000E+00         0.00000E+00        -0.16796E+04
 
   -0.45327E+04         0.15082E+04         0.00000E+00
    0.15082E+04        -0.94786E+03         0.00000E+00
    0.00000E+00         0.00000E+00        -0.16442E+04
 
   -0.42630E+04         0.16134E+04         0.00000E+00
    0.16134E+04        -0.10843E+04         0.00000E+00
    0.00000E+00         0.00000E+00        -0.16042E+04
 
   -0.39705E+04         0.17145E+04         0.00000E+00
    0.17145E+04        -0.12282E+04         0.00000E+00
    0.00000E+00         0.00000E+00        -0.15596E+04
 
   -0.36555E+04         0.18108E+04         0.00000E+00
    0.18108E+04        -0.13791E+04         0.00000E+00
    0.00000E+00         0.00000E+00        -0.15104E+04
 
   -0.33180E+04         0.19018E+04         0.00000E+00
    0.19018E+04        -0.15368E+04         0.00000E+00
    0.00000E+00         0.00000E+00        -0.14565E+04
 
   -0.29585E+04         0.19867E+04         0.00000E+00
    0.19867E+04        -0.17009E+04         0.00000E+00
    0.00000E+00         0.00000E+00        -0.13978E+04
 
   -0.25769E+04         0.20649E+04         0.00000E+00
    0.20649E+04        -0.18712E+04         0.00000E+00
    0.00000E+00         0.00000E+00        -0.13344E+04
 
   -0.21737E+04         0.21354E+04         0.00000E+00
    0.21354E+04        -0.20473E+04         0.00000E+00
    0.00000E+00         0.00000E+00        -0.12663E+04
 
   -0.17492E+04         0.21973E+04         0.00000E+00
    0.21973E+04        -0.22290E+04         0.00000E+00
    0.00000E+00         0.00000E+00        -0.11934E+04
 
   -0.13038E+04         0.22494E+04         0.00000E+00
    0.22494E+04        -0.24159E+04         0.00000E+00
    0.00000E+00         0.00000E+00        -0.11159E+04
 
   -0.58682E+04         0.30084E+02         0.00000E+00
    0.30084E+02        -0.11770E+01         0.00000E+00
    0.00000E+00         0.00000E+00        -0.17608E+04
 
   -0.58901E+04         0.97362E+02         0.00000E+00
    0.97362E+02        -0.76879E+01         0.00000E+00
    0.00000E+00         0.00000E+00        -0.17693E+04
 
   -0.58973E+04         0.17314E+03         0.00000E+00
    0.17314E+03        -0.21564E+02         0.00000E+00
    0.00000E+00         0.00000E+00        -0.17756E+04
 
   -0.58880E+04         0.25642E+03         0.00000E+00
    0.25642E+03        -0.43540E+02         0.00000E+00
    0.00000E+00         0.00000E+00        -0.17794E+04
 
   -0.58608E+04         0.34616E+03         0.00000E+00
    0.34616E+03        -0.74211E+02         0.00000E+00
    0.00000E+00         0.00000E+00        -0.17805E+04
 
   -0.58146E+04         0.44131E+03         0.00000E+00
    0.44131E+03        -0.11403E+03         0.00000E+00
    0.00000E+00         0.00000E+00        -0.17786E+04
 
   -0.57483E+04         0.54083E+03         0.00000E+00
    0.54083E+03        -0.16334E+03         0.00000E+00
    0.00000E+00         0.00000E+00        -0.17735E+04
 
   -0.56611E+04         0.64366E+03         0.00000E+00
    0.64366E+03        -0.22232E+03         0.00000E+00
    0.00000E+00         0.00000E+00        -0.17650E+04
 
   -0.55523E+04         0.74882E+03         0.00000E+00
    0.74882E+03        -0.29105E+03         0.00000E+00
    0.00000E+00         0.00000E+00        -0.17530E+04
 
   -0.54215E+04         0.85531E+03         0.00000E+00
    0.85531E+03        -0.36949E+03         0.00000E+00
    0.00000E+00         0.00000E+00        -0.17373E+04
 
   -0.52683E+04         0.96224E+03         0.00000E+00
    0.96224E+03        -0.45752E+03         0.00000E+00
    0.00000E+00         0.00000E+00        -0.17177E+04
 
   -0.50925E+04         0.10687E+04         0.00000E+00
    0.10687E+04        -0.55489E+03         0.00000E+00
    0.00000E+00         0.00000E+00        -0.16942E+04
 
   -0.48941E+04         0.11740E+04         0.00000E+00
    0.11740E+04        -0.66133E+03         0.00000E+00
    0.00000E+00         0.00000E+00        -0.16666E+04
 
   -0.46730E+04         0.12774E+04         0.00000E+00
    0.12774E+04        -0.77650E+03         0.00000E+00
    0.00000E+00         0.00000E+00        -0.16349E+04
 
   -0.44295E+04         0.13781E+04         0.00000E+00
    0.13781E+04        -0.90002E+03         0.00000E+00
    0.00000E+00         0.00000E+00        -0.15988E+04
 
   -0.41635E+04         0.14757E+04         0.00000E+00
    0.14757E+04        -0.10315E+04         0.00000E+00
    0.00000E+00         0.00000E+00        -0.15585E+04
 
   -0.38753E+04         0.15694E+04         0.00000E+00
    0.15694E+04        -0.11706E+04         0.00000E+00
    0.00000E+00         0.00000E+00        -0.15138E+04
 
   -0.35652E+04         0.16587E+04         0.00000E+00
    0.16587E+04        -0.13170E+04         0.00000E+00
    0.00000E+00         0.00000E+00        -0.14646E+04
 
   -0.32333E+04         0.17430E+04         0.00000E+00
    0.17430E+04        -0.14702E+04         0.00000E+00
    0.00000E+00         0.00000E+00        -0.14110E+04
 
   -0.28799E+04         0.18216E+04         0.00000E+00
    0.18216E+04        -0.16300E+04         0.00000E+00
    0.00000E+00         0.00000E+00        -0.13530E+04
 
   -0.25054E+04         0.18938E+04         0.00000E+00
    0.18938E+04        -0.17960E+04         0.00000E+00
    0.00000E+00         0.00000E+00        -0.12904E+04
 
   -0.21101E+04         0.19586E+04         0.00000E+00
    0.19586E+04        -0.19679E+04         0.00000E+00
    0.00000E+00         0.00000E+00        -0.12234E+04
 
   -0.16946E+04         0.20152E+04         0.00000E+00
    0.20152E+04        -0.21452E+04         0.00000E+00
    0.00000E+00         0.00000E+00        -0.11520E+04
 
   -0.12595E+04         0.20623E+04         0.00000E+00
    0.20623E+04        -0.23276E+04         0.00000E+00
    0.00000E+00         0.00000E+00        -0.10761E+04
 
   -0.58087E+04         0.27075E+02         0.00000E+00
    0.27075E+02        -0.10957E+01         0.00000E+00
    0.00000E+00         0.00000E+00        -0.17429E+04
 
   -0.58221E+04         0.87630E+02         0.00000E+00
    0.87630E+02        -0.71752E+01         0.00000E+00
    0.00000E+00         0.00000E+00        -0.17488E+04
 
   -0.58216E+04         0.15589E+03         0.00000E+00
    0.15589E+03        -0.20167E+02         0.00000E+00
    0.00000E+00         0.00000E+00        -0.17525E+04
 
   -0.58056E+04         0.23099E+03         0.00000E+00
    0.23099E+03        -0.40793E+02         0.00000E+00
    0.00000E+00         0.00000E+00        -0.17539E+04
 
   -0.57727E+04         0.31202E+03         0.00000E+00
    0.31202E+03        -0.69646E+02         0.00000E+00
    0.00000E+00         0.00000E+00        -0.17527E+04
 
   -0.57218E+04         0.39806E+03         0.00000E+00
    0.39806E+03        -0.10719E+03         0.00000E+00
    0.00000E+00         0.00000E+00        -0.17487E+04
 
   -0.56518E+04         0.48820E+03         0.00000E+00
    0.48820E+03        -0.15378E+03         0.00000E+00
    0.00000E+00         0.00000E+00        -0.17417E+04
 
   -0.55618E+04         0.58150E+03         0.00000E+00
    0.58150E+03        -0.20964E+03         0.00000E+00
    0.00000E+00         0.00000E+00        -0.17314E+04
 
   -0.54512E+04         0.67708E+03         0.00000E+00
    0.67708E+03        -0.27489E+03         0.00000E+00
    0.00000E+00         0.00000E+00        -0.17178E+04
 
   -0.53194E+04         0.77406E+03         0.00000E+00
    0.77406E+03        -0.34953E+03         0.00000E+00
    0.00000E+00         0.00000E+00        -0.17007E+04
 
   -0.51661E+04         0.87162E+03         0.00000E+00
    0.87162E+03        -0.43351E+03         0.00000E+00
    0.00000E+00         0.00000E+00        -0.16799E+04
 
   -0.49910E+04         0.96898E+03         0.00000E+00
    0.96898E+03        -0.52665E+03         0.00000E+00
    0.00000E+00         0.00000E+00        -0.16553E+04
 
   -0.47940E+04         0.10654E+04         0.00000E+00
    0.10654E+04        -0.62874E+03         0.00000E+00
    0.00000E+00         0.00000E+00        -0.16268E+04
 
   -0.45751E+04         0.11602E+04         0.00000E+00
    0.11602E+04        -0.73950E+03         0.00000E+00
    0.00000E+00         0.00000E+00        -0.15944E+04
 
   -0.43343E+04         0.12528E+04         0.00000E+00
    0.12528E+04        -0.85863E+03         0.00000E+00
    0.00000E+00         0.00000E+00        -0.15579E+04
 
   -0.40716E+04         0.13425E+04         0.00000E+00
    0.13425E+04        -0.98580E+03         0.00000E+00
    0.00000E+00         0.00000E+00        -0.15172E+04
 
   -0.37874E+04         0.14288E+04         0.00000E+00
    0.14288E+04        -0.11207E+04         0.00000E+00
    0.00000E+00         0.00000E+00        -0.14724E+04
 
   -0.34818E+04         0.15110E+04         0.00000E+00
    0.15110E+04        -0.12628E+04         0.00000E+00
    0.00000E+00         0.00000E+00        -0.14234E+04
 
   -0.31550E+04         0.15885E+04         0.00000E+00
    0.15885E+04        -0.14120E+04         0.00000E+00
    0.00000E+00         0.00000E+00        -0.13701E+04
 
   -0.28075E+04         0.16607E+04         0.00000E+00
    0.16607E+04        -0.15678E+04         0.00000E+00
    0.00000E+00         0.00000E+00        -0.13126E+04
 
   -0.24397E+04         0.17268E+04         0.00000E+00
    0.17268E+04        -0.17299E+04         0.00000E+00
    0.00000E+00         0.00000E+00        -0.12509E+04
 
   -0.20520E+04         0.17860E+04         0.00000E+00
    0.17860E+04        -0.18977E+04         0.00000E+00
    0.00000E+00         0.00000E+00        -0.11849E+04
 
   -0.16451E+04         0.18373E+04         0.00000E+00
    0.18373E+04        -0.20710E+04         0.00000E+00
    0.00000E+00         0.00000E+00        -0.11148E+04
 
   -0.12198E+04         0.18798E+04         0.00000E+00
    0.18798E+04        -0.22491E+04         0.00000E+00
    0.00000E+00         0.00000E+00        -0.10407E+04
 
   -0.57553E+04         0.24257E+02         0.00000E+00
    0.24257E+02        -0.10286E+01         0.00000E+00
    0.00000E+00         0.00000E+00        -0.17269E+04
 
   -0.57609E+04         0.78499E+02         0.00000E+00
    0.78499E+02        -0.67481E+01         0.00000E+00
    0.00000E+00         0.00000E+00        -0.17303E+04
 
   -0.57535E+04         0.13967E+03         0.00000E+00
    0.13967E+03        -0.18995E+02         0.00000E+00
    0.00000E+00         0.00000E+00        -0.17318E+04
 
   -0.57314E+04         0.20702E+03         0.00000E+00
    0.20702E+03        -0.38476E+02         0.00000E+00
    0.00000E+00         0.00000E+00        -0.17310E+04
 
   -0.56933E+04         0.27977E+03         0.00000E+00
    0.27977E+03        -0.65782E+02         0.00000E+00
    0.00000E+00         0.00000E+00        -0.17277E+04
 
   -0.56380E+04         0.35713E+03         0.00000E+00
    0.35713E+03        -0.10139E+03         0.00000E+00
    0.00000E+00         0.00000E+00        -0.17218E+04
 
   -0.55645E+04         0.43828E+03         0.00000E+00
    0.43828E+03        -0.14565E+03         0.00000E+00
    0.00000E+00         0.00000E+00        -0.17130E+04
 
   -0.54719E+04         0.52241E+03         0.00000E+00
    0.52241E+03        -0.19884E+03         0.00000E+00
    0.00000E+00         0.00000E+00        -0.17012E+04
 
   -0.53594E+04         0.60873E+03         0.00000E+00
    0.60873E+03        -0.26109E+03         0.00000E+00
    0.00000E+00         0.00000E+00        -0.16862E+04
 
   -0.52267E+04         0.69646E+03         0.00000E+00
    0.69646E+03        -0.33247E+03         0.00000E+00
    0.00000E+00         0.00000E+00        -0.16677E+04
 
   -0.50731E+04         0.78486E+03         0.00000E+00
    0.78486E+03        -0.41296E+03         0.00000E+00
    0.00000E+00         0.00000E+00        -0.16458E+04
 
   -0.48985E+04         0.87322E+03         0.00000E+00
    0.87322E+03        -0.50245E+03         0.00000E+00
    0.00000E+00         0.00000E+00        -0.16203E+04
 
   -0.47027E+04         0.96088E+03         0.00000E+00
    0.96088E+03        -0.60077E+03         0.00000E+00
    0.00000E+00         0.00000E+00        -0.15910E+04
 
   -0.44855E+04         0.10472E+04         0.00000E+00
    0.10472E+04        -0.70770E+03         0.00000E+00
    0.00000E+00         0.00000E+00        -0.15580E+04
 
   -0.42471E+04         0.11316E+04         0.00000E+00
    0.11316E+04        -0.82299E+03         0.00000E+00
    0.00000E+00         0.00000E+00        -0.15210E+04
 
   -0.39874E+04         0.12134E+04         0.00000E+00
    0.12134E+04        -0.94633E+03         0.00000E+00
    0.00000E+00         0.00000E+00        -0.14801E+04
 
   -0.37068E+04         0.12921E+04         0.00000E+00
    0.12921E+04        -0.10774E+04         0.00000E+00
    0.00000E+00         0.00000E+00        -0.14352E+04
 
   -0.34053E+04         0.13671E+04         0.00000E+00
    0.13671E+04        -0.12159E+04         0.00000E+00
    0.00000E+00         0.00000E+00        -0.13864E+04
 
   -0.30834E+04         0.14378E+04         0.00000E+00
    0.14378E+04        -0.13614E+04         0.00000E+00
    0.00000E+00         0.00000E+00        -0.13334E+04
 
   -0.27414E+04         0.15035E+04         0.00000E+00
    0.15035E+04        -0.15135E+04         0.00000E+00
    0.00000E+00         0.00000E+00        -0.12765E+04
 
   -0.23799E+04         0.15636E+04         0.00000E+00
    0.15636E+04        -0.16719E+04         0.00000E+00
    0.00000E+00         0.00000E+00        -0.12155E+04
 
   -0.19993E+04         0.16172E+04         0.00000E+00
    0.16172E+04        -0.18361E+04         0.00000E+00
    0.00000E+00         0.00000E+00        -0.11506E+04
 
   -0.16005E+04         0.16635E+04         0.00000E+00
    0.16635E+04        -0.20055E+04         0.00000E+00
    0.00000E+00         0.00000E+00        -0.10818E+04
 
   -0.11843E+04         0.17015E+04         0.00000E+00
    0.17015E+04        -0.21797E+04         0.00000E+00
    0.00000E+00         0.00000E+00        -0.10092E+04
 
   -0.57075E+04         0.21598E+02         0.00000E+00
    0.21598E+02        -0.97392E+00         0.00000E+00
    0.00000E+00         0.00000E+00        -0.17126E+04
 
   -0.57064E+04         0.69868E+02         0.00000E+00
    0.69868E+02        -0.63969E+01         0.00000E+00
    0.00000E+00         0.00000E+00        -0.17138E+04
 
   -0.56927E+04         0.12430E+03         0.00000E+00
    0.12430E+03        -0.18023E+02         0.00000E+00
    0.00000E+00         0.00000E+00        -0.17132E+04
 
   -0.56651E+04         0.18428E+03         0.00000E+00
    0.18428E+03        -0.36544E+02         0.00000E+00
    0.00000E+00         0.00000E+00        -0.17105E+04
 
   -0.56223E+04         0.24914E+03         0.00000E+00
    0.24914E+03        -0.62543E+02         0.00000E+00
    0.00000E+00         0.00000E+00        -0.17054E+04
 
   -0.55630E+04         0.31817E+03         0.00000E+00
    0.31817E+03        -0.96501E+02         0.00000E+00
    0.00000E+00         0.00000E+00        -0.16978E+04
 
   -0.54862E+04         0.39067E+03         0.00000E+00
    0.39067E+03        -0.13879E+03         0.00000E+00
    0.00000E+00         0.00000E+00        -0.16875E+04
 
   -0.53910E+04         0.46594E+03         0.00000E+00
    0.46594E+03        -0.18970E+03         0.00000E+00
    0.00000E+00         0.00000E+00        -0.16742E+04
 
   -0.52768E+04         0.54328E+03         0.00000E+00
    0.54328E+03        -0.24940E+03         0.00000E+00
    0.00000E+00         0.00000E+00        -0.16579E+04
 
   -0.51430E+04         0.62199E+03         0.00000E+00
    0.62199E+03        -0.31799E+03         0.00000E+00
    0.00000E+00         0.00000E+00        -0.16383E+04
 
   -0.49891E+04         0.70141E+03         0.00000E+00
    0.70141E+03        -0.39549E+03         0.00000E+00
    0.00000E+00         0.00000E+00        -0.16154E+04
 
   -0.48148E+04         0.78092E+03         0.00000E+00
    0.78092E+03        -0.48184E+03         0.00000E+00
    0.00000E+00         0.00000E+00        -0.15890E+04
 
   -0.46199E+04         0.85989E+03         0.00000E+00
    0.85989E+03        -0.57691E+03         0.00000E+00
    0.00000E+00         0.00000E+00        -0.15590E+04
 
   -0.44043E+04         0.93774E+03         0.00000E+00
    0.93774E+03        -0.68052E+03         0.00000E+00
    0.00000E+00         0.00000E+00        -0.15254E+04
 
   -0.41679E+04         0.10139E+04         0.00000E+00
    0.10139E+04        -0.79245E+03         0.00000E+00
    0.00000E+00         0.00000E+00        -0.14881E+04
 
   -0.39110E+04         0.10878E+04         0.00000E+00
    0.10878E+04        -0.91244E+03         0.00000E+00
    0.00000E+00         0.00000E+00        -0.14470E+04
 
   -0.36335E+04         0.11590E+04         0.00000E+00
    0.11590E+04        -0.10402E+04         0.00000E+00
    0.00000E+00         0.00000E+00        -0.14021E+04
 
   -0.33359E+04         0.12267E+04         0.00000E+00
    0.12267E+04        -0.11753E+04         0.00000E+00
    0.00000E+00         0.00000E+00        -0.13534E+04
 
   -0.30184E+04         0.12906E+04         0.00000E+00
    0.12906E+04        -0.13175E+04         0.00000E+00
    0.00000E+00         0.00000E+00        -0.13008E+04
 
   -0.26816E+04         0.13499E+04         0.00000E+00
    0.13499E+04        -0.14664E+04         0.00000E+00
    0.00000E+00         0.00000E+00        -0.12444E+04
 
   -0.23258E+04         0.14039E+04         0.00000E+00
    0.14039E+04        -0.16214E+04         0.00000E+00
    0.00000E+00         0.00000E+00        -0.11842E+04
 
   -0.19519E+04         0.14520E+04         0.00000E+00
    0.14520E+04        -0.17822E+04         0.00000E+00
    0.00000E+00         0.00000E+00        -0.11202E+04
 
   -0.15606E+04         0.14934E+04         0.00000E+00
    0.14934E+04        -0.19481E+04         0.00000E+00
    0.00000E+00         0.00000E+00        -0.10526E+04
 
   -0.11528E+04         0.15271E+04         0.00000E+00
    0.15271E+04        -0.21186E+04         0.00000E+00
    0.00000E+00         0.00000E+00        -0.98142E+03
 
   -0.56652E+04         0.19066E+02         0.00000E+00
    0.19066E+02        -0.93000E+00         0.00000E+00
    0.00000E+00         0.00000E+00        -0.16998E+04
 
   -0.56580E+04         0.61647E+02         0.00000E+00
    0.61647E+02        -0.61117E+01         0.00000E+00
    0.00000E+00         0.00000E+00        -0.16992E+04
 
   -0.56388E+04         0.10966E+03         0.00000E+00
    0.10966E+03        -0.17227E+02         0.00000E+00
    0.00000E+00         0.00000E+00        -0.16968E+04
 
   -0.56063E+04         0.16259E+03         0.00000E+00
    0.16259E+03        -0.34950E+02         0.00000E+00
    0.00000E+00         0.00000E+00        -0.16924E+04
 
   -0.55592E+04         0.21985E+03         0.00000E+00
    0.21985E+03        -0.59857E+02         0.00000E+00
    0.00000E+00         0.00000E+00        -0.16857E+04
 
   -0.54962E+04         0.28087E+03         0.00000E+00
    0.28087E+03        -0.92431E+02         0.00000E+00
    0.00000E+00         0.00000E+00        -0.16766E+04
 
   -0.54164E+04         0.34503E+03         0.00000E+00
    0.34503E+03        -0.13306E+03         0.00000E+00
    0.00000E+00         0.00000E+00        -0.16649E+04
 
   -0.53190E+04         0.41171E+03         0.00000E+00
    0.41171E+03        -0.18204E+03         0.00000E+00
    0.00000E+00         0.00000E+00        -0.16503E+04
 
   -0.52031E+04         0.48029E+03         0.00000E+00
    0.48029E+03        -0.23957E+03         0.00000E+00
    0.00000E+00         0.00000E+00        -0.16328E+04
 
   -0.50683E+04         0.55019E+03         0.00000E+00
    0.55019E+03        -0.30579E+03         0.00000E+00
    0.00000E+00         0.00000E+00        -0.16122E+04
 
   -0.49140E+04         0.62081E+03         0.00000E+00
    0.62081E+03        -0.38075E+03         0.00000E+00
    0.00000E+00         0.00000E+00        -0.15884E+04
 
   -0.47398E+04         0.69158E+03         0.00000E+00
    0.69158E+03        -0.46441E+03         0.00000E+00
    0.00000E+00         0.00000E+00        -0.15613E+04
 
   -0.45457E+04         0.76195E+03         0.00000E+00
    0.76195E+03        -0.55669E+03         0.00000E+00
    0.00000E+00         0.00000E+00        -0.15307E+04
 
   -0.43313E+04         0.83139E+03         0.00000E+00
    0.83139E+03        -0.65744E+03         0.00000E+00
    0.00000E+00         0.00000E+00        -0.14966E+04
 
   -0.40968E+04         0.89938E+03         0.00000E+00
    0.89938E+03        -0.76647E+03         0.00000E+00
    0.00000E+00         0.00000E+00        -0.14590E+04
 
   -0.38422E+04         0.96540E+03         0.00000E+00
    0.96540E+03        -0.88352E+03         0.00000E+00
    0.00000E+00         0.00000E+00        -0.14177E+04
 
   -0.35677E+04         0.10289E+04         0.00000E+00
    0.10289E+04        -0.10083E+04         0.00000E+00
    0.00000E+00         0.00000E+00        -0.13728E+04
 
   -0.32736E+04         0.10895E+04         0.00000E+00
    0.10895E+04        -0.11405E+04         0.00000E+00
    0.00000E+00         0.00000E+00        -0.13242E+04
 
   -0.29601E+04         0.11465E+04         0.00000E+00
    0.11465E+04        -0.12798E+04         0.00000E+00
    0.00000E+00         0.00000E+00        -0.12720E+04
 
   -0.26279E+04         0.11993E+04         0.00000E+00
    0.11993E+04        -0.14257E+04         0.00000E+00
    0.00000E+00         0.00000E+00        -0.12161E+04
 
   -0.22775E+04         0.12475E+04         0.00000E+00
    0.12475E+04        -0.15777E+04         0.00000E+00
    0.00000E+00         0.00000E+00        -0.11566E+04
 
   -0.19096E+04         0.12902E+04         0.00000E+00
    0.12902E+04        -0.17354E+04         0.00000E+00
    0.00000E+00         0.00000E+00        -0.10935E+04
 
   -0.15251E+04         0.13268E+04         0.00000E+00
    0.13268E+04        -0.18982E+04         0.00000E+00
    0.00000E+00         0.00000E+00        -0.10270E+04
 
   -0.11251E+04         0.13564E+04         0.00000E+00
    0.13564E+04        -0.20653E+04         0.00000E+00
    0.00000E+00         0.00000E+00        -0.95711E+03
 
   -0.56281E+04         0.16637E+02         0.00000E+00
    0.16637E+02        -0.89522E+00         0.00000E+00
    0.00000E+00         0.00000E+00        -0.16887E+04
 
   -0.56156E+04         0.53761E+02         0.00000E+00
    0.53761E+02        -0.58831E+01         0.00000E+00
    0.00000E+00         0.00000E+00        -0.16864E+04
 
   -0.55916E+04         0.95609E+02         0.00000E+00
    0.95609E+02        -0.16583E+02         0.00000E+00
    0.00000E+00         0.00000E+00        -0.16824E+04
 
   -0.55547E+04         0.14175E+03         0.00000E+00
    0.14175E+03        -0.33650E+02         0.00000E+00
    0.00000E+00         0.00000E+00        -0.16765E+04
 
   -0.55037E+04         0.19170E+03         0.00000E+00
    0.19170E+03        -0.57655E+02         0.00000E+00
    0.00000E+00         0.00000E+00        -0.16684E+04
 
   -0.54375E+04         0.24497E+03         0.00000E+00
    0.24497E+03        -0.89078E+02         0.00000E+00
    0.00000E+00         0.00000E+00        -0.16580E+04
 
   -0.53551E+04         0.30103E+03         0.00000E+00
    0.30103E+03        -0.12832E+03         0.00000E+00
    0.00000E+00         0.00000E+00        -0.16450E+04
 
   -0.52555E+04         0.35935E+03         0.00000E+00
    0.35935E+03        -0.17568E+03         0.00000E+00
    0.00000E+00         0.00000E+00        -0.16294E+04
 
   -0.51381E+04         0.41940E+03         0.00000E+00
    0.41940E+03        -0.23140E+03         0.00000E+00
    0.00000E+00         0.00000E+00        -0.16109E+04
 
   -0.50023E+04         0.48067E+03         0.00000E+00
    0.48067E+03        -0.29562E+03         0.00000E+00
    0.00000E+00         0.00000E+00        -0.15894E+04
 
   -0.48475E+04         0.54263E+03         0.00000E+00
    0.54263E+03        -0.36842E+03         0.00000E+00
    0.00000E+00         0.00000E+00        -0.15648E+04
 
   -0.46735E+04         0.60478E+03         0.00000E+00
    0.60478E+03        -0.44980E+03         0.00000E+00
    0.00000E+00         0.00000E+00        -0.15370E+04
 
   -0.44799E+04         0.66664E+03         0.00000E+00
    0.66664E+03        -0.53970E+03         0.00000E+00
    0.00000E+00         0.00000E+00        -0.15059E+04
 
   -0.42667E+04         0.72773E+03         0.00000E+00
    0.72773E+03        -0.63801E+03         0.00000E+00
    0.00000E+00         0.00000E+00        -0.14714E+04
 
   -0.40338E+04         0.78757E+03         0.00000E+00
    0.78757E+03        -0.74454E+03         0.00000E+00
    0.00000E+00         0.00000E+00        -0.14335E+04
 
   -0.37813E+04         0.84571E+03         0.00000E+00
    0.84571E+03        -0.85907E+03         0.00000E+00
    0.00000E+00         0.00000E+00        -0.13921E+04
 
   -0.35093E+04         0.90168E+03         0.00000E+00
    0.90168E+03        -0.98132E+03         0.00000E+00
    0.00000E+00         0.00000E+00        -0.13472E+04
 
   -0.32182E+04         0.95499E+03         0.00000E+00
    0.95499E+03        -0.11110E+04         0.00000E+00
    0.00000E+00         0.00000E+00        -0.12988E+04
 
   -0.29084E+04         0.10052E+04         0.00000E+00
    0.10052E+04        -0.12476E+04         0.00000E+00
    0.00000E+00         0.00000E+00        -0.12468E+04
 
   -0.25804E+04         0.10516E+04         0.00000E+00
    0.10516E+04        -0.13909E+04         0.00000E+00
    0.00000E+00         0.00000E+00        -0.11914E+04
 
   -0.22348E+04         0.10939E+04         0.00000E+00
    0.10939E+04        -0.15403E+04         0.00000E+00
    0.00000E+00         0.00000E+00        -0.11325E+04
 
   -0.18724E+04         0.11313E+04         0.00000E+00
    0.11313E+04        -0.16952E+04         0.00000E+00
    0.00000E+00         0.00000E+00        -0.10703E+04
 
   -0.14941E+04         0.11632E+04         0.00000E+00
    0.11632E+04        -0.18551E+04         0.00000E+00
    0.00000E+00         0.00000E+00        -0.10047E+04
 
   -0.11010E+04         0.11890E+04         0.00000E+00
    0.11890E+04        -0.20191E+04         0.00000E+00
    0.00000E+00         0.00000E+00        -0.93604E+03
 
   -0.55959E+04         0.14289E+02         0.00000E+00
    0.14289E+02        -0.86809E+00         0.00000E+00
    0.00000E+00         0.00000E+00        -0.16790E+04
 
   -0.55788E+04         0.46143E+02         0.00000E+00
    0.46143E+02        -0.57024E+01         0.00000E+00
    0.00000E+00         0.00000E+00        -0.16754E+04
 
   -0.55507E+04         0.82036E+02         0.00000E+00
    0.82036E+02        -0.16069E+02         0.00000E+00
    0.00000E+00         0.00000E+00        -0.16700E+04
 
   -0.55100E+04         0.12161E+03         0.00000E+00
    0.12161E+03        -0.32605E+02         0.00000E+00
    0.00000E+00         0.00000E+00        -0.16628E+04
 
   -0.54557E+04         0.16448E+03         0.00000E+00
    0.16448E+03        -0.55871E+02         0.00000E+00
    0.00000E+00         0.00000E+00        -0.16535E+04
 
   -0.53867E+04         0.21023E+03         0.00000E+00
    0.21023E+03        -0.86349E+02         0.00000E+00
    0.00000E+00         0.00000E+00        -0.16419E+04
 
   -0.53019E+04         0.25840E+03         0.00000E+00
    0.25840E+03        -0.12444E+03         0.00000E+00
    0.00000E+00         0.00000E+00        -0.16279E+04
 
   -0.52004E+04         0.30856E+03         0.00000E+00
    0.30856E+03        -0.17047E+03         0.00000E+00
    0.00000E+00         0.00000E+00        -0.16113E+04
 
   -0.50816E+04         0.36026E+03         0.00000E+00
    0.36026E+03        -0.22467E+03         0.00000E+00
    0.00000E+00         0.00000E+00        -0.15919E+04
 
   -0.49449E+04         0.41305E+03         0.00000E+00
    0.41305E+03        -0.28723E+03         0.00000E+00
    0.00000E+00         0.00000E+00        -0.15696E+04
 
   -0.47897E+04         0.46648E+03         0.00000E+00
    0.46648E+03        -0.35822E+03         0.00000E+00
    0.00000E+00         0.00000E+00        -0.15444E+04
 
   -0.46157E+04         0.52012E+03         0.00000E+00
    0.52012E+03        -0.43769E+03         0.00000E+00
    0.00000E+00         0.00000E+00        -0.15160E+04
 
   -0.44226E+04         0.57355E+03         0.00000E+00
    0.57355E+03        -0.52560E+03         0.00000E+00
    0.00000E+00         0.00000E+00        -0.14845E+04
 
   -0.42103E+04         0.62634E+03         0.00000E+00
    0.62634E+03        -0.62183E+03         0.00000E+00
    0.00000E+00         0.00000E+00        -0.14496E+04
 
   -0.39787E+04         0.67809E+03         0.00000E+00
    0.67809E+03        -0.72625E+03         0.00000E+00
    0.00000E+00         0.00000E+00        -0.14115E+04
 
   -0.37280E+04         0.72838E+03         0.00000E+00
    0.72838E+03        -0.83862E+03         0.00000E+00
    0.00000E+00         0.00000E+00        -0.13700E+04
 
   -0.34583E+04         0.77679E+03         0.00000E+00
    0.77679E+03        -0.95868E+03         0.00000E+00
    0.00000E+00         0.00000E+00        -0.13251E+04
 
   -0.31699E+04         0.82290E+03         0.00000E+00
    0.82290E+03        -0.10861E+04         0.00000E+00
    0.00000E+00         0.00000E+00        -0.12768E+04
 
   -0.28633E+04         0.86626E+03         0.00000E+00
    0.86626E+03        -0.12205E+04         0.00000E+00
    0.00000E+00         0.00000E+00        -0.12252E+04
 
   -0.25390E+04         0.90641E+03         0.00000E+00
    0.90641E+03        -0.13615E+04         0.00000E+00
    0.00000E+00         0.00000E+00        -0.11702E+04
 
   -0.21976E+04         0.94285E+03         0.00000E+00
    0.94285E+03        -0.15085E+04         0.00000E+00
    0.00000E+00         0.00000E+00        -0.11119E+04
 
   -0.18401E+04         0.97505E+03         0.00000E+00
    0.97505E+03        -0.16610E+04         0.00000E+00
    0.00000E+00         0.00000E+00        -0.10503E+04
 
   -0.14672E+04         0.10025E+04         0.00000E+00
    0.10025E+04        -0.18184E+04         0.00000E+00
    0.00000E+00         0.00000E+00        -0.98568E+03
 
   -0.10803E+04         0.10245E+04         0.00000E+00
    0.10245E+04        -0.19798E+04         0.00000E+00
    0.00000E+00         0.00000E+00        -0.91802E+03
 
   -0.55686E+04         0.12003E+02         0.00000E+00
    0.12003E+02        -0.84729E+00         0.00000E+00
    0.00000E+00         0.00000E+00        -0.16708E+04
 
   -0.55477E+04         0.38738E+02         0.00000E+00
    0.38738E+02        -0.55620E+01         0.00000E+00
    0.00000E+00         0.00000E+00        -0.16660E+04
 
   -0.55159E+04         0.68846E+02         0.00000E+00
    0.68846E+02        -0.15665E+02         0.00000E+00
    0.00000E+00         0.00000E+00        -0.16595E+04
 
   -0.54721E+04         0.10205E+03         0.00000E+00
    0.10205E+03        -0.31777E+02         0.00000E+00
    0.00000E+00         0.00000E+00        -0.16512E+04
 
   -0.54150E+04         0.13802E+03         0.00000E+00
    0.13802E+03        -0.54450E+02         0.00000E+00
    0.00000E+00         0.00000E+00        -0.16408E+04
 
   -0.53434E+04         0.17643E+03         0.00000E+00
    0.17643E+03        -0.84163E+02         0.00000E+00
    0.00000E+00         0.00000E+00        -0.16283E+04
 
   -0.52566E+04         0.21690E+03         0.00000E+00
    0.21690E+03        -0.12132E+03         0.00000E+00
    0.00000E+00         0.00000E+00        -0.16134E+04
 
   -0.51535E+04         0.25907E+03         0.00000E+00
    0.25907E+03        -0.16626E+03         0.00000E+00
    0.00000E+00         0.00000E+00        -0.15959E+04
 
   -0.50335E+04         0.30256E+03         0.00000E+00
    0.30256E+03        -0.21923E+03         0.00000E+00
    0.00000E+00         0.00000E+00        -0.15758E+04
 
   -0.48959E+04         0.34701E+03         0.00000E+00
    0.34701E+03        -0.28041E+03         0.00000E+00
    0.00000E+00         0.00000E+00        -0.15529E+04
 
   -0.47403E+04         0.39202E+03         0.00000E+00
    0.39202E+03        -0.34993E+03         0.00000E+00
    0.00000E+00         0.00000E+00        -0.15271E+04
 
   -0.45663E+04         0.43725E+03         0.00000E+00
    0.43725E+03        -0.42782E+03         0.00000E+00
    0.00000E+00         0.00000E+00        -0.14982E+04
 
   -0.43736E+04         0.48232E+03         0.00000E+00
    0.48232E+03        -0.51406E+03         0.00000E+00
    0.00000E+00         0.00000E+00        -0.14663E+04
 
   -0.41620E+04         0.52688E+03         0.00000E+00
    0.52688E+03        -0.60858E+03         0.00000E+00
    0.00000E+00         0.00000E+00        -0.14312E+04
 
   -0.39316E+04         0.57057E+03         0.00000E+00
    0.57057E+03        -0.71122E+03         0.00000E+00
    0.00000E+00         0.00000E+00        -0.13929E+04
 
   -0.36825E+04         0.61304E+03         0.00000E+00
    0.61304E+03        -0.82178E+03         0.00000E+00
    0.00000E+00         0.00000E+00        -0.13513E+04
 
   -0.34147E+04         0.65393E+03         0.00000E+00
    0.65393E+03        -0.94000E+03         0.00000E+00
    0.00000E+00         0.00000E+00        -0.13064E+04
 
   -0.31286E+04         0.69286E+03         0.00000E+00
    0.69286E+03        -0.10656E+04         0.00000E+00
    0.00000E+00         0.00000E+00        -0.12583E+04
 
   -0.28248E+04         0.72946E+03         0.00000E+00
    0.72946E+03        -0.11981E+04         0.00000E+00
    0.00000E+00         0.00000E+00        -0.12069E+04
 
   -0.25037E+04         0.76333E+03         0.00000E+00
    0.76333E+03        -0.13371E+04         0.00000E+00
    0.00000E+00         0.00000E+00        -0.11522E+04
 
   -0.21660E+04         0.79403E+03         0.00000E+00
    0.79403E+03        -0.14821E+04         0.00000E+00
    0.00000E+00         0.00000E+00        -0.10944E+04
 
   -0.18126E+04         0.82111E+03         0.00000E+00
    0.82111E+03        -0.16325E+04         0.00000E+00
    0.00000E+00         0.00000E+00        -0.10335E+04
 
   -0.14445E+04         0.84410E+03         0.00000E+00
    0.84410E+03        -0.17876E+04         0.00000E+00
    0.00000E+00         0.00000E+00        -0.96964E+03
 
   -0.10628E+04         0.86249E+03         0.00000E+00
    0.86249E+03        -0.19468E+04         0.00000E+00
    0.00000E+00         0.00000E+00        -0.90288E+03
 
   -0.55460E+04         0.97648E+01         0.00000E+00
    0.97648E+01        -0.83169E+00         0.00000E+00
    0.00000E+00         0.00000E+00        -0.16640E+04
 
   -0.55219E+04         0.31496E+02         0.00000E+00
    0.31496E+02        -0.54552E+01         0.00000E+00
    0.00000E+00         0.00000E+00        -0.16582E+04
 
   -0.54872E+04         0.55959E+02         0.00000E+00
    0.55959E+02        -0.15355E+02         0.00000E+00
    0.00000E+00         0.00000E+00        -0.16508E+04
 
   -0.54407E+04         0.82932E+02         0.00000E+00
    0.82932E+02        -0.31136E+02         0.00000E+00
    0.00000E+00         0.00000E+00        -0.16416E+04
 
   -0.53812E+04         0.11217E+03         0.00000E+00
    0.11217E+03        -0.53342E+02         0.00000E+00
    0.00000E+00         0.00000E+00        -0.16304E+04
 
   -0.53077E+04         0.14339E+03         0.00000E+00
    0.14339E+03        -0.82450E+02         0.00000E+00
    0.00000E+00         0.00000E+00        -0.16170E+04
 
   -0.52191E+04         0.17631E+03         0.00000E+00
    0.17631E+03        -0.11887E+03         0.00000E+00
    0.00000E+00         0.00000E+00        -0.16014E+04
 
   -0.51146E+04         0.21063E+03         0.00000E+00
    0.21063E+03        -0.16293E+03         0.00000E+00
    0.00000E+00         0.00000E+00        -0.15833E+04
 
   -0.49936E+04         0.24604E+03         0.00000E+00
    0.24604E+03        -0.21491E+03         0.00000E+00
    0.00000E+00         0.00000E+00        -0.15625E+04
 
   -0.48553E+04         0.28225E+03         0.00000E+00
    0.28225E+03        -0.27500E+03         0.00000E+00
    0.00000E+00         0.00000E+00        -0.15391E+04
 
   -0.46993E+04         0.31895E+03         0.00000E+00
    0.31895E+03        -0.34332E+03         0.00000E+00
    0.00000E+00         0.00000E+00        -0.15128E+04
 
   -0.45253E+04         0.35584E+03         0.00000E+00
    0.35584E+03        -0.41994E+03         0.00000E+00
    0.00000E+00         0.00000E+00        -0.14836E+04
 
   -0.43329E+04         0.39262E+03         0.00000E+00
    0.39262E+03        -0.50484E+03         0.00000E+00
    0.00000E+00         0.00000E+00        -0.14513E+04
 
   -0.41219E+04         0.42899E+03         0.00000E+00
    0.42899E+03        -0.59796E+03         0.00000E+00
    0.00000E+00         0.00000E+00        -0.14160E+04
 
   -0.38925E+04         0.46467E+03         0.00000E+00
    0.46467E+03        -0.69915E+03         0.00000E+00
    0.00000E+00         0.00000E+00        -0.13775E+04
 
   -0.36446E+04         0.49936E+03         0.00000E+00
    0.49936E+03        -0.80824E+03         0.00000E+00
    0.00000E+00         0.00000E+00        -0.13358E+04
 
   -0.33784E+04         0.53276E+03         0.00000E+00
    0.53276E+03        -0.92494E+03         0.00000E+00
    0.00000E+00         0.00000E+00        -0.12910E+04
 
   -0.30943E+04         0.56456E+03         0.00000E+00
    0.56456E+03        -0.10490E+04         0.00000E+00
    0.00000E+00         0.00000E+00        -0.12430E+04
 
   -0.27927E+04         0.59444E+03         0.00000E+00
    0.59444E+03        -0.11799E+04         0.00000E+00
    0.00000E+00         0.00000E+00        -0.11918E+04
 
   -0.24743E+04         0.62206E+03         0.00000E+00
    0.62206E+03        -0.13173E+04         0.00000E+00
    0.00000E+00         0.00000E+00        -0.11375E+04
 
   -0.21397E+04         0.64709E+03         0.00000E+00
    0.64709E+03        -0.14606E+04         0.00000E+00
    0.00000E+00         0.00000E+00        -0.10801E+04
 
   -0.17898E+04         0.66914E+03         0.00000E+00
    0.66914E+03        -0.16093E+04         0.00000E+00
    0.00000E+00         0.00000E+00        -0.10197E+04
 
   -0.14257E+04         0.68781E+03         0.00000E+00
    0.68781E+03        -0.17626E+04         0.00000E+00
    0.00000E+00         0.00000E+00        -0.95648E+03
 
   -0.10485E+04         0.70269E+03         0.00000E+00
    0.70269E+03        -0.19197E+04         0.00000E+00
    0.00000E+00         0.00000E+00        -0.89048E+03
 
   -0.55280E+04         0.75622E+01         0.00000E+00
    0.75622E+01        -0.82035E+00         0.00000E+00
    0.00000E+00         0.00000E+00        -0.16586E+04
 
   -0.55014E+04         0.24380E+02         0.00000E+00
    0.24380E+02        -0.53764E+01         0.00000E+00
    0.00000E+00         0.00000E+00        -0.16520E+04
 
   -0.54644E+04         0.43302E+02         0.00000E+00
    0.43302E+02        -0.15124E+02         0.00000E+00
    0.00000E+00         0.00000E+00        -0.16439E+04
 
   -0.54158E+04         0.64165E+02         0.00000E+00
    0.64165E+02        -0.30654E+02         0.00000E+00
    0.00000E+00         0.00000E+00        -0.16339E+04
 
   -0.53544E+04         0.86780E+02         0.00000E+00
    0.86780E+02        -0.52505E+02         0.00000E+00
    0.00000E+00         0.00000E+00        -0.16221E+04
 
   -0.52792E+04         0.11094E+03         0.00000E+00
    0.11094E+03        -0.81150E+02         0.00000E+00
    0.00000E+00         0.00000E+00        -0.16081E+04
 
   -0.51892E+04         0.13642E+03         0.00000E+00
    0.13642E+03        -0.11700E+03         0.00000E+00
    0.00000E+00         0.00000E+00        -0.15919E+04
 
   -0.50837E+04         0.16300E+03         0.00000E+00
    0.16300E+03        -0.16039E+03         0.00000E+00
    0.00000E+00         0.00000E+00        -0.15732E+04
 
   -0.49618E+04         0.19044E+03         0.00000E+00
    0.19044E+03        -0.21161E+03         0.00000E+00
    0.00000E+00         0.00000E+00        -0.15520E+04
 
   -0.48229E+04         0.21851E+03         0.00000E+00
    0.21851E+03        -0.27084E+03         0.00000E+00
    0.00000E+00         0.00000E+00        -0.15281E+04
 
   -0.46666E+04         0.24697E+03         0.00000E+00
    0.24697E+03        -0.33824E+03         0.00000E+00
    0.00000E+00         0.00000E+00        -0.15015E+04
 
   -0.44925E+04         0.27559E+03         0.00000E+00
    0.27559E+03        -0.41386E+03         0.00000E+00
    0.00000E+00         0.00000E+00        -0.14719E+04
 
   -0.43003E+04         0.30414E+03         0.00000E+00
    0.30414E+03        -0.49771E+03         0.00000E+00
    0.00000E+00         0.00000E+00        -0.14394E+04
 
   -0.40899E+04         0.33238E+03         0.00000E+00
    0.33238E+03        -0.58974E+03         0.00000E+00
    0.00000E+00         0.00000E+00        -0.14039E+04
 
   -0.38612E+04         0.36008E+03         0.00000E+00
    0.36008E+03        -0.68980E+03         0.00000E+00
    0.00000E+00         0.00000E+00        -0.13653E+04
 
   -0.36143E+04         0.38702E+03         0.00000E+00
    0.38702E+03        -0.79771E+03         0.00000E+00
    0.00000E+00         0.00000E+00        -0.13236E+04
 
   -0.33494E+04         0.41296E+03         0.00000E+00
    0.41296E+03        -0.91322E+03         0.00000E+00
    0.00000E+00         0.00000E+00        -0.12788E+04
 
   -0.30669E+04         0.43765E+03         0.00000E+00
    0.43765E+03        -0.10360E+04         0.00000E+00
    0.00000E+00         0.00000E+00        -0.12309E+04
 
   -0.27672E+04         0.46085E+03         0.00000E+00
    0.46085E+03        -0.11657E+04         0.00000E+00
    0.00000E+00         0.00000E+00        -0.11799E+04
 
   -0.24509E+04         0.48229E+03         0.00000E+00
    0.48229E+03        -0.13018E+04         0.00000E+00
    0.00000E+00         0.00000E+00        -0.11258E+04
 
   -0.21188E+04         0.50169E+03         0.00000E+00
    0.50169E+03        -0.14437E+04         0.00000E+00
    0.00000E+00         0.00000E+00        -0.10688E+04
 
   -0.17717E+04         0.51876E+03         0.00000E+00
    0.51876E+03        -0.15910E+04         0.00000E+00
    0.00000E+00         0.00000E+00        -0.10088E+04
 
   -0.14108E+04         0.53320E+03         0.00000E+00
    0.53320E+03        -0.17428E+04         0.00000E+00
    0.00000E+00         0.00000E+00        -0.94609E+03
 
   -0.10372E+04         0.54468E+03         0.00000E+00
    0.54468E+03        -0.18985E+04         0.00000E+00
    0.00000E+00         0.00000E+00        -0.88069E+03
 
   -0.55145E+04         0.53850E+01         0.00000E+00
    0.53850E+01        -0.81250E+00         0.00000E+00
    0.00000E+00         0.00000E+00        -0.16546E+04
 
   -0.54861E+04         0.17353E+02         0.00000E+00
    0.17353E+02        -0.53213E+01         0.00000E+00
    0.00000E+00         0.00000E+00        -0.16474E+04
 
   -0.54474E+04         0.30815E+02         0.00000E+00
    0.30815E+02        -0.14960E+02         0.00000E+00
    0.00000E+00         0.00000E+00        -0.16387E+04
 
   -0.53972E+04         0.45656E+02         0.00000E+00
    0.45656E+02        -0.30312E+02         0.00000E+00
    0.00000E+00         0.00000E+00        -0.16282E+04
 
   -0.53344E+04         0.61745E+02         0.00000E+00
    0.61745E+02        -0.51907E+02         0.00000E+00
    0.00000E+00         0.00000E+00        -0.16159E+04
 
   -0.52579E+04         0.78937E+02         0.00000E+00
    0.78937E+02        -0.80217E+02         0.00000E+00
    0.00000E+00         0.00000E+00        -0.16014E+04
 
   -0.51669E+04         0.97076E+02         0.00000E+00
    0.97076E+02        -0.11565E+03         0.00000E+00
    0.00000E+00         0.00000E+00        -0.15848E+04
 
   -0.50605E+04         0.11600E+03         0.00000E+00
    0.11600E+03        -0.15856E+03         0.00000E+00
    0.00000E+00         0.00000E+00        -0.15657E+04
 
   -0.49380E+04         0.13555E+03         0.00000E+00
    0.13555E+03        -0.20921E+03         0.00000E+00
    0.00000E+00         0.00000E+00        -0.15442E+04
 
   -0.47987E+04         0.15554E+03         0.00000E+00
    0.15554E+03        -0.26783E+03         0.00000E+00
    0.00000E+00         0.00000E+00        -0.15200E+04
 
   -0.46422E+04         0.17583E+03         0.00000E+00
    0.17583E+03        -0.33454E+03         0.00000E+00
    0.00000E+00         0.00000E+00        -0.14930E+04
 
   -0.44680E+04         0.19623E+03         0.00000E+00
    0.19623E+03        -0.40943E+03         0.00000E+00
    0.00000E+00         0.00000E+00        -0.14632E+04
 
   -0.42760E+04         0.21659E+03         0.00000E+00
    0.21659E+03        -0.49252E+03         0.00000E+00
    0.00000E+00         0.00000E+00        -0.14306E+04
 
   -0.40659E+04         0.23673E+03         0.00000E+00
    0.23673E+03        -0.58373E+03         0.00000E+00
    0.00000E+00         0.00000E+00        -0.13949E+04
 
   -0.38378E+04         0.25650E+03         0.00000E+00
    0.25650E+03        -0.68295E+03         0.00000E+00
    0.00000E+00         0.00000E+00        -0.13562E+04
 
   -0.35916E+04         0.27572E+03         0.00000E+00
    0.27572E+03        -0.79000E+03         0.00000E+00
    0.00000E+00         0.00000E+00        -0.13145E+04
 
   -0.33277E+04         0.29422E+03         0.00000E+00
    0.29422E+03        -0.90462E+03         0.00000E+00
    0.00000E+00         0.00000E+00        -0.12697E+04
 
   -0.30463E+04         0.31184E+03         0.00000E+00
    0.31184E+03        -0.10265E+04         0.00000E+00
    0.00000E+00         0.00000E+00        -0.12218E+04
 
   -0.27480E+04         0.32838E+03         0.00000E+00
    0.32838E+03        -0.11552E+04         0.00000E+00
    0.00000E+00         0.00000E+00        -0.11710E+04
 
   -0.24334E+04         0.34367E+03         0.00000E+00
    0.34367E+03        -0.12903E+04         0.00000E+00
    0.00000E+00         0.00000E+00        -0.11171E+04
 
   -0.21032E+04         0.35749E+03         0.00000E+00
    0.35749E+03        -0.14313E+04         0.00000E+00
    0.00000E+00         0.00000E+00        -0.10603E+04
 
   -0.17582E+04         0.36965E+03         0.00000E+00
    0.36965E+03        -0.15775E+04         0.00000E+00
    0.00000E+00         0.00000E+00        -0.10007E+04
 
   -0.13997E+04         0.37992E+03         0.00000E+00
    0.37992E+03        -0.17282E+04         0.00000E+00
    0.00000E+00         0.00000E+00        -0.93838E+03
 
   -0.10287E+04         0.38806E+03         0.00000E+00
    0.38806E+03        -0.18827E+04         0.00000E+00
    0.00000E+00         0.00000E+00        -0.87344E+03
 
   -0.55056E+04         0.32246E+01         0.00000E+00
    0.32246E+01        -0.80757E+00         0.00000E+00
    0.00000E+00         0.00000E+00        -0.16519E+04
 
   -0.54759E+04         0.10388E+02         0.00000E+00
    0.10388E+02        -0.52863E+01         0.00000E+00
    0.00000E+00         0.00000E+00        -0.16444E+04
 
   -0.54360E+04         0.18444E+02         0.00000E+00
    0.18444E+02        -0.14856E+02         0.00000E+00
    0.00000E+00         0.00000E+00        -0.16353E+04
 
   -0.53848E+04         0.27325E+02         0.00000E+00
    0.27325E+02        -0.30092E+02         0.00000E+00
    0.00000E+00         0.00000E+00        -0.16245E+04
 
   -0.53210E+04         0.36953E+02         0.00000E+00
    0.36953E+02        -0.51521E+02         0.00000E+00
    0.00000E+00         0.00000E+00        -0.16118E+04
 
   -0.52438E+04         0.47242E+02         0.00000E+00
    0.47242E+02        -0.79614E+02         0.00000E+00
    0.00000E+00         0.00000E+00        -0.15970E+04
 
   -0.51521E+04         0.58100E+02         0.00000E+00
    0.58100E+02        -0.11478E+03         0.00000E+00
    0.00000E+00         0.00000E+00        -0.15801E+04
 
   -0.50451E+04         0.69430E+02         0.00000E+00
    0.69430E+02        -0.15737E+03         0.00000E+00
    0.00000E+00         0.00000E+00        -0.15607E+04
 
   -0.49222E+04         0.81135E+02         0.00000E+00
    0.81135E+02        -0.20766E+03         0.00000E+00
    0.00000E+00         0.00000E+00        -0.15389E+04
 
   -0.47826E+04         0.93114E+02         0.00000E+00
    0.93114E+02        -0.26586E+03         0.00000E+00
    0.00000E+00         0.00000E+00        -0.15145E+04
 
   -0.46259E+04         0.10527E+03         0.00000E+00
    0.10527E+03        -0.33213E+03         0.00000E+00
    0.00000E+00         0.00000E+00        -0.14874E+04
 
   -0.44517E+04         0.11749E+03         0.00000E+00
    0.11749E+03        -0.40655E+03         0.00000E+00
    0.00000E+00         0.00000E+00        -0.14575E+04
 
   -0.42598E+04         0.12969E+03         0.00000E+00
    0.12969E+03        -0.48912E+03         0.00000E+00
    0.00000E+00         0.00000E+00        -0.14247E+04
 
   -0.40499E+04         0.14177E+03         0.00000E+00
    0.14177E+03        -0.57980E+03         0.00000E+00
    0.00000E+00         0.00000E+00        -0.13889E+04
 
   -0.38222E+04         0.15362E+03         0.00000E+00
    0.15362E+03        -0.67847E+03         0.00000E+00
    0.00000E+00         0.00000E+00        -0.13502E+04
 
   -0.35765E+04         0.16514E+03         0.00000E+00
    0.16514E+03        -0.78494E+03         0.00000E+00
    0.00000E+00         0.00000E+00        -0.13084E+04
 
   -0.33132E+04         0.17624E+03         0.00000E+00
    0.17624E+03        -0.89897E+03         0.00000E+00
    0.00000E+00         0.00000E+00        -0.12637E+04
 
   -0.30327E+04         0.18680E+03         0.00000E+00
    0.18680E+03        -0.10202E+04         0.00000E+00
    0.00000E+00         0.00000E+00        -0.12159E+04
 
   -0.27353E+04         0.19671E+03         0.00000E+00
    0.19671E+03        -0.11483E+04         0.00000E+00
    0.00000E+00         0.00000E+00        -0.11651E+04
 
   -0.24217E+04         0.20587E+03         0.00000E+00
    0.20587E+03        -0.12828E+04         0.00000E+00
    0.00000E+00         0.00000E+00        -0.11114E+04
 
   -0.20927E+04         0.21415E+03         0.00000E+00
    0.21415E+03        -0.14231E+04         0.00000E+00
    0.00000E+00         0.00000E+00        -0.10548E+04
 
   -0.17492E+04         0.22143E+03         0.00000E+00
    0.22143E+03        -0.15686E+04         0.00000E+00
    0.00000E+00         0.00000E+00        -0.99536E+03
 
   -0.13923E+04         0.22757E+03         0.00000E+00
    0.22757E+03        -0.17186E+04         0.00000E+00
    0.00000E+00         0.00000E+00        -0.93327E+03
 
   -0.10232E+04         0.23244E+03         0.00000E+00
    0.23244E+03        -0.18723E+04         0.00000E+00
    0.00000E+00         0.00000E+00        -0.86864E+03
 
   -0.55011E+04         0.10738E+01         0.00000E+00
    0.10738E+01        -0.80521E+00         0.00000E+00
    0.00000E+00         0.00000E+00        -0.16506E+04
 
   -0.54708E+04         0.34590E+01         0.00000E+00
    0.34590E+01        -0.52694E+01         0.00000E+00
    0.00000E+00         0.00000E+00        -0.16428E+04
 
   -0.54304E+04         0.61406E+01         0.00000E+00
    0.61406E+01        -0.14805E+02         0.00000E+00
    0.00000E+00         0.00000E+00        -0.16336E+04
 
   -0.53786E+04         0.90968E+01         0.00000E+00
    0.90968E+01        -0.29985E+02         0.00000E+00
    0.00000E+00         0.00000E+00        -0.16226E+04
 
   -0.53144E+04         0.12302E+02         0.00000E+00
    0.12302E+02        -0.51333E+02         0.00000E+00
    0.00000E+00         0.00000E+00        -0.16097E+04
 
   -0.52367E+04         0.15727E+02         0.00000E+00
    0.15727E+02        -0.79319E+02         0.00000E+00
    0.00000E+00         0.00000E+00        -0.15948E+04
 
   -0.51447E+04         0.19342E+02         0.00000E+00
    0.19342E+02        -0.11435E+03         0.00000E+00
    0.00000E+00         0.00000E+00        -0.15777E+04
 
   -0.50374E+04         0.23115E+02         0.00000E+00
    0.23115E+02        -0.15678E+03         0.00000E+00
    0.00000E+00         0.00000E+00        -0.15583E+04
 
   -0.49143E+04         0.27013E+02         0.00000E+00
    0.27013E+02        -0.20689E+03         0.00000E+00
    0.00000E+00         0.00000E+00        -0.15363E+04
 
   -0.47745E+04         0.31003E+02         0.00000E+00
    0.31003E+02        -0.26490E+03         0.00000E+00
    0.00000E+00         0.00000E+00        -0.15118E+04
 
   -0.46178E+04         0.35051E+02         0.00000E+00
    0.35051E+02        -0.33094E+03         0.00000E+00
    0.00000E+00         0.00000E+00        -0.14846E+04
 
   -0.44436E+04         0.39123E+02         0.00000E+00
    0.39123E+02        -0.40512E+03         0.00000E+00
    0.00000E+00         0.00000E+00        -0.14546E+04
 
   -0.42517E+04         0.43188E+02         0.00000E+00
    0.43188E+02        -0.48744E+03         0.00000E+00
    0.00000E+00         0.00000E+00        -0.14217E+04
 
   -0.40420E+04         0.47211E+02         0.00000E+00
    0.47211E+02        -0.57786E+03         0.00000E+00
    0.00000E+00         0.00000E+00        -0.13859E+04
 
   -0.38144E+04         0.51159E+02         0.00000E+00
    0.51159E+02        -0.67625E+03         0.00000E+00
    0.00000E+00         0.00000E+00        -0.13472E+04
 
   -0.35690E+04         0.54999E+02         0.00000E+00
    0.54999E+02        -0.78244E+03         0.00000E+00
    0.00000E+00         0.00000E+00        -0.13054E+04
 
   -0.33060E+04         0.58695E+02         0.00000E+00
    0.58695E+02        -0.89618E+03         0.00000E+00
    0.00000E+00         0.00000E+00        -0.12607E+04
 
   -0.30258E+04         0.62214E+02         0.00000E+00
    0.62214E+02        -0.10171E+04         0.00000E+00
    0.00000E+00         0.00000E+00        -0.12129E+04
 
   -0.27289E+04         0.65518E+02         0.00000E+00
    0.65518E+02        -0.11449E+04         0.00000E+00
    0.00000E+00         0.00000E+00        -0.11622E+04
 
   -0.24159E+04         0.68569E+02         0.00000E+00
    0.68569E+02        -0.12791E+04         0.00000E+00
    0.00000E+00         0.00000E+00        -0.11085E+04
 
   -0.20876E+04         0.71327E+02         0.00000E+00
    0.71327E+02        -0.14190E+04         0.00000E+00
    0.00000E+00         0.00000E+00        -0.10520E+04
 
   -0.17448E+04         0.73750E+02         0.00000E+00
    0.73750E+02        -0.15642E+04         0.00000E+00
    0.00000E+00         0.00000E+00        -0.99268E+03
 
   -0.13886E+04         0.75794E+02         0.00000E+00
    0.75794E+02        -0.17138E+04         0.00000E+00
    0.00000E+00         0.00000E+00        -0.93073E+03
 
   -0.10204E+04         0.77413E+02         0.00000E+00
    0.77413E+02        -0.18671E+04         0.00000E+00
    0.00000E+00         0.00000E+00        -0.86625E+03
 
TENSORS stresstot double 
   -0.50391E+05         0.36730E+03         0.00000E+00
    0.36730E+03        -0.10022E+06         0.00000E+00
    0.00000E+00         0.00000E+00        -0.56226E+05
 
   -0.40546E+05         0.26486E+04         0.00000E+00
    0.26486E+04        -0.96900E+05         0.00000E+00
    0.00000E+00         0.00000E+00        -0.65782E+05
 
   -0.34885E+05         0.38063E+04         0.00000E+00
    0.38063E+04        -0.88952E+05         0.00000E+00
    0.00000E+00         0.00000E+00        -0.63209E+05
 
   -0.29646E+05         0.40509E+04         0.00000E+00
    0.40509E+04        -0.80509E+05         0.00000E+00
    0.00000E+00         0.00000E+00        -0.57496E+05
 
   -0.24761E+05         0.38935E+04         0.00000E+00
    0.38935E+04        -0.72692E+05         0.00000E+00
    0.00000E+00         0.00000E+00        -0.51282E+05
 
   -0.20330E+05         0.35934E+04         0.00000E+00
    0.35934E+04        -0.65568E+05         0.00000E+00
    0.00000E+00         0.00000E+00        -0.45219E+05
 
   -0.16348E+05         0.32081E+04         0.00000E+00
    0.32081E+04        -0.59151E+05         0.00000E+00
    0.00000E+00         0.00000E+00        -0.39561E+05
 
   -0.13259E+05         0.27880E+04         0.00000E+00
    0.27880E+04        -0.53412E+05         0.00000E+00
    0.00000E+00         0.00000E+00        -0.34605E+05
 
   -0.10653E+05         0.24213E+04         0.00000E+00
    0.24213E+04        -0.48357E+05         0.00000E+00
    0.00000E+00         0.00000E+00        -0.30293E+05
 
   -0.83769E+04         0.20929E+04         0.00000E+00
    0.20929E+04        -0.43955E+05         0.00000E+00
    0.00000E+00         0.00000E+00        -0.26573E+05
 
   -0.64944E+04         0.18174E+04         0.00000E+00
    0.18174E+04        -0.40076E+05         0.00000E+00
    0.00000E+00         0.00000E+00        -0.23398E+05
 
   -0.48388E+04         0.16290E+04         0.00000E+00
    0.16290E+04        -0.36660E+05         0.00000E+00
    0.00000E+00         0.00000E+00        -0.20596E+05
 
   -0.33195E+04         0.14654E+04         0.00000E+00
    0.14654E+04        -0.33630E+05         0.00000E+00
    0.00000E+00         0.00000E+00        -0.18044E+05
 
   -0.19105E+04         0.13215E+04         0.00000E+00
    0.13215E+04        -0.30891E+05         0.00000E+00
    0.00000E+00         0.00000E+00        -0.15675E+05
 
   -0.62691E+03         0.11691E+04         0.00000E+00
    0.11691E+04        -0.28436E+05         0.00000E+00
    0.00000E+00         0.00000E+00        -0.13468E+05
 
    0.38805E+03         0.10430E+04         0.00000E+00
    0.10430E+04        -0.26254E+05         0.00000E+00
    0.00000E+00         0.00000E+00        -0.11469E+05
 
    0.12309E+04         0.89578E+03         0.00000E+00
    0.89578E+03        -0.24359E+05         0.00000E+00
    0.00000E+00         0.00000E+00        -0.96124E+04
 
    0.19399E+04         0.79589E+03         0.00000E+00
    0.79589E+03        -0.22703E+05         0.00000E+00
    0.00000E+00         0.00000E+00        -0.79621E+04
 
    0.25342E+04         0.70733E+03         0.00000E+00
    0.70733E+03        -0.21226E+05         0.00000E+00
    0.00000E+00         0.00000E+00        -0.64144E+04
 
    0.27042E+04         0.63230E+03         0.00000E+00
    0.63230E+03        -0.19901E+05         0.00000E+00
    0.00000E+00         0.00000E+00        -0.52520E+04
 
    0.78865E+03         0.54023E+03         0.00000E+00
    0.54023E+03        -0.18737E+05         0.00000E+00
    0.00000E+00         0.00000E+00        -0.53847E+04
 
   -0.13052E+04         0.48390E+03         0.00000E+00
    0.48390E+03        -0.17720E+05         0.00000E+00
    0.00000E+00         0.00000E+00        -0.57078E+04
 
   -0.33714E+04         0.46006E+03         0.00000E+00
    0.46006E+03        -0.16781E+05         0.00000E+00
    0.00000E+00         0.00000E+00        -0.60460E+04
 
   -0.55074E+04         0.46042E+03         0.00000E+00
    0.46042E+03        -0.15865E+05         0.00000E+00
    0.00000E+00         0.00000E+00        -0.64119E+04
 
   -0.46905E+05         0.27391E+04         0.00000E+00
    0.27391E+04        -0.99614E+05         0.00000E+00
    0.00000E+00         0.00000E+00        -0.59029E+05
 
   -0.37182E+05         0.97166E+04         0.00000E+00
    0.97166E+04        -0.88863E+05         0.00000E+00
    0.00000E+00         0.00000E+00        -0.63738E+05
 
   -0.33484E+05         0.11696E+05         0.00000E+00
    0.11696E+05        -0.80360E+05         0.00000E+00
    0.00000E+00         0.00000E+00        -0.59430E+05
 
   -0.29650E+05         0.11870E+05         0.00000E+00
    0.11870E+05        -0.73326E+05         0.00000E+00
    0.00000E+00         0.00000E+00        -0.54320E+05
 
   -0.25346E+05         0.11185E+05         0.00000E+00
    0.11185E+05        -0.66651E+05         0.00000E+00
    0.00000E+00         0.00000E+00        -0.48714E+05
 
   -0.21103E+05         0.10180E+05         0.00000E+00
    0.10180E+05        -0.60606E+05         0.00000E+00
    0.00000E+00         0.00000E+00        -0.43218E+05
 
   -0.17293E+05         0.90435E+04         0.00000E+00
    0.90435E+04        -0.55212E+05         0.00000E+00
    0.00000E+00         0.00000E+00        -0.38134E+05
 
   -0.14047E+05         0.79392E+04         0.00000E+00
    0.79392E+04        -0.50454E+05         0.00000E+00
    0.00000E+00         0.00000E+00        -0.33598E+05
 
   -0.11359E+05         0.69290E+04         0.00000E+00
    0.69290E+04        -0.46145E+05         0.00000E+00
    0.00000E+00         0.00000E+00        -0.29593E+05
 
   -0.89793E+04         0.60580E+04         0.00000E+00
    0.60580E+04        -0.42208E+05         0.00000E+00
    0.00000E+00         0.00000E+00        -0.26016E+05
 
   -0.69216E+04         0.53488E+04         0.00000E+00
    0.53488E+04        -0.38725E+05         0.00000E+00
    0.00000E+00         0.00000E+00        -0.22876E+05
 
   -0.51693E+04         0.47850E+04         0.00000E+00
    0.47850E+04        -0.35551E+05         0.00000E+00
    0.00000E+00         0.00000E+00        -0.20118E+05
 
   -0.36325E+04         0.42983E+04         0.00000E+00
    0.42983E+04        -0.32658E+05         0.00000E+00
    0.00000E+00         0.00000E+00        -0.17626E+05
 
   -0.21941E+04         0.38774E+04         0.00000E+00
    0.38774E+04        -0.30101E+05         0.00000E+00
    0.00000E+00         0.00000E+00        -0.15308E+05
 
   -0.92488E+03         0.34478E+04         0.00000E+00
    0.34478E+04        -0.27827E+05         0.00000E+00
    0.00000E+00         0.00000E+00        -0.13186E+05
 
    0.11950E+03         0.30234E+04         0.00000E+00
    0.30234E+04        -0.25818E+05         0.00000E+00
    0.00000E+00         0.00000E+00        -0.11266E+05
 
    0.99367E+03         0.26574E+04         0.00000E+00
    0.26574E+04        -0.24029E+05         0.00000E+00
    0.00000E+00         0.00000E+00        -0.94463E+04
 
    0.17505E+04         0.23527E+04         0.00000E+00
    0.23527E+04        -0.22425E+05         0.00000E+00
    0.00000E+00         0.00000E+00        -0.78187E+04
 
    0.23766E+04         0.21001E+04         0.00000E+00
    0.21001E+04        -0.21004E+05         0.00000E+00
    0.00000E+00         0.00000E+00        -0.63131E+04
 
    0.25246E+04         0.18769E+04         0.00000E+00
    0.18769E+04        -0.19710E+05         0.00000E+00
    0.00000E+00         0.00000E+00        -0.52247E+04
 
    0.63654E+03         0.16069E+04         0.00000E+00
    0.16069E+04        -0.18585E+05         0.00000E+00
    0.00000E+00         0.00000E+00        -0.53848E+04
 
   -0.13813E+04         0.14443E+04         0.00000E+00
    0.14443E+04        -0.17587E+05         0.00000E+00
    0.00000E+00         0.00000E+00        -0.56907E+04
 
   -0.33936E+04         0.13733E+04         0.00000E+00
    0.13733E+04        -0.16662E+05         0.00000E+00
    0.00000E+00         0.00000E+00        -0.60169E+04
 
   -0.54860E+04         0.13738E+04         0.00000E+00
    0.13738E+04        -0.15760E+05         0.00000E+00
    0.00000E+00         0.00000E+00        -0.63742E+04
 
   -0.34308E+05         0.16166E+05         0.00000E+00
    0.16166E+05        -0.75384E+05         0.00000E+00
    0.00000E+00         0.00000E+00        -0.55713E+05
 
   -0.33389E+05         0.18376E+05         0.00000E+00
    0.18376E+05        -0.64371E+05         0.00000E+00
    0.00000E+00         0.00000E+00        -0.52842E+05
 
   -0.33536E+05         0.18913E+05         0.00000E+00
    0.18913E+05        -0.61966E+05         0.00000E+00
    0.00000E+00         0.00000E+00        -0.51524E+05
 
   -0.30579E+05         0.17942E+05         0.00000E+00
    0.17942E+05        -0.58431E+05         0.00000E+00
    0.00000E+00         0.00000E+00        -0.47919E+05
 
   -0.26760E+05         0.16566E+05         0.00000E+00
    0.16566E+05        -0.55017E+05         0.00000E+00
    0.00000E+00         0.00000E+00        -0.43895E+05
 
   -0.22640E+05         0.14973E+05         0.00000E+00
    0.14973E+05        -0.51500E+05         0.00000E+00
    0.00000E+00         0.00000E+00        -0.39628E+05
 
   -0.18792E+05         0.13368E+05         0.00000E+00
    0.13368E+05        -0.48055E+05         0.00000E+00
    0.00000E+00         0.00000E+00        -0.35482E+05
 
   -0.15435E+05         0.11880E+05         0.00000E+00
    0.11880E+05        -0.44737E+05         0.00000E+00
    0.00000E+00         0.00000E+00        -0.31594E+05
 
   -0.12523E+05         0.10622E+05         0.00000E+00
    0.10622E+05        -0.41612E+05         0.00000E+00
    0.00000E+00         0.00000E+00        -0.28021E+05
 
   -0.99568E+04         0.94652E+04         0.00000E+00
    0.94652E+04        -0.38612E+05         0.00000E+00
    0.00000E+00         0.00000E+00        -0.24769E+05
 
   -0.77454E+04         0.84419E+04         0.00000E+00
    0.84419E+04        -0.35718E+05         0.00000E+00
    0.00000E+00         0.00000E+00        -0.21794E+05
 
   -0.58441E+04         0.75695E+04         0.00000E+00
    0.75695E+04        -0.33140E+05         0.00000E+00
    0.00000E+00         0.00000E+00        -0.19138E+05
 
   -0.42043E+04         0.68304E+04         0.00000E+00
    0.68304E+04        -0.30829E+05         0.00000E+00
    0.00000E+00         0.00000E+00        -0.16768E+05
 
   -0.27504E+04         0.61366E+04         0.00000E+00
    0.61366E+04        -0.28684E+05         0.00000E+00
    0.00000E+00         0.00000E+00        -0.14613E+05
 
   -0.14933E+04         0.54808E+04         0.00000E+00
    0.54808E+04        -0.26720E+05         0.00000E+00
    0.00000E+00         0.00000E+00        -0.12623E+05
 
   -0.38893E+03         0.48451E+04         0.00000E+00
    0.48451E+04        -0.24951E+05         0.00000E+00
    0.00000E+00         0.00000E+00        -0.10746E+05
 
    0.57328E+03         0.42774E+04         0.00000E+00
    0.42774E+04        -0.23346E+05         0.00000E+00
    0.00000E+00         0.00000E+00        -0.90467E+04
 
    0.13884E+04         0.38061E+04         0.00000E+00
    0.38061E+04        -0.21894E+05         0.00000E+00
    0.00000E+00         0.00000E+00        -0.75204E+04
 
    0.20776E+04         0.34279E+04         0.00000E+00
    0.34279E+04        -0.20566E+05         0.00000E+00
    0.00000E+00         0.00000E+00        -0.61166E+04
 
    0.21723E+04         0.30632E+04         0.00000E+00
    0.30632E+04        -0.19352E+05         0.00000E+00
    0.00000E+00         0.00000E+00        -0.51742E+04
 
    0.34916E+03         0.26406E+04         0.00000E+00
    0.26406E+04        -0.18272E+05         0.00000E+00
    0.00000E+00         0.00000E+00        -0.53770E+04
 
   -0.15295E+04         0.23831E+04         0.00000E+00
    0.23831E+04        -0.17308E+05         0.00000E+00
    0.00000E+00         0.00000E+00        -0.56515E+04
 
   -0.34395E+04         0.22644E+04         0.00000E+00
    0.22644E+04        -0.16414E+05         0.00000E+00
    0.00000E+00         0.00000E+00        -0.59562E+04
 
   -0.54429E+04         0.22634E+04         0.00000E+00
    0.22634E+04        -0.15545E+05         0.00000E+00
    0.00000E+00         0.00000E+00        -0.62965E+04
 
   -0.13667E+05         0.14261E+05         0.00000E+00
    0.14261E+05        -0.27519E+05         0.00000E+00
    0.00000E+00         0.00000E+00        -0.24696E+05
 
   -0.33315E+05         0.19993E+05         0.00000E+00
    0.19993E+05        -0.37879E+05         0.00000E+00
    0.00000E+00         0.00000E+00        -0.41094E+05
 
   -0.33834E+05         0.19630E+05         0.00000E+00
    0.19630E+05        -0.37797E+05         0.00000E+00
    0.00000E+00         0.00000E+00        -0.40565E+05
 
   -0.31843E+05         0.19156E+05         0.00000E+00
    0.19156E+05        -0.38809E+05         0.00000E+00
    0.00000E+00         0.00000E+00        -0.39546E+05
 
   -0.28267E+05         0.18222E+05         0.00000E+00
    0.18222E+05        -0.38968E+05         0.00000E+00
    0.00000E+00         0.00000E+00        -0.37283E+05
 
   -0.24305E+05         0.17046E+05         0.00000E+00
    0.17046E+05        -0.38593E+05         0.00000E+00
    0.00000E+00         0.00000E+00        -0.34534E+05
 
   -0.20436E+05         0.15706E+05         0.00000E+00
    0.15706E+05        -0.37658E+05         0.00000E+00
    0.00000E+00         0.00000E+00        -0.31522E+05
 
   -0.16926E+05         0.14338E+05         0.00000E+00
    0.14338E+05        -0.36332E+05         0.00000E+00
    0.00000E+00         0.00000E+00        -0.28473E+05
 
   -0.13889E+05         0.13037E+05         0.00000E+00
    0.13037E+05        -0.34814E+05         0.00000E+00
    0.00000E+00         0.00000E+00        -0.25514E+05
 
   -0.11146E+05         0.11875E+05         0.00000E+00
    0.11875E+05        -0.33248E+05         0.00000E+00
    0.00000E+00         0.00000E+00        -0.22674E+05
 
   -0.87933E+04         0.10766E+05         0.00000E+00
    0.10766E+05        -0.31607E+05         0.00000E+00
    0.00000E+00         0.00000E+00        -0.20066E+05
 
   -0.67728E+04         0.96977E+04         0.00000E+00
    0.96977E+04        -0.29870E+05         0.00000E+00
    0.00000E+00         0.00000E+00        -0.17688E+05
 
   -0.50157E+04         0.87620E+04         0.00000E+00
    0.87620E+04        -0.28192E+05         0.00000E+00
    0.00000E+00         0.00000E+00        -0.15537E+05
 
   -0.35114E+04         0.79189E+04         0.00000E+00
    0.79189E+04        -0.26640E+05         0.00000E+00
    0.00000E+00         0.00000E+00        -0.13603E+05
 
   -0.22069E+04         0.71245E+04         0.00000E+00
    0.71245E+04        -0.25200E+05         0.00000E+00
    0.00000E+00         0.00000E+00        -0.11804E+05
 
   -0.10643E+04         0.63871E+04         0.00000E+00
    0.63871E+04        -0.23832E+05         0.00000E+00
    0.00000E+00         0.00000E+00        -0.10128E+05
 
   -0.26247E+02         0.57347E+04         0.00000E+00
    0.57347E+04        -0.22452E+05         0.00000E+00
    0.00000E+00         0.00000E+00        -0.85752E+04
 
    0.91697E+03         0.51303E+04         0.00000E+00
    0.51303E+04        -0.21118E+05         0.00000E+00
    0.00000E+00         0.00000E+00        -0.71374E+04
 
    0.16999E+04         0.46607E+04         0.00000E+00
    0.46607E+04        -0.19885E+05         0.00000E+00
    0.00000E+00         0.00000E+00        -0.58501E+04
 
    0.16253E+04         0.41619E+04         0.00000E+00
    0.41619E+04        -0.18763E+05         0.00000E+00
    0.00000E+00         0.00000E+00        -0.51415E+04
 
   -0.44174E+02         0.36219E+04         0.00000E+00
    0.36219E+04        -0.17765E+05         0.00000E+00
    0.00000E+00         0.00000E+00        -0.53430E+04
 
   -0.17477E+04         0.32798E+04         0.00000E+00
    0.32798E+04        -0.16863E+05         0.00000E+00
    0.00000E+00         0.00000E+00        -0.55834E+04
 
   -0.35108E+04         0.31135E+04         0.00000E+00
    0.31135E+04        -0.16023E+05         0.00000E+00
    0.00000E+00         0.00000E+00        -0.58605E+04
 
   -0.53777E+04         0.31096E+04         0.00000E+00
    0.31096E+04        -0.15209E+05         0.00000E+00
    0.00000E+00         0.00000E+00        -0.61762E+04
 
   -0.53469E+04         0.32349E+04         0.00000E+00
    0.32349E+04         0.36723E+04         0.00000E+00
    0.00000E+00         0.00000E+00         0.23211E+03
 
   -0.27103E+05         0.11085E+05         0.00000E+00
    0.11085E+05        -0.97059E+04         0.00000E+00
    0.00000E+00         0.00000E+00        -0.19807E+05
 
   -0.32124E+05         0.14176E+05         0.00000E+00
    0.14176E+05        -0.17695E+05         0.00000E+00
    0.00000E+00         0.00000E+00        -0.27674E+05
 
   -0.30963E+05         0.15562E+05         0.00000E+00
    0.15562E+05        -0.21987E+05         0.00000E+00
    0.00000E+00         0.00000E+00        -0.29206E+05
 
   -0.28342E+05         0.16162E+05         0.00000E+00
    0.16162E+05        -0.24972E+05         0.00000E+00
    0.00000E+00         0.00000E+00        -0.29112E+05
 
   -0.24962E+05         0.16103E+05         0.00000E+00
    0.16103E+05        -0.26821E+05         0.00000E+00
    0.00000E+00         0.00000E+00        -0.27933E+05
 
   -0.21430E+05         0.15590E+05         0.00000E+00
    0.15590E+05        -0.27861E+05         0.00000E+00
    0.00000E+00         0.00000E+00        -0.26198E+05
 
   -0.18058E+05         0.14789E+05         0.00000E+00
    0.14789E+05        -0.28262E+05         0.00000E+00
    0.00000E+00         0.00000E+00        -0.24178E+05
 
   -0.15009E+05         0.13853E+05         0.00000E+00
    0.13853E+05        -0.28171E+05         0.00000E+00
    0.00000E+00         0.00000E+00        -0.22050E+05
 
   -0.12273E+05         0.12870E+05         0.00000E+00
    0.12870E+05        -0.27744E+05         0.00000E+00
    0.00000E+00         0.00000E+00        -0.19909E+05
 
   -0.98620E+04         0.11908E+05         0.00000E+00
    0.11908E+05        -0.27142E+05         0.00000E+00
    0.00000E+00         0.00000E+00        -0.17841E+05
 
   -0.77538E+04         0.10979E+05         0.00000E+00
    0.10979E+05        -0.26368E+05         0.00000E+00
    0.00000E+00         0.00000E+00        -0.15892E+05
 
   -0.59147E+04         0.10067E+05         0.00000E+00
    0.10067E+05        -0.25391E+05         0.00000E+00
    0.00000E+00         0.00000E+00        -0.14077E+05
 
   -0.43697E+04         0.91818E+04         0.00000E+00
    0.91818E+04        -0.24354E+05         0.00000E+00
    0.00000E+00         0.00000E+00        -0.12417E+05
 
   -0.29853E+04         0.83396E+04         0.00000E+00
    0.83396E+04        -0.23314E+05         0.00000E+00
    0.00000E+00         0.00000E+00        -0.10870E+05
 
   -0.17773E+04         0.76113E+04         0.00000E+00
    0.76113E+04        -0.22205E+05         0.00000E+00
    0.00000E+00         0.00000E+00        -0.94386E+04
 
   -0.69034E+03         0.69418E+04         0.00000E+00
    0.69418E+04        -0.21129E+05         0.00000E+00
    0.00000E+00         0.00000E+00        -0.80773E+04
 
    0.34316E+03         0.63231E+04         0.00000E+00
    0.63231E+04        -0.20069E+05         0.00000E+00
    0.00000E+00         0.00000E+00        -0.67238E+04
 
    0.12769E+04         0.57860E+04         0.00000E+00
    0.57860E+04        -0.18954E+05         0.00000E+00
    0.00000E+00         0.00000E+00        -0.55144E+04
 
    0.91295E+03         0.51595E+04         0.00000E+00
    0.51595E+04        -0.17920E+05         0.00000E+00
    0.00000E+00         0.00000E+00        -0.51024E+04
 
   -0.52645E+03         0.45179E+04         0.00000E+00
    0.45179E+04        -0.17043E+05         0.00000E+00
    0.00000E+00         0.00000E+00        -0.52710E+04
 
   -0.20293E+04         0.41035E+04         0.00000E+00
    0.41035E+04        -0.16239E+05         0.00000E+00
    0.00000E+00         0.00000E+00        -0.54807E+04
 
   -0.36070E+04         0.38952E+04         0.00000E+00
    0.38952E+04        -0.15486E+05         0.00000E+00
    0.00000E+00         0.00000E+00        -0.57280E+04
 
   -0.52904E+04         0.38895E+04         0.00000E+00
    0.38895E+04        -0.14750E+05         0.00000E+00
    0.00000E+00         0.00000E+00        -0.60123E+04
 
    0.33638E+03        -0.11882E+04         0.00000E+00
   -0.11882E+04        -0.16838E+04         0.00000E+00
    0.00000E+00         0.00000E+00        -0.16421E+03
 
   -0.24262E+05         0.58099E+04         0.00000E+00
    0.58099E+04        -0.31118E+04         0.00000E+00
    0.00000E+00         0.00000E+00        -0.10025E+05
 
   -0.28863E+05         0.95685E+04         0.00000E+00
    0.95685E+04        -0.92097E+04         0.00000E+00
    0.00000E+00         0.00000E+00        -0.18316E+05
 
   -0.29153E+05         0.11881E+05         0.00000E+00
    0.11881E+05        -0.13479E+05         0.00000E+00
    0.00000E+00         0.00000E+00        -0.21768E+05
 
   -0.27273E+05         0.13319E+05         0.00000E+00
    0.13319E+05        -0.16587E+05         0.00000E+00
    0.00000E+00         0.00000E+00        -0.22791E+05
 
   -0.24636E+05         0.14068E+05         0.00000E+00
    0.14068E+05        -0.18911E+05         0.00000E+00
    0.00000E+00         0.00000E+00        -0.22591E+05
 
   -0.21632E+05         0.14282E+05         0.00000E+00
    0.14282E+05        -0.20587E+05         0.00000E+00
    0.00000E+00         0.00000E+00        -0.21711E+05
 
   -0.18606E+05         0.14091E+05         0.00000E+00
    0.14091E+05        -0.21700E+05         0.00000E+00
    0.00000E+00         0.00000E+00        -0.20427E+05
 
   -0.15747E+05         0.13634E+05         0.00000E+00
    0.13634E+05        -0.22353E+05         0.00000E+00
    0.00000E+00         0.00000E+00        -0.18938E+05
 
   -0.13117E+05         0.13006E+05         0.00000E+00
    0.13006E+05        -0.22633E+05         0.00000E+00
    0.00000E+00         0.00000E+00        -0.17346E+05
 
   -0.10739E+05         0.12268E+05         0.00000E+00
    0.12268E+05        -0.22615E+05         0.00000E+00
    0.00000E+00         0.00000E+00        -0.15732E+05
 
   -0.86045E+04         0.11540E+05         0.00000E+00
    0.11540E+05        -0.22382E+05         0.00000E+00
    0.00000E+00         0.00000E+00        -0.14133E+05
 
   -0.67732E+04         0.10766E+05         0.00000E+00
    0.10766E+05        -0.22038E+05         0.00000E+00
    0.00000E+00         0.00000E+00        -0.12647E+05
 
   -0.51819E+04         0.99913E+04         0.00000E+00
    0.99913E+04        -0.21522E+05         0.00000E+00
    0.00000E+00         0.00000E+00        -0.11257E+05
 
   -0.37705E+04         0.92553E+04         0.00000E+00
    0.92553E+04        -0.20804E+05         0.00000E+00
    0.00000E+00         0.00000E+00        -0.99530E+04
 
   -0.24765E+04         0.85359E+04         0.00000E+00
    0.85359E+04        -0.20024E+05         0.00000E+00
    0.00000E+00         0.00000E+00        -0.86866E+04
 
   -0.13434E+04         0.78591E+04         0.00000E+00
    0.78591E+04        -0.19230E+05         0.00000E+00
    0.00000E+00         0.00000E+00        -0.74667E+04
 
   -0.22874E+03         0.72841E+04         0.00000E+00
    0.72841E+04        -0.18419E+05         0.00000E+00
    0.00000E+00         0.00000E+00        -0.62239E+04
 
    0.76134E+03         0.67704E+04         0.00000E+00
    0.67704E+04        -0.17586E+05         0.00000E+00
    0.00000E+00         0.00000E+00        -0.51443E+04
 
    0.93698E+02         0.59908E+04         0.00000E+00
    0.59908E+04        -0.16813E+05         0.00000E+00
    0.00000E+00         0.00000E+00        -0.50160E+04
 
   -0.10805E+04         0.52840E+04         0.00000E+00
    0.52840E+04        -0.16111E+05         0.00000E+00
    0.00000E+00         0.00000E+00        -0.51575E+04
 
   -0.23614E+04         0.48173E+04         0.00000E+00
    0.48173E+04        -0.15450E+05         0.00000E+00
    0.00000E+00         0.00000E+00        -0.53435E+04
 
   -0.37211E+04         0.45829E+04         0.00000E+00
    0.45829E+04        -0.14812E+05         0.00000E+00
    0.00000E+00         0.00000E+00        -0.55601E+04
 
   -0.51812E+04         0.45806E+04         0.00000E+00
    0.45806E+04        -0.14178E+05         0.00000E+00
    0.00000E+00         0.00000E+00        -0.58079E+04
 
    0.94885E+03        -0.17039E+04         0.00000E+00
   -0.17039E+04         0.49000E+02         0.00000E+00
    0.00000E+00         0.00000E+00         0.35060E+03
 
   -0.18633E+05         0.80513E+03         0.00000E+00
    0.80513E+03        -0.13738E+04         0.00000E+00
    0.00000E+00         0.00000E+00        -0.60022E+04
 
   -0.26652E+05         0.61350E+04         0.00000E+00
    0.61350E+04        -0.49879E+04         0.00000E+00
    0.00000E+00         0.00000E+00        -0.12163E+05
 
   -0.26866E+05         0.88909E+04         0.00000E+00
    0.88909E+04        -0.83077E+04         0.00000E+00
    0.00000E+00         0.00000E+00        -0.15722E+05
 
   -0.25820E+05         0.10756E+05         0.00000E+00
    0.10756E+05        -0.11200E+05         0.00000E+00
    0.00000E+00         0.00000E+00        -0.17432E+05
 
   -0.23743E+05         0.12012E+05         0.00000E+00
    0.12012E+05        -0.13532E+05         0.00000E+00
    0.00000E+00         0.00000E+00        -0.17925E+05
 
   -0.21275E+05         0.12691E+05         0.00000E+00
    0.12691E+05        -0.15312E+05         0.00000E+00
    0.00000E+00         0.00000E+00        -0.17677E+05
 
   -0.18639E+05         0.12948E+05         0.00000E+00
    0.12948E+05        -0.16671E+05         0.00000E+00
    0.00000E+00         0.00000E+00        -0.16960E+05
 
   -0.16062E+05         0.12881E+05         0.00000E+00
    0.12881E+05        -0.17656E+05         0.00000E+00
    0.00000E+00         0.00000E+00        -0.15976E+05
 
   -0.13629E+05         0.12588E+05         0.00000E+00
    0.12588E+05        -0.18329E+05         0.00000E+00
    0.00000E+00         0.00000E+00        -0.14829E+05
 
   -0.11342E+05         0.12166E+05         0.00000E+00
    0.12166E+05        -0.18723E+05         0.00000E+00
    0.00000E+00         0.00000E+00        -0.13574E+05
 
   -0.92759E+04         0.11624E+05         0.00000E+00
    0.11624E+05        -0.18892E+05         0.00000E+00
    0.00000E+00         0.00000E+00        -0.12304E+05
 
   -0.74751E+04         0.11037E+05         0.00000E+00
    0.11037E+05        -0.18828E+05         0.00000E+00
    0.00000E+00         0.00000E+00        -0.11098E+05
 
   -0.58747E+04         0.10419E+05         0.00000E+00
    0.10419E+05        -0.18585E+05         0.00000E+00
    0.00000E+00         0.00000E+00        -0.99500E+04
 
   -0.44470E+04         0.97933E+04         0.00000E+00
    0.97933E+04        -0.18255E+05         0.00000E+00
    0.00000E+00         0.00000E+00        -0.88640E+04
 
   -0.31405E+04         0.91719E+04         0.00000E+00
    0.91719E+04        -0.17824E+05         0.00000E+00
    0.00000E+00         0.00000E+00        -0.77697E+04
 
   -0.19323E+04         0.85745E+04         0.00000E+00
    0.85745E+04        -0.17271E+05         0.00000E+00
    0.00000E+00         0.00000E+00        -0.66789E+04
 
   -0.77465E+03         0.80332E+04         0.00000E+00
    0.80332E+04        -0.16616E+05         0.00000E+00
    0.00000E+00         0.00000E+00        -0.56680E+04
 
    0.49523E+02         0.74566E+04         0.00000E+00
    0.74566E+04        -0.15971E+05         0.00000E+00
    0.00000E+00         0.00000E+00        -0.48143E+04
 
   -0.71358E+03         0.65799E+04         0.00000E+00
    0.65799E+04        -0.15497E+05         0.00000E+00
    0.00000E+00         0.00000E+00        -0.48634E+04
 
   -0.16790E+04         0.58664E+04         0.00000E+00
    0.58664E+04        -0.15029E+05         0.00000E+00
    0.00000E+00         0.00000E+00        -0.50127E+04
 
   -0.27155E+04         0.53907E+04         0.00000E+00
    0.53907E+04        -0.14538E+05         0.00000E+00
    0.00000E+00         0.00000E+00        -0.51763E+04
 
   -0.38392E+04         0.51553E+04         0.00000E+00
    0.51553E+04        -0.14034E+05         0.00000E+00
    0.00000E+00         0.00000E+00        -0.53622E+04
 
   -0.50509E+04         0.51650E+04         0.00000E+00
    0.51650E+04        -0.13515E+05         0.00000E+00
    0.00000E+00         0.00000E+00        -0.55701E+04
 
   -0.85880E+03        -0.17690E+04         0.00000E+00
   -0.17690E+04        -0.28083E+02         0.00000E+00
    0.00000E+00         0.00000E+00        -0.26607E+03
 
   -0.14035E+05        -0.11455E+04         0.00000E+00
   -0.11455E+04        -0.32864E+03         0.00000E+00
    0.00000E+00         0.00000E+00        -0.43091E+04
 
   -0.23208E+05         0.29835E+04         0.00000E+00
    0.29835E+04        -0.14805E+04         0.00000E+00
    0.00000E+00         0.00000E+00        -0.76370E+04
 
   -0.24779E+05         0.62787E+04         0.00000E+00
    0.62787E+04        -0.46971E+04         0.00000E+00
    0.00000E+00         0.00000E+00        -0.11370E+05
 
   -0.24089E+05         0.84507E+04         0.00000E+00
    0.84507E+04        -0.71061E+04         0.00000E+00
    0.00000E+00         0.00000E+00        -0.13210E+05
 
   -0.22523E+05         0.10024E+05         0.00000E+00
    0.10024E+05        -0.92865E+04         0.00000E+00
    0.00000E+00         0.00000E+00        -0.13934E+05
 
   -0.20561E+05         0.11079E+05         0.00000E+00
    0.11079E+05        -0.11179E+05         0.00000E+00
    0.00000E+00         0.00000E+00        -0.14109E+05
 
   -0.18318E+05         0.11676E+05         0.00000E+00
    0.11676E+05        -0.12665E+05         0.00000E+00
    0.00000E+00         0.00000E+00        -0.13789E+05
 
   -0.16049E+05         0.11923E+05         0.00000E+00
    0.11923E+05        -0.13809E+05         0.00000E+00
    0.00000E+00         0.00000E+00        -0.13195E+05
 
   -0.13819E+05         0.11917E+05         0.00000E+00
    0.11917E+05        -0.14651E+05         0.00000E+00
    0.00000E+00         0.00000E+00        -0.12396E+05
 
   -0.11692E+05         0.11738E+05         0.00000E+00
    0.11738E+05        -0.15235E+05         0.00000E+00
    0.00000E+00         0.00000E+00        -0.11467E+05
 
   -0.97381E+04         0.11432E+05         0.00000E+00
    0.11432E+05        -0.15589E+05         0.00000E+00
    0.00000E+00         0.00000E+00        -0.10482E+05
 
   -0.79968E+04         0.11021E+05         0.00000E+00
    0.11021E+05        -0.15783E+05         0.00000E+00
    0.00000E+00         0.00000E+00        -0.95300E+04
 
   -0.64296E+04         0.10558E+05         0.00000E+00
    0.10558E+05        -0.15833E+05         0.00000E+00
    0.00000E+00         0.00000E+00        -0.86049E+04
 
   -0.50035E+04         0.10065E+05         0.00000E+00
    0.10065E+05        -0.15714E+05         0.00000E+00
    0.00000E+00         0.00000E+00        -0.76962E+04
 
   -0.37035E+04         0.95621E+04         0.00000E+00
    0.95621E+04        -0.15459E+05         0.00000E+00
    0.00000E+00         0.00000E+00        -0.68250E+04
 
   -0.24585E+04         0.90654E+04         0.00000E+00
    0.90654E+04        -0.15114E+05         0.00000E+00
    0.00000E+00         0.00000E+00        -0.59394E+04
 
   -0.12851E+04         0.85754E+04         0.00000E+00
    0.85754E+04        -0.14687E+05         0.00000E+00
    0.00000E+00         0.00000E+00        -0.50595E+04
 
   -0.83342E+03         0.78527E+04         0.00000E+00
    0.78527E+04        -0.14352E+05         0.00000E+00
    0.00000E+00         0.00000E+00        -0.45559E+04
 
   -0.15303E+04         0.69179E+04         0.00000E+00
    0.69179E+04        -0.14162E+05         0.00000E+00
    0.00000E+00         0.00000E+00        -0.47079E+04
 
   -0.22532E+04         0.62514E+04         0.00000E+00
    0.62514E+04        -0.13896E+05         0.00000E+00
    0.00000E+00         0.00000E+00        -0.48449E+04
 
   -0.30575E+04         0.58140E+04         0.00000E+00
    0.58140E+04        -0.13569E+05         0.00000E+00
    0.00000E+00         0.00000E+00        -0.49881E+04
 
   -0.39433E+04         0.56042E+04         0.00000E+00
    0.56042E+04        -0.13197E+05         0.00000E+00
    0.00000E+00         0.00000E+00        -0.51423E+04
 
   -0.49009E+04         0.56343E+04         0.00000E+00
    0.56343E+04        -0.12796E+05         0.00000E+00
    0.00000E+00         0.00000E+00        -0.53093E+04
 
   -0.28933E+04        -0.15202E+04         0.00000E+00
   -0.15202E+04         0.15846E+03         0.00000E+00
    0.00000E+00         0.00000E+00        -0.82045E+03
 
   -0.11935E+05        -0.16427E+04         0.00000E+00
   -0.16427E+04         0.28788E+03         0.00000E+00
    0.00000E+00         0.00000E+00        -0.34943E+04
 
   -0.19236E+05         0.78366E+03         0.00000E+00
    0.78366E+03        -0.66784E+03         0.00000E+00
    0.00000E+00         0.00000E+00        -0.59710E+04
 
   -0.22452E+05         0.41344E+04         0.00000E+00
    0.41344E+04        -0.20292E+04         0.00000E+00
    0.00000E+00         0.00000E+00        -0.80267E+04
 
   -0.22272E+05         0.65008E+04         0.00000E+00
    0.65008E+04        -0.41139E+04         0.00000E+00
    0.00000E+00         0.00000E+00        -0.99065E+04
 
   -0.21132E+05         0.82004E+04         0.00000E+00
    0.82004E+04        -0.59006E+04         0.00000E+00
    0.00000E+00         0.00000E+00        -0.10847E+05
 
   -0.19582E+05         0.94568E+04         0.00000E+00
    0.94568E+04        -0.75618E+04         0.00000E+00
    0.00000E+00         0.00000E+00        -0.11158E+05
 
   -0.17718E+05         0.10347E+05         0.00000E+00
    0.10347E+05        -0.90534E+04         0.00000E+00
    0.00000E+00         0.00000E+00        -0.11095E+05
 
   -0.15779E+05         0.10864E+05         0.00000E+00
    0.10864E+05        -0.10293E+05         0.00000E+00
    0.00000E+00         0.00000E+00        -0.10763E+05
 
   -0.13763E+05         0.11108E+05         0.00000E+00
    0.11108E+05        -0.11265E+05         0.00000E+00
    0.00000E+00         0.00000E+00        -0.10221E+05
 
   -0.11810E+05         0.11158E+05         0.00000E+00
    0.11158E+05        -0.12010E+05         0.00000E+00
    0.00000E+00         0.00000E+00        -0.95414E+04
 
   -0.99985E+04         0.11044E+05         0.00000E+00
    0.11044E+05        -0.12561E+05         0.00000E+00
    0.00000E+00         0.00000E+00        -0.88019E+04
 
   -0.83534E+04         0.10809E+05         0.00000E+00
    0.10809E+05        -0.12920E+05         0.00000E+00
    0.00000E+00         0.00000E+00        -0.80671E+04
 
   -0.68355E+04         0.10502E+05         0.00000E+00
    0.10502E+05        -0.13103E+05         0.00000E+00
    0.00000E+00         0.00000E+00        -0.73337E+04
 
   -0.54350E+04         0.10142E+05         0.00000E+00
    0.10142E+05        -0.13176E+05         0.00000E+00
    0.00000E+00         0.00000E+00        -0.65984E+04
 
   -0.41540E+04         0.97446E+04         0.00000E+00
    0.97446E+04        -0.13151E+05         0.00000E+00
    0.00000E+00         0.00000E+00        -0.58853E+04
 
   -0.29118E+04         0.93335E+04         0.00000E+00
    0.93335E+04        -0.12983E+05         0.00000E+00
    0.00000E+00         0.00000E+00        -0.51331E+04
 
   -0.18343E+04         0.88775E+04         0.00000E+00
    0.88775E+04        -0.12817E+05         0.00000E+00
    0.00000E+00         0.00000E+00        -0.44386E+04
 
   -0.18902E+04         0.78617E+04         0.00000E+00
    0.78617E+04        -0.12913E+05         0.00000E+00
    0.00000E+00         0.00000E+00        -0.44412E+04
 
   -0.22676E+04         0.70549E+04         0.00000E+00
    0.70549E+04        -0.12911E+05         0.00000E+00
    0.00000E+00         0.00000E+00        -0.45540E+04
 
   -0.27678E+04         0.64762E+04         0.00000E+00
    0.64762E+04        -0.12796E+05         0.00000E+00
    0.00000E+00         0.00000E+00        -0.46694E+04
 
   -0.33561E+04         0.61020E+04         0.00000E+00
    0.61020E+04        -0.12599E+05         0.00000E+00
    0.00000E+00         0.00000E+00        -0.47867E+04
 
   -0.40189E+04         0.59351E+04         0.00000E+00
    0.59351E+04        -0.12344E+05         0.00000E+00
    0.00000E+00         0.00000E+00        -0.49090E+04
 
   -0.47337E+04         0.59900E+04         0.00000E+00
    0.59900E+04        -0.12053E+05         0.00000E+00
    0.00000E+00         0.00000E+00        -0.50362E+04
 
   -0.47269E+04        -0.11862E+04         0.00000E+00
   -0.11862E+04         0.14245E+03         0.00000E+00
    0.00000E+00         0.00000E+00        -0.13754E+04
 
   -0.11047E+05        -0.16568E+04         0.00000E+00
   -0.16568E+04         0.43173E+03         0.00000E+00
    0.00000E+00         0.00000E+00        -0.31847E+04
 
   -0.16292E+05        -0.95860E+02         0.00000E+00
   -0.95860E+02         0.34137E+03         0.00000E+00
    0.00000E+00         0.00000E+00        -0.47852E+04
 
   -0.19717E+05         0.24489E+04         0.00000E+00
    0.24489E+04        -0.40740E+03         0.00000E+00
    0.00000E+00         0.00000E+00        -0.60374E+04
 
   -0.20417E+05         0.48762E+04         0.00000E+00
    0.48762E+04        -0.18355E+04         0.00000E+00
    0.00000E+00         0.00000E+00        -0.72833E+04
 
   -0.19684E+05         0.66865E+04         0.00000E+00
    0.66865E+04        -0.34016E+04         0.00000E+00
    0.00000E+00         0.00000E+00        -0.82664E+04
 
   -0.18455E+05         0.80361E+04         0.00000E+00
    0.80361E+04        -0.47981E+04         0.00000E+00
    0.00000E+00         0.00000E+00        -0.87346E+04
 
   -0.16919E+05         0.90457E+04         0.00000E+00
    0.90457E+04        -0.60913E+04         0.00000E+00
    0.00000E+00         0.00000E+00        -0.88337E+04
 
   -0.15274E+05         0.97703E+04         0.00000E+00
    0.97703E+04        -0.72626E+04         0.00000E+00
    0.00000E+00         0.00000E+00        -0.86741E+04
 
   -0.13502E+05         0.10223E+05         0.00000E+00
    0.10223E+05        -0.82791E+04         0.00000E+00
    0.00000E+00         0.00000E+00        -0.83373E+04
 
   -0.11742E+05         0.10460E+05         0.00000E+00
    0.10460E+05        -0.90917E+04         0.00000E+00
    0.00000E+00         0.00000E+00        -0.78553E+04
 
   -0.10087E+05         0.10516E+05         0.00000E+00
    0.10516E+05        -0.97327E+04         0.00000E+00
    0.00000E+00         0.00000E+00        -0.73023E+04
 
   -0.85418E+04         0.10444E+05         0.00000E+00
    0.10444E+05        -0.10234E+05         0.00000E+00
    0.00000E+00         0.00000E+00        -0.67064E+04
 
   -0.70982E+04         0.10280E+05         0.00000E+00
    0.10280E+05        -0.10625E+05         0.00000E+00
    0.00000E+00         0.00000E+00        -0.61324E+04
 
   -0.57470E+04         0.10048E+05         0.00000E+00
    0.10048E+05        -0.10834E+05         0.00000E+00
    0.00000E+00         0.00000E+00        -0.55336E+04
 
   -0.45160E+04         0.97447E+04         0.00000E+00
    0.97447E+04        -0.10909E+05         0.00000E+00
    0.00000E+00         0.00000E+00        -0.49478E+04
 
   -0.32803E+04         0.94363E+04         0.00000E+00
    0.94363E+04        -0.11002E+05         0.00000E+00
    0.00000E+00         0.00000E+00        -0.43279E+04
 
   -0.28003E+04         0.85713E+04         0.00000E+00
    0.85713E+04        -0.11370E+05         0.00000E+00
    0.00000E+00         0.00000E+00        -0.42514E+04
 
   -0.27302E+04         0.77261E+04         0.00000E+00
    0.77261E+04        -0.11674E+05         0.00000E+00
    0.00000E+00         0.00000E+00        -0.43214E+04
 
   -0.28986E+04         0.70649E+04         0.00000E+00
    0.70649E+04        -0.11780E+05         0.00000E+00
    0.00000E+00         0.00000E+00        -0.44037E+04
 
   -0.32014E+04         0.65838E+04         0.00000E+00
    0.65838E+04        -0.11765E+05         0.00000E+00
    0.00000E+00         0.00000E+00        -0.44900E+04
 
   -0.35982E+04         0.62810E+04         0.00000E+00
    0.62810E+04        -0.11665E+05         0.00000E+00
    0.00000E+00         0.00000E+00        -0.45793E+04
 
   -0.40590E+04         0.61621E+04         0.00000E+00
    0.61621E+04        -0.11507E+05         0.00000E+00
    0.00000E+00         0.00000E+00        -0.46700E+04
 
   -0.45533E+04         0.62413E+04         0.00000E+00
    0.62413E+04        -0.11313E+05         0.00000E+00
    0.00000E+00         0.00000E+00        -0.47601E+04
 
   -0.62296E+04        -0.87760E+03         0.00000E+00
   -0.87760E+03         0.12298E+03         0.00000E+00
    0.00000E+00         0.00000E+00        -0.18320E+04
 
   -0.10573E+05        -0.13323E+04         0.00000E+00
   -0.13323E+04         0.49511E+03         0.00000E+00
    0.00000E+00         0.00000E+00        -0.30234E+04
 
   -0.14492E+05        -0.34043E+03         0.00000E+00
   -0.34043E+03         0.66362E+03         0.00000E+00
    0.00000E+00         0.00000E+00        -0.41485E+04
 
   -0.17175E+05         0.15172E+04         0.00000E+00
    0.15172E+04         0.31661E+03         0.00000E+00
    0.00000E+00         0.00000E+00        -0.50574E+04
 
   -0.18455E+05         0.36122E+04         0.00000E+00
    0.36122E+04        -0.27224E+03         0.00000E+00
    0.00000E+00         0.00000E+00        -0.56183E+04
 
   -0.18199E+05         0.53906E+04         0.00000E+00
    0.53906E+04        -0.13932E+04         0.00000E+00
    0.00000E+00         0.00000E+00        -0.62369E+04
 
   -0.17279E+05         0.68192E+04         0.00000E+00
    0.68192E+04        -0.26544E+04         0.00000E+00
    0.00000E+00         0.00000E+00        -0.67052E+04
 
   -0.16024E+05         0.79157E+04         0.00000E+00
    0.79157E+04        -0.37929E+04         0.00000E+00
    0.00000E+00         0.00000E+00        -0.68949E+04
 
   -0.14610E+05         0.87133E+04         0.00000E+00
    0.87133E+04        -0.48589E+04         0.00000E+00
    0.00000E+00         0.00000E+00        -0.68868E+04
 
   -0.13078E+05         0.93270E+04         0.00000E+00
    0.93270E+04        -0.57892E+04         0.00000E+00
    0.00000E+00         0.00000E+00        -0.66460E+04
 
   -0.11514E+05         0.97069E+04         0.00000E+00
    0.97069E+04        -0.66270E+04         0.00000E+00
    0.00000E+00         0.00000E+00        -0.63119E+04
 
   -0.10017E+05         0.99219E+04         0.00000E+00
    0.99219E+04        -0.73432E+04         0.00000E+00
    0.00000E+00         0.00000E+00        -0.59047E+04
 
   -0.85962E+04         0.99736E+04         0.00000E+00
    0.99736E+04        -0.78915E+04         0.00000E+00
    0.00000E+00         0.00000E+00        -0.54622E+04
 
   -0.72248E+04         0.99317E+04         0.00000E+00
    0.99317E+04        -0.82713E+04         0.00000E+00
    0.00000E+00         0.00000E+00        -0.49874E+04
 
   -0.59832E+04         0.98139E+04         0.00000E+00
    0.98139E+04        -0.86439E+04         0.00000E+00
    0.00000E+00         0.00000E+00        -0.45280E+04
 
   -0.48087E+04         0.95439E+04         0.00000E+00
    0.95439E+04        -0.90728E+04         0.00000E+00
    0.00000E+00         0.00000E+00        -0.41646E+04
 
   -0.40219E+04         0.88593E+04         0.00000E+00
    0.88593E+04        -0.97152E+04         0.00000E+00
    0.00000E+00         0.00000E+00        -0.41214E+04
 
   -0.35876E+04         0.81566E+04         0.00000E+00
    0.81566E+04        -0.10263E+05         0.00000E+00
    0.00000E+00         0.00000E+00        -0.41555E+04
 
   -0.34010E+04         0.75135E+04         0.00000E+00
    0.75135E+04        -0.10584E+05         0.00000E+00
    0.00000E+00         0.00000E+00        -0.41958E+04
 
   -0.34106E+04         0.69899E+04         0.00000E+00
    0.69899E+04        -0.10752E+05         0.00000E+00
    0.00000E+00         0.00000E+00        -0.42491E+04
 
   -0.35520E+04         0.66068E+04         0.00000E+00
    0.66068E+04        -0.10809E+05         0.00000E+00
    0.00000E+00         0.00000E+00        -0.43085E+04
 
   -0.37812E+04         0.63737E+04         0.00000E+00
    0.63737E+04        -0.10785E+05         0.00000E+00
    0.00000E+00         0.00000E+00        -0.43699E+04
 
   -0.40636E+04         0.63009E+04         0.00000E+00
    0.63009E+04        -0.10705E+05         0.00000E+00
    0.00000E+00         0.00000E+00        -0.44307E+04
 
   -0.43643E+04         0.64011E+04         0.00000E+00
    0.64011E+04        -0.10593E+05         0.00000E+00
    0.00000E+00         0.00000E+00        -0.44875E+04
 
   -0.73281E+04        -0.60329E+03         0.00000E+00
   -0.60329E+03         0.10361E+03         0.00000E+00
    0.00000E+00         0.00000E+00        -0.21674E+04
 
   -0.10325E+05        -0.94944E+03         0.00000E+00
   -0.94944E+03         0.43993E+03         0.00000E+00
    0.00000E+00         0.00000E+00        -0.29656E+04
 
   -0.13209E+05        -0.26268E+03         0.00000E+00
   -0.26268E+03         0.72374E+03         0.00000E+00
    0.00000E+00         0.00000E+00        -0.37455E+04
 
   -0.15356E+05         0.11436E+04         0.00000E+00
    0.11436E+04         0.69969E+03         0.00000E+00
    0.00000E+00         0.00000E+00        -0.43969E+04
 
   -0.16509E+05         0.28279E+04         0.00000E+00
    0.28279E+04         0.26371E+03         0.00000E+00
    0.00000E+00         0.00000E+00        -0.48735E+04
 
   -0.16675E+05         0.44510E+04         0.00000E+00
    0.44510E+04        -0.25740E+03         0.00000E+00
    0.00000E+00         0.00000E+00        -0.50798E+04
 
   -0.16101E+05         0.58299E+04         0.00000E+00
    0.58299E+04        -0.93853E+03         0.00000E+00
    0.00000E+00         0.00000E+00        -0.51868E+04
 
   -0.15094E+05         0.69051E+04         0.00000E+00
    0.69051E+04        -0.19088E+04         0.00000E+00
    0.00000E+00         0.00000E+00        -0.53481E+04
 
   -0.13870E+05         0.78024E+04         0.00000E+00
    0.78024E+04        -0.28345E+04         0.00000E+00
    0.00000E+00         0.00000E+00        -0.53554E+04
 
   -0.12534E+05         0.84782E+04         0.00000E+00
    0.84782E+04        -0.37027E+04         0.00000E+00
    0.00000E+00         0.00000E+00        -0.52134E+04
 
   -0.11162E+05         0.89547E+04         0.00000E+00
    0.89547E+04        -0.44695E+04         0.00000E+00
    0.00000E+00         0.00000E+00        -0.49796E+04
 
   -0.98218E+04         0.92662E+04         0.00000E+00
    0.92662E+04        -0.51508E+04         0.00000E+00
    0.00000E+00         0.00000E+00        -0.46736E+04
 
   -0.85346E+04         0.94674E+04         0.00000E+00
    0.94674E+04        -0.57953E+04         0.00000E+00
    0.00000E+00         0.00000E+00        -0.43471E+04
 
   -0.73178E+04         0.94252E+04         0.00000E+00
    0.94252E+04        -0.65246E+04         0.00000E+00
    0.00000E+00         0.00000E+00        -0.41539E+04
 
   -0.62166E+04         0.91762E+04         0.00000E+00
    0.91762E+04        -0.73106E+04         0.00000E+00
    0.00000E+00         0.00000E+00        -0.40583E+04
 
   -0.53290E+04         0.87700E+04         0.00000E+00
    0.87700E+04        -0.81417E+04         0.00000E+00
    0.00000E+00         0.00000E+00        -0.40414E+04
 
   -0.46469E+04         0.82748E+04         0.00000E+00
    0.82748E+04        -0.88033E+04         0.00000E+00
    0.00000E+00         0.00000E+00        -0.40353E+04
 
   -0.41772E+04         0.77446E+04         0.00000E+00
    0.77446E+04        -0.92796E+04         0.00000E+00
    0.00000E+00         0.00000E+00        -0.40372E+04
 
   -0.39175E+04         0.72612E+04         0.00000E+00
    0.72612E+04        -0.96135E+04         0.00000E+00
    0.00000E+00         0.00000E+00        -0.40595E+04
 
   -0.38122E+04         0.68594E+04         0.00000E+00
    0.68594E+04        -0.98191E+04         0.00000E+00
    0.00000E+00         0.00000E+00        -0.40896E+04
 
   -0.38224E+04         0.65663E+04         0.00000E+00
    0.65663E+04        -0.99264E+04         0.00000E+00
    0.00000E+00         0.00000E+00        -0.41248E+04
 
   -0.39088E+04         0.63977E+04         0.00000E+00
    0.63977E+04        -0.99609E+04         0.00000E+00
    0.00000E+00         0.00000E+00        -0.41611E+04
 
   -0.40367E+04         0.63660E+04         0.00000E+00
    0.63660E+04        -0.99458E+04         0.00000E+00
    0.00000E+00         0.00000E+00        -0.41950E+04
 
   -0.41706E+04         0.64827E+04         0.00000E+00
    0.64827E+04        -0.99042E+04         0.00000E+00
    0.00000E+00         0.00000E+00        -0.42227E+04
 
   -0.80647E+04        -0.38413E+03         0.00000E+00
   -0.38413E+03         0.79132E+02         0.00000E+00
    0.00000E+00         0.00000E+00        -0.23957E+04
 
   -0.10146E+05        -0.58713E+03         0.00000E+00
   -0.58713E+03         0.35939E+03         0.00000E+00
    0.00000E+00         0.00000E+00        -0.29361E+04
 
   -0.12251E+05        -0.60533E+02         0.00000E+00
   -0.60533E+02         0.64815E+03         0.00000E+00
    0.00000E+00         0.00000E+00        -0.34809E+04
 
   -0.13935E+05         0.10248E+04         0.00000E+00
    0.10248E+04         0.73677E+03         0.00000E+00
    0.00000E+00         0.00000E+00        -0.39596E+04
 
   -0.14937E+05         0.24159E+04         0.00000E+00
    0.24159E+04         0.55900E+03         0.00000E+00
    0.00000E+00         0.00000E+00        -0.43134E+04
 
   -0.15207E+05         0.38420E+04         0.00000E+00
    0.38420E+04         0.10876E+03         0.00000E+00
    0.00000E+00         0.00000E+00        -0.45295E+04
 
   -0.14893E+05         0.50911E+04         0.00000E+00
    0.50911E+04        -0.49709E+03         0.00000E+00
    0.00000E+00         0.00000E+00        -0.46171E+04
 
   -0.14127E+05         0.61596E+04         0.00000E+00
    0.61596E+04        -0.10431E+04         0.00000E+00
    0.00000E+00         0.00000E+00        -0.45513E+04
 
   -0.13103E+05         0.70370E+04         0.00000E+00
    0.70370E+04        -0.16792E+04         0.00000E+00
    0.00000E+00         0.00000E+00        -0.44348E+04
 
   -0.11961E+05         0.77096E+04         0.00000E+00
    0.77096E+04        -0.24165E+04         0.00000E+00
    0.00000E+00         0.00000E+00        -0.43133E+04
 
   -0.10772E+05         0.82009E+04         0.00000E+00
    0.82009E+04        -0.32268E+04         0.00000E+00
    0.00000E+00         0.00000E+00        -0.41998E+04
 
   -0.95802E+04         0.85001E+04         0.00000E+00
    0.85001E+04        -0.40904E+04         0.00000E+00
    0.00000E+00         0.00000E+00        -0.41013E+04
 
   -0.84851E+04         0.86037E+04         0.00000E+00
    0.86037E+04        -0.50147E+04         0.00000E+00
    0.00000E+00         0.00000E+00        -0.40501E+04
 
   -0.74647E+04         0.85728E+04         0.00000E+00
    0.85728E+04        -0.58906E+04         0.00000E+00
    0.00000E+00         0.00000E+00        -0.40068E+04
 
   -0.65196E+04         0.83886E+04         0.00000E+00
    0.83886E+04        -0.66870E+04         0.00000E+00
    0.00000E+00         0.00000E+00        -0.39622E+04
 
   -0.57195E+04         0.80869E+04         0.00000E+00
    0.80869E+04        -0.73717E+04         0.00000E+00
    0.00000E+00         0.00000E+00        -0.39276E+04
 
   -0.50906E+04         0.77297E+04         0.00000E+00
    0.77297E+04        -0.79507E+04         0.00000E+00
    0.00000E+00         0.00000E+00        -0.39126E+04
 
   -0.46215E+04         0.73483E+04         0.00000E+00
    0.73483E+04        -0.84074E+04         0.00000E+00
    0.00000E+00         0.00000E+00        -0.39089E+04
 
   -0.43050E+04         0.69893E+04         0.00000E+00
    0.69893E+04        -0.87397E+04         0.00000E+00
    0.00000E+00         0.00000E+00        -0.39136E+04
 
   -0.41158E+04         0.66910E+04         0.00000E+00
    0.66910E+04        -0.89688E+04         0.00000E+00
    0.00000E+00         0.00000E+00        -0.39256E+04
 
   -0.40203E+04         0.64773E+04         0.00000E+00
    0.64773E+04        -0.91134E+04         0.00000E+00
    0.00000E+00         0.00000E+00        -0.39403E+04
 
   -0.39868E+04         0.63658E+04         0.00000E+00
    0.63658E+04        -0.91946E+04         0.00000E+00
    0.00000E+00         0.00000E+00        -0.39547E+04
 
   -0.39831E+04         0.63695E+04         0.00000E+00
    0.63695E+04        -0.92330E+04         0.00000E+00
    0.00000E+00         0.00000E+00        -0.39651E+04
 
   -0.39758E+04         0.64985E+04         0.00000E+00
    0.64985E+04        -0.92498E+04         0.00000E+00
    0.00000E+00         0.00000E+00        -0.39679E+04
 
   -0.85028E+04        -0.21785E+03         0.00000E+00
   -0.21785E+03         0.58385E+02         0.00000E+00
    0.00000E+00         0.00000E+00        -0.25333E+04
 
   -0.99670E+04        -0.28460E+03         0.00000E+00
   -0.28460E+03         0.27468E+03         0.00000E+00
    0.00000E+00         0.00000E+00        -0.29077E+04
 
   -0.11505E+05         0.15677E+03         0.00000E+00
    0.15677E+03         0.51984E+03         0.00000E+00
    0.00000E+00         0.00000E+00        -0.32954E+04
 
   -0.12792E+05         0.10248E+04         0.00000E+00
    0.10248E+04         0.63897E+03         0.00000E+00
    0.00000E+00         0.00000E+00        -0.36460E+04
 
   -0.13625E+05         0.21560E+04         0.00000E+00
    0.21560E+04         0.54337E+03         0.00000E+00
    0.00000E+00         0.00000E+00        -0.39246E+04
 
   -0.13935E+05         0.33665E+04         0.00000E+00
    0.33665E+04         0.22791E+03         0.00000E+00
    0.00000E+00         0.00000E+00        -0.41124E+04
 
   -0.13756E+05         0.45189E+04         0.00000E+00
    0.45189E+04        -0.25085E+03         0.00000E+00
    0.00000E+00         0.00000E+00        -0.42023E+04
 
   -0.13190E+05         0.55226E+04         0.00000E+00
    0.55226E+04        -0.85678E+03         0.00000E+00
    0.00000E+00         0.00000E+00        -0.42140E+04
 
   -0.12364E+05         0.63284E+04         0.00000E+00
    0.63284E+04        -0.15334E+04         0.00000E+00
    0.00000E+00         0.00000E+00        -0.41694E+04
 
   -0.11408E+05         0.69439E+04         0.00000E+00
    0.69439E+04        -0.22614E+04         0.00000E+00
    0.00000E+00         0.00000E+00        -0.41011E+04
 
   -0.10397E+05         0.73850E+04         0.00000E+00
    0.73850E+04        -0.30292E+04         0.00000E+00
    0.00000E+00         0.00000E+00        -0.40280E+04
 
   -0.93909E+04         0.76556E+04         0.00000E+00
    0.76556E+04        -0.38223E+04         0.00000E+00
    0.00000E+00         0.00000E+00        -0.39641E+04
 
   -0.84340E+04         0.77791E+04         0.00000E+00
    0.77791E+04        -0.46000E+04         0.00000E+00
    0.00000E+00         0.00000E+00        -0.39104E+04
 
   -0.75412E+04         0.77877E+04         0.00000E+00
    0.77877E+04        -0.53509E+04         0.00000E+00
    0.00000E+00         0.00000E+00        -0.38678E+04
 
   -0.67196E+04         0.76837E+04         0.00000E+00
    0.76837E+04        -0.60510E+04         0.00000E+00
    0.00000E+00         0.00000E+00        -0.38314E+04
 
   -0.60017E+04         0.74860E+04         0.00000E+00
    0.74860E+04        -0.66710E+04         0.00000E+00
    0.00000E+00         0.00000E+00        -0.38020E+04
 
   -0.54084E+04         0.72339E+04         0.00000E+00
    0.72339E+04        -0.71943E+04         0.00000E+00
    0.00000E+00         0.00000E+00        -0.37810E+04
 
   -0.49408E+04         0.69639E+04         0.00000E+00
    0.69639E+04        -0.76199E+04         0.00000E+00
    0.00000E+00         0.00000E+00        -0.37684E+04
 
   -0.45888E+04         0.67082E+04         0.00000E+00
    0.67082E+04        -0.79496E+04         0.00000E+00
    0.00000E+00         0.00000E+00        -0.37617E+04
 
   -0.43347E+04         0.64962E+04         0.00000E+00
    0.64962E+04        -0.81930E+04         0.00000E+00
    0.00000E+00         0.00000E+00        -0.37585E+04
 
   -0.41548E+04         0.63507E+04         0.00000E+00
    0.63507E+04        -0.83656E+04         0.00000E+00
    0.00000E+00         0.00000E+00        -0.37563E+04
 
   -0.40219E+04         0.62883E+04         0.00000E+00
    0.62883E+04        -0.84841E+04         0.00000E+00
    0.00000E+00         0.00000E+00        -0.37520E+04
 
   -0.39078E+04         0.63216E+04         0.00000E+00
    0.63216E+04        -0.85665E+04         0.00000E+00
    0.00000E+00         0.00000E+00        -0.37425E+04
 
   -0.37823E+04         0.64594E+04         0.00000E+00
    0.64594E+04        -0.86318E+04         0.00000E+00
    0.00000E+00         0.00000E+00        -0.37245E+04
 
   -0.87116E+04        -0.97278E+02         0.00000E+00
   -0.97278E+02         0.41219E+02         0.00000E+00
    0.00000E+00         0.00000E+00        -0.26011E+04
 
   -0.97628E+04        -0.52517E+02         0.00000E+00
   -0.52517E+02         0.19847E+03         0.00000E+00
    0.00000E+00         0.00000E+00        -0.28693E+04
 
   -0.10891E+05         0.34354E+03         0.00000E+00
    0.34354E+03         0.38622E+03         0.00000E+00
    0.00000E+00         0.00000E+00        -0.31514E+04
 
   -0.11869E+05         0.10547E+04         0.00000E+00
    0.10547E+04         0.48744E+03         0.00000E+00
    0.00000E+00         0.00000E+00        -0.34144E+04
 
   -0.12539E+05         0.19811E+04         0.00000E+00
    0.19811E+04         0.42912E+03         0.00000E+00
    0.00000E+00         0.00000E+00        -0.36329E+04
 
   -0.12826E+05         0.30007E+04         0.00000E+00
    0.30007E+04         0.18863E+03         0.00000E+00
    0.00000E+00         0.00000E+00        -0.37914E+04
 
   -0.12735E+05         0.40005E+04         0.00000E+00
    0.40005E+04        -0.22069E+03         0.00000E+00
    0.00000E+00         0.00000E+00        -0.38869E+04
 
   -0.12323E+05         0.48961E+04         0.00000E+00
    0.48961E+04        -0.76090E+03         0.00000E+00
    0.00000E+00         0.00000E+00        -0.39254E+04
 
   -0.11680E+05         0.56390E+04         0.00000E+00
    0.56390E+04        -0.13915E+04         0.00000E+00
    0.00000E+00         0.00000E+00        -0.39216E+04
 
   -0.10897E+05         0.62160E+04         0.00000E+00
    0.62160E+04        -0.20733E+04         0.00000E+00
    0.00000E+00         0.00000E+00        -0.38913E+04
 
   -0.10049E+05         0.66344E+04         0.00000E+00
    0.66344E+04        -0.27815E+04         0.00000E+00
    0.00000E+00         0.00000E+00        -0.38494E+04
 
   -0.91894E+04         0.69083E+04         0.00000E+00
    0.69083E+04        -0.34934E+04         0.00000E+00
    0.00000E+00         0.00000E+00        -0.38050E+04
 
   -0.83549E+04         0.70575E+04         0.00000E+00
    0.70575E+04        -0.41896E+04         0.00000E+00
    0.00000E+00         0.00000E+00        -0.37635E+04
 
   -0.75659E+04         0.71025E+04         0.00000E+00
    0.71025E+04        -0.48540E+04         0.00000E+00
    0.00000E+00         0.00000E+00        -0.37262E+04
 
   -0.68376E+04         0.70578E+04         0.00000E+00
    0.70578E+04        -0.54732E+04         0.00000E+00
    0.00000E+00         0.00000E+00        -0.36934E+04
 
   -0.61871E+04         0.69407E+04         0.00000E+00
    0.69407E+04        -0.60293E+04         0.00000E+00
    0.00000E+00         0.00000E+00        -0.36651E+04
 
   -0.56280E+04         0.67771E+04         0.00000E+00
    0.67771E+04        -0.65098E+04         0.00000E+00
    0.00000E+00         0.00000E+00        -0.36415E+04
 
   -0.51630E+04         0.65955E+04         0.00000E+00
    0.65955E+04        -0.69101E+04         0.00000E+00
    0.00000E+00         0.00000E+00        -0.36221E+04
 
   -0.47858E+04         0.64230E+04         0.00000E+00
    0.64230E+04        -0.72329E+04         0.00000E+00
    0.00000E+00         0.00000E+00        -0.36058E+04
 
   -0.44827E+04         0.62829E+04         0.00000E+00
    0.62829E+04        -0.74853E+04         0.00000E+00
    0.00000E+00         0.00000E+00        -0.35906E+04
 
   -0.42351E+04         0.61948E+04         0.00000E+00
    0.61948E+04        -0.76786E+04         0.00000E+00
    0.00000E+00         0.00000E+00        -0.35744E+04
 
   -0.40209E+04         0.61739E+04         0.00000E+00
    0.61739E+04        -0.78268E+04         0.00000E+00
    0.00000E+00         0.00000E+00        -0.35545E+04
 
   -0.38153E+04         0.62314E+04         0.00000E+00
    0.62314E+04        -0.79451E+04         0.00000E+00
    0.00000E+00         0.00000E+00        -0.35284E+04
 
   -0.35921E+04         0.63748E+04         0.00000E+00
    0.63748E+04        -0.80504E+04         0.00000E+00
    0.00000E+00         0.00000E+00        -0.34930E+04
 
   -0.87539E+04        -0.13730E+02         0.00000E+00
   -0.13730E+02         0.27824E+02         0.00000E+00
    0.00000E+00         0.00000E+00        -0.26178E+04
 
   -0.95299E+04         0.11397E+03         0.00000E+00
    0.11397E+03         0.13588E+03         0.00000E+00
    0.00000E+00         0.00000E+00        -0.28182E+04
 
   -0.10367E+05         0.48279E+03         0.00000E+00
    0.48279E+03         0.26701E+03         0.00000E+00
    0.00000E+00         0.00000E+00        -0.30301E+04
 
   -0.11109E+05         0.10808E+04         0.00000E+00
    0.10808E+04         0.33707E+03         0.00000E+00
    0.00000E+00         0.00000E+00        -0.32316E+04
 
   -0.11637E+05         0.18479E+04         0.00000E+00
    0.18479E+04         0.28655E+03         0.00000E+00
    0.00000E+00         0.00000E+00        -0.34051E+04
 
   -0.11886E+05         0.27005E+04         0.00000E+00
    0.27005E+04         0.87910E+02         0.00000E+00
    0.00000E+00         0.00000E+00        -0.35395E+04
 
   -0.11845E+05         0.35541E+04         0.00000E+00
    0.35541E+04        -0.25642E+03         0.00000E+00
    0.00000E+00         0.00000E+00        -0.36305E+04
 
   -0.11546E+05         0.43394E+04         0.00000E+00
    0.43394E+04        -0.72376E+03         0.00000E+00
    0.00000E+00         0.00000E+00        -0.36810E+04
 
   -0.11047E+05         0.50114E+04         0.00000E+00
    0.50114E+04        -0.12801E+04         0.00000E+00
    0.00000E+00         0.00000E+00        -0.36981E+04
 
   -0.10414E+05         0.55505E+04         0.00000E+00
    0.55505E+04        -0.18914E+04         0.00000E+00
    0.00000E+00         0.00000E+00        -0.36916E+04
 
   -0.97063E+04         0.59559E+04         0.00000E+00
    0.59559E+04        -0.25284E+04         0.00000E+00
    0.00000E+00         0.00000E+00        -0.36706E+04
 
   -0.89721E+04         0.62376E+04         0.00000E+00
    0.62376E+04        -0.31683E+04         0.00000E+00
    0.00000E+00         0.00000E+00        -0.36423E+04
 
   -0.82444E+04         0.64109E+04         0.00000E+00
    0.64109E+04        -0.37931E+04         0.00000E+00
    0.00000E+00         0.00000E+00        -0.36114E+04
 
   -0.75456E+04         0.64926E+04         0.00000E+00
    0.64926E+04        -0.43892E+04         0.00000E+00
    0.00000E+00         0.00000E+00        -0.35806E+04
 
   -0.68918E+04         0.64983E+04         0.00000E+00
    0.64983E+04        -0.49444E+04         0.00000E+00
    0.00000E+00         0.00000E+00        -0.35510E+04
 
   -0.62959E+04         0.64447E+04         0.00000E+00
    0.64447E+04        -0.54476E+04         0.00000E+00
    0.00000E+00         0.00000E+00        -0.35232E+04
 
   -0.57669E+04         0.63521E+04         0.00000E+00
    0.63521E+04        -0.58900E+04         0.00000E+00
    0.00000E+00         0.00000E+00        -0.34973E+04
 
   -0.53071E+04         0.62425E+04         0.00000E+00
    0.62425E+04        -0.62680E+04         0.00000E+00
    0.00000E+00         0.00000E+00        -0.34727E+04
 
   -0.49120E+04         0.61375E+04         0.00000E+00
    0.61375E+04        -0.65827E+04         0.00000E+00
    0.00000E+00         0.00000E+00        -0.34486E+04
 
   -0.45714E+04         0.60566E+04         0.00000E+00
    0.60566E+04        -0.68400E+04         0.00000E+00
    0.00000E+00         0.00000E+00        -0.34236E+04
 
   -0.42702E+04         0.60163E+04         0.00000E+00
    0.60163E+04        -0.70487E+04         0.00000E+00
    0.00000E+00         0.00000E+00        -0.33959E+04
 
   -0.39899E+04         0.60296E+04         0.00000E+00
    0.60296E+04        -0.72201E+04         0.00000E+00
    0.00000E+00         0.00000E+00        -0.33632E+04
 
   -0.37097E+04         0.61064E+04         0.00000E+00
    0.61064E+04        -0.73675E+04         0.00000E+00
    0.00000E+00         0.00000E+00        -0.33234E+04
 
   -0.34065E+04         0.62530E+04         0.00000E+00
    0.62530E+04        -0.75053E+04         0.00000E+00
    0.00000E+00         0.00000E+00        -0.32738E+04
 
   -0.86818E+04         0.41390E+02         0.00000E+00
    0.41390E+02         0.17830E+02         0.00000E+00
    0.00000E+00         0.00000E+00        -0.25992E+04
 
   -0.92744E+04         0.22544E+03         0.00000E+00
    0.22544E+03         0.87376E+02         0.00000E+00
    0.00000E+00         0.00000E+00        -0.27561E+04
 
   -0.99070E+04         0.57488E+03         0.00000E+00
    0.57488E+03         0.17054E+03         0.00000E+00
    0.00000E+00         0.00000E+00        -0.29210E+04
 
   -0.10473E+05         0.10893E+04         0.00000E+00
    0.10893E+04         0.20775E+03         0.00000E+00
    0.00000E+00         0.00000E+00        -0.30795E+04
 
   -0.10885E+05         0.17326E+04         0.00000E+00
    0.17326E+04         0.15290E+03         0.00000E+00
    0.00000E+00         0.00000E+00        -0.32197E+04
 
   -0.11092E+05         0.24482E+04         0.00000E+00
    0.24482E+04        -0.19062E+02         0.00000E+00
    0.00000E+00         0.00000E+00        -0.33334E+04
 
   -0.11077E+05         0.31747E+04         0.00000E+00
    0.31747E+04        -0.31170E+03         0.00000E+00
    0.00000E+00         0.00000E+00        -0.34168E+04
 
   -0.10857E+05         0.38580E+04         0.00000E+00
    0.38580E+04        -0.71105E+03         0.00000E+00
    0.00000E+00         0.00000E+00        -0.34705E+04
 
   -0.10467E+05         0.44597E+04         0.00000E+00
    0.44597E+04        -0.11927E+04         0.00000E+00
    0.00000E+00         0.00000E+00        -0.34981E+04
 
   -0.99551E+04         0.49588E+04         0.00000E+00
    0.49588E+04        -0.17287E+04         0.00000E+00
    0.00000E+00         0.00000E+00        -0.35053E+04
 
   -0.93663E+04         0.53494E+04         0.00000E+00
    0.53494E+04        -0.22930E+04         0.00000E+00
    0.00000E+00         0.00000E+00        -0.34979E+04
 
   -0.87396E+04         0.56363E+04         0.00000E+00
    0.56363E+04        -0.28637E+04         0.00000E+00
    0.00000E+00         0.00000E+00        -0.34811E+04
 
   -0.81051E+04         0.58301E+04         0.00000E+00
    0.58301E+04        -0.34238E+04         0.00000E+00
    0.00000E+00         0.00000E+00        -0.34588E+04
 
   -0.74846E+04         0.59442E+04         0.00000E+00
    0.59442E+04        -0.39600E+04         0.00000E+00
    0.00000E+00         0.00000E+00        -0.34335E+04
 
   -0.68936E+04         0.59928E+04         0.00000E+00
    0.59928E+04        -0.44617E+04         0.00000E+00
    0.00000E+00         0.00000E+00        -0.34068E+04
 
   -0.63434E+04         0.59909E+04         0.00000E+00
    0.59909E+04        -0.49204E+04         0.00000E+00
    0.00000E+00         0.00000E+00        -0.33793E+04
 
   -0.58408E+04         0.59555E+04         0.00000E+00
    0.59555E+04        -0.53298E+04         0.00000E+00
    0.00000E+00         0.00000E+00        -0.33514E+04
 
   -0.53876E+04         0.59042E+04         0.00000E+00
    0.59042E+04        -0.56870E+04         0.00000E+00
    0.00000E+00         0.00000E+00        -0.33226E+04
 
   -0.49804E+04         0.58543E+04         0.00000E+00
    0.58543E+04        -0.59931E+04         0.00000E+00
    0.00000E+00         0.00000E+00        -0.32923E+04
 
   -0.46112E+04         0.58218E+04         0.00000E+00
    0.58218E+04        -0.62524E+04         0.00000E+00
    0.00000E+00         0.00000E+00        -0.32593E+04
 
   -0.42678E+04         0.58206E+04         0.00000E+00
    0.58206E+04        -0.64720E+04         0.00000E+00
    0.00000E+00         0.00000E+00        -0.32222E+04
 
   -0.39348E+04         0.58618E+04         0.00000E+00
    0.58618E+04        -0.66615E+04         0.00000E+00
    0.00000E+00         0.00000E+00        -0.31791E+04
 
   -0.35943E+04         0.59535E+04         0.00000E+00
    0.59535E+04        -0.68319E+04         0.00000E+00
    0.00000E+00         0.00000E+00        -0.31281E+04
 
   -0.32268E+04         0.61011E+04         0.00000E+00
    0.61011E+04        -0.69958E+04         0.00000E+00
    0.00000E+00         0.00000E+00        -0.30670E+04
 
   -0.85357E+04         0.75553E+02         0.00000E+00
    0.75553E+02         0.10632E+02         0.00000E+00
    0.00000E+00         0.00000E+00        -0.25575E+04
 
   -0.90053E+04         0.29401E+03         0.00000E+00
    0.29401E+03         0.51549E+02         0.00000E+00
    0.00000E+00         0.00000E+00        -0.26861E+04
 
   -0.94940E+04         0.62659E+03         0.00000E+00
    0.62659E+03         0.97058E+02         0.00000E+00
    0.00000E+00         0.00000E+00        -0.28191E+04
 
   -0.99301E+04         0.10774E+04         0.00000E+00
    0.10774E+04         0.10576E+03         0.00000E+00
    0.00000E+00         0.00000E+00        -0.29474E+04
 
   -0.10252E+05         0.16248E+04         0.00000E+00
    0.16248E+04         0.43315E+02         0.00000E+00
    0.00000E+00         0.00000E+00        -0.30628E+04
 
   -0.10420E+05         0.22308E+04         0.00000E+00
    0.22308E+04        -0.11117E+03         0.00000E+00
    0.00000E+00         0.00000E+00        -0.31595E+04
 
   -0.10417E+05         0.28513E+04         0.00000E+00
    0.28513E+04        -0.36325E+03         0.00000E+00
    0.00000E+00         0.00000E+00        -0.32343E+04
 
   -0.10250E+05         0.34454E+04         0.00000E+00
    0.34454E+04        -0.70512E+03         0.00000E+00
    0.00000E+00         0.00000E+00        -0.32867E+04
 
   -0.99420E+04         0.39815E+04         0.00000E+00
    0.39815E+04        -0.11197E+04         0.00000E+00
    0.00000E+00         0.00000E+00        -0.33186E+04
 
   -0.95247E+04         0.44400E+04         0.00000E+00
    0.44400E+04        -0.15854E+04         0.00000E+00
    0.00000E+00         0.00000E+00        -0.33332E+04
 
   -0.90324E+04         0.48125E+04         0.00000E+00
    0.48125E+04        -0.20808E+04         0.00000E+00
    0.00000E+00         0.00000E+00        -0.33341E+04
 
   -0.84963E+04         0.50999E+04         0.00000E+00
    0.50999E+04        -0.25865E+04         0.00000E+00
    0.00000E+00         0.00000E+00        -0.33250E+04
 
   -0.79419E+04         0.53089E+04         0.00000E+00
    0.53089E+04        -0.30868E+04         0.00000E+00
    0.00000E+00         0.00000E+00        -0.33088E+04
 
   -0.73891E+04         0.54494E+04         0.00000E+00
    0.54494E+04        -0.35692E+04         0.00000E+00
    0.00000E+00         0.00000E+00        -0.32877E+04
 
   -0.68522E+04         0.55333E+04         0.00000E+00
    0.55333E+04        -0.40241E+04         0.00000E+00
    0.00000E+00         0.00000E+00        -0.32631E+04
 
   -0.63413E+04         0.55737E+04         0.00000E+00
    0.55737E+04        -0.44440E+04         0.00000E+00
    0.00000E+00         0.00000E+00        -0.32358E+04
 
   -0.58622E+04         0.55845E+04         0.00000E+00
    0.55845E+04        -0.48241E+04         0.00000E+00
    0.00000E+00         0.00000E+00        -0.32061E+04
 
   -0.54165E+04         0.55801E+04         0.00000E+00
    0.55801E+04        -0.51622E+04         0.00000E+00
    0.00000E+00         0.00000E+00        -0.31738E+04
 
   -0.50017E+04         0.55749E+04         0.00000E+00
    0.55749E+04        -0.54590E+04         0.00000E+00
    0.00000E+00         0.00000E+00        -0.31384E+04
 
   -0.46112E+04         0.55817E+04         0.00000E+00
    0.55817E+04        -0.57180E+04         0.00000E+00
    0.00000E+00         0.00000E+00        -0.30990E+04
 
   -0.42351E+04         0.56122E+04         0.00000E+00
    0.56122E+04        -0.59451E+04         0.00000E+00
    0.00000E+00         0.00000E+00        -0.30543E+04
 
   -0.38605E+04         0.56755E+04         0.00000E+00
    0.56755E+04        -0.61481E+04         0.00000E+00
    0.00000E+00         0.00000E+00        -0.30028E+04
 
   -0.34723E+04         0.57784E+04         0.00000E+00
    0.57784E+04        -0.63365E+04         0.00000E+00
    0.00000E+00         0.00000E+00        -0.29429E+04
 
   -0.30538E+04         0.59252E+04         0.00000E+00
    0.59252E+04        -0.65209E+04         0.00000E+00
    0.00000E+00         0.00000E+00        -0.28726E+04
 
   -0.83457E+04         0.94825E+02         0.00000E+00
    0.94825E+02         0.56205E+01         0.00000E+00
    0.00000E+00         0.00000E+00        -0.25020E+04
 
   -0.87312E+04         0.33080E+03         0.00000E+00
    0.33080E+03         0.26092E+02         0.00000E+00
    0.00000E+00         0.00000E+00        -0.26115E+04
 
   -0.91185E+04         0.64666E+03         0.00000E+00
    0.64666E+03         0.43735E+02         0.00000E+00
    0.00000E+00         0.00000E+00        -0.27225E+04
 
   -0.94601E+04         0.10475E+04         0.00000E+00
    0.10475E+04         0.30232E+02         0.00000E+00
    0.00000E+00         0.00000E+00        -0.28290E+04
 
   -0.97130E+04         0.15202E+04         0.00000E+00
    0.15202E+04        -0.39344E+02         0.00000E+00
    0.00000E+00         0.00000E+00        -0.29258E+04
 
   -0.98470E+04         0.20391E+04         0.00000E+00
    0.20391E+04        -0.18143E+03         0.00000E+00
    0.00000E+00         0.00000E+00        -0.30086E+04
 
   -0.98476E+04         0.25730E+04         0.00000E+00
    0.25730E+04        -0.40189E+03         0.00000E+00
    0.00000E+00         0.00000E+00        -0.30749E+04
 
   -0.97166E+04         0.30913E+04         0.00000E+00
    0.30913E+04        -0.69659E+03         0.00000E+00
    0.00000E+00         0.00000E+00        -0.31241E+04
 
   -0.94679E+04         0.35686E+04         0.00000E+00
    0.35686E+04        -0.10539E+04         0.00000E+00
    0.00000E+00         0.00000E+00        -0.31566E+04
 
   -0.91236E+04         0.39878E+04         0.00000E+00
    0.39878E+04        -0.14578E+04         0.00000E+00
    0.00000E+00         0.00000E+00        -0.31745E+04
 
   -0.87086E+04         0.43400E+04         0.00000E+00
    0.43400E+04        -0.18911E+04         0.00000E+00
    0.00000E+00         0.00000E+00        -0.31801E+04
 
   -0.82473E+04         0.46235E+04         0.00000E+00
    0.46235E+04        -0.23376E+04         0.00000E+00
    0.00000E+00         0.00000E+00        -0.31756E+04
 
   -0.77606E+04         0.48420E+04         0.00000E+00
    0.48420E+04        -0.27833E+04         0.00000E+00
    0.00000E+00         0.00000E+00        -0.31634E+04
 
   -0.72658E+04         0.50025E+04         0.00000E+00
    0.50025E+04        -0.32170E+04         0.00000E+00
    0.00000E+00         0.00000E+00        -0.31450E+04
 
   -0.67756E+04         0.51145E+04         0.00000E+00
    0.51145E+04        -0.36298E+04         0.00000E+00
    0.00000E+00         0.00000E+00        -0.31218E+04
 
   -0.62991E+04         0.51887E+04         0.00000E+00
    0.51887E+04        -0.40151E+04         0.00000E+00
    0.00000E+00         0.00000E+00        -0.30944E+04
 
   -0.58413E+04         0.52365E+04         0.00000E+00
    0.52365E+04        -0.43688E+04         0.00000E+00
    0.00000E+00         0.00000E+00        -0.30632E+04
 
   -0.54039E+04         0.52700E+04         0.00000E+00
    0.52700E+04        -0.46889E+04         0.00000E+00
    0.00000E+00         0.00000E+00        -0.30281E+04
 
   -0.49850E+04         0.53006E+04         0.00000E+00
    0.53006E+04        -0.49761E+04         0.00000E+00
    0.00000E+00         0.00000E+00        -0.29885E+04
 
   -0.45791E+04         0.53390E+04         0.00000E+00
    0.53390E+04        -0.52331E+04         0.00000E+00
    0.00000E+00         0.00000E+00        -0.29439E+04
 
   -0.41782E+04         0.53947E+04         0.00000E+00
    0.53947E+04        -0.54647E+04         0.00000E+00
    0.00000E+00         0.00000E+00        -0.28931E+04
 
   -0.37715E+04         0.54753E+04         0.00000E+00
    0.54753E+04        -0.56775E+04         0.00000E+00
    0.00000E+00         0.00000E+00        -0.28349E+04
 
   -0.33462E+04         0.55861E+04         0.00000E+00
    0.55861E+04        -0.58795E+04         0.00000E+00
    0.00000E+00         0.00000E+00        -0.27679E+04
 
   -0.28882E+04         0.57306E+04         0.00000E+00
    0.57306E+04        -0.60796E+04         0.00000E+00
    0.00000E+00         0.00000E+00        -0.26906E+04
 
   -0.81333E+04         0.10386E+03         0.00000E+00
    0.10386E+03         0.22419E+01         0.00000E+00
    0.00000E+00         0.00000E+00        -0.24393E+04
 
   -0.84595E+04         0.34503E+03         0.00000E+00
    0.34503E+03         0.86606E+01         0.00000E+00
    0.00000E+00         0.00000E+00        -0.25353E+04
 
   -0.87745E+04         0.64353E+03         0.00000E+00
    0.64353E+03         0.67064E+01         0.00000E+00
    0.00000E+00         0.00000E+00        -0.26304E+04
 
   -0.90469E+04         0.10037E+04         0.00000E+00
    0.10037E+04        -0.22747E+02         0.00000E+00
    0.00000E+00         0.00000E+00        -0.27209E+04
 
   -0.92471E+04         0.14174E+04         0.00000E+00
    0.14174E+04        -0.97437E+02         0.00000E+00
    0.00000E+00         0.00000E+00        -0.28034E+04
 
   -0.93530E+04         0.18672E+04         0.00000E+00
    0.18672E+04        -0.22984E+03         0.00000E+00
    0.00000E+00         0.00000E+00        -0.28749E+04
 
   -0.93528E+04         0.23309E+04         0.00000E+00
    0.23309E+04        -0.42522E+03         0.00000E+00
    0.00000E+00         0.00000E+00        -0.29335E+04
 
   -0.92458E+04         0.27855E+04         0.00000E+00
    0.27855E+04        -0.68162E+03         0.00000E+00
    0.00000E+00         0.00000E+00        -0.29783E+04
 
   -0.90404E+04         0.32114E+04         0.00000E+00
    0.32114E+04        -0.99115E+03         0.00000E+00
    0.00000E+00         0.00000E+00        -0.30096E+04
 
   -0.87517E+04         0.35941E+04         0.00000E+00
    0.35941E+04        -0.13421E+04         0.00000E+00
    0.00000E+00         0.00000E+00        -0.30283E+04
 
   -0.83978E+04         0.39251E+04         0.00000E+00
    0.39251E+04        -0.17211E+04         0.00000E+00
    0.00000E+00         0.00000E+00        -0.30358E+04
 
   -0.79973E+04         0.42013E+04         0.00000E+00
    0.42013E+04        -0.21150E+04         0.00000E+00
    0.00000E+00         0.00000E+00        -0.30338E+04
 
   -0.75671E+04         0.44243E+04         0.00000E+00
    0.44243E+04        -0.25118E+04         0.00000E+00
    0.00000E+00         0.00000E+00        -0.30238E+04
 
   -0.71214E+04         0.45989E+04         0.00000E+00
    0.45989E+04        -0.29016E+04         0.00000E+00
    0.00000E+00         0.00000E+00        -0.30071E+04
 
   -0.66714E+04         0.47323E+04         0.00000E+00
    0.47323E+04        -0.32764E+04         0.00000E+00
    0.00000E+00         0.00000E+00        -0.29845E+04
 
   -0.62250E+04         0.48328E+04         0.00000E+00
    0.48328E+04        -0.36304E+04         0.00000E+00
    0.00000E+00         0.00000E+00        -0.29568E+04
 
   -0.57867E+04         0.49100E+04         0.00000E+00
    0.49100E+04        -0.39598E+04         0.00000E+00
    0.00000E+00         0.00000E+00        -0.29242E+04
 
   -0.53581E+04         0.49734E+04         0.00000E+00
    0.49734E+04        -0.42630E+04         0.00000E+00
    0.00000E+00         0.00000E+00        -0.28866E+04
 
   -0.49378E+04         0.50324E+04         0.00000E+00
    0.50324E+04        -0.45403E+04         0.00000E+00
    0.00000E+00         0.00000E+00        -0.28436E+04
 
   -0.45214E+04         0.50958E+04         0.00000E+00
    0.50958E+04        -0.47938E+04         0.00000E+00
    0.00000E+00         0.00000E+00        -0.27948E+04
 
   -0.41023E+04         0.51713E+04         0.00000E+00
    0.51713E+04        -0.50276E+04         0.00000E+00
    0.00000E+00         0.00000E+00        -0.27392E+04
 
   -0.36715E+04         0.52649E+04         0.00000E+00
    0.52649E+04        -0.52470E+04         0.00000E+00
    0.00000E+00         0.00000E+00        -0.26758E+04
 
   -0.32182E+04         0.53809E+04         0.00000E+00
    0.53809E+04        -0.54588E+04         0.00000E+00
    0.00000E+00         0.00000E+00        -0.26033E+04
 
   -0.27305E+04         0.55219E+04         0.00000E+00
    0.55219E+04        -0.56706E+04         0.00000E+00
    0.00000E+00         0.00000E+00        -0.25206E+04
 
   -0.79133E+04         0.10609E+03         0.00000E+00
    0.10609E+03         0.44624E-01         0.00000E+00
    0.00000E+00         0.00000E+00        -0.23740E+04
 
   -0.81959E+04         0.34395E+03         0.00000E+00
    0.34395E+03        -0.28050E+01         0.00000E+00
    0.00000E+00         0.00000E+00        -0.24596E+04
 
   -0.84581E+04         0.62437E+03         0.00000E+00
    0.62437E+03        -0.17832E+02         0.00000E+00
    0.00000E+00         0.00000E+00        -0.25428E+04
 
   -0.86794E+04         0.95043E+03         0.00000E+00
    0.95043E+03        -0.57834E+02         0.00000E+00
    0.00000E+00         0.00000E+00        -0.26212E+04
 
   -0.88396E+04         0.13167E+04         0.00000E+00
    0.13167E+04        -0.13524E+03         0.00000E+00
    0.00000E+00         0.00000E+00        -0.26925E+04
 
   -0.89227E+04         0.17112E+04         0.00000E+00
    0.17112E+04        -0.25926E+03         0.00000E+00
    0.00000E+00         0.00000E+00        -0.27547E+04
 
   -0.89195E+04         0.21177E+04         0.00000E+00
    0.21177E+04        -0.43426E+03         0.00000E+00
    0.00000E+00         0.00000E+00        -0.28062E+04
 
   -0.88284E+04         0.25194E+04         0.00000E+00
    0.25194E+04        -0.65943E+03         0.00000E+00
    0.00000E+00         0.00000E+00        -0.28465E+04
 
   -0.86545E+04         0.29011E+04         0.00000E+00
    0.29011E+04        -0.92943E+03         0.00000E+00
    0.00000E+00         0.00000E+00        -0.28753E+04
 
   -0.84079E+04         0.32506E+04         0.00000E+00
    0.32506E+04        -0.12357E+04         0.00000E+00
    0.00000E+00         0.00000E+00        -0.28932E+04
 
   -0.81018E+04         0.35605E+04         0.00000E+00
    0.35605E+04        -0.15681E+04         0.00000E+00
    0.00000E+00         0.00000E+00        -0.29011E+04
 
   -0.77501E+04         0.38271E+04         0.00000E+00
    0.38271E+04        -0.19160E+04         0.00000E+00
    0.00000E+00         0.00000E+00        -0.29000E+04
 
   -0.73663E+04         0.40507E+04         0.00000E+00
    0.40507E+04        -0.22695E+04         0.00000E+00
    0.00000E+00         0.00000E+00        -0.28909E+04
 
   -0.69619E+04         0.42343E+04         0.00000E+00
    0.42343E+04        -0.26200E+04         0.00000E+00
    0.00000E+00         0.00000E+00        -0.28748E+04
 
   -0.65463E+04         0.43830E+04         0.00000E+00
    0.43830E+04        -0.29607E+04         0.00000E+00
    0.00000E+00         0.00000E+00        -0.28523E+04
 
   -0.61262E+04         0.45036E+04         0.00000E+00
    0.45036E+04        -0.32864E+04         0.00000E+00
    0.00000E+00         0.00000E+00        -0.28239E+04
 
   -0.57056E+04         0.46033E+04         0.00000E+00
    0.46033E+04        -0.35935E+04         0.00000E+00
    0.00000E+00         0.00000E+00        -0.27900E+04
 
   -0.52862E+04         0.46900E+04         0.00000E+00
    0.46900E+04        -0.38806E+04         0.00000E+00
    0.00000E+00         0.00000E+00        -0.27503E+04
 
   -0.48668E+04         0.47712E+04         0.00000E+00
    0.47712E+04        -0.41478E+04         0.00000E+00
    0.00000E+00         0.00000E+00        -0.27046E+04
 
   -0.44439E+04         0.48540E+04         0.00000E+00
    0.48540E+04        -0.43967E+04         0.00000E+00
    0.00000E+00         0.00000E+00        -0.26524E+04
 
   -0.40120E+04         0.49444E+04         0.00000E+00
    0.49444E+04        -0.46306E+04         0.00000E+00
    0.00000E+00         0.00000E+00        -0.25930E+04
 
   -0.35638E+04         0.50475E+04         0.00000E+00
    0.50475E+04        -0.48541E+04         0.00000E+00
    0.00000E+00         0.00000E+00        -0.25256E+04
 
   -0.30902E+04         0.51664E+04         0.00000E+00
    0.51664E+04        -0.50726E+04         0.00000E+00
    0.00000E+00         0.00000E+00        -0.24491E+04
 
   -0.25810E+04         0.53029E+04         0.00000E+00
    0.53029E+04        -0.52927E+04         0.00000E+00
    0.00000E+00         0.00000E+00        -0.23623E+04
 
   -0.76952E+04         0.10398E+03         0.00000E+00
    0.10398E+03        -0.13200E+01         0.00000E+00
    0.00000E+00         0.00000E+00        -0.23090E+04
 
   -0.79442E+04         0.33294E+03         0.00000E+00
    0.33294E+03        -0.99733E+01         0.00000E+00
    0.00000E+00         0.00000E+00        -0.23863E+04
 
   -0.81668E+04         0.59489E+03         0.00000E+00
    0.59489E+03        -0.33159E+02         0.00000E+00
    0.00000E+00         0.00000E+00        -0.24600E+04
 
   -0.83498E+04         0.89152E+03         0.00000E+00
    0.89152E+03        -0.79395E+02         0.00000E+00
    0.00000E+00         0.00000E+00        -0.25288E+04
 
   -0.84793E+04         0.12189E+04         0.00000E+00
    0.12189E+04        -0.15729E+03         0.00000E+00
    0.00000E+00         0.00000E+00        -0.25910E+04
 
   -0.85439E+04         0.15684E+04         0.00000E+00
    0.15684E+04        -0.27350E+03         0.00000E+00
    0.00000E+00         0.00000E+00        -0.26453E+04
 
   -0.85369E+04         0.19283E+04         0.00000E+00
    0.19283E+04        -0.43144E+03         0.00000E+00
    0.00000E+00         0.00000E+00        -0.26906E+04
 
   -0.84562E+04         0.22860E+04         0.00000E+00
    0.22860E+04        -0.63086E+03         0.00000E+00
    0.00000E+00         0.00000E+00        -0.27262E+04
 
   -0.83049E+04         0.26297E+04         0.00000E+00
    0.26297E+04        -0.86810E+03         0.00000E+00
    0.00000E+00         0.00000E+00        -0.27520E+04
 
   -0.80901E+04         0.29496E+04         0.00000E+00
    0.29496E+04        -0.11370E+04         0.00000E+00
    0.00000E+00         0.00000E+00        -0.27683E+04
 
   -0.78211E+04         0.32392E+04         0.00000E+00
    0.32392E+04        -0.14296E+04         0.00000E+00
    0.00000E+00         0.00000E+00        -0.27754E+04
 
   -0.75084E+04         0.34949E+04         0.00000E+00
    0.34949E+04        -0.17378E+04         0.00000E+00
    0.00000E+00         0.00000E+00        -0.27740E+04
 
   -0.71624E+04         0.37160E+04         0.00000E+00
    0.37160E+04        -0.20535E+04         0.00000E+00
    0.00000E+00         0.00000E+00        -0.27649E+04
 
   -0.67923E+04         0.39043E+04         0.00000E+00
    0.39043E+04        -0.23694E+04         0.00000E+00
    0.00000E+00         0.00000E+00        -0.27487E+04
 
   -0.64059E+04         0.40635E+04         0.00000E+00
    0.40635E+04        -0.26796E+04         0.00000E+00
    0.00000E+00         0.00000E+00        -0.27258E+04
 
   -0.60087E+04         0.41985E+04         0.00000E+00
    0.41985E+04        -0.29795E+04         0.00000E+00
    0.00000E+00         0.00000E+00        -0.26967E+04
 
   -0.56043E+04         0.43151E+04         0.00000E+00
    0.43151E+04        -0.32662E+04         0.00000E+00
    0.00000E+00         0.00000E+00        -0.26614E+04
 
   -0.51941E+04         0.44194E+04         0.00000E+00
    0.44194E+04        -0.35380E+04         0.00000E+00
    0.00000E+00         0.00000E+00        -0.26199E+04
 
   -0.47773E+04         0.45174E+04         0.00000E+00
    0.45174E+04        -0.37950E+04         0.00000E+00
    0.00000E+00         0.00000E+00        -0.25719E+04
 
   -0.43512E+04         0.46148E+04         0.00000E+00
    0.46148E+04        -0.40385E+04         0.00000E+00
    0.00000E+00         0.00000E+00        -0.25171E+04
 
   -0.39111E+04         0.47163E+04         0.00000E+00
    0.47163E+04        -0.42710E+04         0.00000E+00
    0.00000E+00         0.00000E+00        -0.24549E+04
 
   -0.34511E+04         0.48258E+04         0.00000E+00
    0.48258E+04        -0.44963E+04         0.00000E+00
    0.00000E+00         0.00000E+00        -0.23844E+04
 
   -0.29635E+04         0.49456E+04         0.00000E+00
    0.49456E+04        -0.47189E+04         0.00000E+00
    0.00000E+00         0.00000E+00        -0.23050E+04
 
   -0.24400E+04         0.50769E+04         0.00000E+00
    0.50769E+04        -0.49443E+04         0.00000E+00
    0.00000E+00         0.00000E+00        -0.22155E+04
 
   -0.74852E+04         0.99252E+02         0.00000E+00
    0.99252E+02        -0.21112E+01         0.00000E+00
    0.00000E+00         0.00000E+00        -0.22462E+04
 
   -0.77068E+04         0.31593E+03         0.00000E+00
    0.31593E+03        -0.14128E+02         0.00000E+00
    0.00000E+00         0.00000E+00        -0.23163E+04
 
   -0.78986E+04         0.55937E+03         0.00000E+00
    0.55937E+03        -0.41907E+02         0.00000E+00
    0.00000E+00         0.00000E+00        -0.23822E+04
 
   -0.80520E+04         0.83007E+03         0.00000E+00
    0.83007E+03        -0.91113E+02         0.00000E+00
    0.00000E+00         0.00000E+00        -0.24430E+04
 
   -0.81575E+04         0.11249E+04         0.00000E+00
    0.11249E+04        -0.16767E+03         0.00000E+00
    0.00000E+00         0.00000E+00        -0.24976E+04
 
   -0.82073E+04         0.14373E+04         0.00000E+00
    0.14373E+04        -0.27630E+03         0.00000E+00
    0.00000E+00         0.00000E+00        -0.25451E+04
 
   -0.81960E+04         0.17587E+04         0.00000E+00
    0.17587E+04        -0.41958E+03         0.00000E+00
    0.00000E+00         0.00000E+00        -0.25848E+04
 
   -0.81220E+04         0.20796E+04         0.00000E+00
    0.20796E+04        -0.59746E+03         0.00000E+00
    0.00000E+00         0.00000E+00        -0.26159E+04
 
   -0.79872E+04         0.23907E+04         0.00000E+00
    0.23907E+04        -0.80742E+03         0.00000E+00
    0.00000E+00         0.00000E+00        -0.26385E+04
 
   -0.77962E+04         0.26844E+04         0.00000E+00
    0.26844E+04        -0.10449E+04         0.00000E+00
    0.00000E+00         0.00000E+00        -0.26525E+04
 
   -0.75559E+04         0.29550E+04         0.00000E+00
    0.29550E+04        -0.13040E+04         0.00000E+00
    0.00000E+00         0.00000E+00        -0.26581E+04
 
   -0.72740E+04         0.31990E+04         0.00000E+00
    0.31990E+04        -0.15781E+04         0.00000E+00
    0.00000E+00         0.00000E+00        -0.26558E+04
 
   -0.69586E+04         0.34155E+04         0.00000E+00
    0.34155E+04        -0.18609E+04         0.00000E+00
    0.00000E+00         0.00000E+00        -0.26460E+04
 
   -0.66169E+04         0.36052E+04         0.00000E+00
    0.36052E+04        -0.21464E+04         0.00000E+00
    0.00000E+00         0.00000E+00        -0.26291E+04
 
   -0.62551E+04         0.37707E+04         0.00000E+00
    0.37707E+04        -0.24295E+04         0.00000E+00
    0.00000E+00         0.00000E+00        -0.26055E+04
 
   -0.58778E+04         0.39155E+04         0.00000E+00
    0.39155E+04        -0.27063E+04         0.00000E+00
    0.00000E+00         0.00000E+00        -0.25754E+04
 
   -0.54881E+04         0.40442E+04         0.00000E+00
    0.40442E+04        -0.29742E+04         0.00000E+00
    0.00000E+00         0.00000E+00        -0.25389E+04
 
   -0.50871E+04         0.41613E+04         0.00000E+00
    0.41613E+04        -0.32317E+04         0.00000E+00
    0.00000E+00         0.00000E+00        -0.24958E+04
 
   -0.46743E+04         0.42716E+04         0.00000E+00
    0.42716E+04        -0.34786E+04         0.00000E+00
    0.00000E+00         0.00000E+00        -0.24461E+04
 
   -0.42475E+04         0.43795E+04         0.00000E+00
    0.43795E+04        -0.37159E+04         0.00000E+00
    0.00000E+00         0.00000E+00        -0.23892E+04
 
   -0.38030E+04         0.44886E+04         0.00000E+00
    0.44886E+04        -0.39457E+04         0.00000E+00
    0.00000E+00         0.00000E+00        -0.23248E+04
 
   -0.33357E+04         0.46020E+04         0.00000E+00
    0.46020E+04        -0.41711E+04         0.00000E+00
    0.00000E+00         0.00000E+00        -0.22523E+04
 
   -0.28395E+04         0.47211E+04         0.00000E+00
    0.47211E+04        -0.43957E+04         0.00000E+00
    0.00000E+00         0.00000E+00        -0.21708E+04
 
   -0.23075E+04         0.48466E+04         0.00000E+00
    0.48466E+04        -0.46240E+04         0.00000E+00
    0.00000E+00         0.00000E+00        -0.20797E+04
 
   -0.72870E+04         0.93090E+02         0.00000E+00
    0.93090E+02        -0.25167E+01         0.00000E+00
    0.00000E+00         0.00000E+00        -0.21868E+04
 
   -0.74849E+04         0.29567E+03         0.00000E+00
    0.29567E+03        -0.16224E+02         0.00000E+00
    0.00000E+00         0.00000E+00        -0.22504E+04
 
   -0.76518E+04         0.52092E+03         0.00000E+00
    0.52092E+03        -0.46091E+02         0.00000E+00
    0.00000E+00         0.00000E+00        -0.23094E+04
 
   -0.77816E+04         0.76842E+03         0.00000E+00
    0.76842E+03        -0.95917E+02         0.00000E+00
    0.00000E+00         0.00000E+00        -0.23633E+04
 
   -0.78681E+04         0.10354E+04         0.00000E+00
    0.10354E+04        -0.16976E+03         0.00000E+00
    0.00000E+00         0.00000E+00        -0.24114E+04
 
   -0.79055E+04         0.13168E+04         0.00000E+00
    0.13168E+04        -0.27095E+03         0.00000E+00
    0.00000E+00         0.00000E+00        -0.24530E+04
 
   -0.78899E+04         0.16060E+04         0.00000E+00
    0.16060E+04        -0.40134E+03         0.00000E+00
    0.00000E+00         0.00000E+00        -0.24875E+04
 
   -0.78201E+04         0.18958E+04         0.00000E+00
    0.18958E+04        -0.56096E+03         0.00000E+00
    0.00000E+00         0.00000E+00        -0.25144E+04
 
   -0.76970E+04         0.21790E+04         0.00000E+00
    0.21790E+04        -0.74800E+03         0.00000E+00
    0.00000E+00         0.00000E+00        -0.25336E+04
 
   -0.75240E+04         0.24494E+04         0.00000E+00
    0.24494E+04        -0.95907E+03         0.00000E+00
    0.00000E+00         0.00000E+00        -0.25450E+04
 
   -0.73058E+04         0.27022E+04         0.00000E+00
    0.27022E+04        -0.11897E+04         0.00000E+00
    0.00000E+00         0.00000E+00        -0.25488E+04
 
   -0.70482E+04         0.29344E+04         0.00000E+00
    0.29344E+04        -0.14348E+04         0.00000E+00
    0.00000E+00         0.00000E+00        -0.25451E+04
 
   -0.67574E+04         0.31446E+04         0.00000E+00
    0.31446E+04        -0.16892E+04         0.00000E+00
    0.00000E+00         0.00000E+00        -0.25342E+04
 
   -0.64390E+04         0.33332E+04         0.00000E+00
    0.33332E+04        -0.19481E+04         0.00000E+00
    0.00000E+00         0.00000E+00        -0.25163E+04
 
   -0.60979E+04         0.35016E+04         0.00000E+00
    0.35016E+04        -0.22073E+04         0.00000E+00
    0.00000E+00         0.00000E+00        -0.24917E+04
 
   -0.57378E+04         0.36525E+04         0.00000E+00
    0.36525E+04        -0.24634E+04         0.00000E+00
    0.00000E+00         0.00000E+00        -0.24606E+04
 
   -0.53613E+04         0.37891E+04         0.00000E+00
    0.37891E+04        -0.27141E+04         0.00000E+00
    0.00000E+00         0.00000E+00        -0.24228E+04
 
   -0.49693E+04         0.39150E+04         0.00000E+00
    0.39150E+04        -0.29582E+04         0.00000E+00
    0.00000E+00         0.00000E+00        -0.23785E+04
 
   -0.45615E+04         0.40338E+04         0.00000E+00
    0.40338E+04        -0.31952E+04         0.00000E+00
    0.00000E+00         0.00000E+00        -0.23272E+04
 
   -0.41361E+04         0.41488E+04         0.00000E+00
    0.41488E+04        -0.34260E+04         0.00000E+00
    0.00000E+00         0.00000E+00        -0.22689E+04
 
   -0.36902E+04         0.42628E+04         0.00000E+00
    0.42628E+04        -0.36522E+04         0.00000E+00
    0.00000E+00         0.00000E+00        -0.22029E+04
 
   -0.32195E+04         0.43778E+04         0.00000E+00
    0.43778E+04        -0.38762E+04         0.00000E+00
    0.00000E+00         0.00000E+00        -0.21289E+04
 
   -0.27192E+04         0.44950E+04         0.00000E+00
    0.44950E+04        -0.41010E+04         0.00000E+00
    0.00000E+00         0.00000E+00        -0.20463E+04
 
   -0.21834E+04         0.46142E+04         0.00000E+00
    0.46142E+04        -0.43302E+04         0.00000E+00
    0.00000E+00         0.00000E+00        -0.19543E+04
 
   -0.71021E+04         0.86273E+02         0.00000E+00
    0.86273E+02        -0.26694E+01         0.00000E+00
    0.00000E+00         0.00000E+00        -0.21315E+04
 
   -0.72791E+04         0.27404E+03         0.00000E+00
    0.27404E+03        -0.16953E+02         0.00000E+00
    0.00000E+00         0.00000E+00        -0.21888E+04
 
   -0.74249E+04         0.48172E+03         0.00000E+00
    0.48172E+03        -0.47211E+02         0.00000E+00
    0.00000E+00         0.00000E+00        -0.22417E+04
 
   -0.75354E+04         0.70824E+03         0.00000E+00
    0.70824E+03        -0.96044E+02         0.00000E+00
    0.00000E+00         0.00000E+00        -0.22895E+04
 
   -0.76062E+04         0.95099E+03         0.00000E+00
    0.95099E+03        -0.16625E+03         0.00000E+00
    0.00000E+00         0.00000E+00        -0.23318E+04
 
   -0.76331E+04         0.12059E+04         0.00000E+00
    0.12059E+04        -0.26014E+03         0.00000E+00
    0.00000E+00         0.00000E+00        -0.23680E+04
 
   -0.76133E+04         0.14679E+04         0.00000E+00
    0.14679E+04        -0.37905E+03         0.00000E+00
    0.00000E+00         0.00000E+00        -0.23978E+04
 
   -0.75458E+04         0.17312E+04         0.00000E+00
    0.17312E+04        -0.52297E+03         0.00000E+00
    0.00000E+00         0.00000E+00        -0.24207E+04
 
   -0.74310E+04         0.19901E+04         0.00000E+00
    0.19901E+04        -0.69059E+03         0.00000E+00
    0.00000E+00         0.00000E+00        -0.24366E+04
 
   -0.72713E+04         0.22398E+04         0.00000E+00
    0.22398E+04        -0.87936E+03         0.00000E+00
    0.00000E+00         0.00000E+00        -0.24453E+04
 
   -0.70701E+04         0.24762E+04         0.00000E+00
    0.24762E+04        -0.10859E+04         0.00000E+00
    0.00000E+00         0.00000E+00        -0.24469E+04
 
   -0.68317E+04         0.26966E+04         0.00000E+00
    0.26966E+04        -0.13062E+04         0.00000E+00
    0.00000E+00         0.00000E+00        -0.24415E+04
 
   -0.65606E+04         0.28995E+04         0.00000E+00
    0.28995E+04        -0.15362E+04         0.00000E+00
    0.00000E+00         0.00000E+00        -0.24292E+04
 
   -0.62613E+04         0.30849E+04         0.00000E+00
    0.30849E+04        -0.17720E+04         0.00000E+00
    0.00000E+00         0.00000E+00        -0.24102E+04
 
   -0.59376E+04         0.32537E+04         0.00000E+00
    0.32537E+04        -0.20101E+04         0.00000E+00
    0.00000E+00         0.00000E+00        -0.23845E+04
 
   -0.55924E+04         0.34075E+04         0.00000E+00
    0.34075E+04        -0.22477E+04         0.00000E+00
    0.00000E+00         0.00000E+00        -0.23522E+04
 
   -0.52277E+04         0.35488E+04         0.00000E+00
    0.35488E+04        -0.24829E+04         0.00000E+00
    0.00000E+00         0.00000E+00        -0.23134E+04
 
   -0.48445E+04         0.36801E+04         0.00000E+00
    0.36801E+04        -0.27144E+04         0.00000E+00
    0.00000E+00         0.00000E+00        -0.22679E+04
 
   -0.44424E+04         0.38042E+04         0.00000E+00
    0.38042E+04        -0.29419E+04         0.00000E+00
    0.00000E+00         0.00000E+00        -0.22155E+04
 
   -0.40201E+04         0.39234E+04         0.00000E+00
    0.39234E+04        -0.31660E+04         0.00000E+00
    0.00000E+00         0.00000E+00        -0.21560E+04
 
   -0.35751E+04         0.40398E+04         0.00000E+00
    0.40398E+04        -0.33877E+04         0.00000E+00
    0.00000E+00         0.00000E+00        -0.20891E+04
 
   -0.31042E+04         0.41548E+04         0.00000E+00
    0.41548E+04        -0.36092E+04         0.00000E+00
    0.00000E+00         0.00000E+00        -0.20142E+04
 
   -0.26032E+04         0.42689E+04         0.00000E+00
    0.42689E+04        -0.38328E+04         0.00000E+00
    0.00000E+00         0.00000E+00        -0.19310E+04
 
   -0.20676E+04         0.43817E+04         0.00000E+00
    0.43817E+04        -0.40614E+04         0.00000E+00
    0.00000E+00         0.00000E+00        -0.18389E+04
 
   -0.69315E+04         0.79309E+02         0.00000E+00
    0.79309E+02        -0.26622E+01         0.00000E+00
    0.00000E+00         0.00000E+00        -0.20802E+04
 
   -0.70892E+04         0.25226E+03         0.00000E+00
    0.25226E+03        -0.16807E+02         0.00000E+00
    0.00000E+00         0.00000E+00        -0.21318E+04
 
   -0.72166E+04         0.44322E+03         0.00000E+00
    0.44322E+03        -0.46357E+02         0.00000E+00
    0.00000E+00         0.00000E+00        -0.21789E+04
 
   -0.73107E+04         0.65064E+03         0.00000E+00
    0.65064E+03        -0.93154E+02         0.00000E+00
    0.00000E+00         0.00000E+00        -0.22212E+04
 
   -0.73680E+04         0.87206E+03         0.00000E+00
    0.87206E+03        -0.15916E+03         0.00000E+00
    0.00000E+00         0.00000E+00        -0.22582E+04
 
   -0.73858E+04         0.11041E+04         0.00000E+00
    0.11041E+04        -0.24598E+03         0.00000E+00
    0.00000E+00         0.00000E+00        -0.22896E+04
 
   -0.73619E+04         0.13425E+04         0.00000E+00
    0.13425E+04        -0.35456E+03         0.00000E+00
    0.00000E+00         0.00000E+00        -0.23150E+04
 
   -0.72953E+04         0.15829E+04         0.00000E+00
    0.15829E+04        -0.48486E+03         0.00000E+00
    0.00000E+00         0.00000E+00        -0.23341E+04
 
   -0.71863E+04         0.18207E+04         0.00000E+00
    0.18207E+04        -0.63588E+03         0.00000E+00
    0.00000E+00         0.00000E+00        -0.23468E+04
 
   -0.70364E+04         0.20518E+04         0.00000E+00
    0.20518E+04        -0.80572E+03         0.00000E+00
    0.00000E+00         0.00000E+00        -0.23528E+04
 
   -0.68482E+04         0.22729E+04         0.00000E+00
    0.22729E+04        -0.99173E+03         0.00000E+00
    0.00000E+00         0.00000E+00        -0.23521E+04
 
   -0.66248E+04         0.24817E+04         0.00000E+00
    0.24817E+04        -0.11909E+04         0.00000E+00
    0.00000E+00         0.00000E+00        -0.23449E+04
 
   -0.63696E+04         0.26766E+04         0.00000E+00
    0.26766E+04        -0.13998E+04         0.00000E+00
    0.00000E+00         0.00000E+00        -0.23310E+04
 
   -0.60859E+04         0.28574E+04         0.00000E+00
    0.28574E+04        -0.16156E+04         0.00000E+00
    0.00000E+00         0.00000E+00        -0.23106E+04
 
   -0.57767E+04         0.30244E+04         0.00000E+00
    0.30244E+04        -0.18352E+04         0.00000E+00
    0.00000E+00         0.00000E+00        -0.22838E+04
 
   -0.54443E+04         0.31786E+04         0.00000E+00
    0.31786E+04        -0.20565E+04         0.00000E+00
    0.00000E+00         0.00000E+00        -0.22504E+04
 
   -0.50904E+04         0.33219E+04         0.00000E+00
    0.33219E+04        -0.22776E+04         0.00000E+00
    0.00000E+00         0.00000E+00        -0.22106E+04
 
   -0.47156E+04         0.34559E+04         0.00000E+00
    0.34559E+04        -0.24975E+04         0.00000E+00
    0.00000E+00         0.00000E+00        -0.21641E+04
 
   -0.43198E+04         0.35826E+04         0.00000E+00
    0.35826E+04        -0.27158E+04         0.00000E+00
    0.00000E+00         0.00000E+00        -0.21109E+04
 
   -0.39018E+04         0.37037E+04         0.00000E+00
    0.37037E+04        -0.29330E+04         0.00000E+00
    0.00000E+00         0.00000E+00        -0.20506E+04
 
   -0.34597E+04         0.38206E+04         0.00000E+00
    0.38206E+04        -0.31499E+04         0.00000E+00
    0.00000E+00         0.00000E+00        -0.19831E+04
 
   -0.29909E+04         0.39341E+04         0.00000E+00
    0.39341E+04        -0.33680E+04         0.00000E+00
    0.00000E+00         0.00000E+00        -0.19079E+04
 
   -0.24922E+04         0.40443E+04         0.00000E+00
    0.40443E+04        -0.35892E+04         0.00000E+00
    0.00000E+00         0.00000E+00        -0.18247E+04
 
   -0.19600E+04         0.41505E+04         0.00000E+00
    0.41505E+04        -0.38159E+04         0.00000E+00
    0.00000E+00         0.00000E+00        -0.17330E+04
 
   -0.67748E+04         0.72512E+02         0.00000E+00
    0.72512E+02        -0.25588E+01         0.00000E+00
    0.00000E+00         0.00000E+00        -0.20332E+04
 
   -0.69147E+04         0.23113E+03         0.00000E+00
    0.23113E+03        -0.16130E+02         0.00000E+00
    0.00000E+00         0.00000E+00        -0.20793E+04
 
   -0.70256E+04         0.40632E+03         0.00000E+00
    0.40632E+03        -0.44303E+02         0.00000E+00
    0.00000E+00         0.00000E+00        -0.21210E+04
 
   -0.71051E+04         0.59629E+03         0.00000E+00
    0.59629E+03        -0.88452E+02         0.00000E+00
    0.00000E+00         0.00000E+00        -0.21581E+04
 
   -0.71508E+04         0.79868E+03         0.00000E+00
    0.79868E+03        -0.14999E+03         0.00000E+00
    0.00000E+00         0.00000E+00        -0.21903E+04
 
   -0.71604E+04         0.10106E+04         0.00000E+00
    0.10106E+04        -0.23006E+03         0.00000E+00
    0.00000E+00         0.00000E+00        -0.22172E+04
 
   -0.71323E+04         0.12285E+04         0.00000E+00
    0.12285E+04        -0.32931E+03         0.00000E+00
    0.00000E+00         0.00000E+00        -0.22386E+04
 
   -0.70656E+04         0.14488E+04         0.00000E+00
    0.14488E+04        -0.44770E+03         0.00000E+00
    0.00000E+00         0.00000E+00        -0.22541E+04
 
   -0.69604E+04         0.16678E+04         0.00000E+00
    0.16678E+04        -0.58445E+03         0.00000E+00
    0.00000E+00         0.00000E+00        -0.22636E+04
 
   -0.68178E+04         0.18821E+04         0.00000E+00
    0.18821E+04        -0.73809E+03         0.00000E+00
    0.00000E+00         0.00000E+00        -0.22669E+04
 
   -0.66395E+04         0.20891E+04         0.00000E+00
    0.20891E+04        -0.90661E+03         0.00000E+00
    0.00000E+00         0.00000E+00        -0.22640E+04
 
   -0.64278E+04         0.22865E+04         0.00000E+00
    0.22865E+04        -0.10876E+04         0.00000E+00
    0.00000E+00         0.00000E+00        -0.22548E+04
 
   -0.61853E+04         0.24730E+04         0.00000E+00
    0.24730E+04        -0.12785E+04         0.00000E+00
    0.00000E+00         0.00000E+00        -0.22393E+04
 
   -0.59143E+04         0.26479E+04         0.00000E+00
    0.26479E+04        -0.14769E+04         0.00000E+00
    0.00000E+00         0.00000E+00        -0.22175E+04
 
   -0.56173E+04         0.28115E+04         0.00000E+00
    0.28115E+04        -0.16803E+04         0.00000E+00
    0.00000E+00         0.00000E+00        -0.21895E+04
 
   -0.52961E+04         0.29643E+04         0.00000E+00
    0.29643E+04        -0.18870E+04         0.00000E+00
    0.00000E+00         0.00000E+00        -0.21551E+04
 
   -0.49518E+04         0.31072E+04         0.00000E+00
    0.31072E+04        -0.20954E+04         0.00000E+00
    0.00000E+00         0.00000E+00        -0.21144E+04
 
   -0.45851E+04         0.32417E+04         0.00000E+00
    0.32417E+04        -0.23046E+04         0.00000E+00
    0.00000E+00         0.00000E+00        -0.20671E+04
 
   -0.41958E+04         0.33688E+04         0.00000E+00
    0.33688E+04        -0.25143E+04         0.00000E+00
    0.00000E+00         0.00000E+00        -0.20132E+04
 
   -0.37831E+04         0.34899E+04         0.00000E+00
    0.34899E+04        -0.27246E+04         0.00000E+00
    0.00000E+00         0.00000E+00        -0.19525E+04
 
   -0.33454E+04         0.36056E+04         0.00000E+00
    0.36056E+04        -0.29363E+04         0.00000E+00
    0.00000E+00         0.00000E+00        -0.18847E+04
 
   -0.28808E+04         0.37165E+04         0.00000E+00
    0.37165E+04        -0.31504E+04         0.00000E+00
    0.00000E+00         0.00000E+00        -0.18096E+04
 
   -0.23866E+04         0.38222E+04         0.00000E+00
    0.38222E+04        -0.33684E+04         0.00000E+00
    0.00000E+00         0.00000E+00        -0.17267E+04
 
   -0.18602E+04         0.39218E+04         0.00000E+00
    0.39218E+04        -0.35921E+04         0.00000E+00
    0.00000E+00         0.00000E+00        -0.16359E+04
 
   -0.66317E+04         0.66064E+02         0.00000E+00
    0.66064E+02        -0.24026E+01         0.00000E+00
    0.00000E+00         0.00000E+00        -0.19902E+04
 
   -0.67547E+04         0.21109E+03         0.00000E+00
    0.21109E+03        -0.15160E+02         0.00000E+00
    0.00000E+00         0.00000E+00        -0.20310E+04
 
   -0.68505E+04         0.37155E+03         0.00000E+00
    0.37155E+03        -0.41591E+02         0.00000E+00
    0.00000E+00         0.00000E+00        -0.20677E+04
 
   -0.69170E+04         0.54553E+03         0.00000E+00
    0.54553E+03        -0.82789E+02         0.00000E+00
    0.00000E+00         0.00000E+00        -0.21000E+04
 
   -0.69522E+04         0.73078E+03         0.00000E+00
    0.73078E+03        -0.13982E+03         0.00000E+00
    0.00000E+00         0.00000E+00        -0.21277E+04
 
   -0.69543E+04         0.92472E+03         0.00000E+00
    0.92472E+03        -0.21352E+03         0.00000E+00
    0.00000E+00         0.00000E+00        -0.21504E+04
 
   -0.69219E+04         0.11244E+04         0.00000E+00
    0.11244E+04        -0.30436E+03         0.00000E+00
    0.00000E+00         0.00000E+00        -0.21680E+04
 
   -0.68543E+04         0.13269E+04         0.00000E+00
    0.13269E+04        -0.41228E+03         0.00000E+00
    0.00000E+00         0.00000E+00        -0.21801E+04
 
   -0.67515E+04         0.15291E+04         0.00000E+00
    0.15291E+04        -0.53668E+03         0.00000E+00
    0.00000E+00         0.00000E+00        -0.21866E+04
 
   -0.66141E+04         0.17282E+04         0.00000E+00
    0.17282E+04        -0.67643E+03         0.00000E+00
    0.00000E+00         0.00000E+00        -0.21873E+04
 
   -0.64433E+04         0.19218E+04         0.00000E+00
    0.19218E+04        -0.82996E+03         0.00000E+00
    0.00000E+00         0.00000E+00        -0.21821E+04
 
   -0.62407E+04         0.21082E+04         0.00000E+00
    0.21082E+04        -0.99541E+03         0.00000E+00
    0.00000E+00         0.00000E+00        -0.21710E+04
 
   -0.60083E+04         0.22859E+04         0.00000E+00
    0.22859E+04        -0.11708E+04         0.00000E+00
    0.00000E+00         0.00000E+00        -0.21539E+04
 
   -0.57479E+04         0.24542E+04         0.00000E+00
    0.24542E+04        -0.13540E+04         0.00000E+00
    0.00000E+00         0.00000E+00        -0.21307E+04
 
   -0.54611E+04         0.26131E+04         0.00000E+00
    0.26131E+04        -0.15433E+04         0.00000E+00
    0.00000E+00         0.00000E+00        -0.21015E+04
 
   -0.51495E+04         0.27628E+04         0.00000E+00
    0.27628E+04        -0.17371E+04         0.00000E+00
    0.00000E+00         0.00000E+00        -0.20662E+04
 
   -0.48140E+04         0.29037E+04         0.00000E+00
    0.29037E+04        -0.19341E+04         0.00000E+00
    0.00000E+00         0.00000E+00        -0.20246E+04
 
   -0.44550E+04         0.30368E+04         0.00000E+00
    0.30368E+04        -0.21335E+04         0.00000E+00
    0.00000E+00         0.00000E+00        -0.19767E+04
 
   -0.40724E+04         0.31627E+04         0.00000E+00
    0.31627E+04        -0.23350E+04         0.00000E+00
    0.00000E+00         0.00000E+00        -0.19224E+04
 
   -0.36657E+04         0.32821E+04         0.00000E+00
    0.32821E+04        -0.25386E+04         0.00000E+00
    0.00000E+00         0.00000E+00        -0.18615E+04
 
   -0.32336E+04         0.33954E+04         0.00000E+00
    0.33954E+04        -0.27448E+04         0.00000E+00
    0.00000E+00         0.00000E+00        -0.17937E+04
 
   -0.27746E+04         0.35027E+04         0.00000E+00
    0.35027E+04        -0.29544E+04         0.00000E+00
    0.00000E+00         0.00000E+00        -0.17189E+04
 
   -0.22867E+04         0.36034E+04         0.00000E+00
    0.36034E+04        -0.31686E+04         0.00000E+00
    0.00000E+00         0.00000E+00        -0.16368E+04
 
   -0.17679E+04         0.36965E+04         0.00000E+00
    0.36965E+04        -0.33886E+04         0.00000E+00
    0.00000E+00         0.00000E+00        -0.15472E+04
 
   -0.65012E+04         0.60059E+02         0.00000E+00
    0.60059E+02        -0.22221E+01         0.00000E+00
    0.00000E+00         0.00000E+00        -0.19510E+04
 
   -0.66084E+04         0.19239E+03         0.00000E+00
    0.19239E+03        -0.14055E+02         0.00000E+00
    0.00000E+00         0.00000E+00        -0.19868E+04
 
   -0.66902E+04         0.33916E+03         0.00000E+00
    0.33916E+03        -0.38588E+02         0.00000E+00
    0.00000E+00         0.00000E+00        -0.20187E+04
 
   -0.67448E+04         0.49845E+03         0.00000E+00
    0.49845E+03        -0.76754E+02         0.00000E+00
    0.00000E+00         0.00000E+00        -0.20465E+04
 
   -0.67703E+04         0.66815E+03         0.00000E+00
    0.66815E+03        -0.12940E+03         0.00000E+00
    0.00000E+00         0.00000E+00        -0.20700E+04
 
   -0.67654E+04         0.84595E+03         0.00000E+00
    0.84595E+03        -0.19719E+03         0.00000E+00
    0.00000E+00         0.00000E+00        -0.20888E+04
 
   -0.67287E+04         0.10293E+04         0.00000E+00
    0.10293E+04        -0.28045E+03         0.00000E+00
    0.00000E+00         0.00000E+00        -0.21028E+04
 
   -0.66596E+04         0.12158E+04         0.00000E+00
    0.12158E+04        -0.37915E+03         0.00000E+00
    0.00000E+00         0.00000E+00        -0.21117E+04
 
   -0.65580E+04         0.14027E+04         0.00000E+00
    0.14027E+04        -0.49282E+03         0.00000E+00
    0.00000E+00         0.00000E+00        -0.21154E+04
 
   -0.64242E+04         0.15877E+04         0.00000E+00
    0.15877E+04        -0.62059E+03         0.00000E+00
    0.00000E+00         0.00000E+00        -0.21136E+04
 
   -0.62590E+04         0.17688E+04         0.00000E+00
    0.17688E+04        -0.76124E+03         0.00000E+00
    0.00000E+00         0.00000E+00        -0.21062E+04
 
   -0.60635E+04         0.19444E+04         0.00000E+00
    0.19444E+04        -0.91331E+03         0.00000E+00
    0.00000E+00         0.00000E+00        -0.20932E+04
 
   -0.58392E+04         0.21131E+04         0.00000E+00
    0.21131E+04        -0.10752E+04         0.00000E+00
    0.00000E+00         0.00000E+00        -0.20745E+04
 
   -0.55874E+04         0.22743E+04         0.00000E+00
    0.22743E+04        -0.12454E+04         0.00000E+00
    0.00000E+00         0.00000E+00        -0.20500E+04
 
   -0.53093E+04         0.24275E+04         0.00000E+00
    0.24275E+04        -0.14223E+04         0.00000E+00
    0.00000E+00         0.00000E+00        -0.20197E+04
 
   -0.50061E+04         0.25728E+04         0.00000E+00
    0.25728E+04        -0.16046E+04         0.00000E+00
    0.00000E+00         0.00000E+00        -0.19834E+04
 
   -0.46785E+04         0.27104E+04         0.00000E+00
    0.27104E+04        -0.17913E+04         0.00000E+00
    0.00000E+00         0.00000E+00        -0.19411E+04
 
   -0.43269E+04         0.28406E+04         0.00000E+00
    0.28406E+04        -0.19817E+04         0.00000E+00
    0.00000E+00         0.00000E+00        -0.18928E+04
 
   -0.39511E+04         0.29638E+04         0.00000E+00
    0.29638E+04        -0.21755E+04         0.00000E+00
    0.00000E+00         0.00000E+00        -0.18382E+04
 
   -0.35508E+04         0.30803E+04         0.00000E+00
    0.30803E+04        -0.23726E+04         0.00000E+00
    0.00000E+00         0.00000E+00        -0.17772E+04
 
   -0.31251E+04         0.31902E+04         0.00000E+00
    0.31902E+04        -0.25733E+04         0.00000E+00
    0.00000E+00         0.00000E+00        -0.17098E+04
 
   -0.26728E+04         0.32932E+04         0.00000E+00
    0.32932E+04        -0.27782E+04         0.00000E+00
    0.00000E+00         0.00000E+00        -0.16355E+04
 
   -0.21926E+04         0.33886E+04         0.00000E+00
    0.33886E+04        -0.29881E+04         0.00000E+00
    0.00000E+00         0.00000E+00        -0.15544E+04
 
   -0.16828E+04         0.34752E+04         0.00000E+00
    0.34752E+04        -0.32039E+04         0.00000E+00
    0.00000E+00         0.00000E+00        -0.14663E+04
 
   -0.63825E+04         0.54529E+02         0.00000E+00
    0.54529E+02        -0.20362E+01         0.00000E+00
    0.00000E+00         0.00000E+00        -0.19154E+04
 
   -0.64748E+04         0.17510E+03         0.00000E+00
    0.17510E+03        -0.12921E+02         0.00000E+00
    0.00000E+00         0.00000E+00        -0.19463E+04
 
   -0.65435E+04         0.30921E+03         0.00000E+00
    0.30921E+03        -0.35542E+02         0.00000E+00
    0.00000E+00         0.00000E+00        -0.19738E+04
 
   -0.65870E+04         0.45498E+03         0.00000E+00
    0.45498E+03        -0.70742E+02         0.00000E+00
    0.00000E+00         0.00000E+00        -0.19974E+04
 
   -0.66036E+04         0.61047E+03         0.00000E+00
    0.61047E+03        -0.11925E+03         0.00000E+00
    0.00000E+00         0.00000E+00        -0.20169E+04
 
   -0.65919E+04         0.77359E+03         0.00000E+00
    0.77359E+03        -0.18159E+03         0.00000E+00
    0.00000E+00         0.00000E+00        -0.20321E+04
 
   -0.65509E+04         0.94216E+03         0.00000E+00
    0.94216E+03        -0.25807E+03         0.00000E+00
    0.00000E+00         0.00000E+00        -0.20428E+04
 
   -0.64799E+04         0.11140E+04         0.00000E+00
    0.11140E+04        -0.34864E+03         0.00000E+00
    0.00000E+00         0.00000E+00        -0.20487E+04
 
   -0.63786E+04         0.12869E+04         0.00000E+00
    0.12869E+04        -0.45296E+03         0.00000E+00
    0.00000E+00         0.00000E+00        -0.20496E+04
 
   -0.62472E+04         0.14588E+04         0.00000E+00
    0.14588E+04        -0.57036E+03         0.00000E+00
    0.00000E+00         0.00000E+00        -0.20454E+04
 
   -0.60861E+04         0.16281E+04         0.00000E+00
    0.16281E+04        -0.69990E+03         0.00000E+00
    0.00000E+00         0.00000E+00        -0.20359E+04
 
   -0.58962E+04         0.17931E+04         0.00000E+00
    0.17931E+04        -0.84044E+03         0.00000E+00
    0.00000E+00         0.00000E+00        -0.20211E+04
 
   -0.56784E+04         0.19528E+04         0.00000E+00
    0.19528E+04        -0.99073E+03         0.00000E+00
    0.00000E+00         0.00000E+00        -0.20009E+04
 
   -0.54336E+04         0.21063E+04         0.00000E+00
    0.21063E+04        -0.11495E+04         0.00000E+00
    0.00000E+00         0.00000E+00        -0.19751E+04
 
   -0.51630E+04         0.22531E+04         0.00000E+00
    0.22531E+04        -0.13155E+04         0.00000E+00
    0.00000E+00         0.00000E+00        -0.19437E+04
 
   -0.48671E+04         0.23931E+04         0.00000E+00
    0.23931E+04        -0.14877E+04         0.00000E+00
    0.00000E+00         0.00000E+00        -0.19066E+04
 
   -0.45467E+04         0.25261E+04         0.00000E+00
    0.25261E+04        -0.16652E+04         0.00000E+00
    0.00000E+00         0.00000E+00        -0.18638E+04
 
   -0.42021E+04         0.26523E+04         0.00000E+00
    0.26523E+04        -0.18474E+04         0.00000E+00
    0.00000E+00         0.00000E+00        -0.18151E+04
 
   -0.38331E+04         0.27718E+04         0.00000E+00
    0.27718E+04        -0.20340E+04         0.00000E+00
    0.00000E+00         0.00000E+00        -0.17603E+04
 
   -0.34396E+04         0.28844E+04         0.00000E+00
    0.28844E+04        -0.22248E+04         0.00000E+00
    0.00000E+00         0.00000E+00        -0.16995E+04
 
   -0.30208E+04         0.29901E+04         0.00000E+00
    0.29901E+04        -0.24201E+04         0.00000E+00
    0.00000E+00         0.00000E+00        -0.16325E+04
 
   -0.25761E+04         0.30883E+04         0.00000E+00
    0.30883E+04        -0.26201E+04         0.00000E+00
    0.00000E+00         0.00000E+00        -0.15591E+04
 
   -0.21044E+04         0.31782E+04         0.00000E+00
    0.31782E+04        -0.28254E+04         0.00000E+00
    0.00000E+00         0.00000E+00        -0.14792E+04
 
   -0.16046E+04         0.32585E+04         0.00000E+00
    0.32585E+04        -0.30366E+04         0.00000E+00
    0.00000E+00         0.00000E+00        -0.13926E+04
 
   -0.62746E+04         0.49474E+02         0.00000E+00
    0.49474E+02        -0.18563E+01         0.00000E+00
    0.00000E+00         0.00000E+00        -0.18830E+04
 
   -0.63529E+04         0.15921E+03         0.00000E+00
    0.15921E+03        -0.11823E+02         0.00000E+00
    0.00000E+00         0.00000E+00        -0.19094E+04
 
   -0.64095E+04         0.28162E+03         0.00000E+00
    0.28162E+03        -0.32607E+02         0.00000E+00
    0.00000E+00         0.00000E+00        -0.19327E+04
 
   -0.64426E+04         0.41494E+03         0.00000E+00
    0.41494E+03        -0.65005E+02         0.00000E+00
    0.00000E+00         0.00000E+00        -0.19523E+04
 
   -0.64508E+04         0.55737E+03         0.00000E+00
    0.55737E+03        -0.10967E+03         0.00000E+00
    0.00000E+00         0.00000E+00        -0.19682E+04
 
   -0.64327E+04         0.70703E+03         0.00000E+00
    0.70703E+03        -0.16708E+03         0.00000E+00
    0.00000E+00         0.00000E+00        -0.19800E+04
 
   -0.63873E+04         0.86202E+03         0.00000E+00
    0.86202E+03        -0.23749E+03         0.00000E+00
    0.00000E+00         0.00000E+00        -0.19875E+04
 
   -0.63140E+04         0.10204E+04         0.00000E+00
    0.10204E+04        -0.32091E+03         0.00000E+00
    0.00000E+00         0.00000E+00        -0.19906E+04
 
   -0.62123E+04         0.11803E+04         0.00000E+00
    0.11803E+04        -0.41709E+03         0.00000E+00
    0.00000E+00         0.00000E+00        -0.19889E+04
 
   -0.60823E+04         0.13400E+04         0.00000E+00
    0.13400E+04        -0.52550E+03         0.00000E+00
    0.00000E+00         0.00000E+00        -0.19825E+04
 
   -0.59242E+04         0.14979E+04         0.00000E+00
    0.14979E+04        -0.64544E+03         0.00000E+00
    0.00000E+00         0.00000E+00        -0.19710E+04
 
   -0.57386E+04         0.16527E+04         0.00000E+00
    0.16527E+04        -0.77600E+03         0.00000E+00
    0.00000E+00         0.00000E+00        -0.19545E+04
 
   -0.55260E+04         0.18032E+04         0.00000E+00
    0.18032E+04        -0.91621E+03         0.00000E+00
    0.00000E+00         0.00000E+00        -0.19328E+04
 
   -0.52871E+04         0.19487E+04         0.00000E+00
    0.19487E+04        -0.10650E+04         0.00000E+00
    0.00000E+00         0.00000E+00        -0.19058E+04
 
   -0.50228E+04         0.20886E+04         0.00000E+00
    0.20886E+04        -0.12215E+04         0.00000E+00
    0.00000E+00         0.00000E+00        -0.18735E+04
 
   -0.47334E+04         0.22225E+04         0.00000E+00
    0.22225E+04        -0.13847E+04         0.00000E+00
    0.00000E+00         0.00000E+00        -0.18356E+04
 
   -0.44196E+04         0.23502E+04         0.00000E+00
    0.23502E+04        -0.15540E+04         0.00000E+00
    0.00000E+00         0.00000E+00        -0.17923E+04
 
   -0.40816E+04         0.24715E+04         0.00000E+00
    0.24715E+04        -0.17287E+04         0.00000E+00
    0.00000E+00         0.00000E+00        -0.17433E+04
 
   -0.37193E+04         0.25863E+04         0.00000E+00
    0.25863E+04        -0.19086E+04         0.00000E+00
    0.00000E+00         0.00000E+00        -0.16886E+04
 
   -0.33327E+04         0.26943E+04         0.00000E+00
    0.26943E+04        -0.20935E+04         0.00000E+00
    0.00000E+00         0.00000E+00        -0.16281E+04
 
   -0.29213E+04         0.27951E+04         0.00000E+00
    0.27951E+04        -0.22833E+04         0.00000E+00
    0.00000E+00         0.00000E+00        -0.15616E+04
 
   -0.24846E+04         0.28882E+04         0.00000E+00
    0.28882E+04        -0.24784E+04         0.00000E+00
    0.00000E+00         0.00000E+00        -0.14891E+04
 
   -0.20220E+04         0.29724E+04         0.00000E+00
    0.29724E+04        -0.26789E+04         0.00000E+00
    0.00000E+00         0.00000E+00        -0.14105E+04
 
   -0.15330E+04         0.30466E+04         0.00000E+00
    0.30466E+04        -0.28853E+04         0.00000E+00
    0.00000E+00         0.00000E+00        -0.13257E+04
 
   -0.61767E+04         0.44868E+02         0.00000E+00
    0.44868E+02        -0.16894E+01         0.00000E+00
    0.00000E+00         0.00000E+00        -0.18535E+04
 
   -0.62419E+04         0.14466E+03         0.00000E+00
    0.14466E+03        -0.10802E+02         0.00000E+00
    0.00000E+00         0.00000E+00        -0.18758E+04
 
   -0.62870E+04         0.25627E+03         0.00000E+00
    0.25627E+03        -0.29879E+02         0.00000E+00
    0.00000E+00         0.00000E+00        -0.18951E+04
 
   -0.63104E+04         0.37808E+03         0.00000E+00
    0.37808E+03        -0.59694E+02         0.00000E+00
    0.00000E+00         0.00000E+00        -0.19111E+04
 
   -0.63107E+04         0.50844E+03         0.00000E+00
    0.50844E+03        -0.10087E+03         0.00000E+00
    0.00000E+00         0.00000E+00        -0.19235E+04
 
   -0.62864E+04         0.64568E+03         0.00000E+00
    0.64568E+03        -0.15384E+03         0.00000E+00
    0.00000E+00         0.00000E+00        -0.19322E+04
 
   -0.62367E+04         0.78810E+03         0.00000E+00
    0.78810E+03        -0.21887E+03         0.00000E+00
    0.00000E+00         0.00000E+00        -0.19368E+04
 
   -0.61608E+04         0.93401E+03         0.00000E+00
    0.93401E+03        -0.29601E+03         0.00000E+00
    0.00000E+00         0.00000E+00        -0.19372E+04
 
   -0.60583E+04         0.10818E+04         0.00000E+00
    0.10818E+04        -0.38507E+03         0.00000E+00
    0.00000E+00         0.00000E+00        -0.19331E+04
 
   -0.59290E+04         0.12299E+04         0.00000E+00
    0.12299E+04        -0.48569E+03         0.00000E+00
    0.00000E+00         0.00000E+00        -0.19245E+04
 
   -0.57730E+04         0.13769E+04         0.00000E+00
    0.13769E+04        -0.59731E+03         0.00000E+00
    0.00000E+00         0.00000E+00        -0.19112E+04
 
   -0.55906E+04         0.15216E+04         0.00000E+00
    0.15216E+04        -0.71923E+03         0.00000E+00
    0.00000E+00         0.00000E+00        -0.18931E+04
 
   -0.53822E+04         0.16630E+04         0.00000E+00
    0.16630E+04        -0.85069E+03         0.00000E+00
    0.00000E+00         0.00000E+00        -0.18700E+04
 
   -0.51482E+04         0.18003E+04         0.00000E+00
    0.18003E+04        -0.99086E+03         0.00000E+00
    0.00000E+00         0.00000E+00        -0.18419E+04
 
   -0.48893E+04         0.19328E+04         0.00000E+00
    0.19328E+04        -0.11390E+04         0.00000E+00
    0.00000E+00         0.00000E+00        -0.18087E+04
 
   -0.46057E+04         0.20601E+04         0.00000E+00
    0.20601E+04        -0.12942E+04         0.00000E+00
    0.00000E+00         0.00000E+00        -0.17702E+04
 
   -0.42980E+04         0.21818E+04         0.00000E+00
    0.21818E+04        -0.14561E+04         0.00000E+00
    0.00000E+00         0.00000E+00        -0.17264E+04
 
   -0.39662E+04         0.22975E+04         0.00000E+00
    0.22975E+04        -0.16240E+04         0.00000E+00
    0.00000E+00         0.00000E+00        -0.16773E+04
 
   -0.36105E+04         0.24070E+04         0.00000E+00
    0.24070E+04        -0.17976E+04         0.00000E+00
    0.00000E+00         0.00000E+00        -0.16227E+04
 
   -0.32308E+04         0.25097E+04         0.00000E+00
    0.25097E+04        -0.19768E+04         0.00000E+00
    0.00000E+00         0.00000E+00        -0.15625E+04
 
   -0.28269E+04         0.26053E+04         0.00000E+00
    0.26053E+04        -0.21614E+04         0.00000E+00
    0.00000E+00         0.00000E+00        -0.14967E+04
 
   -0.23986E+04         0.26928E+04         0.00000E+00
    0.26928E+04        -0.23516E+04         0.00000E+00
    0.00000E+00         0.00000E+00        -0.14253E+04
 
   -0.19455E+04         0.27714E+04         0.00000E+00
    0.27714E+04        -0.25473E+04         0.00000E+00
    0.00000E+00         0.00000E+00        -0.13481E+04
 
   -0.14674E+04         0.28397E+04         0.00000E+00
    0.28397E+04        -0.27487E+04         0.00000E+00
    0.00000E+00         0.00000E+00        -0.12651E+04
 
   -0.60878E+04         0.40671E+02         0.00000E+00
    0.40671E+02        -0.15390E+01         0.00000E+00
    0.00000E+00         0.00000E+00        -0.18268E+04
 
   -0.61408E+04         0.13132E+03         0.00000E+00
    0.13132E+03        -0.98779E+01         0.00000E+00
    0.00000E+00         0.00000E+00        -0.18452E+04
 
   -0.61753E+04         0.23295E+03         0.00000E+00
    0.23295E+03        -0.27408E+02         0.00000E+00
    0.00000E+00         0.00000E+00        -0.18609E+04
 
   -0.61897E+04         0.34409E+03         0.00000E+00
    0.34409E+03        -0.54889E+02         0.00000E+00
    0.00000E+00         0.00000E+00        -0.18734E+04
 
   -0.61824E+04         0.46326E+03         0.00000E+00
    0.46326E+03        -0.92925E+02         0.00000E+00
    0.00000E+00         0.00000E+00        -0.18827E+04
 
   -0.61523E+04         0.58895E+03         0.00000E+00
    0.58895E+03        -0.14195E+03         0.00000E+00
    0.00000E+00         0.00000E+00        -0.18883E+04
 
   -0.60982E+04         0.71966E+03         0.00000E+00
    0.71966E+03        -0.20224E+03         0.00000E+00
    0.00000E+00         0.00000E+00        -0.18902E+04
 
   -0.60196E+04         0.85390E+03         0.00000E+00
    0.85390E+03        -0.27386E+03         0.00000E+00
    0.00000E+00         0.00000E+00        -0.18881E+04
 
   -0.59159E+04         0.99022E+03         0.00000E+00
    0.99022E+03        -0.35673E+03         0.00000E+00
    0.00000E+00         0.00000E+00        -0.18819E+04
 
   -0.57867E+04         0.11273E+04         0.00000E+00
    0.11273E+04        -0.45058E+03         0.00000E+00
    0.00000E+00         0.00000E+00        -0.18713E+04
 
   -0.56321E+04         0.12638E+04         0.00000E+00
    0.12638E+04        -0.55499E+03         0.00000E+00
    0.00000E+00         0.00000E+00        -0.18563E+04
 
   -0.54522E+04         0.13987E+04         0.00000E+00
    0.13987E+04        -0.66943E+03         0.00000E+00
    0.00000E+00         0.00000E+00        -0.18366E+04
 
   -0.52471E+04         0.15310E+04         0.00000E+00
    0.15310E+04        -0.79328E+03         0.00000E+00
    0.00000E+00         0.00000E+00        -0.18123E+04
 
   -0.50173E+04         0.16599E+04         0.00000E+00
    0.16599E+04        -0.92589E+03         0.00000E+00
    0.00000E+00         0.00000E+00        -0.17831E+04
 
   -0.47630E+04         0.17848E+04         0.00000E+00
    0.17848E+04        -0.10666E+04         0.00000E+00
    0.00000E+00         0.00000E+00        -0.17491E+04
 
   -0.44846E+04         0.19050E+04         0.00000E+00
    0.19050E+04        -0.12148E+04         0.00000E+00
    0.00000E+00         0.00000E+00        -0.17100E+04
 
   -0.41824E+04         0.20201E+04         0.00000E+00
    0.20201E+04        -0.13700E+04         0.00000E+00
    0.00000E+00         0.00000E+00        -0.16659E+04
 
   -0.38565E+04         0.21297E+04         0.00000E+00
    0.21297E+04        -0.15318E+04         0.00000E+00
    0.00000E+00         0.00000E+00        -0.16167E+04
 
   -0.35072E+04         0.22333E+04         0.00000E+00
    0.22333E+04        -0.16996E+04         0.00000E+00
    0.00000E+00         0.00000E+00        -0.15623E+04
 
   -0.31344E+04         0.23304E+04         0.00000E+00
    0.23304E+04        -0.18735E+04         0.00000E+00
    0.00000E+00         0.00000E+00        -0.15026E+04
 
   -0.27381E+04         0.24204E+04         0.00000E+00
    0.24204E+04        -0.20531E+04         0.00000E+00
    0.00000E+00         0.00000E+00        -0.14376E+04
 
   -0.23182E+04         0.25024E+04         0.00000E+00
    0.25024E+04        -0.22383E+04         0.00000E+00
    0.00000E+00         0.00000E+00        -0.13672E+04
 
   -0.18747E+04         0.25753E+04         0.00000E+00
    0.25753E+04        -0.24293E+04         0.00000E+00
    0.00000E+00         0.00000E+00        -0.12914E+04
 
   -0.14077E+04         0.26380E+04         0.00000E+00
    0.26380E+04        -0.26258E+04         0.00000E+00
    0.00000E+00         0.00000E+00        -0.12103E+04
 
   -0.60072E+04         0.36838E+02         0.00000E+00
    0.36838E+02        -0.14067E+01         0.00000E+00
    0.00000E+00         0.00000E+00        -0.18026E+04
 
   -0.60489E+04         0.11908E+03         0.00000E+00
    0.11908E+03        -0.90605E+01         0.00000E+00
    0.00000E+00         0.00000E+00        -0.18174E+04
 
   -0.60736E+04         0.21147E+03         0.00000E+00
    0.21147E+03        -0.25215E+02         0.00000E+00
    0.00000E+00         0.00000E+00        -0.18297E+04
 
   -0.60795E+04         0.31269E+03         0.00000E+00
    0.31269E+03        -0.50622E+02         0.00000E+00
    0.00000E+00         0.00000E+00        -0.18391E+04
 
   -0.60652E+04         0.42142E+03         0.00000E+00
    0.42142E+03        -0.85877E+02         0.00000E+00
    0.00000E+00         0.00000E+00        -0.18454E+04
 
   -0.60294E+04         0.53631E+03         0.00000E+00
    0.53631E+03        -0.13142E+03         0.00000E+00
    0.00000E+00         0.00000E+00        -0.18483E+04
 
   -0.59711E+04         0.65603E+03         0.00000E+00
    0.65603E+03        -0.18754E+03         0.00000E+00
    0.00000E+00         0.00000E+00        -0.18477E+04
 
   -0.58897E+04         0.77926E+03         0.00000E+00
    0.77926E+03        -0.25436E+03         0.00000E+00
    0.00000E+00         0.00000E+00        -0.18433E+04
 
   -0.57844E+04         0.90473E+03         0.00000E+00
    0.90473E+03        -0.33184E+03         0.00000E+00
    0.00000E+00         0.00000E+00        -0.18350E+04
 
   -0.56550E+04         0.10312E+04         0.00000E+00
    0.10312E+04        -0.41981E+03         0.00000E+00
    0.00000E+00         0.00000E+00        -0.18226E+04
 
   -0.55012E+04         0.11576E+04         0.00000E+00
    0.11576E+04        -0.51797E+03         0.00000E+00
    0.00000E+00         0.00000E+00        -0.18059E+04
 
   -0.53231E+04         0.12828E+04         0.00000E+00
    0.12828E+04        -0.62591E+03         0.00000E+00
    0.00000E+00         0.00000E+00        -0.17849E+04
 
   -0.51208E+04         0.14061E+04         0.00000E+00
    0.14061E+04        -0.74314E+03         0.00000E+00
    0.00000E+00         0.00000E+00        -0.17593E+04
 
   -0.48944E+04         0.15265E+04         0.00000E+00
    0.15265E+04        -0.86915E+03         0.00000E+00
    0.00000E+00         0.00000E+00        -0.17292E+04
 
   -0.46442E+04         0.16435E+04         0.00000E+00
    0.16435E+04        -0.10034E+04         0.00000E+00
    0.00000E+00         0.00000E+00        -0.16945E+04
 
   -0.43704E+04         0.17563E+04         0.00000E+00
    0.17563E+04        -0.11454E+04         0.00000E+00
    0.00000E+00         0.00000E+00        -0.16549E+04
 
   -0.40733E+04         0.18646E+04         0.00000E+00
    0.18646E+04        -0.12946E+04         0.00000E+00
    0.00000E+00         0.00000E+00        -0.16106E+04
 
   -0.37530E+04         0.19677E+04         0.00000E+00
    0.19677E+04        -0.14507E+04         0.00000E+00
    0.00000E+00         0.00000E+00        -0.15613E+04
 
   -0.34098E+04         0.20651E+04         0.00000E+00
    0.20651E+04        -0.16133E+04         0.00000E+00
    0.00000E+00         0.00000E+00        -0.15071E+04
 
   -0.30437E+04         0.21562E+04         0.00000E+00
    0.21562E+04        -0.17821E+04         0.00000E+00
    0.00000E+00         0.00000E+00        -0.14479E+04
 
   -0.26549E+04         0.22403E+04         0.00000E+00
    0.22403E+04        -0.19569E+04         0.00000E+00
    0.00000E+00         0.00000E+00        -0.13837E+04
 
   -0.22434E+04         0.23166E+04         0.00000E+00
    0.23166E+04        -0.21375E+04         0.00000E+00
    0.00000E+00         0.00000E+00        -0.13145E+04
 
   -0.18095E+04         0.23840E+04         0.00000E+00
    0.23840E+04        -0.23237E+04         0.00000E+00
    0.00000E+00         0.00000E+00        -0.12402E+04
 
   -0.13535E+04         0.24412E+04         0.00000E+00
    0.24412E+04        -0.25153E+04         0.00000E+00
    0.00000E+00         0.00000E+00        -0.11609E+04
 
   -0.59342E+04         0.33325E+02         0.00000E+00
    0.33325E+02        -0.12923E+01         0.00000E+00
    0.00000E+00         0.00000E+00        -0.17807E+04
 
   -0.59656E+04         0.10781E+03         0.00000E+00
    0.10781E+03        -0.83502E+01         0.00000E+00
    0.00000E+00         0.00000E+00        -0.17922E+04
 
   -0.59812E+04         0.19160E+03         0.00000E+00
    0.19160E+03        -0.23301E+02         0.00000E+00
    0.00000E+00         0.00000E+00        -0.18014E+04
 
   -0.59792E+04         0.28356E+03         0.00000E+00
    0.28356E+03        -0.46889E+02         0.00000E+00
    0.00000E+00         0.00000E+00        -0.18079E+04
 
   -0.59582E+04         0.38251E+03         0.00000E+00
    0.38251E+03        -0.79708E+02         0.00000E+00
    0.00000E+00         0.00000E+00        -0.18114E+04
 
   -0.59171E+04         0.48725E+03         0.00000E+00
    0.48725E+03        -0.12221E+03         0.00000E+00
    0.00000E+00         0.00000E+00        -0.18119E+04
 
   -0.58548E+04         0.59660E+03         0.00000E+00
    0.59660E+03        -0.17469E+03         0.00000E+00
    0.00000E+00         0.00000E+00        -0.18089E+04
 
   -0.57704E+04         0.70940E+03         0.00000E+00
    0.70940E+03        -0.23733E+03         0.00000E+00
    0.00000E+00         0.00000E+00        -0.18024E+04
 
   -0.56635E+04         0.82449E+03         0.00000E+00
    0.82449E+03        -0.31014E+03         0.00000E+00
    0.00000E+00         0.00000E+00        -0.17922E+04
 
   -0.55335E+04         0.94081E+03         0.00000E+00
    0.94081E+03        -0.39302E+03         0.00000E+00
    0.00000E+00         0.00000E+00        -0.17781E+04
 
   -0.53802E+04         0.10573E+04         0.00000E+00
    0.10573E+04        -0.48576E+03         0.00000E+00
    0.00000E+00         0.00000E+00        -0.17599E+04
 
   -0.52034E+04         0.11731E+04         0.00000E+00
    0.11731E+04        -0.58805E+03         0.00000E+00
    0.00000E+00         0.00000E+00        -0.17376E+04
 
   -0.50033E+04         0.12874E+04         0.00000E+00
    0.12874E+04        -0.69952E+03         0.00000E+00
    0.00000E+00         0.00000E+00        -0.17110E+04
 
   -0.47798E+04         0.13993E+04         0.00000E+00
    0.13993E+04        -0.81976E+03         0.00000E+00
    0.00000E+00         0.00000E+00        -0.16800E+04
 
   -0.45331E+04         0.15082E+04         0.00000E+00
    0.15082E+04        -0.94831E+03         0.00000E+00
    0.00000E+00         0.00000E+00        -0.16446E+04
 
   -0.42635E+04         0.16134E+04         0.00000E+00
    0.16134E+04        -0.10847E+04         0.00000E+00
    0.00000E+00         0.00000E+00        -0.16047E+04
 
   -0.39710E+04         0.17145E+04         0.00000E+00
    0.17145E+04        -0.12286E+04         0.00000E+00
    0.00000E+00         0.00000E+00        -0.15601E+04
 
   -0.36560E+04         0.18108E+04         0.00000E+00
    0.18108E+04        -0.13796E+04         0.00000E+00
    0.00000E+00         0.00000E+00        -0.15109E+04
 
   -0.33186E+04         0.19018E+04         0.00000E+00
    0.19018E+04        -0.15373E+04         0.00000E+00
    0.00000E+00         0.00000E+00        -0.14570E+04
 
   -0.29590E+04         0.19867E+04         0.00000E+00
    0.19867E+04        -0.17015E+04         0.00000E+00
    0.00000E+00         0.00000E+00        -0.13983E+04
 
   -0.25775E+04         0.20649E+04         0.00000E+00
    0.20649E+04        -0.18717E+04         0.00000E+00
    0.00000E+00         0.00000E+00        -0.13350E+04
 
   -0.21743E+04         0.21354E+04         0.00000E+00
    0.21354E+04        -0.20478E+04         0.00000E+00
    0.00000E+00         0.00000E+00        -0.12669E+04
 
   -0.17497E+04         0.21973E+04         0.00000E+00
    0.21973E+04        -0.22295E+04         0.00000E+00
    0.00000E+00         0.00000E+00        -0.11940E+04
 
   -0.13044E+04         0.22494E+04         0.00000E+00
    0.22494E+04        -0.24165E+04         0.00000E+00
    0.00000E+00         0.00000E+00        -0.11165E+04
 
   -0.58682E+04         0.30084E+02         0.00000E+00
    0.30084E+02        -0.11952E+01         0.00000E+00
    0.00000E+00         0.00000E+00        -0.17608E+04
 
   -0.58902E+04         0.97362E+02         0.00000E+00
    0.97362E+02        -0.77424E+01         0.00000E+00
    0.00000E+00         0.00000E+00        -0.17694E+04
 
   -0.58973E+04         0.17314E+03         0.00000E+00
    0.17314E+03        -0.21655E+02         0.00000E+00
    0.00000E+00         0.00000E+00        -0.17757E+04
 
   -0.58881E+04         0.25642E+03         0.00000E+00
    0.25642E+03        -0.43667E+02         0.00000E+00
    0.00000E+00         0.00000E+00        -0.17796E+04
 
   -0.58610E+04         0.34616E+03         0.00000E+00
    0.34616E+03        -0.74372E+02         0.00000E+00
    0.00000E+00         0.00000E+00        -0.17807E+04
 
   -0.58148E+04         0.44131E+03         0.00000E+00
    0.44131E+03        -0.11423E+03         0.00000E+00
    0.00000E+00         0.00000E+00        -0.17788E+04
 
   -0.57485E+04         0.54083E+03         0.00000E+00
    0.54083E+03        -0.16357E+03         0.00000E+00
    0.00000E+00         0.00000E+00        -0.17737E+04
 
   -0.56613E+04         0.64366E+03         0.00000E+00
    0.64366E+03        -0.22258E+03         0.00000E+00
    0.00000E+00         0.00000E+00        -0.17653E+04
 
   -0.55526E+04         0.74882E+03         0.00000E+00
    0.74882E+03        -0.29134E+03         0.00000E+00
    0.00000E+00         0.00000E+00        -0.17533E+04
 
   -0.54218E+04         0.85531E+03         0.00000E+00
    0.85531E+03        -0.36982E+03         0.00000E+00
    0.00000E+00         0.00000E+00        -0.17376E+04
 
   -0.52686E+04         0.96224E+03         0.00000E+00
    0.96224E+03        -0.45787E+03         0.00000E+00
    0.00000E+00         0.00000E+00        -0.17181E+04
 
   -0.50929E+04         0.10687E+04         0.00000E+00
    0.10687E+04        -0.55527E+03         0.00000E+00
    0.00000E+00         0.00000E+00        -0.16946E+04
 
   -0.48945E+04         0.11740E+04         0.00000E+00
    0.11740E+04        -0.66174E+03         0.00000E+00
    0.00000E+00         0.00000E+00        -0.16670E+04
 
   -0.46735E+04         0.12774E+04         0.00000E+00
    0.12774E+04        -0.77693E+03         0.00000E+00
    0.00000E+00         0.00000E+00        -0.16353E+04
 
   -0.44299E+04         0.13781E+04         0.00000E+00
    0.13781E+04        -0.90047E+03         0.00000E+00
    0.00000E+00         0.00000E+00        -0.15993E+04
 
   -0.41640E+04         0.14757E+04         0.00000E+00
    0.14757E+04        -0.10320E+04         0.00000E+00
    0.00000E+00         0.00000E+00        -0.15590E+04
 
   -0.38758E+04         0.15694E+04         0.00000E+00
    0.15694E+04        -0.11711E+04         0.00000E+00
    0.00000E+00         0.00000E+00        -0.15143E+04
 
   -0.35657E+04         0.16587E+04         0.00000E+00
    0.16587E+04        -0.13175E+04         0.00000E+00
    0.00000E+00         0.00000E+00        -0.14652E+04
 
   -0.32338E+04         0.17430E+04         0.00000E+00
    0.17430E+04        -0.14707E+04         0.00000E+00
    0.00000E+00         0.00000E+00        -0.14116E+04
 
   -0.28804E+04         0.18216E+04         0.00000E+00
    0.18216E+04        -0.16305E+04         0.00000E+00
    0.00000E+00         0.00000E+00        -0.13535E+04
 
   -0.25059E+04         0.18938E+04         0.00000E+00
    0.18938E+04        -0.17965E+04         0.00000E+00
    0.00000E+00         0.00000E+00        -0.12910E+04
 
   -0.21107E+04         0.19586E+04         0.00000E+00
    0.19586E+04        -0.19684E+04         0.00000E+00
    0.00000E+00         0.00000E+00        -0.12239E+04
 
   -0.16952E+04         0.20152E+04         0.00000E+00
    0.20152E+04        -0.21458E+04         0.00000E+00
    0.00000E+00         0.00000E+00        -0.11525E+04
 
   -0.12601E+04         0.20623E+04         0.00000E+00
    0.20623E+04        -0.23282E+04         0.00000E+00
    0.00000E+00         0.00000E+00        -0.10767E+04
 
   -0.58087E+04         0.27075E+02         0.00000E+00
    0.27075E+02        -0.11139E+01         0.00000E+00
    0.00000E+00         0.00000E+00        -0.17430E+04
 
   -0.58221E+04         0.87630E+02         0.00000E+00
    0.87630E+02        -0.72296E+01         0.00000E+00
    0.00000E+00         0.00000E+00        -0.17488E+04
 
   -0.58217E+04         0.15589E+03         0.00000E+00
    0.15589E+03        -0.20257E+02         0.00000E+00
    0.00000E+00         0.00000E+00        -0.17526E+04
 
   -0.58057E+04         0.23099E+03         0.00000E+00
    0.23099E+03        -0.40919E+02         0.00000E+00
    0.00000E+00         0.00000E+00        -0.17540E+04
 
   -0.57729E+04         0.31202E+03         0.00000E+00
    0.31202E+03        -0.69808E+02         0.00000E+00
    0.00000E+00         0.00000E+00        -0.17529E+04
 
   -0.57220E+04         0.39806E+03         0.00000E+00
    0.39806E+03        -0.10739E+03         0.00000E+00
    0.00000E+00         0.00000E+00        -0.17489E+04
 
   -0.56520E+04         0.48820E+03         0.00000E+00
    0.48820E+03        -0.15401E+03         0.00000E+00
    0.00000E+00         0.00000E+00        -0.17419E+04
 
   -0.55620E+04         0.58150E+03         0.00000E+00
    0.58150E+03        -0.20990E+03         0.00000E+00
    0.00000E+00         0.00000E+00        -0.17317E+04
 
   -0.54515E+04         0.67708E+03         0.00000E+00
    0.67708E+03        -0.27518E+03         0.00000E+00
    0.00000E+00         0.00000E+00        -0.17181E+04
 
   -0.53197E+04         0.77406E+03         0.00000E+00
    0.77406E+03        -0.34986E+03         0.00000E+00
    0.00000E+00         0.00000E+00        -0.17010E+04
 
   -0.51665E+04         0.87162E+03         0.00000E+00
    0.87162E+03        -0.43386E+03         0.00000E+00
    0.00000E+00         0.00000E+00        -0.16802E+04
 
   -0.49914E+04         0.96898E+03         0.00000E+00
    0.96898E+03        -0.52703E+03         0.00000E+00
    0.00000E+00         0.00000E+00        -0.16557E+04
 
   -0.47944E+04         0.10654E+04         0.00000E+00
    0.10654E+04        -0.62915E+03         0.00000E+00
    0.00000E+00         0.00000E+00        -0.16272E+04
 
   -0.45755E+04         0.11602E+04         0.00000E+00
    0.11602E+04        -0.73993E+03         0.00000E+00
    0.00000E+00         0.00000E+00        -0.15948E+04
 
   -0.43347E+04         0.12528E+04         0.00000E+00
    0.12528E+04        -0.85908E+03         0.00000E+00
    0.00000E+00         0.00000E+00        -0.15583E+04
 
   -0.40721E+04         0.13425E+04         0.00000E+00
    0.13425E+04        -0.98627E+03         0.00000E+00
    0.00000E+00         0.00000E+00        -0.15177E+04
 
   -0.37879E+04         0.14288E+04         0.00000E+00
    0.14288E+04        -0.11211E+04         0.00000E+00
    0.00000E+00         0.00000E+00        -0.14729E+04
 
   -0.34823E+04         0.15110E+04         0.00000E+00
    0.15110E+04        -0.12633E+04         0.00000E+00
    0.00000E+00         0.00000E+00        -0.14239E+04
 
   -0.31556E+04         0.15885E+04         0.00000E+00
    0.15885E+04        -0.14125E+04         0.00000E+00
    0.00000E+00         0.00000E+00        -0.13706E+04
 
   -0.28081E+04         0.16607E+04         0.00000E+00
    0.16607E+04        -0.15684E+04         0.00000E+00
    0.00000E+00         0.00000E+00        -0.13131E+04
 
   -0.24402E+04         0.17268E+04         0.00000E+00
    0.17268E+04        -0.17304E+04         0.00000E+00
    0.00000E+00         0.00000E+00        -0.12514E+04
 
   -0.20526E+04         0.17860E+04         0.00000E+00
    0.17860E+04        -0.18983E+04         0.00000E+00
    0.00000E+00         0.00000E+00        -0.11855E+04
 
   -0.16457E+04         0.18373E+04         0.00000E+00
    0.18373E+04        -0.20716E+04         0.00000E+00
    0.00000E+00         0.00000E+00        -0.11154E+04
 
   -0.12203E+04         0.18798E+04         0.00000E+00
    0.18798E+04        -0.22497E+04         0.00000E+00
    0.00000E+00         0.00000E+00        -0.10412E+04
 
   -0.57553E+04         0.24257E+02         0.00000E+00
    0.24257E+02        -0.10467E+01         0.00000E+00
    0.00000E+00         0.00000E+00        -0.17269E+04
 
   -0.57610E+04         0.78499E+02         0.00000E+00
    0.78499E+02        -0.68025E+01         0.00000E+00
    0.00000E+00         0.00000E+00        -0.17304E+04
 
   -0.57536E+04         0.13967E+03         0.00000E+00
    0.13967E+03        -0.19085E+02         0.00000E+00
    0.00000E+00         0.00000E+00        -0.17318E+04
 
   -0.57316E+04         0.20702E+03         0.00000E+00
    0.20702E+03        -0.38602E+02         0.00000E+00
    0.00000E+00         0.00000E+00        -0.17311E+04
 
   -0.56935E+04         0.27977E+03         0.00000E+00
    0.27977E+03        -0.65943E+02         0.00000E+00
    0.00000E+00         0.00000E+00        -0.17279E+04
 
   -0.56382E+04         0.35713E+03         0.00000E+00
    0.35713E+03        -0.10158E+03         0.00000E+00
    0.00000E+00         0.00000E+00        -0.17220E+04
 
   -0.55647E+04         0.43828E+03         0.00000E+00
    0.43828E+03        -0.14588E+03         0.00000E+00
    0.00000E+00         0.00000E+00        -0.17133E+04
 
   -0.54721E+04         0.52241E+03         0.00000E+00
    0.52241E+03        -0.19910E+03         0.00000E+00
    0.00000E+00         0.00000E+00        -0.17015E+04
 
   -0.53597E+04         0.60873E+03         0.00000E+00
    0.60873E+03        -0.26138E+03         0.00000E+00
    0.00000E+00         0.00000E+00        -0.16865E+04
 
   -0.52270E+04         0.69646E+03         0.00000E+00
    0.69646E+03        -0.33280E+03         0.00000E+00
    0.00000E+00         0.00000E+00        -0.16681E+04
 
   -0.50735E+04         0.78486E+03         0.00000E+00
    0.78486E+03        -0.41331E+03         0.00000E+00
    0.00000E+00         0.00000E+00        -0.16462E+04
 
   -0.48989E+04         0.87322E+03         0.00000E+00
    0.87322E+03        -0.50283E+03         0.00000E+00
    0.00000E+00         0.00000E+00        -0.16207E+04
 
   -0.47031E+04         0.96088E+03         0.00000E+00
    0.96088E+03        -0.60118E+03         0.00000E+00
    0.00000E+00         0.00000E+00        -0.15914E+04
 
   -0.44859E+04         0.10472E+04         0.00000E+00
    0.10472E+04        -0.70813E+03         0.00000E+00
    0.00000E+00         0.00000E+00        -0.15584E+04
 
   -0.42475E+04         0.11316E+04         0.00000E+00
    0.11316E+04        -0.82344E+03         0.00000E+00
    0.00000E+00         0.00000E+00        -0.15215E+04
 
   -0.39879E+04         0.12134E+04         0.00000E+00
    0.12134E+04        -0.94680E+03         0.00000E+00
    0.00000E+00         0.00000E+00        -0.14806E+04
 
   -0.37073E+04         0.12921E+04         0.00000E+00
    0.12921E+04        -0.10779E+04         0.00000E+00
    0.00000E+00         0.00000E+00        -0.14357E+04
 
   -0.34058E+04         0.13671E+04         0.00000E+00
    0.13671E+04        -0.12164E+04         0.00000E+00
    0.00000E+00         0.00000E+00        -0.13869E+04
 
   -0.30839E+04         0.14378E+04         0.00000E+00
    0.14378E+04        -0.13619E+04         0.00000E+00
    0.00000E+00         0.00000E+00        -0.13340E+04
 
   -0.27420E+04         0.15035E+04         0.00000E+00
    0.15035E+04        -0.15141E+04         0.00000E+00
    0.00000E+00         0.00000E+00        -0.12770E+04
 
   -0.23804E+04         0.15636E+04         0.00000E+00
    0.15636E+04        -0.16725E+04         0.00000E+00
    0.00000E+00         0.00000E+00        -0.12161E+04
 
   -0.19999E+04         0.16172E+04         0.00000E+00
    0.16172E+04        -0.18366E+04         0.00000E+00
    0.00000E+00         0.00000E+00        -0.11512E+04
 
   -0.16010E+04         0.16635E+04         0.00000E+00
    0.16635E+04        -0.20061E+04         0.00000E+00
    0.00000E+00         0.00000E+00        -0.10824E+04
 
   -0.11848E+04         0.17015E+04         0.00000E+00
    0.17015E+04        -0.21802E+04         0.00000E+00
    0.00000E+00         0.00000E+00        -0.10097E+04
 
   -0.57075E+04         0.21598E+02         0.00000E+00
    0.21598E+02        -0.99205E+00         0.00000E+00
    0.00000E+00         0.00000E+00        -0.17126E+04
 
   -0.57064E+04         0.69868E+02         0.00000E+00
    0.69868E+02        -0.64512E+01         0.00000E+00
    0.00000E+00         0.00000E+00        -0.17139E+04
 
   -0.56928E+04         0.12430E+03         0.00000E+00
    0.12430E+03        -0.18113E+02         0.00000E+00
    0.00000E+00         0.00000E+00        -0.17133E+04
 
   -0.56653E+04         0.18428E+03         0.00000E+00
    0.18428E+03        -0.36670E+02         0.00000E+00
    0.00000E+00         0.00000E+00        -0.17106E+04
 
   -0.56224E+04         0.24914E+03         0.00000E+00
    0.24914E+03        -0.62704E+02         0.00000E+00
    0.00000E+00         0.00000E+00        -0.17056E+04
 
   -0.55631E+04         0.31817E+03         0.00000E+00
    0.31817E+03        -0.96696E+02         0.00000E+00
    0.00000E+00         0.00000E+00        -0.16980E+04
 
   -0.54864E+04         0.39067E+03         0.00000E+00
    0.39067E+03        -0.13902E+03         0.00000E+00
    0.00000E+00         0.00000E+00        -0.16877E+04
 
   -0.53913E+04         0.46594E+03         0.00000E+00
    0.46594E+03        -0.18996E+03         0.00000E+00
    0.00000E+00         0.00000E+00        -0.16745E+04
 
   -0.52771E+04         0.54328E+03         0.00000E+00
    0.54328E+03        -0.24969E+03         0.00000E+00
    0.00000E+00         0.00000E+00        -0.16582E+04
 
   -0.51433E+04         0.62199E+03         0.00000E+00
    0.62199E+03        -0.31831E+03         0.00000E+00
    0.00000E+00         0.00000E+00        -0.16386E+04
 
   -0.49895E+04         0.70141E+03         0.00000E+00
    0.70141E+03        -0.39584E+03         0.00000E+00
    0.00000E+00         0.00000E+00        -0.16157E+04
 
   -0.48152E+04         0.78092E+03         0.00000E+00
    0.78092E+03        -0.48222E+03         0.00000E+00
    0.00000E+00         0.00000E+00        -0.15894E+04
 
   -0.46203E+04         0.85989E+03         0.00000E+00
    0.85989E+03        -0.57731E+03         0.00000E+00
    0.00000E+00         0.00000E+00        -0.15594E+04
 
   -0.44047E+04         0.93774E+03         0.00000E+00
    0.93774E+03        -0.68095E+03         0.00000E+00
    0.00000E+00         0.00000E+00        -0.15259E+04
 
   -0.41684E+04         0.10139E+04         0.00000E+00
    0.10139E+04        -0.79290E+03         0.00000E+00
    0.00000E+00         0.00000E+00        -0.14886E+04
 
   -0.39114E+04         0.10878E+04         0.00000E+00
    0.10878E+04        -0.91291E+03         0.00000E+00
    0.00000E+00         0.00000E+00        -0.14475E+04
 
   -0.36340E+04         0.11590E+04         0.00000E+00
    0.11590E+04        -0.10407E+04         0.00000E+00
    0.00000E+00         0.00000E+00        -0.14026E+04
 
   -0.33364E+04         0.12267E+04         0.00000E+00
    0.12267E+04        -0.11758E+04         0.00000E+00
    0.00000E+00         0.00000E+00        -0.13539E+04
 
   -0.30190E+04         0.12906E+04         0.00000E+00
    0.12906E+04        -0.13180E+04         0.00000E+00
    0.00000E+00         0.00000E+00        -0.13013E+04
 
   -0.26821E+04         0.13499E+04         0.00000E+00
    0.13499E+04        -0.14669E+04         0.00000E+00
    0.00000E+00         0.00000E+00        -0.12449E+04
 
   -0.23264E+04         0.14039E+04         0.00000E+00
    0.14039E+04        -0.16220E+04         0.00000E+00
    0.00000E+00         0.00000E+00        -0.11847E+04
 
   -0.19524E+04         0.14520E+04         0.00000E+00
    0.14520E+04        -0.17828E+04         0.00000E+00
    0.00000E+00         0.00000E+00        -0.11208E+04
 
   -0.15611E+04         0.14934E+04         0.00000E+00
    0.14934E+04        -0.19487E+04         0.00000E+00
    0.00000E+00         0.00000E+00        -0.10532E+04
 
   -0.11534E+04         0.15271E+04         0.00000E+00
    0.15271E+04        -0.21191E+04         0.00000E+00
    0.00000E+00         0.00000E+00        -0.98197E+03
 
   -0.56652E+04         0.19066E+02         0.00000E+00
    0.19066E+02        -0.94812E+00         0.00000E+00
    0.00000E+00         0.00000E+00        -0.16999E+04
 
   -0.56580E+04         0.61647E+02         0.00000E+00
    0.61647E+02        -0.61660E+01         0.00000E+00
    0.00000E+00         0.00000E+00        -0.16993E+04
 
   -0.56389E+04         0.10966E+03         0.00000E+00
    0.10966E+03        -0.17317E+02         0.00000E+00
    0.00000E+00         0.00000E+00        -0.16969E+04
 
   -0.56065E+04         0.16259E+03         0.00000E+00
    0.16259E+03        -0.35076E+02         0.00000E+00
    0.00000E+00         0.00000E+00        -0.16925E+04
 
   -0.55593E+04         0.21985E+03         0.00000E+00
    0.21985E+03        -0.60018E+02         0.00000E+00
    0.00000E+00         0.00000E+00        -0.16859E+04
 
   -0.54964E+04         0.28087E+03         0.00000E+00
    0.28087E+03        -0.92626E+02         0.00000E+00
    0.00000E+00         0.00000E+00        -0.16768E+04
 
   -0.54167E+04         0.34503E+03         0.00000E+00
    0.34503E+03        -0.13329E+03         0.00000E+00
    0.00000E+00         0.00000E+00        -0.16651E+04
 
   -0.53193E+04         0.41171E+03         0.00000E+00
    0.41171E+03        -0.18230E+03         0.00000E+00
    0.00000E+00         0.00000E+00        -0.16506E+04
 
   -0.52034E+04         0.48029E+03         0.00000E+00
    0.48029E+03        -0.23987E+03         0.00000E+00
    0.00000E+00         0.00000E+00        -0.16331E+04
 
   -0.50686E+04         0.55019E+03         0.00000E+00
    0.55019E+03        -0.30612E+03         0.00000E+00
    0.00000E+00         0.00000E+00        -0.16125E+04
 
   -0.49143E+04         0.62081E+03         0.00000E+00
    0.62081E+03        -0.38110E+03         0.00000E+00
    0.00000E+00         0.00000E+00        -0.15888E+04
 
   -0.47402E+04         0.69158E+03         0.00000E+00
    0.69158E+03        -0.46479E+03         0.00000E+00
    0.00000E+00         0.00000E+00        -0.15617E+04
 
   -0.45461E+04         0.76195E+03         0.00000E+00
    0.76195E+03        -0.55709E+03         0.00000E+00
    0.00000E+00         0.00000E+00        -0.15311E+04
 
   -0.43318E+04         0.83139E+03         0.00000E+00
    0.83139E+03        -0.65787E+03         0.00000E+00
    0.00000E+00         0.00000E+00        -0.14971E+04
 
   -0.40973E+04         0.89938E+03         0.00000E+00
    0.89938E+03        -0.76692E+03         0.00000E+00
    0.00000E+00         0.00000E+00        -0.14594E+04
 
   -0.38427E+04         0.96540E+03         0.00000E+00
    0.96540E+03        -0.88400E+03         0.00000E+00
    0.00000E+00         0.00000E+00        -0.14182E+04
 
   -0.35682E+04         0.10289E+04         0.00000E+00
    0.10289E+04        -0.10088E+04         0.00000E+00
    0.00000E+00         0.00000E+00        -0.13733E+04
 
   -0.32741E+04         0.10895E+04         0.00000E+00
    0.10895E+04        -0.11410E+04         0.00000E+00
    0.00000E+00         0.00000E+00        -0.13247E+04
 
   -0.29606E+04         0.11465E+04         0.00000E+00
    0.11465E+04        -0.12803E+04         0.00000E+00
    0.00000E+00         0.00000E+00        -0.12725E+04
 
   -0.26284E+04         0.11993E+04         0.00000E+00
    0.11993E+04        -0.14262E+04         0.00000E+00
    0.00000E+00         0.00000E+00        -0.12166E+04
 
   -0.22780E+04         0.12475E+04         0.00000E+00
    0.12475E+04        -0.15783E+04         0.00000E+00
    0.00000E+00         0.00000E+00        -0.11571E+04
 
   -0.19102E+04         0.12902E+04         0.00000E+00
    0.12902E+04        -0.17360E+04         0.00000E+00
    0.00000E+00         0.00000E+00        -0.10941E+04
 
   -0.15257E+04         0.13268E+04         0.00000E+00
    0.13268E+04        -0.18987E+04         0.00000E+00
    0.00000E+00         0.00000E+00        -0.10275E+04
 
   -0.11257E+04         0.13564E+04         0.00000E+00
    0.13564E+04        -0.20658E+04         0.00000E+00
    0.00000E+00         0.00000E+00        -0.95766E+03
 
   -0.56281E+04         0.16637E+02         0.00000E+00
    0.16637E+02        -0.91333E+00         0.00000E+00
    0.00000E+00         0.00000E+00        -0.16887E+04
 
   -0.56156E+04         0.53761E+02         0.00000E+00
    0.53761E+02        -0.59373E+01         0.00000E+00
    0.00000E+00         0.00000E+00        -0.16865E+04
 
   -0.55916E+04         0.95609E+02         0.00000E+00
    0.95609E+02        -0.16673E+02         0.00000E+00
    0.00000E+00         0.00000E+00        -0.16825E+04
 
   -0.55548E+04         0.14175E+03         0.00000E+00
    0.14175E+03        -0.33776E+02         0.00000E+00
    0.00000E+00         0.00000E+00        -0.16766E+04
 
   -0.55039E+04         0.19170E+03         0.00000E+00
    0.19170E+03        -0.57815E+02         0.00000E+00
    0.00000E+00         0.00000E+00        -0.16686E+04
 
   -0.54377E+04         0.24497E+03         0.00000E+00
    0.24497E+03        -0.89273E+02         0.00000E+00
    0.00000E+00         0.00000E+00        -0.16582E+04
 
   -0.53553E+04         0.30103E+03         0.00000E+00
    0.30103E+03        -0.12854E+03         0.00000E+00
    0.00000E+00         0.00000E+00        -0.16452E+04
 
   -0.52558E+04         0.35935E+03         0.00000E+00
    0.35935E+03        -0.17594E+03         0.00000E+00
    0.00000E+00         0.00000E+00        -0.16296E+04
 
   -0.51384E+04         0.41940E+03         0.00000E+00
    0.41940E+03        -0.23169E+03         0.00000E+00
    0.00000E+00         0.00000E+00        -0.16112E+04
 
   -0.50026E+04         0.48067E+03         0.00000E+00
    0.48067E+03        -0.29594E+03         0.00000E+00
    0.00000E+00         0.00000E+00        -0.15897E+04
 
   -0.48479E+04         0.54263E+03         0.00000E+00
    0.54263E+03        -0.36877E+03         0.00000E+00
    0.00000E+00         0.00000E+00        -0.15651E+04
 
   -0.46739E+04         0.60478E+03         0.00000E+00
    0.60478E+03        -0.45018E+03         0.00000E+00
    0.00000E+00         0.00000E+00        -0.15374E+04
 
   -0.44803E+04         0.66664E+03         0.00000E+00
    0.66664E+03        -0.54011E+03         0.00000E+00
    0.00000E+00         0.00000E+00        -0.15063E+04
 
   -0.42671E+04         0.72773E+03         0.00000E+00
    0.72773E+03        -0.63844E+03         0.00000E+00
    0.00000E+00         0.00000E+00        -0.14718E+04
 
   -0.40342E+04         0.78757E+03         0.00000E+00
    0.78757E+03        -0.74499E+03         0.00000E+00
    0.00000E+00         0.00000E+00        -0.14339E+04
 
   -0.37817E+04         0.84571E+03         0.00000E+00
    0.84571E+03        -0.85954E+03         0.00000E+00
    0.00000E+00         0.00000E+00        -0.13926E+04
 
   -0.35098E+04         0.90168E+03         0.00000E+00
    0.90168E+03        -0.98181E+03         0.00000E+00
    0.00000E+00         0.00000E+00        -0.13477E+04
 
   -0.32187E+04         0.95499E+03         0.00000E+00
    0.95499E+03        -0.11115E+04         0.00000E+00
    0.00000E+00         0.00000E+00        -0.12993E+04
 
   -0.29089E+04         0.10052E+04         0.00000E+00
    0.10052E+04        -0.12482E+04         0.00000E+00
    0.00000E+00         0.00000E+00        -0.12473E+04
 
   -0.25809E+04         0.10516E+04         0.00000E+00
    0.10516E+04        -0.13914E+04         0.00000E+00
    0.00000E+00         0.00000E+00        -0.11919E+04
 
   -0.22353E+04         0.10939E+04         0.00000E+00
    0.10939E+04        -0.15408E+04         0.00000E+00
    0.00000E+00         0.00000E+00        -0.11331E+04
 
   -0.18729E+04         0.11313E+04         0.00000E+00
    0.11313E+04        -0.16958E+04         0.00000E+00
    0.00000E+00         0.00000E+00        -0.10708E+04
 
   -0.14946E+04         0.11632E+04         0.00000E+00
    0.11632E+04        -0.18556E+04         0.00000E+00
    0.00000E+00         0.00000E+00        -0.10053E+04
 
   -0.11016E+04         0.11890E+04         0.00000E+00
    0.11890E+04        -0.20197E+04         0.00000E+00
    0.00000E+00         0.00000E+00        -0.93659E+03
 
   -0.55959E+04         0.14289E+02         0.00000E+00
    0.14289E+02        -0.88619E+00         0.00000E+00
    0.00000E+00         0.00000E+00        -0.16791E+04
 
   -0.55789E+04         0.46143E+02         0.00000E+00
    0.46143E+02        -0.57566E+01         0.00000E+00
    0.00000E+00         0.00000E+00        -0.16754E+04
 
   -0.55507E+04         0.82036E+02         0.00000E+00
    0.82036E+02        -0.16159E+02         0.00000E+00
    0.00000E+00         0.00000E+00        -0.16701E+04
 
   -0.55102E+04         0.12161E+03         0.00000E+00
    0.12161E+03        -0.32731E+02         0.00000E+00
    0.00000E+00         0.00000E+00        -0.16629E+04
 
   -0.54559E+04         0.16448E+03         0.00000E+00
    0.16448E+03        -0.56032E+02         0.00000E+00
    0.00000E+00         0.00000E+00        -0.16536E+04
 
   -0.53869E+04         0.21023E+03         0.00000E+00
    0.21023E+03        -0.86544E+02         0.00000E+00
    0.00000E+00         0.00000E+00        -0.16421E+04
 
   -0.53021E+04         0.25840E+03         0.00000E+00
    0.25840E+03        -0.12467E+03         0.00000E+00
    0.00000E+00         0.00000E+00        -0.16281E+04
 
   -0.52007E+04         0.30856E+03         0.00000E+00
    0.30856E+03        -0.17073E+03         0.00000E+00
    0.00000E+00         0.00000E+00        -0.16115E+04
 
   -0.50819E+04         0.36026E+03         0.00000E+00
    0.36026E+03        -0.22496E+03         0.00000E+00
    0.00000E+00         0.00000E+00        -0.15922E+04
 
   -0.49452E+04         0.41305E+03         0.00000E+00
    0.41305E+03        -0.28755E+03         0.00000E+00
    0.00000E+00         0.00000E+00        -0.15700E+04
 
   -0.47900E+04         0.46648E+03         0.00000E+00
    0.46648E+03        -0.35858E+03         0.00000E+00
    0.00000E+00         0.00000E+00        -0.15447E+04
 
   -0.46161E+04         0.52012E+03         0.00000E+00
    0.52012E+03        -0.43807E+03         0.00000E+00
    0.00000E+00         0.00000E+00        -0.15164E+04
 
   -0.44230E+04         0.57355E+03         0.00000E+00
    0.57355E+03        -0.52600E+03         0.00000E+00
    0.00000E+00         0.00000E+00        -0.14849E+04
 
   -0.42107E+04         0.62634E+03         0.00000E+00
    0.62634E+03        -0.62226E+03         0.00000E+00
    0.00000E+00         0.00000E+00        -0.14501E+04
 
   -0.39792E+04         0.67809E+03         0.00000E+00
    0.67809E+03        -0.72670E+03         0.00000E+00
    0.00000E+00         0.00000E+00        -0.14119E+04
 
   -0.37285E+04         0.72838E+03         0.00000E+00
    0.72838E+03        -0.83909E+03         0.00000E+00
    0.00000E+00         0.00000E+00        -0.13705E+04
 
   -0.34588E+04         0.77679E+03         0.00000E+00
    0.77679E+03        -0.95917E+03         0.00000E+00
    0.00000E+00         0.00000E+00        -0.13256E+04
 
   -0.31705E+04         0.82290E+03         0.00000E+00
    0.82290E+03        -0.10866E+04         0.00000E+00
    0.00000E+00         0.00000E+00        -0.12773E+04
 
   -0.28638E+04         0.86626E+03         0.00000E+00
    0.86626E+03        -0.12211E+04         0.00000E+00
    0.00000E+00         0.00000E+00        -0.12257E+04
 
   -0.25395E+04         0.90641E+03         0.00000E+00
    0.90641E+03        -0.13621E+04         0.00000E+00
    0.00000E+00         0.00000E+00        -0.11707E+04
 
   -0.21982E+04         0.94285E+03         0.00000E+00
    0.94285E+03        -0.15091E+04         0.00000E+00
    0.00000E+00         0.00000E+00        -0.11124E+04
 
   -0.18406E+04         0.97505E+03         0.00000E+00
    0.97505E+03        -0.16616E+04         0.00000E+00
    0.00000E+00         0.00000E+00        -0.10509E+04
 
   -0.14678E+04         0.10025E+04         0.00000E+00
    0.10025E+04        -0.18189E+04         0.00000E+00
    0.00000E+00         0.00000E+00        -0.98623E+03
 
   -0.10809E+04         0.10245E+04         0.00000E+00
    0.10245E+04        -0.19803E+04         0.00000E+00
    0.00000E+00         0.00000E+00        -0.91857E+03
 
   -0.55686E+04         0.12003E+02         0.00000E+00
    0.12003E+02        -0.86538E+00         0.00000E+00
    0.00000E+00         0.00000E+00        -0.16709E+04
 
   -0.55477E+04         0.38738E+02         0.00000E+00
    0.38738E+02        -0.56162E+01         0.00000E+00
    0.00000E+00         0.00000E+00        -0.16660E+04
 
   -0.55160E+04         0.68846E+02         0.00000E+00
    0.68846E+02        -0.15755E+02         0.00000E+00
    0.00000E+00         0.00000E+00        -0.16596E+04
 
   -0.54722E+04         0.10205E+03         0.00000E+00
    0.10205E+03        -0.31903E+02         0.00000E+00
    0.00000E+00         0.00000E+00        -0.16513E+04
 
   -0.54151E+04         0.13802E+03         0.00000E+00
    0.13802E+03        -0.54611E+02         0.00000E+00
    0.00000E+00         0.00000E+00        -0.16410E+04
 
   -0.53436E+04         0.17643E+03         0.00000E+00
    0.17643E+03        -0.84358E+02         0.00000E+00
    0.00000E+00         0.00000E+00        -0.16285E+04
 
   -0.52568E+04         0.21690E+03         0.00000E+00
    0.21690E+03        -0.12155E+03         0.00000E+00
    0.00000E+00         0.00000E+00        -0.16136E+04
 
   -0.51538E+04         0.25907E+03         0.00000E+00
    0.25907E+03        -0.16652E+03         0.00000E+00
    0.00000E+00         0.00000E+00        -0.15962E+04
 
   -0.50338E+04         0.30256E+03         0.00000E+00
    0.30256E+03        -0.21952E+03         0.00000E+00
    0.00000E+00         0.00000E+00        -0.15761E+04
 
   -0.48963E+04         0.34701E+03         0.00000E+00
    0.34701E+03        -0.28073E+03         0.00000E+00
    0.00000E+00         0.00000E+00        -0.15532E+04
 
   -0.47407E+04         0.39202E+03         0.00000E+00
    0.39202E+03        -0.35028E+03         0.00000E+00
    0.00000E+00         0.00000E+00        -0.15274E+04
 
   -0.45667E+04         0.43725E+03         0.00000E+00
    0.43725E+03        -0.42820E+03         0.00000E+00
    0.00000E+00         0.00000E+00        -0.14986E+04
 
   -0.43740E+04         0.48232E+03         0.00000E+00
    0.48232E+03        -0.51447E+03         0.00000E+00
    0.00000E+00         0.00000E+00        -0.14667E+04
 
   -0.41625E+04         0.52688E+03         0.00000E+00
    0.52688E+03        -0.60901E+03         0.00000E+00
    0.00000E+00         0.00000E+00        -0.14316E+04
 
   -0.39321E+04         0.57057E+03         0.00000E+00
    0.57057E+03        -0.71167E+03         0.00000E+00
    0.00000E+00         0.00000E+00        -0.13933E+04
 
   -0.36829E+04         0.61304E+03         0.00000E+00
    0.61304E+03        -0.82225E+03         0.00000E+00
    0.00000E+00         0.00000E+00        -0.13517E+04
 
   -0.34152E+04         0.65393E+03         0.00000E+00
    0.65393E+03        -0.94049E+03         0.00000E+00
    0.00000E+00         0.00000E+00        -0.13069E+04
 
   -0.31292E+04         0.69286E+03         0.00000E+00
    0.69286E+03        -0.10661E+04         0.00000E+00
    0.00000E+00         0.00000E+00        -0.12588E+04
 
   -0.28253E+04         0.72946E+03         0.00000E+00
    0.72946E+03        -0.11986E+04         0.00000E+00
    0.00000E+00         0.00000E+00        -0.12074E+04
 
   -0.25042E+04         0.76333E+03         0.00000E+00
    0.76333E+03        -0.13376E+04         0.00000E+00
    0.00000E+00         0.00000E+00        -0.11528E+04
 
   -0.21665E+04         0.79403E+03         0.00000E+00
    0.79403E+03        -0.14826E+04         0.00000E+00
    0.00000E+00         0.00000E+00        -0.10950E+04
 
   -0.18131E+04         0.82111E+03         0.00000E+00
    0.82111E+03        -0.16331E+04         0.00000E+00
    0.00000E+00         0.00000E+00        -0.10341E+04
 
   -0.14450E+04         0.84410E+03         0.00000E+00
    0.84410E+03        -0.17882E+04         0.00000E+00
    0.00000E+00         0.00000E+00        -0.97019E+03
 
   -0.10634E+04         0.86249E+03         0.00000E+00
    0.86249E+03        -0.19473E+04         0.00000E+00
    0.00000E+00         0.00000E+00        -0.90343E+03
 
   -0.55460E+04         0.97648E+01         0.00000E+00
    0.97648E+01        -0.84978E+00         0.00000E+00
    0.00000E+00         0.00000E+00        -0.16641E+04
 
   -0.55219E+04         0.31496E+02         0.00000E+00
    0.31496E+02        -0.55094E+01         0.00000E+00
    0.00000E+00         0.00000E+00        -0.16583E+04
 
   -0.54873E+04         0.55959E+02         0.00000E+00
    0.55959E+02        -0.15445E+02         0.00000E+00
    0.00000E+00         0.00000E+00        -0.16509E+04
 
   -0.54408E+04         0.82932E+02         0.00000E+00
    0.82932E+02        -0.31261E+02         0.00000E+00
    0.00000E+00         0.00000E+00        -0.16417E+04
 
   -0.53814E+04         0.11217E+03         0.00000E+00
    0.11217E+03        -0.53502E+02         0.00000E+00
    0.00000E+00         0.00000E+00        -0.16305E+04
 
   -0.53078E+04         0.14339E+03         0.00000E+00
    0.14339E+03        -0.82645E+02         0.00000E+00
    0.00000E+00         0.00000E+00        -0.16172E+04
 
   -0.52193E+04         0.17631E+03         0.00000E+00
    0.17631E+03        -0.11910E+03         0.00000E+00
    0.00000E+00         0.00000E+00        -0.16016E+04
 
   -0.51149E+04         0.21063E+03         0.00000E+00
    0.21063E+03        -0.16319E+03         0.00000E+00
    0.00000E+00         0.00000E+00        -0.15835E+04
 
   -0.49939E+04         0.24604E+03         0.00000E+00
    0.24604E+03        -0.21520E+03         0.00000E+00
    0.00000E+00         0.00000E+00        -0.15628E+04
 
   -0.48556E+04         0.28225E+03         0.00000E+00
    0.28225E+03        -0.27532E+03         0.00000E+00
    0.00000E+00         0.00000E+00        -0.15394E+04
 
   -0.46997E+04         0.31895E+03         0.00000E+00
    0.31895E+03        -0.34367E+03         0.00000E+00
    0.00000E+00         0.00000E+00        -0.15131E+04
 
   -0.45257E+04         0.35584E+03         0.00000E+00
    0.35584E+03        -0.42032E+03         0.00000E+00
    0.00000E+00         0.00000E+00        -0.14839E+04
 
   -0.43333E+04         0.39262E+03         0.00000E+00
    0.39262E+03        -0.50524E+03         0.00000E+00
    0.00000E+00         0.00000E+00        -0.14517E+04
 
   -0.41224E+04         0.42899E+03         0.00000E+00
    0.42899E+03        -0.59838E+03         0.00000E+00
    0.00000E+00         0.00000E+00        -0.14164E+04
 
   -0.38929E+04         0.46467E+03         0.00000E+00
    0.46467E+03        -0.69960E+03         0.00000E+00
    0.00000E+00         0.00000E+00        -0.13779E+04
 
   -0.36450E+04         0.49936E+03         0.00000E+00
    0.49936E+03        -0.80871E+03         0.00000E+00
    0.00000E+00         0.00000E+00        -0.13363E+04
 
   -0.33789E+04         0.53276E+03         0.00000E+00
    0.53276E+03        -0.92543E+03         0.00000E+00
    0.00000E+00         0.00000E+00        -0.12915E+04
 
   -0.30948E+04         0.56456E+03         0.00000E+00
    0.56456E+03        -0.10495E+04         0.00000E+00
    0.00000E+00         0.00000E+00        -0.12435E+04
 
   -0.27933E+04         0.59444E+03         0.00000E+00
    0.59444E+03        -0.11804E+04         0.00000E+00
    0.00000E+00         0.00000E+00        -0.11923E+04
 
   -0.24748E+04         0.62206E+03         0.00000E+00
    0.62206E+03        -0.13178E+04         0.00000E+00
    0.00000E+00         0.00000E+00        -0.11380E+04
 
   -0.21403E+04         0.64709E+03         0.00000E+00
    0.64709E+03        -0.14611E+04         0.00000E+00
    0.00000E+00         0.00000E+00        -0.10806E+04
 
   -0.17904E+04         0.66914E+03         0.00000E+00
    0.66914E+03        -0.16098E+04         0.00000E+00
    0.00000E+00         0.00000E+00        -0.10203E+04
 
   -0.14263E+04         0.68781E+03         0.00000E+00
    0.68781E+03        -0.17631E+04         0.00000E+00
    0.00000E+00         0.00000E+00        -0.95703E+03
 
   -0.10491E+04         0.70269E+03         0.00000E+00
    0.70269E+03        -0.19203E+04         0.00000E+00
    0.00000E+00         0.00000E+00        -0.89103E+03
 
   -0.55280E+04         0.75622E+01         0.00000E+00
    0.75622E+01        -0.83842E+00         0.00000E+00
    0.00000E+00         0.00000E+00        -0.16587E+04
 
   -0.55014E+04         0.24380E+02         0.00000E+00
    0.24380E+02        -0.54306E+01         0.00000E+00
    0.00000E+00         0.00000E+00        -0.16521E+04
 
   -0.54645E+04         0.43302E+02         0.00000E+00
    0.43302E+02        -0.15214E+02         0.00000E+00
    0.00000E+00         0.00000E+00        -0.16439E+04
 
   -0.54159E+04         0.64165E+02         0.00000E+00
    0.64165E+02        -0.30780E+02         0.00000E+00
    0.00000E+00         0.00000E+00        -0.16341E+04
 
   -0.53545E+04         0.86780E+02         0.00000E+00
    0.86780E+02        -0.52666E+02         0.00000E+00
    0.00000E+00         0.00000E+00        -0.16222E+04
 
   -0.52794E+04         0.11094E+03         0.00000E+00
    0.11094E+03        -0.81345E+02         0.00000E+00
    0.00000E+00         0.00000E+00        -0.16083E+04
 
   -0.51894E+04         0.13642E+03         0.00000E+00
    0.13642E+03        -0.11723E+03         0.00000E+00
    0.00000E+00         0.00000E+00        -0.15921E+04
 
   -0.50839E+04         0.16300E+03         0.00000E+00
    0.16300E+03        -0.16065E+03         0.00000E+00
    0.00000E+00         0.00000E+00        -0.15735E+04
 
   -0.49620E+04         0.19044E+03         0.00000E+00
    0.19044E+03        -0.21190E+03         0.00000E+00
    0.00000E+00         0.00000E+00        -0.15523E+04
 
   -0.48232E+04         0.21851E+03         0.00000E+00
    0.21851E+03        -0.27116E+03         0.00000E+00
    0.00000E+00         0.00000E+00        -0.15285E+04
 
   -0.46670E+04         0.24697E+03         0.00000E+00
    0.24697E+03        -0.33859E+03         0.00000E+00
    0.00000E+00         0.00000E+00        -0.15018E+04
 
   -0.44929E+04         0.27559E+03         0.00000E+00
    0.27559E+03        -0.41424E+03         0.00000E+00
    0.00000E+00         0.00000E+00        -0.14723E+04
 
   -0.43007E+04         0.30414E+03         0.00000E+00
    0.30414E+03        -0.49812E+03         0.00000E+00
    0.00000E+00         0.00000E+00        -0.14398E+04
 
   -0.40903E+04         0.33238E+03         0.00000E+00
    0.33238E+03        -0.59016E+03         0.00000E+00
    0.00000E+00         0.00000E+00        -0.14043E+04
 
   -0.38616E+04         0.36008E+03         0.00000E+00
    0.36008E+03        -0.69025E+03         0.00000E+00
    0.00000E+00         0.00000E+00        -0.13657E+04
 
   -0.36148E+04         0.38702E+03         0.00000E+00
    0.38702E+03        -0.79818E+03         0.00000E+00
    0.00000E+00         0.00000E+00        -0.13241E+04
 
   -0.33499E+04         0.41296E+03         0.00000E+00
    0.41296E+03        -0.91371E+03         0.00000E+00
    0.00000E+00         0.00000E+00        -0.12793E+04
 
   -0.30674E+04         0.43765E+03         0.00000E+00
    0.43765E+03        -0.10365E+04         0.00000E+00
    0.00000E+00         0.00000E+00        -0.12314E+04
 
   -0.27677E+04         0.46085E+03         0.00000E+00
    0.46085E+03        -0.11662E+04         0.00000E+00
    0.00000E+00         0.00000E+00        -0.11804E+04
 
   -0.24514E+04         0.48229E+03         0.00000E+00
    0.48229E+03        -0.13023E+04         0.00000E+00
    0.00000E+00         0.00000E+00        -0.11263E+04
 
   -0.21193E+04         0.50169E+03         0.00000E+00
    0.50169E+03        -0.14443E+04         0.00000E+00
    0.00000E+00         0.00000E+00        -0.10693E+04
 
   -0.17723E+04         0.51876E+03         0.00000E+00
    0.51876E+03        -0.15916E+04         0.00000E+00
    0.00000E+00         0.00000E+00        -0.10094E+04
 
   -0.14113E+04         0.53320E+03         0.00000E+00
    0.53320E+03        -0.17434E+04         0.00000E+00
    0.00000E+00         0.00000E+00        -0.94664E+03
 
   -0.10377E+04         0.54468E+03         0.00000E+00
    0.54468E+03        -0.18990E+04         0.00000E+00
    0.00000E+00         0.00000E+00        -0.88125E+03
 
   -0.55145E+04         0.53850E+01         0.00000E+00
    0.53850E+01        -0.83057E+00         0.00000E+00
    0.00000E+00         0.00000E+00        -0.16546E+04
 
   -0.54861E+04         0.17353E+02         0.00000E+00
    0.17353E+02        -0.53754E+01         0.00000E+00
    0.00000E+00         0.00000E+00        -0.16475E+04
 
   -0.54474E+04         0.30815E+02         0.00000E+00
    0.30815E+02        -0.15050E+02         0.00000E+00
    0.00000E+00         0.00000E+00        -0.16388E+04
 
   -0.53973E+04         0.45656E+02         0.00000E+00
    0.45656E+02        -0.30437E+02         0.00000E+00
    0.00000E+00         0.00000E+00        -0.16284E+04
 
   -0.53345E+04         0.61745E+02         0.00000E+00
    0.61745E+02        -0.52067E+02         0.00000E+00
    0.00000E+00         0.00000E+00        -0.16160E+04
 
   -0.52581E+04         0.78937E+02         0.00000E+00
    0.78937E+02        -0.80412E+02         0.00000E+00
    0.00000E+00         0.00000E+00        -0.16016E+04
 
   -0.51671E+04         0.97076E+02         0.00000E+00
    0.97076E+02        -0.11588E+03         0.00000E+00
    0.00000E+00         0.00000E+00        -0.15850E+04
 
   -0.50608E+04         0.11600E+03         0.00000E+00
    0.11600E+03        -0.15882E+03         0.00000E+00
    0.00000E+00         0.00000E+00        -0.15660E+04
 
   -0.49383E+04         0.13555E+03         0.00000E+00
    0.13555E+03        -0.20950E+03         0.00000E+00
    0.00000E+00         0.00000E+00        -0.15444E+04
 
   -0.47990E+04         0.15554E+03         0.00000E+00
    0.15554E+03        -0.26815E+03         0.00000E+00
    0.00000E+00         0.00000E+00        -0.15203E+04
 
   -0.46425E+04         0.17583E+03         0.00000E+00
    0.17583E+03        -0.33489E+03         0.00000E+00
    0.00000E+00         0.00000E+00        -0.14934E+04
 
   -0.44684E+04         0.19623E+03         0.00000E+00
    0.19623E+03        -0.40981E+03         0.00000E+00
    0.00000E+00         0.00000E+00        -0.14636E+04
 
   -0.42764E+04         0.21659E+03         0.00000E+00
    0.21659E+03        -0.49292E+03         0.00000E+00
    0.00000E+00         0.00000E+00        -0.14310E+04
 
   -0.40663E+04         0.23673E+03         0.00000E+00
    0.23673E+03        -0.58416E+03         0.00000E+00
    0.00000E+00         0.00000E+00        -0.13953E+04
 
   -0.38382E+04         0.25650E+03         0.00000E+00
    0.25650E+03        -0.68340E+03         0.00000E+00
    0.00000E+00         0.00000E+00        -0.13567E+04
 
   -0.35921E+04         0.27572E+03         0.00000E+00
    0.27572E+03        -0.79047E+03         0.00000E+00
    0.00000E+00         0.00000E+00        -0.13150E+04
 
   -0.33282E+04         0.29422E+03         0.00000E+00
    0.29422E+03        -0.90510E+03         0.00000E+00
    0.00000E+00         0.00000E+00        -0.12702E+04
 
   -0.30468E+04         0.31184E+03         0.00000E+00
    0.31184E+03        -0.10270E+04         0.00000E+00
    0.00000E+00         0.00000E+00        -0.12224E+04
 
   -0.27486E+04         0.32838E+03         0.00000E+00
    0.32838E+03        -0.11557E+04         0.00000E+00
    0.00000E+00         0.00000E+00        -0.11715E+04
 
   -0.24339E+04         0.34367E+03         0.00000E+00
    0.34367E+03        -0.12909E+04         0.00000E+00
    0.00000E+00         0.00000E+00        -0.11176E+04
 
   -0.21037E+04         0.35749E+03         0.00000E+00
    0.35749E+03        -0.14318E+04         0.00000E+00
    0.00000E+00         0.00000E+00        -0.10609E+04
 
   -0.17588E+04         0.36965E+03         0.00000E+00
    0.36965E+03        -0.15781E+04         0.00000E+00
    0.00000E+00         0.00000E+00        -0.10013E+04
 
   -0.14002E+04         0.37992E+03         0.00000E+00
    0.37992E+03        -0.17288E+04         0.00000E+00
    0.00000E+00         0.00000E+00        -0.93893E+03
 
   -0.10293E+04         0.38806E+03         0.00000E+00
    0.38806E+03        -0.18833E+04         0.00000E+00
    0.00000E+00         0.00000E+00        -0.87399E+03
 
   -0.55056E+04         0.32246E+01         0.00000E+00
    0.32246E+01        -0.82564E+00         0.00000E+00
    0.00000E+00         0.00000E+00        -0.16519E+04
 
   -0.54760E+04         0.10388E+02         0.00000E+00
    0.10388E+02        -0.53405E+01         0.00000E+00
    0.00000E+00         0.00000E+00        -0.16444E+04
 
   -0.54361E+04         0.18444E+02         0.00000E+00
    0.18444E+02        -0.14946E+02         0.00000E+00
    0.00000E+00         0.00000E+00        -0.16354E+04
 
   -0.53849E+04         0.27325E+02         0.00000E+00
    0.27325E+02        -0.30218E+02         0.00000E+00
    0.00000E+00         0.00000E+00        -0.16246E+04
 
   -0.53212E+04         0.36953E+02         0.00000E+00
    0.36953E+02        -0.51682E+02         0.00000E+00
    0.00000E+00         0.00000E+00        -0.16119E+04
 
   -0.52440E+04         0.47242E+02         0.00000E+00
    0.47242E+02        -0.79809E+02         0.00000E+00
    0.00000E+00         0.00000E+00        -0.15972E+04
 
   -0.51523E+04         0.58100E+02         0.00000E+00
    0.58100E+02        -0.11501E+03         0.00000E+00
    0.00000E+00         0.00000E+00        -0.15803E+04
 
   -0.50454E+04         0.69430E+02         0.00000E+00
    0.69430E+02        -0.15763E+03         0.00000E+00
    0.00000E+00         0.00000E+00        -0.15610E+04
 
   -0.49224E+04         0.81135E+02         0.00000E+00
    0.81135E+02        -0.20795E+03         0.00000E+00
    0.00000E+00         0.00000E+00        -0.15392E+04
 
   -0.47829E+04         0.93114E+02         0.00000E+00
    0.93114E+02        -0.26618E+03         0.00000E+00
    0.00000E+00         0.00000E+00        -0.15149E+04
 
   -0.46263E+04         0.10527E+03         0.00000E+00
    0.10527E+03        -0.33248E+03         0.00000E+00
    0.00000E+00         0.00000E+00        -0.14878E+04
 
   -0.44521E+04         0.11749E+03         0.00000E+00
    0.11749E+03        -0.40692E+03         0.00000E+00
    0.00000E+00         0.00000E+00        -0.14579E+04
 
   -0.42602E+04         0.12969E+03         0.00000E+00
    0.12969E+03        -0.48952E+03         0.00000E+00
    0.00000E+00         0.00000E+00        -0.14251E+04
 
   -0.40504E+04         0.14177E+03         0.00000E+00
    0.14177E+03        -0.58023E+03         0.00000E+00
    0.00000E+00         0.00000E+00        -0.13894E+04
 
   -0.38226E+04         0.15362E+03         0.00000E+00
    0.15362E+03        -0.67892E+03         0.00000E+00
    0.00000E+00         0.00000E+00        -0.13506E+04
 
   -0.35770E+04         0.16514E+03         0.00000E+00
    0.16514E+03        -0.78541E+03         0.00000E+00
    0.00000E+00         0.00000E+00        -0.13089E+04
 
   -0.33137E+04         0.17624E+03         0.00000E+00
    0.17624E+03        -0.89946E+03         0.00000E+00
    0.00000E+00         0.00000E+00        -0.12641E+04
 
   -0.30332E+04         0.18680E+03         0.00000E+00
    0.18680E+03        -0.10207E+04         0.00000E+00
    0.00000E+00         0.00000E+00        -0.12164E+04
 
   -0.27358E+04         0.19671E+03         0.00000E+00
    0.19671E+03        -0.11488E+04         0.00000E+00
    0.00000E+00         0.00000E+00        -0.11656E+04
 
   -0.24223E+04         0.20587E+03         0.00000E+00
    0.20587E+03        -0.12833E+04         0.00000E+00
    0.00000E+00         0.00000E+00        -0.11119E+04
 
   -0.20933E+04         0.21415E+03         0.00000E+00
    0.21415E+03        -0.14236E+04         0.00000E+00
    0.00000E+00         0.00000E+00        -0.10553E+04
 
   -0.17498E+04         0.22143E+03         0.00000E+00
    0.22143E+03        -0.15692E+04         0.00000E+00
    0.00000E+00         0.00000E+00        -0.99590E+03
 
   -0.13929E+04         0.22757E+03         0.00000E+00
    0.22757E+03        -0.17192E+04         0.00000E+00
    0.00000E+00         0.00000E+00        -0.93383E+03
 
   -0.10237E+04         0.23244E+03         0.00000E+00
    0.23244E+03        -0.18729E+04         0.00000E+00
    0.00000E+00         0.00000E+00        -0.86919E+03
 
   -0.55011E+04         0.10738E+01         0.00000E+00
    0.10738E+01        -0.82328E+00         0.00000E+00
    0.00000E+00         0.00000E+00        -0.16506E+04
 
   -0.54709E+04         0.34590E+01         0.00000E+00
    0.34590E+01        -0.53236E+01         0.00000E+00
    0.00000E+00         0.00000E+00        -0.16429E+04
 
   -0.54305E+04         0.61406E+01         0.00000E+00
    0.61406E+01        -0.14895E+02         0.00000E+00
    0.00000E+00         0.00000E+00        -0.16336E+04
 
   -0.53787E+04         0.90968E+01         0.00000E+00
    0.90968E+01        -0.30111E+02         0.00000E+00
    0.00000E+00         0.00000E+00        -0.16227E+04
 
   -0.53146E+04         0.12302E+02         0.00000E+00
    0.12302E+02        -0.51493E+02         0.00000E+00
    0.00000E+00         0.00000E+00        -0.16099E+04
 
   -0.52369E+04         0.15727E+02         0.00000E+00
    0.15727E+02        -0.79514E+02         0.00000E+00
    0.00000E+00         0.00000E+00        -0.15950E+04
 
   -0.51449E+04         0.19342E+02         0.00000E+00
    0.19342E+02        -0.11458E+03         0.00000E+00
    0.00000E+00         0.00000E+00        -0.15779E+04
 
   -0.50377E+04         0.23115E+02         0.00000E+00
    0.23115E+02        -0.15704E+03         0.00000E+00
    0.00000E+00         0.00000E+00        -0.15585E+04
 
   -0.49145E+04         0.27013E+02         0.00000E+00
    0.27013E+02        -0.20718E+03         0.00000E+00
    0.00000E+00         0.00000E+00        -0.15366E+04
 
   -0.47749E+04         0.31003E+02         0.00000E+00
    0.31003E+02        -0.26522E+03         0.00000E+00
    0.00000E+00         0.00000E+00        -0.15121E+04
 
   -0.46181E+04         0.35051E+02         0.00000E+00
    0.35051E+02        -0.33129E+03         0.00000E+00
    0.00000E+00         0.00000E+00        -0.14850E+04
 
   -0.44440E+04         0.39123E+02         0.00000E+00
    0.39123E+02        -0.40550E+03         0.00000E+00
    0.00000E+00         0.00000E+00        -0.14550E+04
 
   -0.42521E+04         0.43188E+02         0.00000E+00
    0.43188E+02        -0.48785E+03         0.00000E+00
    0.00000E+00         0.00000E+00        -0.14221E+04
 
   -0.40424E+04         0.47211E+02         0.00000E+00
    0.47211E+02        -0.57829E+03         0.00000E+00
    0.00000E+00         0.00000E+00        -0.13864E+04
 
   -0.38148E+04         0.51159E+02         0.00000E+00
    0.51159E+02        -0.67670E+03         0.00000E+00
    0.00000E+00         0.00000E+00        -0.13476E+04
 
   -0.35694E+04         0.54999E+02         0.00000E+00
    0.54999E+02        -0.78291E+03         0.00000E+00
    0.00000E+00         0.00000E+00        -0.13059E+04
 
   -0.33065E+04         0.58695E+02         0.00000E+00
    0.58695E+02        -0.89666E+03         0.00000E+00
    0.00000E+00         0.00000E+00        -0.12611E+04
 
   -0.30263E+04         0.62214E+02         0.00000E+00
    0.62214E+02        -0.10176E+04         0.00000E+00
    0.00000E+00         0.00000E+00        -0.12134E+04
 
   -0.27294E+04         0.65518E+02         0.00000E+00
    0.65518E+02        -0.11454E+04         0.00000E+00
    0.00000E+00         0.00000E+00        -0.11627E+04
 
   -0.24164E+04         0.68569E+02         0.00000E+00
    0.68569E+02        -0.12796E+04         0.00000E+00
    0.00000E+00         0.00000E+00        -0.11090E+04
 
   -0.20881E+04         0.71327E+02         0.00000E+00
    0.71327E+02        -0.14196E+04         0.00000E+00
    0.00000E+00         0.00000E+00        -0.10525E+04
 
   -0.17453E+04         0.73750E+02         0.00000E+00
    0.73750E+02        -0.15647E+04         0.00000E+00
    0.00000E+00         0.00000E+00        -0.99323E+03
 
   -0.13892E+04         0.75794E+02         0.00000E+00
    0.75794E+02        -0.17144E+04         0.00000E+00
    0.00000E+00         0.00000E+00        -0.93128E+03
 
   -0.10209E+04         0.77413E+02         0.00000E+00
    0.77413E+02        -0.18677E+04         0.00000E+00
    0.00000E+00         0.00000E+00        -0.86680E+03
 
SCALARS stresss double 
LOOKUP_TABLE default
  -68946.3435065147     
  -67742.4058629559     
  -62348.5337698192     
  -55883.6985641571     
  -49578.5210358832     
  -43705.6660332800     
  -38353.4355028497     
  -33758.8723709519     
  -29767.7542233075     
  -26301.3790776843     
  -23322.9188918044     
  -20698.2750411176     
  -18331.1619025581     
  -16159.0259030028     
  -14177.0083564720     
  -12445.0100299817     
  -10913.3213160191     
  -9574.99782316296     
  -8368.81340166251     
  -7482.88932424734     
  -7777.61568618325     
  -8244.35477525013     
  -8732.80230988806     
  -9261.35841643113     
  -68516.0144277847     
  -63260.7948542733     
  -57758.1545097831     
  -52431.7147418059     
  -46903.8315677783     
  -41642.2397684075     
  -36879.9312959005     
  -32699.6906326982     
  -29032.1566692747     
  -25734.3905378340     
  -22841.0628868217     
  -20279.2674030424     
  -17972.0895133633     
  -15867.6480501682     
  -13979.1847602353     
  -12321.2161416439     
  -10827.3601146734     
  -9497.72454694609     
  -8313.45451076339     
  -7470.09785906587     
  -7777.84522595000     
  -8219.66532555404     
  -8690.77962497625     
  -9206.87249635929     
  -55134.8595914531     
  -50200.5269134498     
  -49008.5261522474     
  -45643.1379971857     
  -41890.6944403341     
  -37922.6423262487     
  -34109.6222566260     
  -30588.8491311404     
  -27384.9704342995     
  -24445.8745780428     
  -21752.4597502537     
  -19373.8637839973     
  -17267.3394526668     
  -15349.0602477806     
  -13612.1937138758     
  -12028.6725196869     
  -10606.3333598939     
  -9342.00576430840     
  -8201.60372366958     
  -7451.15996675839     
  -7766.54844844645     
  -8163.01537640236     
  -8603.14694020896     
  -9094.73205279421     
  -21960.6090474395     
  -37429.4460870835     
  -37398.8047651605     
  -36732.8530303795     
  -34839.4244956184     
  -32477.0927777738     
  -29872.0178567143     
  -27243.8284314353     
  -24738.7903322754     
  -22356.0862443621     
  -20155.2033041588     
  -18110.3684008180     
  -16248.2528576583     
  -14585.0049869091     
  -13070.2849435951     
  -11674.5818533097     
  -10351.1833329661     
  -9112.70086157670     
  -8011.69657214213     
  -7426.43072646726     
  -7717.46713926063     
  -8064.61584188176     
  -8464.92266409790     
  -8920.96163045485     
  -480.831665107254     
  -18872.0499850342     
  -25831.3071028187     
  -27385.6125785970     
  -27475.4420814067     
  -26571.7116004259     
  -25162.8106217269     
  -23499.3543566493     
  -21743.5482070450     
  -19975.1169368942     
  -18281.7017582248     
  -16671.2962951910     
  -15127.5404768211     
  -13713.7160811662     
  -12389.8871594033     
  -11140.3189933398     
  -9965.50354242126     
  -8816.54095603937     
  -7730.58864136979     
  -7369.87116266680     
  -7613.48730829778     
  -7916.32165253316     
  -8273.49829524926     
  -8684.23812817393     
  -503.879284875572     
  -12466.3641050943     
  -18796.3596732370     
  -21466.4450473016     
  -22216.9880892833     
  -22046.3322329423     
  -21310.0942792403     
  -20244.1464645527     
  -19012.8350360162     
  -17698.3299942521     
  -16361.8071762318     
  -15039.5812947674     
  -13819.5448537662     
  -12653.5608133521     
  -11509.2250290442     
  -10395.6463491370     
  -9346.54227856946     
  -8290.63030878593     
  -7322.99736181451     
  -7245.13447879311     
  -7449.49719952600     
  -7718.19792308498     
  -8030.93577313328     
  -8388.89269003768     
   449.482094354231     
  -8669.76209496121     
  -14600.7472318197     
  -16965.2834032434     
  -18150.4954888146     
  -18400.1459762211     
  -18087.9721840541     
  -17423.5843865828     
  -16564.9351187426     
  -15595.8897368130     
  -14546.4555295297     
  -13490.4610474799     
  -12466.9860937675     
  -11469.8304013208     
  -10521.9285690648     
  -9578.23909579844     
  -8627.43862623099     
  -7686.31064727604     
  -6911.85864451366     
  -7024.66284353433     
  -7240.32821176166     
  -7476.68037685708     
  -7745.12463087487     
  -8045.42578036845     
  -384.319121351862     
  -6224.23985036722     
  -10775.0489145036     
  -13615.2743584909     
  -14801.8751602335     
  -15247.9246897464     
  -15283.0013072271     
  -14923.6650622924     
  -14350.9861561815     
  -13621.6755786092     
  -12797.9126731250     
  -11936.3464173144     
  -11103.1291686229     
  -10289.2252789448     
  -9471.15591884201     
  -8662.39896325457     
  -7837.48750912457     
  -7010.61942456075     
  -6580.53102521284     
  -6800.09140180708     
  -6997.93330291461     
  -7204.72621915157     
  -7427.44988059159     
  -7668.68297493046     
  -1185.08710846525     
  -5047.27166495102     
  -8624.80277641391     
  -10835.8289591629     
  -12097.3972841387     
  -12626.6235824658     
  -12767.4049264494     
  -12622.1269940617     
  -12278.2793741433     
  -11749.6275421417     
  -11120.7634039923     
  -10453.7374547972     
  -9780.24852653420     
  -9090.87564696195     
  -8403.26519687317     
  -7730.15169641414     
  -7009.24113683602     
  -6363.34825271575     
  -6414.88075988741     
  -6577.68273334621     
  -6744.50997253245     
  -6913.83803903482     
  -7090.57784318541     
  -7274.22813518224     
  -1986.61339645801     
  -4600.14843832645     
  -6911.93835274950     
  -8720.65849769900     
  -9845.17859835728     
  -10450.5018734545     
  -10662.6380764699     
  -10614.5733741041     
  -10403.6606317553     
  -10039.4051942382     
  -9563.10718978142     
  -9040.68213411359     
  -8494.02212805022     
  -7951.99051594184     
  -7371.58613628549     
  -6791.05200672595     
  -6203.51738504072     
  -6140.66232643504     
  -6241.78462603890     
  -6360.65060145251     
  -6485.35140454573     
  -6614.33354339244     
  -6745.27224022405     
  -6875.39701906741     
  -2646.20242937759     
  -4367.14889830503     
  -5992.29470159598     
  -7305.12990599971     
  -8115.26403678957     
  -8609.78097257502     
  -8879.57748072514     
  -8903.81920771594     
  -8785.04966246913     
  -8504.49305358327     
  -8151.09080261562     
  -7754.85125125692     
  -7316.62334108799     
  -6827.81828750555     
  -6385.00552126539     
  -6015.37704579303     
  -5952.83846682377     
  -6002.10735663983     
  -6060.36060667746     
  -6137.35513103256     
  -6223.08248853506     
  -6311.88865023067     
  -6399.69814097805     
  -6481.72215997725     
  -3130.62830169252     
  -4283.65072673460     
  -5410.12400717913     
  -6350.99581648967     
  -7039.45982299684     
  -7337.42947215656     
  -7408.87953057788     
  -7450.25038766913     
  -7353.34369788783     
  -7149.99519186859     
  -6870.46176138320     
  -6548.74673862115     
  -6225.67465299613     
  -5998.77134727278     
  -5861.84146291480     
  -5837.34663123049     
  -5828.48069192856     
  -5831.32296889074     
  -5863.50669152532     
  -5906.99806423547     
  -5957.86391458706     
  -6010.27496325767     
  -6059.15493121875     
  -6099.19624802150     
  -3460.40549904801     
  -4241.06338708769     
  -5027.86639205401     
  -5719.34710770496     
  -6230.33344674622     
  -6542.44903485761     
  -6669.08479853207     
  -6573.95139747855     
  -6405.61771655715     
  -6230.11660140352     
  -6066.19856508749     
  -5923.93879854502     
  -5849.97888114250     
  -5787.36403139827     
  -5722.93039927898     
  -5672.94383095437     
  -5651.28760186957     
  -5645.92536943946     
  -5652.76942371125     
  -5670.04158730733     
  -5691.35467773012     
  -5712.02912016787     
  -5727.05122558965     
  -5731.19513560613     
  -3659.26985175392     
  -4200.01940097864     
  -4760.03744332793     
  -5266.37757102054     
  -5668.75671926178     
  -5939.97809809066     
  -6069.86845797500     
  -6086.83829850489     
  -6022.40273543169     
  -5923.63616766211     
  -5818.10488345372     
  -5725.76202003950     
  -5648.11961134003     
  -5586.61051475269     
  -5534.01896109857     
  -5491.58946947595     
  -5461.22555925070     
  -5443.02101314995     
  -5433.37751507424     
  -5428.76605995248     
  -5425.56764302505     
  -5419.33172294791     
  -5405.58430726172     
  -5379.53127555227     
  -3757.17963445280     
  -4144.57099432213     
  -4551.97271766402     
  -4931.84809088891     
  -5247.43950432820     
  -5476.41735844353     
  -5614.37424352248     
  -5669.85417180006     
  -5664.42608240442     
  -5620.64714334525     
  -5560.08634712486     
  -5495.93533978728     
  -5436.02779846112     
  -5382.01992272822     
  -5334.73196177112     
  -5293.86256477282     
  -5259.75513269017     
  -5231.75873570032     
  -5208.15892045145     
  -5186.21557505419     
  -5162.70361959024     
  -5134.04442082368     
  -5096.27033202375     
  -5045.14946489150     
  -3781.31591843482     
  -4070.75900617659     
  -4376.76229122474     
  -4667.82835298054     
  -4918.43948752659     
  -5112.46222601861     
  -5243.92139644840     
  -5316.81859428809     
  -5341.56449723580     
  -5332.17497716789     
  -5301.75051745966     
  -5260.90207207709     
  -5216.29005108720     
  -5171.78735252063     
  -5129.06125492196     
  -5088.91955659838     
  -5051.39016920780     
  -5015.91575327494     
  -4981.13996028563     
  -4945.00911684763     
  -4904.89740721022     
  -4857.75404757811     
  -4800.19032831135     
  -4728.52345538676     
  -3754.37590929542     
  -3981.06450549354     
  -4219.13789112177     
  -4448.12038982528     
  -4650.65902632369     
  -4814.84533441166     
  -4935.31637925798     
  -5012.77545232694     
  -5052.69774467324     
  -5063.05664862000     
  -5052.40531103656     
  -5028.14326046427     
  -4995.89945015896     
  -4959.35641467746     
  -4920.71841400703     
  -4881.05203875446     
  -4840.64098876976     
  -4799.06483037131     
  -4755.27452713865     
  -4707.62840170761     
  -4653.98174490492     
  -4591.77588904680     
  -4518.11714821368     
  -4429.84173054583     
  -3694.18888105616     
  -3879.94688003285     
  -4072.01161706243     
  -4257.24935994013     
  -4423.96231753106     
  -4563.60561276488     
  -4671.60535282195     
  -4747.35154957083     
  -4793.41901238547     
  -4814.43116867073     
  -4815.77339896453     
  -4802.60102132859     
  -4779.17482666221     
  -4748.65103059888     
  -4713.09918942640     
  -4673.68002064565     
  -4630.79144249433     
  -4584.19133981946     
  -4533.06470945337     
  -4476.08888874941     
  -4411.49617525912     
  -4337.14304858454     
  -4250.57599061391     
  -4149.09187067683     
  -3614.04606990589     
  -3772.20969201658     
  -3932.39805826977     
  -4086.27747285355     
  -4226.05228268756     
  -4345.66883852044     
  -4441.48880926166     
  -4512.39938998787     
  -4559.46960057899     
  -4585.29384786223     
  -4593.24978633817     
  -4586.81996118393     
  -4569.11663259649     
  -4542.61312901042     
  -4509.06446855548     
  -4469.52752172273     
  -4424.43050880193     
  -4373.64088503771     
  -4316.52818064731     
  -4252.01845975597     
  -4178.64947006506     
  -4094.62595636238     
  -3997.87506378034     
  -3886.09995440449     
  -3523.47792533462     
  -3662.05680656147     
  -3799.37336990275     
  -3930.18612701689     
  -4049.33881941920     
  -4152.60099619220     
  -4237.18312078532     
  -4301.90439969094     
  -4347.05252827386     
  -4374.03383517593     
  -4384.92417038902     
  -4382.03404315623     
  -4367.55767075879     
  -4343.34286554483     
  -4310.77038130989     
  -4270.71712562749     
  -4223.56596261916     
  -4169.23850373851     
  -4107.23474063873     
  -4036.67574972376     
  -3956.34771886180     
  -3864.74767103084     
  -3760.12993661878     
  -3640.55264873893     
  -3429.06109805694     
  -3552.79348580083     
  -3672.92509897230     
  -3786.17284787593     
  -3889.14053983854     
  -3978.89471330931     
  -4053.34979785045     
  -4111.43501803419     
  -4153.06148982708     
  -4178.93922906891     
  -4190.31249503203     
  -4188.67843764998     
  -4175.54070659012     
  -4152.22458665983     
  -4119.76003522189     
  -4078.82184948979     
  -4029.71119783349     
  -3972.36234985936     
  -3906.36385019904     
  -3830.98744253180     
  -3745.22178376748     
  -3647.80920796425     
  -3537.28452733428     
  -3412.01493612236     
  -3335.15730483754     
  -3446.81624010887     
  -3553.33677735564     
  -3652.65389326197     
  -3742.52502640459     
  -3820.91906050372     
  -3886.29567962278     
  -3937.75049483679     
  -3975.02976319156     
  -3998.44113260228     
  -4008.69888909026     
  -4006.74453102506     
  -3993.57613256218     
  -3970.10840335790     
  -3937.07217071042     
  -3894.95228929252     
  -3843.95693998175     
  -3784.00991109650     
  -3714.75831690295     
  -3635.59043784081     
  -3545.66018216458     
  -3443.91604540055     
  -3329.13312757027     
  -3199.94718426994     
  -3244.52116914055     
  -3345.73033295562     
  -3440.89213480073     
  -3528.68265741965     
  -3607.60178376677     
  -3676.23184839210     
  -3733.43547021425     
  -3778.47175745296     
  -3811.02853807187     
  -3831.18312418370     
  -3839.31347971842     
  -3835.98451211646     
  -3821.83174756321     
  -3797.45845703813     
  -3763.35509989904     
  -3719.84344812172     
  -3667.04343097269     
  -3604.85856055252     
  -3532.97548078050     
  -3450.87377802606     
  -3357.84314838218     
  -3253.00583589080     
  -3135.34287344711     
  -3003.72305464282     
  -3158.77361825727     
  -3250.50790139918     
  -3335.75371467616     
  -3413.62561920864     
  -3483.09124352724     
  -3543.14045173220     
  -3592.92224342225     
  -3631.83292651155     
  -3659.55075761446     
  -3676.02223384095     
  -3681.41197446373     
  -3676.03113647226     
  -3660.25881667829     
  -3634.46798549743     
  -3598.96341175763     
  -3553.93505222249     
  -3499.42724792007     
  -3435.32215892984     
  -3361.33503061274     
  -3277.01881967702     
  -3181.77602303963     
  -3074.87599193426     
  -2955.47641590103     
  -2822.64799030458     
  -3078.75675977293     
  -3161.64325848140     
  -3237.93260501089     
  -3306.98911215278     
  -3368.06766018889     
  -3420.42221146040     
  -3463.39840343834     
  -3496.49768640307     
  -3519.40779933769     
  -3532.00098295094     
  -3534.30618250823     
  -3526.46409564210     
  -3508.67435552666     
  -3481.14289229696     
  -3444.03532294836     
  -3397.43978928590     
  -3341.34055136775     
  -3275.60212484444     
  -3199.96287684336     
  -3114.03664057317     
  -3017.32089868180     
  -2909.21024867932     
  -2789.01408961624     
  -2655.97769714017     
  -3004.79275612207     
  -3079.28727042622     
  -3147.30099939835     
  -3208.33289819602     
  -3261.80869971225     
  -3307.14884603535     
  -3343.82956729927     
  -3371.42784039189     
  -3389.64551154125     
  -3398.31220742038     
  -3397.37007194444     
  -3386.84546751598     
  -3366.81352120685     
  -3337.36101151575     
  -3298.55196934737     
  -3250.39893724073     
  -3192.84144615829     
  -3125.73215592002     
  -3048.83034783422     
  -2961.80203752784     
  -2864.22581306666     
  -2755.60350797621     
  -2635.37491443056     
  -2502.93588025666     
  -2936.86876988857     
  -3003.35565800638     
  -3063.62150002571     
  -3117.23181492114     
  -3163.70983813504     
  -3202.57766339378     
  -3233.39535155400     
  -3255.79130101836     
  -3269.47997310196     
  -3274.26588995021     
  -3270.03518800835     
  -3256.73762202208     
  -3234.36268700942     
  -3202.91354879902     
  -3162.38195487259     
  -3112.72648502097     
  -3053.85562345686     
  -2985.61635380774     
  -2907.78838303843     
  -2820.08370910098     
  -2722.15103544421     
  -2613.58445877694     
  -2493.93586983559     
  -2362.73057532364     
  -2874.76675682036     
  -2933.61230985542     
  -2986.57978555297     
  -3033.26283326620     
  -3073.23736352232     
  -3106.08528250255     
  -3131.41858147877     
  -3148.89901383750     
  -3158.25029225956     
  -3159.26155972717     
  -3151.78250502484     
  -3135.71168943711     
  -3110.98033478728     
  -3077.53401614701     
  -3035.31450871776     
  -2984.24360031068     
  -2924.21014093484     
  -2855.06107351741     
  -2776.59674729233     
  -2688.57048970177     
  -2590.69220418334     
  -2482.63565230056     
  -2364.04904513092     
  -2234.56858806491     
  -2818.15298273007     
  -2869.73115157198     
  -2915.81443834277     
  -2956.00454965660     
  -2989.90385341711     
  -3017.12802756026     
  -3037.32009757667     
  -3050.16252412067     
  -3055.38501943572     
  -3052.76693406973     
  -3042.13414748472     
  -3023.35126154374     
  -2996.31045348297     
  -2960.91858611400     
  -2917.08414478820     
  -2864.70535235839     
  -2803.66049254024     
  -2733.80112565904     
  -2654.94856440381     
  -2566.89372240391     
  -2469.40026593987     
  -2362.21088522684     
  -2245.05644520294     
  -2117.66776303964     
  -2766.63856591825     
  -2811.34070044582     
  -2850.94156169531     
  -2885.04193057291     
  -2913.25632624938     
  -2935.21878856761     
  -2950.59035748288     
  -2959.06594461666     
  -2960.37888922025     
  -2954.30222514474     
  -2940.64641460933     
  -2919.25391849039     
  -2889.99140571075     
  -2852.74063585093     
  -2807.38909685607     
  -2753.82138587560     
  -2691.91213831451     
  -2621.52108856263     
  -2542.49062591077     
  -2454.64601751613     
  -2357.79832033047     
  -2251.74989854497     
  -2136.30239837942     
  -2011.26700041502     
  -2719.81941670640     
  -2758.05516953702     
  -2791.57376203344     
  -2819.97251266480     
  -2842.87121495041     
  -2859.91384020856     
  -2870.77188025696     
  -2875.14776256840     
  -2872.77711149540     
  -2863.42908683234     
  -2846.90451227144     
  -2823.03193466249     
  -2791.66207963061     
  -2752.66136767333     
  -2705.90523016663     
  -2651.27193769719     
  -2588.63755434580     
  -2517.87249320787     
  -2438.83999864781     
  -2351.39674027732     
  -2255.39558498633     
  -2150.69052184909     
  -2037.14365021191     
  -1914.63409996991     
  -2677.30167659710     
  -2709.49540486069     
  -2737.33396786743     
  -2760.41219774788     
  -2778.35274621403     
  -2790.80552424006     
  -2797.44856096156     
  -2797.98923422702     
  -2792.16501214693     
  -2779.74312546102     
  -2760.51890426468     
  -2734.31280702691     
  -2700.96640701094     
  -2660.33776080842     
  -2612.29666191099     
  -2556.72028819200     
  -2493.48970293224     
  -2422.48758464894     
  -2343.59746044809     
  -2256.70461619884     
  -2161.69876497008     
  -2058.47847849932     
  -1946.95732653146     
  -1827.07162412589     
  -2638.71705946299     
  -2665.30230296824     
  -2687.86489869250     
  -2705.99985739517     
  -2719.33279236197     
  -2727.51825977632     
  -2730.23924311660     
  -2727.20709680211     
  -2718.16135986789     
  -2702.86901845588     
  -2681.12299745619     
  -2652.73986096531     
  -2617.55687075283     
  -2575.42867469740     
  -2526.22396698228     
  -2469.82248155252     
  -2406.11265894001     
  -2334.99027615514     
  -2256.35826238000     
  -2170.12785050821     
  -2076.22114425825     
  -1974.57511765319     
  -1865.14701023558     
  -1747.92103718222     
  -2603.73124800512     
  -2625.14477472056     
  -2642.83505852068     
  -2656.40053489357     
  -2665.47115285404     
  -2669.70634330575     
  -2668.79385780108     
  -2662.44904348565     
  -2650.41416266122     
  -2632.45746277349     
  -2608.37182978754     
  -2577.97299074788     
  -2541.09735007594     
  -2497.59963546138     
  -2447.35058658127     
  -2390.23494302647     
  -2326.14998103042     
  -2255.00481891045     
  -2176.72066649642     
  -2091.23214167158     
  -1998.48972347963     
  -1898.46336015079     
  -1791.14720400809     
  -1676.56540389885     
  -2572.04759170471     
  -2588.72383238435     
  -2601.94206134823     
  -2611.30731775616     
  -2616.45574625300     
  -2617.05263110925     
  -2612.79105475656     
  -2603.39091764817     
  -2588.59806939902     
  -2568.18335476666     
  -2541.94145634789     
  -2509.68950275634     
  -2471.26549256385     
  -2426.52665023315     
  -2375.34787481164     
  -2317.62046361853     
  -2253.25129320517     
  -2182.16262237494     
  -2104.29265193992     
  -2019.59693813602     
  -1928.05071549869     
  -1829.65214369444     
  -1724.42645320984     
  -1612.43092760243     
  -2543.40769860035     
  -2555.77398512059     
  -2564.91397906828     
  -2570.44207881925     
  -2572.00249344560     
  -2569.26759033985     
  -2561.93665850473     
  -2549.73493981185     
  -2532.41277786267     
  -2509.74476106142     
  -2481.52878311491     
  -2447.58499969753     
  -2407.75471472113     
  -2361.89927593899     
  -2309.89909262486     
  -2251.65290570028     
  -2187.07744319530     
  -2116.10758329006     
  -2038.69712634539     
  -1954.82024952244     
  -1864.47368580272     
  -1767.67963582933     
  -1664.48938759480     
  -1554.98758639591     
  -2517.59004387454     
  -2526.06282218336     
  -2531.50927612808     
  -2533.55532232614     
  -2531.85483793682     
  -2526.08844640883     
  -2515.96254848977     
  -2501.20852730537     
  -2481.58204613035     
  -2456.86236865571     
  -2426.85165786029     
  -2391.37424396016     
  -2350.27588760901     
  -2303.42309600849     
  -2250.70257299001     
  -2192.02089738550     
  -2127.30452669674     
  -2056.50021606412     
  -1979.57592751102     
  -1896.52228345713     
  -1807.35459359133     
  -1712.11545712097     
  -1610.87791446643     
  -1503.74909444721     
  -2494.40738231984     
  -2499.38942913906     
  -2501.51577808433     
  -2500.42536586726     
  -2495.78293395737     
  -2487.27829898053     
  -2474.62573319562     
  -2457.56343349107     
  -2435.85304431568     
  -2409.27920212899     
  -2377.64908248722     
  -2340.79195116613     
  -2298.55874315781     
  -2250.82171397340     
  -2197.47422345642     
  -2138.43072144876     
  -2073.62700646687     
  -2003.02082328888     
  -1926.59285393249     
  -1844.34814019422     
  -1756.31795609680     
  -1662.56212652212     
  -1563.17176502788     
  -1458.27238010824     
  -2473.70351190559     
  -2475.58210567268     
  -2474.74902031414     
  -2470.85706352651     
  -2463.58257158091     
  -2452.62516274075     
  -2437.70749598954     
  -2418.57504474958     
  -2394.99588196446     
  -2366.76047025821     
  -2333.68145656833     
  -2295.59348171073     
  -2252.35302865191     
  -2203.83834600857     
  -2149.94949322424     
  -2090.60855949069     
  -2025.76010905425     
  -1955.37190100885     
  -1879.43592247680     
  -1797.96976098571     
  -1711.01832578546     
  -1618.65590973030     
  -1520.98856399963     
  -1418.15673802374     
  -2455.34976484843     
  -2454.49572141789     
  -2451.05024000246     
  -2444.68024310856     
  -2435.07392043525     
  -2421.94093528588     
  -2405.01255674764     
  -2384.04174613069     
  -2358.80321386898     
  -2329.09345811837     
  -2294.73079731236     
  -2255.55541406624     
  -2211.42943497419     
  -2162.23707803734     
  -2107.88490504504     
  -2048.30221902301     
  -1983.44164618570     
  -1913.27993748508     
  -1837.81901702028     
  -1757.08729371951     
  -1671.14123944217     
  -1580.06722164200     
  -1483.98356263475     
  -1383.04278091881     
  -2439.24148137140     
  -2436.00894833309     
  -2430.28420801477     
  -2421.74799765504     
  -2410.10017211872     
  -2395.06031773504     
  -2376.36823267503     
  -2353.78431292639     
  -2327.08987221389     
  -2296.08741841769     
  -2260.60090743252     
  -2220.47599682445     
  -2175.58032470383     
  -2125.80384257813     
  -2071.05923338468     
  -2011.28244652508     
  -1946.43337996025     
  -1876.49673503888     
  -1801.48306277006     
  -1721.43001098238     
  -1636.40377065142     
  -1546.50070711673     
  -1451.84914846947     
  -1352.61128958512     
  -2425.29463577157     
  -2420.02153620850     
  -2412.33704520323     
  -2401.93494181024     
  -2388.52615326910     
  -2371.83972332509     
  -2351.62360383543     
  -2327.64531396529     
  -2299.69250228848     
  -2267.57344129933     
  -2231.11748086209     
  -2190.17548628066     
  -2144.62028707775     
  -2094.34716330385     
  -2039.27439640845     
  -1979.34391072435     
  -1914.52202898621     
  -1844.80036079886     
  -1770.19683657568     
  -1690.75689134027     
  -1606.55479321358     
  -1517.69510076318     
  -1424.31422209103     
  -1326.58203701987     
  -2413.44272450944     
  -2406.45174553798     
  -2397.11412766408     
  -2385.13551822050     
  -2370.23697048289     
  -2352.15621114861     
  -2330.64870015749     
  -2305.48852911869     
  -2276.46919725060     
  -2243.40429832593     
  -2206.12814852425     
  -2164.49638293688     
  -2118.38654719815     
  -2067.69870971264     
  -2012.35611862791     
  -1952.30592557690     
  -1887.51999493360     
  -1817.99581270041     
  -1743.75750313883     
  -1664.85695396286     
  -1581.37504254811     
  -1493.42294645141     
  -1401.14351193024     
  -1304.71264447305     
  -2403.63398460662     
  -2395.23401432315     
  -2384.53815517785     
  -2371.26241825725     
  -2355.13673718773     
  -2335.90647992738     
  -2313.33373127367     
  -2287.19839243346     
  -2257.29913806641     
  -2223.45426635081     
  -2185.50247384755     
  -2143.30358406619     
  -2096.73925633635     
  -2045.71369946289     
  -1990.15441229672     
  -1930.01297043728     
  -1865.26587454172     
  -1795.91547099882     
  -1721.99094999597     
  -1643.54941933346     
  -1560.67704487880     
  -1473.49024053560     
  -1382.13688230969     
  -1286.79751281234     
  -2395.82898252285     
  -2386.31690867686     
  -2374.54743451275     
  -2360.24516463392     
  -2343.14742227102     
  -2323.00595244551     
  -2299.58838117568     
  -2272.67947624028     
  -2242.08225023705     
  -2207.61894236739     
  -2169.13191164202     
  -2126.48447097221     
  -2079.56168870549     
  -2028.27118133861     
  -1972.54391812687     
  -1912.33505486985     
  -1847.62481010100     
  -1778.41939213363     
  -1704.75197988971     
  -1626.68375421444     
  -1544.30496958783     
  -1457.73604897518     
  -1367.12867725364     
  -1272.66686149147     
  -2389.99859514919     
  -2379.66138853533     
  -2367.09441276310     
  -2352.02889040624     
  -2334.20785124864     
  -2313.38797625268     
  -2289.34118805173     
  -2261.85603238545     
  -2230.73889099053     
  -2195.81506262550     
  -2156.92974529072     
  -2113.94894931759     
  -2066.76036775789     
  -2015.27422725700     
  -1959.42413916882     
  -1899.16796689877     
  -1834.48872121253     
  -1765.39549044165     
  -1691.92440713733     
  -1614.13964681774     
  -1532.13444813554     
  -1446.03213722491     
  -1355.98713238631     
  -1262.18589887766     
  -2386.12239288619     
  -2375.23940723373     
  -2362.14448403204     
  -2346.57333879636     
  -2328.27288313493     
  -2307.00316117693     
  -2282.53902686929     
  -2254.67160562273     
  -2223.20958046109     
  -2187.98033933014     
  -2148.83101672340     
  -2105.62945933939     
  -2058.26514206822     
  -2006.65005712503     
  -1950.71959548682     
  -1890.43343582545     
  -1825.77645176754     
  -1756.75964349192     
  -1683.42109439081     
  -1605.82694781892     
  -1524.07239293745     
  -1438.28264247945     
  -1348.61387911178     
  -1255.25414117554     
  -2384.18742799014     
  -2373.03285552000     
  -2359.67508440977     
  -2343.85210066010     
  -2325.31277985865     
  -2303.81886939335     
  -2279.14670891027     
  -2251.08873196910     
  -2219.45478881036     
  -2184.07332682568     
  -2144.79246189345     
  -2101.48097028524     
  -2054.02922735937     
  -2002.35011567535     
  -1946.37992139523     
  -1886.07923378754     
  -1821.43385823552     
  -1752.45574832714     
  -1679.18395736726     
  -1601.68560404996     
  -1520.05684115928     
  -1434.42381017418     
  -1344.94355872292     
  -1251.80489218001     
SCALARS 2waySource double 
LOOKUP_TABLE default
 -1.041268213439315E-009
 -2.221990324111511E-009
 -3.538050379876159E-009
 -4.902961142478412E-009
 -6.297173152770628E-009
 -7.699227781834219E-009
 -9.098648429959026E-009
 -1.049208111667447E-008
 -1.188235971248176E-008
 -1.327854313533772E-008
 -1.469887315597187E-008
 -1.609794132179285E-008
 -1.749282628587105E-008
 -1.897122058593136E-008
 -1.877270443533937E-008
 -1.541975023886816E-008
 -1.570718879037553E-008
 -1.620647627246279E-008
 -1.668686056358859E-008
 -1.884851389290744E-008
 -2.318029313340229E-008
 -2.317486059168325E-008
 -2.313696515678442E-008
 -2.313426003401444E-008
 -7.124437335062239E-010
 -1.966247407502773E-009
 -3.371323507035623E-009
 -4.803135438177058E-009
 -6.227543638325101E-009
 -7.640719748081836E-009
 -9.039612097374179E-009
 -1.042345661967491E-008
 -1.179559089344638E-008
 -1.316863183410768E-008
 -1.457166335244544E-008
 -1.612267016263957E-008
 -1.756166306629952E-008
 -1.812803851639038E-008
 -1.750161939353735E-008
 -1.627197931248579E-008
 -1.653191350531091E-008
 -1.675942884871334E-008
 -1.685312285354304E-008
 -1.882762218029561E-008
 -2.321325958893833E-008
 -2.304038412770357E-008
 -2.299797024078237E-008
 -2.300904159195319E-008
  4.030678678858432E-010
 -1.595793605636904E-009
 -3.179624476197712E-009
 -4.680755267641780E-009
 -6.136172053810535E-009
 -7.559718600807073E-009
 -8.954741463167035E-009
 -1.032171180853749E-008
 -1.166103155567731E-008
 -1.297434852327052E-008
 -1.427192100397203E-008
 -1.556128613565317E-008
 -1.705513091982775E-008
 -1.840976768982504E-008
 -1.760344391072217E-008
 -1.744588353062201E-008
 -1.721512663684985E-008
 -1.683413954863507E-008
 -1.714853305640251E-008
 -1.960967181085069E-008
 -2.288225135269353E-008
 -2.271402554836414E-008
 -2.274701105849930E-008
 -2.279135346926465E-008
  2.917652909379901E-010
 -1.391947712657758E-009
 -3.044444025645564E-009
 -4.572328317119019E-009
 -6.044081500359227E-009
 -7.471133367685538E-009
 -8.858472063188801E-009
 -1.020537040027747E-008
 -1.150756538597945E-008
 -1.275690435062975E-008
 -1.393316995483858E-008
 -1.500926308457751E-008
 -1.580991777890015E-008
 -1.599206654518209E-008
 -1.641757956290157E-008
 -1.716988624099241E-008
 -1.681757711632863E-008
 -1.736555959017655E-008
 -1.718493514851295E-008
 -2.077546876771719E-008
 -2.209300103443378E-008
 -2.228984815150467E-008
 -2.243993869272266E-008
 -2.251889223606930E-008
  2.050389216577696E-010
 -1.406226211096530E-009
 -2.967896998822034E-009
 -4.495122287489290E-009
 -5.964630667684863E-009
 -7.387489397726209E-009
 -8.764395479388633E-009
 -1.009264319720617E-008
 -1.136546914816315E-008
 -1.257069386465835E-008
 -1.369069178138309E-008
 -1.468779622409922E-008
 -1.548979187424979E-008
 -1.599065250569691E-008
 -1.631573658470514E-008
 -1.670037193756487E-008
 -1.692066197888655E-008
 -1.762081057800917E-008
 -1.734179799431118E-008
 -2.131477430645095E-008
 -2.136327732324419E-008
 -2.190397024115890E-008
 -2.213065243887842E-008
 -2.224049536108980E-008
  1.292022579199228E-010
 -1.425176685910258E-009
 -2.952660516688286E-009
 -4.446593889363029E-009
 -5.903728691700153E-009
 -7.316210208627966E-009
 -8.681673719868966E-009
 -9.995110142854783E-009
 -1.124891262876866E-008
 -1.243236186921443E-008
 -1.352937133237199E-008
 -1.451508242331244E-008
 -1.534819449486673E-008
 -1.599884299704984E-008
 -1.652735082392609E-008
 -1.700547560878271E-008
 -1.746849819566787E-008
 -1.788915136402446E-008
 -1.837562576404343E-008
 -2.004463456629120E-008
 -2.106773041901901E-008
 -2.154916107749702E-008
 -2.186569766530578E-008
 -2.199463889617102E-008
  5.465599561029292E-011
 -1.454892664054674E-009
 -2.950785330950359E-009
 -4.421673711236749E-009
 -5.860210482123413E-009
 -7.259963152781966E-009
 -8.614191294975647E-009
 -9.916536442707583E-009
 -1.115928740380012E-008
 -1.233268317333856E-008
 -1.342386675207209E-008
 -1.441487609554035E-008
 -1.528576382915427E-008
 -1.603209309488410E-008
 -1.667845408604474E-008
 -1.726645448157657E-008
 -1.781868860904363E-008
 -1.839149830083295E-008
 -1.903067131954161E-008
 -1.994267196664248E-008
 -2.081479272898527E-008
 -2.134828352182384E-008
 -2.166161472189143E-008
 -2.180779454392701E-008
 -1.347732666572965E-011
 -1.489324840303477E-009
 -2.958329583136484E-009
 -4.408500792146391E-009
 -5.830887084592962E-009
 -7.217774092823716E-009
 -8.561908663442270E-009
 -9.855979451584084E-009
 -1.109227888020311E-008
 -1.226202356763867E-008
 -1.335476744149743E-008
 -1.435879612468478E-008
 -1.526480789146305E-008
 -1.607267559574915E-008
 -1.679649236811942E-008
 -1.745754041482566E-008
 -1.808275492473332E-008
 -1.869597343408998E-008
 -1.934311770462828E-008
 -2.005091748183101E-008
 -2.070979068462191E-008
 -2.121306673398490E-008
 -2.153054470717754E-008
 -2.168353408693269E-008
 -7.329775681095600E-011
 -1.523586005811130E-009
 -2.970764229185182E-009
 -4.403264681172185E-009
 -5.811519625233767E-009
 -7.187242932286608E-009
 -8.522749284389179E-009
 -9.810578108049899E-009
 -1.104316708628942E-008
 -1.221258402225719E-008
 -1.331050336380254E-008
 -1.432907438331032E-008
 -1.526315573934438E-008
 -1.611345734284869E-008
 -1.688773732630893E-008
 -1.759975125663985E-008
 -1.826513829578417E-008
 -1.890302406398785E-008
 -1.953059625771474E-008
 -2.014471786057271E-008
 -2.070184905158888E-008
 -2.114709880670052E-008
 -2.145327559114463E-008
 -2.161434328069851E-008
 -1.236788212102968E-010
 -1.554888344058049E-009
 -2.984944012712871E-009
 -4.402929270198619E-009
 -5.799317382928216E-009
 -7.165633096541142E-009
 -8.494070782454489E-009
 -9.777191983708136E-009
 -1.100773167923527E-008
 -1.217852300180386E-008
 -1.328270611673049E-008
 -1.431444227717686E-008
 -1.527021595137476E-008
 -1.615018233078012E-008
 -1.695880984831521E-008
 -1.770394073195407E-008
 -1.839566365537989E-008
 -1.904405461803691E-008
 -1.965497346829751E-008
 -2.022200212860634E-008
 -2.072233595810685E-008
 -2.112784436596666E-008
 -2.141801388220236E-008
 -2.158406686928648E-008
 -1.643685367952923E-010
 -1.581768132174454E-009
 -2.998794259839513E-009
 -4.405271406545901E-009
 -5.791999457552899E-009
 -7.150609273468016E-009
 -8.473358250392388E-009
 -9.752954143287706E-009
 -1.098245409707828E-008
 -1.215529086420411E-008
 -1.326550091890063E-008
 -1.430822662523132E-008
 -1.528042469853685E-008
 -1.618152798544652E-008
 -1.701361756058805E-008
 -1.778100249608811E-008
 -1.848908458428438E-008
 -1.914257940345611E-008
 -1.974257110719965E-008
 -2.028329235453461E-008
 -2.075161815333478E-008
 -2.113133688659462E-008
 -2.140919297561978E-008
 -2.157784741976235E-008
 -1.958495182110367E-010
 -1.603657443323001E-009
 -3.011082373170036E-009
 -4.408708828905912E-009
 -5.787795578306833E-009
 -7.140237866278132E-009
 -8.458481805585903E-009
 -9.735443467467296E-009
 -1.096447937794131E-008
 -1.213944826757605E-008
 -1.325490075284203E-008
 -1.430640199736393E-008
 -1.529092486837133E-008
 -1.620715150892590E-008
 -1.705550882937169E-008
 -1.783778542420732E-008
 -1.855630902602954E-008
 -1.921262876139452E-008
 -1.980586827739195E-008
 -2.033138373070335E-008
 -2.078087034574422E-008
 -2.114446773194385E-008
 -2.141365209534269E-008
 -2.158340682331276E-008
 -2.191256713986742E-010
 -1.620603945353644E-009
 -3.021190098939533E-009
 -4.412198748382410E-009
 -5.785389226570451E-009
 -7.132995896972425E-009
 -8.447718005579317E-009
 -9.722705013828115E-009
 -1.095157105349323E-008
 -1.212846591912592E-008
 -1.324821709988386E-008
 -1.430653269282319E-008
 -1.530021361548411E-008
 -1.622728724380678E-008
 -1.708695655857302E-008
 -1.787929188989888E-008
 -1.860463098967354E-008
 -1.926273740135400E-008
 -1.985189442652765E-008
 -2.036832527104616E-008
 -2.080640130719506E-008
 -2.115975673198809E-008
 -2.142286927981128E-008
 -2.159244961835698E-008
 -2.354930568789212E-010
 -1.633051410178770E-009
 -3.028935316018441E-009
 -4.415120637282010E-009
 -5.783855381133057E-009
 -7.127731906359845E-009
 -8.439723918285378E-009
 -9.713213212250268E-009
 -1.094202928937958E-008
 -1.212051853816067E-008
 -1.324364831379767E-008
 -1.430713295590134E-008
 -1.530754709178935E-008
 -1.624237217969161E-008
 -1.710991964163586E-008
 -1.790908908613178E-008
 -1.863895977658515E-008
 -1.929827030400288E-008
 -1.988492527522847E-008
 -2.039574069231584E-008
 -2.082662379479866E-008
 -2.117321762122791E-008
 -2.143180719761210E-008
 -2.160019398580121E-008
 -2.463440091716078E-010
 -1.641665894747380E-009
 -3.034425829984529E-009
 -4.417168331376205E-009
 -5.782585635580190E-009
 -7.123612348020468E-009
 -8.433489405713625E-009
 -9.705814680843011E-009
 -1.093459538686885E-008
 -1.211431224172192E-008
 -1.323999659115869E-008
 -1.430730998378698E-008
 -1.531260317904845E-008
 -1.625292292787422E-008
 -1.712593523595881E-008
 -1.792974737645334E-008
 -1.866263750209079E-008
 -1.932273964813113E-008
 -1.990777383767190E-008
 -2.041493529585605E-008
 -2.084103161761794E-008
 -2.118287080746273E-008
 -2.143779994087767E-008
 -2.160423848945119E-008
 -2.530239754460919E-010
 -1.647203447186410E-009
 -3.037943534853122E-009
 -4.418255763660479E-009
 -5.781215107609477E-009
 -7.120062707729068E-009
 -8.428282744454653E-009
 -9.699664896430955E-009
 -1.092836200138183E-008
 -1.210894870712751E-008
 -1.323648081641812E-008
 -1.430654773385792E-008
 -1.531530355153940E-008
 -1.625945851023273E-008
 -1.713621490124081E-008
 -1.794314152369834E-008
 -1.867799889186500E-008
 -1.933855005432498E-008
 -1.992241250859849E-008
 -2.042701280257551E-008
 -2.084968559160407E-008
 -2.118791324780094E-008
 -2.143964968914434E-008
 -2.160363939129798E-008
 -2.567417446404550E-010
 -1.650417058149274E-009
 -3.039856620538275E-009
 -4.418439812055021E-009
 -5.779557048007641E-009
 -7.116710888350120E-009
 -8.423596355584307E-009
 -9.694167392394674E-009
 -1.092269529594985E-008
 -1.210382228590979E-008
 -1.323260951313701E-008
 -1.430457446193610E-008
 -1.531570898382024E-008
 -1.626246796788533E-008
 -1.714172119889833E-008
 -1.795066826356069E-008
 -1.868672763950202E-008
 -1.934742398093828E-008
 -1.993030709237937E-008
 -2.043293625246289E-008
 -2.085294988135818E-008
 -2.118821499052036E-008
 -2.143702246029045E-008
 -2.159827448780449E-008
 -2.585241247289356E-010
 -1.651997686364947E-009
 -3.040557133457598E-009
 -4.417860461525933E-009
 -5.777548100719576E-009
 -7.113336699658538E-009
 -8.419096975833437E-009
 -9.688919347027920E-009
 -1.091717048466057E-008
 -1.209854243402001E-008
 -1.322809353052931E-008
 -1.430127791184657E-008
 -1.531395861453721E-008
 -1.626239910121453E-008
 -1.714323032681971E-008
 -1.795339540480413E-008
 -1.869008087183516E-008
 -1.935065043777949E-008
 -1.993260137825108E-008
 -2.043356210387733E-008
 -2.085134039986097E-008
 -2.118401703557778E-008
 -2.143006335367095E-008
 -2.158844992326478E-008
 -2.592030478754658E-010
 -1.652542256965212E-009
 -3.040419890202021E-009
 -4.416696896973919E-009
 -5.775204750124102E-009
 -7.109829208529502E-009
 -8.414582460085580E-009
 -9.683665145543590E-009
 -1.091151964508141E-008
 -1.209287530032234E-008
 -1.322278483120746E-008
 -1.429665005299357E-008
 -1.531023412099132E-008
 -1.625965791821811E-008
 -1.714137995985292E-008
 -1.795216246760987E-008
 -1.868903030059259E-008
 -1.934923317939377E-008
 -1.993022328085021E-008
 -2.042965847845006E-008
 -2.084543560025534E-008
 -2.117574928035253E-008
 -2.141916271305483E-008
 -2.157467003192909E-008
 -2.594235792218807E-010
 -1.652541267438476E-009
 -3.039778238693227E-009
 -4.415137167625032E-009
 -5.772590257761504E-009
 -7.106152329191476E-009
 -8.409945856541004E-009
 -9.678258043675783E-009
 -1.090559024363074E-008
 -1.208669970867896E-008
 -1.321663307814353E-008
 -1.429075043082791E-008
 -1.530473850700748E-008
 -1.625461216492412E-008
 -1.713670447517249E-008
 -1.794764792694893E-008
 -1.868435157987117E-008
 -1.934398093561813E-008
 -1.992394780032367E-008
 -2.042191584342445E-008
 -2.083582376180935E-008
 -2.116392262559896E-008
 -2.140481862882449E-008
 -2.155750881450626E-008
 -2.596636544468442E-010
 -1.652379473707765E-009
 -3.038912243594318E-009
 -4.413358717863724E-009
 -5.769790719253503E-009
 -7.102318127666813E-009
 -8.405146611468345E-009
 -9.672629383777929E-009
 -1.089931260032131E-008
 -1.207997404286399E-008
 -1.320965454124243E-008
 -1.428368140903763E-008
 -1.529768324452075E-008
 -1.624759586544693E-008
 -1.712966019162282E-008
 -1.794041406589486E-008
 -1.867668148325714E-008
 -1.933556357490814E-008
 -1.991443576507313E-008
 -2.041095429469909E-008
 -2.082307283026284E-008
 -2.114906668220447E-008
 -2.138755903978330E-008
 -2.153754163709319E-008
 -2.602589026081112E-010
 -1.652344329150340E-009
 -3.038045402389220E-009
 -4.411517156332121E-009
 -5.766898611541763E-009
 -7.098366908003436E-009
 -8.400188253391648E-009
 -9.666764517491375E-009
 -1.089267480747290E-008
 -1.207271142168462E-008
 -1.320190969162294E-008
 -1.427557123669812E-008
 -1.528928032528768E-008
 -1.623891349524675E-008
 -1.712064318598475E-008
 -1.793093701007369E-008
 -1.866655504840561E-008
 -1.932454797552535E-008
 -1.990225872896091E-008
 -2.039732950931328E-008
 -2.080771432954314E-008
 -2.113169538077985E-008
 -2.136789968817019E-008
 -2.151531149306934E-008
 -2.614283238170511E-010
 -1.652638357832151E-009
 -3.037346818838217E-009
 -4.409740942437727E-009
 -5.764002172131370E-009
 -7.094352926465682E-009
 -8.395101575425693E-009
 -9.660684397377260E-009
 -1.088570367324719E-008
 -1.206496123837782E-008
 -1.319348703798425E-008
 -1.426656229285352E-008
 -1.527973721169765E-008
 -1.622884341798393E-008
 -1.711000180036570E-008
 -1.791962699565646E-008
 -1.865443011973084E-008
 -1.931142160079211E-008
 -1.988791576884223E-008
 -2.038153822406605E-008
 -2.079023600438871E-008
 -2.111228939105619E-008
 -2.134632315055602E-008
 -2.149131450769516E-008
 -2.632982856557302E-010
 -1.653392897606733E-009
 -3.036936465765034E-009
 -4.408130054247171E-009
 -5.761179176354098E-009
 -7.090334618535250E-009
 -8.389932424488738E-009
 -9.654431866678723E-009
 -1.087845047842881E-008
 -1.205679552351203E-008
 -1.318449142889126E-008
 -1.425680288091999E-008
 -1.526925353602449E-008
 -1.621764054275885E-008
 -1.709804543420163E-008
 -1.790684224092076E-008
 -1.864070395188533E-008
 -1.929660852334574E-008
 -1.987184544982442E-008
 -2.036402352674624E-008
 -2.077107973047415E-008
 -2.109128848226684E-008
 -2.132326995012396E-008
 -2.146599578689766E-008
 -2.659236567024104E-010
 -1.654681521163699E-009
 -3.036891899053544E-009
 -4.406757209504244E-009
 -5.758493821402023E-009
 -7.086368252084915E-009
 -8.384733112932312E-009
 -9.648061721937944E-009
 -1.087098057951220E-008
 -1.204829902697953E-008
 -1.317503570087980E-008
 -1.424644149466600E-008
 -1.525801897019186E-008
 -1.620553839948545E-008
 -1.708505080211416E-008
 -1.789289861600039E-008
 -1.862572473645792E-008
 -1.928048071760228E-008
 -1.985443477596433E-008
 -2.034517996691890E-008
 -2.075064247504804E-008
 -2.106908955917937E-008
 -2.129913634702824E-008
 -2.143975054235124E-008
 -2.693056461277893E-010
 -1.656532323132775E-009
 -3.037255390831003E-009
 -4.405670521788158E-009
 -5.755995756898782E-009
 -7.082504172818463E-009
 -8.379556632623159E-009
 -9.641633696915363E-009
 -1.086336594354357E-008
 -1.203956212425023E-008
 -1.316523474798154E-008
 -1.423562285179769E-008
 -1.524621187751436E-008
 -1.619275075799010E-008
 -1.707126648341459E-008
 -1.787807655548881E-008
 -1.860979984287501E-008
 -1.926336633156048E-008
 -1.983602620020480E-008
 -2.032535842531660E-008
 -2.072927890645552E-008
 -2.104604780807415E-008
 -2.127427565640193E-008
 -2.141292767020189E-008
 -2.734063896786301E-010
 -1.658938605756505E-009
 -3.038040757773634E-009
 -4.404896857531385E-009
 -5.753720488984884E-009
 -7.078784843416685E-009
 -8.374453011585912E-009
 -9.635207731820416E-009
 -1.085567997728928E-008
 -1.203067584979116E-008
 -1.315520141374278E-008
 -1.422448523441869E-008
 -1.523399853007159E-008
 -1.617947297498134E-008
 -1.705691632966652E-008
 -1.786262615061591E-008
 -1.859320192942105E-008
 -1.924555597509021E-008
 -1.981692330116031E-008
 -2.030487067156175E-008
 -2.070730477982745E-008
 -2.102247940136979E-008
 -2.124900125108849E-008
 -2.138583425441383E-008
 -2.781606270734525E-010
 -1.661867879839196E-009
 -3.039239575988353E-009
 -4.404445391324161E-009
 -5.751690596229565E-009
 -7.075244160849853E-009
 -8.369467171101857E-009
 -9.628840911493771E-009
 -1.084799406101458E-008
 -1.202172854854162E-008
 -1.314504374653062E-008
 -1.421315876826604E-008
 -1.522153275644914E-008
 -1.616588316527259E-008
 -1.704220211960313E-008
 -1.784677102406962E-008
 -1.857617361053192E-008
 -1.922730765516313E-008
 -1.979739551043526E-008
 -2.028399355639980E-008
 -2.068500056216722E-008
 -2.099866486713545E-008
 -2.122359023014460E-008
 -2.135874020148163E-008
 -2.834848390998822E-010
 -1.665269254926255E-009
 -3.040826583320452E-009
 -4.404311042929421E-009
 -5.749917377034839E-009
 -7.071907573446742E-009
 -8.364637891126504E-009
 -9.622585656110478E-009
 -1.084037536622773E-008
 -1.201280371707810E-008
 -1.313486325210385E-008
 -1.420176442085267E-008
 -1.520895591680932E-008
 -1.615214326998243E-008
 -1.702730571120289E-008
 -1.783071140335414E-008
 -1.855893116178595E-008
 -1.920885078671737E-008
 -1.977768210976534E-008
 -2.026297281264500E-008
 -2.066261501868075E-008
 -2.097485261186175E-008
 -2.119828719553747E-008
 -2.133188262209559E-008
 -2.892842988971325E-010
 -1.669079381408445E-009
 -3.042764267730576E-009
 -4.404477634871773E-009
 -5.748402647249814E-009
 -7.068792719921442E-009
 -8.359997515545673E-009
 -9.616488775140859E-009
 -1.083288558144025E-008
 -1.200397872135497E-008
 -1.312475388860544E-008
 -1.419041351717271E-008
 -1.519639712419857E-008
 -1.613840008600814E-008
 -1.701239085179100E-008
 -1.781462661835207E-008
 -1.854166753769260E-008
 -1.919038951614915E-008
 -1.975799567073849E-008
 -2.024202647218215E-008
 -2.064036857778385E-008
 -2.095126232631853E-008
 -2.117330785494660E-008
 -2.130546979936985E-008
 -2.954584106586162E-010
 -1.673227134095247E-009
 -3.045006655033092E-009
 -4.404920670313415E-009
 -5.747140530368862E-009
 -7.065910319081617E-009
 -8.355572122348014E-009
 -9.610591142278258E-009
 -1.082558031179360E-008
 -1.199532415143445E-008
 -1.311480159831186E-008
 -1.417920764680718E-008
 -1.518397365890619E-008
 -1.612478625534518E-008
 -1.699760476523091E-008
 -1.779867721768486E-008
 -1.852455490373372E-008
 -1.917210553396477E-008
 -1.973852502299182E-008
 -2.022134791047228E-008
 -2.061845642085218E-008
 -2.092808814498424E-008
 -2.114884232166218E-008
 -2.127968470081468E-008
 -3.019046991160144E-010
 -1.677637261286484E-009
 -3.047502370430267E-009
 -4.405609721732463E-009
 -5.746119135973197E-009
 -7.063265197389923E-009
 -8.351382007093672E-009
 -9.604927768475355E-009
 -1.081850892610520E-008
 -1.198690361925260E-008
 -1.310508422526025E-008
 -1.416823883354067E-008
 -1.517179150510357E-008
 -1.611142123634500E-008
 -1.698307956676749E-008
 -1.778300679371955E-008
 -1.850774680299858E-008
 -1.915416049830894E-008
 -1.971943784930054E-008
 -2.020110854386060E-008
 -2.059705125627494E-008
 -2.090550150135005E-008
 -2.112505807186118E-008
 -2.125468804799268E-008
 -3.085217334413838E-010
 -1.682233161863457E-009
 -3.050197100603376E-009
 -4.406510426175503E-009
 -5.745322060997207E-009
 -7.060857319896861E-009
 -8.347442309192851E-009
 -9.599528138539873E-009
 -1.081171471014801E-008
 -1.197877386324882E-008
 -1.309567169765279E-008
 -1.415758990742368E-008
 -1.515994599294930E-008
 -1.609841226254609E-008
 -1.696893354820270E-008
 -1.776774358492167E-008
 -1.849138003601066E-008
 -1.913669813722397E-008
 -1.970088295049062E-008
 -2.018146021639924E-008
 -2.057630579433582E-008
 -2.088365367530939E-008
 -2.110210255908156E-008
 -2.123062098508864E-008
 -3.152112255524331E-010
 -1.686938979223550E-009
 -3.053035503609123E-009
 -4.407586134123821E-009
 -5.744729717418683E-009
 -7.058682783475086E-009
 -8.343763713998914E-009
 -9.594416687096343E-009
 -1.080523521122590E-008
 -1.197098505209559E-008
 -1.308662637941229E-008
 -1.414733498988943E-008
 -1.514852247964876E-008
 -1.608585526365008E-008
 -1.695527236339682E-008
 -1.775300191082213E-008
 -1.847557631962545E-008
 -1.911984609133777E-008
 -1.968299224067419E-008
 -2.016253730464797E-008
 -2.055635493521715E-008
 -2.086267804626819E-008
 -2.108010551016843E-008
 -2.120760739232525E-008
 -3.218794956768065E-010
 -1.691681145458744E-009
 -3.055962697708578E-009
 -4.408799232156450E-009
 -5.744320444954359E-009
 -7.056734724128125E-009
 -8.340353166287742E-009
 -9.589613352657912E-009
 -1.079910269785837E-008
 -1.196358121536091E-008
 -1.307800353981999E-008
 -1.413754006368919E-008
 -1.513759706877742E-008
 -1.607383576258453E-008
 -1.694219011672147E-008
 -1.773888345741758E-008
 -1.846044375187899E-008
 -1.910371754183258E-008
 -1.966588249876755E-008
 -2.014445857202808E-008
 -2.053731770009621E-008
 -2.084269207400205E-008
 -2.105918093444911E-008
 -2.118575589229923E-008
 -3.284384632363829E-010
 -1.696389487380863E-009
 -3.058925379212850E-009
 -4.410112206327040E-009
 -5.744071465358193E-009
 -7.055004122066667E-009
 -8.337214542367773E-009
 -9.585134151703954E-009
 -1.079334466313266E-008
 -1.195660073082355E-008
 -1.306985187703190E-008
 -1.412826356807323E-008
 -1.512723731838292E-008
 -1.606242972977084E-008
 -1.692977037185112E-008
 -1.772547843933210E-008
 -1.844607812277435E-008
 -1.908841264277599E-008
 -1.964965691531627E-008
 -2.012732880151835E-008
 -2.051929892678032E-008
 -2.082379903623688E-008
 -2.103942887794039E-008
 -2.116516159211362E-008
 -3.348062681132345E-010
 -1.700998002175452E-009
 -3.061872661033075E-009
 -4.411488463889830E-009
 -5.743959647784952E-009
 -7.053480506587477E-009
 -8.334349280061846E-009
 -9.580991742676422E-009
 -1.078798435690186E-008
 -1.195007684751815E-008
 -1.306221406304518E-008
 -1.411955701150300E-008
 -1.511750294108555E-008
 -1.605170438589721E-008
 -1.691808707662863E-008
 -1.771286664838301E-008
 -1.843256407842310E-008
 -1.907401980134741E-008
 -1.963440645820142E-008
 -2.011124023410999E-008
 -2.050239076072484E-008
 -2.080608955206512E-008
 -2.102093695471717E-008
 -2.114590759670908E-008
 -3.409076391061334E-010
 -1.705445377896956E-009
 -3.064756676330806E-009
 -4.412892974328181E-009
 -5.743962144320485E-009
 -7.052152553761377E-009
 -8.331756937441429E-009
 -9.577195954835297E-009
 -1.078304129424727E-008
 -1.194403819943963E-008
 -1.305512728970487E-008
 -1.411146556319645E-008
 -1.510844646946069E-008
 -1.604171895734857E-008
 -1.690720541130817E-008
 -1.770111839940655E-008
 -1.841997616377259E-008
 -1.906061680092727E-008
 -1.962021107508294E-008
 -2.009627383097674E-008
 -2.048667396213779E-008
 -2.078964291231113E-008
 -2.100378168208760E-008
 -2.112806632541582E-008
 -3.466740572765196E-010
 -1.709675318096569E-009
 -3.067533004221313E-009
 -4.414292747432730E-009
 -5.744056891679374E-009
 -7.051008589109329E-009
 -8.329435688314608E-009
 -9.573754271056679E-009
 -1.077853173734053E-008
 -1.193850930182792E-008
 -1.304862379016984E-008
 -1.410402862264355E-008
 -1.510011388235184E-008
 -1.603252537085769E-008
 -1.689718256151114E-008
 -1.769029538332149E-008
 -1.840837975232486E-008
 -1.904827180164792E-008
 -1.960714075310353E-008
 -2.008250038246294E-008
 -2.047221904810570E-008
 -2.077452824191428E-008
 -2.098802964388479E-008
 -2.111170065665481E-008
 -3.520437945830518E-010
 -1.713636722179037E-009
 -3.070160958865345E-009
 -4.415657193514300E-009
 -5.744223005011379E-009
 -7.050037006724206E-009
 -8.327382748716975E-009
 -9.570672264533284E-009
 -1.077446914239451E-008
 -1.193351101298143E-008
 -1.304273132919693E-008
 -1.409728034543455E-008
 -1.509254518204434E-008
 -1.602416888768117E-008
 -1.688806841510358E-008
 -1.768045142759054E-008
 -1.839783186674057E-008
 -1.903704422262224E-008
 -1.959525644936114E-008
 -2.006998147866172E-008
 -2.045908729108046E-008
 -2.076080551156894E-008
 -2.097373850069838E-008
 -2.109686492170493E-008
 -3.569618494701173E-010
 -1.717283767133570E-009
 -3.072603772158816E-009
 -4.416958376788362E-009
 -5.744441090040080E-009
 -7.049226607177556E-009
 -8.325594740119083E-009
 -9.567953976706943E-009
 -1.077086455624489E-008
 -1.192906095242693E-008
 -1.303747365204243E-008
 -1.409125013069173E-008
 -1.508577491883745E-008
 -1.601668867826853E-008
 -1.687990618733554E-008
 -1.767163317328778E-008
 -1.838838190865411E-008
 -1.902698551311010E-008
 -1.958461090543460E-008
 -2.005877035449974E-008
 -2.044733158648346E-008
 -2.074852641564727E-008
 -2.096095786637232E-008
 -2.108360576508573E-008
 -3.613798315488523E-010
 -1.720575913883927E-009
 -3.074828698773363E-009
 -4.418171198565390E-009
 -5.744693475297627E-009
 -7.048566875723809E-009
 -8.324067994126095E-009
 -9.565602248987755E-009
 -1.076772696903938E-008
 -1.192517388076423E-008
 -1.303287088900577E-008
 -1.408596305443543E-008
 -1.507983266869966E-008
 -1.601011833537381E-008
 -1.687273297477604E-008
 -1.766388067159052E-008
 -1.838007229495354E-008
 -1.901813982963160E-008
 -1.957524935398901E-008
 -2.004891262209506E-008
 -2.043699720122611E-008
 -2.073773512938212E-008
 -2.094973006204258E-008
 -2.107196288522125E-008
 -3.652558053817456E-010
 -1.723477864037537E-009
 -3.076807065575511E-009
 -4.419273516758015E-009
 -5.744964389121676E-009
 -7.048048199932295E-009
 -8.322798806367496E-009
 -9.563619002939980E-009
 -1.076506362225055E-008
 -1.192186202964066E-008
 -1.302893991138334E-008
 -1.408144025772661E-008
 -1.507474344402348E-008
 -1.600448632299024E-008
 -1.686658024103536E-008
 -1.765722790284217E-008
 -1.837293901139511E-008
 -1.901054461816573E-008
 -1.956721012735776E-008
 -2.004044690029770E-008
 -2.042812241720416E-008
 -2.072846895631298E-008
 -2.094009076078478E-008
 -2.106196966706245E-008
 -3.685541281739186E-010
 -1.725959494267070E-009
 -3.078514286736070E-009
 -4.420246226339088E-009
 -5.745240092175779E-009
 -7.047662043303972E-009
 -8.321783641862281E-009
 -9.562005474496078E-009
 -1.076288026558135E-008
 -1.191913538477937E-008
 -1.302569464230225E-008
 -1.407769927966579E-008
 -1.507052805938763E-008
 -1.599981636599263E-008
 -1.686147423360177E-008
 -1.765170322432940E-008
 -1.836701208427193E-008
 -1.900423111067500E-008
 -1.956052517541325E-008
 -2.003340534775016E-008
 -2.042073907433770E-008
 -2.072075887665432E-008
 -2.093206953227894E-008
 -2.105365371652149E-008
 -3.712452831730520E-010
 -1.727995772306909E-009
 -3.079929848068356E-009
 -4.421073303560963E-009
 -5.745508970359693E-009
 -7.047401077923851E-009
 -8.321019302415612E-009
 -9.560762407875139E-009
 -1.076118137691466E-008
 -1.191700192686777E-008
 -1.302314631603300E-008
 -1.407475434136646E-008
 -1.506720343649481E-008
 -1.599612778079603E-008
 -1.685743633800747E-008
 -1.764732974467972E-008
 -1.836231597916254E-008
 -1.899922474336030E-008
 -1.955522049941109E-008
 -2.002781410837956E-008
 -2.041487302376897E-008
 -2.071463000193154E-008
 -2.092569029543294E-008
 -2.104703730368282E-008
 -3.733057264562846E-010
 -1.729566674404157E-009
 -3.081037286144824E-009
 -4.421741832815541E-009
 -5.745761602201163E-009
 -7.047259286473954E-009
 -8.320503053835206E-009
 -9.559890209068703E-009
 -1.075997033618238E-008
 -1.191546782680279E-008
 -1.302130369462000E-008
 -1.407261658014423E-008
 -1.506478285648322E-008
 -1.599343574618287E-008
 -1.685448336747339E-008
 -1.764412563223661E-008
 -1.835886992473748E-008
 -1.899554549428531E-008
 -1.955131650264578E-008
 -2.002369367310970E-008
 -2.041054449529653E-008
 -2.071010194471494E-008
 -2.092097168446266E-008
 -2.104213772186752E-008
 -3.747177559776141E-010
 -1.730657107237219E-009
 -3.081824155716628E-009
 -4.422242017217267E-009
 -5.745990804547107E-009
 -7.047232035933925E-009
 -8.320232727039910E-009
 -9.559389065095368E-009
 -1.075924956363556E-008
 -1.191453759992055E-008
 -1.302017323635338E-008
 -1.407129423342493E-008
 -1.506327615999925E-008
 -1.599175151711573E-008
 -1.685262779086167E-008
 -1.764210435738406E-008
 -1.835668816846976E-008
 -1.899320815217022E-008
 -1.954882826767113E-008
 -2.002105916274557E-008
 -2.040776838472281E-008
 -2.070718910673087E-008
 -2.091792733446044E-008
 -2.103896756689468E-008
 -3.754694074643684E-010
 -1.731256845355564E-009
 -3.082282004156185E-009
 -4.422567182606853E-009
 -5.746191661545481E-009
 -7.047316129446733E-009
 -8.320206786453712E-009
 -9.559259030386317E-009
 -1.075902061952828E-008
 -1.191421421730149E-008
 -1.301975922004777E-008
 -1.407079277431514E-008
 -1.506268989274669E-008
 -1.599108258234600E-008
 -1.685187790178945E-008
 -1.764127487146175E-008
 -1.835578016418441E-008
 -1.899222251047889E-008
 -1.954776575854885E-008
 -2.001992053572370E-008
 -2.040655446396567E-008
 -2.070590088909376E-008
 -2.091656608998718E-008
 -2.103753494077871E-008
SCALARS elementIsPlast double 
LOOKUP_TABLE default
  0.000000000000000E+000
  0.000000000000000E+000
  0.000000000000000E+000
  0.000000000000000E+000
  0.000000000000000E+000
  0.000000000000000E+000
  0.000000000000000E+000
  0.000000000000000E+000
  0.000000000000000E+000
  0.000000000000000E+000
  0.000000000000000E+000
  0.000000000000000E+000
  0.000000000000000E+000
  0.000000000000000E+000
   1.00000000000000     
   1.00000000000000     
   1.00000000000000     
   1.00000000000000     
   1.00000000000000     
   1.00000000000000     
  0.000000000000000E+000
  0.000000000000000E+000
  0.000000000000000E+000
  0.000000000000000E+000
  0.000000000000000E+000
  0.000000000000000E+000
  0.000000000000000E+000
  0.000000000000000E+000
  0.000000000000000E+000
  0.000000000000000E+000
  0.000000000000000E+000
  0.000000000000000E+000
  0.000000000000000E+000
  0.000000000000000E+000
  0.000000000000000E+000
  0.000000000000000E+000
  0.000000000000000E+000
  0.000000000000000E+000
   1.00000000000000     
   1.00000000000000     
   1.00000000000000     
   1.00000000000000     
   1.00000000000000     
   1.00000000000000     
  0.000000000000000E+000
  0.000000000000000E+000
  0.000000000000000E+000
  0.000000000000000E+000
  0.000000000000000E+000
  0.000000000000000E+000
  0.000000000000000E+000
  0.000000000000000E+000
  0.000000000000000E+000
  0.000000000000000E+000
  0.000000000000000E+000
  0.000000000000000E+000
  0.000000000000000E+000
  0.000000000000000E+000
  0.000000000000000E+000
  0.000000000000000E+000
   1.00000000000000     
   1.00000000000000     
   1.00000000000000     
   1.00000000000000     
   1.00000000000000     
   1.00000000000000     
   1.00000000000000     
   1.00000000000000     
  0.000000000000000E+000
  0.000000000000000E+000
  0.000000000000000E+000
  0.000000000000000E+000
  0.000000000000000E+000
  0.000000000000000E+000
  0.000000000000000E+000
  0.000000000000000E+000
  0.000000000000000E+000
  0.000000000000000E+000
  0.000000000000000E+000
  0.000000000000000E+000
  0.000000000000000E+000
  0.000000000000000E+000
  0.000000000000000E+000
  0.000000000000000E+000
  0.000000000000000E+000
   1.00000000000000     
   1.00000000000000     
   1.00000000000000     
   1.00000000000000     
   1.00000000000000     
   1.00000000000000     
  0.000000000000000E+000
  0.000000000000000E+000
  0.000000000000000E+000
  0.000000000000000E+000
  0.000000000000000E+000
  0.000000000000000E+000
  0.000000000000000E+000
  0.000000000000000E+000
  0.000000000000000E+000
  0.000000000000000E+000
  0.000000000000000E+000
  0.000000000000000E+000
  0.000000000000000E+000
  0.000000000000000E+000
  0.000000000000000E+000
  0.000000000000000E+000
  0.000000000000000E+000
  0.000000000000000E+000
  0.000000000000000E+000
  0.000000000000000E+000
  0.000000000000000E+000
  0.000000000000000E+000
   1.00000000000000     
   1.00000000000000     
  0.000000000000000E+000
  0.000000000000000E+000
  0.000000000000000E+000
  0.000000000000000E+000
  0.000000000000000E+000
  0.000000000000000E+000
  0.000000000000000E+000
  0.000000000000000E+000
  0.000000000000000E+000
  0.000000000000000E+000
  0.000000000000000E+000
  0.000000000000000E+000
  0.000000000000000E+000
  0.000000000000000E+000
  0.000000000000000E+000
  0.000000000000000E+000
  0.000000000000000E+000
  0.000000000000000E+000
  0.000000000000000E+000
  0.000000000000000E+000
  0.000000000000000E+000
  0.000000000000000E+000
  0.000000000000000E+000
  0.000000000000000E+000
  0.000000000000000E+000
  0.000000000000000E+000
  0.000000000000000E+000
  0.000000000000000E+000
  0.000000000000000E+000
  0.000000000000000E+000
  0.000000000000000E+000
  0.000000000000000E+000
  0.000000000000000E+000
  0.000000000000000E+000
  0.000000000000000E+000
  0.000000000000000E+000
  0.000000000000000E+000
  0.000000000000000E+000
  0.000000000000000E+000
  0.000000000000000E+000
  0.000000000000000E+000
  0.000000000000000E+000
  0.000000000000000E+000
  0.000000000000000E+000
  0.000000000000000E+000
  0.000000000000000E+000
  0.000000000000000E+000
  0.000000000000000E+000
  0.000000000000000E+000
  0.000000000000000E+000
  0.000000000000000E+000
  0.000000000000000E+000
  0.000000000000000E+000
  0.000000000000000E+000
  0.000000000000000E+000
  0.000000000000000E+000
  0.000000000000000E+000
  0.000000000000000E+000
  0.000000000000000E+000
  0.000000000000000E+000
  0.000000000000000E+000
  0.000000000000000E+000
  0.000000000000000E+000
  0.000000000000000E+000
  0.000000000000000E+000
  0.000000000000000E+000
  0.000000000000000E+000
  0.000000000000000E+000
  0.000000000000000E+000
  0.000000000000000E+000
  0.000000000000000E+000
  0.000000000000000E+000
  0.000000000000000E+000
  0.000000000000000E+000
  0.000000000000000E+000
  0.000000000000000E+000
  0.000000000000000E+000
  0.000000000000000E+000
  0.000000000000000E+000
  0.000000000000000E+000
  0.000000000000000E+000
  0.000000000000000E+000
  0.000000000000000E+000
  0.000000000000000E+000
  0.000000000000000E+000
  0.000000000000000E+000
  0.000000000000000E+000
  0.000000000000000E+000
  0.000000000000000E+000
  0.000000000000000E+000
  0.000000000000000E+000
  0.000000000000000E+000
  0.000000000000000E+000
  0.000000000000000E+000
  0.000000000000000E+000
  0.000000000000000E+000
  0.000000000000000E+000
  0.000000000000000E+000
  0.000000000000000E+000
  0.000000000000000E+000
  0.000000000000000E+000
  0.000000000000000E+000
  0.000000000000000E+000
  0.000000000000000E+000
  0.000000000000000E+000
  0.000000000000000E+000
  0.000000000000000E+000
  0.000000000000000E+000
  0.000000000000000E+000
  0.000000000000000E+000
  0.000000000000000E+000
  0.000000000000000E+000
  0.000000000000000E+000
  0.000000000000000E+000
  0.000000000000000E+000
  0.000000000000000E+000
  0.000000000000000E+000
  0.000000000000000E+000
  0.000000000000000E+000
  0.000000000000000E+000
  0.000000000000000E+000
  0.000000000000000E+000
  0.000000000000000E+000
  0.000000000000000E+000
  0.000000000000000E+000
  0.000000000000000E+000
  0.000000000000000E+000
  0.000000000000000E+000
  0.000000000000000E+000
  0.000000000000000E+000
  0.000000000000000E+000
  0.000000000000000E+000
  0.000000000000000E+000
  0.000000000000000E+000
  0.000000000000000E+000
  0.000000000000000E+000
  0.000000000000000E+000
  0.000000000000000E+000
  0.000000000000000E+000
  0.000000000000000E+000
  0.000000000000000E+000
  0.000000000000000E+000
  0.000000000000000E+000
  0.000000000000000E+000
  0.000000000000000E+000
  0.000000000000000E+000
  0.000000000000000E+000
  0.000000000000000E+000
  0.000000000000000E+000
  0.000000000000000E+000
  0.000000000000000E+000
  0.000000000000000E+000
  0.000000000000000E+000
  0.000000000000000E+000
  0.000000000000000E+000
  0.000000000000000E+000
  0.000000000000000E+000
  0.000000000000000E+000
  0.000000000000000E+000
  0.000000000000000E+000
  0.000000000000000E+000
  0.000000000000000E+000
  0.000000000000000E+000
  0.000000000000000E+000
  0.000000000000000E+000
  0.000000000000000E+000
  0.000000000000000E+000
  0.000000000000000E+000
  0.000000000000000E+000
  0.000000000000000E+000
  0.000000000000000E+000
  0.000000000000000E+000
  0.000000000000000E+000
  0.000000000000000E+000
  0.000000000000000E+000
  0.000000000000000E+000
  0.000000000000000E+000
  0.000000000000000E+000
  0.000000000000000E+000
  0.000000000000000E+000
  0.000000000000000E+000
  0.000000000000000E+000
  0.000000000000000E+000
  0.000000000000000E+000
  0.000000000000000E+000
  0.000000000000000E+000
  0.000000000000000E+000
  0.000000000000000E+000
  0.000000000000000E+000
  0.000000000000000E+000
  0.000000000000000E+000
  0.000000000000000E+000
  0.000000000000000E+000
  0.000000000000000E+000
  0.000000000000000E+000
  0.000000000000000E+000
  0.000000000000000E+000
  0.000000000000000E+000
  0.000000000000000E+000
  0.000000000000000E+000
  0.000000000000000E+000
  0.000000000000000E+000
  0.000000000000000E+000
  0.000000000000000E+000
  0.000000000000000E+000
  0.000000000000000E+000
  0.000000000000000E+000
  0.000000000000000E+000
  0.000000000000000E+000
  0.000000000000000E+000
  0.000000000000000E+000
  0.000000000000000E+000
  0.000000000000000E+000
  0.000000000000000E+000
  0.000000000000000E+000
  0.000000000000000E+000
  0.000000000000000E+000
  0.000000000000000E+000
  0.000000000000000E+000
  0.000000000000000E+000
  0.000000000000000E+000
  0.000000000000000E+000
  0.000000000000000E+000
  0.000000000000000E+000
  0.000000000000000E+000
  0.000000000000000E+000
  0.000000000000000E+000
  0.000000000000000E+000
  0.000000000000000E+000
  0.000000000000000E+000
  0.000000000000000E+000
  0.000000000000000E+000
  0.000000000000000E+000
  0.000000000000000E+000
  0.000000000000000E+000
  0.000000000000000E+000
  0.000000000000000E+000
  0.000000000000000E+000
  0.000000000000000E+000
  0.000000000000000E+000
  0.000000000000000E+000
  0.000000000000000E+000
  0.000000000000000E+000
  0.000000000000000E+000
  0.000000000000000E+000
  0.000000000000000E+000
  0.000000000000000E+000
  0.000000000000000E+000
  0.000000000000000E+000
  0.000000000000000E+000
  0.000000000000000E+000
  0.000000000000000E+000
  0.000000000000000E+000
  0.000000000000000E+000
  0.000000000000000E+000
  0.000000000000000E+000
  0.000000000000000E+000
  0.000000000000000E+000
  0.000000000000000E+000
  0.000000000000000E+000
  0.000000000000000E+000
  0.000000000000000E+000
  0.000000000000000E+000
  0.000000000000000E+000
  0.000000000000000E+000
  0.000000000000000E+000
  0.000000000000000E+000
  0.000000000000000E+000
  0.000000000000000E+000
  0.000000000000000E+000
  0.000000000000000E+000
  0.000000000000000E+000
  0.000000000000000E+000
  0.000000000000000E+000
  0.000000000000000E+000
  0.000000000000000E+000
  0.000000000000000E+000
  0.000000000000000E+000
  0.000000000000000E+000
  0.000000000000000E+000
  0.000000000000000E+000
  0.000000000000000E+000
  0.000000000000000E+000
  0.000000000000000E+000
  0.000000000000000E+000
  0.000000000000000E+000
  0.000000000000000E+000
  0.000000000000000E+000
  0.000000000000000E+000
  0.000000000000000E+000
  0.000000000000000E+000
  0.000000000000000E+000
  0.000000000000000E+000
  0.000000000000000E+000
  0.000000000000000E+000
  0.000000000000000E+000
  0.000000000000000E+000
  0.000000000000000E+000
  0.000000000000000E+000
  0.000000000000000E+000
  0.000000000000000E+000
  0.000000000000000E+000
  0.000000000000000E+000
  0.000000000000000E+000
  0.000000000000000E+000
  0.000000000000000E+000
  0.000000000000000E+000
  0.000000000000000E+000
  0.000000000000000E+000
  0.000000000000000E+000
  0.000000000000000E+000
  0.000000000000000E+000
  0.000000000000000E+000
  0.000000000000000E+000
  0.000000000000000E+000
  0.000000000000000E+000
  0.000000000000000E+000
  0.000000000000000E+000
  0.000000000000000E+000
  0.000000000000000E+000
  0.000000000000000E+000
  0.000000000000000E+000
  0.000000000000000E+000
  0.000000000000000E+000
  0.000000000000000E+000
  0.000000000000000E+000
  0.000000000000000E+000
  0.000000000000000E+000
  0.000000000000000E+000
  0.000000000000000E+000
  0.000000000000000E+000
  0.000000000000000E+000
  0.000000000000000E+000
  0.000000000000000E+000
  0.000000000000000E+000
  0.000000000000000E+000
  0.000000000000000E+000
  0.000000000000000E+000
  0.000000000000000E+000
  0.000000000000000E+000
  0.000000000000000E+000
  0.000000000000000E+000
  0.000000000000000E+000
  0.000000000000000E+000
  0.000000000000000E+000
  0.000000000000000E+000
  0.000000000000000E+000
  0.000000000000000E+000
  0.000000000000000E+000
  0.000000000000000E+000
  0.000000000000000E+000
  0.000000000000000E+000
  0.000000000000000E+000
  0.000000000000000E+000
  0.000000000000000E+000
  0.000000000000000E+000
  0.000000000000000E+000
  0.000000000000000E+000
  0.000000000000000E+000
  0.000000000000000E+000
  0.000000000000000E+000
  0.000000000000000E+000
  0.000000000000000E+000
  0.000000000000000E+000
  0.000000000000000E+000
  0.000000000000000E+000
  0.000000000000000E+000
  0.000000000000000E+000
  0.000000000000000E+000
  0.000000000000000E+000
  0.000000000000000E+000
  0.000000000000000E+000
  0.000000000000000E+000
  0.000000000000000E+000
  0.000000000000000E+000
  0.000000000000000E+000
  0.000000000000000E+000
  0.000000000000000E+000
  0.000000000000000E+000
  0.000000000000000E+000
  0.000000000000000E+000
  0.000000000000000E+000
  0.000000000000000E+000
  0.000000000000000E+000
  0.000000000000000E+000
  0.000000000000000E+000
  0.000000000000000E+000
  0.000000000000000E+000
  0.000000000000000E+000
  0.000000000000000E+000
  0.000000000000000E+000
  0.000000000000000E+000
  0.000000000000000E+000
  0.000000000000000E+000
  0.000000000000000E+000
  0.000000000000000E+000
  0.000000000000000E+000
  0.000000000000000E+000
  0.000000000000000E+000
  0.000000000000000E+000
  0.000000000000000E+000
  0.000000000000000E+000
  0.000000000000000E+000
  0.000000000000000E+000
  0.000000000000000E+000
  0.000000000000000E+000
  0.000000000000000E+000
  0.000000000000000E+000
  0.000000000000000E+000
  0.000000000000000E+000
  0.000000000000000E+000
  0.000000000000000E+000
  0.000000000000000E+000
  0.000000000000000E+000
  0.000000000000000E+000
  0.000000000000000E+000
  0.000000000000000E+000
  0.000000000000000E+000
  0.000000000000000E+000
  0.000000000000000E+000
  0.000000000000000E+000
  0.000000000000000E+000
  0.000000000000000E+000
  0.000000000000000E+000
  0.000000000000000E+000
  0.000000000000000E+000
  0.000000000000000E+000
  0.000000000000000E+000
  0.000000000000000E+000
  0.000000000000000E+000
  0.000000000000000E+000
  0.000000000000000E+000
  0.000000000000000E+000
  0.000000000000000E+000
  0.000000000000000E+000
  0.000000000000000E+000
  0.000000000000000E+000
  0.000000000000000E+000
  0.000000000000000E+000
  0.000000000000000E+000
  0.000000000000000E+000
  0.000000000000000E+000
  0.000000000000000E+000
  0.000000000000000E+000
  0.000000000000000E+000
  0.000000000000000E+000
  0.000000000000000E+000
  0.000000000000000E+000
  0.000000000000000E+000
  0.000000000000000E+000
  0.000000000000000E+000
  0.000000000000000E+000
  0.000000000000000E+000
  0.000000000000000E+000
  0.000000000000000E+000
  0.000000000000000E+000
  0.000000000000000E+000
  0.000000000000000E+000
  0.000000000000000E+000
  0.000000000000000E+000
  0.000000000000000E+000
  0.000000000000000E+000
  0.000000000000000E+000
  0.000000000000000E+000
  0.000000000000000E+000
  0.000000000000000E+000
  0.000000000000000E+000
  0.000000000000000E+000
  0.000000000000000E+000
  0.000000000000000E+000
  0.000000000000000E+000
  0.000000000000000E+000
  0.000000000000000E+000
  0.000000000000000E+000
  0.000000000000000E+000
  0.000000000000000E+000
  0.000000000000000E+000
  0.000000000000000E+000
  0.000000000000000E+000
  0.000000000000000E+000
  0.000000000000000E+000
  0.000000000000000E+000
  0.000000000000000E+000
  0.000000000000000E+000
  0.000000000000000E+000
  0.000000000000000E+000
  0.000000000000000E+000
  0.000000000000000E+000
  0.000000000000000E+000
  0.000000000000000E+000
  0.000000000000000E+000
  0.000000000000000E+000
  0.000000000000000E+000
  0.000000000000000E+000
  0.000000000000000E+000
  0.000000000000000E+000
  0.000000000000000E+000
  0.000000000000000E+000
  0.000000000000000E+000
  0.000000000000000E+000
  0.000000000000000E+000
  0.000000000000000E+000
  0.000000000000000E+000
  0.000000000000000E+000
  0.000000000000000E+000
  0.000000000000000E+000
  0.000000000000000E+000
  0.000000000000000E+000
  0.000000000000000E+000
  0.000000000000000E+000
  0.000000000000000E+000
  0.000000000000000E+000
  0.000000000000000E+000
  0.000000000000000E+000
  0.000000000000000E+000
  0.000000000000000E+000
  0.000000000000000E+000
  0.000000000000000E+000
  0.000000000000000E+000
  0.000000000000000E+000
  0.000000000000000E+000
  0.000000000000000E+000
  0.000000000000000E+000
  0.000000000000000E+000
  0.000000000000000E+000
  0.000000000000000E+000
  0.000000000000000E+000
  0.000000000000000E+000
  0.000000000000000E+000
  0.000000000000000E+000
  0.000000000000000E+000
  0.000000000000000E+000
  0.000000000000000E+000
  0.000000000000000E+000
  0.000000000000000E+000
  0.000000000000000E+000
  0.000000000000000E+000
  0.000000000000000E+000
  0.000000000000000E+000
  0.000000000000000E+000
  0.000000000000000E+000
  0.000000000000000E+000
  0.000000000000000E+000
  0.000000000000000E+000
  0.000000000000000E+000
  0.000000000000000E+000
  0.000000000000000E+000
  0.000000000000000E+000
  0.000000000000000E+000
  0.000000000000000E+000
  0.000000000000000E+000
  0.000000000000000E+000
  0.000000000000000E+000
  0.000000000000000E+000
  0.000000000000000E+000
  0.000000000000000E+000
  0.000000000000000E+000
  0.000000000000000E+000
  0.000000000000000E+000
  0.000000000000000E+000
  0.000000000000000E+000
  0.000000000000000E+000
  0.000000000000000E+000
  0.000000000000000E+000
  0.000000000000000E+000
  0.000000000000000E+000
  0.000000000000000E+000
  0.000000000000000E+000
  0.000000000000000E+000
  0.000000000000000E+000
  0.000000000000000E+000
  0.000000000000000E+000
  0.000000000000000E+000
  0.000000000000000E+000
  0.000000000000000E+000
  0.000000000000000E+000
  0.000000000000000E+000
  0.000000000000000E+000
  0.000000000000000E+000
  0.000000000000000E+000
  0.000000000000000E+000
  0.000000000000000E+000
  0.000000000000000E+000
  0.000000000000000E+000
  0.000000000000000E+000
  0.000000000000000E+000
  0.000000000000000E+000
  0.000000000000000E+000
  0.000000000000000E+000
  0.000000000000000E+000
  0.000000000000000E+000
  0.000000000000000E+000
  0.000000000000000E+000
  0.000000000000000E+000
  0.000000000000000E+000
  0.000000000000000E+000
  0.000000000000000E+000
  0.000000000000000E+000
  0.000000000000000E+000
  0.000000000000000E+000
  0.000000000000000E+000
  0.000000000000000E+000
  0.000000000000000E+000
  0.000000000000000E+000
  0.000000000000000E+000
  0.000000000000000E+000
  0.000000000000000E+000
  0.000000000000000E+000
  0.000000000000000E+000
  0.000000000000000E+000
  0.000000000000000E+000
  0.000000000000000E+000
  0.000000000000000E+000
  0.000000000000000E+000
  0.000000000000000E+000
  0.000000000000000E+000
  0.000000000000000E+000
  0.000000000000000E+000
  0.000000000000000E+000
  0.000000000000000E+000
  0.000000000000000E+000
  0.000000000000000E+000
  0.000000000000000E+000
  0.000000000000000E+000
  0.000000000000000E+000
  0.000000000000000E+000
  0.000000000000000E+000
  0.000000000000000E+000
  0.000000000000000E+000
  0.000000000000000E+000
  0.000000000000000E+000
  0.000000000000000E+000
  0.000000000000000E+000
  0.000000000000000E+000
  0.000000000000000E+000
  0.000000000000000E+000
  0.000000000000000E+000
  0.000000000000000E+000
  0.000000000000000E+000
  0.000000000000000E+000
  0.000000000000000E+000
  0.000000000000000E+000
  0.000000000000000E+000
  0.000000000000000E+000
  0.000000000000000E+000
  0.000000000000000E+000
  0.000000000000000E+000
  0.000000000000000E+000
  0.000000000000000E+000
  0.000000000000000E+000
  0.000000000000000E+000
  0.000000000000000E+000
  0.000000000000000E+000
  0.000000000000000E+000
  0.000000000000000E+000
  0.000000000000000E+000
  0.000000000000000E+000
  0.000000000000000E+000
  0.000000000000000E+000
  0.000000000000000E+000
  0.000000000000000E+000
  0.000000000000000E+000
  0.000000000000000E+000
  0.000000000000000E+000
  0.000000000000000E+000
  0.000000000000000E+000
  0.000000000000000E+000
  0.000000000000000E+000
  0.000000000000000E+000
  0.000000000000000E+000
  0.000000000000000E+000
  0.000000000000000E+000
  0.000000000000000E+000
  0.000000000000000E+000
  0.000000000000000E+000
  0.000000000000000E+000
  0.000000000000000E+000
  0.000000000000000E+000
  0.000000000000000E+000
  0.000000000000000E+000
  0.000000000000000E+000
  0.000000000000000E+000
  0.000000000000000E+000
  0.000000000000000E+000
  0.000000000000000E+000
  0.000000000000000E+000
  0.000000000000000E+000
  0.000000000000000E+000
  0.000000000000000E+000
  0.000000000000000E+000
  0.000000000000000E+000
  0.000000000000000E+000
  0.000000000000000E+000
  0.000000000000000E+000
  0.000000000000000E+000
  0.000000000000000E+000
  0.000000000000000E+000
  0.000000000000000E+000
  0.000000000000000E+000
  0.000000000000000E+000
  0.000000000000000E+000
  0.000000000000000E+000
  0.000000000000000E+000
  0.000000000000000E+000
  0.000000000000000E+000
  0.000000000000000E+000
  0.000000000000000E+000
  0.000000000000000E+000
  0.000000000000000E+000
  0.000000000000000E+000
  0.000000000000000E+000
  0.000000000000000E+000
  0.000000000000000E+000
  0.000000000000000E+000
  0.000000000000000E+000
  0.000000000000000E+000
  0.000000000000000E+000
  0.000000000000000E+000
  0.000000000000000E+000
  0.000000000000000E+000
  0.000000000000000E+000
  0.000000000000000E+000
  0.000000000000000E+000
  0.000000000000000E+000
  0.000000000000000E+000
  0.000000000000000E+000
  0.000000000000000E+000
  0.000000000000000E+000
  0.000000000000000E+000
  0.000000000000000E+000
  0.000000000000000E+000
  0.000000000000000E+000
  0.000000000000000E+000
  0.000000000000000E+000
  0.000000000000000E+000
  0.000000000000000E+000
  0.000000000000000E+000
  0.000000000000000E+000
  0.000000000000000E+000
  0.000000000000000E+000
  0.000000000000000E+000
  0.000000000000000E+000
  0.000000000000000E+000
  0.000000000000000E+000
  0.000000000000000E+000
  0.000000000000000E+000
  0.000000000000000E+000
  0.000000000000000E+000
  0.000000000000000E+000
  0.000000000000000E+000
  0.000000000000000E+000
  0.000000000000000E+000
  0.000000000000000E+000
  0.000000000000000E+000
  0.000000000000000E+000
  0.000000000000000E+000
  0.000000000000000E+000
  0.000000000000000E+000
  0.000000000000000E+000
  0.000000000000000E+000
  0.000000000000000E+000
  0.000000000000000E+000
  0.000000000000000E+000
  0.000000000000000E+000
  0.000000000000000E+000
  0.000000000000000E+000
  0.000000000000000E+000
  0.000000000000000E+000
  0.000000000000000E+000
  0.000000000000000E+000
  0.000000000000000E+000
  0.000000000000000E+000
  0.000000000000000E+000
  0.000000000000000E+000
  0.000000000000000E+000
  0.000000000000000E+000
  0.000000000000000E+000
  0.000000000000000E+000
  0.000000000000000E+000
  0.000000000000000E+000
  0.000000000000000E+000
  0.000000000000000E+000
  0.000000000000000E+000
  0.000000000000000E+000
  0.000000000000000E+000
  0.000000000000000E+000
  0.000000000000000E+000
  0.000000000000000E+000
  0.000000000000000E+000
  0.000000000000000E+000
  0.000000000000000E+000
  0.000000000000000E+000
  0.000000000000000E+000
  0.000000000000000E+000
  0.000000000000000E+000
  0.000000000000000E+000
  0.000000000000000E+000
  0.000000000000000E+000
  0.000000000000000E+000
  0.000000000000000E+000
  0.000000000000000E+000
  0.000000000000000E+000
  0.000000000000000E+000
  0.000000000000000E+000
  0.000000000000000E+000
  0.000000000000000E+000
  0.000000000000000E+000
  0.000000000000000E+000
  0.000000000000000E+000
  0.000000000000000E+000
  0.000000000000000E+000
  0.000000000000000E+000
  0.000000000000000E+000
  0.000000000000000E+000
  0.000000000000000E+000
  0.000000000000000E+000
  0.000000000000000E+000
  0.000000000000000E+000
  0.000000000000000E+000
  0.000000000000000E+000
  0.000000000000000E+000
  0.000000000000000E+000
  0.000000000000000E+000
  0.000000000000000E+000
  0.000000000000000E+000
  0.000000000000000E+000
  0.000000000000000E+000
  0.000000000000000E+000
  0.000000000000000E+000
  0.000000000000000E+000
  0.000000000000000E+000
  0.000000000000000E+000
  0.000000000000000E+000
  0.000000000000000E+000
  0.000000000000000E+000
  0.000000000000000E+000
  0.000000000000000E+000
  0.000000000000000E+000
  0.000000000000000E+000
  0.000000000000000E+000
  0.000000000000000E+000
  0.000000000000000E+000
  0.000000000000000E+000
  0.000000000000000E+000
  0.000000000000000E+000
  0.000000000000000E+000
  0.000000000000000E+000
  0.000000000000000E+000
  0.000000000000000E+000
  0.000000000000000E+000
  0.000000000000000E+000
  0.000000000000000E+000
  0.000000000000000E+000
  0.000000000000000E+000
  0.000000000000000E+000
  0.000000000000000E+000
  0.000000000000000E+000
  0.000000000000000E+000
  0.000000000000000E+000
  0.000000000000000E+000
  0.000000000000000E+000
  0.000000000000000E+000
  0.000000000000000E+000
  0.000000000000000E+000
  0.000000000000000E+000
  0.000000000000000E+000
  0.000000000000000E+000
  0.000000000000000E+000
  0.000000000000000E+000
  0.000000000000000E+000
  0.000000000000000E+000
  0.000000000000000E+000
  0.000000000000000E+000
  0.000000000000000E+000
  0.000000000000000E+000
  0.000000000000000E+000
  0.000000000000000E+000
  0.000000000000000E+000
  0.000000000000000E+000
  0.000000000000000E+000
  0.000000000000000E+000
  0.000000000000000E+000
  0.000000000000000E+000
  0.000000000000000E+000
  0.000000000000000E+000
  0.000000000000000E+000
  0.000000000000000E+000
  0.000000000000000E+000
  0.000000000000000E+000
  0.000000000000000E+000
  0.000000000000000E+000
  0.000000000000000E+000
  0.000000000000000E+000
  0.000000000000000E+000
  0.000000000000000E+000
  0.000000000000000E+000
  0.000000000000000E+000
  0.000000000000000E+000
  0.000000000000000E+000
  0.000000000000000E+000
  0.000000000000000E+000
  0.000000000000000E+000
  0.000000000000000E+000
  0.000000000000000E+000
  0.000000000000000E+000
  0.000000000000000E+000
  0.000000000000000E+000
  0.000000000000000E+000
  0.000000000000000E+000
  0.000000000000000E+000
  0.000000000000000E+000
  0.000000000000000E+000
  0.000000000000000E+000
  0.000000000000000E+000
  0.000000000000000E+000
  0.000000000000000E+000
  0.000000000000000E+000
  0.000000000000000E+000
  0.000000000000000E+000
  0.000000000000000E+000
  0.000000000000000E+000
  0.000000000000000E+000
  0.000000000000000E+000
  0.000000000000000E+000
  0.000000000000000E+000
  0.000000000000000E+000
  0.000000000000000E+000
  0.000000000000000E+000
  0.000000000000000E+000
  0.000000000000000E+000
  0.000000000000000E+000
  0.000000000000000E+000
  0.000000000000000E+000
  0.000000000000000E+000
  0.000000000000000E+000
  0.000000000000000E+000
  0.000000000000000E+000
  0.000000000000000E+000
  0.000000000000000E+000
  0.000000000000000E+000
  0.000000000000000E+000
  0.000000000000000E+000
  0.000000000000000E+000
  0.000000000000000E+000
  0.000000000000000E+000
  0.000000000000000E+000
  0.000000000000000E+000
  0.000000000000000E+000
  0.000000000000000E+000
  0.000000000000000E+000
  0.000000000000000E+000
  0.000000000000000E+000
  0.000000000000000E+000
  0.000000000000000E+000
  0.000000000000000E+000
  0.000000000000000E+000
  0.000000000000000E+000
  0.000000000000000E+000
  0.000000000000000E+000
  0.000000000000000E+000
  0.000000000000000E+000
  0.000000000000000E+000
  0.000000000000000E+000
  0.000000000000000E+000
  0.000000000000000E+000
  0.000000000000000E+000
  0.000000000000000E+000
  0.000000000000000E+000
  0.000000000000000E+000
  0.000000000000000E+000
  0.000000000000000E+000
  0.000000000000000E+000
  0.000000000000000E+000
  0.000000000000000E+000
  0.000000000000000E+000
  0.000000000000000E+000
  0.000000000000000E+000
  0.000000000000000E+000
  0.000000000000000E+000
  0.000000000000000E+000
  0.000000000000000E+000
  0.000000000000000E+000
  0.000000000000000E+000
  0.000000000000000E+000
  0.000000000000000E+000
  0.000000000000000E+000
  0.000000000000000E+000
  0.000000000000000E+000
  0.000000000000000E+000
  0.000000000000000E+000
  0.000000000000000E+000
  0.000000000000000E+000
  0.000000000000000E+000
  0.000000000000000E+000
  0.000000000000000E+000
  0.000000000000000E+000
  0.000000000000000E+000
  0.000000000000000E+000
  0.000000000000000E+000
  0.000000000000000E+000
  0.000000000000000E+000
  0.000000000000000E+000
  0.000000000000000E+000
  0.000000000000000E+000
  0.000000000000000E+000
  0.000000000000000E+000
  0.000000000000000E+000
  0.000000000000000E+000
  0.000000000000000E+000
  0.000000000000000E+000
  0.000000000000000E+000
  0.000000000000000E+000
  0.000000000000000E+000
  0.000000000000000E+000
  0.000000000000000E+000
  0.000000000000000E+000
  0.000000000000000E+000
  0.000000000000000E+000
  0.000000000000000E+000
  0.000000000000000E+000
  0.000000000000000E+000
  0.000000000000000E+000
  0.000000000000000E+000
  0.000000000000000E+000
  0.000000000000000E+000
  0.000000000000000E+000
  0.000000000000000E+000
  0.000000000000000E+000
  0.000000000000000E+000
  0.000000000000000E+000
  0.000000000000000E+000
  0.000000000000000E+000
  0.000000000000000E+000
  0.000000000000000E+000
  0.000000000000000E+000
  0.000000000000000E+000
  0.000000000000000E+000
