# vtk DataFile Version 3.0
vtk output
ASCII
DATASET UNSTRUCTURED_GRID
POINTS      1225 double 
  0.00000000E+00  2.40000000E+01  0.00000000E+00
  0.00000000E+00  2.30000000E+01  0.00000000E+00
  0.00000000E+00  2.20000000E+01  0.00000000E+00
  0.00000000E+00  2.10000000E+01  0.00000000E+00
  0.00000000E+00  2.00000000E+01  0.00000000E+00
  0.00000000E+00  1.90000000E+01  0.00000000E+00
  0.00000000E+00  1.80000000E+01  0.00000000E+00
  0.00000000E+00  1.70000000E+01  0.00000000E+00
  0.00000000E+00  1.60000000E+01  0.00000000E+00
  0.00000000E+00  1.50000000E+01  0.00000000E+00
  0.00000000E+00  1.40000000E+01  0.00000000E+00
  0.00000000E+00  1.30000000E+01  0.00000000E+00
  0.00000000E+00  1.20000000E+01  0.00000000E+00
  0.00000000E+00  1.10000000E+01  0.00000000E+00
  0.00000000E+00  1.00000000E+01  0.00000000E+00
  0.00000000E+00  9.00000000E+00  0.00000000E+00
  0.00000000E+00  8.00000000E+00  0.00000000E+00
  0.00000000E+00  7.00000000E+00  0.00000000E+00
  0.00000000E+00  6.00000000E+00  0.00000000E+00
  0.00000000E+00  5.00000000E+00  0.00000000E+00
  0.00000000E+00  4.00000000E+00  0.00000000E+00
  0.00000000E+00  3.00000000E+00  0.00000000E+00
  0.00000000E+00  2.00000000E+00  0.00000000E+00
  0.00000000E+00  1.00000000E+00  0.00000000E+00
  0.00000000E+00 -2.66453526E-15  0.00000000E+00
  1.00000000E+00  2.40000000E+01  0.00000000E+00
  1.00000000E+00  2.30000000E+01  0.00000000E+00
  1.00000000E+00  2.20000000E+01  0.00000000E+00
  1.00000000E+00  2.10000000E+01  0.00000000E+00
  1.00000000E+00  2.00000000E+01  0.00000000E+00
  1.00000000E+00  1.90000000E+01  0.00000000E+00
  1.00000000E+00  1.80000000E+01  0.00000000E+00
  1.00000000E+00  1.70000000E+01  0.00000000E+00
  1.00000000E+00  1.60000000E+01  0.00000000E+00
  1.00000000E+00  1.50000000E+01  0.00000000E+00
  1.00000000E+00  1.40000000E+01  0.00000000E+00
  1.00000000E+00  1.30000000E+01  0.00000000E+00
  1.00000000E+00  1.20000000E+01  0.00000000E+00
  1.00000000E+00  1.10000000E+01  0.00000000E+00
  1.00000000E+00  1.00000000E+01  0.00000000E+00
  1.00000000E+00  9.00000000E+00  0.00000000E+00
  1.00000000E+00  8.00000000E+00  0.00000000E+00
  1.00000000E+00  7.00000000E+00  0.00000000E+00
  1.00000000E+00  6.00000000E+00  0.00000000E+00
  1.00000000E+00  5.00000000E+00  0.00000000E+00
  1.00000000E+00  4.00000000E+00  0.00000000E+00
  1.00000000E+00  3.00000000E+00  0.00000000E+00
  1.00000000E+00  2.00000000E+00  0.00000000E+00
  1.00000000E+00  1.00000000E+00  0.00000000E+00
  1.00000000E+00 -2.66453526E-15  0.00000000E+00
  2.00000000E+00  2.40000000E+01  0.00000000E+00
  2.00000000E+00  2.30000000E+01  0.00000000E+00
  2.00000000E+00  2.20000000E+01  0.00000000E+00
  2.00000000E+00  2.10000000E+01  0.00000000E+00
  2.00000000E+00  2.00000000E+01  0.00000000E+00
  2.00000000E+00  1.90000000E+01  0.00000000E+00
  2.00000000E+00  1.80000000E+01  0.00000000E+00
  2.00000000E+00  1.70000000E+01  0.00000000E+00
  2.00000000E+00  1.60000000E+01  0.00000000E+00
  2.00000000E+00  1.50000000E+01  0.00000000E+00
  2.00000000E+00  1.40000000E+01  0.00000000E+00
  2.00000000E+00  1.30000000E+01  0.00000000E+00
  2.00000000E+00  1.20000000E+01  0.00000000E+00
  2.00000000E+00  1.10000000E+01  0.00000000E+00
  2.00000000E+00  1.00000000E+01  0.00000000E+00
  2.00000000E+00  9.00000000E+00  0.00000000E+00
  2.00000000E+00  8.00000000E+00  0.00000000E+00
  2.00000000E+00  7.00000000E+00  0.00000000E+00
  2.00000000E+00  6.00000000E+00  0.00000000E+00
  2.00000000E+00  5.00000000E+00  0.00000000E+00
  2.00000000E+00  4.00000000E+00  0.00000000E+00
  2.00000000E+00  3.00000000E+00  0.00000000E+00
  2.00000000E+00  2.00000000E+00  0.00000000E+00
  2.00000000E+00  1.00000000E+00  0.00000000E+00
  2.00000000E+00 -2.66453526E-15  0.00000000E+00
  3.00000000E+00  2.40000000E+01  0.00000000E+00
  3.00000000E+00  2.30000000E+01  0.00000000E+00
  3.00000000E+00  2.20000000E+01  0.00000000E+00
  3.00000000E+00  2.10000000E+01  0.00000000E+00
  3.00000000E+00  2.00000000E+01  0.00000000E+00
  3.00000000E+00  1.90000000E+01  0.00000000E+00
  3.00000000E+00  1.80000000E+01  0.00000000E+00
  3.00000000E+00  1.70000000E+01  0.00000000E+00
  3.00000000E+00  1.60000000E+01  0.00000000E+00
  3.00000000E+00  1.50000000E+01  0.00000000E+00
  3.00000000E+00  1.40000000E+01  0.00000000E+00
  3.00000000E+00  1.30000000E+01  0.00000000E+00
  3.00000000E+00  1.20000000E+01  0.00000000E+00
  3.00000000E+00  1.10000000E+01  0.00000000E+00
  3.00000000E+00  1.00000000E+01  0.00000000E+00
  3.00000000E+00  9.00000000E+00  0.00000000E+00
  3.00000000E+00  8.00000000E+00  0.00000000E+00
  3.00000000E+00  7.00000000E+00  0.00000000E+00
  3.00000000E+00  6.00000000E+00  0.00000000E+00
  3.00000000E+00  5.00000000E+00  0.00000000E+00
  3.00000000E+00  4.00000000E+00  0.00000000E+00
  3.00000000E+00  3.00000000E+00  0.00000000E+00
  3.00000000E+00  2.00000000E+00  0.00000000E+00
  3.00000000E+00  1.00000000E+00  0.00000000E+00
  3.00000000E+00 -2.66453526E-15  0.00000000E+00
  4.00000000E+00  2.40000000E+01  0.00000000E+00
  4.00000000E+00  2.30000000E+01  0.00000000E+00
  4.00000000E+00  2.20000000E+01  0.00000000E+00
  4.00000000E+00  2.10000000E+01  0.00000000E+00
  4.00000000E+00  2.00000000E+01  0.00000000E+00
  4.00000000E+00  1.90000000E+01  0.00000000E+00
  4.00000000E+00  1.80000000E+01  0.00000000E+00
  4.00000000E+00  1.70000000E+01  0.00000000E+00
  4.00000000E+00  1.60000000E+01  0.00000000E+00
  4.00000000E+00  1.50000000E+01  0.00000000E+00
  4.00000000E+00  1.40000000E+01  0.00000000E+00
  4.00000000E+00  1.30000000E+01  0.00000000E+00
  4.00000000E+00  1.20000000E+01  0.00000000E+00
  4.00000000E+00  1.10000000E+01  0.00000000E+00
  4.00000000E+00  1.00000000E+01  0.00000000E+00
  4.00000000E+00  9.00000000E+00  0.00000000E+00
  4.00000000E+00  8.00000000E+00  0.00000000E+00
  4.00000000E+00  7.00000000E+00  0.00000000E+00
  4.00000000E+00  6.00000000E+00  0.00000000E+00
  4.00000000E+00  5.00000000E+00  0.00000000E+00
  4.00000000E+00  4.00000000E+00  0.00000000E+00
  4.00000000E+00  3.00000000E+00  0.00000000E+00
  4.00000000E+00  2.00000000E+00  0.00000000E+00
  4.00000000E+00  1.00000000E+00  0.00000000E+00
  4.00000000E+00 -2.66453526E-15  0.00000000E+00
  5.00000000E+00  2.40000000E+01  0.00000000E+00
  5.00000000E+00  2.30000000E+01  0.00000000E+00
  5.00000000E+00  2.20000000E+01  0.00000000E+00
  5.00000000E+00  2.10000000E+01  0.00000000E+00
  5.00000000E+00  2.00000000E+01  0.00000000E+00
  5.00000000E+00  1.90000000E+01  0.00000000E+00
  5.00000000E+00  1.80000000E+01  0.00000000E+00
  5.00000000E+00  1.70000000E+01  0.00000000E+00
  5.00000000E+00  1.60000000E+01  0.00000000E+00
  5.00000000E+00  1.50000000E+01  0.00000000E+00
  5.00000000E+00  1.40000000E+01  0.00000000E+00
  5.00000000E+00  1.30000000E+01  0.00000000E+00
  5.00000000E+00  1.20000000E+01  0.00000000E+00
  5.00000000E+00  1.10000000E+01  0.00000000E+00
  5.00000000E+00  1.00000000E+01  0.00000000E+00
  5.00000000E+00  9.00000000E+00  0.00000000E+00
  5.00000000E+00  8.00000000E+00  0.00000000E+00
  5.00000000E+00  7.00000000E+00  0.00000000E+00
  5.00000000E+00  6.00000000E+00  0.00000000E+00
  5.00000000E+00  5.00000000E+00  0.00000000E+00
  5.00000000E+00  4.00000000E+00  0.00000000E+00
  5.00000000E+00  3.00000000E+00  0.00000000E+00
  5.00000000E+00  2.00000000E+00  0.00000000E+00
  5.00000000E+00  1.00000000E+00  0.00000000E+00
  5.00000000E+00 -2.66453526E-15  0.00000000E+00
  6.00000000E+00  2.40000000E+01  0.00000000E+00
  6.00000000E+00  2.30000000E+01  0.00000000E+00
  6.00000000E+00  2.20000000E+01  0.00000000E+00
  6.00000000E+00  2.10000000E+01  0.00000000E+00
  6.00000000E+00  2.00000000E+01  0.00000000E+00
  6.00000000E+00  1.90000000E+01  0.00000000E+00
  6.00000000E+00  1.80000000E+01  0.00000000E+00
  6.00000000E+00  1.70000000E+01  0.00000000E+00
  6.00000000E+00  1.60000000E+01  0.00000000E+00
  6.00000000E+00  1.50000000E+01  0.00000000E+00
  6.00000000E+00  1.40000000E+01  0.00000000E+00
  6.00000000E+00  1.30000000E+01  0.00000000E+00
  6.00000000E+00  1.20000000E+01  0.00000000E+00
  6.00000000E+00  1.10000000E+01  0.00000000E+00
  6.00000000E+00  1.00000000E+01  0.00000000E+00
  6.00000000E+00  9.00000000E+00  0.00000000E+00
  6.00000000E+00  8.00000000E+00  0.00000000E+00
  6.00000000E+00  7.00000000E+00  0.00000000E+00
  6.00000000E+00  6.00000000E+00  0.00000000E+00
  6.00000000E+00  5.00000000E+00  0.00000000E+00
  6.00000000E+00  4.00000000E+00  0.00000000E+00
  6.00000000E+00  3.00000000E+00  0.00000000E+00
  6.00000000E+00  2.00000000E+00  0.00000000E+00
  6.00000000E+00  1.00000000E+00  0.00000000E+00
  6.00000000E+00 -2.66453526E-15  0.00000000E+00
  7.00000000E+00  2.40000000E+01  0.00000000E+00
  7.00000000E+00  2.30000000E+01  0.00000000E+00
  7.00000000E+00  2.20000000E+01  0.00000000E+00
  7.00000000E+00  2.10000000E+01  0.00000000E+00
  7.00000000E+00  2.00000000E+01  0.00000000E+00
  7.00000000E+00  1.90000000E+01  0.00000000E+00
  7.00000000E+00  1.80000000E+01  0.00000000E+00
  7.00000000E+00  1.70000000E+01  0.00000000E+00
  7.00000000E+00  1.60000000E+01  0.00000000E+00
  7.00000000E+00  1.50000000E+01  0.00000000E+00
  7.00000000E+00  1.40000000E+01  0.00000000E+00
  7.00000000E+00  1.30000000E+01  0.00000000E+00
  7.00000000E+00  1.20000000E+01  0.00000000E+00
  7.00000000E+00  1.10000000E+01  0.00000000E+00
  7.00000000E+00  1.00000000E+01  0.00000000E+00
  7.00000000E+00  9.00000000E+00  0.00000000E+00
  7.00000000E+00  8.00000000E+00  0.00000000E+00
  7.00000000E+00  7.00000000E+00  0.00000000E+00
  7.00000000E+00  6.00000000E+00  0.00000000E+00
  7.00000000E+00  5.00000000E+00  0.00000000E+00
  7.00000000E+00  4.00000000E+00  0.00000000E+00
  7.00000000E+00  3.00000000E+00  0.00000000E+00
  7.00000000E+00  2.00000000E+00  0.00000000E+00
  7.00000000E+00  1.00000000E+00  0.00000000E+00
  7.00000000E+00 -2.66453526E-15  0.00000000E+00
  8.00000000E+00  2.40000000E+01  0.00000000E+00
  8.00000000E+00  2.30000000E+01  0.00000000E+00
  8.00000000E+00  2.20000000E+01  0.00000000E+00
  8.00000000E+00  2.10000000E+01  0.00000000E+00
  8.00000000E+00  2.00000000E+01  0.00000000E+00
  8.00000000E+00  1.90000000E+01  0.00000000E+00
  8.00000000E+00  1.80000000E+01  0.00000000E+00
  8.00000000E+00  1.70000000E+01  0.00000000E+00
  8.00000000E+00  1.60000000E+01  0.00000000E+00
  8.00000000E+00  1.50000000E+01  0.00000000E+00
  8.00000000E+00  1.40000000E+01  0.00000000E+00
  8.00000000E+00  1.30000000E+01  0.00000000E+00
  8.00000000E+00  1.20000000E+01  0.00000000E+00
  8.00000000E+00  1.10000000E+01  0.00000000E+00
  8.00000000E+00  1.00000000E+01  0.00000000E+00
  8.00000000E+00  9.00000000E+00  0.00000000E+00
  8.00000000E+00  8.00000000E+00  0.00000000E+00
  8.00000000E+00  7.00000000E+00  0.00000000E+00
  8.00000000E+00  6.00000000E+00  0.00000000E+00
  8.00000000E+00  5.00000000E+00  0.00000000E+00
  8.00000000E+00  4.00000000E+00  0.00000000E+00
  8.00000000E+00  3.00000000E+00  0.00000000E+00
  8.00000000E+00  2.00000000E+00  0.00000000E+00
  8.00000000E+00  1.00000000E+00  0.00000000E+00
  8.00000000E+00 -2.66453526E-15  0.00000000E+00
  9.00000000E+00  2.40000000E+01  0.00000000E+00
  9.00000000E+00  2.30000000E+01  0.00000000E+00
  9.00000000E+00  2.20000000E+01  0.00000000E+00
  9.00000000E+00  2.10000000E+01  0.00000000E+00
  9.00000000E+00  2.00000000E+01  0.00000000E+00
  9.00000000E+00  1.90000000E+01  0.00000000E+00
  9.00000000E+00  1.80000000E+01  0.00000000E+00
  9.00000000E+00  1.70000000E+01  0.00000000E+00
  9.00000000E+00  1.60000000E+01  0.00000000E+00
  9.00000000E+00  1.50000000E+01  0.00000000E+00
  9.00000000E+00  1.40000000E+01  0.00000000E+00
  9.00000000E+00  1.30000000E+01  0.00000000E+00
  9.00000000E+00  1.20000000E+01  0.00000000E+00
  9.00000000E+00  1.10000000E+01  0.00000000E+00
  9.00000000E+00  1.00000000E+01  0.00000000E+00
  9.00000000E+00  9.00000000E+00  0.00000000E+00
  9.00000000E+00  8.00000000E+00  0.00000000E+00
  9.00000000E+00  7.00000000E+00  0.00000000E+00
  9.00000000E+00  6.00000000E+00  0.00000000E+00
  9.00000000E+00  5.00000000E+00  0.00000000E+00
  9.00000000E+00  4.00000000E+00  0.00000000E+00
  9.00000000E+00  3.00000000E+00  0.00000000E+00
  9.00000000E+00  2.00000000E+00  0.00000000E+00
  9.00000000E+00  1.00000000E+00  0.00000000E+00
  9.00000000E+00 -2.66453526E-15  0.00000000E+00
  1.00000000E+01  2.40000000E+01  0.00000000E+00
  1.00000000E+01  2.30000000E+01  0.00000000E+00
  1.00000000E+01  2.20000000E+01  0.00000000E+00
  1.00000000E+01  2.10000000E+01  0.00000000E+00
  1.00000000E+01  2.00000000E+01  0.00000000E+00
  1.00000000E+01  1.90000000E+01  0.00000000E+00
  1.00000000E+01  1.80000000E+01  0.00000000E+00
  1.00000000E+01  1.70000000E+01  0.00000000E+00
  1.00000000E+01  1.60000000E+01  0.00000000E+00
  1.00000000E+01  1.50000000E+01  0.00000000E+00
  1.00000000E+01  1.40000000E+01  0.00000000E+00
  1.00000000E+01  1.30000000E+01  0.00000000E+00
  1.00000000E+01  1.20000000E+01  0.00000000E+00
  1.00000000E+01  1.10000000E+01  0.00000000E+00
  1.00000000E+01  1.00000000E+01  0.00000000E+00
  1.00000000E+01  9.00000000E+00  0.00000000E+00
  1.00000000E+01  8.00000000E+00  0.00000000E+00
  1.00000000E+01  7.00000000E+00  0.00000000E+00
  1.00000000E+01  6.00000000E+00  0.00000000E+00
  1.00000000E+01  5.00000000E+00  0.00000000E+00
  1.00000000E+01  4.00000000E+00  0.00000000E+00
  1.00000000E+01  3.00000000E+00  0.00000000E+00
  1.00000000E+01  2.00000000E+00  0.00000000E+00
  1.00000000E+01  1.00000000E+00  0.00000000E+00
  1.00000000E+01 -2.66453526E-15  0.00000000E+00
  1.10000000E+01  2.40000000E+01  0.00000000E+00
  1.10000000E+01  2.30000000E+01  0.00000000E+00
  1.10000000E+01  2.20000000E+01  0.00000000E+00
  1.10000000E+01  2.10000000E+01  0.00000000E+00
  1.10000000E+01  2.00000000E+01  0.00000000E+00
  1.10000000E+01  1.90000000E+01  0.00000000E+00
  1.10000000E+01  1.80000000E+01  0.00000000E+00
  1.10000000E+01  1.70000000E+01  0.00000000E+00
  1.10000000E+01  1.60000000E+01  0.00000000E+00
  1.10000000E+01  1.50000000E+01  0.00000000E+00
  1.10000000E+01  1.40000000E+01  0.00000000E+00
  1.10000000E+01  1.30000000E+01  0.00000000E+00
  1.10000000E+01  1.20000000E+01  0.00000000E+00
  1.10000000E+01  1.10000000E+01  0.00000000E+00
  1.10000000E+01  1.00000000E+01  0.00000000E+00
  1.10000000E+01  9.00000000E+00  0.00000000E+00
  1.10000000E+01  8.00000000E+00  0.00000000E+00
  1.10000000E+01  7.00000000E+00  0.00000000E+00
  1.10000000E+01  6.00000000E+00  0.00000000E+00
  1.10000000E+01  5.00000000E+00  0.00000000E+00
  1.10000000E+01  4.00000000E+00  0.00000000E+00
  1.10000000E+01  3.00000000E+00  0.00000000E+00
  1.10000000E+01  2.00000000E+00  0.00000000E+00
  1.10000000E+01  1.00000000E+00  0.00000000E+00
  1.10000000E+01 -2.66453526E-15  0.00000000E+00
  1.20000000E+01  2.40000000E+01  0.00000000E+00
  1.20000000E+01  2.30000000E+01  0.00000000E+00
  1.20000000E+01  2.20000000E+01  0.00000000E+00
  1.20000000E+01  2.10000000E+01  0.00000000E+00
  1.20000000E+01  2.00000000E+01  0.00000000E+00
  1.20000000E+01  1.90000000E+01  0.00000000E+00
  1.20000000E+01  1.80000000E+01  0.00000000E+00
  1.20000000E+01  1.70000000E+01  0.00000000E+00
  1.20000000E+01  1.60000000E+01  0.00000000E+00
  1.20000000E+01  1.50000000E+01  0.00000000E+00
  1.20000000E+01  1.40000000E+01  0.00000000E+00
  1.20000000E+01  1.30000000E+01  0.00000000E+00
  1.20000000E+01  1.20000000E+01  0.00000000E+00
  1.20000000E+01  1.10000000E+01  0.00000000E+00
  1.20000000E+01  1.00000000E+01  0.00000000E+00
  1.20000000E+01  9.00000000E+00  0.00000000E+00
  1.20000000E+01  8.00000000E+00  0.00000000E+00
  1.20000000E+01  7.00000000E+00  0.00000000E+00
  1.20000000E+01  6.00000000E+00  0.00000000E+00
  1.20000000E+01  5.00000000E+00  0.00000000E+00
  1.20000000E+01  4.00000000E+00  0.00000000E+00
  1.20000000E+01  3.00000000E+00  0.00000000E+00
  1.20000000E+01  2.00000000E+00  0.00000000E+00
  1.20000000E+01  1.00000000E+00  0.00000000E+00
  1.20000000E+01 -2.66453526E-15  0.00000000E+00
  1.30000000E+01  2.40000000E+01  0.00000000E+00
  1.30000000E+01  2.30000000E+01  0.00000000E+00
  1.30000000E+01  2.20000000E+01  0.00000000E+00
  1.30000000E+01  2.10000000E+01  0.00000000E+00
  1.30000000E+01  2.00000000E+01  0.00000000E+00
  1.30000000E+01  1.90000000E+01  0.00000000E+00
  1.30000000E+01  1.80000000E+01  0.00000000E+00
  1.30000000E+01  1.70000000E+01  0.00000000E+00
  1.30000000E+01  1.60000000E+01  0.00000000E+00
  1.30000000E+01  1.50000000E+01  0.00000000E+00
  1.30000000E+01  1.40000000E+01  0.00000000E+00
  1.30000000E+01  1.30000000E+01  0.00000000E+00
  1.30000000E+01  1.20000000E+01  0.00000000E+00
  1.30000000E+01  1.10000000E+01  0.00000000E+00
  1.30000000E+01  1.00000000E+01  0.00000000E+00
  1.30000000E+01  9.00000000E+00  0.00000000E+00
  1.30000000E+01  8.00000000E+00  0.00000000E+00
  1.30000000E+01  7.00000000E+00  0.00000000E+00
  1.30000000E+01  6.00000000E+00  0.00000000E+00
  1.30000000E+01  5.00000000E+00  0.00000000E+00
  1.30000000E+01  4.00000000E+00  0.00000000E+00
  1.30000000E+01  3.00000000E+00  0.00000000E+00
  1.30000000E+01  2.00000000E+00  0.00000000E+00
  1.30000000E+01  1.00000000E+00  0.00000000E+00
  1.30000000E+01 -2.66453526E-15  0.00000000E+00
  1.40000000E+01  2.40000000E+01  0.00000000E+00
  1.40000000E+01  2.30000000E+01  0.00000000E+00
  1.40000000E+01  2.20000000E+01  0.00000000E+00
  1.40000000E+01  2.10000000E+01  0.00000000E+00
  1.40000000E+01  2.00000000E+01  0.00000000E+00
  1.40000000E+01  1.90000000E+01  0.00000000E+00
  1.40000000E+01  1.80000000E+01  0.00000000E+00
  1.40000000E+01  1.70000000E+01  0.00000000E+00
  1.40000000E+01  1.60000000E+01  0.00000000E+00
  1.40000000E+01  1.50000000E+01  0.00000000E+00
  1.40000000E+01  1.40000000E+01  0.00000000E+00
  1.40000000E+01  1.30000000E+01  0.00000000E+00
  1.40000000E+01  1.20000000E+01  0.00000000E+00
  1.40000000E+01  1.10000000E+01  0.00000000E+00
  1.40000000E+01  1.00000000E+01  0.00000000E+00
  1.40000000E+01  9.00000000E+00  0.00000000E+00
  1.40000000E+01  8.00000000E+00  0.00000000E+00
  1.40000000E+01  7.00000000E+00  0.00000000E+00
  1.40000000E+01  6.00000000E+00  0.00000000E+00
  1.40000000E+01  5.00000000E+00  0.00000000E+00
  1.40000000E+01  4.00000000E+00  0.00000000E+00
  1.40000000E+01  3.00000000E+00  0.00000000E+00
  1.40000000E+01  2.00000000E+00  0.00000000E+00
  1.40000000E+01  1.00000000E+00  0.00000000E+00
  1.40000000E+01 -2.66453526E-15  0.00000000E+00
  1.50000000E+01  2.40000000E+01  0.00000000E+00
  1.50000000E+01  2.30000000E+01  0.00000000E+00
  1.50000000E+01  2.20000000E+01  0.00000000E+00
  1.50000000E+01  2.10000000E+01  0.00000000E+00
  1.50000000E+01  2.00000000E+01  0.00000000E+00
  1.50000000E+01  1.90000000E+01  0.00000000E+00
  1.50000000E+01  1.80000000E+01  0.00000000E+00
  1.50000000E+01  1.70000000E+01  0.00000000E+00
  1.50000000E+01  1.60000000E+01  0.00000000E+00
  1.50000000E+01  1.50000000E+01  0.00000000E+00
  1.50000000E+01  1.40000000E+01  0.00000000E+00
  1.50000000E+01  1.30000000E+01  0.00000000E+00
  1.50000000E+01  1.20000000E+01  0.00000000E+00
  1.50000000E+01  1.10000000E+01  0.00000000E+00
  1.50000000E+01  1.00000000E+01  0.00000000E+00
  1.50000000E+01  9.00000000E+00  0.00000000E+00
  1.50000000E+01  8.00000000E+00  0.00000000E+00
  1.50000000E+01  7.00000000E+00  0.00000000E+00
  1.50000000E+01  6.00000000E+00  0.00000000E+00
  1.50000000E+01  5.00000000E+00  0.00000000E+00
  1.50000000E+01  4.00000000E+00  0.00000000E+00
  1.50000000E+01  3.00000000E+00  0.00000000E+00
  1.50000000E+01  2.00000000E+00  0.00000000E+00
  1.50000000E+01  1.00000000E+00  0.00000000E+00
  1.50000000E+01 -2.66453526E-15  0.00000000E+00
  1.60000000E+01  2.40000000E+01  0.00000000E+00
  1.60000000E+01  2.30000000E+01  0.00000000E+00
  1.60000000E+01  2.20000000E+01  0.00000000E+00
  1.60000000E+01  2.10000000E+01  0.00000000E+00
  1.60000000E+01  2.00000000E+01  0.00000000E+00
  1.60000000E+01  1.90000000E+01  0.00000000E+00
  1.60000000E+01  1.80000000E+01  0.00000000E+00
  1.60000000E+01  1.70000000E+01  0.00000000E+00
  1.60000000E+01  1.60000000E+01  0.00000000E+00
  1.60000000E+01  1.50000000E+01  0.00000000E+00
  1.60000000E+01  1.40000000E+01  0.00000000E+00
  1.60000000E+01  1.30000000E+01  0.00000000E+00
  1.60000000E+01  1.20000000E+01  0.00000000E+00
  1.60000000E+01  1.10000000E+01  0.00000000E+00
  1.60000000E+01  1.00000000E+01  0.00000000E+00
  1.60000000E+01  9.00000000E+00  0.00000000E+00
  1.60000000E+01  8.00000000E+00  0.00000000E+00
  1.60000000E+01  7.00000000E+00  0.00000000E+00
  1.60000000E+01  6.00000000E+00  0.00000000E+00
  1.60000000E+01  5.00000000E+00  0.00000000E+00
  1.60000000E+01  4.00000000E+00  0.00000000E+00
  1.60000000E+01  3.00000000E+00  0.00000000E+00
  1.60000000E+01  2.00000000E+00  0.00000000E+00
  1.60000000E+01  1.00000000E+00  0.00000000E+00
  1.60000000E+01 -2.66453526E-15  0.00000000E+00
  1.70000000E+01  2.40000000E+01  0.00000000E+00
  1.70000000E+01  2.30000000E+01  0.00000000E+00
  1.70000000E+01  2.20000000E+01  0.00000000E+00
  1.70000000E+01  2.10000000E+01  0.00000000E+00
  1.70000000E+01  2.00000000E+01  0.00000000E+00
  1.70000000E+01  1.90000000E+01  0.00000000E+00
  1.70000000E+01  1.80000000E+01  0.00000000E+00
  1.70000000E+01  1.70000000E+01  0.00000000E+00
  1.70000000E+01  1.60000000E+01  0.00000000E+00
  1.70000000E+01  1.50000000E+01  0.00000000E+00
  1.70000000E+01  1.40000000E+01  0.00000000E+00
  1.70000000E+01  1.30000000E+01  0.00000000E+00
  1.70000000E+01  1.20000000E+01  0.00000000E+00
  1.70000000E+01  1.10000000E+01  0.00000000E+00
  1.70000000E+01  1.00000000E+01  0.00000000E+00
  1.70000000E+01  9.00000000E+00  0.00000000E+00
  1.70000000E+01  8.00000000E+00  0.00000000E+00
  1.70000000E+01  7.00000000E+00  0.00000000E+00
  1.70000000E+01  6.00000000E+00  0.00000000E+00
  1.70000000E+01  5.00000000E+00  0.00000000E+00
  1.70000000E+01  4.00000000E+00  0.00000000E+00
  1.70000000E+01  3.00000000E+00  0.00000000E+00
  1.70000000E+01  2.00000000E+00  0.00000000E+00
  1.70000000E+01  1.00000000E+00  0.00000000E+00
  1.70000000E+01 -2.66453526E-15  0.00000000E+00
  1.80000000E+01  2.40000000E+01  0.00000000E+00
  1.80000000E+01  2.30000000E+01  0.00000000E+00
  1.80000000E+01  2.20000000E+01  0.00000000E+00
  1.80000000E+01  2.10000000E+01  0.00000000E+00
  1.80000000E+01  2.00000000E+01  0.00000000E+00
  1.80000000E+01  1.90000000E+01  0.00000000E+00
  1.80000000E+01  1.80000000E+01  0.00000000E+00
  1.80000000E+01  1.70000000E+01  0.00000000E+00
  1.80000000E+01  1.60000000E+01  0.00000000E+00
  1.80000000E+01  1.50000000E+01  0.00000000E+00
  1.80000000E+01  1.40000000E+01  0.00000000E+00
  1.80000000E+01  1.30000000E+01  0.00000000E+00
  1.80000000E+01  1.20000000E+01  0.00000000E+00
  1.80000000E+01  1.10000000E+01  0.00000000E+00
  1.80000000E+01  1.00000000E+01  0.00000000E+00
  1.80000000E+01  9.00000000E+00  0.00000000E+00
  1.80000000E+01  8.00000000E+00  0.00000000E+00
  1.80000000E+01  7.00000000E+00  0.00000000E+00
  1.80000000E+01  6.00000000E+00  0.00000000E+00
  1.80000000E+01  5.00000000E+00  0.00000000E+00
  1.80000000E+01  4.00000000E+00  0.00000000E+00
  1.80000000E+01  3.00000000E+00  0.00000000E+00
  1.80000000E+01  2.00000000E+00  0.00000000E+00
  1.80000000E+01  1.00000000E+00  0.00000000E+00
  1.80000000E+01 -2.66453526E-15  0.00000000E+00
  1.90000000E+01  2.40000000E+01  0.00000000E+00
  1.90000000E+01  2.30000000E+01  0.00000000E+00
  1.90000000E+01  2.20000000E+01  0.00000000E+00
  1.90000000E+01  2.10000000E+01  0.00000000E+00
  1.90000000E+01  2.00000000E+01  0.00000000E+00
  1.90000000E+01  1.90000000E+01  0.00000000E+00
  1.90000000E+01  1.80000000E+01  0.00000000E+00
  1.90000000E+01  1.70000000E+01  0.00000000E+00
  1.90000000E+01  1.60000000E+01  0.00000000E+00
  1.90000000E+01  1.50000000E+01  0.00000000E+00
  1.90000000E+01  1.40000000E+01  0.00000000E+00
  1.90000000E+01  1.30000000E+01  0.00000000E+00
  1.90000000E+01  1.20000000E+01  0.00000000E+00
  1.90000000E+01  1.10000000E+01  0.00000000E+00
  1.90000000E+01  1.00000000E+01  0.00000000E+00
  1.90000000E+01  9.00000000E+00  0.00000000E+00
  1.90000000E+01  8.00000000E+00  0.00000000E+00
  1.90000000E+01  7.00000000E+00  0.00000000E+00
  1.90000000E+01  6.00000000E+00  0.00000000E+00
  1.90000000E+01  5.00000000E+00  0.00000000E+00
  1.90000000E+01  4.00000000E+00  0.00000000E+00
  1.90000000E+01  3.00000000E+00  0.00000000E+00
  1.90000000E+01  2.00000000E+00  0.00000000E+00
  1.90000000E+01  1.00000000E+00  0.00000000E+00
  1.90000000E+01 -2.66453526E-15  0.00000000E+00
  2.00000000E+01  2.40000000E+01  0.00000000E+00
  2.00000000E+01  2.30000000E+01  0.00000000E+00
  2.00000000E+01  2.20000000E+01  0.00000000E+00
  2.00000000E+01  2.10000000E+01  0.00000000E+00
  2.00000000E+01  2.00000000E+01  0.00000000E+00
  2.00000000E+01  1.90000000E+01  0.00000000E+00
  2.00000000E+01  1.80000000E+01  0.00000000E+00
  2.00000000E+01  1.70000000E+01  0.00000000E+00
  2.00000000E+01  1.60000000E+01  0.00000000E+00
  2.00000000E+01  1.50000000E+01  0.00000000E+00
  2.00000000E+01  1.40000000E+01  0.00000000E+00
  2.00000000E+01  1.30000000E+01  0.00000000E+00
  2.00000000E+01  1.20000000E+01  0.00000000E+00
  2.00000000E+01  1.10000000E+01  0.00000000E+00
  2.00000000E+01  1.00000000E+01  0.00000000E+00
  2.00000000E+01  9.00000000E+00  0.00000000E+00
  2.00000000E+01  8.00000000E+00  0.00000000E+00
  2.00000000E+01  7.00000000E+00  0.00000000E+00
  2.00000000E+01  6.00000000E+00  0.00000000E+00
  2.00000000E+01  5.00000000E+00  0.00000000E+00
  2.00000000E+01  4.00000000E+00  0.00000000E+00
  2.00000000E+01  3.00000000E+00  0.00000000E+00
  2.00000000E+01  2.00000000E+00  0.00000000E+00
  2.00000000E+01  1.00000000E+00  0.00000000E+00
  2.00000000E+01 -2.66453526E-15  0.00000000E+00
  2.10000000E+01  2.40000000E+01  0.00000000E+00
  2.10000000E+01  2.30000000E+01  0.00000000E+00
  2.10000000E+01  2.20000000E+01  0.00000000E+00
  2.10000000E+01  2.10000000E+01  0.00000000E+00
  2.10000000E+01  2.00000000E+01  0.00000000E+00
  2.10000000E+01  1.90000000E+01  0.00000000E+00
  2.10000000E+01  1.80000000E+01  0.00000000E+00
  2.10000000E+01  1.70000000E+01  0.00000000E+00
  2.10000000E+01  1.60000000E+01  0.00000000E+00
  2.10000000E+01  1.50000000E+01  0.00000000E+00
  2.10000000E+01  1.40000000E+01  0.00000000E+00
  2.10000000E+01  1.30000000E+01  0.00000000E+00
  2.10000000E+01  1.20000000E+01  0.00000000E+00
  2.10000000E+01  1.10000000E+01  0.00000000E+00
  2.10000000E+01  1.00000000E+01  0.00000000E+00
  2.10000000E+01  9.00000000E+00  0.00000000E+00
  2.10000000E+01  8.00000000E+00  0.00000000E+00
  2.10000000E+01  7.00000000E+00  0.00000000E+00
  2.10000000E+01  6.00000000E+00  0.00000000E+00
  2.10000000E+01  5.00000000E+00  0.00000000E+00
  2.10000000E+01  4.00000000E+00  0.00000000E+00
  2.10000000E+01  3.00000000E+00  0.00000000E+00
  2.10000000E+01  2.00000000E+00  0.00000000E+00
  2.10000000E+01  1.00000000E+00  0.00000000E+00
  2.10000000E+01 -2.66453526E-15  0.00000000E+00
  2.20000000E+01  2.40000000E+01  0.00000000E+00
  2.20000000E+01  2.30000000E+01  0.00000000E+00
  2.20000000E+01  2.20000000E+01  0.00000000E+00
  2.20000000E+01  2.10000000E+01  0.00000000E+00
  2.20000000E+01  2.00000000E+01  0.00000000E+00
  2.20000000E+01  1.90000000E+01  0.00000000E+00
  2.20000000E+01  1.80000000E+01  0.00000000E+00
  2.20000000E+01  1.70000000E+01  0.00000000E+00
  2.20000000E+01  1.60000000E+01  0.00000000E+00
  2.20000000E+01  1.50000000E+01  0.00000000E+00
  2.20000000E+01  1.40000000E+01  0.00000000E+00
  2.20000000E+01  1.30000000E+01  0.00000000E+00
  2.20000000E+01  1.20000000E+01  0.00000000E+00
  2.20000000E+01  1.10000000E+01  0.00000000E+00
  2.20000000E+01  1.00000000E+01  0.00000000E+00
  2.20000000E+01  9.00000000E+00  0.00000000E+00
  2.20000000E+01  8.00000000E+00  0.00000000E+00
  2.20000000E+01  7.00000000E+00  0.00000000E+00
  2.20000000E+01  6.00000000E+00  0.00000000E+00
  2.20000000E+01  5.00000000E+00  0.00000000E+00
  2.20000000E+01  4.00000000E+00  0.00000000E+00
  2.20000000E+01  3.00000000E+00  0.00000000E+00
  2.20000000E+01  2.00000000E+00  0.00000000E+00
  2.20000000E+01  1.00000000E+00  0.00000000E+00
  2.20000000E+01 -2.66453526E-15  0.00000000E+00
  2.30000000E+01  2.40000000E+01  0.00000000E+00
  2.30000000E+01  2.30000000E+01  0.00000000E+00
  2.30000000E+01  2.20000000E+01  0.00000000E+00
  2.30000000E+01  2.10000000E+01  0.00000000E+00
  2.30000000E+01  2.00000000E+01  0.00000000E+00
  2.30000000E+01  1.90000000E+01  0.00000000E+00
  2.30000000E+01  1.80000000E+01  0.00000000E+00
  2.30000000E+01  1.70000000E+01  0.00000000E+00
  2.30000000E+01  1.60000000E+01  0.00000000E+00
  2.30000000E+01  1.50000000E+01  0.00000000E+00
  2.30000000E+01  1.40000000E+01  0.00000000E+00
  2.30000000E+01  1.30000000E+01  0.00000000E+00
  2.30000000E+01  1.20000000E+01  0.00000000E+00
  2.30000000E+01  1.10000000E+01  0.00000000E+00
  2.30000000E+01  1.00000000E+01  0.00000000E+00
  2.30000000E+01  9.00000000E+00  0.00000000E+00
  2.30000000E+01  8.00000000E+00  0.00000000E+00
  2.30000000E+01  7.00000000E+00  0.00000000E+00
  2.30000000E+01  6.00000000E+00  0.00000000E+00
  2.30000000E+01  5.00000000E+00  0.00000000E+00
  2.30000000E+01  4.00000000E+00  0.00000000E+00
  2.30000000E+01  3.00000000E+00  0.00000000E+00
  2.30000000E+01  2.00000000E+00  0.00000000E+00
  2.30000000E+01  1.00000000E+00  0.00000000E+00
  2.30000000E+01 -2.66453526E-15  0.00000000E+00
  2.40000000E+01  2.40000000E+01  0.00000000E+00
  2.40000000E+01  2.30000000E+01  0.00000000E+00
  2.40000000E+01  2.20000000E+01  0.00000000E+00
  2.40000000E+01  2.10000000E+01  0.00000000E+00
  2.40000000E+01  2.00000000E+01  0.00000000E+00
  2.40000000E+01  1.90000000E+01  0.00000000E+00
  2.40000000E+01  1.80000000E+01  0.00000000E+00
  2.40000000E+01  1.70000000E+01  0.00000000E+00
  2.40000000E+01  1.60000000E+01  0.00000000E+00
  2.40000000E+01  1.50000000E+01  0.00000000E+00
  2.40000000E+01  1.40000000E+01  0.00000000E+00
  2.40000000E+01  1.30000000E+01  0.00000000E+00
  2.40000000E+01  1.20000000E+01  0.00000000E+00
  2.40000000E+01  1.10000000E+01  0.00000000E+00
  2.40000000E+01  1.00000000E+01  0.00000000E+00
  2.40000000E+01  9.00000000E+00  0.00000000E+00
  2.40000000E+01  8.00000000E+00  0.00000000E+00
  2.40000000E+01  7.00000000E+00  0.00000000E+00
  2.40000000E+01  6.00000000E+00  0.00000000E+00
  2.40000000E+01  5.00000000E+00  0.00000000E+00
  2.40000000E+01  4.00000000E+00  0.00000000E+00
  2.40000000E+01  3.00000000E+00  0.00000000E+00
  2.40000000E+01  2.00000000E+00  0.00000000E+00
  2.40000000E+01  1.00000000E+00  0.00000000E+00
  2.40000000E+01 -2.66453526E-15  0.00000000E+00
  2.50000000E+01  2.40000000E+01  0.00000000E+00
  2.50000000E+01  2.30000000E+01  0.00000000E+00
  2.50000000E+01  2.20000000E+01  0.00000000E+00
  2.50000000E+01  2.10000000E+01  0.00000000E+00
  2.50000000E+01  2.00000000E+01  0.00000000E+00
  2.50000000E+01  1.90000000E+01  0.00000000E+00
  2.50000000E+01  1.80000000E+01  0.00000000E+00
  2.50000000E+01  1.70000000E+01  0.00000000E+00
  2.50000000E+01  1.60000000E+01  0.00000000E+00
  2.50000000E+01  1.50000000E+01  0.00000000E+00
  2.50000000E+01  1.40000000E+01  0.00000000E+00
  2.50000000E+01  1.30000000E+01  0.00000000E+00
  2.50000000E+01  1.20000000E+01  0.00000000E+00
  2.50000000E+01  1.10000000E+01  0.00000000E+00
  2.50000000E+01  1.00000000E+01  0.00000000E+00
  2.50000000E+01  9.00000000E+00  0.00000000E+00
  2.50000000E+01  8.00000000E+00  0.00000000E+00
  2.50000000E+01  7.00000000E+00  0.00000000E+00
  2.50000000E+01  6.00000000E+00  0.00000000E+00
  2.50000000E+01  5.00000000E+00  0.00000000E+00
  2.50000000E+01  4.00000000E+00  0.00000000E+00
  2.50000000E+01  3.00000000E+00  0.00000000E+00
  2.50000000E+01  2.00000000E+00  0.00000000E+00
  2.50000000E+01  1.00000000E+00  0.00000000E+00
  2.50000000E+01 -2.66453526E-15  0.00000000E+00
  2.60000000E+01  2.40000000E+01  0.00000000E+00
  2.60000000E+01  2.30000000E+01  0.00000000E+00
  2.60000000E+01  2.20000000E+01  0.00000000E+00
  2.60000000E+01  2.10000000E+01  0.00000000E+00
  2.60000000E+01  2.00000000E+01  0.00000000E+00
  2.60000000E+01  1.90000000E+01  0.00000000E+00
  2.60000000E+01  1.80000000E+01  0.00000000E+00
  2.60000000E+01  1.70000000E+01  0.00000000E+00
  2.60000000E+01  1.60000000E+01  0.00000000E+00
  2.60000000E+01  1.50000000E+01  0.00000000E+00
  2.60000000E+01  1.40000000E+01  0.00000000E+00
  2.60000000E+01  1.30000000E+01  0.00000000E+00
  2.60000000E+01  1.20000000E+01  0.00000000E+00
  2.60000000E+01  1.10000000E+01  0.00000000E+00
  2.60000000E+01  1.00000000E+01  0.00000000E+00
  2.60000000E+01  9.00000000E+00  0.00000000E+00
  2.60000000E+01  8.00000000E+00  0.00000000E+00
  2.60000000E+01  7.00000000E+00  0.00000000E+00
  2.60000000E+01  6.00000000E+00  0.00000000E+00
  2.60000000E+01  5.00000000E+00  0.00000000E+00
  2.60000000E+01  4.00000000E+00  0.00000000E+00
  2.60000000E+01  3.00000000E+00  0.00000000E+00
  2.60000000E+01  2.00000000E+00  0.00000000E+00
  2.60000000E+01  1.00000000E+00  0.00000000E+00
  2.60000000E+01 -2.66453526E-15  0.00000000E+00
  2.70000000E+01  2.40000000E+01  0.00000000E+00
  2.70000000E+01  2.30000000E+01  0.00000000E+00
  2.70000000E+01  2.20000000E+01  0.00000000E+00
  2.70000000E+01  2.10000000E+01  0.00000000E+00
  2.70000000E+01  2.00000000E+01  0.00000000E+00
  2.70000000E+01  1.90000000E+01  0.00000000E+00
  2.70000000E+01  1.80000000E+01  0.00000000E+00
  2.70000000E+01  1.70000000E+01  0.00000000E+00
  2.70000000E+01  1.60000000E+01  0.00000000E+00
  2.70000000E+01  1.50000000E+01  0.00000000E+00
  2.70000000E+01  1.40000000E+01  0.00000000E+00
  2.70000000E+01  1.30000000E+01  0.00000000E+00
  2.70000000E+01  1.20000000E+01  0.00000000E+00
  2.70000000E+01  1.10000000E+01  0.00000000E+00
  2.70000000E+01  1.00000000E+01  0.00000000E+00
  2.70000000E+01  9.00000000E+00  0.00000000E+00
  2.70000000E+01  8.00000000E+00  0.00000000E+00
  2.70000000E+01  7.00000000E+00  0.00000000E+00
  2.70000000E+01  6.00000000E+00  0.00000000E+00
  2.70000000E+01  5.00000000E+00  0.00000000E+00
  2.70000000E+01  4.00000000E+00  0.00000000E+00
  2.70000000E+01  3.00000000E+00  0.00000000E+00
  2.70000000E+01  2.00000000E+00  0.00000000E+00
  2.70000000E+01  1.00000000E+00  0.00000000E+00
  2.70000000E+01 -2.66453526E-15  0.00000000E+00
  2.80000000E+01  2.40000000E+01  0.00000000E+00
  2.80000000E+01  2.30000000E+01  0.00000000E+00
  2.80000000E+01  2.20000000E+01  0.00000000E+00
  2.80000000E+01  2.10000000E+01  0.00000000E+00
  2.80000000E+01  2.00000000E+01  0.00000000E+00
  2.80000000E+01  1.90000000E+01  0.00000000E+00
  2.80000000E+01  1.80000000E+01  0.00000000E+00
  2.80000000E+01  1.70000000E+01  0.00000000E+00
  2.80000000E+01  1.60000000E+01  0.00000000E+00
  2.80000000E+01  1.50000000E+01  0.00000000E+00
  2.80000000E+01  1.40000000E+01  0.00000000E+00
  2.80000000E+01  1.30000000E+01  0.00000000E+00
  2.80000000E+01  1.20000000E+01  0.00000000E+00
  2.80000000E+01  1.10000000E+01  0.00000000E+00
  2.80000000E+01  1.00000000E+01  0.00000000E+00
  2.80000000E+01  9.00000000E+00  0.00000000E+00
  2.80000000E+01  8.00000000E+00  0.00000000E+00
  2.80000000E+01  7.00000000E+00  0.00000000E+00
  2.80000000E+01  6.00000000E+00  0.00000000E+00
  2.80000000E+01  5.00000000E+00  0.00000000E+00
  2.80000000E+01  4.00000000E+00  0.00000000E+00
  2.80000000E+01  3.00000000E+00  0.00000000E+00
  2.80000000E+01  2.00000000E+00  0.00000000E+00
  2.80000000E+01  1.00000000E+00  0.00000000E+00
  2.80000000E+01 -2.66453526E-15  0.00000000E+00
  2.90000000E+01  2.40000000E+01  0.00000000E+00
  2.90000000E+01  2.30000000E+01  0.00000000E+00
  2.90000000E+01  2.20000000E+01  0.00000000E+00
  2.90000000E+01  2.10000000E+01  0.00000000E+00
  2.90000000E+01  2.00000000E+01  0.00000000E+00
  2.90000000E+01  1.90000000E+01  0.00000000E+00
  2.90000000E+01  1.80000000E+01  0.00000000E+00
  2.90000000E+01  1.70000000E+01  0.00000000E+00
  2.90000000E+01  1.60000000E+01  0.00000000E+00
  2.90000000E+01  1.50000000E+01  0.00000000E+00
  2.90000000E+01  1.40000000E+01  0.00000000E+00
  2.90000000E+01  1.30000000E+01  0.00000000E+00
  2.90000000E+01  1.20000000E+01  0.00000000E+00
  2.90000000E+01  1.10000000E+01  0.00000000E+00
  2.90000000E+01  1.00000000E+01  0.00000000E+00
  2.90000000E+01  9.00000000E+00  0.00000000E+00
  2.90000000E+01  8.00000000E+00  0.00000000E+00
  2.90000000E+01  7.00000000E+00  0.00000000E+00
  2.90000000E+01  6.00000000E+00  0.00000000E+00
  2.90000000E+01  5.00000000E+00  0.00000000E+00
  2.90000000E+01  4.00000000E+00  0.00000000E+00
  2.90000000E+01  3.00000000E+00  0.00000000E+00
  2.90000000E+01  2.00000000E+00  0.00000000E+00
  2.90000000E+01  1.00000000E+00  0.00000000E+00
  2.90000000E+01 -2.66453526E-15  0.00000000E+00
  3.00000000E+01  2.40000000E+01  0.00000000E+00
  3.00000000E+01  2.30000000E+01  0.00000000E+00
  3.00000000E+01  2.20000000E+01  0.00000000E+00
  3.00000000E+01  2.10000000E+01  0.00000000E+00
  3.00000000E+01  2.00000000E+01  0.00000000E+00
  3.00000000E+01  1.90000000E+01  0.00000000E+00
  3.00000000E+01  1.80000000E+01  0.00000000E+00
  3.00000000E+01  1.70000000E+01  0.00000000E+00
  3.00000000E+01  1.60000000E+01  0.00000000E+00
  3.00000000E+01  1.50000000E+01  0.00000000E+00
  3.00000000E+01  1.40000000E+01  0.00000000E+00
  3.00000000E+01  1.30000000E+01  0.00000000E+00
  3.00000000E+01  1.20000000E+01  0.00000000E+00
  3.00000000E+01  1.10000000E+01  0.00000000E+00
  3.00000000E+01  1.00000000E+01  0.00000000E+00
  3.00000000E+01  9.00000000E+00  0.00000000E+00
  3.00000000E+01  8.00000000E+00  0.00000000E+00
  3.00000000E+01  7.00000000E+00  0.00000000E+00
  3.00000000E+01  6.00000000E+00  0.00000000E+00
  3.00000000E+01  5.00000000E+00  0.00000000E+00
  3.00000000E+01  4.00000000E+00  0.00000000E+00
  3.00000000E+01  3.00000000E+00  0.00000000E+00
  3.00000000E+01  2.00000000E+00  0.00000000E+00
  3.00000000E+01  1.00000000E+00  0.00000000E+00
  3.00000000E+01 -2.66453526E-15  0.00000000E+00
  3.10000000E+01  2.40000000E+01  0.00000000E+00
  3.10000000E+01  2.30000000E+01  0.00000000E+00
  3.10000000E+01  2.20000000E+01  0.00000000E+00
  3.10000000E+01  2.10000000E+01  0.00000000E+00
  3.10000000E+01  2.00000000E+01  0.00000000E+00
  3.10000000E+01  1.90000000E+01  0.00000000E+00
  3.10000000E+01  1.80000000E+01  0.00000000E+00
  3.10000000E+01  1.70000000E+01  0.00000000E+00
  3.10000000E+01  1.60000000E+01  0.00000000E+00
  3.10000000E+01  1.50000000E+01  0.00000000E+00
  3.10000000E+01  1.40000000E+01  0.00000000E+00
  3.10000000E+01  1.30000000E+01  0.00000000E+00
  3.10000000E+01  1.20000000E+01  0.00000000E+00
  3.10000000E+01  1.10000000E+01  0.00000000E+00
  3.10000000E+01  1.00000000E+01  0.00000000E+00
  3.10000000E+01  9.00000000E+00  0.00000000E+00
  3.10000000E+01  8.00000000E+00  0.00000000E+00
  3.10000000E+01  7.00000000E+00  0.00000000E+00
  3.10000000E+01  6.00000000E+00  0.00000000E+00
  3.10000000E+01  5.00000000E+00  0.00000000E+00
  3.10000000E+01  4.00000000E+00  0.00000000E+00
  3.10000000E+01  3.00000000E+00  0.00000000E+00
  3.10000000E+01  2.00000000E+00  0.00000000E+00
  3.10000000E+01  1.00000000E+00  0.00000000E+00
  3.10000000E+01 -2.66453526E-15  0.00000000E+00
  3.20000000E+01  2.40000000E+01  0.00000000E+00
  3.20000000E+01  2.30000000E+01  0.00000000E+00
  3.20000000E+01  2.20000000E+01  0.00000000E+00
  3.20000000E+01  2.10000000E+01  0.00000000E+00
  3.20000000E+01  2.00000000E+01  0.00000000E+00
  3.20000000E+01  1.90000000E+01  0.00000000E+00
  3.20000000E+01  1.80000000E+01  0.00000000E+00
  3.20000000E+01  1.70000000E+01  0.00000000E+00
  3.20000000E+01  1.60000000E+01  0.00000000E+00
  3.20000000E+01  1.50000000E+01  0.00000000E+00
  3.20000000E+01  1.40000000E+01  0.00000000E+00
  3.20000000E+01  1.30000000E+01  0.00000000E+00
  3.20000000E+01  1.20000000E+01  0.00000000E+00
  3.20000000E+01  1.10000000E+01  0.00000000E+00
  3.20000000E+01  1.00000000E+01  0.00000000E+00
  3.20000000E+01  9.00000000E+00  0.00000000E+00
  3.20000000E+01  8.00000000E+00  0.00000000E+00
  3.20000000E+01  7.00000000E+00  0.00000000E+00
  3.20000000E+01  6.00000000E+00  0.00000000E+00
  3.20000000E+01  5.00000000E+00  0.00000000E+00
  3.20000000E+01  4.00000000E+00  0.00000000E+00
  3.20000000E+01  3.00000000E+00  0.00000000E+00
  3.20000000E+01  2.00000000E+00  0.00000000E+00
  3.20000000E+01  1.00000000E+00  0.00000000E+00
  3.20000000E+01 -2.66453526E-15  0.00000000E+00
  3.30000000E+01  2.40000000E+01  0.00000000E+00
  3.30000000E+01  2.30000000E+01  0.00000000E+00
  3.30000000E+01  2.20000000E+01  0.00000000E+00
  3.30000000E+01  2.10000000E+01  0.00000000E+00
  3.30000000E+01  2.00000000E+01  0.00000000E+00
  3.30000000E+01  1.90000000E+01  0.00000000E+00
  3.30000000E+01  1.80000000E+01  0.00000000E+00
  3.30000000E+01  1.70000000E+01  0.00000000E+00
  3.30000000E+01  1.60000000E+01  0.00000000E+00
  3.30000000E+01  1.50000000E+01  0.00000000E+00
  3.30000000E+01  1.40000000E+01  0.00000000E+00
  3.30000000E+01  1.30000000E+01  0.00000000E+00
  3.30000000E+01  1.20000000E+01  0.00000000E+00
  3.30000000E+01  1.10000000E+01  0.00000000E+00
  3.30000000E+01  1.00000000E+01  0.00000000E+00
  3.30000000E+01  9.00000000E+00  0.00000000E+00
  3.30000000E+01  8.00000000E+00  0.00000000E+00
  3.30000000E+01  7.00000000E+00  0.00000000E+00
  3.30000000E+01  6.00000000E+00  0.00000000E+00
  3.30000000E+01  5.00000000E+00  0.00000000E+00
  3.30000000E+01  4.00000000E+00  0.00000000E+00
  3.30000000E+01  3.00000000E+00  0.00000000E+00
  3.30000000E+01  2.00000000E+00  0.00000000E+00
  3.30000000E+01  1.00000000E+00  0.00000000E+00
  3.30000000E+01 -2.66453526E-15  0.00000000E+00
  3.40000000E+01  2.40000000E+01  0.00000000E+00
  3.40000000E+01  2.30000000E+01  0.00000000E+00
  3.40000000E+01  2.20000000E+01  0.00000000E+00
  3.40000000E+01  2.10000000E+01  0.00000000E+00
  3.40000000E+01  2.00000000E+01  0.00000000E+00
  3.40000000E+01  1.90000000E+01  0.00000000E+00
  3.40000000E+01  1.80000000E+01  0.00000000E+00
  3.40000000E+01  1.70000000E+01  0.00000000E+00
  3.40000000E+01  1.60000000E+01  0.00000000E+00
  3.40000000E+01  1.50000000E+01  0.00000000E+00
  3.40000000E+01  1.40000000E+01  0.00000000E+00
  3.40000000E+01  1.30000000E+01  0.00000000E+00
  3.40000000E+01  1.20000000E+01  0.00000000E+00
  3.40000000E+01  1.10000000E+01  0.00000000E+00
  3.40000000E+01  1.00000000E+01  0.00000000E+00
  3.40000000E+01  9.00000000E+00  0.00000000E+00
  3.40000000E+01  8.00000000E+00  0.00000000E+00
  3.40000000E+01  7.00000000E+00  0.00000000E+00
  3.40000000E+01  6.00000000E+00  0.00000000E+00
  3.40000000E+01  5.00000000E+00  0.00000000E+00
  3.40000000E+01  4.00000000E+00  0.00000000E+00
  3.40000000E+01  3.00000000E+00  0.00000000E+00
  3.40000000E+01  2.00000000E+00  0.00000000E+00
  3.40000000E+01  1.00000000E+00  0.00000000E+00
  3.40000000E+01 -2.66453526E-15  0.00000000E+00
  3.50000000E+01  2.40000000E+01  0.00000000E+00
  3.50000000E+01  2.30000000E+01  0.00000000E+00
  3.50000000E+01  2.20000000E+01  0.00000000E+00
  3.50000000E+01  2.10000000E+01  0.00000000E+00
  3.50000000E+01  2.00000000E+01  0.00000000E+00
  3.50000000E+01  1.90000000E+01  0.00000000E+00
  3.50000000E+01  1.80000000E+01  0.00000000E+00
  3.50000000E+01  1.70000000E+01  0.00000000E+00
  3.50000000E+01  1.60000000E+01  0.00000000E+00
  3.50000000E+01  1.50000000E+01  0.00000000E+00
  3.50000000E+01  1.40000000E+01  0.00000000E+00
  3.50000000E+01  1.30000000E+01  0.00000000E+00
  3.50000000E+01  1.20000000E+01  0.00000000E+00
  3.50000000E+01  1.10000000E+01  0.00000000E+00
  3.50000000E+01  1.00000000E+01  0.00000000E+00
  3.50000000E+01  9.00000000E+00  0.00000000E+00
  3.50000000E+01  8.00000000E+00  0.00000000E+00
  3.50000000E+01  7.00000000E+00  0.00000000E+00
  3.50000000E+01  6.00000000E+00  0.00000000E+00
  3.50000000E+01  5.00000000E+00  0.00000000E+00
  3.50000000E+01  4.00000000E+00  0.00000000E+00
  3.50000000E+01  3.00000000E+00  0.00000000E+00
  3.50000000E+01  2.00000000E+00  0.00000000E+00
  3.50000000E+01  1.00000000E+00  0.00000000E+00
  3.50000000E+01 -2.66453526E-15  0.00000000E+00
  3.60000000E+01  2.40000000E+01  0.00000000E+00
  3.60000000E+01  2.30000000E+01  0.00000000E+00
  3.60000000E+01  2.20000000E+01  0.00000000E+00
  3.60000000E+01  2.10000000E+01  0.00000000E+00
  3.60000000E+01  2.00000000E+01  0.00000000E+00
  3.60000000E+01  1.90000000E+01  0.00000000E+00
  3.60000000E+01  1.80000000E+01  0.00000000E+00
  3.60000000E+01  1.70000000E+01  0.00000000E+00
  3.60000000E+01  1.60000000E+01  0.00000000E+00
  3.60000000E+01  1.50000000E+01  0.00000000E+00
  3.60000000E+01  1.40000000E+01  0.00000000E+00
  3.60000000E+01  1.30000000E+01  0.00000000E+00
  3.60000000E+01  1.20000000E+01  0.00000000E+00
  3.60000000E+01  1.10000000E+01  0.00000000E+00
  3.60000000E+01  1.00000000E+01  0.00000000E+00
  3.60000000E+01  9.00000000E+00  0.00000000E+00
  3.60000000E+01  8.00000000E+00  0.00000000E+00
  3.60000000E+01  7.00000000E+00  0.00000000E+00
  3.60000000E+01  6.00000000E+00  0.00000000E+00
  3.60000000E+01  5.00000000E+00  0.00000000E+00
  3.60000000E+01  4.00000000E+00  0.00000000E+00
  3.60000000E+01  3.00000000E+00  0.00000000E+00
  3.60000000E+01  2.00000000E+00  0.00000000E+00
  3.60000000E+01  1.00000000E+00  0.00000000E+00
  3.60000000E+01 -2.66453526E-15  0.00000000E+00
  3.70000000E+01  2.40000000E+01  0.00000000E+00
  3.70000000E+01  2.30000000E+01  0.00000000E+00
  3.70000000E+01  2.20000000E+01  0.00000000E+00
  3.70000000E+01  2.10000000E+01  0.00000000E+00
  3.70000000E+01  2.00000000E+01  0.00000000E+00
  3.70000000E+01  1.90000000E+01  0.00000000E+00
  3.70000000E+01  1.80000000E+01  0.00000000E+00
  3.70000000E+01  1.70000000E+01  0.00000000E+00
  3.70000000E+01  1.60000000E+01  0.00000000E+00
  3.70000000E+01  1.50000000E+01  0.00000000E+00
  3.70000000E+01  1.40000000E+01  0.00000000E+00
  3.70000000E+01  1.30000000E+01  0.00000000E+00
  3.70000000E+01  1.20000000E+01  0.00000000E+00
  3.70000000E+01  1.10000000E+01  0.00000000E+00
  3.70000000E+01  1.00000000E+01  0.00000000E+00
  3.70000000E+01  9.00000000E+00  0.00000000E+00
  3.70000000E+01  8.00000000E+00  0.00000000E+00
  3.70000000E+01  7.00000000E+00  0.00000000E+00
  3.70000000E+01  6.00000000E+00  0.00000000E+00
  3.70000000E+01  5.00000000E+00  0.00000000E+00
  3.70000000E+01  4.00000000E+00  0.00000000E+00
  3.70000000E+01  3.00000000E+00  0.00000000E+00
  3.70000000E+01  2.00000000E+00  0.00000000E+00
  3.70000000E+01  1.00000000E+00  0.00000000E+00
  3.70000000E+01 -2.66453526E-15  0.00000000E+00
  3.80000000E+01  2.40000000E+01  0.00000000E+00
  3.80000000E+01  2.30000000E+01  0.00000000E+00
  3.80000000E+01  2.20000000E+01  0.00000000E+00
  3.80000000E+01  2.10000000E+01  0.00000000E+00
  3.80000000E+01  2.00000000E+01  0.00000000E+00
  3.80000000E+01  1.90000000E+01  0.00000000E+00
  3.80000000E+01  1.80000000E+01  0.00000000E+00
  3.80000000E+01  1.70000000E+01  0.00000000E+00
  3.80000000E+01  1.60000000E+01  0.00000000E+00
  3.80000000E+01  1.50000000E+01  0.00000000E+00
  3.80000000E+01  1.40000000E+01  0.00000000E+00
  3.80000000E+01  1.30000000E+01  0.00000000E+00
  3.80000000E+01  1.20000000E+01  0.00000000E+00
  3.80000000E+01  1.10000000E+01  0.00000000E+00
  3.80000000E+01  1.00000000E+01  0.00000000E+00
  3.80000000E+01  9.00000000E+00  0.00000000E+00
  3.80000000E+01  8.00000000E+00  0.00000000E+00
  3.80000000E+01  7.00000000E+00  0.00000000E+00
  3.80000000E+01  6.00000000E+00  0.00000000E+00
  3.80000000E+01  5.00000000E+00  0.00000000E+00
  3.80000000E+01  4.00000000E+00  0.00000000E+00
  3.80000000E+01  3.00000000E+00  0.00000000E+00
  3.80000000E+01  2.00000000E+00  0.00000000E+00
  3.80000000E+01  1.00000000E+00  0.00000000E+00
  3.80000000E+01 -2.66453526E-15  0.00000000E+00
  3.90000000E+01  2.40000000E+01  0.00000000E+00
  3.90000000E+01  2.30000000E+01  0.00000000E+00
  3.90000000E+01  2.20000000E+01  0.00000000E+00
  3.90000000E+01  2.10000000E+01  0.00000000E+00
  3.90000000E+01  2.00000000E+01  0.00000000E+00
  3.90000000E+01  1.90000000E+01  0.00000000E+00
  3.90000000E+01  1.80000000E+01  0.00000000E+00
  3.90000000E+01  1.70000000E+01  0.00000000E+00
  3.90000000E+01  1.60000000E+01  0.00000000E+00
  3.90000000E+01  1.50000000E+01  0.00000000E+00
  3.90000000E+01  1.40000000E+01  0.00000000E+00
  3.90000000E+01  1.30000000E+01  0.00000000E+00
  3.90000000E+01  1.20000000E+01  0.00000000E+00
  3.90000000E+01  1.10000000E+01  0.00000000E+00
  3.90000000E+01  1.00000000E+01  0.00000000E+00
  3.90000000E+01  9.00000000E+00  0.00000000E+00
  3.90000000E+01  8.00000000E+00  0.00000000E+00
  3.90000000E+01  7.00000000E+00  0.00000000E+00
  3.90000000E+01  6.00000000E+00  0.00000000E+00
  3.90000000E+01  5.00000000E+00  0.00000000E+00
  3.90000000E+01  4.00000000E+00  0.00000000E+00
  3.90000000E+01  3.00000000E+00  0.00000000E+00
  3.90000000E+01  2.00000000E+00  0.00000000E+00
  3.90000000E+01  1.00000000E+00  0.00000000E+00
  3.90000000E+01 -2.66453526E-15  0.00000000E+00
  4.00000000E+01  2.40000000E+01  0.00000000E+00
  4.00000000E+01  2.30000000E+01  0.00000000E+00
  4.00000000E+01  2.20000000E+01  0.00000000E+00
  4.00000000E+01  2.10000000E+01  0.00000000E+00
  4.00000000E+01  2.00000000E+01  0.00000000E+00
  4.00000000E+01  1.90000000E+01  0.00000000E+00
  4.00000000E+01  1.80000000E+01  0.00000000E+00
  4.00000000E+01  1.70000000E+01  0.00000000E+00
  4.00000000E+01  1.60000000E+01  0.00000000E+00
  4.00000000E+01  1.50000000E+01  0.00000000E+00
  4.00000000E+01  1.40000000E+01  0.00000000E+00
  4.00000000E+01  1.30000000E+01  0.00000000E+00
  4.00000000E+01  1.20000000E+01  0.00000000E+00
  4.00000000E+01  1.10000000E+01  0.00000000E+00
  4.00000000E+01  1.00000000E+01  0.00000000E+00
  4.00000000E+01  9.00000000E+00  0.00000000E+00
  4.00000000E+01  8.00000000E+00  0.00000000E+00
  4.00000000E+01  7.00000000E+00  0.00000000E+00
  4.00000000E+01  6.00000000E+00  0.00000000E+00
  4.00000000E+01  5.00000000E+00  0.00000000E+00
  4.00000000E+01  4.00000000E+00  0.00000000E+00
  4.00000000E+01  3.00000000E+00  0.00000000E+00
  4.00000000E+01  2.00000000E+00  0.00000000E+00
  4.00000000E+01  1.00000000E+00  0.00000000E+00
  4.00000000E+01 -2.66453526E-15  0.00000000E+00
  4.10000000E+01  2.40000000E+01  0.00000000E+00
  4.10000000E+01  2.30000000E+01  0.00000000E+00
  4.10000000E+01  2.20000000E+01  0.00000000E+00
  4.10000000E+01  2.10000000E+01  0.00000000E+00
  4.10000000E+01  2.00000000E+01  0.00000000E+00
  4.10000000E+01  1.90000000E+01  0.00000000E+00
  4.10000000E+01  1.80000000E+01  0.00000000E+00
  4.10000000E+01  1.70000000E+01  0.00000000E+00
  4.10000000E+01  1.60000000E+01  0.00000000E+00
  4.10000000E+01  1.50000000E+01  0.00000000E+00
  4.10000000E+01  1.40000000E+01  0.00000000E+00
  4.10000000E+01  1.30000000E+01  0.00000000E+00
  4.10000000E+01  1.20000000E+01  0.00000000E+00
  4.10000000E+01  1.10000000E+01  0.00000000E+00
  4.10000000E+01  1.00000000E+01  0.00000000E+00
  4.10000000E+01  9.00000000E+00  0.00000000E+00
  4.10000000E+01  8.00000000E+00  0.00000000E+00
  4.10000000E+01  7.00000000E+00  0.00000000E+00
  4.10000000E+01  6.00000000E+00  0.00000000E+00
  4.10000000E+01  5.00000000E+00  0.00000000E+00
  4.10000000E+01  4.00000000E+00  0.00000000E+00
  4.10000000E+01  3.00000000E+00  0.00000000E+00
  4.10000000E+01  2.00000000E+00  0.00000000E+00
  4.10000000E+01  1.00000000E+00  0.00000000E+00
  4.10000000E+01 -2.66453526E-15  0.00000000E+00
  4.20000000E+01  2.40000000E+01  0.00000000E+00
  4.20000000E+01  2.30000000E+01  0.00000000E+00
  4.20000000E+01  2.20000000E+01  0.00000000E+00
  4.20000000E+01  2.10000000E+01  0.00000000E+00
  4.20000000E+01  2.00000000E+01  0.00000000E+00
  4.20000000E+01  1.90000000E+01  0.00000000E+00
  4.20000000E+01  1.80000000E+01  0.00000000E+00
  4.20000000E+01  1.70000000E+01  0.00000000E+00
  4.20000000E+01  1.60000000E+01  0.00000000E+00
  4.20000000E+01  1.50000000E+01  0.00000000E+00
  4.20000000E+01  1.40000000E+01  0.00000000E+00
  4.20000000E+01  1.30000000E+01  0.00000000E+00
  4.20000000E+01  1.20000000E+01  0.00000000E+00
  4.20000000E+01  1.10000000E+01  0.00000000E+00
  4.20000000E+01  1.00000000E+01  0.00000000E+00
  4.20000000E+01  9.00000000E+00  0.00000000E+00
  4.20000000E+01  8.00000000E+00  0.00000000E+00
  4.20000000E+01  7.00000000E+00  0.00000000E+00
  4.20000000E+01  6.00000000E+00  0.00000000E+00
  4.20000000E+01  5.00000000E+00  0.00000000E+00
  4.20000000E+01  4.00000000E+00  0.00000000E+00
  4.20000000E+01  3.00000000E+00  0.00000000E+00
  4.20000000E+01  2.00000000E+00  0.00000000E+00
  4.20000000E+01  1.00000000E+00  0.00000000E+00
  4.20000000E+01 -2.66453526E-15  0.00000000E+00
  4.30000000E+01  2.40000000E+01  0.00000000E+00
  4.30000000E+01  2.30000000E+01  0.00000000E+00
  4.30000000E+01  2.20000000E+01  0.00000000E+00
  4.30000000E+01  2.10000000E+01  0.00000000E+00
  4.30000000E+01  2.00000000E+01  0.00000000E+00
  4.30000000E+01  1.90000000E+01  0.00000000E+00
  4.30000000E+01  1.80000000E+01  0.00000000E+00
  4.30000000E+01  1.70000000E+01  0.00000000E+00
  4.30000000E+01  1.60000000E+01  0.00000000E+00
  4.30000000E+01  1.50000000E+01  0.00000000E+00
  4.30000000E+01  1.40000000E+01  0.00000000E+00
  4.30000000E+01  1.30000000E+01  0.00000000E+00
  4.30000000E+01  1.20000000E+01  0.00000000E+00
  4.30000000E+01  1.10000000E+01  0.00000000E+00
  4.30000000E+01  1.00000000E+01  0.00000000E+00
  4.30000000E+01  9.00000000E+00  0.00000000E+00
  4.30000000E+01  8.00000000E+00  0.00000000E+00
  4.30000000E+01  7.00000000E+00  0.00000000E+00
  4.30000000E+01  6.00000000E+00  0.00000000E+00
  4.30000000E+01  5.00000000E+00  0.00000000E+00
  4.30000000E+01  4.00000000E+00  0.00000000E+00
  4.30000000E+01  3.00000000E+00  0.00000000E+00
  4.30000000E+01  2.00000000E+00  0.00000000E+00
  4.30000000E+01  1.00000000E+00  0.00000000E+00
  4.30000000E+01 -2.66453526E-15  0.00000000E+00
  4.40000000E+01  2.40000000E+01  0.00000000E+00
  4.40000000E+01  2.30000000E+01  0.00000000E+00
  4.40000000E+01  2.20000000E+01  0.00000000E+00
  4.40000000E+01  2.10000000E+01  0.00000000E+00
  4.40000000E+01  2.00000000E+01  0.00000000E+00
  4.40000000E+01  1.90000000E+01  0.00000000E+00
  4.40000000E+01  1.80000000E+01  0.00000000E+00
  4.40000000E+01  1.70000000E+01  0.00000000E+00
  4.40000000E+01  1.60000000E+01  0.00000000E+00
  4.40000000E+01  1.50000000E+01  0.00000000E+00
  4.40000000E+01  1.40000000E+01  0.00000000E+00
  4.40000000E+01  1.30000000E+01  0.00000000E+00
  4.40000000E+01  1.20000000E+01  0.00000000E+00
  4.40000000E+01  1.10000000E+01  0.00000000E+00
  4.40000000E+01  1.00000000E+01  0.00000000E+00
  4.40000000E+01  9.00000000E+00  0.00000000E+00
  4.40000000E+01  8.00000000E+00  0.00000000E+00
  4.40000000E+01  7.00000000E+00  0.00000000E+00
  4.40000000E+01  6.00000000E+00  0.00000000E+00
  4.40000000E+01  5.00000000E+00  0.00000000E+00
  4.40000000E+01  4.00000000E+00  0.00000000E+00
  4.40000000E+01  3.00000000E+00  0.00000000E+00
  4.40000000E+01  2.00000000E+00  0.00000000E+00
  4.40000000E+01  1.00000000E+00  0.00000000E+00
  4.40000000E+01 -2.66453526E-15  0.00000000E+00
  4.50000000E+01  2.40000000E+01  0.00000000E+00
  4.50000000E+01  2.30000000E+01  0.00000000E+00
  4.50000000E+01  2.20000000E+01  0.00000000E+00
  4.50000000E+01  2.10000000E+01  0.00000000E+00
  4.50000000E+01  2.00000000E+01  0.00000000E+00
  4.50000000E+01  1.90000000E+01  0.00000000E+00
  4.50000000E+01  1.80000000E+01  0.00000000E+00
  4.50000000E+01  1.70000000E+01  0.00000000E+00
  4.50000000E+01  1.60000000E+01  0.00000000E+00
  4.50000000E+01  1.50000000E+01  0.00000000E+00
  4.50000000E+01  1.40000000E+01  0.00000000E+00
  4.50000000E+01  1.30000000E+01  0.00000000E+00
  4.50000000E+01  1.20000000E+01  0.00000000E+00
  4.50000000E+01  1.10000000E+01  0.00000000E+00
  4.50000000E+01  1.00000000E+01  0.00000000E+00
  4.50000000E+01  9.00000000E+00  0.00000000E+00
  4.50000000E+01  8.00000000E+00  0.00000000E+00
  4.50000000E+01  7.00000000E+00  0.00000000E+00
  4.50000000E+01  6.00000000E+00  0.00000000E+00
  4.50000000E+01  5.00000000E+00  0.00000000E+00
  4.50000000E+01  4.00000000E+00  0.00000000E+00
  4.50000000E+01  3.00000000E+00  0.00000000E+00
  4.50000000E+01  2.00000000E+00  0.00000000E+00
  4.50000000E+01  1.00000000E+00  0.00000000E+00
  4.50000000E+01 -2.66453526E-15  0.00000000E+00
  4.60000000E+01  2.40000000E+01  0.00000000E+00
  4.60000000E+01  2.30000000E+01  0.00000000E+00
  4.60000000E+01  2.20000000E+01  0.00000000E+00
  4.60000000E+01  2.10000000E+01  0.00000000E+00
  4.60000000E+01  2.00000000E+01  0.00000000E+00
  4.60000000E+01  1.90000000E+01  0.00000000E+00
  4.60000000E+01  1.80000000E+01  0.00000000E+00
  4.60000000E+01  1.70000000E+01  0.00000000E+00
  4.60000000E+01  1.60000000E+01  0.00000000E+00
  4.60000000E+01  1.50000000E+01  0.00000000E+00
  4.60000000E+01  1.40000000E+01  0.00000000E+00
  4.60000000E+01  1.30000000E+01  0.00000000E+00
  4.60000000E+01  1.20000000E+01  0.00000000E+00
  4.60000000E+01  1.10000000E+01  0.00000000E+00
  4.60000000E+01  1.00000000E+01  0.00000000E+00
  4.60000000E+01  9.00000000E+00  0.00000000E+00
  4.60000000E+01  8.00000000E+00  0.00000000E+00
  4.60000000E+01  7.00000000E+00  0.00000000E+00
  4.60000000E+01  6.00000000E+00  0.00000000E+00
  4.60000000E+01  5.00000000E+00  0.00000000E+00
  4.60000000E+01  4.00000000E+00  0.00000000E+00
  4.60000000E+01  3.00000000E+00  0.00000000E+00
  4.60000000E+01  2.00000000E+00  0.00000000E+00
  4.60000000E+01  1.00000000E+00  0.00000000E+00
  4.60000000E+01 -2.66453526E-15  0.00000000E+00
  4.70000000E+01  2.40000000E+01  0.00000000E+00
  4.70000000E+01  2.30000000E+01  0.00000000E+00
  4.70000000E+01  2.20000000E+01  0.00000000E+00
  4.70000000E+01  2.10000000E+01  0.00000000E+00
  4.70000000E+01  2.00000000E+01  0.00000000E+00
  4.70000000E+01  1.90000000E+01  0.00000000E+00
  4.70000000E+01  1.80000000E+01  0.00000000E+00
  4.70000000E+01  1.70000000E+01  0.00000000E+00
  4.70000000E+01  1.60000000E+01  0.00000000E+00
  4.70000000E+01  1.50000000E+01  0.00000000E+00
  4.70000000E+01  1.40000000E+01  0.00000000E+00
  4.70000000E+01  1.30000000E+01  0.00000000E+00
  4.70000000E+01  1.20000000E+01  0.00000000E+00
  4.70000000E+01  1.10000000E+01  0.00000000E+00
  4.70000000E+01  1.00000000E+01  0.00000000E+00
  4.70000000E+01  9.00000000E+00  0.00000000E+00
  4.70000000E+01  8.00000000E+00  0.00000000E+00
  4.70000000E+01  7.00000000E+00  0.00000000E+00
  4.70000000E+01  6.00000000E+00  0.00000000E+00
  4.70000000E+01  5.00000000E+00  0.00000000E+00
  4.70000000E+01  4.00000000E+00  0.00000000E+00
  4.70000000E+01  3.00000000E+00  0.00000000E+00
  4.70000000E+01  2.00000000E+00  0.00000000E+00
  4.70000000E+01  1.00000000E+00  0.00000000E+00
  4.70000000E+01 -2.66453526E-15  0.00000000E+00
  4.80000000E+01  2.40000000E+01  0.00000000E+00
  4.80000000E+01  2.30000000E+01  0.00000000E+00
  4.80000000E+01  2.20000000E+01  0.00000000E+00
  4.80000000E+01  2.10000000E+01  0.00000000E+00
  4.80000000E+01  2.00000000E+01  0.00000000E+00
  4.80000000E+01  1.90000000E+01  0.00000000E+00
  4.80000000E+01  1.80000000E+01  0.00000000E+00
  4.80000000E+01  1.70000000E+01  0.00000000E+00
  4.80000000E+01  1.60000000E+01  0.00000000E+00
  4.80000000E+01  1.50000000E+01  0.00000000E+00
  4.80000000E+01  1.40000000E+01  0.00000000E+00
  4.80000000E+01  1.30000000E+01  0.00000000E+00
  4.80000000E+01  1.20000000E+01  0.00000000E+00
  4.80000000E+01  1.10000000E+01  0.00000000E+00
  4.80000000E+01  1.00000000E+01  0.00000000E+00
  4.80000000E+01  9.00000000E+00  0.00000000E+00
  4.80000000E+01  8.00000000E+00  0.00000000E+00
  4.80000000E+01  7.00000000E+00  0.00000000E+00
  4.80000000E+01  6.00000000E+00  0.00000000E+00
  4.80000000E+01  5.00000000E+00  0.00000000E+00
  4.80000000E+01  4.00000000E+00  0.00000000E+00
  4.80000000E+01  3.00000000E+00  0.00000000E+00
  4.80000000E+01  2.00000000E+00  0.00000000E+00
  4.80000000E+01  1.00000000E+00  0.00000000E+00
  4.80000000E+01 -2.66453526E-15  0.00000000E+00
CELLS      1152      5760
         4           0           1          26          25
         4           1           2          27          26
         4           2           3          28          27
         4           3           4          29          28
         4           4           5          30          29
         4           5           6          31          30
         4           6           7          32          31
         4           7           8          33          32
         4           8           9          34          33
         4           9          10          35          34
         4          10          11          36          35
         4          11          12          37          36
         4          12          13          38          37
         4          13          14          39          38
         4          14          15          40          39
         4          15          16          41          40
         4          16          17          42          41
         4          17          18          43          42
         4          18          19          44          43
         4          19          20          45          44
         4          20          21          46          45
         4          21          22          47          46
         4          22          23          48          47
         4          23          24          49          48
         4          25          26          51          50
         4          26          27          52          51
         4          27          28          53          52
         4          28          29          54          53
         4          29          30          55          54
         4          30          31          56          55
         4          31          32          57          56
         4          32          33          58          57
         4          33          34          59          58
         4          34          35          60          59
         4          35          36          61          60
         4          36          37          62          61
         4          37          38          63          62
         4          38          39          64          63
         4          39          40          65          64
         4          40          41          66          65
         4          41          42          67          66
         4          42          43          68          67
         4          43          44          69          68
         4          44          45          70          69
         4          45          46          71          70
         4          46          47          72          71
         4          47          48          73          72
         4          48          49          74          73
         4          50          51          76          75
         4          51          52          77          76
         4          52          53          78          77
         4          53          54          79          78
         4          54          55          80          79
         4          55          56          81          80
         4          56          57          82          81
         4          57          58          83          82
         4          58          59          84          83
         4          59          60          85          84
         4          60          61          86          85
         4          61          62          87          86
         4          62          63          88          87
         4          63          64          89          88
         4          64          65          90          89
         4          65          66          91          90
         4          66          67          92          91
         4          67          68          93          92
         4          68          69          94          93
         4          69          70          95          94
         4          70          71          96          95
         4          71          72          97          96
         4          72          73          98          97
         4          73          74          99          98
         4          75          76         101         100
         4          76          77         102         101
         4          77          78         103         102
         4          78          79         104         103
         4          79          80         105         104
         4          80          81         106         105
         4          81          82         107         106
         4          82          83         108         107
         4          83          84         109         108
         4          84          85         110         109
         4          85          86         111         110
         4          86          87         112         111
         4          87          88         113         112
         4          88          89         114         113
         4          89          90         115         114
         4          90          91         116         115
         4          91          92         117         116
         4          92          93         118         117
         4          93          94         119         118
         4          94          95         120         119
         4          95          96         121         120
         4          96          97         122         121
         4          97          98         123         122
         4          98          99         124         123
         4         100         101         126         125
         4         101         102         127         126
         4         102         103         128         127
         4         103         104         129         128
         4         104         105         130         129
         4         105         106         131         130
         4         106         107         132         131
         4         107         108         133         132
         4         108         109         134         133
         4         109         110         135         134
         4         110         111         136         135
         4         111         112         137         136
         4         112         113         138         137
         4         113         114         139         138
         4         114         115         140         139
         4         115         116         141         140
         4         116         117         142         141
         4         117         118         143         142
         4         118         119         144         143
         4         119         120         145         144
         4         120         121         146         145
         4         121         122         147         146
         4         122         123         148         147
         4         123         124         149         148
         4         125         126         151         150
         4         126         127         152         151
         4         127         128         153         152
         4         128         129         154         153
         4         129         130         155         154
         4         130         131         156         155
         4         131         132         157         156
         4         132         133         158         157
         4         133         134         159         158
         4         134         135         160         159
         4         135         136         161         160
         4         136         137         162         161
         4         137         138         163         162
         4         138         139         164         163
         4         139         140         165         164
         4         140         141         166         165
         4         141         142         167         166
         4         142         143         168         167
         4         143         144         169         168
         4         144         145         170         169
         4         145         146         171         170
         4         146         147         172         171
         4         147         148         173         172
         4         148         149         174         173
         4         150         151         176         175
         4         151         152         177         176
         4         152         153         178         177
         4         153         154         179         178
         4         154         155         180         179
         4         155         156         181         180
         4         156         157         182         181
         4         157         158         183         182
         4         158         159         184         183
         4         159         160         185         184
         4         160         161         186         185
         4         161         162         187         186
         4         162         163         188         187
         4         163         164         189         188
         4         164         165         190         189
         4         165         166         191         190
         4         166         167         192         191
         4         167         168         193         192
         4         168         169         194         193
         4         169         170         195         194
         4         170         171         196         195
         4         171         172         197         196
         4         172         173         198         197
         4         173         174         199         198
         4         175         176         201         200
         4         176         177         202         201
         4         177         178         203         202
         4         178         179         204         203
         4         179         180         205         204
         4         180         181         206         205
         4         181         182         207         206
         4         182         183         208         207
         4         183         184         209         208
         4         184         185         210         209
         4         185         186         211         210
         4         186         187         212         211
         4         187         188         213         212
         4         188         189         214         213
         4         189         190         215         214
         4         190         191         216         215
         4         191         192         217         216
         4         192         193         218         217
         4         193         194         219         218
         4         194         195         220         219
         4         195         196         221         220
         4         196         197         222         221
         4         197         198         223         222
         4         198         199         224         223
         4         200         201         226         225
         4         201         202         227         226
         4         202         203         228         227
         4         203         204         229         228
         4         204         205         230         229
         4         205         206         231         230
         4         206         207         232         231
         4         207         208         233         232
         4         208         209         234         233
         4         209         210         235         234
         4         210         211         236         235
         4         211         212         237         236
         4         212         213         238         237
         4         213         214         239         238
         4         214         215         240         239
         4         215         216         241         240
         4         216         217         242         241
         4         217         218         243         242
         4         218         219         244         243
         4         219         220         245         244
         4         220         221         246         245
         4         221         222         247         246
         4         222         223         248         247
         4         223         224         249         248
         4         225         226         251         250
         4         226         227         252         251
         4         227         228         253         252
         4         228         229         254         253
         4         229         230         255         254
         4         230         231         256         255
         4         231         232         257         256
         4         232         233         258         257
         4         233         234         259         258
         4         234         235         260         259
         4         235         236         261         260
         4         236         237         262         261
         4         237         238         263         262
         4         238         239         264         263
         4         239         240         265         264
         4         240         241         266         265
         4         241         242         267         266
         4         242         243         268         267
         4         243         244         269         268
         4         244         245         270         269
         4         245         246         271         270
         4         246         247         272         271
         4         247         248         273         272
         4         248         249         274         273
         4         250         251         276         275
         4         251         252         277         276
         4         252         253         278         277
         4         253         254         279         278
         4         254         255         280         279
         4         255         256         281         280
         4         256         257         282         281
         4         257         258         283         282
         4         258         259         284         283
         4         259         260         285         284
         4         260         261         286         285
         4         261         262         287         286
         4         262         263         288         287
         4         263         264         289         288
         4         264         265         290         289
         4         265         266         291         290
         4         266         267         292         291
         4         267         268         293         292
         4         268         269         294         293
         4         269         270         295         294
         4         270         271         296         295
         4         271         272         297         296
         4         272         273         298         297
         4         273         274         299         298
         4         275         276         301         300
         4         276         277         302         301
         4         277         278         303         302
         4         278         279         304         303
         4         279         280         305         304
         4         280         281         306         305
         4         281         282         307         306
         4         282         283         308         307
         4         283         284         309         308
         4         284         285         310         309
         4         285         286         311         310
         4         286         287         312         311
         4         287         288         313         312
         4         288         289         314         313
         4         289         290         315         314
         4         290         291         316         315
         4         291         292         317         316
         4         292         293         318         317
         4         293         294         319         318
         4         294         295         320         319
         4         295         296         321         320
         4         296         297         322         321
         4         297         298         323         322
         4         298         299         324         323
         4         300         301         326         325
         4         301         302         327         326
         4         302         303         328         327
         4         303         304         329         328
         4         304         305         330         329
         4         305         306         331         330
         4         306         307         332         331
         4         307         308         333         332
         4         308         309         334         333
         4         309         310         335         334
         4         310         311         336         335
         4         311         312         337         336
         4         312         313         338         337
         4         313         314         339         338
         4         314         315         340         339
         4         315         316         341         340
         4         316         317         342         341
         4         317         318         343         342
         4         318         319         344         343
         4         319         320         345         344
         4         320         321         346         345
         4         321         322         347         346
         4         322         323         348         347
         4         323         324         349         348
         4         325         326         351         350
         4         326         327         352         351
         4         327         328         353         352
         4         328         329         354         353
         4         329         330         355         354
         4         330         331         356         355
         4         331         332         357         356
         4         332         333         358         357
         4         333         334         359         358
         4         334         335         360         359
         4         335         336         361         360
         4         336         337         362         361
         4         337         338         363         362
         4         338         339         364         363
         4         339         340         365         364
         4         340         341         366         365
         4         341         342         367         366
         4         342         343         368         367
         4         343         344         369         368
         4         344         345         370         369
         4         345         346         371         370
         4         346         347         372         371
         4         347         348         373         372
         4         348         349         374         373
         4         350         351         376         375
         4         351         352         377         376
         4         352         353         378         377
         4         353         354         379         378
         4         354         355         380         379
         4         355         356         381         380
         4         356         357         382         381
         4         357         358         383         382
         4         358         359         384         383
         4         359         360         385         384
         4         360         361         386         385
         4         361         362         387         386
         4         362         363         388         387
         4         363         364         389         388
         4         364         365         390         389
         4         365         366         391         390
         4         366         367         392         391
         4         367         368         393         392
         4         368         369         394         393
         4         369         370         395         394
         4         370         371         396         395
         4         371         372         397         396
         4         372         373         398         397
         4         373         374         399         398
         4         375         376         401         400
         4         376         377         402         401
         4         377         378         403         402
         4         378         379         404         403
         4         379         380         405         404
         4         380         381         406         405
         4         381         382         407         406
         4         382         383         408         407
         4         383         384         409         408
         4         384         385         410         409
         4         385         386         411         410
         4         386         387         412         411
         4         387         388         413         412
         4         388         389         414         413
         4         389         390         415         414
         4         390         391         416         415
         4         391         392         417         416
         4         392         393         418         417
         4         393         394         419         418
         4         394         395         420         419
         4         395         396         421         420
         4         396         397         422         421
         4         397         398         423         422
         4         398         399         424         423
         4         400         401         426         425
         4         401         402         427         426
         4         402         403         428         427
         4         403         404         429         428
         4         404         405         430         429
         4         405         406         431         430
         4         406         407         432         431
         4         407         408         433         432
         4         408         409         434         433
         4         409         410         435         434
         4         410         411         436         435
         4         411         412         437         436
         4         412         413         438         437
         4         413         414         439         438
         4         414         415         440         439
         4         415         416         441         440
         4         416         417         442         441
         4         417         418         443         442
         4         418         419         444         443
         4         419         420         445         444
         4         420         421         446         445
         4         421         422         447         446
         4         422         423         448         447
         4         423         424         449         448
         4         425         426         451         450
         4         426         427         452         451
         4         427         428         453         452
         4         428         429         454         453
         4         429         430         455         454
         4         430         431         456         455
         4         431         432         457         456
         4         432         433         458         457
         4         433         434         459         458
         4         434         435         460         459
         4         435         436         461         460
         4         436         437         462         461
         4         437         438         463         462
         4         438         439         464         463
         4         439         440         465         464
         4         440         441         466         465
         4         441         442         467         466
         4         442         443         468         467
         4         443         444         469         468
         4         444         445         470         469
         4         445         446         471         470
         4         446         447         472         471
         4         447         448         473         472
         4         448         449         474         473
         4         450         451         476         475
         4         451         452         477         476
         4         452         453         478         477
         4         453         454         479         478
         4         454         455         480         479
         4         455         456         481         480
         4         456         457         482         481
         4         457         458         483         482
         4         458         459         484         483
         4         459         460         485         484
         4         460         461         486         485
         4         461         462         487         486
         4         462         463         488         487
         4         463         464         489         488
         4         464         465         490         489
         4         465         466         491         490
         4         466         467         492         491
         4         467         468         493         492
         4         468         469         494         493
         4         469         470         495         494
         4         470         471         496         495
         4         471         472         497         496
         4         472         473         498         497
         4         473         474         499         498
         4         475         476         501         500
         4         476         477         502         501
         4         477         478         503         502
         4         478         479         504         503
         4         479         480         505         504
         4         480         481         506         505
         4         481         482         507         506
         4         482         483         508         507
         4         483         484         509         508
         4         484         485         510         509
         4         485         486         511         510
         4         486         487         512         511
         4         487         488         513         512
         4         488         489         514         513
         4         489         490         515         514
         4         490         491         516         515
         4         491         492         517         516
         4         492         493         518         517
         4         493         494         519         518
         4         494         495         520         519
         4         495         496         521         520
         4         496         497         522         521
         4         497         498         523         522
         4         498         499         524         523
         4         500         501         526         525
         4         501         502         527         526
         4         502         503         528         527
         4         503         504         529         528
         4         504         505         530         529
         4         505         506         531         530
         4         506         507         532         531
         4         507         508         533         532
         4         508         509         534         533
         4         509         510         535         534
         4         510         511         536         535
         4         511         512         537         536
         4         512         513         538         537
         4         513         514         539         538
         4         514         515         540         539
         4         515         516         541         540
         4         516         517         542         541
         4         517         518         543         542
         4         518         519         544         543
         4         519         520         545         544
         4         520         521         546         545
         4         521         522         547         546
         4         522         523         548         547
         4         523         524         549         548
         4         525         526         551         550
         4         526         527         552         551
         4         527         528         553         552
         4         528         529         554         553
         4         529         530         555         554
         4         530         531         556         555
         4         531         532         557         556
         4         532         533         558         557
         4         533         534         559         558
         4         534         535         560         559
         4         535         536         561         560
         4         536         537         562         561
         4         537         538         563         562
         4         538         539         564         563
         4         539         540         565         564
         4         540         541         566         565
         4         541         542         567         566
         4         542         543         568         567
         4         543         544         569         568
         4         544         545         570         569
         4         545         546         571         570
         4         546         547         572         571
         4         547         548         573         572
         4         548         549         574         573
         4         550         551         576         575
         4         551         552         577         576
         4         552         553         578         577
         4         553         554         579         578
         4         554         555         580         579
         4         555         556         581         580
         4         556         557         582         581
         4         557         558         583         582
         4         558         559         584         583
         4         559         560         585         584
         4         560         561         586         585
         4         561         562         587         586
         4         562         563         588         587
         4         563         564         589         588
         4         564         565         590         589
         4         565         566         591         590
         4         566         567         592         591
         4         567         568         593         592
         4         568         569         594         593
         4         569         570         595         594
         4         570         571         596         595
         4         571         572         597         596
         4         572         573         598         597
         4         573         574         599         598
         4         575         576         601         600
         4         576         577         602         601
         4         577         578         603         602
         4         578         579         604         603
         4         579         580         605         604
         4         580         581         606         605
         4         581         582         607         606
         4         582         583         608         607
         4         583         584         609         608
         4         584         585         610         609
         4         585         586         611         610
         4         586         587         612         611
         4         587         588         613         612
         4         588         589         614         613
         4         589         590         615         614
         4         590         591         616         615
         4         591         592         617         616
         4         592         593         618         617
         4         593         594         619         618
         4         594         595         620         619
         4         595         596         621         620
         4         596         597         622         621
         4         597         598         623         622
         4         598         599         624         623
         4         600         601         626         625
         4         601         602         627         626
         4         602         603         628         627
         4         603         604         629         628
         4         604         605         630         629
         4         605         606         631         630
         4         606         607         632         631
         4         607         608         633         632
         4         608         609         634         633
         4         609         610         635         634
         4         610         611         636         635
         4         611         612         637         636
         4         612         613         638         637
         4         613         614         639         638
         4         614         615         640         639
         4         615         616         641         640
         4         616         617         642         641
         4         617         618         643         642
         4         618         619         644         643
         4         619         620         645         644
         4         620         621         646         645
         4         621         622         647         646
         4         622         623         648         647
         4         623         624         649         648
         4         625         626         651         650
         4         626         627         652         651
         4         627         628         653         652
         4         628         629         654         653
         4         629         630         655         654
         4         630         631         656         655
         4         631         632         657         656
         4         632         633         658         657
         4         633         634         659         658
         4         634         635         660         659
         4         635         636         661         660
         4         636         637         662         661
         4         637         638         663         662
         4         638         639         664         663
         4         639         640         665         664
         4         640         641         666         665
         4         641         642         667         666
         4         642         643         668         667
         4         643         644         669         668
         4         644         645         670         669
         4         645         646         671         670
         4         646         647         672         671
         4         647         648         673         672
         4         648         649         674         673
         4         650         651         676         675
         4         651         652         677         676
         4         652         653         678         677
         4         653         654         679         678
         4         654         655         680         679
         4         655         656         681         680
         4         656         657         682         681
         4         657         658         683         682
         4         658         659         684         683
         4         659         660         685         684
         4         660         661         686         685
         4         661         662         687         686
         4         662         663         688         687
         4         663         664         689         688
         4         664         665         690         689
         4         665         666         691         690
         4         666         667         692         691
         4         667         668         693         692
         4         668         669         694         693
         4         669         670         695         694
         4         670         671         696         695
         4         671         672         697         696
         4         672         673         698         697
         4         673         674         699         698
         4         675         676         701         700
         4         676         677         702         701
         4         677         678         703         702
         4         678         679         704         703
         4         679         680         705         704
         4         680         681         706         705
         4         681         682         707         706
         4         682         683         708         707
         4         683         684         709         708
         4         684         685         710         709
         4         685         686         711         710
         4         686         687         712         711
         4         687         688         713         712
         4         688         689         714         713
         4         689         690         715         714
         4         690         691         716         715
         4         691         692         717         716
         4         692         693         718         717
         4         693         694         719         718
         4         694         695         720         719
         4         695         696         721         720
         4         696         697         722         721
         4         697         698         723         722
         4         698         699         724         723
         4         700         701         726         725
         4         701         702         727         726
         4         702         703         728         727
         4         703         704         729         728
         4         704         705         730         729
         4         705         706         731         730
         4         706         707         732         731
         4         707         708         733         732
         4         708         709         734         733
         4         709         710         735         734
         4         710         711         736         735
         4         711         712         737         736
         4         712         713         738         737
         4         713         714         739         738
         4         714         715         740         739
         4         715         716         741         740
         4         716         717         742         741
         4         717         718         743         742
         4         718         719         744         743
         4         719         720         745         744
         4         720         721         746         745
         4         721         722         747         746
         4         722         723         748         747
         4         723         724         749         748
         4         725         726         751         750
         4         726         727         752         751
         4         727         728         753         752
         4         728         729         754         753
         4         729         730         755         754
         4         730         731         756         755
         4         731         732         757         756
         4         732         733         758         757
         4         733         734         759         758
         4         734         735         760         759
         4         735         736         761         760
         4         736         737         762         761
         4         737         738         763         762
         4         738         739         764         763
         4         739         740         765         764
         4         740         741         766         765
         4         741         742         767         766
         4         742         743         768         767
         4         743         744         769         768
         4         744         745         770         769
         4         745         746         771         770
         4         746         747         772         771
         4         747         748         773         772
         4         748         749         774         773
         4         750         751         776         775
         4         751         752         777         776
         4         752         753         778         777
         4         753         754         779         778
         4         754         755         780         779
         4         755         756         781         780
         4         756         757         782         781
         4         757         758         783         782
         4         758         759         784         783
         4         759         760         785         784
         4         760         761         786         785
         4         761         762         787         786
         4         762         763         788         787
         4         763         764         789         788
         4         764         765         790         789
         4         765         766         791         790
         4         766         767         792         791
         4         767         768         793         792
         4         768         769         794         793
         4         769         770         795         794
         4         770         771         796         795
         4         771         772         797         796
         4         772         773         798         797
         4         773         774         799         798
         4         775         776         801         800
         4         776         777         802         801
         4         777         778         803         802
         4         778         779         804         803
         4         779         780         805         804
         4         780         781         806         805
         4         781         782         807         806
         4         782         783         808         807
         4         783         784         809         808
         4         784         785         810         809
         4         785         786         811         810
         4         786         787         812         811
         4         787         788         813         812
         4         788         789         814         813
         4         789         790         815         814
         4         790         791         816         815
         4         791         792         817         816
         4         792         793         818         817
         4         793         794         819         818
         4         794         795         820         819
         4         795         796         821         820
         4         796         797         822         821
         4         797         798         823         822
         4         798         799         824         823
         4         800         801         826         825
         4         801         802         827         826
         4         802         803         828         827
         4         803         804         829         828
         4         804         805         830         829
         4         805         806         831         830
         4         806         807         832         831
         4         807         808         833         832
         4         808         809         834         833
         4         809         810         835         834
         4         810         811         836         835
         4         811         812         837         836
         4         812         813         838         837
         4         813         814         839         838
         4         814         815         840         839
         4         815         816         841         840
         4         816         817         842         841
         4         817         818         843         842
         4         818         819         844         843
         4         819         820         845         844
         4         820         821         846         845
         4         821         822         847         846
         4         822         823         848         847
         4         823         824         849         848
         4         825         826         851         850
         4         826         827         852         851
         4         827         828         853         852
         4         828         829         854         853
         4         829         830         855         854
         4         830         831         856         855
         4         831         832         857         856
         4         832         833         858         857
         4         833         834         859         858
         4         834         835         860         859
         4         835         836         861         860
         4         836         837         862         861
         4         837         838         863         862
         4         838         839         864         863
         4         839         840         865         864
         4         840         841         866         865
         4         841         842         867         866
         4         842         843         868         867
         4         843         844         869         868
         4         844         845         870         869
         4         845         846         871         870
         4         846         847         872         871
         4         847         848         873         872
         4         848         849         874         873
         4         850         851         876         875
         4         851         852         877         876
         4         852         853         878         877
         4         853         854         879         878
         4         854         855         880         879
         4         855         856         881         880
         4         856         857         882         881
         4         857         858         883         882
         4         858         859         884         883
         4         859         860         885         884
         4         860         861         886         885
         4         861         862         887         886
         4         862         863         888         887
         4         863         864         889         888
         4         864         865         890         889
         4         865         866         891         890
         4         866         867         892         891
         4         867         868         893         892
         4         868         869         894         893
         4         869         870         895         894
         4         870         871         896         895
         4         871         872         897         896
         4         872         873         898         897
         4         873         874         899         898
         4         875         876         901         900
         4         876         877         902         901
         4         877         878         903         902
         4         878         879         904         903
         4         879         880         905         904
         4         880         881         906         905
         4         881         882         907         906
         4         882         883         908         907
         4         883         884         909         908
         4         884         885         910         909
         4         885         886         911         910
         4         886         887         912         911
         4         887         888         913         912
         4         888         889         914         913
         4         889         890         915         914
         4         890         891         916         915
         4         891         892         917         916
         4         892         893         918         917
         4         893         894         919         918
         4         894         895         920         919
         4         895         896         921         920
         4         896         897         922         921
         4         897         898         923         922
         4         898         899         924         923
         4         900         901         926         925
         4         901         902         927         926
         4         902         903         928         927
         4         903         904         929         928
         4         904         905         930         929
         4         905         906         931         930
         4         906         907         932         931
         4         907         908         933         932
         4         908         909         934         933
         4         909         910         935         934
         4         910         911         936         935
         4         911         912         937         936
         4         912         913         938         937
         4         913         914         939         938
         4         914         915         940         939
         4         915         916         941         940
         4         916         917         942         941
         4         917         918         943         942
         4         918         919         944         943
         4         919         920         945         944
         4         920         921         946         945
         4         921         922         947         946
         4         922         923         948         947
         4         923         924         949         948
         4         925         926         951         950
         4         926         927         952         951
         4         927         928         953         952
         4         928         929         954         953
         4         929         930         955         954
         4         930         931         956         955
         4         931         932         957         956
         4         932         933         958         957
         4         933         934         959         958
         4         934         935         960         959
         4         935         936         961         960
         4         936         937         962         961
         4         937         938         963         962
         4         938         939         964         963
         4         939         940         965         964
         4         940         941         966         965
         4         941         942         967         966
         4         942         943         968         967
         4         943         944         969         968
         4         944         945         970         969
         4         945         946         971         970
         4         946         947         972         971
         4         947         948         973         972
         4         948         949         974         973
         4         950         951         976         975
         4         951         952         977         976
         4         952         953         978         977
         4         953         954         979         978
         4         954         955         980         979
         4         955         956         981         980
         4         956         957         982         981
         4         957         958         983         982
         4         958         959         984         983
         4         959         960         985         984
         4         960         961         986         985
         4         961         962         987         986
         4         962         963         988         987
         4         963         964         989         988
         4         964         965         990         989
         4         965         966         991         990
         4         966         967         992         991
         4         967         968         993         992
         4         968         969         994         993
         4         969         970         995         994
         4         970         971         996         995
         4         971         972         997         996
         4         972         973         998         997
         4         973         974         999         998
         4         975         976        1001        1000
         4         976         977        1002        1001
         4         977         978        1003        1002
         4         978         979        1004        1003
         4         979         980        1005        1004
         4         980         981        1006        1005
         4         981         982        1007        1006
         4         982         983        1008        1007
         4         983         984        1009        1008
         4         984         985        1010        1009
         4         985         986        1011        1010
         4         986         987        1012        1011
         4         987         988        1013        1012
         4         988         989        1014        1013
         4         989         990        1015        1014
         4         990         991        1016        1015
         4         991         992        1017        1016
         4         992         993        1018        1017
         4         993         994        1019        1018
         4         994         995        1020        1019
         4         995         996        1021        1020
         4         996         997        1022        1021
         4         997         998        1023        1022
         4         998         999        1024        1023
         4        1000        1001        1026        1025
         4        1001        1002        1027        1026
         4        1002        1003        1028        1027
         4        1003        1004        1029        1028
         4        1004        1005        1030        1029
         4        1005        1006        1031        1030
         4        1006        1007        1032        1031
         4        1007        1008        1033        1032
         4        1008        1009        1034        1033
         4        1009        1010        1035        1034
         4        1010        1011        1036        1035
         4        1011        1012        1037        1036
         4        1012        1013        1038        1037
         4        1013        1014        1039        1038
         4        1014        1015        1040        1039
         4        1015        1016        1041        1040
         4        1016        1017        1042        1041
         4        1017        1018        1043        1042
         4        1018        1019        1044        1043
         4        1019        1020        1045        1044
         4        1020        1021        1046        1045
         4        1021        1022        1047        1046
         4        1022        1023        1048        1047
         4        1023        1024        1049        1048
         4        1025        1026        1051        1050
         4        1026        1027        1052        1051
         4        1027        1028        1053        1052
         4        1028        1029        1054        1053
         4        1029        1030        1055        1054
         4        1030        1031        1056        1055
         4        1031        1032        1057        1056
         4        1032        1033        1058        1057
         4        1033        1034        1059        1058
         4        1034        1035        1060        1059
         4        1035        1036        1061        1060
         4        1036        1037        1062        1061
         4        1037        1038        1063        1062
         4        1038        1039        1064        1063
         4        1039        1040        1065        1064
         4        1040        1041        1066        1065
         4        1041        1042        1067        1066
         4        1042        1043        1068        1067
         4        1043        1044        1069        1068
         4        1044        1045        1070        1069
         4        1045        1046        1071        1070
         4        1046        1047        1072        1071
         4        1047        1048        1073        1072
         4        1048        1049        1074        1073
         4        1050        1051        1076        1075
         4        1051        1052        1077        1076
         4        1052        1053        1078        1077
         4        1053        1054        1079        1078
         4        1054        1055        1080        1079
         4        1055        1056        1081        1080
         4        1056        1057        1082        1081
         4        1057        1058        1083        1082
         4        1058        1059        1084        1083
         4        1059        1060        1085        1084
         4        1060        1061        1086        1085
         4        1061        1062        1087        1086
         4        1062        1063        1088        1087
         4        1063        1064        1089        1088
         4        1064        1065        1090        1089
         4        1065        1066        1091        1090
         4        1066        1067        1092        1091
         4        1067        1068        1093        1092
         4        1068        1069        1094        1093
         4        1069        1070        1095        1094
         4        1070        1071        1096        1095
         4        1071        1072        1097        1096
         4        1072        1073        1098        1097
         4        1073        1074        1099        1098
         4        1075        1076        1101        1100
         4        1076        1077        1102        1101
         4        1077        1078        1103        1102
         4        1078        1079        1104        1103
         4        1079        1080        1105        1104
         4        1080        1081        1106        1105
         4        1081        1082        1107        1106
         4        1082        1083        1108        1107
         4        1083        1084        1109        1108
         4        1084        1085        1110        1109
         4        1085        1086        1111        1110
         4        1086        1087        1112        1111
         4        1087        1088        1113        1112
         4        1088        1089        1114        1113
         4        1089        1090        1115        1114
         4        1090        1091        1116        1115
         4        1091        1092        1117        1116
         4        1092        1093        1118        1117
         4        1093        1094        1119        1118
         4        1094        1095        1120        1119
         4        1095        1096        1121        1120
         4        1096        1097        1122        1121
         4        1097        1098        1123        1122
         4        1098        1099        1124        1123
         4        1100        1101        1126        1125
         4        1101        1102        1127        1126
         4        1102        1103        1128        1127
         4        1103        1104        1129        1128
         4        1104        1105        1130        1129
         4        1105        1106        1131        1130
         4        1106        1107        1132        1131
         4        1107        1108        1133        1132
         4        1108        1109        1134        1133
         4        1109        1110        1135        1134
         4        1110        1111        1136        1135
         4        1111        1112        1137        1136
         4        1112        1113        1138        1137
         4        1113        1114        1139        1138
         4        1114        1115        1140        1139
         4        1115        1116        1141        1140
         4        1116        1117        1142        1141
         4        1117        1118        1143        1142
         4        1118        1119        1144        1143
         4        1119        1120        1145        1144
         4        1120        1121        1146        1145
         4        1121        1122        1147        1146
         4        1122        1123        1148        1147
         4        1123        1124        1149        1148
         4        1125        1126        1151        1150
         4        1126        1127        1152        1151
         4        1127        1128        1153        1152
         4        1128        1129        1154        1153
         4        1129        1130        1155        1154
         4        1130        1131        1156        1155
         4        1131        1132        1157        1156
         4        1132        1133        1158        1157
         4        1133        1134        1159        1158
         4        1134        1135        1160        1159
         4        1135        1136        1161        1160
         4        1136        1137        1162        1161
         4        1137        1138        1163        1162
         4        1138        1139        1164        1163
         4        1139        1140        1165        1164
         4        1140        1141        1166        1165
         4        1141        1142        1167        1166
         4        1142        1143        1168        1167
         4        1143        1144        1169        1168
         4        1144        1145        1170        1169
         4        1145        1146        1171        1170
         4        1146        1147        1172        1171
         4        1147        1148        1173        1172
         4        1148        1149        1174        1173
         4        1150        1151        1176        1175
         4        1151        1152        1177        1176
         4        1152        1153        1178        1177
         4        1153        1154        1179        1178
         4        1154        1155        1180        1179
         4        1155        1156        1181        1180
         4        1156        1157        1182        1181
         4        1157        1158        1183        1182
         4        1158        1159        1184        1183
         4        1159        1160        1185        1184
         4        1160        1161        1186        1185
         4        1161        1162        1187        1186
         4        1162        1163        1188        1187
         4        1163        1164        1189        1188
         4        1164        1165        1190        1189
         4        1165        1166        1191        1190
         4        1166        1167        1192        1191
         4        1167        1168        1193        1192
         4        1168        1169        1194        1193
         4        1169        1170        1195        1194
         4        1170        1171        1196        1195
         4        1171        1172        1197        1196
         4        1172        1173        1198        1197
         4        1173        1174        1199        1198
         4        1175        1176        1201        1200
         4        1176        1177        1202        1201
         4        1177        1178        1203        1202
         4        1178        1179        1204        1203
         4        1179        1180        1205        1204
         4        1180        1181        1206        1205
         4        1181        1182        1207        1206
         4        1182        1183        1208        1207
         4        1183        1184        1209        1208
         4        1184        1185        1210        1209
         4        1185        1186        1211        1210
         4        1186        1187        1212        1211
         4        1187        1188        1213        1212
         4        1188        1189        1214        1213
         4        1189        1190        1215        1214
         4        1190        1191        1216        1215
         4        1191        1192        1217        1216
         4        1192        1193        1218        1217
         4        1193        1194        1219        1218
         4        1194        1195        1220        1219
         4        1195        1196        1221        1220
         4        1196        1197        1222        1221
         4        1197        1198        1223        1222
         4        1198        1199        1224        1223
CELL_TYPES       1152
9
9
9
9
9
9
9
9
9
9
9
9
9
9
9
9
9
9
9
9
9
9
9
9
9
9
9
9
9
9
9
9
9
9
9
9
9
9
9
9
9
9
9
9
9
9
9
9
9
9
9
9
9
9
9
9
9
9
9
9
9
9
9
9
9
9
9
9
9
9
9
9
9
9
9
9
9
9
9
9
9
9
9
9
9
9
9
9
9
9
9
9
9
9
9
9
9
9
9
9
9
9
9
9
9
9
9
9
9
9
9
9
9
9
9
9
9
9
9
9
9
9
9
9
9
9
9
9
9
9
9
9
9
9
9
9
9
9
9
9
9
9
9
9
9
9
9
9
9
9
9
9
9
9
9
9
9
9
9
9
9
9
9
9
9
9
9
9
9
9
9
9
9
9
9
9
9
9
9
9
9
9
9
9
9
9
9
9
9
9
9
9
9
9
9
9
9
9
9
9
9
9
9
9
9
9
9
9
9
9
9
9
9
9
9
9
9
9
9
9
9
9
9
9
9
9
9
9
9
9
9
9
9
9
9
9
9
9
9
9
9
9
9
9
9
9
9
9
9
9
9
9
9
9
9
9
9
9
9
9
9
9
9
9
9
9
9
9
9
9
9
9
9
9
9
9
9
9
9
9
9
9
9
9
9
9
9
9
9
9
9
9
9
9
9
9
9
9
9
9
9
9
9
9
9
9
9
9
9
9
9
9
9
9
9
9
9
9
9
9
9
9
9
9
9
9
9
9
9
9
9
9
9
9
9
9
9
9
9
9
9
9
9
9
9
9
9
9
9
9
9
9
9
9
9
9
9
9
9
9
9
9
9
9
9
9
9
9
9
9
9
9
9
9
9
9
9
9
9
9
9
9
9
9
9
9
9
9
9
9
9
9
9
9
9
9
9
9
9
9
9
9
9
9
9
9
9
9
9
9
9
9
9
9
9
9
9
9
9
9
9
9
9
9
9
9
9
9
9
9
9
9
9
9
9
9
9
9
9
9
9
9
9
9
9
9
9
9
9
9
9
9
9
9
9
9
9
9
9
9
9
9
9
9
9
9
9
9
9
9
9
9
9
9
9
9
9
9
9
9
9
9
9
9
9
9
9
9
9
9
9
9
9
9
9
9
9
9
9
9
9
9
9
9
9
9
9
9
9
9
9
9
9
9
9
9
9
9
9
9
9
9
9
9
9
9
9
9
9
9
9
9
9
9
9
9
9
9
9
9
9
9
9
9
9
9
9
9
9
9
9
9
9
9
9
9
9
9
9
9
9
9
9
9
9
9
9
9
9
9
9
9
9
9
9
9
9
9
9
9
9
9
9
9
9
9
9
9
9
9
9
9
9
9
9
9
9
9
9
9
9
9
9
9
9
9
9
9
9
9
9
9
9
9
9
9
9
9
9
9
9
9
9
9
9
9
9
9
9
9
9
9
9
9
9
9
9
9
9
9
9
9
9
9
9
9
9
9
9
9
9
9
9
9
9
9
9
9
9
9
9
9
9
9
9
9
9
9
9
9
9
9
9
9
9
9
9
9
9
9
9
9
9
9
9
9
9
9
9
9
9
9
9
9
9
9
9
9
9
9
9
9
9
9
9
9
9
9
9
9
9
9
9
9
9
9
9
9
9
9
9
9
9
9
9
9
9
9
9
9
9
9
9
9
9
9
9
9
9
9
9
9
9
9
9
9
9
9
9
9
9
9
9
9
9
9
9
9
9
9
9
9
9
9
9
9
9
9
9
9
9
9
9
9
9
9
9
9
9
9
9
9
9
9
9
9
9
9
9
9
9
9
9
9
9
9
9
9
9
9
9
9
9
9
9
9
9
9
9
9
9
9
9
9
9
9
9
9
9
9
9
9
9
9
9
9
9
9
9
9
9
9
9
9
9
9
9
9
9
9
9
9
9
9
9
9
9
9
9
9
9
9
9
9
9
9
9
9
9
9
9
9
9
9
9
9
9
9
9
9
9
9
9
9
9
9
9
9
9
9
9
9
9
9
9
9
9
9
9
9
9
9
9
9
9
9
9
9
9
9
9
9
9
9
9
9
9
9
9
9
9
9
9
9
9
9
9
9
9
9
9
9
9
9
9
9
9
9
9
9
9
9
9
9
9
9
9
9
9
9
9
9
9
9
9
9
9
9
9
9
9
9
9
9
9
9
9
9
9
9
9
9
9
9
9
9
9
9
9
9
9
9
9
9
9
9
9
9
9
9
9
9
9
9
9
9
9
9
9
9
9
9
9
9
9
9
9
9
9
9
9
9
9
9
9
9
9
9
9
9
9
9
9
9
9
9
9
9
9
9
9
9
9
9
9
9
9
9
9
9
9
9
9
9
9
9
9
9
9
9
9
9
9
9
9
9
9
9
9
9
9
9
9
9
9
9
9
9
9
9
9
9
9
9
9
9
9
9
9
9
9
9
9
9
9
9
9
9
9
9
9
9
9
9
9
9
9
9
9
9
9
9
9
9
9
9
9
9
9
9
9
9
9
9
9
9
9
9
9
9
9
9
9
9
9
9
9
9
9
9
9
9
9
9
9
9
9
9
9
9
9
9
9
9
9
9
9
9
9
9
9
9
9
9
9
9
9
9
9
9
9
9
POINT_DATA      1225
SCALARS p double 
LOOKUP_TABLE default
  1.978449235310827E-014
  1.624274063319901E-014
  1.245951426029540E-014
  1.395850017595611E-014
  1.924390531021705E-014
  2.303744703948222E-014
  2.076670006183008E-014
  1.977310518385290E-014
  1.702337955980274E-014
  1.378659517046144E-014
  1.267326677061676E-014
  1.379708897158497E-014
  1.501614361281534E-014
  1.584623095491352E-014
  1.679780935330467E-014
  1.641837291847148E-014
  1.622938582494779E-014
  1.641981594492135E-014
  1.654104391528463E-014
  1.662931850880011E-014
  1.658892826352090E-014
  1.650062708710368E-014
  1.659773550999768E-014
  1.681889429645357E-014
  1.690507959354387E-014
  1.646323374646823E-014
  1.371720985498982E-014
  1.179128557929620E-014
  1.497757559802819E-014
  2.062417649996012E-014
  2.324950228612818E-014
  2.140466603097921E-014
  1.896728577399800E-014
  1.583637523675818E-014
  1.373706388935305E-014
  1.334939551828833E-014
  1.392709910810496E-014
  1.480428356019523E-014
  1.543669567180337E-014
  1.645433506590933E-014
  1.633320821326700E-014
  1.620635541958624E-014
  1.630583155592306E-014
  1.661471430676322E-014
  1.664751467483823E-014
  1.650917541164727E-014
  1.655622376610559E-014
  1.659336203253181E-014
  1.678602860509803E-014
  1.687657517450641E-014
  7.213379248473454E-015
  8.661389883922166E-015
  1.147359193879605E-014
  1.389533038874187E-014
  1.873861825698865E-014
  1.971261979671788E-014
  1.949846866751996E-014
  1.794677424413104E-014
  1.466879523163500E-014
  1.311521936830938E-014
  1.348333746442802E-014
  1.359433011165005E-014
  1.421610638510131E-014
  1.535872582750342E-014
  1.626551097942200E-014
  1.622719612079295E-014
  1.615400157267937E-014
  1.629963509497560E-014
  1.642850574994897E-014
  1.650238002972526E-014
  1.630353701834883E-014
  1.650130757527047E-014
  1.670598713207835E-014
  1.673698846898834E-014
  1.678423000047476E-014
  0.000000000000000E+000
  4.338610432252234E-015
  8.189488203803046E-015
  1.316520339124076E-014
  1.660258813693935E-014
  1.666565909988985E-014
  1.691875654117828E-014
  1.579315022039764E-014
  1.448217243254490E-014
  1.374948909049436E-014
  1.353235899101129E-014
  1.467462596713531E-014
  1.461073599694742E-014
  1.515357894580651E-014
  1.570107065747603E-014
  1.590829412585422E-014
  1.615603715719957E-014
  1.602378999186636E-014
  1.600969081673033E-014
  1.630431707178902E-014
  1.630372199055818E-014
  1.645719532147433E-014
  1.669281281468130E-014
  1.670159221304107E-014
  1.672450749420687E-014
  0.000000000000000E+000
  2.085455443103327E-015
  5.954147183449160E-015
  1.140807158465910E-014
  1.434451890715896E-014
  1.456413116521900E-014
  1.464068895874456E-014
  1.493434790768205E-014
  1.451106425798033E-014
  1.432873224976586E-014
  1.406854489313705E-014
  1.449692555170689E-014
  1.534284405665346E-014
  1.562282400932973E-014
  1.537959778348917E-014
  1.570122633631713E-014
  1.572907033237950E-014
  1.560331807858169E-014
  1.596315342180680E-014
  1.614150902564555E-014
  1.644995024150432E-014
  1.649945284733639E-014
  1.652999253788645E-014
  1.663670706167440E-014
  1.662994344607273E-014
  0.000000000000000E+000
  2.803477080505181E-015
  6.193993814177257E-015
  8.954873149171957E-015
  1.129026751912478E-014
  1.211305473039309E-014
  1.316217462232326E-014
  1.518612328946821E-014
  1.537315793591420E-014
  1.470367413734029E-014
  1.396383331133984E-014
  1.469892009761555E-014
  1.611929234206880E-014
  1.592675241393831E-014
  1.527610921813795E-014
  1.500071233487398E-014
  1.524861472107274E-014
  1.544777801656702E-014
  1.568935211483048E-014
  1.591123135678630E-014
  1.612933261344498E-014
  1.633984268481869E-014
  1.641026685669977E-014
  1.645875760684315E-014
  1.646233103946084E-014
  0.000000000000000E+000
  2.139912431535788E-015
  4.330024463146750E-015
  6.119744828848114E-015
  7.789226720757723E-015
  9.982589329935774E-015
  1.214957536258717E-014
  1.400888307382973E-014
  1.494685051567725E-014
  1.447178960525528E-014
  1.435753774481156E-014
  1.498581527652894E-014
  1.596487002041473E-014
  1.561732270409548E-014
  1.514979084957619E-014
  1.479703587150315E-014
  1.465744106067830E-014
  1.496289951299965E-014
  1.511174144641215E-014
  1.550232208975313E-014
  1.585254319244120E-014
  1.592725943793731E-014
  1.602670146750184E-014
  1.616690388662354E-014
  1.622036343028523E-014
  0.000000000000000E+000
  1.555624048815160E-015
  3.284230152182690E-015
  5.722613465409107E-015
  6.736165997111017E-015
  7.769850778867965E-015
  9.758447875189680E-015
  1.170387112216317E-014
  1.346698077206117E-014
  1.367155197953872E-014
  1.374838303147064E-014
  1.441896153168977E-014
  1.486242730779876E-014
  1.496598692670827E-014
  1.443357285631341E-014
  1.409035160190703E-014
  1.395914640939212E-014
  1.441840949244212E-014
  1.488069378135011E-014
  1.520670167951450E-014
  1.544560214256701E-014
  1.559924092362009E-014
  1.572535086877621E-014
  1.586931372489459E-014
  1.594545576097625E-014
  0.000000000000000E+000
  2.145351456121154E-015
  3.721332040109649E-015
  5.494293626478717E-015
  6.620094568476868E-015
  7.505601952145052E-015
  9.093639528627360E-015
  1.065363381799494E-014
  1.282801399714210E-014
  1.333188688999966E-014
  1.290731364852149E-014
  1.393153033119318E-014
  1.372099688258922E-014
  1.376005592865098E-014
  1.395030553439284E-014
  1.361380794003241E-014
  1.364775181488939E-014
  1.425697908404011E-014
  1.473957569926529E-014
  1.506872504010367E-014
  1.529874787516938E-014
  1.543363171833831E-014
  1.559721245527682E-014
  1.567833040886959E-014
  1.570943354432173E-014
  0.000000000000000E+000
  1.958779004567588E-015
  3.591703531071607E-015
  5.134002659424318E-015
  6.728271152137340E-015
  8.356904426265916E-015
  1.027408104152127E-014
  1.108645185868818E-014
  1.235793270429570E-014
  1.225278683090849E-014
  1.238503962647354E-014
  1.269058957668515E-014
  1.243229126442977E-014
  1.276378745134051E-014
  1.312214313089840E-014
  1.319263192635752E-014
  1.330046438881654E-014
  1.379476350221396E-014
  1.461380242318945E-014
  1.508137005373666E-014
  1.537398918877629E-014
  1.541279033419371E-014
  1.552544273204501E-014
  1.553603565962787E-014
  1.554254105053777E-014
  0.000000000000000E+000
  1.466435981353489E-015
  3.216900868994409E-015
  4.874631626044887E-015
  6.336179224231592E-015
  7.823542314905257E-015
  9.725920936680124E-015
  1.057613772913317E-014
  1.077569689228563E-014
  1.093799654742487E-014
  1.112721493356322E-014
  1.127510436851688E-014
  1.157715038213163E-014
  1.196608170527551E-014
  1.221627942528271E-014
  1.238434882625837E-014
  1.272810296239233E-014
  1.365983326391164E-014
  1.422562213606449E-014
  1.465059082544071E-014
  1.502081111387903E-014
  1.537754250205906E-014
  1.543835823629092E-014
  1.541194937995284E-014
  1.539419975882278E-014
  0.000000000000000E+000
  1.373015804041437E-015
  2.950783599633942E-015
  4.587677655920934E-015
  5.640125094681921E-015
  7.069098472137780E-015
  8.256970508032649E-015
  9.124085756681842E-015
  9.708639180546131E-015
  9.882586898869541E-015
  1.039328010774034E-014
  1.064703429957359E-014
  1.069726421296073E-014
  1.121992276312196E-014
  1.155800222768581E-014
  1.182425627629446E-014
  1.244198922409647E-014
  1.333648156270481E-014
  1.373786432312386E-014
  1.423867398098114E-014
  1.464997948746036E-014
  1.520880068243187E-014
  1.531165871278601E-014
  1.523292489722555E-014
  1.519739905929381E-014
  0.000000000000000E+000
  1.393261491365199E-015
  2.766508611114872E-015
  4.511025137220306E-015
  5.914534741558681E-015
  6.380576269274418E-015
  7.249368363577226E-015
  8.429044019447940E-015
  9.011382300684917E-015
  9.493201556610767E-015
  1.003011989577165E-014
  1.060768637417700E-014
  1.112199697469073E-014
  1.107242196285367E-014
  1.096898844181356E-014
  1.179078401683099E-014
  1.247726838041197E-014
  1.286826177977286E-014
  1.335089828407703E-014
  1.411047321762353E-014
  1.458639589094328E-014
  1.489168745376484E-014
  1.502023824659094E-014
  1.492862320192574E-014
  1.490565360795812E-014
  0.000000000000000E+000
  1.299163817282465E-015
  2.715609164297503E-015
  3.940495766857102E-015
  5.347627843173417E-015
  6.260454646543335E-015
  6.993559970330608E-015
  7.673390353148349E-015
  8.475214888237570E-015
  9.292646549100224E-015
  9.833508996205436E-015
  1.040412933588120E-014
  1.060459326798463E-014
  1.102797831322374E-014
  1.136381012405235E-014
  1.185228579341819E-014
  1.251856749196044E-014
  1.297134865159809E-014
  1.333254768591241E-014
  1.369574908158647E-014
  1.424604545174573E-014
  1.436841736038437E-014
  1.449477819077145E-014
  1.454936219536470E-014
  1.453759194637124E-014
  0.000000000000000E+000
  1.215127562199508E-015
  2.570476510399826E-015
  4.041050670509877E-015
  5.418317861672762E-015
  6.066732219412745E-015
  6.850434805076063E-015
  7.220961467796409E-015
  7.858421603772171E-015
  8.427891563704560E-015
  9.177267145189389E-015
  1.013449420968393E-014
  1.019107396398689E-014
  1.078863421576741E-014
  1.164994718200403E-014
  1.214903314393700E-014
  1.268182182260850E-014
  1.289644265865572E-014
  1.304333625669177E-014
  1.343213761231878E-014
  1.369432178659731E-014
  1.383688521943488E-014
  1.401181764239271E-014
  1.410413719195779E-014
  1.412805368414439E-014
  0.000000000000000E+000
  1.237076796798581E-015
  2.461460568355212E-015
  3.904932710299341E-015
  4.942280657403984E-015
  5.745506623048951E-015
  6.225920836323779E-015
  7.007725392444464E-015
  7.319838252372097E-015
  7.686653636475025E-015
  8.969921867492317E-015
  9.635474548600865E-015
  9.896637539346109E-015
  1.042162475115226E-014
  1.116570536080730E-014
  1.176101825723230E-014
  1.223338752731024E-014
  1.252254877432562E-014
  1.265957995707330E-014
  1.288963589838863E-014
  1.322495621727054E-014
  1.348045733491453E-014
  1.361860020499589E-014
  1.367588253507460E-014
  1.366825268144556E-014
  0.000000000000000E+000
  1.163191558587605E-015
  2.353480455860029E-015
  3.445536884014494E-015
  4.372836060589440E-015
  5.051941137545518E-015
  5.569232447096067E-015
  6.541527744160347E-015
  7.357133704767495E-015
  8.148671090906541E-015
  8.942580589477561E-015
  9.254580037618048E-015
  9.321750499531370E-015
  1.004969735150799E-014
  1.073196241434823E-014
  1.131699093887617E-014
  1.161099750367632E-014
  1.207466301301926E-014
  1.217461703565119E-014
  1.248274851744292E-014
  1.275840892757332E-014
  1.306306825898247E-014
  1.321903281258785E-014
  1.324619657842337E-014
  1.323132571349928E-014
  0.000000000000000E+000
  1.070884657152839E-015
  2.160722191072059E-015
  3.109095313317047E-015
  3.981654784190162E-015
  4.735650436425603E-015
  5.335646409096514E-015
  5.945672197063370E-015
  7.266099801763469E-015
  8.051287254119316E-015
  8.309550288927430E-015
  8.632872695092393E-015
  8.892722074488187E-015
  9.510443293800031E-015
  1.048986424927015E-014
  1.106505899425394E-014
  1.129079086270414E-014
  1.155970006345039E-014
  1.194896967110912E-014
  1.208746747698535E-014
  1.223104837650588E-014
  1.253147483691785E-014
  1.271099456959842E-014
  1.276520104923726E-014
  1.275224333374217E-014
  0.000000000000000E+000
  1.025398416362272E-015
  2.001581859223324E-015
  3.052251736162445E-015
  3.667950723325314E-015
  4.410155502367244E-015
  5.176587208852287E-015
  5.951299848322916E-015
  6.705311516056823E-015
  7.276798241587795E-015
  7.652224718176915E-015
  8.003662584278741E-015
  8.477650791672320E-015
  9.115562430746140E-015
  9.659308285093110E-015
  1.028262709370834E-014
  1.103122362838947E-014
  1.122122860149746E-014
  1.143985921866437E-014
  1.158173648790565E-014
  1.178769691786725E-014
  1.200061711407546E-014
  1.211970874519187E-014
  1.213460019326046E-014
  1.214100444744914E-014
  0.000000000000000E+000
  9.970087143145673E-016
  1.809607353909342E-015
  2.362611395998089E-015
  3.251789957006390E-015
  4.038304606730317E-015
  4.890537550181514E-015
  5.865619385549955E-015
  6.397931439488056E-015
  6.935954275823082E-015
  7.215976020510289E-015
  7.327057046383366E-015
  7.828655352617020E-015
  8.885514626326739E-015
  9.334517937149079E-015
  9.772059040875116E-015
  1.034088438676602E-014
  1.090297936664618E-014
  1.120958822348590E-014
  1.131035805607108E-014
  1.149963960547597E-014
  1.147688226046324E-014
  1.148294935713526E-014
  1.150915699457428E-014
  1.154642309078391E-014
  0.000000000000000E+000
  7.005206956932098E-016
  1.385403772617461E-015
  1.991443983955599E-015
  2.894887445769095E-015
  3.727825104386618E-015
  4.505269665035365E-015
  5.167199303418560E-015
  5.884399710832240E-015
  6.232837869238280E-015
  6.299214678358960E-015
  6.630830893231392E-015
  7.350681919043920E-015
  8.238923223383456E-015
  8.937097660131563E-015
  9.341896299463211E-015
  9.825015304747143E-015
  1.039490887907849E-014
  1.075048765934924E-014
  1.081185278321849E-014
  1.094507671520406E-014
  1.087228379125126E-014
  1.087566092247658E-014
  1.091397783540320E-014
  1.093757121794148E-014
  0.000000000000000E+000
  6.144398442238605E-016
  1.160696729447671E-015
  2.089715376541926E-015
  2.737269594597502E-015
  3.455100116697987E-015
  4.121660096951006E-015
  4.722906932192800E-015
  5.348787295032675E-015
  5.518450325674036E-015
  5.752194464256106E-015
  6.390371075547295E-015
  7.179007904207092E-015
  7.841213120347186E-015
  8.367780043939644E-015
  8.995732701416133E-015
  9.476158522266954E-015
  9.613926554639721E-015
  9.848463061260782E-015
  1.000532371017236E-014
  1.020390392014821E-014
  1.030979633363234E-014
  1.032505926475262E-014
  1.030889855109443E-014
  1.031965423608956E-014
  0.000000000000000E+000
  4.412427117333609E-016
  1.143148159955968E-015
  1.857905880214719E-015
  2.527454059591467E-015
  3.197172153530728E-015
  3.946626701969009E-015
  4.300677217165720E-015
  4.582185004468471E-015
  5.155857560823840E-015
  5.868417791659372E-015
  6.550105146147858E-015
  6.964280652843797E-015
  7.515335833242551E-015
  7.879573880190852E-015
  8.442858662446724E-015
  8.773212727183957E-015
  9.003389587684206E-015
  9.171309857472573E-015
  9.357760095226527E-015
  9.492350299752328E-015
  9.672360821361982E-015
  9.771608672376830E-015
  9.767843552105799E-015
  9.767119849932303E-015
  0.000000000000000E+000
  2.374570550332237E-016
  1.116673353983597E-015
  1.786569788709699E-015
  2.310016539451015E-015
  2.857414403316223E-015
  3.585556663679625E-015
  3.910794241540768E-015
  4.111440821086421E-015
  4.822385163166401E-015
  5.403380674485764E-015
  5.825345801352211E-015
  6.307968052578110E-015
  6.835466261758377E-015
  7.263059518094582E-015
  7.768598939269659E-015
  8.241555575981108E-015
  8.460337475083183E-015
  8.588678153042077E-015
  8.822396800845671E-015
  8.971082614858822E-015
  9.090889024311598E-015
  9.185460081740937E-015
  9.184096784411950E-015
  9.165323111185211E-015
  0.000000000000000E+000
  6.296203839180546E-016
  1.263975529565206E-015
  1.898384324721179E-015
  2.181937548278934E-015
  2.473931474823438E-015
  2.911954034191658E-015
  3.572322025807107E-015
  4.083892017147638E-015
  4.506069449267156E-015
  4.942722453847603E-015
  5.300249465284010E-015
  5.812151954845272E-015
  6.340273795401196E-015
  6.722535436219465E-015
  7.266371605736699E-015
  7.782352793576934E-015
  7.849114990759545E-015
  8.018026947640167E-015
  8.338721703568318E-015
  8.471263914144693E-015
  8.519488968054849E-015
  8.532608797615814E-015
  8.545618793393958E-015
  8.547698979669538E-015
  0.000000000000000E+000
  7.011585097959008E-016
  1.205465861096956E-015
  1.606754946225858E-015
  1.991643093962173E-015
  2.482005618849131E-015
  2.700669256688354E-015
  3.288062891490683E-015
  3.843381350490953E-015
  4.271291442800533E-015
  4.627863946788402E-015
  5.024141601003364E-015
  5.535940188101632E-015
  6.069544723261648E-015
  6.565938279002295E-015
  6.880275014628494E-015
  7.109133475062014E-015
  7.301647920273671E-015
  7.519700372433272E-015
  7.741704188384449E-015
  7.804626768227979E-015
  7.906432464350042E-015
  7.955461551774490E-015
  7.955953782832826E-015
  7.946167998120582E-015
  0.000000000000000E+000
  6.008670398071763E-016
  9.962246835155278E-016
  1.369373597167100E-015
  1.903422683374760E-015
  2.376302216461301E-015
  2.869669375949542E-015
  3.292782231294280E-015
  3.843255684655953E-015
  4.160535601748348E-015
  4.279131638890096E-015
  4.706610336848022E-015
  5.293190224261806E-015
  5.742769681632948E-015
  6.199650230848393E-015
  6.435562384704971E-015
  6.560414630799845E-015
  6.717195982540949E-015
  7.052719480188403E-015
  7.150620644006107E-015
  7.262222861119764E-015
  7.332310336275049E-015
  7.347647065866281E-015
  7.364548451796233E-015
  7.366439745837124E-015
  0.000000000000000E+000
  4.864507597793707E-016
  8.809796581054641E-016
  1.231890001982768E-015
  1.490146345471342E-015
  2.105383085885467E-015
  2.591617637154157E-015
  3.025580742027668E-015
  3.538489906656344E-015
  3.926525954840740E-015
  4.156559841003447E-015
  4.490057104637127E-015
  4.928096166083441E-015
  5.332255579763793E-015
  5.643086823374366E-015
  5.898465719831670E-015
  6.067596682006629E-015
  6.295141828844804E-015
  6.523122013292114E-015
  6.679199681874134E-015
  6.828413272177140E-015
  6.797411484925686E-015
  6.776958244626892E-015
  6.798704043819893E-015
  6.821242005383891E-015
  0.000000000000000E+000
  4.772767454043198E-016
  7.101864002647615E-016
  8.924233072540563E-016
  1.327945233810765E-015
  1.841584074396855E-015
  2.392300461358049E-015
  2.856309524581728E-015
  3.258990904987487E-015
  3.654078569630288E-015
  3.969479411966679E-015
  4.241893015906542E-015
  4.527271301386168E-015
  4.955814952339823E-015
  5.254492519633912E-015
  5.400870912651708E-015
  5.624883371833169E-015
  5.867194083322252E-015
  6.098468624550521E-015
  6.222157697725693E-015
  6.341695233307871E-015
  6.316906011763714E-015
  6.342161668678892E-015
  6.336329180436741E-015
  6.339010005774867E-015
  0.000000000000000E+000
  4.757291416586139E-016
  6.896307253567034E-016
  1.143992697135358E-015
  1.528238566584927E-015
  1.935066766210076E-015
  2.520500541458270E-015
  3.114819312128189E-015
  3.428965426804038E-015
  3.585021606861166E-015
  3.761507388550852E-015
  3.880643683640944E-015
  4.228762285586369E-015
  4.671112602626708E-015
  5.036178825370267E-015
  5.233113005544293E-015
  5.385110365412177E-015
  5.467536718128544E-015
  5.651845662048940E-015
  5.773460596360128E-015
  5.809683531132519E-015
  5.881143574929160E-015
  5.936949274993744E-015
  5.904620022763333E-015
  5.888031644406167E-015
  0.000000000000000E+000
  3.220444446530530E-016
  6.841739317074043E-016
  1.204376914151758E-015
  1.716798537379757E-015
  2.177459873210355E-015
  2.533935797980181E-015
  2.980564145163318E-015
  3.352903374145385E-015
  3.471122780422514E-015
  3.636959607564912E-015
  3.905124072762297E-015
  4.219952408372611E-015
  4.469806302732022E-015
  4.821216420774825E-015
  5.165963878218819E-015
  5.185560281412458E-015
  5.215287349940671E-015
  5.300082762372387E-015
  5.343773352647842E-015
  5.351264802117364E-015
  5.462186204875090E-015
  5.503235702413279E-015
  5.482472664928599E-015
  5.473688714660927E-015
  0.000000000000000E+000
  3.196330117718841E-016
  6.058793789918431E-016
  9.754292781655220E-016
  1.377589856466472E-015
  2.136948393954252E-015
  2.545291680258677E-015
  2.637740089832557E-015
  2.971571736651700E-015
  3.276493270803840E-015
  3.429351967861038E-015
  3.852710146966201E-015
  4.101636066267836E-015
  4.299829640461531E-015
  4.577994680202075E-015
  4.768931119061304E-015
  4.799051545706572E-015
  4.823180771293146E-015
  4.929851286077780E-015
  4.960733100820325E-015
  4.994777175371563E-015
  5.056275264405348E-015
  5.062935933980094E-015
  5.089311553815013E-015
  5.089498139856747E-015
  0.000000000000000E+000
  5.538549908644350E-017
  3.820266961270251E-016
  8.941442477155779E-016
  1.348423329927845E-015
  1.781098025173807E-015
  2.188486253296462E-015
  2.381488263526611E-015
  2.616101437488532E-015
  3.119720571169612E-015
  3.311192494936551E-015
  3.584576264367971E-015
  3.895926184344605E-015
  4.115648103382322E-015
  4.240440151226045E-015
  4.313004597037211E-015
  4.365705780884591E-015
  4.444820356463710E-015
  4.520499967554104E-015
  4.601653640117006E-015
  4.639092205574999E-015
  4.675287316183657E-015
  4.700384067148566E-015
  4.725298275387543E-015
  4.732458326355414E-015
  0.000000000000000E+000
 -2.820824969734974E-017
  2.721850709114415E-016
  5.607679499204369E-016
  1.170281811738341E-015
  1.578447640730231E-015
  1.964842420039001E-015
  2.245604951667591E-015
  2.389370345789586E-015
  2.823668974201425E-015
  3.090281285528843E-015
  3.493241034409599E-015
  3.872901994637913E-015
  3.937822420513193E-015
  3.922149796104236E-015
  3.937269044162566E-015
  4.044606227193103E-015
  4.187888085653691E-015
  4.179306668935765E-015
  4.234583969117355E-015
  4.281353148360956E-015
  4.328038032668580E-015
  4.367836048334419E-015
  4.392985679376384E-015
  4.396922364773751E-015
  0.000000000000000E+000
  1.277529493743093E-016
  2.135690917674985E-016
  5.283634694710258E-016
  9.497908774530380E-016
  1.259021660457227E-015
  1.678518193811163E-015
  1.963430903984648E-015
  2.179020596208349E-015
  2.286158889707770E-015
  2.705324553635342E-015
  3.137977847374966E-015
  3.509376426579434E-015
  3.587690605126750E-015
  3.612024856533978E-015
  3.751330361427199E-015
  3.803827409926823E-015
  3.807646984201775E-015
  3.793680513895030E-015
  3.854709502401550E-015
  3.927701687951137E-015
  4.012740436862869E-015
  4.046931059263749E-015
  4.064075882894209E-015
  4.072613099364356E-015
  0.000000000000000E+000
  1.865100563505772E-016
  2.813810193370988E-016
  5.020601641605092E-016
  7.742105293987879E-016
  9.187887656379442E-016
  1.046717086569036E-015
  1.370155099379868E-015
  1.687125225457946E-015
  1.880842420939744E-015
  2.351286041931237E-015
  2.662673552504488E-015
  2.948740420211194E-015
  3.109888705617589E-015
  3.218767435530598E-015
  3.404113460327207E-015
  3.383862626900282E-015
  3.400030740127930E-015
  3.443592860372658E-015
  3.492943431052728E-015
  3.576908839339923E-015
  3.655689768483194E-015
  3.718723327262481E-015
  3.746948741852263E-015
  3.757124521824248E-015
  0.000000000000000E+000
  1.614925368817240E-016
  3.431270790189065E-016
  3.674134209688800E-016
  4.040783404691246E-016
  5.025181733778112E-016
  6.935679826043837E-016
  9.030259957205443E-016
  1.131647785453851E-015
  1.580904233065258E-015
  1.969246074509979E-015
  2.314749972782637E-015
  2.512592140761320E-015
  2.768314277547818E-015
  2.892398515924584E-015
  2.922337606194949E-015
  3.049309155290031E-015
  3.169752515000586E-015
  3.231436067906404E-015
  3.212773587451397E-015
  3.237352039124940E-015
  3.330089805985568E-015
  3.404741065887216E-015
  3.447079775245579E-015
  3.453058959716261E-015
  0.000000000000000E+000
  6.555904494702573E-017
  2.068073475576020E-016
  2.147585425596861E-016
  2.334889414291226E-016
  4.350058484147210E-016
  5.648272461916035E-016
  7.493568054771250E-016
  9.774654495626497E-016
  1.385578973751587E-015
  1.700629176605855E-015
  1.951977725366903E-015
  2.187449033982371E-015
  2.363487239883752E-015
  2.520016115348704E-015
  2.645913642060726E-015
  2.757647394065744E-015
  2.905629948174921E-015
  2.935544513197789E-015
  2.954150912828701E-015
  2.984465286251326E-015
  3.037492299464272E-015
  3.109551373814499E-015
  3.150347861471482E-015
  3.163287305035777E-015
  0.000000000000000E+000
  3.302063354851666E-017
  1.466002527391555E-016
  1.579838616507357E-016
  2.484017525450329E-016
  4.462726585140701E-016
  5.818997325755794E-016
  7.019213143239319E-016
  9.819100929591208E-016
  1.256879724362853E-015
  1.488049047063061E-015
  1.609697117068548E-015
  1.774527000116253E-015
  1.915992096568436E-015
  2.167663179759881E-015
  2.361982369863270E-015
  2.469236303561674E-015
  2.558599102303492E-015
  2.632334325726554E-015
  2.683540217926429E-015
  2.742812527116975E-015
  2.780278371599445E-015
  2.840200331584313E-015
  2.881423845936870E-015
  2.895127098560790E-015
  0.000000000000000E+000
  1.462332471570591E-016
  1.559372474525404E-016
  2.795886824133325E-016
  3.276916736341034E-016
  3.426964564222346E-016
  5.477850339461612E-016
  7.667793363244317E-016
  9.408043124336706E-016
  1.150517433466784E-015
  1.335906622326395E-015
  1.450514022191188E-015
  1.542651397721773E-015
  1.711197153141873E-015
  1.936803986357509E-015
  2.111367466300901E-015
  2.234703285877307E-015
  2.255601248717217E-015
  2.276288926187053E-015
  2.380047794487030E-015
  2.484630524491066E-015
  2.565682875567250E-015
  2.604199514104510E-015
  2.639064787311620E-015
  2.654724126975722E-015
  0.000000000000000E+000
  1.708875291031828E-016
  2.297134401385419E-016
  3.527197208532584E-016
  4.503695271485002E-016
  5.233205062745349E-016
  6.224283107635415E-016
  7.513917710956185E-016
  9.125378059341602E-016
  1.082843909795350E-015
  1.241714780568798E-015
  1.395126566721436E-015
  1.477800506554045E-015
  1.593811272296194E-015
  1.709859479533566E-015
  1.903716405112229E-015
  1.989014639494419E-015
  2.008051145089308E-015
  2.012206033542716E-015
  2.145993220128935E-015
  2.279396917732804E-015
  2.359109650963089E-015
  2.392678945221704E-015
  2.428502722839873E-015
  2.444374484804780E-015
  0.000000000000000E+000
  5.895259854349302E-017
  1.876752900775980E-016
  3.286990725799391E-016
  4.482637235726968E-016
  5.843092032105066E-016
  6.230237191100464E-016
  6.978436104487522E-016
  8.392549906531683E-016
  1.013243726979151E-015
  1.197308852192024E-015
  1.339842958288443E-015
  1.450431974223226E-015
  1.508460860851245E-015
  1.670819958916262E-015
  1.755263044306050E-015
  1.788281993045969E-015
  1.882145366233325E-015
  1.988664591940000E-015
  2.076082488514828E-015
  2.143598670094127E-015
  2.197059492935633E-015
  2.227866715102428E-015
  2.253140142756029E-015
  2.264901649925564E-015
  0.000000000000000E+000
 -3.633902405904221E-017
  1.071346818909501E-016
  2.157122363657165E-016
  3.033565308962067E-016
  4.272334793032653E-016
  5.056502886362596E-016
  6.044626886761819E-016
  7.543353078703747E-016
  9.140582191419594E-016
  1.099383519329876E-015
  1.215185023494183E-015
  1.360492312064738E-015
  1.475873294410533E-015
  1.597263464210955E-015
  1.636271154784622E-015
  1.698432209815949E-015
  1.790925190325363E-015
  1.903740421696338E-015
  1.975800449344475E-015
  2.060694218593615E-015
  2.085187321029083E-015
  2.098178111139587E-015
  2.109422834002679E-015
  2.118963029972374E-015
  0.000000000000000E+000
 -2.510300385808348E-017
  8.700662621248665E-018
  8.119908923591599E-017
  1.895040312088529E-016
  3.401826087422159E-016
  4.416687145809404E-016
  5.395077852141490E-016
  6.833668216584941E-016
  8.123167703440238E-016
  9.942234706086472E-016
  1.143150859707927E-015
  1.266509689778835E-015
  1.369840579188898E-015
  1.466214965104960E-015
  1.527074485001430E-015
  1.575329707549503E-015
  1.679663929807385E-015
  1.773072881104198E-015
  1.848642063773784E-015
  1.924091081336746E-015
  1.956865365302364E-015
  1.976427067081795E-015
  1.991900749940734E-015
  1.998830266469454E-015
  0.000000000000000E+000
 -3.673101762261938E-018
 -9.198673105857050E-018
  7.543678479870310E-017
  1.851890924188254E-016
  3.258674990038417E-016
  4.429146224502948E-016
  5.056966522232215E-016
  6.497512337329797E-016
  7.970410472987300E-016
  9.566443029220616E-016
  1.072986726155197E-015
  1.195063648487589E-015
  1.281375981632675E-015
  1.347643256072947E-015
  1.436315142921848E-015
  1.494257420488245E-015
  1.554408983880135E-015
  1.655169952726432E-015
  1.750939015088346E-015
  1.796754055862152E-015
  1.835399755149046E-015
  1.874776074304687E-015
  1.895617916253006E-015
  1.898517922817251E-015
  0.000000000000000E+000
  1.100184955511159E-017
  3.521741555025728E-018
  8.980085657606245E-017
  1.995317889799417E-016
  3.058612465597076E-016
  3.896880363946025E-016
  4.883653296509928E-016
  5.988091588691063E-016
  7.544416212283036E-016
  8.770176682875817E-016
  9.987481095475157E-016
  1.112378388382606E-015
  1.212953872646674E-015
  1.276175980908350E-015
  1.359081682949090E-015
  1.444369461138253E-015
  1.498327280321853E-015
  1.575710865681275E-015
  1.674365027636731E-015
  1.727145978490218E-015
  1.767143131495845E-015
  1.790179623748502E-015
  1.812005390875098E-015
  1.823631821938240E-015
  0.000000000000000E+000
  2.628796096871866E-017
  2.874900061151311E-017
  1.068628298807022E-016
  2.352050138805939E-016
  2.906159042916923E-016
  3.539076189976798E-016
  4.639824997158924E-016
  5.427031016262226E-016
  6.807023905023013E-016
  8.013273900575741E-016
  9.438180708184653E-016
  1.047085327821579E-015
  1.186506988662217E-015
  1.277873496079945E-015
  1.321756578095018E-015
  1.391795054947798E-015
  1.489724848041712E-015
  1.565919288634323E-015
  1.636737503078917E-015
  1.683373828518929E-015
  1.715486881983312E-015
  1.745034144749145E-015
  1.767050908580642E-015
  1.776525079380809E-015
  0.000000000000000E+000
  5.754981278714032E-017
  1.261087874199960E-016
  1.982277586264302E-016
  2.445576141891999E-016
  2.909147980835141E-016
  3.427823325232705E-016
  4.224712590412727E-016
  5.158026295602991E-016
  6.579417143792038E-016
  7.815479152153612E-016
  9.114548830737578E-016
  1.025677991464233E-015
  1.145975134244032E-015
  1.232125944779807E-015
  1.292527653458306E-015
  1.351301598609474E-015
  1.446422833999928E-015
  1.546467125275816E-015
  1.610490194117973E-015
  1.652087565859112E-015
  1.681517427329425E-015
  1.719100605103569E-015
  1.741816190383511E-015
  1.744044989893037E-015
  0.000000000000000E+000
  7.914968306563637E-017
  1.458169182075529E-016
  2.150384310742954E-016
  2.391604618791188E-016
  2.916690732845866E-016
  3.465090130401158E-016
  4.137922035151989E-016
  5.144125542277755E-016
  6.508767238854622E-016
  7.814017255805619E-016
  9.031235609148902E-016
  1.027381398239647E-015
  1.131002283836295E-015
  1.216902245660098E-015
  1.283001625212446E-015
  1.326651830102802E-015
  1.427135524519856E-015
  1.536885022632865E-015
  1.613091237869632E-015
  1.646265449830330E-015
  1.670738038394659E-015
  1.708628426087210E-015
  1.731549182448955E-015
  1.734719576076587E-015
VECTORS u double 
    0.00000E+00        -0.74038E+00         0.00000E+00
    0.00000E+00        -0.69738E+00         0.00000E+00
    0.00000E+00        -0.63656E+00         0.00000E+00
    0.00000E+00        -0.56776E+00         0.00000E+00
    0.00000E+00        -0.49934E+00         0.00000E+00
    0.00000E+00        -0.43603E+00         0.00000E+00
    0.00000E+00        -0.37960E+00         0.00000E+00
    0.00000E+00        -0.33016E+00         0.00000E+00
    0.00000E+00        -0.28690E+00         0.00000E+00
    0.00000E+00        -0.24878E+00         0.00000E+00
    0.00000E+00        -0.21497E+00         0.00000E+00
    0.00000E+00        -0.18479E+00         0.00000E+00
    0.00000E+00        -0.15783E+00         0.00000E+00
    0.00000E+00        -0.13385E+00         0.00000E+00
    0.00000E+00        -0.11263E+00         0.00000E+00
    0.00000E+00        -0.93929E-01         0.00000E+00
    0.00000E+00        -0.77457E-01         0.00000E+00
    0.00000E+00        -0.63022E-01         0.00000E+00
    0.00000E+00        -0.50422E-01         0.00000E+00
    0.00000E+00        -0.39388E-01         0.00000E+00
    0.00000E+00        -0.29678E-01         0.00000E+00
    0.00000E+00        -0.20974E-01         0.00000E+00
    0.00000E+00        -0.13148E-01         0.00000E+00
    0.00000E+00        -0.61552E-02         0.00000E+00
    0.00000E+00         0.00000E+00         0.00000E+00
   -0.11925E-01        -0.71830E+00         0.00000E+00
    0.31925E-01        -0.67387E+00         0.00000E+00
    0.58397E-01        -0.61143E+00         0.00000E+00
    0.67910E-01        -0.54480E+00         0.00000E+00
    0.66625E-01        -0.48054E+00         0.00000E+00
    0.60326E-01        -0.42140E+00         0.00000E+00
    0.52458E-01        -0.36838E+00         0.00000E+00
    0.44965E-01        -0.32142E+00         0.00000E+00
    0.38755E-01        -0.27994E+00         0.00000E+00
    0.33730E-01        -0.24319E+00         0.00000E+00
    0.29590E-01        -0.21045E+00         0.00000E+00
    0.26019E-01        -0.18119E+00         0.00000E+00
    0.22680E-01        -0.15506E+00         0.00000E+00
    0.19545E-01        -0.13175E+00         0.00000E+00
    0.16625E-01        -0.11106E+00         0.00000E+00
    0.13959E-01        -0.92779E-01         0.00000E+00
    0.11635E-01        -0.76672E-01         0.00000E+00
    0.93747E-02        -0.62523E-01         0.00000E+00
    0.75053E-02        -0.50094E-01         0.00000E+00
    0.59269E-02        -0.39176E-01         0.00000E+00
    0.46030E-02        -0.29541E-01         0.00000E+00
    0.34224E-02        -0.20887E-01         0.00000E+00
    0.23010E-02        -0.13098E-01         0.00000E+00
    0.11759E-02        -0.61340E-02         0.00000E+00
    0.00000E+00         0.00000E+00         0.00000E+00
   -0.19420E-01        -0.64387E+00         0.00000E+00
    0.77748E-01        -0.59159E+00         0.00000E+00
    0.11874E+00        -0.53173E+00         0.00000E+00
    0.12992E+00        -0.47681E+00         0.00000E+00
    0.12565E+00        -0.42610E+00         0.00000E+00
    0.11398E+00        -0.37915E+00         0.00000E+00
    0.10005E+00        -0.33579E+00         0.00000E+00
    0.86582E-01        -0.29599E+00         0.00000E+00
    0.74844E-01        -0.25977E+00         0.00000E+00
    0.65246E-01        -0.22702E+00         0.00000E+00
    0.57157E-01        -0.19752E+00         0.00000E+00
    0.50083E-01        -0.17100E+00         0.00000E+00
    0.43691E-01        -0.14717E+00         0.00000E+00
    0.37702E-01        -0.12579E+00         0.00000E+00
    0.32110E-01        -0.10667E+00         0.00000E+00
    0.27036E-01        -0.89604E-01         0.00000E+00
    0.22388E-01        -0.74462E-01         0.00000E+00
    0.18250E-01        -0.61050E-01         0.00000E+00
    0.14683E-01        -0.49122E-01         0.00000E+00
    0.11650E-01        -0.38541E-01         0.00000E+00
    0.90841E-02        -0.29127E-01         0.00000E+00
    0.67691E-02        -0.20620E-01         0.00000E+00
    0.45566E-02        -0.12944E-01         0.00000E+00
    0.23305E-02        -0.60686E-02         0.00000E+00
    0.00000E+00         0.00000E+00         0.00000E+00
    0.38451E-02        -0.45364E+00         0.00000E+00
    0.13256E+00        -0.41413E+00         0.00000E+00
    0.16851E+00        -0.39158E+00         0.00000E+00
    0.17702E+00        -0.36797E+00         0.00000E+00
    0.17021E+00        -0.34200E+00         0.00000E+00
    0.15584E+00        -0.31394E+00         0.00000E+00
    0.13869E+00        -0.28493E+00         0.00000E+00
    0.12157E+00        -0.25608E+00         0.00000E+00
    0.10588E+00        -0.22830E+00         0.00000E+00
    0.92287E-01        -0.20216E+00         0.00000E+00
    0.80776E-01        -0.17797E+00         0.00000E+00
    0.70699E-01        -0.15580E+00         0.00000E+00
    0.61590E-01        -0.13554E+00         0.00000E+00
    0.53222E-01        -0.11704E+00         0.00000E+00
    0.45499E-01        -0.10019E+00         0.00000E+00
    0.38434E-01        -0.84907E-01         0.00000E+00
    0.31888E-01        -0.71146E-01         0.00000E+00
    0.26196E-01        -0.58743E-01         0.00000E+00
    0.21270E-01        -0.47557E-01         0.00000E+00
    0.16988E-01        -0.37488E-01         0.00000E+00
    0.13332E-01        -0.28409E-01         0.00000E+00
    0.99657E-02        -0.20152E-01         0.00000E+00
    0.67186E-02        -0.12675E-01         0.00000E+00
    0.34403E-02        -0.59546E-02         0.00000E+00
    0.00000E+00         0.00000E+00         0.00000E+00
    0.80675E-01        -0.18150E+00         0.00000E+00
    0.15826E+00        -0.18853E+00         0.00000E+00
    0.19402E+00        -0.21211E+00         0.00000E+00
    0.20258E+00        -0.22768E+00         0.00000E+00
    0.19717E+00        -0.23275E+00         0.00000E+00
    0.18316E+00        -0.22932E+00         0.00000E+00
    0.16538E+00        -0.21961E+00         0.00000E+00
    0.14675E+00        -0.20577E+00         0.00000E+00
    0.12892E+00        -0.18958E+00         0.00000E+00
    0.11277E+00        -0.17236E+00         0.00000E+00
    0.98696E-01        -0.15503E+00         0.00000E+00
    0.86483E-01        -0.13813E+00         0.00000E+00
    0.75575E-01        -0.12199E+00         0.00000E+00
    0.65577E-01        -0.10674E+00         0.00000E+00
    0.56311E-01        -0.92468E-01         0.00000E+00
    0.47708E-01        -0.79240E-01         0.00000E+00
    0.39858E-01        -0.67018E-01         0.00000E+00
    0.33027E-01        -0.55738E-01         0.00000E+00
    0.27073E-01        -0.45421E-01         0.00000E+00
    0.21866E-01        -0.35989E-01         0.00000E+00
    0.17250E-01        -0.27359E-01         0.00000E+00
    0.12936E-01        -0.19466E-01         0.00000E+00
    0.87351E-02        -0.12281E-01         0.00000E+00
    0.44784E-02        -0.57884E-02         0.00000E+00
    0.00000E+00         0.00000E+00         0.00000E+00
    0.92168E-01        -0.11804E+00         0.00000E+00
    0.14336E+00        -0.11560E+00         0.00000E+00
    0.17887E+00        -0.12419E+00         0.00000E+00
    0.19539E+00        -0.14062E+00         0.00000E+00
    0.19702E+00        -0.15455E+00         0.00000E+00
    0.18868E+00        -0.16273E+00         0.00000E+00
    0.17473E+00        -0.16463E+00         0.00000E+00
    0.15828E+00        -0.16125E+00         0.00000E+00
    0.14136E+00        -0.15395E+00         0.00000E+00
    0.12515E+00        -0.14405E+00         0.00000E+00
    0.11040E+00        -0.13261E+00         0.00000E+00
    0.97254E-01        -0.12045E+00         0.00000E+00
    0.85469E-01        -0.10811E+00         0.00000E+00
    0.74649E-01        -0.95945E-01         0.00000E+00
    0.64510E-01        -0.84178E-01         0.00000E+00
    0.55047E-01        -0.72917E-01         0.00000E+00
    0.46473E-01        -0.62194E-01         0.00000E+00
    0.38771E-01        -0.52101E-01         0.00000E+00
    0.32050E-01        -0.42700E-01         0.00000E+00
    0.26186E-01        -0.34009E-01         0.00000E+00
    0.20750E-01        -0.25976E-01         0.00000E+00
    0.15604E-01        -0.18564E-01         0.00000E+00
    0.10554E-01        -0.11764E-01         0.00000E+00
    0.54170E-02        -0.55710E-02         0.00000E+00
    0.00000E+00         0.00000E+00         0.00000E+00
    0.10367E+00        -0.77413E-01         0.00000E+00
    0.13560E+00        -0.77012E-01         0.00000E+00
    0.16290E+00        -0.80395E-01         0.00000E+00
    0.17968E+00        -0.89569E-01         0.00000E+00
    0.18584E+00        -0.10170E+00         0.00000E+00
    0.18286E+00        -0.11230E+00         0.00000E+00
    0.17371E+00        -0.11922E+00         0.00000E+00
    0.16086E+00        -0.12191E+00         0.00000E+00
    0.14639E+00        -0.12074E+00         0.00000E+00
    0.13158E+00        -0.11650E+00         0.00000E+00
    0.11741E+00        -0.11002E+00         0.00000E+00
    0.10434E+00        -0.10207E+00         0.00000E+00
    0.92347E-01        -0.93295E-01         0.00000E+00
    0.81176E-01        -0.84118E-01         0.00000E+00
    0.70727E-01        -0.74800E-01         0.00000E+00
    0.60978E-01        -0.65498E-01         0.00000E+00
    0.51972E-01        -0.56395E-01         0.00000E+00
    0.43709E-01        -0.47652E-01         0.00000E+00
    0.36306E-01        -0.39381E-01         0.00000E+00
    0.29829E-01        -0.31614E-01         0.00000E+00
    0.23750E-01        -0.24311E-01         0.00000E+00
    0.17904E-01        -0.17483E-01         0.00000E+00
    0.12130E-01        -0.11145E-01         0.00000E+00
    0.62316E-02        -0.53100E-02         0.00000E+00
    0.00000E+00         0.00000E+00         0.00000E+00
    0.10951E+00        -0.52917E-01         0.00000E+00
    0.13113E+00        -0.52779E-01         0.00000E+00
    0.15095E+00        -0.55413E-01         0.00000E+00
    0.16498E+00        -0.60333E-01         0.00000E+00
    0.17192E+00        -0.68624E-01         0.00000E+00
    0.17198E+00        -0.77865E-01         0.00000E+00
    0.16662E+00        -0.85533E-01         0.00000E+00
    0.15730E+00        -0.90603E-01         0.00000E+00
    0.14573E+00        -0.92726E-01         0.00000E+00
    0.13303E+00        -0.92141E-01         0.00000E+00
    0.12021E+00        -0.89287E-01         0.00000E+00
    0.10791E+00        -0.84685E-01         0.00000E+00
    0.96329E-01        -0.78855E-01         0.00000E+00
    0.85415E-01        -0.72222E-01         0.00000E+00
    0.75093E-01        -0.65091E-01         0.00000E+00
    0.65311E-01        -0.57712E-01         0.00000E+00
    0.56107E-01        -0.50280E-01         0.00000E+00
    0.47532E-01        -0.42970E-01         0.00000E+00
    0.39752E-01        -0.35843E-01         0.00000E+00
    0.32784E-01        -0.29006E-01         0.00000E+00
    0.26189E-01        -0.22485E-01         0.00000E+00
    0.19798E-01        -0.16291E-01         0.00000E+00
    0.13435E-01        -0.10458E-01         0.00000E+00
    0.69065E-02        -0.50191E-02         0.00000E+00
    0.00000E+00         0.00000E+00         0.00000E+00
    0.11247E+00        -0.36648E-01         0.00000E+00
    0.12741E+00        -0.37095E-01         0.00000E+00
    0.14203E+00        -0.39636E-01         0.00000E+00
    0.15296E+00        -0.43102E-01         0.00000E+00
    0.15898E+00        -0.48467E-01         0.00000E+00
    0.16021E+00        -0.55259E-01         0.00000E+00
    0.15707E+00        -0.62050E-01         0.00000E+00
    0.15043E+00        -0.67456E-01         0.00000E+00
    0.14143E+00        -0.70870E-01         0.00000E+00
    0.13092E+00        -0.72198E-01         0.00000E+00
    0.11979E+00        -0.71565E-01         0.00000E+00
    0.10870E+00        -0.69256E-01         0.00000E+00
    0.97973E-01        -0.65626E-01         0.00000E+00
    0.87621E-01        -0.61053E-01         0.00000E+00
    0.77652E-01        -0.55833E-01         0.00000E+00
    0.68081E-01        -0.50184E-01         0.00000E+00
    0.58901E-01        -0.44309E-01         0.00000E+00
    0.50296E-01        -0.38300E-01         0.00000E+00
    0.42348E-01        -0.32309E-01         0.00000E+00
    0.35028E-01        -0.26411E-01         0.00000E+00
    0.28076E-01        -0.20641E-01         0.00000E+00
    0.21280E-01        -0.15068E-01         0.00000E+00
    0.14463E-01        -0.97461E-02         0.00000E+00
    0.74375E-02        -0.47140E-02         0.00000E+00
    0.00000E+00         0.00000E+00         0.00000E+00
    0.11337E+00        -0.25751E-01         0.00000E+00
    0.12381E+00        -0.26576E-01         0.00000E+00
    0.13465E+00        -0.28952E-01         0.00000E+00
    0.14309E+00        -0.32380E-01         0.00000E+00
    0.14797E+00        -0.36150E-01         0.00000E+00
    0.14926E+00        -0.40940E-01         0.00000E+00
    0.14730E+00        -0.46136E-01         0.00000E+00
    0.14240E+00        -0.50946E-01         0.00000E+00
    0.13537E+00        -0.54565E-01         0.00000E+00
    0.12673E+00        -0.56695E-01         0.00000E+00
    0.11724E+00        -0.57293E-01         0.00000E+00
    0.10743E+00        -0.56458E-01         0.00000E+00
    0.97689E-01        -0.54403E-01         0.00000E+00
    0.88074E-01        -0.51396E-01         0.00000E+00
    0.78630E-01        -0.47688E-01         0.00000E+00
    0.69427E-01        -0.43471E-01         0.00000E+00
    0.60501E-01        -0.38875E-01         0.00000E+00
    0.52018E-01        -0.34060E-01         0.00000E+00
    0.44068E-01        -0.29079E-01         0.00000E+00
    0.36624E-01        -0.23964E-01         0.00000E+00
    0.29453E-01        -0.18868E-01         0.00000E+00
    0.22376E-01        -0.13875E-01         0.00000E+00
    0.15227E-01        -0.90416E-02         0.00000E+00
    0.78307E-02        -0.44081E-02         0.00000E+00
    0.00000E+00         0.00000E+00         0.00000E+00
    0.11269E+00        -0.18196E-01         0.00000E+00
    0.12013E+00        -0.19343E-01         0.00000E+00
    0.12811E+00        -0.21668E-01         0.00000E+00
    0.13468E+00        -0.24905E-01         0.00000E+00
    0.13860E+00        -0.28454E-01         0.00000E+00
    0.13966E+00        -0.32020E-01         0.00000E+00
    0.13812E+00        -0.35934E-01         0.00000E+00
    0.13431E+00        -0.39743E-01         0.00000E+00
    0.12866E+00        -0.42951E-01         0.00000E+00
    0.12147E+00        -0.45263E-01         0.00000E+00
    0.11339E+00        -0.46402E-01         0.00000E+00
    0.10479E+00        -0.46401E-01         0.00000E+00
    0.96025E-01        -0.45371E-01         0.00000E+00
    0.87189E-01        -0.43500E-01         0.00000E+00
    0.78334E-01        -0.40941E-01         0.00000E+00
    0.69630E-01        -0.37823E-01         0.00000E+00
    0.61046E-01        -0.34336E-01         0.00000E+00
    0.52867E-01        -0.30420E-01         0.00000E+00
    0.45105E-01        -0.26146E-01         0.00000E+00
    0.37655E-01        -0.21703E-01         0.00000E+00
    0.30378E-01        -0.17209E-01         0.00000E+00
    0.23126E-01        -0.12744E-01         0.00000E+00
    0.15752E-01        -0.83658E-02         0.00000E+00
    0.80995E-02        -0.41109E-02         0.00000E+00
    0.00000E+00         0.00000E+00         0.00000E+00
    0.11084E+00        -0.12782E-01         0.00000E+00
    0.11626E+00        -0.14176E-01         0.00000E+00
    0.12216E+00        -0.16425E-01         0.00000E+00
    0.12718E+00        -0.19444E-01         0.00000E+00
    0.13035E+00        -0.22881E-01         0.00000E+00
    0.13122E+00        -0.26265E-01         0.00000E+00
    0.12988E+00        -0.29440E-01         0.00000E+00
    0.12669E+00        -0.32434E-01         0.00000E+00
    0.12192E+00        -0.35121E-01         0.00000E+00
    0.11583E+00        -0.37241E-01         0.00000E+00
    0.10888E+00        -0.38531E-01         0.00000E+00
    0.10131E+00        -0.38960E-01         0.00000E+00
    0.93411E-01        -0.38548E-01         0.00000E+00
    0.85343E-01        -0.37414E-01         0.00000E+00
    0.77129E-01        -0.35696E-01         0.00000E+00
    0.68923E-01        -0.33416E-01         0.00000E+00
    0.60915E-01        -0.30522E-01         0.00000E+00
    0.53127E-01        -0.27165E-01         0.00000E+00
    0.45583E-01        -0.23499E-01         0.00000E+00
    0.38210E-01        -0.19637E-01         0.00000E+00
    0.30913E-01        -0.15676E-01         0.00000E+00
    0.23575E-01        -0.11690E-01         0.00000E+00
    0.16069E-01        -0.77289E-02         0.00000E+00
    0.82598E-02        -0.38272E-02         0.00000E+00
    0.00000E+00         0.00000E+00         0.00000E+00
    0.10817E+00        -0.87411E-02         0.00000E+00
    0.11223E+00        -0.10299E-01         0.00000E+00
    0.11663E+00        -0.12478E-01         0.00000E+00
    0.12041E+00        -0.15269E-01         0.00000E+00
    0.12287E+00        -0.18457E-01         0.00000E+00
    0.12358E+00        -0.21751E-01         0.00000E+00
    0.12246E+00        -0.24845E-01         0.00000E+00
    0.11970E+00        -0.27545E-01         0.00000E+00
    0.11553E+00        -0.29865E-01         0.00000E+00
    0.11026E+00        -0.31701E-01         0.00000E+00
    0.10416E+00        -0.32962E-01         0.00000E+00
    0.97441E-01        -0.33597E-01         0.00000E+00
    0.90307E-01        -0.33574E-01         0.00000E+00
    0.82947E-01        -0.32856E-01         0.00000E+00
    0.75411E-01        -0.31492E-01         0.00000E+00
    0.67836E-01        -0.29544E-01         0.00000E+00
    0.60329E-01        -0.27107E-01         0.00000E+00
    0.52918E-01        -0.24265E-01         0.00000E+00
    0.45611E-01        -0.21115E-01         0.00000E+00
    0.38368E-01        -0.17758E-01         0.00000E+00
    0.31116E-01        -0.14270E-01         0.00000E+00
    0.23765E-01        -0.10714E-01         0.00000E+00
    0.16207E-01        -0.71341E-02         0.00000E+00
    0.83274E-02        -0.35592E-02         0.00000E+00
    0.00000E+00         0.00000E+00         0.00000E+00
    0.10494E+00        -0.55856E-02         0.00000E+00
    0.10809E+00        -0.72447E-02         0.00000E+00
    0.11140E+00        -0.93504E-02         0.00000E+00
    0.11424E+00        -0.11927E-01         0.00000E+00
    0.11607E+00        -0.14844E-01         0.00000E+00
    0.11656E+00        -0.17884E-01         0.00000E+00
    0.11559E+00        -0.20819E-01         0.00000E+00
    0.11321E+00        -0.23475E-01         0.00000E+00
    0.10958E+00        -0.25715E-01         0.00000E+00
    0.10494E+00        -0.27462E-01         0.00000E+00
    0.99532E-01        -0.28666E-01         0.00000E+00
    0.93525E-01        -0.29296E-01         0.00000E+00
    0.87100E-01        -0.29333E-01         0.00000E+00
    0.80389E-01        -0.28797E-01         0.00000E+00
    0.73475E-01        -0.27712E-01         0.00000E+00
    0.66448E-01        -0.26116E-01         0.00000E+00
    0.59387E-01        -0.24076E-01         0.00000E+00
    0.52329E-01        -0.21668E-01         0.00000E+00
    0.45274E-01        -0.18969E-01         0.00000E+00
    0.38196E-01        -0.16053E-01         0.00000E+00
    0.31041E-01        -0.12984E-01         0.00000E+00
    0.23736E-01        -0.98146E-02         0.00000E+00
    0.16194E-01        -0.65816E-02         0.00000E+00
    0.83172E-02        -0.33076E-02         0.00000E+00
    0.00000E+00         0.00000E+00         0.00000E+00
    0.10138E+00        -0.30183E-02         0.00000E+00
    0.10389E+00        -0.47284E-02         0.00000E+00
    0.10642E+00        -0.67598E-02         0.00000E+00
    0.10855E+00        -0.91434E-02         0.00000E+00
    0.10988E+00        -0.11796E-01         0.00000E+00
    0.11015E+00        -0.14565E-01         0.00000E+00
    0.10923E+00        -0.17272E-01         0.00000E+00
    0.10714E+00        -0.19752E-01         0.00000E+00
    0.10397E+00        -0.21876E-01         0.00000E+00
    0.99895E-01        -0.23557E-01         0.00000E+00
    0.95082E-01        -0.24743E-01         0.00000E+00
    0.89695E-01        -0.25412E-01         0.00000E+00
    0.83875E-01        -0.25559E-01         0.00000E+00
    0.77733E-01        -0.25198E-01         0.00000E+00
    0.71355E-01        -0.24355E-01         0.00000E+00
    0.64813E-01        -0.23064E-01         0.00000E+00
    0.58163E-01        -0.21375E-01         0.00000E+00
    0.51437E-01        -0.19345E-01         0.00000E+00
    0.44641E-01        -0.17037E-01         0.00000E+00
    0.37753E-01        -0.14509E-01         0.00000E+00
    0.30734E-01        -0.11812E-01         0.00000E+00
    0.23525E-01        -0.89890E-02         0.00000E+00
    0.16054E-01        -0.60699E-02         0.00000E+00
    0.82419E-02        -0.30723E-02         0.00000E+00
    0.00000E+00         0.00000E+00         0.00000E+00
    0.97635E-01        -0.85768E-03         0.00000E+00
    0.99688E-01        -0.25826E-02         0.00000E+00
    0.10166E+00        -0.45393E-02         0.00000E+00
    0.10325E+00        -0.67546E-02         0.00000E+00
    0.10418E+00        -0.91738E-02         0.00000E+00
    0.10426E+00        -0.11686E-01         0.00000E+00
    0.10337E+00        -0.14153E-01         0.00000E+00
    0.10150E+00        -0.16439E-01         0.00000E+00
    0.98698E-01        -0.18428E-01         0.00000E+00
    0.95084E-01        -0.20037E-01         0.00000E+00
    0.90786E-01        -0.21213E-01         0.00000E+00
    0.85932E-01        -0.21933E-01         0.00000E+00
    0.80639E-01        -0.22190E-01         0.00000E+00
    0.75001E-01        -0.21997E-01         0.00000E+00
    0.69096E-01        -0.21373E-01         0.00000E+00
    0.62984E-01        -0.20350E-01         0.00000E+00
    0.56712E-01        -0.18966E-01         0.00000E+00
    0.50305E-01        -0.17266E-01         0.00000E+00
    0.43770E-01        -0.15300E-01         0.00000E+00
    0.37091E-01        -0.13112E-01         0.00000E+00
    0.30237E-01        -0.10746E-01         0.00000E+00
    0.23163E-01        -0.82326E-02         0.00000E+00
    0.15810E-01        -0.55974E-02         0.00000E+00
    0.81131E-02        -0.28528E-02         0.00000E+00
    0.00000E+00         0.00000E+00         0.00000E+00
    0.93813E-01         0.10054E-02         0.00000E+00
    0.95532E-01        -0.70911E-03         0.00000E+00
    0.97087E-01        -0.25926E-02         0.00000E+00
    0.98279E-01        -0.46636E-02         0.00000E+00
    0.98913E-01        -0.68835E-02         0.00000E+00
    0.98835E-01        -0.91705E-02         0.00000E+00
    0.97953E-01        -0.11419E-01         0.00000E+00
    0.96241E-01        -0.13519E-01         0.00000E+00
    0.93732E-01        -0.15374E-01         0.00000E+00
    0.90498E-01        -0.16909E-01         0.00000E+00
    0.86633E-01        -0.18072E-01         0.00000E+00
    0.82238E-01        -0.18837E-01         0.00000E+00
    0.77404E-01        -0.19195E-01         0.00000E+00
    0.72212E-01        -0.19152E-01         0.00000E+00
    0.66730E-01        -0.18725E-01         0.00000E+00
    0.61008E-01        -0.17936E-01         0.00000E+00
    0.55085E-01        -0.16818E-01         0.00000E+00
    0.48983E-01        -0.15407E-01         0.00000E+00
    0.42708E-01        -0.13739E-01         0.00000E+00
    0.36250E-01        -0.11852E-01         0.00000E+00
    0.29586E-01        -0.97770E-02         0.00000E+00
    0.22678E-01        -0.75410E-02         0.00000E+00
    0.15480E-01        -0.51618E-02         0.00000E+00
    0.79405E-02        -0.26486E-02         0.00000E+00
    0.00000E+00         0.00000E+00         0.00000E+00
    0.89988E-01         0.26364E-02         0.00000E+00
    0.91450E-01         0.94873E-03         0.00000E+00
    0.92696E-01        -0.86426E-03         0.00000E+00
    0.93589E-01        -0.28122E-02         0.00000E+00
    0.93992E-01        -0.48656E-02         0.00000E+00
    0.93791E-01        -0.69629E-02         0.00000E+00
    0.92911E-01        -0.90230E-02         0.00000E+00
    0.91324E-01        -0.10959E-01         0.00000E+00
    0.89046E-01        -0.12691E-01         0.00000E+00
    0.86123E-01        -0.14154E-01         0.00000E+00
    0.82623E-01        -0.15299E-01         0.00000E+00
    0.78619E-01        -0.16100E-01         0.00000E+00
    0.74186E-01        -0.16545E-01         0.00000E+00
    0.69390E-01        -0.16633E-01         0.00000E+00
    0.64286E-01        -0.16376E-01         0.00000E+00
    0.58919E-01        -0.15793E-01         0.00000E+00
    0.53320E-01        -0.14907E-01         0.00000E+00
    0.47511E-01        -0.13746E-01         0.00000E+00
    0.41495E-01        -0.12340E-01         0.00000E+00
    0.35268E-01        -0.10715E-01         0.00000E+00
    0.28810E-01        -0.88989E-02         0.00000E+00
    0.22094E-01        -0.69098E-02         0.00000E+00
    0.15082E-01        -0.47614E-02         0.00000E+00
    0.77328E-02        -0.24592E-02         0.00000E+00
    0.00000E+00         0.00000E+00         0.00000E+00
    0.86205E-01         0.40752E-02         0.00000E+00
    0.87461E-01         0.24243E-02         0.00000E+00
    0.88470E-01         0.67832E-03         0.00000E+00
    0.89137E-01        -0.11647E-02         0.00000E+00
    0.89366E-01        -0.30802E-02         0.00000E+00
    0.89070E-01        -0.50207E-02         0.00000E+00
    0.88192E-01        -0.69233E-02         0.00000E+00
    0.86705E-01        -0.87193E-02         0.00000E+00
    0.84613E-01        -0.10343E-01         0.00000E+00
    0.81946E-01        -0.11739E-01         0.00000E+00
    0.78751E-01        -0.12865E-01         0.00000E+00
    0.75083E-01        -0.13693E-01         0.00000E+00
    0.71000E-01        -0.14209E-01         0.00000E+00
    0.66553E-01        -0.14409E-01         0.00000E+00
    0.61790E-01        -0.14299E-01         0.00000E+00
    0.56748E-01        -0.13893E-01         0.00000E+00
    0.51454E-01        -0.13208E-01         0.00000E+00
    0.45924E-01        -0.12265E-01         0.00000E+00
    0.40166E-01        -0.11086E-01         0.00000E+00
    0.34175E-01        -0.96928E-02         0.00000E+00
    0.27937E-01        -0.81043E-02         0.00000E+00
    0.21432E-01        -0.63349E-02         0.00000E+00
    0.14629E-01        -0.43939E-02         0.00000E+00
    0.74974E-02        -0.22840E-02         0.00000E+00
    0.00000E+00         0.00000E+00         0.00000E+00
    0.82493E-01         0.53471E-02         0.00000E+00
    0.83577E-01         0.37381E-02         0.00000E+00
    0.84399E-01         0.20551E-02         0.00000E+00
    0.84893E-01         0.30217E-03         0.00000E+00
    0.84989E-01        -0.14992E-02         0.00000E+00
    0.84623E-01        -0.33109E-02         0.00000E+00
    0.83749E-01        -0.50835E-02         0.00000E+00
    0.82343E-01        -0.67624E-02         0.00000E+00
    0.80404E-01        -0.82939E-02         0.00000E+00
    0.77950E-01        -0.96313E-02         0.00000E+00
    0.75013E-01        -0.10737E-01         0.00000E+00
    0.71634E-01        -0.11584E-01         0.00000E+00
    0.67856E-01        -0.12158E-01         0.00000E+00
    0.63721E-01        -0.12452E-01         0.00000E+00
    0.59266E-01        -0.12467E-01         0.00000E+00
    0.54523E-01        -0.12213E-01         0.00000E+00
    0.49513E-01        -0.11701E-01         0.00000E+00
    0.44253E-01        -0.10946E-01         0.00000E+00
    0.38748E-01        -0.99655E-02         0.00000E+00
    0.32997E-01        -0.87744E-02         0.00000E+00
    0.26989E-01        -0.73866E-02         0.00000E+00
    0.20709E-01        -0.58124E-02         0.00000E+00
    0.14134E-01        -0.40576E-02         0.00000E+00
    0.72405E-02        -0.21222E-02         0.00000E+00
    0.00000E+00         0.00000E+00         0.00000E+00
    0.78867E-01         0.64691E-02         0.00000E+00
    0.79801E-01         0.49041E-02         0.00000E+00
    0.80473E-01         0.32799E-02         0.00000E+00
    0.80832E-01         0.16047E-02         0.00000E+00
    0.80827E-01        -0.10145E-03         0.00000E+00
    0.80409E-01        -0.18074E-02         0.00000E+00
    0.79542E-01        -0.34733E-02         0.00000E+00
    0.78205E-01        -0.50550E-02         0.00000E+00
    0.76395E-01        -0.65090E-02         0.00000E+00
    0.74120E-01        -0.77954E-02         0.00000E+00
    0.71403E-01        -0.88816E-02         0.00000E+00
    0.68274E-01        -0.97430E-02         0.00000E+00
    0.64764E-01        -0.10364E-01         0.00000E+00
    0.60907E-01        -0.10735E-01         0.00000E+00
    0.56732E-01        -0.10856E-01         0.00000E+00
    0.52264E-01        -0.10731E-01         0.00000E+00
    0.47523E-01        -0.10367E-01         0.00000E+00
    0.42522E-01        -0.97750E-02         0.00000E+00
    0.37267E-01        -0.89660E-02         0.00000E+00
    0.31757E-01        -0.79511E-02         0.00000E+00
    0.25985E-01        -0.67397E-02         0.00000E+00
    0.19941E-01        -0.53386E-02         0.00000E+00
    0.13608E-01        -0.37504E-02         0.00000E+00
    0.69675E-02        -0.19733E-02         0.00000E+00
    0.00000E+00         0.00000E+00         0.00000E+00
    0.75332E-01         0.74541E-02         0.00000E+00
    0.76135E-01         0.59330E-02         0.00000E+00
    0.76682E-01         0.43633E-02         0.00000E+00
    0.76933E-01         0.27560E-02         0.00000E+00
    0.76850E-01         0.11299E-02         0.00000E+00
    0.76395E-01        -0.48856E-03         0.00000E+00
    0.75538E-01        -0.20666E-02         0.00000E+00
    0.74262E-01        -0.35682E-02         0.00000E+00
    0.72561E-01        -0.49572E-02         0.00000E+00
    0.70440E-01        -0.62002E-02         0.00000E+00
    0.67914E-01        -0.72685E-02         0.00000E+00
    0.65002E-01        -0.81397E-02         0.00000E+00
    0.61730E-01        -0.87980E-02         0.00000E+00
    0.58122E-01        -0.92339E-02         0.00000E+00
    0.54203E-01        -0.94435E-02         0.00000E+00
    0.49991E-01        -0.94275E-02         0.00000E+00
    0.45503E-01        -0.91899E-02         0.00000E+00
    0.40751E-01        -0.87370E-02         0.00000E+00
    0.35741E-01        -0.80762E-02         0.00000E+00
    0.30472E-01        -0.72146E-02         0.00000E+00
    0.24941E-01        -0.61579E-02         0.00000E+00
    0.19140E-01        -0.49098E-02         0.00000E+00
    0.13059E-01        -0.34705E-02         0.00000E+00
    0.66832E-02        -0.18365E-02         0.00000E+00
    0.00000E+00         0.00000E+00         0.00000E+00
    0.71889E-01         0.83130E-02         0.00000E+00
    0.72575E-01         0.68342E-02         0.00000E+00
    0.73016E-01         0.53148E-02         0.00000E+00
    0.73180E-01         0.37672E-02         0.00000E+00
    0.73036E-01         0.22092E-02         0.00000E+00
    0.72554E-01         0.66386E-03         0.00000E+00
    0.71710E-01        -0.84133E-03         0.00000E+00
    0.70490E-01        -0.22764E-02         0.00000E+00
    0.68885E-01        -0.36112E-02         0.00000E+00
    0.66898E-01        -0.48171E-02         0.00000E+00
    0.64538E-01        -0.58692E-02         0.00000E+00
    0.61819E-01        -0.67472E-02         0.00000E+00
    0.58759E-01        -0.74356E-02         0.00000E+00
    0.55377E-01        -0.79243E-02         0.00000E+00
    0.51691E-01        -0.82075E-02         0.00000E+00
    0.47718E-01        -0.82833E-02         0.00000E+00
    0.43471E-01        -0.81529E-02         0.00000E+00
    0.38958E-01        -0.78191E-02         0.00000E+00
    0.34187E-01        -0.72859E-02         0.00000E+00
    0.29158E-01        -0.65571E-02         0.00000E+00
    0.23870E-01        -0.56356E-02         0.00000E+00
    0.18318E-01        -0.45224E-02         0.00000E+00
    0.12495E-01        -0.32159E-02         0.00000E+00
    0.63914E-02        -0.17113E-02         0.00000E+00
    0.00000E+00         0.00000E+00         0.00000E+00
    0.68537E-01         0.90554E-02         0.00000E+00
    0.69117E-01         0.76168E-02         0.00000E+00
    0.69467E-01         0.61435E-02         0.00000E+00
    0.69558E-01         0.46488E-02         0.00000E+00
    0.69366E-01         0.31495E-02         0.00000E+00
    0.68866E-01         0.16660E-02         0.00000E+00
    0.68038E-01         0.22179E-03         0.00000E+00
    0.66868E-01        -0.11577E-02         0.00000E+00
    0.65349E-01        -0.24468E-02         0.00000E+00
    0.63480E-01        -0.36210E-02         0.00000E+00
    0.61268E-01        -0.46585E-02         0.00000E+00
    0.58721E-01        -0.55407E-02         0.00000E+00
    0.55853E-01        -0.62529E-02         0.00000E+00
    0.52677E-01        -0.67846E-02         0.00000E+00
    0.49207E-01        -0.71287E-02         0.00000E+00
    0.45458E-01        -0.72814E-02         0.00000E+00
    0.41438E-01        -0.72414E-02         0.00000E+00
    0.37157E-01        -0.70090E-02         0.00000E+00
    0.32620E-01        -0.65852E-02         0.00000E+00
    0.27829E-01        -0.59713E-02         0.00000E+00
    0.22784E-01        -0.51677E-02         0.00000E+00
    0.17483E-01        -0.41733E-02         0.00000E+00
    0.11921E-01        -0.29849E-02         0.00000E+00
    0.60952E-02        -0.15968E-02         0.00000E+00
    0.00000E+00         0.00000E+00         0.00000E+00
    0.65269E-01         0.96906E-02         0.00000E+00
    0.65755E-01         0.82896E-02         0.00000E+00
    0.66024E-01         0.68585E-02         0.00000E+00
    0.66055E-01         0.54110E-02         0.00000E+00
    0.65825E-01         0.39628E-02         0.00000E+00
    0.65313E-01         0.25323E-02         0.00000E+00
    0.64502E-01         0.11399E-02         0.00000E+00
    0.63380E-01        -0.19244E-03         0.00000E+00
    0.61939E-01        -0.14427E-02         0.00000E+00
    0.60178E-01        -0.25895E-02         0.00000E+00
    0.58098E-01        -0.36135E-02         0.00000E+00
    0.55707E-01        -0.44979E-02         0.00000E+00
    0.53013E-01        -0.52287E-02         0.00000E+00
    0.50026E-01        -0.57951E-02         0.00000E+00
    0.46758E-01        -0.61894E-02         0.00000E+00
    0.43219E-01        -0.64061E-02         0.00000E+00
    0.39416E-01        -0.64421E-02         0.00000E+00
    0.35359E-01        -0.62955E-02         0.00000E+00
    0.31050E-01        -0.59652E-02         0.00000E+00
    0.26494E-01        -0.54503E-02         0.00000E+00
    0.21691E-01        -0.47492E-02         0.00000E+00
    0.16642E-01        -0.38591E-02         0.00000E+00
    0.11344E-01        -0.27757E-02         0.00000E+00
    0.57973E-02        -0.14923E-02         0.00000E+00
    0.00000E+00         0.00000E+00         0.00000E+00
    0.62081E-01         0.10228E-01         0.00000E+00
    0.62481E-01         0.88615E-02         0.00000E+00
    0.62681E-01         0.74691E-02         0.00000E+00
    0.62661E-01         0.60639E-02         0.00000E+00
    0.62400E-01         0.46607E-02         0.00000E+00
    0.61882E-01         0.32762E-02         0.00000E+00
    0.61089E-01         0.19284E-02         0.00000E+00
    0.60013E-01         0.63652E-03         0.00000E+00
    0.58644E-01        -0.58015E-03         0.00000E+00
    0.56980E-01        -0.17029E-02         0.00000E+00
    0.55022E-01        -0.27144E-02         0.00000E+00
    0.52773E-01        -0.35991E-02         0.00000E+00
    0.50240E-01        -0.43440E-02         0.00000E+00
    0.47429E-01        -0.49382E-02         0.00000E+00
    0.44349E-01        -0.53733E-02         0.00000E+00
    0.41009E-01        -0.56429E-02         0.00000E+00
    0.37414E-01        -0.57424E-02         0.00000E+00
    0.33572E-01        -0.56683E-02         0.00000E+00
    0.29487E-01        -0.54177E-02         0.00000E+00
    0.25162E-01        -0.49878E-02         0.00000E+00
    0.20600E-01        -0.43756E-02         0.00000E+00
    0.15802E-01        -0.35770E-02         0.00000E+00
    0.10768E-01        -0.25866E-02         0.00000E+00
    0.55000E-02        -0.13973E-02         0.00000E+00
    0.00000E+00         0.00000E+00         0.00000E+00
    0.58966E-01         0.10676E-01         0.00000E+00
    0.59289E-01         0.93415E-02         0.00000E+00
    0.59428E-01         0.79844E-02         0.00000E+00
    0.59365E-01         0.66173E-02         0.00000E+00
    0.59080E-01         0.52541E-02         0.00000E+00
    0.58559E-01         0.39100E-02         0.00000E+00
    0.57787E-01         0.26012E-02         0.00000E+00
    0.56754E-01         0.13446E-02         0.00000E+00
    0.55453E-01         0.15743E-03         0.00000E+00
    0.53880E-01        -0.94375E-03         0.00000E+00
    0.52034E-01        -0.19432E-02         0.00000E+00
    0.49916E-01        -0.28267E-02         0.00000E+00
    0.47532E-01        -0.35818E-02         0.00000E+00
    0.44886E-01        -0.41978E-02         0.00000E+00
    0.41984E-01        -0.46659E-02         0.00000E+00
    0.38833E-01        -0.49790E-02         0.00000E+00
    0.35438E-01        -0.51313E-02         0.00000E+00
    0.31805E-01        -0.51180E-02         0.00000E+00
    0.27937E-01        -0.49349E-02         0.00000E+00
    0.23840E-01        -0.45779E-02         0.00000E+00
    0.19516E-01        -0.40426E-02         0.00000E+00
    0.14966E-01        -0.33240E-02         0.00000E+00
    0.10195E-01        -0.24159E-02         0.00000E+00
    0.52049E-02        -0.13109E-02         0.00000E+00
    0.00000E+00         0.00000E+00         0.00000E+00
    0.55919E-01         0.11044E-01         0.00000E+00
    0.56172E-01         0.97384E-02         0.00000E+00
    0.56258E-01         0.84135E-02         0.00000E+00
    0.56158E-01         0.70809E-02         0.00000E+00
    0.55855E-01         0.57536E-02         0.00000E+00
    0.55335E-01         0.44455E-02         0.00000E+00
    0.54585E-01         0.31711E-02         0.00000E+00
    0.53595E-01         0.19458E-02         0.00000E+00
    0.52358E-01         0.78489E-03         0.00000E+00
    0.50869E-01        -0.29658E-03         0.00000E+00
    0.49128E-01        -0.12843E-02         0.00000E+00
    0.47134E-01        -0.21651E-02         0.00000E+00
    0.44890E-01        -0.29271E-02         0.00000E+00
    0.42399E-01        -0.35598E-02         0.00000E+00
    0.39666E-01        -0.40542E-02         0.00000E+00
    0.36695E-01        -0.44026E-02         0.00000E+00
    0.33492E-01        -0.45985E-02         0.00000E+00
    0.30062E-01        -0.46361E-02         0.00000E+00
    0.26407E-01        -0.45100E-02         0.00000E+00
    0.22533E-01        -0.42152E-02         0.00000E+00
    0.18443E-01        -0.37464E-02         0.00000E+00
    0.14140E-01        -0.30975E-02         0.00000E+00
    0.96288E-02        -0.22622E-02         0.00000E+00
    0.49134E-02        -0.12326E-02         0.00000E+00
    0.00000E+00         0.00000E+00         0.00000E+00
    0.52932E-01         0.11340E-01         0.00000E+00
    0.53125E-01         0.10061E-01         0.00000E+00
    0.53165E-01         0.87654E-02         0.00000E+00
    0.53034E-01         0.74642E-02         0.00000E+00
    0.52717E-01         0.61692E-02         0.00000E+00
    0.52201E-01         0.48933E-02         0.00000E+00
    0.51474E-01         0.36498E-02         0.00000E+00
    0.50526E-01         0.24526E-02         0.00000E+00
    0.49350E-01         0.13155E-02         0.00000E+00
    0.47942E-01         0.25237E-03         0.00000E+00
    0.46300E-01        -0.72375E-03         0.00000E+00
    0.44422E-01        -0.16005E-02         0.00000E+00
    0.42311E-01        -0.23665E-02         0.00000E+00
    0.39967E-01        -0.30115E-02         0.00000E+00
    0.37395E-01        -0.35265E-02         0.00000E+00
    0.34598E-01        -0.39034E-02         0.00000E+00
    0.31581E-01        -0.41350E-02         0.00000E+00
    0.28347E-01        -0.42148E-02         0.00000E+00
    0.24900E-01        -0.41367E-02         0.00000E+00
    0.21245E-01        -0.38948E-02         0.00000E+00
    0.17385E-01        -0.34831E-02         0.00000E+00
    0.13326E-01        -0.28951E-02         0.00000E+00
    0.90708E-02        -0.21239E-02         0.00000E+00
    0.46265E-02        -0.11617E-02         0.00000E+00
    0.00000E+00         0.00000E+00         0.00000E+00
    0.50001E-01         0.11572E-01         0.00000E+00
    0.50141E-01         0.10318E-01         0.00000E+00
    0.50141E-01         0.90487E-02         0.00000E+00
    0.49985E-01         0.77760E-02         0.00000E+00
    0.49659E-01         0.65103E-02         0.00000E+00
    0.49149E-01         0.52636E-02         0.00000E+00
    0.48446E-01         0.40481E-02         0.00000E+00
    0.47540E-01         0.28764E-02         0.00000E+00
    0.46424E-01         0.17613E-02         0.00000E+00
    0.45093E-01         0.71537E-03         0.00000E+00
    0.43545E-01        -0.24913E-03         0.00000E+00
    0.41778E-01        -0.11206E-02         0.00000E+00
    0.39793E-01        -0.18882E-02         0.00000E+00
    0.37591E-01        -0.25419E-02         0.00000E+00
    0.35173E-01        -0.30726E-02         0.00000E+00
    0.32544E-01        -0.34720E-02         0.00000E+00
    0.29706E-01        -0.37325E-02         0.00000E+00
    0.26663E-01        -0.38471E-02         0.00000E+00
    0.23419E-01        -0.38092E-02         0.00000E+00
    0.19979E-01        -0.36122E-02         0.00000E+00
    0.16346E-01        -0.32495E-02         0.00000E+00
    0.12525E-01        -0.27144E-02         0.00000E+00
    0.85228E-02        -0.19997E-02         0.00000E+00
    0.43450E-02        -0.10977E-02         0.00000E+00
    0.00000E+00         0.00000E+00         0.00000E+00
    0.47121E-01         0.11749E-01         0.00000E+00
    0.47214E-01         0.10516E-01         0.00000E+00
    0.47181E-01         0.92717E-02         0.00000E+00
    0.47005E-01         0.80249E-02         0.00000E+00
    0.46673E-01         0.67860E-02         0.00000E+00
    0.46173E-01         0.55659E-02         0.00000E+00
    0.45495E-01         0.43758E-02         0.00000E+00
    0.44630E-01         0.32276E-02         0.00000E+00
    0.43573E-01         0.21328E-02         0.00000E+00
    0.42317E-01         0.11034E-02         0.00000E+00
    0.40860E-01         0.15058E-03         0.00000E+00
    0.39199E-01        -0.71455E-03         0.00000E+00
    0.37335E-01        -0.14816E-02         0.00000E+00
    0.35268E-01        -0.21408E-02         0.00000E+00
    0.33000E-01        -0.26831E-02         0.00000E+00
    0.30532E-01        -0.31000E-02         0.00000E+00
    0.27869E-01        -0.33838E-02         0.00000E+00
    0.25012E-01        -0.35269E-02         0.00000E+00
    0.21967E-01        -0.35224E-02         0.00000E+00
    0.18737E-01        -0.33633E-02         0.00000E+00
    0.15326E-01        -0.30426E-02         0.00000E+00
    0.11740E-01        -0.25534E-02         0.00000E+00
    0.79857E-02        -0.18884E-02         0.00000E+00
    0.40693E-02        -0.10399E-02         0.00000E+00
    0.00000E+00         0.00000E+00         0.00000E+00
    0.44286E-01         0.11877E-01         0.00000E+00
    0.44340E-01         0.10665E-01         0.00000E+00
    0.44278E-01         0.94423E-02         0.00000E+00
    0.44087E-01         0.82191E-02         0.00000E+00
    0.43753E-01         0.70046E-02         0.00000E+00
    0.43265E-01         0.58088E-02         0.00000E+00
    0.42614E-01         0.46421E-02         0.00000E+00
    0.41791E-01         0.35155E-02         0.00000E+00
    0.40791E-01         0.24399E-02         0.00000E+00
    0.39608E-01         0.14262E-02         0.00000E+00
    0.38239E-01         0.48516E-03         0.00000E+00
    0.36681E-01        -0.37274E-03         0.00000E+00
    0.34934E-01        -0.11375E-02         0.00000E+00
    0.32998E-01        -0.17996E-02         0.00000E+00
    0.30874E-01        -0.23500E-02         0.00000E+00
    0.28564E-01        -0.27802E-02         0.00000E+00
    0.26070E-01        -0.30823E-02         0.00000E+00
    0.23396E-01        -0.32486E-02         0.00000E+00
    0.20544E-01        -0.32717E-02         0.00000E+00
    0.17520E-01        -0.31444E-02         0.00000E+00
    0.14327E-01        -0.28596E-02         0.00000E+00
    0.10972E-01        -0.24102E-02         0.00000E+00
    0.74601E-02        -0.17888E-02         0.00000E+00
    0.37998E-02        -0.98793E-03         0.00000E+00
    0.00000E+00         0.00000E+00         0.00000E+00
    0.41492E-01         0.11964E-01         0.00000E+00
    0.41513E-01         0.10770E-01         0.00000E+00
    0.41429E-01         0.95676E-02         0.00000E+00
    0.41227E-01         0.83660E-02         0.00000E+00
    0.40894E-01         0.71738E-02         0.00000E+00
    0.40421E-01         0.60003E-02         0.00000E+00
    0.39798E-01         0.48553E-02         0.00000E+00
    0.39018E-01         0.37488E-02         0.00000E+00
    0.38074E-01         0.26911E-02         0.00000E+00
    0.36962E-01         0.16926E-02         0.00000E+00
    0.35679E-01         0.76335E-03         0.00000E+00
    0.34221E-01        -0.86596E-04         0.00000E+00
    0.32587E-01        -0.84759E-03         0.00000E+00
    0.30779E-01        -0.15103E-02         0.00000E+00
    0.28795E-01        -0.20660E-02         0.00000E+00
    0.26638E-01        -0.25060E-02         0.00000E+00
    0.24310E-01        -0.28223E-02         0.00000E+00
    0.21813E-01        -0.30071E-02         0.00000E+00
    0.19151E-01        -0.30529E-02         0.00000E+00
    0.16328E-01        -0.29523E-02         0.00000E+00
    0.13350E-01        -0.26980E-02         0.00000E+00
    0.10220E-01        -0.22829E-02         0.00000E+00
    0.69465E-02        -0.16998E-02         0.00000E+00
    0.35368E-02        -0.94121E-03         0.00000E+00
    0.00000E+00         0.00000E+00         0.00000E+00
    0.38736E-01         0.12017E-01         0.00000E+00
    0.38730E-01         0.10838E-01         0.00000E+00
    0.38628E-01         0.96546E-02         0.00000E+00
    0.38419E-01         0.84727E-02         0.00000E+00
    0.38091E-01         0.73010E-02         0.00000E+00
    0.37634E-01         0.61479E-02         0.00000E+00
    0.37041E-01         0.50228E-02         0.00000E+00
    0.36304E-01         0.39351E-02         0.00000E+00
    0.35417E-01         0.28944E-02         0.00000E+00
    0.34375E-01         0.19104E-02         0.00000E+00
    0.33175E-01         0.99293E-03         0.00000E+00
    0.31815E-01         0.15148E-03         0.00000E+00
    0.30293E-01        -0.60461E-03         0.00000E+00
    0.28608E-01        -0.12663E-02         0.00000E+00
    0.26761E-01        -0.18247E-02         0.00000E+00
    0.24754E-01        -0.22715E-02         0.00000E+00
    0.22587E-01        -0.25986E-02         0.00000E+00
    0.20264E-01        -0.27981E-02         0.00000E+00
    0.17788E-01        -0.28623E-02         0.00000E+00
    0.15163E-01        -0.27840E-02         0.00000E+00
    0.12394E-01        -0.25556E-02         0.00000E+00
    0.94853E-02        -0.21701E-02         0.00000E+00
    0.64449E-02        -0.16204E-02         0.00000E+00
    0.32801E-02        -0.89934E-03         0.00000E+00
    0.00000E+00         0.00000E+00         0.00000E+00
    0.36014E-01         0.12040E-01         0.00000E+00
    0.35986E-01         0.10877E-01         0.00000E+00
    0.35871E-01         0.97095E-02         0.00000E+00
    0.35659E-01         0.85456E-02         0.00000E+00
    0.35338E-01         0.73925E-02         0.00000E+00
    0.34901E-01         0.62583E-02         0.00000E+00
    0.34339E-01         0.51516E-02         0.00000E+00
    0.33646E-01         0.40813E-02         0.00000E+00
    0.32815E-01         0.30566E-02         0.00000E+00
    0.31843E-01         0.20867E-02         0.00000E+00
    0.30726E-01         0.11808E-02         0.00000E+00
    0.29461E-01         0.34822E-03         0.00000E+00
    0.28047E-01        -0.40206E-03         0.00000E+00
    0.26484E-01        -0.10612E-02         0.00000E+00
    0.24771E-01        -0.16205E-02         0.00000E+00
    0.22909E-01        -0.20717E-02         0.00000E+00
    0.20901E-01        -0.24067E-02         0.00000E+00
    0.18749E-01        -0.26176E-02         0.00000E+00
    0.16455E-01        -0.26968E-02         0.00000E+00
    0.14023E-01        -0.26368E-02         0.00000E+00
    0.11459E-01        -0.24304E-02         0.00000E+00
    0.87675E-02        -0.20704E-02         0.00000E+00
    0.59551E-02        -0.15498E-02         0.00000E+00
    0.30297E-02        -0.86189E-03         0.00000E+00
    0.00000E+00         0.00000E+00         0.00000E+00
    0.33323E-01         0.12040E-01         0.00000E+00
    0.33278E-01         0.10890E-01         0.00000E+00
    0.33154E-01         0.97381E-02         0.00000E+00
    0.32942E-01         0.85906E-02         0.00000E+00
    0.32632E-01         0.74545E-02         0.00000E+00
    0.32216E-01         0.63376E-02         0.00000E+00
    0.31687E-01         0.52479E-02         0.00000E+00
    0.31038E-01         0.41938E-02         0.00000E+00
    0.30264E-01         0.31841E-02         0.00000E+00
    0.29361E-01         0.22276E-02         0.00000E+00
    0.28325E-01         0.13331E-02         0.00000E+00
    0.27155E-01         0.50959E-03         0.00000E+00
    0.25848E-01        -0.23425E-03         0.00000E+00
    0.24403E-01        -0.88975E-03         0.00000E+00
    0.22822E-01        -0.14484E-02         0.00000E+00
    0.21104E-01        -0.19021E-02         0.00000E+00
    0.19251E-01        -0.22426E-02         0.00000E+00
    0.17265E-01        -0.24622E-02         0.00000E+00
    0.15150E-01        -0.25533E-02         0.00000E+00
    0.12908E-01        -0.25085E-02         0.00000E+00
    0.10545E-01        -0.23205E-02         0.00000E+00
    0.80660E-02        -0.19823E-02         0.00000E+00
    0.54769E-02        -0.14872E-02         0.00000E+00
    0.27854E-02        -0.82850E-03         0.00000E+00
    0.00000E+00         0.00000E+00         0.00000E+00
    0.30659E-01         0.12021E-01         0.00000E+00
    0.30602E-01         0.10884E-01         0.00000E+00
    0.30473E-01         0.97456E-02         0.00000E+00
    0.30265E-01         0.86129E-02         0.00000E+00
    0.29968E-01         0.74924E-02         0.00000E+00
    0.29576E-01         0.63912E-02         0.00000E+00
    0.29081E-01         0.53172E-02         0.00000E+00
    0.28477E-01         0.42782E-02         0.00000E+00
    0.27760E-01         0.32826E-02         0.00000E+00
    0.26926E-01         0.23388E-02         0.00000E+00
    0.25971E-01         0.14554E-02         0.00000E+00
    0.24893E-01         0.64087E-03         0.00000E+00
    0.23691E-01        -0.96125E-04         0.00000E+00
    0.22364E-01        -0.74721E-03         0.00000E+00
    0.20911E-01        -0.13041E-02         0.00000E+00
    0.19334E-01        -0.17586E-02         0.00000E+00
    0.17634E-01        -0.21028E-02         0.00000E+00
    0.15812E-01        -0.23289E-02         0.00000E+00
    0.13872E-01        -0.24294E-02         0.00000E+00
    0.11817E-01        -0.23969E-02         0.00000E+00
    0.96514E-02        -0.22244E-02         0.00000E+00
    0.73804E-02        -0.19049E-02         0.00000E+00
    0.50098E-02        -0.14318E-02         0.00000E+00
    0.25470E-02        -0.79884E-03         0.00000E+00
    0.00000E+00         0.00000E+00         0.00000E+00
    0.28021E-01         0.11989E-01         0.00000E+00
    0.27955E-01         0.10863E-01         0.00000E+00
    0.27825E-01         0.97367E-02         0.00000E+00
    0.27624E-01         0.86174E-02         0.00000E+00
    0.27343E-01         0.75109E-02         0.00000E+00
    0.26975E-01         0.64242E-02         0.00000E+00
    0.26516E-01         0.53645E-02         0.00000E+00
    0.25959E-01         0.43394E-02         0.00000E+00
    0.25299E-01         0.33569E-02         0.00000E+00
    0.24534E-01         0.24251E-02         0.00000E+00
    0.23659E-01         0.15523E-02         0.00000E+00
    0.22673E-01         0.74672E-03         0.00000E+00
    0.21575E-01         0.16753E-04         0.00000E+00
    0.20363E-01        -0.62938E-03         0.00000E+00
    0.19037E-01        -0.11835E-02         0.00000E+00
    0.17599E-01        -0.16377E-02         0.00000E+00
    0.16048E-01        -0.19840E-02         0.00000E+00
    0.14388E-01        -0.22148E-02         0.00000E+00
    0.12620E-01        -0.23226E-02         0.00000E+00
    0.10748E-01        -0.23002E-02         0.00000E+00
    0.87766E-02        -0.21406E-02         0.00000E+00
    0.67097E-02        -0.18370E-02         0.00000E+00
    0.45533E-02        -0.13830E-02         0.00000E+00
    0.23142E-02        -0.77258E-03         0.00000E+00
    0.00000E+00         0.00000E+00         0.00000E+00
    0.25405E-01         0.11947E-01         0.00000E+00
    0.25334E-01         0.10830E-01         0.00000E+00
    0.25206E-01         0.97155E-02         0.00000E+00
    0.25014E-01         0.86083E-02         0.00000E+00
    0.24751E-01         0.75146E-02         0.00000E+00
    0.24411E-01         0.64409E-02         0.00000E+00
    0.23989E-01         0.53942E-02         0.00000E+00
    0.23479E-01         0.43819E-02         0.00000E+00
    0.22877E-01         0.34115E-02         0.00000E+00
    0.22180E-01         0.24909E-02         0.00000E+00
    0.21386E-01         0.16281E-02         0.00000E+00
    0.20491E-01         0.83121E-03         0.00000E+00
    0.19495E-01         0.10828E-03         0.00000E+00
    0.18397E-01        -0.53262E-03         0.00000E+00
    0.17197E-01        -0.10835E-02         0.00000E+00
    0.15895E-01        -0.15364E-02         0.00000E+00
    0.14492E-01        -0.18837E-02         0.00000E+00
    0.12991E-01        -0.21177E-02         0.00000E+00
    0.11393E-01        -0.22312E-02         0.00000E+00
    0.97010E-02        -0.22168E-02         0.00000E+00
    0.79196E-02        -0.20679E-02         0.00000E+00
    0.60530E-02        -0.17778E-02         0.00000E+00
    0.41066E-02        -0.13403E-02         0.00000E+00
    0.20866E-02        -0.74948E-03         0.00000E+00
    0.00000E+00         0.00000E+00         0.00000E+00
    0.22809E-01         0.11899E-01         0.00000E+00
    0.22736E-01         0.10791E-01         0.00000E+00
    0.22613E-01         0.96860E-02         0.00000E+00
    0.22434E-01         0.85895E-02         0.00000E+00
    0.22191E-01         0.75072E-02         0.00000E+00
    0.21880E-01         0.64452E-02         0.00000E+00
    0.21496E-01         0.54103E-02         0.00000E+00
    0.21034E-01         0.44095E-02         0.00000E+00
    0.20490E-01         0.34502E-02         0.00000E+00
    0.19863E-01         0.25400E-02         0.00000E+00
    0.19148E-01         0.16866E-02         0.00000E+00
    0.18344E-01         0.89793E-03         0.00000E+00
    0.17449E-01         0.18185E-03         0.00000E+00
    0.16464E-01        -0.45373E-03         0.00000E+00
    0.15388E-01        -0.10009E-02         0.00000E+00
    0.14221E-01        -0.14520E-02         0.00000E+00
    0.12964E-01        -0.17994E-02         0.00000E+00
    0.11619E-01        -0.20355E-02         0.00000E+00
    0.10187E-01        -0.21531E-02         0.00000E+00
    0.86731E-02        -0.21453E-02         0.00000E+00
    0.70791E-02        -0.20052E-02         0.00000E+00
    0.54094E-02        -0.17265E-02         0.00000E+00
    0.36691E-02        -0.13031E-02         0.00000E+00
    0.18638E-02        -0.72926E-03         0.00000E+00
    0.00000E+00         0.00000E+00         0.00000E+00
    0.20231E-01         0.11848E-01         0.00000E+00
    0.20159E-01         0.10747E-01         0.00000E+00
    0.20044E-01         0.96512E-02         0.00000E+00
    0.19878E-01         0.85643E-02         0.00000E+00
    0.19658E-01         0.74920E-02         0.00000E+00
    0.19378E-01         0.64405E-02         0.00000E+00
    0.19033E-01         0.54162E-02         0.00000E+00
    0.18620E-01         0.44258E-02         0.00000E+00
    0.18135E-01         0.34765E-02         0.00000E+00
    0.17576E-01         0.25757E-02         0.00000E+00
    0.16941E-01         0.17310E-02         0.00000E+00
    0.16227E-01         0.94998E-03         0.00000E+00
    0.15434E-01         0.24042E-03         0.00000E+00
    0.14560E-01        -0.38993E-03         0.00000E+00
    0.13607E-01        -0.93336E-03         0.00000E+00
    0.12573E-01        -0.13822E-02         0.00000E+00
    0.11460E-01        -0.17290E-02         0.00000E+00
    0.10269E-01        -0.19663E-02         0.00000E+00
    0.90028E-02        -0.20871E-02         0.00000E+00
    0.76632E-02        -0.20844E-02         0.00000E+00
    0.62536E-02        -0.19515E-02         0.00000E+00
    0.47777E-02        -0.16823E-02         0.00000E+00
    0.32399E-02        -0.12709E-02         0.00000E+00
    0.16454E-02        -0.71173E-03         0.00000E+00
    0.00000E+00         0.00000E+00         0.00000E+00
    0.17668E-01         0.11796E-01         0.00000E+00
    0.17601E-01         0.10703E-01         0.00000E+00
    0.17495E-01         0.96142E-02         0.00000E+00
    0.17346E-01         0.85356E-02         0.00000E+00
    0.17149E-01         0.74722E-02         0.00000E+00
    0.16901E-01         0.64298E-02         0.00000E+00
    0.16596E-01         0.54148E-02         0.00000E+00
    0.16233E-01         0.44336E-02         0.00000E+00
    0.15808E-01         0.34933E-02         0.00000E+00
    0.15318E-01         0.26010E-02         0.00000E+00
    0.14762E-01         0.17640E-02         0.00000E+00
    0.14138E-01         0.99005E-03         0.00000E+00
    0.13445E-01         0.28654E-03         0.00000E+00
    0.12683E-01        -0.33885E-03         0.00000E+00
    0.11850E-01        -0.87853E-03         0.00000E+00
    0.10949E-01        -0.13250E-02         0.00000E+00
    0.99780E-02        -0.16708E-02         0.00000E+00
    0.89401E-02        -0.19087E-02         0.00000E+00
    0.78365E-02        -0.20317E-02         0.00000E+00
    0.66694E-02        -0.20330E-02         0.00000E+00
    0.54417E-02        -0.19060E-02         0.00000E+00
    0.41567E-02        -0.16447E-02         0.00000E+00
    0.28182E-02        -0.12434E-02         0.00000E+00
    0.14309E-02        -0.69670E-03         0.00000E+00
    0.00000E+00         0.00000E+00         0.00000E+00
    0.15120E-01         0.11747E-01         0.00000E+00
    0.15058E-01         0.10659E-01         0.00000E+00
    0.14963E-01         0.95773E-02         0.00000E+00
    0.14832E-01         0.85058E-02         0.00000E+00
    0.14661E-01         0.74501E-02         0.00000E+00
    0.14446E-01         0.64157E-02         0.00000E+00
    0.14183E-01         0.54086E-02         0.00000E+00
    0.13870E-01         0.44355E-02         0.00000E+00
    0.13505E-01         0.35030E-02         0.00000E+00
    0.13085E-01         0.26181E-02         0.00000E+00
    0.12608E-01         0.17881E-02         0.00000E+00
    0.12074E-01         0.10204E-02         0.00000E+00
    0.11480E-01         0.32238E-03         0.00000E+00
    0.10828E-01        -0.29845E-03         0.00000E+00
    0.10116E-01        -0.83459E-03         0.00000E+00
    0.93453E-02        -0.12786E-02         0.00000E+00
    0.85159E-02        -0.16232E-02         0.00000E+00
    0.76291E-02        -0.18613E-02         0.00000E+00
    0.66865E-02        -0.19858E-02         0.00000E+00
    0.56899E-02        -0.19902E-02         0.00000E+00
    0.46418E-02        -0.18680E-02         0.00000E+00
    0.35451E-02        -0.16132E-02         0.00000E+00
    0.24031E-02        -0.12202E-02         0.00000E+00
    0.12199E-02        -0.68398E-03         0.00000E+00
    0.00000E+00         0.00000E+00         0.00000E+00
    0.12582E-01         0.11702E-01         0.00000E+00
    0.12528E-01         0.10619E-01         0.00000E+00
    0.12447E-01         0.95427E-02         0.00000E+00
    0.12335E-01         0.84773E-02         0.00000E+00
    0.12191E-01         0.74279E-02         0.00000E+00
    0.12010E-01         0.64002E-02         0.00000E+00
    0.11789E-01         0.54000E-02         0.00000E+00
    0.11528E-01         0.44336E-02         0.00000E+00
    0.11222E-01         0.35078E-02         0.00000E+00
    0.10872E-01         0.26293E-02         0.00000E+00
    0.10475E-01         0.18053E-02         0.00000E+00
    0.10030E-01         0.10430E-02         0.00000E+00
    0.95358E-02         0.34975E-03         0.00000E+00
    0.89930E-02        -0.26702E-03         0.00000E+00
    0.84010E-02        -0.79996E-03         0.00000E+00
    0.77600E-02        -0.12417E-02         0.00000E+00
    0.70706E-02        -0.15851E-02         0.00000E+00
    0.63336E-02        -0.18230E-02         0.00000E+00
    0.55504E-02        -0.19486E-02         0.00000E+00
    0.47226E-02        -0.19553E-02         0.00000E+00
    0.38522E-02        -0.18368E-02         0.00000E+00
    0.29416E-02        -0.15872E-02         0.00000E+00
    0.19938E-02        -0.12011E-02         0.00000E+00
    0.10120E-02        -0.67346E-03         0.00000E+00
    0.00000E+00         0.00000E+00         0.00000E+00
    0.10054E-01         0.11663E-01         0.00000E+00
    0.10009E-01         0.10584E-01         0.00000E+00
    0.99427E-02         0.95121E-02         0.00000E+00
    0.98522E-02         0.84515E-02         0.00000E+00
    0.97351E-02         0.74074E-02         0.00000E+00
    0.95891E-02         0.63852E-02         0.00000E+00
    0.94120E-02         0.53905E-02         0.00000E+00
    0.92020E-02         0.44298E-02         0.00000E+00
    0.89574E-02         0.35094E-02         0.00000E+00
    0.86767E-02         0.26362E-02         0.00000E+00
    0.83588E-02         0.18171E-02         0.00000E+00
    0.80029E-02         0.10594E-02         0.00000E+00
    0.76083E-02         0.37017E-03         0.00000E+00
    0.71746E-02        -0.24316E-03         0.00000E+00
    0.67017E-02        -0.77333E-03         0.00000E+00
    0.61898E-02        -0.12131E-02         0.00000E+00
    0.56394E-02        -0.15552E-02         0.00000E+00
    0.50512E-02        -0.17928E-02         0.00000E+00
    0.44261E-02        -0.19191E-02         0.00000E+00
    0.37656E-02        -0.19275E-02         0.00000E+00
    0.30713E-02        -0.18119E-02         0.00000E+00
    0.23451E-02        -0.15664E-02         0.00000E+00
    0.15893E-02        -0.11857E-02         0.00000E+00
    0.80655E-03        -0.66501E-03         0.00000E+00
    0.00000E+00         0.00000E+00         0.00000E+00
    0.75341E-02         0.11631E-01         0.00000E+00
    0.74992E-02         0.10555E-01         0.00000E+00
    0.74484E-02         0.94869E-02         0.00000E+00
    0.73797E-02         0.84301E-02         0.00000E+00
    0.72911E-02         0.73901E-02         0.00000E+00
    0.71810E-02         0.63720E-02         0.00000E+00
    0.70477E-02         0.53818E-02         0.00000E+00
    0.68898E-02         0.44254E-02         0.00000E+00
    0.67060E-02         0.35093E-02         0.00000E+00
    0.64954E-02         0.26402E-02         0.00000E+00
    0.62570E-02         0.18250E-02         0.00000E+00
    0.59901E-02         0.10708E-02         0.00000E+00
    0.56943E-02         0.38483E-03         0.00000E+00
    0.53693E-02        -0.22575E-03         0.00000E+00
    0.50151E-02        -0.75367E-03         0.00000E+00
    0.46318E-02        -0.11917E-02         0.00000E+00
    0.42196E-02        -0.15329E-02         0.00000E+00
    0.37792E-02        -0.17701E-02         0.00000E+00
    0.33113E-02        -0.18968E-02         0.00000E+00
    0.28169E-02        -0.19065E-02         0.00000E+00
    0.22973E-02        -0.17930E-02         0.00000E+00
    0.17540E-02        -0.15506E-02         0.00000E+00
    0.11886E-02        -0.11740E-02         0.00000E+00
    0.60314E-03        -0.65853E-03         0.00000E+00
    0.00000E+00         0.00000E+00         0.00000E+00
    0.50196E-02         0.11608E-01         0.00000E+00
    0.49959E-02         0.10534E-01         0.00000E+00
    0.49615E-02         0.94681E-02         0.00000E+00
    0.49153E-02         0.84140E-02         0.00000E+00
    0.48559E-02         0.73769E-02         0.00000E+00
    0.47822E-02         0.63619E-02         0.00000E+00
    0.46931E-02         0.53747E-02         0.00000E+00
    0.45876E-02         0.44214E-02         0.00000E+00
    0.44650E-02         0.35084E-02         0.00000E+00
    0.43245E-02         0.26423E-02         0.00000E+00
    0.41655E-02         0.18299E-02         0.00000E+00
    0.39876E-02         0.10783E-02         0.00000E+00
    0.37905E-02         0.39466E-03         0.00000E+00
    0.35740E-02        -0.21391E-03         0.00000E+00
    0.33381E-02        -0.74018E-03         0.00000E+00
    0.30828E-02        -0.11770E-02         0.00000E+00
    0.28083E-02        -0.15174E-02         0.00000E+00
    0.25151E-02        -0.17543E-02         0.00000E+00
    0.22036E-02        -0.18812E-02         0.00000E+00
    0.18745E-02        -0.18917E-02         0.00000E+00
    0.15286E-02        -0.17796E-02         0.00000E+00
    0.11670E-02        -0.15394E-02         0.00000E+00
    0.79076E-03        -0.11657E-02         0.00000E+00
    0.40125E-03        -0.65395E-03         0.00000E+00
    0.00000E+00         0.00000E+00         0.00000E+00
    0.25089E-02         0.11594E-01         0.00000E+00
    0.24968E-02         0.10521E-01         0.00000E+00
    0.24796E-02         0.94565E-02         0.00000E+00
    0.24563E-02         0.84041E-02         0.00000E+00
    0.24265E-02         0.73687E-02         0.00000E+00
    0.23896E-02         0.63555E-02         0.00000E+00
    0.23449E-02         0.53702E-02         0.00000E+00
    0.22921E-02         0.44188E-02         0.00000E+00
    0.22308E-02         0.35076E-02         0.00000E+00
    0.21605E-02         0.26433E-02         0.00000E+00
    0.20810E-02         0.18326E-02         0.00000E+00
    0.19921E-02         0.10826E-02         0.00000E+00
    0.18936E-02         0.40030E-03         0.00000E+00
    0.17854E-02        -0.20704E-03         0.00000E+00
    0.16675E-02        -0.73231E-03         0.00000E+00
    0.15399E-02        -0.11684E-02         0.00000E+00
    0.14027E-02        -0.15082E-02         0.00000E+00
    0.12562E-02        -0.17450E-02         0.00000E+00
    0.11006E-02        -0.18720E-02         0.00000E+00
    0.93620E-03        -0.18830E-02         0.00000E+00
    0.76344E-03        -0.17718E-02         0.00000E+00
    0.58281E-03        -0.15328E-02         0.00000E+00
    0.39489E-03        -0.11608E-02         0.00000E+00
    0.20037E-03        -0.65122E-03         0.00000E+00
    0.00000E+00         0.00000E+00         0.00000E+00
    0.00000E+00         0.11589E-01         0.00000E+00
    0.00000E+00         0.10517E-01         0.00000E+00
    0.00000E+00         0.94526E-02         0.00000E+00
    0.00000E+00         0.84007E-02         0.00000E+00
    0.00000E+00         0.73659E-02         0.00000E+00
    0.00000E+00         0.63533E-02         0.00000E+00
    0.00000E+00         0.53686E-02         0.00000E+00
    0.00000E+00         0.44178E-02         0.00000E+00
    0.00000E+00         0.35073E-02         0.00000E+00
    0.00000E+00         0.26435E-02         0.00000E+00
    0.00000E+00         0.18334E-02         0.00000E+00
    0.00000E+00         0.10839E-02         0.00000E+00
    0.00000E+00         0.40214E-03         0.00000E+00
    0.00000E+00        -0.20480E-03         0.00000E+00
    0.00000E+00        -0.72972E-03         0.00000E+00
    0.00000E+00        -0.11655E-02         0.00000E+00
    0.00000E+00        -0.15052E-02         0.00000E+00
    0.00000E+00        -0.17419E-02         0.00000E+00
    0.00000E+00        -0.18690E-02         0.00000E+00
    0.00000E+00        -0.18801E-02         0.00000E+00
    0.00000E+00        -0.17691E-02         0.00000E+00
    0.00000E+00        -0.15306E-02         0.00000E+00
    0.00000E+00        -0.11592E-02         0.00000E+00
    0.00000E+00        -0.65032E-03         0.00000E+00
    0.00000E+00         0.00000E+00         0.00000E+00
CELL_DATA       1152
VECTORS vDarcy double 
    0.29234E-19        -0.31439E-19         0.00000E+00
    0.15969E-19        -0.28546E-19         0.00000E+00
   -0.17542E-20         0.23426E-19         0.00000E+00
   -0.11997E-19         0.54660E-19         0.00000E+00
   -0.79616E-20         0.32094E-19         0.00000E+00
   -0.42501E-20        -0.20578E-19         0.00000E+00
    0.83927E-21        -0.17155E-19         0.00000E+00
    0.99641E-20        -0.29403E-19         0.00000E+00
    0.61827E-20        -0.26680E-19         0.00000E+00
   -0.31330E-20        -0.75050E-20         0.00000E+00
   -0.40307E-20         0.85076E-20         0.00000E+00
    0.40925E-21         0.10481E-19         0.00000E+00
    0.31070E-20         0.73125E-20         0.00000E+00
    0.37650E-20         0.98461E-20         0.00000E+00
    0.21432E-20        -0.25028E-20         0.00000E+00
    0.54098E-21        -0.15792E-20         0.00000E+00
    0.68507E-21         0.14495E-20         0.00000E+00
    0.20157E-21         0.21506E-20         0.00000E+00
   -0.45933E-21         0.60537E-21         0.00000E+00
    0.30778E-21        -0.89365E-21         0.00000E+00
    0.12078E-21        -0.20626E-21         0.00000E+00
   -0.25612E-21         0.67123E-21         0.00000E+00
    0.18620E-21         0.20691E-20         0.00000E+00
    0.30685E-21         0.88366E-21         0.00000E+00
    0.71528E-19        -0.64901E-20         0.00000E+00
    0.26868E-19         0.44314E-20         0.00000E+00
    0.69997E-20         0.28040E-19         0.00000E+00
    0.14839E-19         0.52449E-19         0.00000E+00
    0.27112E-19         0.17997E-19         0.00000E+00
    0.27215E-19        -0.10295E-19         0.00000E+00
    0.14634E-19        -0.19945E-19         0.00000E+00
    0.10940E-19        -0.32044E-19         0.00000E+00
    0.89471E-20        -0.18264E-19         0.00000E+00
    0.24395E-20        -0.97751E-22         0.00000E+00
    0.99414E-21         0.34435E-20         0.00000E+00
    0.46047E-20         0.74948E-20         0.00000E+00
    0.33307E-20         0.88752E-20         0.00000E+00
    0.13340E-20         0.96221E-20         0.00000E+00
    0.14742E-20        -0.79721E-21         0.00000E+00
    0.79183E-21        -0.10002E-20         0.00000E+00
    0.29275E-21         0.12255E-20         0.00000E+00
    0.96203E-21         0.21888E-20         0.00000E+00
    0.16567E-20         0.53337E-21         0.00000E+00
    0.17539E-20        -0.16859E-20         0.00000E+00
    0.13028E-20         0.12241E-20         0.00000E+00
   -0.28854E-21         0.12091E-20         0.00000E+00
   -0.31792E-21         0.11183E-20         0.00000E+00
    0.70693E-21         0.68894E-21         0.00000E+00
    0.57681E-19         0.28933E-19         0.00000E+00
    0.38034E-19         0.33315E-19         0.00000E+00
    0.20071E-19         0.36987E-19         0.00000E+00
    0.14331E-19         0.41403E-19         0.00000E+00
    0.25915E-19         0.51854E-20         0.00000E+00
    0.28133E-19         0.19473E-21         0.00000E+00
    0.23667E-19        -0.13387E-19         0.00000E+00
    0.11701E-19        -0.22945E-19         0.00000E+00
   -0.22382E-20        -0.11431E-19         0.00000E+00
   -0.34165E-20         0.75494E-21         0.00000E+00
   -0.56466E-20         0.62663E-20         0.00000E+00
   -0.73746E-20         0.27894E-20         0.00000E+00
   -0.94741E-21         0.84273E-20         0.00000E+00
    0.38479E-20         0.72714E-20         0.00000E+00
    0.44167E-20         0.84454E-21         0.00000E+00
    0.15843E-20         0.87274E-21         0.00000E+00
    0.13690E-20         0.66932E-22         0.00000E+00
    0.34733E-20         0.57386E-21         0.00000E+00
    0.30844E-20         0.18425E-20         0.00000E+00
    0.98939E-21        -0.99719E-21         0.00000E+00
    0.21964E-21         0.17562E-20         0.00000E+00
    0.28643E-21         0.22015E-20         0.00000E+00
    0.24285E-21         0.19890E-21         0.00000E+00
    0.47559E-21         0.35078E-21         0.00000E+00
    0.11266E-19         0.32120E-19         0.00000E+00
    0.22442E-19         0.38598E-19         0.00000E+00
    0.19962E-19         0.52148E-19         0.00000E+00
    0.20076E-19         0.31869E-19         0.00000E+00
    0.21798E-19         0.14134E-20         0.00000E+00
    0.21898E-19         0.16483E-20         0.00000E+00
    0.15684E-19        -0.41597E-20         0.00000E+00
    0.41496E-20        -0.86713E-20         0.00000E+00
   -0.30407E-20        -0.45751E-20         0.00000E+00
   -0.55771E-20        -0.23866E-20         0.00000E+00
   -0.17924E-20         0.78532E-20         0.00000E+00
   -0.27720E-20         0.39101E-20         0.00000E+00
   -0.60068E-20         0.41141E-20         0.00000E+00
   -0.73886E-21         0.15213E-20         0.00000E+00
    0.26427E-20         0.26443E-20         0.00000E+00
    0.31702E-20         0.13779E-20         0.00000E+00
    0.42372E-20        -0.12900E-20         0.00000E+00
    0.23350E-20         0.17287E-20         0.00000E+00
    0.10467E-20         0.23649E-20         0.00000E+00
    0.82899E-22         0.15392E-20         0.00000E+00
   -0.94243E-21         0.10149E-20         0.00000E+00
    0.60281E-21         0.13308E-20         0.00000E+00
    0.11385E-20         0.57747E-21         0.00000E+00
    0.79725E-21         0.80758E-22         0.00000E+00
   -0.35901E-20         0.24445E-19         0.00000E+00
   -0.47893E-20         0.36296E-19         0.00000E+00
    0.11067E-19         0.41074E-19         0.00000E+00
    0.27537E-19         0.26359E-19         0.00000E+00
    0.27527E-19         0.52120E-20         0.00000E+00
    0.19648E-19         0.56284E-20         0.00000E+00
    0.61337E-20         0.11588E-19         0.00000E+00
   -0.55693E-20        -0.11812E-20         0.00000E+00
   -0.61852E-20        -0.42591E-20         0.00000E+00
   -0.13512E-20        -0.50001E-20         0.00000E+00
   -0.48641E-21         0.58173E-20         0.00000E+00
   -0.48922E-20         0.11331E-19         0.00000E+00
   -0.54019E-20         0.43720E-21         0.00000E+00
   -0.10022E-20        -0.44693E-20         0.00000E+00
    0.40200E-20         0.23116E-21         0.00000E+00
    0.59048E-20         0.13787E-20         0.00000E+00
    0.31800E-20         0.36706E-21         0.00000E+00
    0.21467E-20         0.30070E-20         0.00000E+00
    0.25204E-20         0.20012E-20         0.00000E+00
    0.27545E-20         0.26327E-20         0.00000E+00
    0.24011E-20         0.13001E-20         0.00000E+00
    0.13967E-20         0.50482E-21         0.00000E+00
    0.14884E-20         0.77603E-21         0.00000E+00
    0.17278E-20        -0.15951E-22         0.00000E+00
    0.33178E-20         0.24717E-19         0.00000E+00
    0.12638E-19         0.27903E-19         0.00000E+00
    0.23495E-19         0.22753E-19         0.00000E+00
    0.31681E-19         0.20024E-19         0.00000E+00
    0.28158E-19         0.15081E-19         0.00000E+00
    0.15715E-19         0.16081E-19         0.00000E+00
    0.10949E-19         0.19416E-19         0.00000E+00
    0.80177E-20         0.56250E-20         0.00000E+00
    0.32910E-20        -0.57227E-20         0.00000E+00
   -0.80910E-21        -0.42705E-20         0.00000E+00
   -0.34030E-20         0.68168E-20         0.00000E+00
   -0.66236E-21         0.11997E-19         0.00000E+00
    0.23193E-20        -0.27004E-20         0.00000E+00
    0.21787E-20        -0.55909E-20         0.00000E+00
    0.16500E-20        -0.31408E-20         0.00000E+00
    0.39743E-20         0.54154E-21         0.00000E+00
    0.53803E-20         0.25231E-20         0.00000E+00
    0.53124E-20         0.19521E-20         0.00000E+00
    0.49326E-20         0.30623E-20         0.00000E+00
    0.34285E-20         0.28416E-20         0.00000E+00
    0.34469E-20         0.14261E-20         0.00000E+00
    0.39807E-20         0.84933E-21         0.00000E+00
    0.33771E-20         0.94347E-21         0.00000E+00
    0.26691E-20         0.28516E-21         0.00000E+00
    0.29214E-20         0.18478E-19         0.00000E+00
    0.81504E-20         0.19594E-19         0.00000E+00
    0.72146E-20         0.21141E-19         0.00000E+00
    0.72510E-20         0.13415E-19         0.00000E+00
    0.16329E-19         0.16135E-19         0.00000E+00
    0.23019E-19         0.20778E-19         0.00000E+00
    0.23481E-19         0.19024E-19         0.00000E+00
    0.18924E-19         0.13505E-19         0.00000E+00
    0.11401E-19        -0.13524E-20         0.00000E+00
    0.70470E-20        -0.18710E-21         0.00000E+00
    0.58800E-20         0.64943E-20         0.00000E+00
    0.83465E-20         0.71126E-20         0.00000E+00
    0.87689E-20        -0.12199E-20         0.00000E+00
    0.68378E-20        -0.49997E-20         0.00000E+00
    0.71145E-20        -0.34799E-20         0.00000E+00
    0.70249E-20        -0.13540E-20         0.00000E+00
    0.62139E-20         0.38236E-20         0.00000E+00
    0.38777E-20         0.30556E-20         0.00000E+00
    0.26333E-20         0.35829E-20         0.00000E+00
    0.35128E-20         0.29456E-20         0.00000E+00
    0.36748E-20         0.11418E-20         0.00000E+00
    0.31468E-20         0.11278E-20         0.00000E+00
    0.29947E-20         0.14208E-20         0.00000E+00
    0.28625E-20         0.64801E-21         0.00000E+00
   -0.29486E-20         0.18505E-19         0.00000E+00
   -0.51341E-20         0.16523E-19         0.00000E+00
   -0.10439E-20         0.21057E-19         0.00000E+00
    0.17220E-20         0.10697E-19         0.00000E+00
    0.19016E-20         0.95960E-20         0.00000E+00
    0.46453E-20         0.17883E-19         0.00000E+00
    0.85752E-20         0.17527E-19         0.00000E+00
    0.84460E-20         0.19687E-19         0.00000E+00
    0.48932E-20         0.35422E-20         0.00000E+00
    0.59037E-20        -0.17387E-20         0.00000E+00
    0.66425E-20         0.84740E-20         0.00000E+00
    0.81443E-20         0.11647E-20         0.00000E+00
    0.11737E-19         0.71309E-21         0.00000E+00
    0.84460E-20        -0.17108E-20         0.00000E+00
    0.47991E-20        -0.33986E-20         0.00000E+00
    0.39397E-20        -0.48631E-21         0.00000E+00
    0.23641E-20         0.53425E-20         0.00000E+00
    0.15127E-20         0.47244E-20         0.00000E+00
    0.13955E-20         0.32758E-20         0.00000E+00
    0.14242E-20         0.23446E-20         0.00000E+00
    0.15623E-20         0.14426E-20         0.00000E+00
    0.14687E-20         0.14485E-20         0.00000E+00
    0.15956E-20         0.11254E-20         0.00000E+00
    0.21350E-20         0.53623E-21         0.00000E+00
    0.93286E-21         0.20521E-19         0.00000E+00
    0.15810E-20         0.16045E-19         0.00000E+00
    0.24496E-20         0.16576E-19         0.00000E+00
    0.12606E-20         0.13600E-19         0.00000E+00
   -0.47974E-20         0.12571E-19         0.00000E+00
   -0.10159E-19         0.17526E-19         0.00000E+00
   -0.80663E-20         0.11862E-19         0.00000E+00
    0.18632E-21         0.17229E-19         0.00000E+00
    0.77459E-20         0.19936E-20         0.00000E+00
    0.80069E-20        -0.14616E-20         0.00000E+00
    0.88161E-20         0.66488E-20         0.00000E+00
    0.12648E-19        -0.23442E-20         0.00000E+00
    0.11425E-19         0.18528E-20         0.00000E+00
    0.91222E-20         0.27430E-20         0.00000E+00
    0.62467E-20        -0.13300E-20         0.00000E+00
    0.38423E-20         0.70888E-21         0.00000E+00
    0.40475E-20         0.55176E-20         0.00000E+00
    0.29399E-20         0.65082E-20         0.00000E+00
    0.56564E-21         0.39836E-20         0.00000E+00
   -0.43943E-21         0.26132E-20         0.00000E+00
   -0.27200E-21         0.86842E-21         0.00000E+00
    0.46306E-21         0.13812E-20         0.00000E+00
    0.10703E-20         0.45855E-21         0.00000E+00
    0.15459E-20         0.18804E-21         0.00000E+00
    0.24617E-20         0.17126E-19         0.00000E+00
    0.43357E-20         0.16917E-19         0.00000E+00
    0.31709E-20         0.16000E-19         0.00000E+00
    0.32573E-20         0.15279E-19         0.00000E+00
    0.46273E-20         0.15580E-19         0.00000E+00
    0.54076E-20         0.19098E-19         0.00000E+00
    0.52924E-20         0.83129E-20         0.00000E+00
    0.10463E-19         0.73552E-20         0.00000E+00
    0.14485E-19         0.28577E-21         0.00000E+00
    0.12863E-19         0.16074E-20         0.00000E+00
    0.13367E-19         0.22672E-20         0.00000E+00
    0.11353E-19         0.21874E-21         0.00000E+00
    0.82642E-20         0.36021E-20         0.00000E+00
    0.85178E-20         0.30428E-20         0.00000E+00
    0.85707E-20         0.11928E-20         0.00000E+00
    0.69032E-20         0.22579E-20         0.00000E+00
    0.35365E-20         0.71301E-20         0.00000E+00
    0.26156E-20         0.69241E-20         0.00000E+00
    0.40948E-20         0.44627E-20         0.00000E+00
    0.39198E-20         0.33142E-20         0.00000E+00
    0.19421E-20         0.19777E-20         0.00000E+00
    0.61166E-21         0.86734E-21         0.00000E+00
    0.10559E-20        -0.79080E-22         0.00000E+00
    0.13621E-20        -0.56221E-22         0.00000E+00
    0.46710E-21         0.14197E-19         0.00000E+00
    0.17977E-20         0.16641E-19         0.00000E+00
    0.27654E-20         0.16473E-19         0.00000E+00
    0.49150E-20         0.12570E-19         0.00000E+00
    0.72525E-20         0.14582E-19         0.00000E+00
    0.11117E-19         0.15451E-19         0.00000E+00
    0.14605E-19         0.85867E-20         0.00000E+00
    0.12596E-19         0.39206E-20         0.00000E+00
    0.10612E-19         0.16812E-20         0.00000E+00
    0.89467E-20         0.34996E-20         0.00000E+00
    0.68100E-20         0.20082E-20         0.00000E+00
    0.75398E-20         0.17614E-20         0.00000E+00
    0.81302E-20         0.45579E-20         0.00000E+00
    0.70222E-20         0.29414E-20         0.00000E+00
    0.60918E-20         0.21716E-20         0.00000E+00
    0.42310E-20         0.48074E-20         0.00000E+00
    0.30473E-20         0.91311E-20         0.00000E+00
    0.40555E-20         0.48359E-20         0.00000E+00
    0.44984E-20         0.46289E-20         0.00000E+00
    0.39137E-20         0.39076E-20         0.00000E+00
    0.26979E-20         0.45778E-20         0.00000E+00
    0.14772E-20         0.81837E-21         0.00000E+00
    0.15286E-20        -0.52571E-21         0.00000E+00
    0.18791E-20        -0.26638E-21         0.00000E+00
   -0.10123E-21         0.13831E-19         0.00000E+00
    0.82015E-21         0.14755E-19         0.00000E+00
    0.13046E-20         0.16907E-19         0.00000E+00
   -0.98879E-21         0.12280E-19         0.00000E+00
    0.20706E-20         0.94751E-20         0.00000E+00
    0.84806E-20         0.10283E-19         0.00000E+00
    0.85132E-20         0.10234E-19         0.00000E+00
    0.69615E-20         0.58345E-20         0.00000E+00
    0.54332E-20         0.32788E-20         0.00000E+00
    0.37627E-20         0.52381E-20         0.00000E+00
    0.20125E-20         0.41566E-20         0.00000E+00
   -0.19269E-20         0.28227E-20         0.00000E+00
   -0.13862E-20         0.23654E-20         0.00000E+00
    0.36826E-20         0.11732E-20         0.00000E+00
    0.31124E-20         0.54402E-20         0.00000E+00
   -0.90345E-23         0.65211E-20         0.00000E+00
    0.21647E-20         0.64274E-20         0.00000E+00
    0.42759E-20         0.44201E-20         0.00000E+00
    0.25758E-20         0.63019E-20         0.00000E+00
    0.95892E-21         0.44361E-20         0.00000E+00
    0.19035E-20         0.43206E-20         0.00000E+00
    0.30427E-20         0.11570E-20         0.00000E+00
    0.29786E-20        -0.85174E-21         0.00000E+00
    0.29802E-20        -0.29248E-21         0.00000E+00
    0.47049E-21         0.13462E-19         0.00000E+00
    0.72499E-21         0.13948E-19         0.00000E+00
    0.31071E-20         0.14847E-19         0.00000E+00
    0.56872E-20         0.14053E-19         0.00000E+00
    0.34351E-20         0.68943E-20         0.00000E+00
    0.18797E-20         0.80095E-20         0.00000E+00
    0.50573E-20         0.92975E-20         0.00000E+00
    0.64591E-20         0.69208E-20         0.00000E+00
    0.36836E-20         0.64963E-20         0.00000E+00
    0.19858E-20         0.53889E-20         0.00000E+00
    0.20008E-20         0.57409E-20         0.00000E+00
    0.36048E-20         0.35739E-20         0.00000E+00
    0.28092E-20         0.18691E-20         0.00000E+00
   -0.17519E-20         0.11620E-20         0.00000E+00
   -0.22816E-20         0.65514E-20         0.00000E+00
   -0.51400E-21         0.67638E-20         0.00000E+00
   -0.72193E-21         0.42189E-20         0.00000E+00
   -0.42368E-21         0.42192E-20         0.00000E+00
    0.21654E-20         0.56139E-20         0.00000E+00
    0.37754E-20         0.51311E-20         0.00000E+00
    0.43181E-20         0.21383E-20         0.00000E+00
    0.52437E-20         0.12746E-20         0.00000E+00
    0.45236E-20        -0.18516E-21         0.00000E+00
    0.37366E-20        -0.17370E-21         0.00000E+00
    0.42018E-21         0.12571E-19         0.00000E+00
    0.11458E-20         0.13859E-19         0.00000E+00
    0.22289E-21         0.13477E-19         0.00000E+00
   -0.85622E-21         0.13922E-19         0.00000E+00
    0.61516E-21         0.78062E-20         0.00000E+00
    0.16842E-20         0.75840E-20         0.00000E+00
    0.29778E-20         0.52518E-20         0.00000E+00
    0.53461E-20         0.71964E-20         0.00000E+00
    0.74077E-20         0.69345E-20         0.00000E+00
    0.76050E-20         0.64512E-20         0.00000E+00
    0.46294E-20         0.76392E-20         0.00000E+00
    0.34158E-20         0.12852E-20         0.00000E+00
    0.32643E-20         0.51047E-20         0.00000E+00
   -0.23396E-21         0.59857E-20         0.00000E+00
   -0.29144E-20         0.49378E-20         0.00000E+00
   -0.23000E-20         0.59954E-20         0.00000E+00
   -0.44174E-21         0.33370E-20         0.00000E+00
    0.18206E-20         0.25405E-20         0.00000E+00
    0.27641E-20         0.37600E-20         0.00000E+00
    0.40767E-20         0.40624E-20         0.00000E+00
    0.54163E-20         0.13247E-20         0.00000E+00
    0.50725E-20         0.15065E-20         0.00000E+00
    0.46409E-20         0.73452E-21         0.00000E+00
    0.42738E-20         0.60731E-22         0.00000E+00
   -0.10975E-21         0.12261E-19         0.00000E+00
    0.43533E-21         0.12899E-19         0.00000E+00
    0.12257E-20         0.14570E-19         0.00000E+00
    0.30608E-20         0.12073E-19         0.00000E+00
    0.39863E-20         0.72582E-20         0.00000E+00
    0.47287E-20         0.63206E-20         0.00000E+00
    0.41888E-20         0.57617E-20         0.00000E+00
    0.37591E-20         0.47479E-20         0.00000E+00
    0.63991E-20         0.46814E-20         0.00000E+00
    0.47429E-20         0.10163E-19         0.00000E+00
    0.35318E-20         0.81139E-20         0.00000E+00
    0.39673E-20         0.15887E-20         0.00000E+00
    0.33072E-20         0.56127E-20         0.00000E+00
    0.42563E-20         0.80270E-20         0.00000E+00
    0.43613E-20         0.54720E-20         0.00000E+00
    0.41822E-20         0.50258E-20         0.00000E+00
    0.41116E-20         0.25189E-20         0.00000E+00
    0.37883E-20         0.14196E-20         0.00000E+00
    0.46313E-20         0.30943E-20         0.00000E+00
    0.50593E-20         0.29875E-20         0.00000E+00
    0.41290E-20         0.19903E-20         0.00000E+00
    0.37482E-20         0.15654E-20         0.00000E+00
    0.41074E-20         0.74801E-21         0.00000E+00
    0.44403E-20         0.81433E-22         0.00000E+00
    0.36943E-21         0.12001E-19         0.00000E+00
    0.90933E-21         0.12073E-19         0.00000E+00
    0.28369E-20         0.12678E-19         0.00000E+00
    0.51442E-20         0.98232E-20         0.00000E+00
    0.63151E-20         0.74117E-20         0.00000E+00
    0.67513E-20         0.49885E-20         0.00000E+00
    0.56144E-20         0.87705E-20         0.00000E+00
    0.21445E-20         0.56386E-20         0.00000E+00
   -0.24966E-20         0.57918E-20         0.00000E+00
   -0.21734E-20         0.10386E-19         0.00000E+00
    0.20412E-20         0.48878E-20         0.00000E+00
    0.47789E-20         0.16417E-20         0.00000E+00
    0.47341E-20         0.62647E-20         0.00000E+00
    0.40284E-20         0.71317E-20         0.00000E+00
    0.43889E-20         0.59017E-20         0.00000E+00
    0.53321E-20         0.38319E-20         0.00000E+00
    0.53514E-20         0.37641E-20         0.00000E+00
    0.46642E-20         0.11849E-20         0.00000E+00
    0.44593E-20         0.26909E-20         0.00000E+00
    0.43672E-20         0.30549E-20         0.00000E+00
    0.44197E-20         0.28008E-20         0.00000E+00
    0.40848E-20         0.14705E-20         0.00000E+00
    0.41463E-20         0.42223E-21         0.00000E+00
    0.43331E-20        -0.11250E-21         0.00000E+00
    0.46153E-21         0.11170E-19         0.00000E+00
    0.14253E-20         0.11401E-19         0.00000E+00
    0.26460E-20         0.10202E-19         0.00000E+00
    0.36381E-20         0.89993E-20         0.00000E+00
    0.35374E-20         0.71655E-20         0.00000E+00
    0.27494E-20         0.55864E-20         0.00000E+00
    0.41472E-20         0.79116E-20         0.00000E+00
    0.34344E-20         0.10680E-19         0.00000E+00
    0.94209E-21         0.78836E-20         0.00000E+00
    0.36521E-20         0.52609E-20         0.00000E+00
    0.62737E-20         0.31766E-20         0.00000E+00
    0.52537E-20         0.16351E-20         0.00000E+00
    0.48414E-20         0.67283E-20         0.00000E+00
    0.39068E-20         0.83084E-20         0.00000E+00
    0.24702E-20         0.58011E-20         0.00000E+00
    0.28607E-20         0.25987E-20         0.00000E+00
    0.41758E-20         0.36629E-20         0.00000E+00
    0.37031E-20         0.24461E-20         0.00000E+00
    0.31046E-20         0.22331E-20         0.00000E+00
    0.46132E-20         0.20962E-20         0.00000E+00
    0.52948E-20         0.30254E-20         0.00000E+00
    0.51982E-20         0.16774E-20         0.00000E+00
    0.49452E-20         0.40685E-21         0.00000E+00
    0.48004E-20        -0.13914E-21         0.00000E+00
    0.22743E-21         0.10481E-19         0.00000E+00
    0.10231E-20         0.10330E-19         0.00000E+00
    0.10799E-20         0.99952E-20         0.00000E+00
    0.18527E-20         0.74413E-20         0.00000E+00
    0.31960E-20         0.74810E-20         0.00000E+00
    0.24228E-20         0.68321E-20         0.00000E+00
    0.76716E-21         0.69237E-20         0.00000E+00
    0.27758E-20         0.10372E-19         0.00000E+00
    0.66764E-20         0.67834E-20         0.00000E+00
    0.71591E-20         0.31684E-20         0.00000E+00
    0.64327E-20         0.33738E-20         0.00000E+00
    0.52214E-20         0.36692E-20         0.00000E+00
    0.40498E-20         0.62782E-20         0.00000E+00
    0.61272E-20         0.76158E-20         0.00000E+00
    0.80649E-20         0.59926E-20         0.00000E+00
    0.52100E-20         0.48716E-20         0.00000E+00
    0.29902E-20         0.22946E-20         0.00000E+00
    0.42379E-20         0.30395E-20         0.00000E+00
    0.50742E-20         0.14019E-20         0.00000E+00
    0.47454E-20         0.17477E-20         0.00000E+00
    0.48710E-20         0.25667E-20         0.00000E+00
    0.56107E-20         0.14931E-20         0.00000E+00
    0.61094E-20         0.34549E-21         0.00000E+00
    0.62092E-20        -0.32767E-22         0.00000E+00
    0.14195E-21         0.10112E-19         0.00000E+00
    0.11018E-20         0.89439E-20         0.00000E+00
    0.44081E-20         0.80184E-20         0.00000E+00
    0.55290E-20         0.75244E-20         0.00000E+00
    0.39401E-20         0.76436E-20         0.00000E+00
    0.32895E-20         0.80933E-20         0.00000E+00
    0.18587E-20         0.87490E-20         0.00000E+00
    0.19653E-20         0.64316E-20         0.00000E+00
    0.32411E-20         0.55475E-20         0.00000E+00
    0.38855E-20         0.32772E-20         0.00000E+00
    0.55643E-20         0.23126E-20         0.00000E+00
    0.66280E-20         0.48779E-20         0.00000E+00
    0.43952E-20         0.84739E-20         0.00000E+00
    0.27742E-20         0.49637E-20         0.00000E+00
    0.41768E-20         0.53043E-20         0.00000E+00
    0.60045E-20         0.65871E-20         0.00000E+00
    0.50429E-20         0.37605E-20         0.00000E+00
    0.27426E-20         0.26262E-20         0.00000E+00
    0.25082E-20         0.12132E-20         0.00000E+00
    0.27972E-20         0.19762E-20         0.00000E+00
    0.40590E-20         0.95081E-21         0.00000E+00
    0.58025E-20         0.62579E-21         0.00000E+00
    0.63110E-20         0.20550E-21         0.00000E+00
    0.61001E-20         0.21835E-21         0.00000E+00
    0.14824E-20         0.84876E-20         0.00000E+00
    0.36035E-20         0.74874E-20         0.00000E+00
    0.39769E-20         0.57952E-20         0.00000E+00
    0.36403E-20         0.89631E-20         0.00000E+00
    0.33369E-20         0.80973E-20         0.00000E+00
    0.34787E-20         0.81484E-20         0.00000E+00
    0.54184E-20         0.81851E-20         0.00000E+00
    0.60598E-20         0.62476E-20         0.00000E+00
    0.60832E-20         0.44323E-20         0.00000E+00
    0.80994E-20         0.17320E-20         0.00000E+00
    0.80649E-20         0.22135E-20         0.00000E+00
    0.58710E-20         0.61072E-20         0.00000E+00
    0.56228E-20         0.97255E-20         0.00000E+00
    0.52201E-20         0.57359E-20         0.00000E+00
    0.41379E-20         0.42117E-20         0.00000E+00
    0.47302E-20         0.52597E-20         0.00000E+00
    0.51197E-20         0.56599E-20         0.00000E+00
    0.48359E-20         0.33109E-20         0.00000E+00
    0.47880E-20         0.81067E-21         0.00000E+00
    0.52653E-20         0.16125E-20         0.00000E+00
    0.57958E-20        -0.47775E-21         0.00000E+00
    0.60594E-20         0.47221E-22         0.00000E+00
    0.60123E-20         0.32262E-21         0.00000E+00
    0.60202E-20         0.30430E-21         0.00000E+00
    0.43040E-21         0.65748E-20         0.00000E+00
    0.15539E-20         0.61557E-20         0.00000E+00
    0.63218E-21         0.76753E-20         0.00000E+00
    0.29673E-21         0.77550E-20         0.00000E+00
    0.21517E-20         0.77538E-20         0.00000E+00
    0.32817E-20         0.72200E-20         0.00000E+00
    0.41395E-20         0.63159E-20         0.00000E+00
    0.48995E-20         0.67154E-20         0.00000E+00
    0.62500E-20         0.25905E-20         0.00000E+00
    0.63070E-20         0.15006E-20         0.00000E+00
    0.39374E-20         0.48490E-20         0.00000E+00
    0.20607E-20         0.75424E-20         0.00000E+00
    0.28469E-20         0.77522E-20         0.00000E+00
    0.48351E-20         0.61237E-20         0.00000E+00
    0.45774E-20         0.51638E-20         0.00000E+00
    0.34751E-20         0.48177E-20         0.00000E+00
    0.56492E-20         0.35383E-20         0.00000E+00
    0.84150E-20         0.29506E-20         0.00000E+00
    0.85428E-20         0.10911E-20         0.00000E+00
    0.77385E-20         0.16590E-20         0.00000E+00
    0.65183E-20         0.16550E-21         0.00000E+00
    0.55654E-20         0.93200E-22         0.00000E+00
    0.57784E-20         0.11078E-21         0.00000E+00
    0.61150E-20         0.17175E-21         0.00000E+00
    0.86599E-21         0.52784E-20         0.00000E+00
    0.95373E-21         0.62408E-20         0.00000E+00
    0.12468E-20         0.82189E-20         0.00000E+00
    0.22081E-20         0.65855E-20         0.00000E+00
    0.23387E-20         0.69377E-20         0.00000E+00
    0.21648E-20         0.70801E-20         0.00000E+00
    0.29863E-20         0.47765E-20         0.00000E+00
    0.59442E-20         0.45369E-20         0.00000E+00
    0.56460E-20         0.37167E-20         0.00000E+00
    0.12318E-20         0.47315E-20         0.00000E+00
   -0.13798E-20         0.65993E-20         0.00000E+00
    0.27497E-21         0.60141E-20         0.00000E+00
    0.27030E-20         0.60663E-20         0.00000E+00
    0.40704E-20         0.44540E-20         0.00000E+00
    0.52054E-20         0.59562E-20         0.00000E+00
    0.62791E-20         0.40539E-20         0.00000E+00
    0.65674E-20         0.18397E-20         0.00000E+00
    0.64385E-20         0.20123E-20         0.00000E+00
    0.66236E-20         0.17166E-20         0.00000E+00
    0.67956E-20         0.16659E-20         0.00000E+00
    0.67449E-20         0.14295E-20         0.00000E+00
    0.59544E-20         0.57255E-21         0.00000E+00
    0.54725E-20        -0.99629E-22         0.00000E+00
    0.54679E-20         0.50160E-22         0.00000E+00
    0.10189E-20         0.33935E-20         0.00000E+00
    0.11513E-20         0.79056E-20         0.00000E+00
    0.48905E-21         0.69233E-20         0.00000E+00
    0.14439E-20         0.59650E-20         0.00000E+00
    0.27860E-20         0.60856E-20         0.00000E+00
    0.35041E-20         0.73880E-20         0.00000E+00
    0.37548E-20         0.33964E-20         0.00000E+00
    0.43031E-20         0.24108E-20         0.00000E+00
    0.40211E-20         0.64231E-20         0.00000E+00
    0.39925E-20         0.64678E-20         0.00000E+00
    0.59490E-20         0.55183E-20         0.00000E+00
    0.69054E-20         0.44840E-20         0.00000E+00
    0.66809E-20         0.53928E-20         0.00000E+00
    0.64819E-20         0.39592E-20         0.00000E+00
    0.64539E-20         0.53441E-20         0.00000E+00
    0.60296E-20         0.40166E-20         0.00000E+00
    0.53735E-20         0.22448E-20         0.00000E+00
    0.56284E-20         0.14813E-20         0.00000E+00
    0.55900E-20         0.21008E-20         0.00000E+00
    0.52832E-20         0.14164E-20         0.00000E+00
    0.55137E-20         0.14991E-20         0.00000E+00
    0.58381E-20         0.96909E-21         0.00000E+00
    0.58495E-20        -0.25642E-22         0.00000E+00
    0.59277E-20        -0.97487E-22         0.00000E+00
   -0.19608E-20         0.43354E-20         0.00000E+00
   -0.26973E-20         0.75679E-20         0.00000E+00
   -0.12956E-20         0.65215E-20         0.00000E+00
    0.81322E-22         0.40350E-20         0.00000E+00
    0.25578E-20         0.41970E-20         0.00000E+00
    0.52854E-20         0.58308E-20         0.00000E+00
    0.50604E-20         0.49280E-20         0.00000E+00
    0.18301E-20         0.35611E-20         0.00000E+00
    0.17193E-20         0.56656E-20         0.00000E+00
    0.38849E-20         0.50882E-20         0.00000E+00
    0.49288E-20         0.38975E-20         0.00000E+00
    0.51046E-20         0.49726E-20         0.00000E+00
    0.49550E-20         0.52781E-20         0.00000E+00
    0.51786E-20         0.40493E-20         0.00000E+00
    0.52138E-20         0.52469E-20         0.00000E+00
    0.48072E-20         0.49447E-20         0.00000E+00
    0.53521E-20         0.14277E-20         0.00000E+00
    0.59094E-20         0.14863E-20         0.00000E+00
    0.52716E-20         0.27721E-20         0.00000E+00
    0.49175E-20         0.14061E-20         0.00000E+00
    0.53561E-20         0.84016E-21         0.00000E+00
    0.61213E-20         0.53845E-21         0.00000E+00
    0.64566E-20         0.58233E-22         0.00000E+00
    0.62805E-20        -0.83467E-22         0.00000E+00
   -0.35769E-21         0.66539E-20         0.00000E+00
   -0.65142E-22         0.56933E-20         0.00000E+00
    0.17507E-20         0.51785E-20         0.00000E+00
    0.24096E-20         0.33422E-20         0.00000E+00
    0.91110E-21         0.39118E-20         0.00000E+00
    0.10161E-20         0.32834E-20         0.00000E+00
    0.24777E-20         0.62388E-20         0.00000E+00
    0.26238E-20         0.53344E-20         0.00000E+00
    0.23764E-20         0.42504E-20         0.00000E+00
    0.27482E-20         0.39661E-20         0.00000E+00
    0.29548E-20         0.37690E-20         0.00000E+00
    0.27616E-20         0.51185E-20         0.00000E+00
    0.27347E-20         0.53086E-20         0.00000E+00
    0.21366E-20         0.43933E-20         0.00000E+00
    0.27135E-20         0.42909E-20         0.00000E+00
    0.52966E-20         0.37242E-20         0.00000E+00
    0.61034E-20         0.12964E-20         0.00000E+00
    0.52290E-20         0.19348E-20         0.00000E+00
    0.54767E-20         0.27135E-20         0.00000E+00
    0.63183E-20         0.97732E-21         0.00000E+00
    0.63985E-20         0.75015E-21         0.00000E+00
    0.59510E-20         0.31074E-21         0.00000E+00
    0.58341E-20         0.67511E-22         0.00000E+00
    0.59560E-20        -0.38528E-22         0.00000E+00
    0.50146E-21         0.65101E-20         0.00000E+00
    0.15477E-20         0.44983E-20         0.00000E+00
    0.22331E-20         0.38722E-20         0.00000E+00
    0.16280E-20         0.45947E-20         0.00000E+00
    0.96962E-21         0.48162E-20         0.00000E+00
   -0.31648E-21         0.35602E-20         0.00000E+00
   -0.86860E-21         0.50525E-20         0.00000E+00
   -0.22968E-22         0.55290E-20         0.00000E+00
    0.55441E-21         0.37260E-20         0.00000E+00
    0.22974E-20         0.23758E-20         0.00000E+00
    0.33313E-20         0.41188E-20         0.00000E+00
    0.28014E-20         0.54919E-20         0.00000E+00
    0.28476E-20         0.49159E-20         0.00000E+00
    0.34653E-20         0.47664E-20         0.00000E+00
    0.40550E-20         0.27512E-20         0.00000E+00
    0.49672E-20         0.17686E-20         0.00000E+00
    0.56659E-20         0.17465E-20         0.00000E+00
    0.52572E-20         0.27679E-20         0.00000E+00
    0.52903E-20         0.15995E-20         0.00000E+00
    0.56674E-20         0.87262E-21         0.00000E+00
    0.55826E-20         0.85947E-21         0.00000E+00
    0.59097E-20         0.32183E-21         0.00000E+00
    0.59961E-20         0.86968E-22         0.00000E+00
    0.58557E-20        -0.39472E-22         0.00000E+00
    0.57208E-21         0.54366E-20         0.00000E+00
    0.11483E-20         0.39494E-20         0.00000E+00
    0.12636E-20         0.36203E-20         0.00000E+00
    0.27538E-20         0.39615E-20         0.00000E+00
    0.34210E-20         0.54406E-20         0.00000E+00
    0.27449E-20         0.48980E-20         0.00000E+00
    0.27263E-20         0.42854E-20         0.00000E+00
    0.28598E-20         0.53169E-20         0.00000E+00
    0.26939E-20         0.35266E-20         0.00000E+00
    0.17829E-20         0.17431E-20         0.00000E+00
    0.16956E-20         0.38049E-20         0.00000E+00
    0.29082E-20         0.51231E-20         0.00000E+00
    0.38780E-20         0.42687E-20         0.00000E+00
    0.48354E-20         0.38386E-20         0.00000E+00
    0.54683E-20         0.24565E-20         0.00000E+00
    0.51496E-20         0.14699E-20         0.00000E+00
    0.45744E-20         0.19216E-20         0.00000E+00
    0.47583E-20         0.28175E-20         0.00000E+00
    0.50051E-20         0.12699E-20         0.00000E+00
    0.45262E-20         0.13041E-20         0.00000E+00
    0.48435E-20         0.19543E-21         0.00000E+00
    0.55279E-20        -0.25583E-22         0.00000E+00
    0.56827E-20         0.19324E-21         0.00000E+00
    0.55552E-20         0.12215E-21         0.00000E+00
    0.45870E-22         0.48186E-20         0.00000E+00
    0.89984E-21         0.31372E-20         0.00000E+00
    0.25513E-20         0.26657E-20         0.00000E+00
    0.25083E-20         0.34689E-20         0.00000E+00
    0.21300E-20         0.56444E-20         0.00000E+00
    0.23156E-20         0.51848E-20         0.00000E+00
    0.18429E-20         0.44899E-20         0.00000E+00
    0.22439E-20         0.45780E-20         0.00000E+00
    0.27597E-20         0.39156E-20         0.00000E+00
    0.22976E-20         0.27272E-20         0.00000E+00
    0.21762E-20         0.30296E-20         0.00000E+00
    0.32449E-20         0.36171E-20         0.00000E+00
    0.38863E-20         0.41635E-20         0.00000E+00
    0.38252E-20         0.30475E-20         0.00000E+00
    0.44309E-20         0.20088E-20         0.00000E+00
    0.47015E-20         0.19657E-20         0.00000E+00
    0.43533E-20         0.23493E-20         0.00000E+00
    0.42630E-20         0.22963E-20         0.00000E+00
    0.44085E-20         0.13988E-20         0.00000E+00
    0.47188E-20         0.13438E-20         0.00000E+00
    0.48361E-20        -0.27896E-21         0.00000E+00
    0.45765E-20         0.24012E-22         0.00000E+00
    0.44859E-20         0.79567E-22         0.00000E+00
    0.47230E-20         0.12609E-21         0.00000E+00
    0.77380E-23         0.47650E-20         0.00000E+00
    0.11052E-21         0.22341E-20         0.00000E+00
   -0.11551E-20         0.31830E-20         0.00000E+00
   -0.22593E-20         0.40988E-20         0.00000E+00
   -0.14689E-20         0.46023E-20         0.00000E+00
   -0.11084E-20         0.56808E-20         0.00000E+00
   -0.19335E-20         0.52916E-20         0.00000E+00
   -0.21424E-20         0.35841E-20         0.00000E+00
   -0.50459E-21         0.27557E-20         0.00000E+00
    0.13851E-20         0.24594E-20         0.00000E+00
    0.28461E-20         0.19577E-20         0.00000E+00
    0.32988E-20         0.31675E-20         0.00000E+00
    0.29161E-20         0.43545E-20         0.00000E+00
    0.25151E-20         0.33187E-20         0.00000E+00
    0.19304E-20         0.17166E-20         0.00000E+00
    0.20377E-20         0.18800E-20         0.00000E+00
    0.31972E-20         0.16237E-20         0.00000E+00
    0.42314E-20         0.20779E-20         0.00000E+00
    0.44766E-20         0.12265E-20         0.00000E+00
    0.49035E-20         0.77880E-21         0.00000E+00
    0.48389E-20         0.23335E-21         0.00000E+00
    0.42049E-20         0.40531E-21         0.00000E+00
    0.41846E-20        -0.19081E-21         0.00000E+00
    0.44134E-20        -0.69538E-22         0.00000E+00
    0.76842E-21         0.39889E-20         0.00000E+00
    0.79571E-21         0.28802E-20         0.00000E+00
   -0.27464E-21         0.48728E-20         0.00000E+00
   -0.12447E-20         0.44833E-20         0.00000E+00
   -0.21548E-20         0.43374E-20         0.00000E+00
   -0.12791E-20         0.47095E-20         0.00000E+00
    0.60410E-21         0.52047E-20         0.00000E+00
    0.10516E-20         0.34324E-20         0.00000E+00
    0.94980E-21         0.13714E-20         0.00000E+00
    0.11922E-20         0.17116E-20         0.00000E+00
    0.50034E-21         0.19365E-20         0.00000E+00
   -0.78353E-22         0.33147E-20         0.00000E+00
    0.10506E-20         0.34610E-20         0.00000E+00
    0.20813E-20         0.35824E-20         0.00000E+00
    0.14106E-20         0.27084E-20         0.00000E+00
    0.13335E-20         0.85797E-21         0.00000E+00
    0.22590E-20         0.56077E-21         0.00000E+00
    0.30201E-20         0.13455E-20         0.00000E+00
    0.39073E-20         0.82653E-21         0.00000E+00
    0.44405E-20         0.21857E-21         0.00000E+00
    0.43869E-20         0.91191E-21         0.00000E+00
    0.42634E-20         0.48428E-21         0.00000E+00
    0.42793E-20        -0.26546E-21         0.00000E+00
    0.41825E-20        -0.12686E-21         0.00000E+00
    0.12057E-22         0.32084E-20         0.00000E+00
    0.40353E-21         0.32419E-20         0.00000E+00
    0.15362E-20         0.44488E-20         0.00000E+00
    0.28408E-20         0.45729E-20         0.00000E+00
    0.18986E-20         0.61001E-20         0.00000E+00
    0.14578E-21         0.38241E-20         0.00000E+00
    0.16573E-20         0.26954E-20         0.00000E+00
    0.36208E-20         0.35309E-20         0.00000E+00
    0.28798E-20         0.21157E-20         0.00000E+00
    0.20112E-20         0.15935E-20         0.00000E+00
    0.13001E-20         0.34576E-20         0.00000E+00
    0.85365E-21         0.28188E-20         0.00000E+00
    0.14415E-20         0.22402E-20         0.00000E+00
    0.20660E-20         0.31479E-20         0.00000E+00
    0.32013E-20         0.26784E-20         0.00000E+00
    0.39177E-20         0.24858E-21         0.00000E+00
    0.38931E-20         0.26928E-21         0.00000E+00
    0.38117E-20         0.95733E-21         0.00000E+00
    0.37664E-20         0.37286E-21         0.00000E+00
    0.36976E-20         0.20768E-21         0.00000E+00
    0.38120E-20         0.86210E-21         0.00000E+00
    0.42311E-20         0.23855E-21         0.00000E+00
    0.41673E-20         0.28063E-22         0.00000E+00
    0.38868E-20        -0.42987E-22         0.00000E+00
    0.13212E-20         0.18751E-20         0.00000E+00
    0.24405E-20         0.30644E-20         0.00000E+00
    0.15257E-20         0.44083E-20         0.00000E+00
    0.55226E-21         0.42822E-20         0.00000E+00
    0.19251E-20         0.59602E-20         0.00000E+00
    0.35633E-20         0.40787E-20         0.00000E+00
    0.30653E-20         0.14273E-20         0.00000E+00
    0.30586E-20         0.28422E-20         0.00000E+00
    0.25612E-20         0.40427E-20         0.00000E+00
    0.13747E-20         0.17217E-20         0.00000E+00
    0.19315E-20         0.34837E-20         0.00000E+00
    0.23692E-20         0.28014E-20         0.00000E+00
    0.19495E-20         0.20896E-20         0.00000E+00
    0.26087E-20         0.20148E-20         0.00000E+00
    0.39674E-20         0.13175E-20         0.00000E+00
    0.44464E-20         0.41411E-21         0.00000E+00
    0.40585E-20         0.51622E-21         0.00000E+00
    0.39386E-20         0.91175E-21         0.00000E+00
    0.38422E-20         0.56018E-21         0.00000E+00
    0.35738E-20         0.35741E-21         0.00000E+00
    0.36834E-20         0.48847E-21         0.00000E+00
    0.37177E-20         0.15879E-21         0.00000E+00
    0.36328E-20         0.25645E-21         0.00000E+00
    0.36053E-20         0.36733E-22         0.00000E+00
    0.41797E-21         0.13589E-21         0.00000E+00
    0.96718E-21         0.31352E-20         0.00000E+00
    0.22161E-20         0.40035E-20         0.00000E+00
    0.25576E-20         0.53190E-20         0.00000E+00
    0.19040E-20         0.42042E-20         0.00000E+00
    0.21315E-20         0.39689E-20         0.00000E+00
    0.17976E-20         0.23688E-20         0.00000E+00
    0.18131E-20         0.18919E-20         0.00000E+00
    0.26139E-20         0.46896E-20         0.00000E+00
    0.25848E-20         0.22904E-20         0.00000E+00
    0.15612E-20         0.33817E-20         0.00000E+00
    0.57180E-21         0.34551E-20         0.00000E+00
    0.10042E-20         0.14232E-20         0.00000E+00
    0.24806E-20         0.54560E-21         0.00000E+00
    0.34701E-20         0.43842E-21         0.00000E+00
    0.34842E-20         0.80019E-21         0.00000E+00
    0.28902E-20         0.11120E-20         0.00000E+00
    0.29906E-20         0.33549E-21         0.00000E+00
    0.35413E-20         0.68215E-21         0.00000E+00
    0.36240E-20         0.42104E-21         0.00000E+00
    0.35249E-20         0.41440E-21         0.00000E+00
    0.33990E-20         0.32447E-21         0.00000E+00
    0.33243E-20         0.25032E-21         0.00000E+00
    0.33392E-20         0.55484E-22         0.00000E+00
   -0.77981E-21         0.49772E-21         0.00000E+00
   -0.48673E-21         0.19310E-20         0.00000E+00
    0.45510E-21         0.30169E-20         0.00000E+00
    0.12645E-20         0.51547E-20         0.00000E+00
    0.26996E-20         0.35870E-20         0.00000E+00
    0.30288E-20         0.40295E-20         0.00000E+00
    0.28425E-20         0.28284E-20         0.00000E+00
    0.24626E-20         0.17968E-20         0.00000E+00
    0.37393E-20         0.27072E-20         0.00000E+00
    0.46123E-20         0.34289E-20         0.00000E+00
    0.37011E-20         0.41781E-20         0.00000E+00
    0.35939E-20         0.37553E-20         0.00000E+00
    0.35683E-20         0.71617E-21         0.00000E+00
    0.33013E-20         0.43308E-22         0.00000E+00
    0.24803E-20         0.77212E-21         0.00000E+00
    0.21336E-20         0.79917E-21         0.00000E+00
    0.31051E-20         0.73551E-21         0.00000E+00
    0.38293E-20        -0.11274E-21         0.00000E+00
    0.38275E-20         0.58153E-21         0.00000E+00
    0.36676E-20         0.59881E-21         0.00000E+00
    0.33447E-20         0.65862E-21         0.00000E+00
    0.31810E-20         0.36994E-21         0.00000E+00
    0.32491E-20         0.21147E-21         0.00000E+00
    0.32661E-20         0.62370E-22         0.00000E+00
   -0.29379E-21         0.15713E-20         0.00000E+00
   -0.63285E-21         0.90344E-21         0.00000E+00
   -0.20754E-21         0.26774E-20         0.00000E+00
    0.10094E-20         0.34679E-20         0.00000E+00
    0.25791E-20         0.22690E-20         0.00000E+00
    0.48602E-20         0.27371E-20         0.00000E+00
    0.61254E-20         0.30418E-20         0.00000E+00
    0.54259E-20         0.26628E-20         0.00000E+00
    0.44861E-20         0.15043E-20         0.00000E+00
    0.37968E-20         0.44480E-20         0.00000E+00
    0.41467E-20         0.37202E-20         0.00000E+00
    0.51797E-20         0.32873E-20         0.00000E+00
    0.51922E-20         0.11973E-20         0.00000E+00
    0.43553E-20         0.66606E-21         0.00000E+00
    0.37024E-20         0.16233E-20         0.00000E+00
    0.38359E-20         0.16123E-21         0.00000E+00
    0.41379E-20         0.99938E-22         0.00000E+00
    0.37885E-20         0.14798E-21         0.00000E+00
    0.35593E-20         0.55190E-21         0.00000E+00
    0.35628E-20         0.78479E-21         0.00000E+00
    0.35392E-20         0.81910E-21         0.00000E+00
    0.34263E-20         0.48612E-21         0.00000E+00
    0.32267E-20         0.22685E-21         0.00000E+00
    0.31631E-20         0.93565E-22         0.00000E+00
    0.12509E-21         0.17400E-20         0.00000E+00
   -0.18364E-21         0.13825E-20         0.00000E+00
    0.36450E-21         0.12248E-20         0.00000E+00
    0.25239E-20         0.15441E-20         0.00000E+00
    0.39320E-20         0.12151E-20         0.00000E+00
    0.38471E-20         0.15949E-20         0.00000E+00
    0.41014E-20         0.26645E-20         0.00000E+00
    0.51130E-20         0.27280E-20         0.00000E+00
    0.42771E-20         0.32149E-20         0.00000E+00
    0.34099E-20         0.42939E-20         0.00000E+00
    0.36498E-20         0.32845E-20         0.00000E+00
    0.39204E-20         0.24195E-20         0.00000E+00
    0.38886E-20         0.20844E-20         0.00000E+00
    0.33397E-20         0.11648E-20         0.00000E+00
    0.40407E-20         0.10764E-20         0.00000E+00
    0.40816E-20         0.53360E-21         0.00000E+00
    0.28242E-20         0.68306E-21         0.00000E+00
    0.22122E-20         0.52623E-21         0.00000E+00
    0.24616E-20         0.15344E-21         0.00000E+00
    0.30986E-20         0.54272E-21         0.00000E+00
    0.33258E-20         0.85759E-21         0.00000E+00
    0.31979E-20         0.68842E-21         0.00000E+00
    0.30693E-20         0.35282E-21         0.00000E+00
    0.30197E-20         0.80775E-22         0.00000E+00
    0.47967E-21         0.11353E-20         0.00000E+00
    0.11613E-20         0.16144E-20         0.00000E+00
    0.14449E-20         0.16119E-21         0.00000E+00
    0.16162E-20         0.27698E-21         0.00000E+00
    0.11905E-20         0.14998E-20         0.00000E+00
    0.98127E-21         0.16044E-20         0.00000E+00
    0.14120E-20         0.19699E-20         0.00000E+00
    0.15393E-20         0.22837E-20         0.00000E+00
    0.17475E-20         0.42868E-20         0.00000E+00
    0.23197E-20         0.35170E-20         0.00000E+00
    0.31569E-20         0.29843E-20         0.00000E+00
    0.34396E-20         0.21666E-20         0.00000E+00
    0.36499E-20         0.21588E-20         0.00000E+00
    0.38860E-20         0.14031E-20         0.00000E+00
    0.32440E-20         0.77918E-21         0.00000E+00
    0.28404E-20         0.11935E-20         0.00000E+00
    0.27789E-20         0.13421E-20         0.00000E+00
    0.28001E-20         0.45799E-21         0.00000E+00
    0.27726E-20        -0.28040E-24         0.00000E+00
    0.25575E-20         0.27446E-21         0.00000E+00
    0.27274E-20         0.72882E-21         0.00000E+00
    0.29389E-20         0.73355E-21         0.00000E+00
    0.29596E-20         0.41568E-21         0.00000E+00
    0.29325E-20         0.94593E-22         0.00000E+00
    0.16269E-21         0.49290E-21         0.00000E+00
    0.46373E-21         0.12741E-20         0.00000E+00
    0.58491E-21         0.96674E-22         0.00000E+00
    0.20931E-21         0.54574E-21         0.00000E+00
   -0.13090E-21         0.19969E-20         0.00000E+00
   -0.14170E-21         0.13272E-20         0.00000E+00
    0.15182E-21         0.15228E-20         0.00000E+00
    0.21495E-21         0.25405E-20         0.00000E+00
    0.62127E-21         0.34154E-20         0.00000E+00
    0.17064E-20         0.27311E-20         0.00000E+00
    0.27743E-20         0.18650E-20         0.00000E+00
    0.37760E-20         0.20015E-20         0.00000E+00
    0.43021E-20         0.15875E-20         0.00000E+00
    0.39992E-20         0.20410E-20         0.00000E+00
    0.31814E-20         0.16011E-20         0.00000E+00
    0.28617E-20         0.10949E-20         0.00000E+00
    0.31772E-20         0.11867E-20         0.00000E+00
    0.32512E-20         0.51825E-21         0.00000E+00
    0.28691E-20         0.34906E-21         0.00000E+00
    0.25613E-20         0.44793E-21         0.00000E+00
    0.24943E-20         0.45246E-21         0.00000E+00
    0.26328E-20         0.65991E-21         0.00000E+00
    0.26914E-20         0.41010E-21         0.00000E+00
    0.26854E-20         0.13321E-21         0.00000E+00
   -0.56606E-21         0.89627E-21         0.00000E+00
   -0.61275E-21         0.61642E-21         0.00000E+00
   -0.65471E-21         0.67518E-21         0.00000E+00
   -0.10045E-20         0.69260E-21         0.00000E+00
    0.12143E-21         0.10644E-20         0.00000E+00
    0.68845E-21         0.17036E-20         0.00000E+00
   -0.15372E-21         0.16951E-20         0.00000E+00
   -0.11876E-21         0.22701E-20         0.00000E+00
    0.73734E-21         0.24234E-20         0.00000E+00
    0.12925E-20         0.20828E-20         0.00000E+00
    0.15566E-20         0.11813E-20         0.00000E+00
    0.19553E-20         0.12848E-20         0.00000E+00
    0.21834E-20         0.15501E-20         0.00000E+00
    0.21783E-20         0.23864E-20         0.00000E+00
    0.24074E-20         0.18444E-20         0.00000E+00
    0.24257E-20         0.11529E-20         0.00000E+00
    0.26877E-20         0.55130E-21         0.00000E+00
    0.32952E-20         0.47211E-21         0.00000E+00
    0.32977E-20         0.77482E-21         0.00000E+00
    0.28084E-20         0.81928E-21         0.00000E+00
    0.23639E-20         0.59259E-21         0.00000E+00
    0.22530E-20         0.49219E-21         0.00000E+00
    0.23918E-20         0.38044E-21         0.00000E+00
    0.24138E-20         0.14681E-21         0.00000E+00
   -0.12327E-21         0.15856E-20         0.00000E+00
   -0.49215E-21         0.34265E-21         0.00000E+00
   -0.73454E-21         0.12333E-20         0.00000E+00
   -0.97904E-21         0.72876E-21         0.00000E+00
   -0.15165E-20         0.43978E-21         0.00000E+00
   -0.12763E-20         0.15210E-20         0.00000E+00
   -0.29628E-21         0.17398E-20         0.00000E+00
    0.21827E-21         0.16759E-20         0.00000E+00
    0.47970E-21         0.19001E-20         0.00000E+00
    0.80933E-21         0.17213E-20         0.00000E+00
    0.74790E-21         0.13401E-20         0.00000E+00
    0.60119E-21         0.87406E-21         0.00000E+00
    0.91118E-21         0.14228E-20         0.00000E+00
    0.17217E-20         0.17083E-20         0.00000E+00
    0.21730E-20         0.18421E-20         0.00000E+00
    0.22667E-20         0.10432E-20         0.00000E+00
    0.24662E-20         0.19967E-21         0.00000E+00
    0.25582E-20         0.12421E-21         0.00000E+00
    0.24907E-20         0.11877E-20         0.00000E+00
    0.21964E-20         0.11899E-20         0.00000E+00
    0.20590E-20         0.80383E-21         0.00000E+00
    0.20905E-20         0.36043E-21         0.00000E+00
    0.21104E-20         0.35345E-21         0.00000E+00
    0.21046E-20         0.15766E-21         0.00000E+00
    0.55967E-21         0.11492E-20         0.00000E+00
    0.76987E-21         0.93774E-21         0.00000E+00
    0.33029E-21         0.13202E-20         0.00000E+00
    0.13063E-21         0.10861E-20         0.00000E+00
   -0.29441E-21         0.10450E-20         0.00000E+00
   -0.30792E-21         0.68911E-21         0.00000E+00
    0.26476E-21         0.10189E-20         0.00000E+00
    0.63415E-21         0.15128E-20         0.00000E+00
    0.71441E-21         0.17215E-20         0.00000E+00
    0.57003E-21         0.17147E-20         0.00000E+00
    0.49845E-21         0.14797E-20         0.00000E+00
    0.41326E-21         0.96631E-21         0.00000E+00
    0.56359E-21         0.87020E-21         0.00000E+00
    0.62195E-21         0.13920E-20         0.00000E+00
    0.93746E-21         0.13915E-20         0.00000E+00
    0.17459E-20         0.59159E-21         0.00000E+00
    0.16332E-20         0.56450E-21         0.00000E+00
    0.74724E-21         0.55337E-21         0.00000E+00
    0.46726E-21         0.11060E-20         0.00000E+00
    0.10285E-20         0.10046E-20         0.00000E+00
    0.14892E-20         0.66587E-21         0.00000E+00
    0.16343E-20         0.32188E-21         0.00000E+00
    0.17009E-20         0.30549E-21         0.00000E+00
    0.17742E-20         0.13817E-21         0.00000E+00
    0.47646E-21         0.11307E-21         0.00000E+00
    0.87916E-21         0.13610E-20         0.00000E+00
    0.96764E-21         0.12480E-20         0.00000E+00
    0.12895E-20         0.10360E-20         0.00000E+00
    0.15099E-20         0.12996E-20         0.00000E+00
    0.13722E-20         0.58566E-21         0.00000E+00
    0.10538E-20         0.86816E-21         0.00000E+00
    0.89150E-21         0.14564E-20         0.00000E+00
    0.92053E-21         0.16686E-20         0.00000E+00
    0.98555E-21         0.18470E-20         0.00000E+00
    0.11129E-20         0.12917E-20         0.00000E+00
    0.10730E-20         0.12795E-20         0.00000E+00
    0.61264E-21         0.86705E-21         0.00000E+00
    0.53072E-21         0.14187E-20         0.00000E+00
    0.96274E-21         0.61725E-21         0.00000E+00
    0.10442E-20         0.47590E-21         0.00000E+00
    0.90535E-21         0.93178E-21         0.00000E+00
    0.88072E-21         0.10967E-20         0.00000E+00
    0.92603E-21         0.79739E-21         0.00000E+00
    0.91593E-21         0.76205E-21         0.00000E+00
    0.97388E-21         0.38977E-21         0.00000E+00
    0.12078E-20         0.21899E-21         0.00000E+00
    0.13670E-20         0.18259E-21         0.00000E+00
    0.14483E-20         0.10651E-21         0.00000E+00
   -0.56180E-22        -0.30721E-21         0.00000E+00
    0.43599E-21         0.88639E-21         0.00000E+00
    0.11647E-20         0.90538E-21         0.00000E+00
    0.12418E-20         0.97975E-21         0.00000E+00
    0.10045E-20         0.13728E-20         0.00000E+00
    0.75516E-21         0.89951E-21         0.00000E+00
    0.64468E-21         0.98326E-21         0.00000E+00
    0.67962E-21         0.14687E-20         0.00000E+00
    0.86355E-21         0.14434E-20         0.00000E+00
    0.10345E-20         0.18362E-20         0.00000E+00
    0.88597E-21         0.13236E-20         0.00000E+00
    0.83008E-21         0.13433E-20         0.00000E+00
    0.10001E-20         0.10936E-20         0.00000E+00
    0.11854E-20         0.10888E-20         0.00000E+00
    0.12012E-20         0.49934E-21         0.00000E+00
    0.11615E-20         0.55208E-21         0.00000E+00
    0.11718E-20         0.98414E-21         0.00000E+00
    0.12096E-20         0.10311E-20         0.00000E+00
    0.12891E-20         0.73815E-21         0.00000E+00
    0.13188E-20         0.80171E-21         0.00000E+00
    0.13246E-20         0.28634E-21         0.00000E+00
    0.12504E-20         0.16276E-21         0.00000E+00
    0.11964E-20         0.13359E-21         0.00000E+00
    0.11883E-20         0.82349E-22         0.00000E+00
   -0.10715E-21        -0.14388E-21         0.00000E+00
   -0.17653E-22         0.14139E-21         0.00000E+00
    0.11831E-21         0.78567E-21         0.00000E+00
    0.50386E-22         0.10903E-20         0.00000E+00
    0.93150E-22         0.14568E-20         0.00000E+00
    0.65346E-22         0.10927E-20         0.00000E+00
    0.16283E-21         0.80311E-21         0.00000E+00
    0.33713E-21         0.14396E-20         0.00000E+00
    0.24446E-21         0.13812E-20         0.00000E+00
    0.26427E-21         0.17075E-20         0.00000E+00
    0.53872E-21         0.13263E-20         0.00000E+00
    0.70805E-21         0.12272E-20         0.00000E+00
    0.79955E-21         0.94822E-21         0.00000E+00
    0.10352E-20         0.81321E-21         0.00000E+00
    0.10467E-20         0.74766E-21         0.00000E+00
    0.85916E-21         0.53099E-21         0.00000E+00
    0.10316E-20         0.82243E-21         0.00000E+00
    0.12158E-20         0.97085E-21         0.00000E+00
    0.10780E-20         0.85669E-21         0.00000E+00
    0.11252E-20         0.60632E-21         0.00000E+00
    0.12440E-20         0.35710E-21         0.00000E+00
    0.11156E-20         0.29469E-21         0.00000E+00
    0.98967E-21         0.18158E-21         0.00000E+00
    0.98298E-21         0.49148E-22         0.00000E+00
   -0.73375E-22         0.36644E-22         0.00000E+00
   -0.13698E-21        -0.65028E-22         0.00000E+00
   -0.13542E-21         0.85457E-21         0.00000E+00
   -0.14353E-21         0.10974E-20         0.00000E+00
    0.28318E-22         0.12350E-20         0.00000E+00
    0.36616E-21         0.10044E-20         0.00000E+00
    0.35279E-21         0.80730E-21         0.00000E+00
    0.34137E-21         0.12725E-20         0.00000E+00
    0.46771E-21         0.15146E-20         0.00000E+00
    0.61113E-21         0.14109E-20         0.00000E+00
    0.76933E-21         0.11904E-20         0.00000E+00
    0.78462E-21         0.11785E-20         0.00000E+00
    0.75554E-21         0.93444E-21         0.00000E+00
    0.69945E-21         0.64745E-21         0.00000E+00
    0.74350E-21         0.85789E-21         0.00000E+00
    0.63561E-21         0.71615E-21         0.00000E+00
    0.52985E-21         0.57055E-21         0.00000E+00
    0.67770E-21         0.89072E-21         0.00000E+00
    0.78017E-21         0.97212E-21         0.00000E+00
    0.73091E-21         0.49298E-21         0.00000E+00
    0.68932E-21         0.39321E-21         0.00000E+00
    0.76427E-21         0.31206E-21         0.00000E+00
    0.84104E-21         0.21334E-21         0.00000E+00
    0.79249E-21         0.72632E-22         0.00000E+00
   -0.76431E-22         0.18645E-21         0.00000E+00
   -0.20257E-21        -0.25095E-22         0.00000E+00
   -0.21145E-21         0.82196E-21         0.00000E+00
   -0.26368E-21         0.11904E-20         0.00000E+00
   -0.10214E-21         0.80870E-21         0.00000E+00
    0.25513E-21         0.73559E-21         0.00000E+00
    0.30082E-21         0.10438E-20         0.00000E+00
    0.40244E-21         0.94582E-21         0.00000E+00
    0.64923E-21         0.14682E-20         0.00000E+00
    0.74715E-21         0.12160E-20         0.00000E+00
    0.65310E-21         0.13211E-20         0.00000E+00
    0.60112E-21         0.10845E-20         0.00000E+00
    0.45870E-21         0.12000E-20         0.00000E+00
    0.12375E-21         0.77294E-21         0.00000E+00
    0.17814E-21         0.63394E-21         0.00000E+00
    0.44950E-21         0.77663E-21         0.00000E+00
    0.30588E-21         0.75944E-21         0.00000E+00
    0.91970E-22         0.76789E-21         0.00000E+00
    0.23710E-21         0.84736E-21         0.00000E+00
    0.40700E-21         0.49709E-21         0.00000E+00
    0.47714E-21         0.36055E-21         0.00000E+00
    0.48401E-21         0.26292E-21         0.00000E+00
    0.45050E-21         0.21921E-21         0.00000E+00
    0.46031E-21         0.10550E-21         0.00000E+00
   -0.15631E-21         0.41919E-21         0.00000E+00
   -0.64311E-21         0.35510E-21         0.00000E+00
   -0.94362E-21         0.75116E-21         0.00000E+00
   -0.50359E-21         0.87336E-21         0.00000E+00
   -0.48257E-22         0.50884E-21         0.00000E+00
    0.54132E-22         0.57580E-21         0.00000E+00
    0.26318E-21         0.94882E-21         0.00000E+00
    0.34206E-21         0.86026E-21         0.00000E+00
    0.24831E-21         0.14007E-20         0.00000E+00
    0.21270E-21         0.12212E-20         0.00000E+00
    0.26071E-21         0.13620E-20         0.00000E+00
    0.26885E-21         0.10875E-20         0.00000E+00
    0.30970E-21         0.12986E-20         0.00000E+00
    0.43140E-21         0.88759E-21         0.00000E+00
    0.37488E-21         0.52142E-21         0.00000E+00
    0.34861E-21         0.64406E-21         0.00000E+00
    0.41898E-21         0.96526E-21         0.00000E+00
    0.31377E-21         0.88119E-21         0.00000E+00
    0.22850E-21         0.67421E-21         0.00000E+00
    0.28767E-21         0.44117E-21         0.00000E+00
    0.32628E-21         0.30771E-21         0.00000E+00
    0.29951E-21         0.33565E-21         0.00000E+00
    0.25584E-21         0.22366E-21         0.00000E+00
    0.28857E-21         0.58515E-22         0.00000E+00
   -0.10800E-21         0.68350E-21         0.00000E+00
   -0.20654E-21         0.67613E-21         0.00000E+00
   -0.18259E-21         0.70670E-21         0.00000E+00
   -0.57068E-22         0.35226E-21         0.00000E+00
    0.23214E-22         0.49433E-21         0.00000E+00
   -0.22405E-22         0.53354E-21         0.00000E+00
    0.24762E-22         0.73486E-21         0.00000E+00
    0.50346E-22         0.96976E-21         0.00000E+00
    0.42275E-22         0.13930E-20         0.00000E+00
    0.36056E-22         0.12707E-20         0.00000E+00
    0.42388E-22         0.12581E-20         0.00000E+00
    0.33140E-22         0.11924E-20         0.00000E+00
    0.66347E-22         0.11196E-20         0.00000E+00
    0.15098E-21         0.86025E-21         0.00000E+00
    0.12375E-21         0.63251E-21         0.00000E+00
    0.17088E-21         0.51212E-21         0.00000E+00
    0.21969E-21         0.97802E-21         0.00000E+00
    0.14435E-21         0.10490E-20         0.00000E+00
    0.34905E-22         0.70115E-21         0.00000E+00
    0.16105E-22         0.37386E-21         0.00000E+00
    0.83008E-22         0.26951E-21         0.00000E+00
    0.10626E-21         0.37737E-21         0.00000E+00
    0.10370E-21         0.22818E-21         0.00000E+00
    0.97962E-22         0.26996E-22         0.00000E+00
POINT_DATA       1225
VECTORS vDarcyNodal double 
    0.33213E-19        -0.35418E-19         0.00000E+00
    0.25255E-19        -0.36625E-19         0.00000E+00
    0.66823E-20        -0.11421E-19         0.00000E+00
   -0.10191E-19         0.33922E-19         0.00000E+00
   -0.13803E-19         0.45395E-19         0.00000E+00
   -0.21206E-20         0.76140E-20         0.00000E+00
   -0.63797E-20        -0.16322E-19         0.00000E+00
    0.80582E-20        -0.18717E-19         0.00000E+00
    0.11870E-19        -0.29933E-19         0.00000E+00
    0.49531E-21        -0.21751E-19         0.00000E+00
   -0.67613E-20         0.52469E-22         0.00000E+00
   -0.13001E-20         0.11714E-19         0.00000E+00
    0.21186E-20         0.10246E-19         0.00000E+00
    0.40954E-20         0.89083E-20         0.00000E+00
    0.34347E-20         0.28607E-20         0.00000E+00
    0.85165E-21        -0.28421E-20         0.00000E+00
    0.23030E-21         0.72151E-23         0.00000E+00
    0.11398E-20         0.15583E-20         0.00000E+00
   -0.73670E-21         0.10475E-20         0.00000E+00
   -0.18196E-21         0.23942E-21         0.00000E+00
    0.79753E-21        -0.64346E-21         0.00000E+00
   -0.55597E-21         0.44036E-22         0.00000E+00
    0.43735E-22         0.15913E-20         0.00000E+00
    0.32866E-21         0.15367E-20         0.00000E+00
    0.28504E-21         0.86185E-21         0.00000E+00
    0.62856E-19        -0.27460E-19         0.00000E+00
    0.37907E-19        -0.23360E-19         0.00000E+00
    0.49296E-20         0.63018E-20         0.00000E+00
    0.31585E-21         0.44164E-19         0.00000E+00
    0.25264E-20         0.41360E-19         0.00000E+00
    0.16624E-19         0.39024E-20         0.00000E+00
    0.63412E-20        -0.21411E-19         0.00000E+00
    0.91317E-20        -0.27841E-19         0.00000E+00
    0.11773E-19        -0.26151E-19         0.00000E+00
    0.33569E-20        -0.12435E-19         0.00000E+00
   -0.40504E-20         0.95018E-21         0.00000E+00
    0.10138E-20         0.72744E-20         0.00000E+00
    0.40002E-20         0.75480E-20         0.00000E+00
    0.24375E-20         0.82503E-20         0.00000E+00
    0.26615E-20         0.44826E-20         0.00000E+00
    0.95588E-21        -0.12399E-20         0.00000E+00
    0.37692E-21        -0.13688E-21         0.00000E+00
    0.60090E-21         0.20418E-20         0.00000E+00
    0.56269E-21         0.17084E-20         0.00000E+00
    0.63469E-21        -0.52769E-21         0.00000E+00
    0.14270E-20        -0.45645E-21         0.00000E+00
   -0.34024E-23         0.42093E-21         0.00000E+00
   -0.54126E-21         0.11490E-20         0.00000E+00
    0.40953E-21         0.14161E-20         0.00000E+00
    0.60425E-21         0.90547E-21         0.00000E+00
    0.82316E-19         0.14480E-19         0.00000E+00
    0.46893E-19         0.21301E-19         0.00000E+00
    0.18009E-19         0.26170E-19         0.00000E+00
    0.90619E-20         0.36325E-19         0.00000E+00
    0.20108E-19         0.29086E-19         0.00000E+00
    0.32919E-19         0.37993E-20         0.00000E+00
    0.22430E-19        -0.88292E-20         0.00000E+00
    0.15871E-19        -0.24148E-19         0.00000E+00
    0.67710E-20        -0.24158E-19         0.00000E+00
   -0.62126E-22        -0.59273E-20         0.00000E+00
   -0.91482E-21         0.23956E-20         0.00000E+00
   -0.37376E-20         0.36638E-20         0.00000E+00
    0.96774E-21         0.88220E-20         0.00000E+00
    0.14156E-20         0.10247E-19         0.00000E+00
    0.37663E-20         0.43424E-20         0.00000E+00
    0.21246E-20        -0.55755E-21         0.00000E+00
    0.25159E-21         0.36219E-21         0.00000E+00
    0.14102E-20         0.13725E-20         0.00000E+00
    0.30251E-20         0.10137E-20         0.00000E+00
    0.17160E-20        -0.62484E-21         0.00000E+00
    0.10273E-20        -0.53623E-23         0.00000E+00
    0.49514E-21         0.20123E-20         0.00000E+00
   -0.49725E-21         0.11784E-20         0.00000E+00
    0.42218E-21         0.39121E-21         0.00000E+00
    0.76034E-21         0.47242E-21         0.00000E+00
    0.36067E-19         0.43386E-19         0.00000E+00
    0.32880E-19         0.40947E-19         0.00000E+00
    0.27597E-19         0.44133E-19         0.00000E+00
    0.12436E-19         0.42065E-19         0.00000E+00
    0.21970E-19         0.17502E-19         0.00000E+00
    0.25742E-19         0.15808E-20         0.00000E+00
    0.24289E-19        -0.43625E-20         0.00000E+00
    0.15062E-19        -0.12183E-19         0.00000E+00
    0.78865E-21        -0.10218E-19         0.00000E+00
   -0.60676E-20        -0.47491E-20         0.00000E+00
   -0.29260E-20         0.46257E-20         0.00000E+00
   -0.45130E-20         0.53919E-20         0.00000E+00
   -0.56337E-20         0.23948E-20         0.00000E+00
   -0.13205E-20         0.54517E-20         0.00000E+00
    0.44296E-20         0.37736E-20         0.00000E+00
    0.26298E-20         0.22748E-20         0.00000E+00
    0.21247E-20         0.57748E-21         0.00000E+00
    0.34816E-20        -0.73173E-21         0.00000E+00
    0.23268E-20         0.14026E-20         0.00000E+00
    0.18044E-20         0.14702E-20         0.00000E+00
   -0.73207E-21         0.76439E-21         0.00000E+00
    0.92736E-23         0.19455E-20         0.00000E+00
    0.87997E-21         0.12220E-20         0.00000E+00
    0.50141E-21         0.15847E-21         0.00000E+00
    0.77143E-21         0.22915E-21         0.00000E+00
    0.00000E+00         0.20855E-19         0.00000E+00
    0.76757E-20         0.29771E-19         0.00000E+00
    0.99775E-20         0.46613E-19         0.00000E+00
    0.21052E-19         0.41952E-19         0.00000E+00
    0.26562E-19         0.15780E-19         0.00000E+00
    0.22763E-19         0.14809E-20         0.00000E+00
    0.18783E-19         0.18511E-20         0.00000E+00
    0.30351E-20        -0.64812E-21         0.00000E+00
   -0.44549E-20        -0.30281E-20         0.00000E+00
   -0.47709E-20        -0.22126E-20         0.00000E+00
   -0.21574E-20         0.84097E-21         0.00000E+00
   -0.12147E-21         0.63715E-20         0.00000E+00
   -0.75428E-20         0.56295E-20         0.00000E+00
   -0.38659E-20         0.18377E-21         0.00000E+00
    0.21248E-20         0.39201E-21         0.00000E+00
    0.45379E-20         0.17474E-20         0.00000E+00
    0.45371E-20        -0.48954E-21         0.00000E+00
    0.28801E-20         0.11704E-20         0.00000E+00
    0.16017E-20         0.26910E-20         0.00000E+00
    0.19654E-20         0.24340E-20         0.00000E+00
    0.87195E-21         0.17897E-20         0.00000E+00
    0.58676E-21         0.40021E-21         0.00000E+00
    0.14127E-20         0.68627E-21         0.00000E+00
    0.12142E-20         0.49975E-21         0.00000E+00
    0.13109E-20        -0.67636E-22         0.00000E+00
    0.00000E+00         0.28035E-19         0.00000E+00
   -0.27228E-21         0.30970E-19         0.00000E+00
    0.81206E-20         0.30757E-19         0.00000E+00
    0.26442E-19         0.25481E-19         0.00000E+00
    0.32776E-19         0.15791E-19         0.00000E+00
    0.22908E-19         0.93595E-20         0.00000E+00
    0.12456E-19         0.15365E-19         0.00000E+00
    0.46273E-20         0.11055E-19         0.00000E+00
   -0.21789E-20        -0.24122E-20         0.00000E+00
   -0.71529E-21        -0.70466E-20         0.00000E+00
   -0.14450E-20        -0.23770E-22         0.00000E+00
   -0.24444E-20         0.10777E-19         0.00000E+00
   -0.31101E-20         0.61392E-20         0.00000E+00
    0.27507E-22        -0.42159E-20         0.00000E+00
    0.11490E-20        -0.46302E-20         0.00000E+00
    0.45210E-20        -0.13747E-21         0.00000E+00
    0.53581E-20         0.22353E-20         0.00000E+00
    0.32021E-20         0.22037E-20         0.00000E+00
    0.42571E-20         0.23173E-20         0.00000E+00
    0.31959E-20         0.21999E-20         0.00000E+00
    0.29870E-20         0.21431E-20         0.00000E+00
    0.28610E-20         0.14047E-20         0.00000E+00
    0.25165E-20         0.59457E-21         0.00000E+00
    0.23490E-20         0.26032E-21         0.00000E+00
    0.20479E-20         0.35734E-22         0.00000E+00
    0.38012E-34         0.21399E-19         0.00000E+00
    0.62393E-20         0.21650E-19         0.00000E+00
    0.14549E-19         0.19899E-19         0.00000E+00
    0.16161E-19         0.17296E-19         0.00000E+00
    0.22771E-19         0.19314E-19         0.00000E+00
    0.21716E-19         0.21802E-19         0.00000E+00
    0.17019E-19         0.20131E-19         0.00000E+00
    0.17411E-19         0.13986E-19         0.00000E+00
    0.95309E-20         0.23145E-20         0.00000E+00
    0.51606E-20        -0.29466E-20         0.00000E+00
    0.10773E-20         0.25701E-20         0.00000E+00
    0.13998E-20         0.80367E-20         0.00000E+00
    0.62843E-20         0.31575E-20         0.00000E+00
    0.48038E-20        -0.40754E-20         0.00000E+00
    0.42127E-20        -0.41014E-20         0.00000E+00
    0.45518E-20        -0.24617E-20         0.00000E+00
    0.64473E-20         0.82932E-21         0.00000E+00
    0.51468E-20         0.22715E-20         0.00000E+00
    0.40433E-20         0.26971E-20         0.00000E+00
    0.35226E-20         0.37040E-20         0.00000E+00
    0.34187E-20         0.21247E-20         0.00000E+00
    0.37030E-20         0.87079E-21         0.00000E+00
    0.34246E-20         0.11982E-20         0.00000E+00
    0.29472E-20         0.96831E-21         0.00000E+00
    0.25844E-20         0.53460E-21         0.00000E+00
    0.00000E+00         0.15556E-19         0.00000E+00
   -0.27195E-22         0.16421E-19         0.00000E+00
    0.30435E-20         0.20835E-19         0.00000E+00
    0.31273E-20         0.17260E-19         0.00000E+00
    0.58457E-20         0.10236E-19         0.00000E+00
    0.12385E-19         0.15111E-19         0.00000E+00
    0.15280E-19         0.19670E-19         0.00000E+00
    0.16776E-19         0.18543E-19         0.00000E+00
    0.10594E-19         0.98384E-20         0.00000E+00
    0.56995E-20         0.14070E-20         0.00000E+00
    0.72511E-20         0.37370E-20         0.00000E+00
    0.52714E-20         0.55702E-20         0.00000E+00
    0.11219E-19         0.27351E-20         0.00000E+00
    0.92863E-20        -0.21443E-20         0.00000E+00
    0.59974E-20        -0.43782E-20         0.00000E+00
    0.59161E-20        -0.23721E-20         0.00000E+00
    0.50484E-20         0.16403E-20         0.00000E+00
    0.35296E-20         0.46077E-20         0.00000E+00
    0.18608E-20         0.39415E-20         0.00000E+00
    0.21680E-20         0.28245E-20         0.00000E+00
    0.27690E-20         0.19627E-20         0.00000E+00
    0.24681E-20         0.13987E-20         0.00000E+00
    0.21474E-20         0.13504E-20         0.00000E+00
    0.24429E-20         0.11005E-20         0.00000E+00
    0.25546E-20         0.76142E-21         0.00000E+00
   -0.76218E-34         0.21454E-19         0.00000E+00
   -0.20158E-20         0.18607E-19         0.00000E+00
   -0.15374E-20         0.16745E-19         0.00000E+00
    0.29431E-20         0.14494E-19         0.00000E+00
    0.39474E-22         0.10057E-19         0.00000E+00
   -0.29353E-20         0.12368E-19         0.00000E+00
   -0.25782E-20         0.15740E-19         0.00000E+00
    0.30871E-20         0.18672E-19         0.00000E+00
    0.55452E-20         0.13391E-19         0.00000E+00
    0.70938E-20         0.39650E-21         0.00000E+00
    0.68167E-20         0.29982E-20         0.00000E+00
    0.86419E-20         0.40684E-20         0.00000E+00
    0.12151E-19        -0.85737E-21         0.00000E+00
    0.11011E-19         0.11465E-20         0.00000E+00
    0.65571E-20        -0.73124E-21         0.00000E+00
    0.44886E-20        -0.15128E-20         0.00000E+00
    0.32934E-20         0.32159E-20         0.00000E+00
    0.31182E-20         0.54591E-20         0.00000E+00
    0.13345E-20         0.40587E-20         0.00000E+00
    0.62666E-21         0.27959E-20         0.00000E+00
    0.35806E-21         0.18245E-20         0.00000E+00
    0.93225E-21         0.14923E-20         0.00000E+00
    0.99954E-21         0.12235E-20         0.00000E+00
    0.16664E-20         0.56111E-21         0.00000E+00
    0.20146E-20         0.31103E-21         0.00000E+00
    0.64146E-49         0.19588E-19         0.00000E+00
    0.33946E-20         0.17959E-19         0.00000E+00
    0.25222E-20         0.15876E-19         0.00000E+00
    0.30983E-20         0.15683E-19         0.00000E+00
    0.14196E-20         0.16115E-19         0.00000E+00
   -0.15897E-20         0.17729E-19         0.00000E+00
   -0.31614E-20         0.13648E-19         0.00000E+00
    0.38748E-21         0.10419E-19         0.00000E+00
    0.10262E-19         0.58317E-20         0.00000E+00
    0.11969E-19         0.13553E-21         0.00000E+00
    0.89005E-20         0.21890E-20         0.00000E+00
    0.13282E-19         0.23626E-21         0.00000E+00
    0.10719E-19         0.36599E-21         0.00000E+00
    0.89699E-20         0.34493E-20         0.00000E+00
    0.86701E-20         0.21442E-20         0.00000E+00
    0.61473E-20         0.89161E-21         0.00000E+00
    0.45982E-20         0.30107E-20         0.00000E+00
    0.29857E-20         0.65667E-20         0.00000E+00
    0.25698E-20         0.64330E-20         0.00000E+00
    0.20907E-20         0.38009E-20         0.00000E+00
    0.13897E-20         0.16571E-20         0.00000E+00
    0.28045E-21         0.75727E-21         0.00000E+00
    0.79427E-21         0.61623E-21         0.00000E+00
    0.13319E-20         0.85492E-22         0.00000E+00
    0.15762E-20         0.65054E-22         0.00000E+00
    0.26049E-34         0.14664E-19         0.00000E+00
    0.29288E-20         0.16085E-19         0.00000E+00
    0.32046E-20         0.17041E-19         0.00000E+00
    0.27316E-20         0.15596E-19         0.00000E+00
    0.54407E-20         0.14745E-19         0.00000E+00
    0.64390E-20         0.16949E-19         0.00000E+00
    0.10086E-19         0.13763E-19         0.00000E+00
    0.98118E-20         0.52489E-20         0.00000E+00
    0.13246E-19         0.18093E-20         0.00000E+00
    0.11851E-19         0.17576E-20         0.00000E+00
    0.99588E-20         0.16855E-20         0.00000E+00
    0.10218E-19         0.22497E-20         0.00000E+00
    0.86751E-20         0.34549E-20         0.00000E+00
    0.77193E-20         0.31956E-20         0.00000E+00
    0.78207E-20         0.20913E-20         0.00000E+00
    0.68419E-20         0.25591E-20         0.00000E+00
    0.42924E-20         0.63774E-20         0.00000E+00
    0.22914E-20         0.74876E-20         0.00000E+00
    0.43797E-20         0.49538E-20         0.00000E+00
    0.42135E-20         0.39759E-20         0.00000E+00
    0.36200E-20         0.36348E-20         0.00000E+00
    0.10199E-20         0.20877E-20         0.00000E+00
    0.10689E-20         0.17203E-21         0.00000E+00
    0.15156E-20        -0.22079E-21         0.00000E+00
    0.17257E-20        -0.17750E-21         0.00000E+00
    0.00000E+00         0.13730E-19         0.00000E+00
    0.36587E-21         0.14754E-19         0.00000E+00
    0.22520E-20         0.16073E-19         0.00000E+00
    0.18180E-20         0.13447E-19         0.00000E+00
    0.21082E-20         0.12407E-19         0.00000E+00
    0.72148E-20         0.13084E-19         0.00000E+00
    0.12383E-19         0.10275E-19         0.00000E+00
    0.10735E-19         0.72583E-20         0.00000E+00
    0.88216E-20         0.37925E-20         0.00000E+00
    0.72240E-20         0.34232E-20         0.00000E+00
    0.54855E-20         0.38222E-20         0.00000E+00
    0.33371E-20         0.15199E-20         0.00000E+00
    0.22758E-20         0.28644E-20         0.00000E+00
    0.44683E-20         0.43037E-20         0.00000E+00
    0.62365E-20         0.30217E-20         0.00000E+00
    0.29678E-20         0.44199E-20         0.00000E+00
    0.12542E-20         0.75611E-20         0.00000E+00
    0.39579E-20         0.64794E-20         0.00000E+00
    0.43736E-20         0.45110E-20         0.00000E+00
    0.27006E-20         0.45606E-20         0.00000E+00
    0.21721E-20         0.48506E-20         0.00000E+00
    0.24293E-20         0.33084E-20         0.00000E+00
    0.20906E-20         0.12062E-21         0.00000E+00
    0.24166E-20        -0.57130E-21         0.00000E+00
    0.24427E-20        -0.35526E-21         0.00000E+00
    0.00000E+00         0.13933E-19         0.00000E+00
    0.36926E-21         0.13833E-19         0.00000E+00
    0.11759E-20         0.15589E-19         0.00000E+00
    0.32359E-20         0.15740E-19         0.00000E+00
    0.14625E-20         0.93478E-20         0.00000E+00
    0.40432E-20         0.66742E-20         0.00000E+00
    0.63171E-20         0.10242E-19         0.00000E+00
    0.72535E-20         0.88101E-20         0.00000E+00
    0.61671E-20         0.53208E-20         0.00000E+00
    0.29497E-20         0.50937E-20         0.00000E+00
    0.27989E-20         0.55724E-20         0.00000E+00
    0.12145E-20         0.54594E-20         0.00000E+00
    0.46335E-21         0.23237E-20         0.00000E+00
    0.95972E-21        -0.76504E-21         0.00000E+00
    0.97096E-21         0.35918E-20         0.00000E+00
   -0.14015E-21         0.75414E-20         0.00000E+00
   -0.38289E-21         0.53874E-20         0.00000E+00
    0.18257E-20         0.43681E-20         0.00000E+00
    0.20266E-20         0.62111E-20         0.00000E+00
    0.27146E-20         0.61775E-20         0.00000E+00
    0.20197E-20         0.39061E-20         0.00000E+00
    0.42019E-20         0.21692E-20         0.00000E+00
    0.40844E-20         0.18468E-21         0.00000E+00
    0.34178E-20        -0.57292E-21         0.00000E+00
    0.32990E-20        -0.22970E-21         0.00000E+00
    0.00000E+00         0.12992E-19         0.00000E+00
    0.89067E-21         0.13578E-19         0.00000E+00
    0.98016E-21         0.13207E-19         0.00000E+00
    0.23499E-20         0.13160E-19         0.00000E+00
    0.24811E-20         0.11600E-19         0.00000E+00
    0.15692E-20         0.82297E-20         0.00000E+00
    0.19947E-20         0.70647E-20         0.00000E+00
    0.60404E-20         0.74083E-20         0.00000E+00
    0.57648E-20         0.80963E-20         0.00000E+00
    0.53265E-20         0.67915E-20         0.00000E+00
    0.42643E-20         0.55574E-20         0.00000E+00
    0.23660E-20         0.38554E-20         0.00000E+00
    0.46546E-20         0.31192E-20         0.00000E+00
    0.14189E-20         0.37961E-20         0.00000E+00
   -0.34048E-20         0.41215E-20         0.00000E+00
   -0.17912E-20         0.57738E-20         0.00000E+00
   -0.10228E-20         0.55953E-20         0.00000E+00
   -0.14090E-21         0.40699E-20         0.00000E+00
    0.15378E-20         0.36220E-20         0.00000E+00
    0.33917E-20         0.45675E-20         0.00000E+00
    0.44604E-20         0.33633E-20         0.00000E+00
    0.52740E-20         0.12437E-20         0.00000E+00
    0.50421E-20         0.90472E-21         0.00000E+00
    0.41224E-20         0.21407E-21         0.00000E+00
    0.38880E-20        -0.11770E-21         0.00000E+00
    0.00000E+00         0.12151E-19         0.00000E+00
    0.31044E-21         0.12852E-19         0.00000E+00
    0.12707E-20         0.14130E-19         0.00000E+00
    0.17782E-21         0.14239E-19         0.00000E+00
    0.20267E-20         0.10128E-19         0.00000E+00
    0.25747E-20         0.71606E-20         0.00000E+00
    0.38382E-20         0.57711E-20         0.00000E+00
    0.33283E-20         0.50399E-20         0.00000E+00
    0.57769E-20         0.60347E-20         0.00000E+00
    0.80300E-20         0.65942E-20         0.00000E+00
    0.43179E-20         0.85330E-20         0.00000E+00
    0.38433E-20         0.50690E-20         0.00000E+00
    0.35398E-20         0.32707E-20         0.00000E+00
    0.30318E-20         0.72944E-20         0.00000E+00
    0.99052E-21         0.68020E-20         0.00000E+00
    0.45634E-21         0.51594E-20         0.00000E+00
    0.14259E-20         0.37370E-20         0.00000E+00
    0.22440E-20         0.18076E-20         0.00000E+00
    0.33648E-20         0.26785E-20         0.00000E+00
    0.40306E-20         0.32549E-20         0.00000E+00
    0.51054E-20         0.20237E-20         0.00000E+00
    0.44398E-20         0.15875E-20         0.00000E+00
    0.43809E-20         0.13363E-20         0.00000E+00
    0.43674E-20         0.58118E-21         0.00000E+00
    0.43467E-20         0.23916E-21         0.00000E+00
    0.00000E+00         0.12371E-19         0.00000E+00
    0.25968E-21         0.12307E-19         0.00000E+00
    0.10850E-20         0.13339E-19         0.00000E+00
    0.29776E-20         0.12404E-19         0.00000E+00
    0.52274E-20         0.92029E-20         0.00000E+00
    0.50740E-20         0.64182E-20         0.00000E+00
    0.64060E-20         0.63111E-20         0.00000E+00
    0.33972E-20         0.54696E-20         0.00000E+00
    0.25064E-20         0.33946E-20         0.00000E+00
    0.13961E-20         0.82504E-20         0.00000E+00
    0.11734E-20         0.97441E-20         0.00000E+00
    0.43996E-20         0.46336E-20         0.00000E+00
    0.43466E-20         0.39308E-20         0.00000E+00
    0.36947E-20         0.63453E-20         0.00000E+00
    0.45899E-20         0.66970E-20         0.00000E+00
    0.41602E-20         0.53384E-20         0.00000E+00
    0.53541E-20         0.38077E-20         0.00000E+00
    0.41089E-20         0.21310E-20         0.00000E+00
    0.43436E-20         0.18354E-20         0.00000E+00
    0.47469E-20         0.28269E-20         0.00000E+00
    0.46796E-20         0.29541E-20         0.00000E+00
    0.38691E-20         0.19682E-20         0.00000E+00
    0.39639E-20         0.97713E-21         0.00000E+00
    0.42897E-20         0.24826E-21         0.00000E+00
    0.44836E-20        -0.76299E-22         0.00000E+00
    0.00000E+00         0.11632E-19         0.00000E+00
    0.83096E-21         0.11767E-19         0.00000E+00
    0.15037E-20         0.11412E-19         0.00000E+00
    0.39792E-20         0.10097E-19         0.00000E+00
    0.48031E-20         0.80320E-20         0.00000E+00
    0.50493E-20         0.59820E-20         0.00000E+00
    0.44514E-20         0.74479E-20         0.00000E+00
    0.53103E-20         0.89395E-20         0.00000E+00
    0.26869E-21         0.80357E-20         0.00000E+00
   -0.18232E-20         0.79272E-20         0.00000E+00
    0.33019E-20         0.55295E-20         0.00000E+00
    0.50130E-20         0.18958E-20         0.00000E+00
    0.50196E-20         0.39756E-20         0.00000E+00
    0.45559E-20         0.70511E-20         0.00000E+00
    0.33792E-20         0.63365E-20         0.00000E+00
    0.34798E-20         0.43952E-20         0.00000E+00
    0.47130E-20         0.37884E-20         0.00000E+00
    0.48142E-20         0.28181E-20         0.00000E+00
    0.35531E-20         0.20404E-20         0.00000E+00
    0.40108E-20         0.29190E-20         0.00000E+00
    0.49695E-20         0.29016E-20         0.00000E+00
    0.47449E-20         0.23031E-20         0.00000E+00
    0.45380E-20         0.91564E-21         0.00000E+00
    0.45534E-20         0.61465E-22         0.00000E+00
    0.45800E-20        -0.14871E-21         0.00000E+00
    0.00000E+00         0.10709E-19         0.00000E+00
    0.68897E-21         0.10804E-19         0.00000E+00
    0.17595E-20         0.10191E-19         0.00000E+00
    0.19664E-20         0.91047E-20         0.00000E+00
    0.35244E-20         0.81328E-20         0.00000E+00
    0.32089E-20         0.67700E-20         0.00000E+00
    0.19632E-20         0.60501E-20         0.00000E+00
    0.29511E-20         0.96523E-20         0.00000E+00
    0.32591E-20         0.10528E-19         0.00000E+00
    0.43594E-20         0.52173E-20         0.00000E+00
    0.64518E-20         0.29079E-20         0.00000E+00
    0.62546E-20         0.29159E-20         0.00000E+00
    0.42205E-20         0.43879E-20         0.00000E+00
    0.46707E-20         0.79857E-20         0.00000E+00
    0.53633E-20         0.77731E-20         0.00000E+00
    0.51718E-20         0.40046E-20         0.00000E+00
    0.28989E-20         0.24732E-20         0.00000E+00
    0.42672E-20         0.32909E-20         0.00000E+00
    0.36738E-20         0.26388E-20         0.00000E+00
    0.45051E-20         0.14104E-20         0.00000E+00
    0.48536E-20         0.22200E-20         0.00000E+00
    0.53123E-20         0.23997E-20         0.00000E+00
    0.54966E-20         0.11686E-20         0.00000E+00
    0.55580E-20         0.20624E-21         0.00000E+00
    0.54516E-20        -0.12958E-21         0.00000E+00
    0.00000E+00         0.10254E-19         0.00000E+00
    0.36938E-21         0.10008E-19         0.00000E+00
    0.17556E-20         0.10134E-19         0.00000E+00
    0.37324E-20         0.83318E-20         0.00000E+00
    0.36493E-20         0.67895E-20         0.00000E+00
    0.34867E-20         0.75432E-20         0.00000E+00
    0.22255E-20         0.77057E-20         0.00000E+00
    0.40026E-21         0.76436E-20         0.00000E+00
    0.43408E-20         0.66275E-20         0.00000E+00
    0.55767E-20         0.47346E-20         0.00000E+00
    0.54679E-20         0.36343E-20         0.00000E+00
    0.65291E-20         0.41271E-20         0.00000E+00
    0.53203E-20         0.55595E-20         0.00000E+00
    0.31246E-20         0.59083E-20         0.00000E+00
    0.57767E-20         0.58353E-20         0.00000E+00
    0.64650E-20         0.68596E-20         0.00000E+00
    0.47495E-20         0.46930E-20         0.00000E+00
    0.32836E-20         0.20432E-20         0.00000E+00
    0.36969E-20         0.18025E-20         0.00000E+00
    0.38855E-20         0.17392E-20         0.00000E+00
    0.36570E-20         0.20944E-20         0.00000E+00
    0.52730E-20         0.16601E-20         0.00000E+00
    0.61402E-20         0.66992E-21         0.00000E+00
    0.62802E-20         0.10648E-21         0.00000E+00
    0.60291E-20         0.64043E-22         0.00000E+00
    0.00000E+00         0.99701E-20         0.00000E+00
    0.16244E-20         0.90480E-20         0.00000E+00
    0.30809E-20         0.68280E-20         0.00000E+00
    0.53040E-20         0.72109E-20         0.00000E+00
    0.38653E-20         0.83785E-20         0.00000E+00
    0.34117E-20         0.81937E-20         0.00000E+00
    0.33566E-20         0.91366E-20         0.00000E+00
    0.39205E-20         0.75370E-20         0.00000E+00
    0.41046E-20         0.53517E-20         0.00000E+00
    0.52198E-20         0.40902E-20         0.00000E+00
    0.67651E-20         0.19555E-20         0.00000E+00
    0.68642E-20         0.30634E-20         0.00000E+00
    0.56348E-20         0.77923E-20         0.00000E+00
    0.43832E-20         0.75293E-20         0.00000E+00
    0.36111E-20         0.44327E-20         0.00000E+00
    0.47037E-20         0.50318E-20         0.00000E+00
    0.60310E-20         0.56546E-20         0.00000E+00
    0.41316E-20         0.43435E-20         0.00000E+00
    0.34469E-20         0.20369E-20         0.00000E+00
    0.38494E-20         0.14503E-20         0.00000E+00
    0.42131E-20         0.83262E-21         0.00000E+00
    0.56417E-20        -0.83451E-22         0.00000E+00
    0.62202E-20         0.16137E-21         0.00000E+00
    0.61031E-20         0.31737E-21         0.00000E+00
    0.60172E-20         0.37266E-21         0.00000E+00
    0.00000E+00         0.70052E-20         0.00000E+00
    0.19128E-20         0.69270E-20         0.00000E+00
    0.32446E-20         0.64546E-20         0.00000E+00
    0.13645E-20         0.75474E-20         0.00000E+00
    0.25726E-20         0.86819E-20         0.00000E+00
    0.29160E-20         0.80519E-20         0.00000E+00
    0.38444E-20         0.71969E-20         0.00000E+00
    0.57136E-20         0.68957E-20         0.00000E+00
    0.52457E-20         0.53282E-20         0.00000E+00
    0.70875E-20         0.20741E-20         0.00000E+00
    0.73189E-20         0.19900E-20         0.00000E+00
    0.46834E-20         0.52573E-20         0.00000E+00
    0.32482E-20         0.80405E-20         0.00000E+00
    0.52215E-20         0.79321E-20         0.00000E+00
    0.48337E-20         0.55149E-20         0.00000E+00
    0.38816E-20         0.44396E-20         0.00000E+00
    0.43236E-20         0.52651E-20         0.00000E+00
    0.64453E-20         0.46274E-20         0.00000E+00
    0.68056E-20         0.20847E-20         0.00000E+00
    0.65252E-20         0.97295E-21         0.00000E+00
    0.64787E-20         0.30216E-21         0.00000E+00
    0.58354E-20        -0.34708E-21         0.00000E+00
    0.57895E-20         0.20847E-21         0.00000E+00
    0.60013E-20         0.30955E-21         0.00000E+00
    0.61338E-20         0.23593E-21         0.00000E+00
    0.00000E+00         0.61444E-20         0.00000E+00
    0.12964E-20         0.58035E-20         0.00000E+00
    0.12113E-20         0.73764E-20         0.00000E+00
    0.66769E-21         0.78829E-20         0.00000E+00
    0.18372E-20         0.68269E-20         0.00000E+00
    0.26533E-20         0.69220E-20         0.00000E+00
    0.27932E-20         0.63390E-20         0.00000E+00
    0.43326E-20         0.61356E-20         0.00000E+00
    0.65111E-20         0.39777E-20         0.00000E+00
    0.53849E-20         0.20170E-20         0.00000E+00
    0.21540E-20         0.43596E-20         0.00000E+00
    0.40363E-21         0.71341E-20         0.00000E+00
    0.19320E-20         0.72542E-20         0.00000E+00
    0.36179E-20         0.59439E-20         0.00000E+00
    0.52876E-20         0.57726E-20         0.00000E+00
    0.44952E-20         0.55419E-20         0.00000E+00
    0.52590E-20         0.30910E-20         0.00000E+00
    0.69576E-20         0.18615E-20         0.00000E+00
    0.78959E-20         0.19570E-20         0.00000E+00
    0.72705E-20         0.17772E-20         0.00000E+00
    0.72636E-20         0.15224E-20         0.00000E+00
    0.59996E-20         0.60578E-21         0.00000E+00
    0.55203E-20        -0.44889E-23         0.00000E+00
    0.57307E-20        -0.27025E-22         0.00000E+00
    0.58523E-20         0.10756E-21         0.00000E+00
    0.00000E+00         0.44124E-20         0.00000E+00
    0.18849E-20         0.57157E-20         0.00000E+00
    0.22012E-21         0.70833E-20         0.00000E+00
    0.15157E-20         0.69215E-20         0.00000E+00
    0.21363E-20         0.66963E-20         0.00000E+00
    0.29884E-20         0.70959E-20         0.00000E+00
    0.26805E-20         0.55175E-20         0.00000E+00
    0.40606E-20         0.31778E-20         0.00000E+00
    0.61867E-20         0.42759E-20         0.00000E+00
    0.34803E-20         0.64312E-20         0.00000E+00
    0.17441E-20         0.69712E-20         0.00000E+00
    0.28251E-20         0.54793E-20         0.00000E+00
    0.43552E-20         0.48262E-20         0.00000E+00
    0.50287E-20         0.45765E-20         0.00000E+00
    0.55236E-20         0.46376E-20         0.00000E+00
    0.61357E-20         0.44682E-20         0.00000E+00
    0.61730E-20         0.28027E-20         0.00000E+00
    0.57679E-20         0.19905E-20         0.00000E+00
    0.62989E-20         0.17719E-20         0.00000E+00
    0.59146E-20         0.16052E-20         0.00000E+00
    0.61641E-20         0.15730E-20         0.00000E+00
    0.60945E-20         0.13963E-20         0.00000E+00
    0.56980E-20         0.47741E-21         0.00000E+00
    0.56240E-20        -0.22444E-22         0.00000E+00
    0.57717E-20        -0.72370E-23         0.00000E+00
    0.00000E+00         0.23746E-20         0.00000E+00
   -0.94189E-21         0.55834E-20         0.00000E+00
   -0.60414E-21         0.77456E-20         0.00000E+00
   -0.20239E-21         0.59667E-20         0.00000E+00
    0.17276E-20         0.53542E-20         0.00000E+00
    0.36162E-20         0.63777E-20         0.00000E+00
    0.51734E-20         0.52669E-20         0.00000E+00
    0.36418E-20         0.26294E-20         0.00000E+00
    0.24915E-20         0.45580E-20         0.00000E+00
    0.32489E-20         0.64597E-20         0.00000E+00
    0.46285E-20         0.50148E-20         0.00000E+00
    0.62493E-20         0.45229E-20         0.00000E+00
    0.57606E-20         0.50506E-20         0.00000E+00
    0.58753E-20         0.47755E-20         0.00000E+00
    0.57852E-20         0.46657E-20         0.00000E+00
    0.58824E-20         0.48925E-20         0.00000E+00
    0.49543E-20         0.34587E-20         0.00000E+00
    0.57714E-20         0.17356E-20         0.00000E+00
    0.57664E-20         0.18103E-20         0.00000E+00
    0.50952E-20         0.19120E-20         0.00000E+00
    0.51054E-20         0.13425E-20         0.00000E+00
    0.57644E-20         0.10719E-20         0.00000E+00
    0.61950E-20         0.46604E-21         0.00000E+00
    0.61111E-20        -0.10068E-21         0.00000E+00
    0.60971E-20        -0.18774E-21         0.00000E+00
    0.00000E+00         0.62962E-20         0.00000E+00
   -0.23185E-20         0.63199E-20         0.00000E+00
   -0.44396E-21         0.63438E-20         0.00000E+00
    0.89907E-21         0.45898E-20         0.00000E+00
    0.15919E-20         0.28777E-20         0.00000E+00
    0.18770E-20         0.36501E-20         0.00000E+00
    0.44244E-20         0.54920E-20         0.00000E+00
    0.31137E-20         0.58597E-20         0.00000E+00
    0.13403E-20         0.46687E-20         0.00000E+00
    0.27555E-20         0.42942E-20         0.00000E+00
    0.38776E-20         0.39709E-20         0.00000E+00
    0.40060E-20         0.43471E-20         0.00000E+00
    0.38601E-20         0.52001E-20         0.00000E+00
    0.38296E-20         0.45519E-20         0.00000E+00
    0.34856E-20         0.46305E-20         0.00000E+00
    0.44416E-20         0.52991E-20         0.00000E+00
    0.56621E-20         0.29137E-20         0.00000E+00
    0.57934E-20         0.11784E-20         0.00000E+00
    0.53449E-20         0.24480E-20         0.00000E+00
    0.54035E-20         0.22662E-20         0.00000E+00
    0.58323E-20         0.90384E-21         0.00000E+00
    0.59223E-20         0.30672E-21         0.00000E+00
    0.61500E-20         0.13065E-21         0.00000E+00
    0.61407E-20         0.75451E-22         0.00000E+00
    0.60958E-20         0.20802E-22         0.00000E+00
    0.00000E+00         0.70116E-20         0.00000E+00
    0.14377E-21         0.60273E-20         0.00000E+00
    0.13388E-20         0.45280E-20         0.00000E+00
    0.26451E-20         0.39309E-20         0.00000E+00
    0.13926E-20         0.43763E-20         0.00000E+00
    0.48815E-21         0.35451E-20         0.00000E+00
    0.21142E-21         0.40303E-20         0.00000E+00
    0.13977E-20         0.57136E-20         0.00000E+00
    0.12032E-20         0.49161E-20         0.00000E+00
    0.17277E-20         0.39224E-20         0.00000E+00
    0.33180E-20         0.37643E-20         0.00000E+00
    0.29682E-20         0.45404E-20         0.00000E+00
    0.25948E-20         0.52270E-20         0.00000E+00
    0.29875E-20         0.51500E-20         0.00000E+00
    0.26144E-20         0.40537E-20         0.00000E+00
    0.41540E-20         0.27160E-20         0.00000E+00
    0.61097E-20         0.21069E-20         0.00000E+00
    0.56596E-20         0.20528E-20         0.00000E+00
    0.48265E-20         0.22003E-20         0.00000E+00
    0.59405E-20         0.14246E-20         0.00000E+00
    0.60452E-20         0.82364E-21         0.00000E+00
    0.59359E-20         0.75417E-21         0.00000E+00
    0.59248E-20         0.24761E-21         0.00000E+00
    0.59054E-20        -0.46468E-22         0.00000E+00
    0.59063E-20        -0.97858E-22         0.00000E+00
    0.00000E+00         0.60087E-20         0.00000E+00
    0.10735E-20         0.49811E-20         0.00000E+00
    0.16224E-20         0.38425E-20         0.00000E+00
    0.18743E-20         0.45360E-20         0.00000E+00
    0.25075E-20         0.50346E-20         0.00000E+00
    0.18831E-20         0.48312E-20         0.00000E+00
    0.54526E-21         0.45824E-20         0.00000E+00
    0.13124E-20         0.48679E-20         0.00000E+00
    0.15245E-20         0.43388E-20         0.00000E+00
    0.17238E-20         0.21794E-20         0.00000E+00
    0.23565E-20         0.27304E-20         0.00000E+00
    0.26704E-20         0.50703E-20         0.00000E+00
    0.30392E-20         0.51808E-20         0.00000E+00
    0.36864E-20         0.45323E-20         0.00000E+00
    0.46143E-20         0.34640E-20         0.00000E+00
    0.49090E-20         0.18038E-20         0.00000E+00
    0.52077E-20         0.14082E-20         0.00000E+00
    0.50325E-20         0.24615E-20         0.00000E+00
    0.49829E-20         0.21671E-20         0.00000E+00
    0.53125E-20         0.10475E-20         0.00000E+00
    0.48811E-20         0.90845E-21         0.00000E+00
    0.55451E-20         0.42712E-21         0.00000E+00
    0.58925E-20         0.16119E-21         0.00000E+00
    0.57862E-20         0.93963E-22         0.00000E+00
    0.56246E-20         0.18913E-22         0.00000E+00
    0.00000E+00         0.48645E-20         0.00000E+00
    0.61795E-21         0.44049E-20         0.00000E+00
    0.14302E-20         0.37272E-20         0.00000E+00
    0.23848E-20         0.30458E-20         0.00000E+00
    0.28774E-20         0.43675E-20         0.00000E+00
    0.26736E-20         0.55074E-20         0.00000E+00
    0.23868E-20         0.46010E-20         0.00000E+00
    0.21824E-20         0.47344E-20         0.00000E+00
    0.29213E-20         0.45047E-20         0.00000E+00
    0.25323E-20         0.30903E-20         0.00000E+00
    0.15483E-20         0.28177E-20         0.00000E+00
    0.23236E-20         0.38577E-20         0.00000E+00
    0.38296E-20         0.42110E-20         0.00000E+00
    0.39348E-20         0.35750E-20         0.00000E+00
    0.47258E-20         0.28311E-20         0.00000E+00
    0.51735E-20         0.21225E-20         0.00000E+00
    0.46777E-20         0.19834E-20         0.00000E+00
    0.42500E-20         0.22776E-20         0.00000E+00
    0.47713E-20         0.19203E-20         0.00000E+00
    0.46423E-20         0.15265E-20         0.00000E+00
    0.46026E-20         0.59106E-21         0.00000E+00
    0.50770E-20        -0.25728E-21         0.00000E+00
    0.50274E-20         0.64628E-23         0.00000E+00
    0.51411E-20         0.22142E-21         0.00000E+00
    0.51371E-20         0.22538E-21         0.00000E+00
    0.00000E+00         0.47728E-20         0.00000E+00
    0.53608E-22         0.35509E-20         0.00000E+00
    0.95674E-21         0.20757E-20         0.00000E+00
    0.43949E-21         0.30888E-20         0.00000E+00
   -0.19046E-21         0.47458E-20         0.00000E+00
    0.85158E-21         0.53218E-20         0.00000E+00
    0.35559E-21         0.50736E-20         0.00000E+00
   -0.44619E-21         0.43335E-20         0.00000E+00
    0.54762E-21         0.39888E-20         0.00000E+00
    0.17075E-20         0.35524E-20         0.00000E+00
    0.19753E-20         0.29391E-20         0.00000E+00
    0.30471E-20         0.27890E-20         0.00000E+00
    0.34967E-20         0.35696E-20         0.00000E+00
    0.33057E-20         0.36361E-20         0.00000E+00
    0.30345E-20         0.22253E-20         0.00000E+00
    0.33268E-20         0.18520E-20         0.00000E+00
    0.34124E-20         0.23316E-20         0.00000E+00
    0.41380E-20         0.23679E-20         0.00000E+00
    0.43564E-20         0.17748E-20         0.00000E+00
    0.45287E-20         0.12161E-20         0.00000E+00
    0.50936E-20         0.47374E-21         0.00000E+00
    0.45813E-20         0.23322E-23         0.00000E+00
    0.42000E-20         0.97116E-22         0.00000E+00
    0.44704E-20        -0.15758E-22         0.00000E+00
    0.46661E-20         0.26808E-22         0.00000E+00
    0.00000E+00         0.47573E-20         0.00000E+00
    0.77616E-21         0.34482E-20         0.00000E+00
    0.13006E-21         0.33413E-20         0.00000E+00
   -0.15598E-20         0.41930E-20         0.00000E+00
   -0.19443E-20         0.39554E-20         0.00000E+00
   -0.16794E-20         0.49613E-20         0.00000E+00
   -0.70818E-21         0.58988E-20         0.00000E+00
   -0.62127E-21         0.45423E-20         0.00000E+00
   -0.46956E-21         0.23510E-20         0.00000E+00
    0.91478E-21         0.16627E-20         0.00000E+00
    0.16626E-20         0.14781E-20         0.00000E+00
    0.16838E-20         0.23363E-20         0.00000E+00
    0.15366E-20         0.39523E-20         0.00000E+00
    0.24300E-20         0.40371E-20         0.00000E+00
    0.21664E-20         0.28100E-20         0.00000E+00
    0.11745E-20         0.17447E-20         0.00000E+00
    0.21966E-20         0.11721E-20         0.00000E+00
    0.32595E-20         0.13337E-20         0.00000E+00
    0.39919E-20         0.15296E-20         0.00000E+00
    0.43919E-20         0.78919E-21         0.00000E+00
    0.49522E-20         0.53841E-21         0.00000E+00
    0.42736E-20         0.63633E-21         0.00000E+00
    0.41946E-20         0.11738E-21         0.00000E+00
    0.42693E-20        -0.24459E-21         0.00000E+00
    0.43266E-20        -0.16588E-21         0.00000E+00
    0.00000E+00         0.32204E-20         0.00000E+00
    0.78048E-21         0.34209E-20         0.00000E+00
    0.41876E-21         0.44117E-20         0.00000E+00
    0.84282E-21         0.51631E-20         0.00000E+00
    0.75324E-21         0.48654E-20         0.00000E+00
   -0.10094E-20         0.40857E-20         0.00000E+00
   -0.12396E-21         0.40155E-20         0.00000E+00
    0.23854E-20         0.40948E-20         0.00000E+00
    0.22870E-20         0.24528E-20         0.00000E+00
    0.15426E-20         0.14203E-20         0.00000E+00
    0.16608E-20         0.21700E-20         0.00000E+00
    0.13967E-21         0.29150E-20         0.00000E+00
    0.63563E-21         0.28234E-20         0.00000E+00
    0.18564E-20         0.30063E-20         0.00000E+00
    0.22909E-20         0.34808E-20         0.00000E+00
    0.23209E-20         0.18217E-20         0.00000E+00
    0.29303E-20         0.24662E-21         0.00000E+00
    0.32218E-20         0.57261E-21         0.00000E+00
    0.36100E-20         0.64243E-21         0.00000E+00
    0.40636E-20         0.25591E-21         0.00000E+00
    0.40745E-20         0.59206E-21         0.00000E+00
    0.41243E-20         0.75985E-21         0.00000E+00
    0.43701E-20         0.10143E-21         0.00000E+00
    0.40765E-20        -0.14773E-21         0.00000E+00
    0.39927E-20        -0.87840E-22         0.00000E+00
    0.00000E+00         0.31963E-20         0.00000E+00
    0.13333E-20         0.30294E-20         0.00000E+00
    0.15107E-20         0.32790E-20         0.00000E+00
    0.15512E-20         0.38586E-20         0.00000E+00
    0.18419E-20         0.58076E-20         0.00000E+00
    0.19818E-20         0.58385E-20         0.00000E+00
    0.17272E-20         0.25040E-20         0.00000E+00
    0.29954E-20         0.21314E-20         0.00000E+00
    0.36840E-20         0.31938E-20         0.00000E+00
    0.17570E-20         0.22889E-20         0.00000E+00
    0.16288E-20         0.28811E-20         0.00000E+00
    0.16027E-20         0.33614E-20         0.00000E+00
    0.16201E-20         0.22356E-20         0.00000E+00
    0.17708E-20         0.23818E-20         0.00000E+00
    0.29039E-20         0.23455E-20         0.00000E+00
    0.42648E-20         0.11053E-20         0.00000E+00
    0.40993E-20         0.27125E-21         0.00000E+00
    0.38523E-20         0.65400E-21         0.00000E+00
    0.38979E-20         0.68776E-21         0.00000E+00
    0.37106E-20         0.32463E-21         0.00000E+00
    0.35609E-20         0.47771E-21         0.00000E+00
    0.39345E-20         0.34079E-21         0.00000E+00
    0.40143E-20         0.16518E-21         0.00000E+00
    0.37859E-20         0.13281E-21         0.00000E+00
    0.37062E-20         0.18659E-23         0.00000E+00
    0.00000E+00         0.55385E-21         0.00000E+00
    0.17392E-20         0.19101E-20         0.00000E+00
    0.16685E-20         0.41938E-20         0.00000E+00
    0.20733E-20         0.48320E-20         0.00000E+00
    0.10365E-20         0.44348E-20         0.00000E+00
    0.27925E-20         0.42003E-20         0.00000E+00
    0.29022E-20         0.30020E-20         0.00000E+00
    0.19607E-20         0.21381E-20         0.00000E+00
    0.29110E-20         0.36912E-20         0.00000E+00
    0.22641E-20         0.34755E-20         0.00000E+00
    0.16954E-20         0.23243E-20         0.00000E+00
    0.17973E-20         0.29237E-20         0.00000E+00
    0.11437E-20         0.26554E-20         0.00000E+00
    0.18100E-20         0.17226E-20         0.00000E+00
    0.32792E-20         0.98678E-21         0.00000E+00
    0.41583E-20         0.62633E-21         0.00000E+00
    0.37722E-20         0.65908E-21         0.00000E+00
    0.31765E-20         0.77397E-21         0.00000E+00
    0.37527E-20         0.78417E-21         0.00000E+00
    0.36307E-20         0.59296E-21         0.00000E+00
    0.35671E-20         0.36817E-21         0.00000E+00
    0.36412E-20         0.30646E-21         0.00000E+00
    0.34755E-20         0.25005E-21         0.00000E+00
    0.34816E-20         0.16037E-21         0.00000E+00
    0.34629E-20         0.71601E-22         0.00000E+00
    0.00000E+00        -0.28208E-21         0.00000E+00
   -0.36184E-21         0.13609E-20         0.00000E+00
    0.84229E-21         0.29449E-20         0.00000E+00
    0.18289E-20         0.44905E-20         0.00000E+00
    0.19932E-20         0.50884E-20         0.00000E+00
    0.26104E-20         0.39728E-20         0.00000E+00
    0.25498E-20         0.33358E-20         0.00000E+00
    0.20903E-20         0.21226E-20         0.00000E+00
    0.21854E-20         0.28903E-20         0.00000E+00
    0.41678E-20         0.35046E-20         0.00000E+00
    0.30293E-20         0.33479E-20         0.00000E+00
    0.22330E-20         0.39131E-20         0.00000E+00
    0.19327E-20         0.22229E-20         0.00000E+00
    0.26398E-20         0.24624E-21         0.00000E+00
    0.31421E-20        -0.27669E-23         0.00000E+00
    0.28084E-20         0.61228E-21         0.00000E+00
    0.28094E-20         0.12531E-20         0.00000E+00
    0.31859E-20         0.67350E-21         0.00000E+00
    0.36341E-20         0.23348E-21         0.00000E+00
    0.37347E-20         0.51023E-21         0.00000E+00
    0.35570E-20         0.46727E-21         0.00000E+00
    0.33127E-20         0.43241E-21         0.00000E+00
    0.32673E-20         0.32474E-21         0.00000E+00
    0.33061E-20         0.14543E-21         0.00000E+00
    0.32992E-20         0.39367E-22         0.00000E+00
    0.00000E+00         0.12775E-20         0.00000E+00
   -0.10736E-20         0.10678E-20         0.00000E+00
   -0.45980E-22         0.20031E-20         0.00000E+00
    0.29354E-21         0.36811E-20         0.00000E+00
    0.19804E-20         0.36533E-20         0.00000E+00
    0.32983E-20         0.36436E-20         0.00000E+00
    0.45906E-20         0.35220E-20         0.00000E+00
    0.43772E-20         0.25025E-20         0.00000E+00
    0.35112E-20         0.16136E-20         0.00000E+00
    0.47141E-20         0.26315E-20         0.00000E+00
    0.36950E-20         0.42591E-20         0.00000E+00
    0.41528E-20         0.40203E-20         0.00000E+00
    0.46208E-20         0.22486E-20         0.00000E+00
    0.41397E-20         0.51324E-21         0.00000E+00
    0.35169E-20         0.81820E-21         0.00000E+00
    0.26658E-20         0.95901E-21         0.00000E+00
    0.33037E-20         0.28158E-21         0.00000E+00
    0.39393E-20        -0.50734E-22         0.00000E+00
    0.36786E-20         0.23531E-21         0.00000E+00
    0.37082E-20         0.67011E-21         0.00000E+00
    0.35222E-20         0.79015E-21         0.00000E+00
    0.33617E-20         0.59615E-21         0.00000E+00
    0.32456E-20         0.25668E-21         0.00000E+00
    0.32302E-20         0.12841E-21         0.00000E+00
    0.31990E-20         0.85372E-22         0.00000E+00
    0.33131E-35         0.18651E-20         0.00000E+00
   -0.16870E-21         0.14069E-20         0.00000E+00
   -0.64779E-21         0.15778E-20         0.00000E+00
    0.80475E-21         0.24641E-20         0.00000E+00
    0.27286E-20         0.20836E-20         0.00000E+00
    0.37825E-20         0.13625E-20         0.00000E+00
    0.49248E-20         0.22568E-20         0.00000E+00
    0.53020E-20         0.32020E-20         0.00000E+00
    0.52369E-20         0.25534E-20         0.00000E+00
    0.35263E-20         0.33208E-20         0.00000E+00
    0.36804E-20         0.39092E-20         0.00000E+00
    0.41161E-20         0.29873E-20         0.00000E+00
    0.49839E-20         0.22361E-20         0.00000E+00
    0.40969E-20         0.13501E-20         0.00000E+00
    0.35981E-20         0.14711E-20         0.00000E+00
    0.41450E-20         0.82548E-21         0.00000E+00
    0.37726E-20        -0.20414E-22         0.00000E+00
    0.31895E-20         0.29865E-21         0.00000E+00
    0.28112E-20         0.46456E-21         0.00000E+00
    0.32097E-20         0.66658E-21         0.00000E+00
    0.34517E-20         0.81373E-21         0.00000E+00
    0.34133E-20         0.70907E-21         0.00000E+00
    0.32109E-20         0.45629E-21         0.00000E+00
    0.30850E-20         0.19201E-21         0.00000E+00
    0.30978E-20         0.10176E-21         0.00000E+00
    0.41094E-49         0.16149E-20         0.00000E+00
    0.60476E-21         0.17156E-20         0.00000E+00
    0.37287E-21         0.10296E-20         0.00000E+00
    0.14365E-20         0.30476E-21         0.00000E+00
    0.27036E-20         0.67552E-21         0.00000E+00
    0.24189E-20         0.14474E-20         0.00000E+00
    0.24094E-20         0.20025E-20         0.00000E+00
    0.31040E-20         0.21904E-20         0.00000E+00
    0.35483E-20         0.33894E-20         0.00000E+00
    0.24763E-20         0.41880E-20         0.00000E+00
    0.32533E-20         0.36692E-20         0.00000E+00
    0.35535E-20         0.27167E-20         0.00000E+00
    0.38065E-20         0.22678E-20         0.00000E+00
    0.37320E-20         0.18990E-20         0.00000E+00
    0.34938E-20         0.77012E-21         0.00000E+00
    0.37910E-20         0.78455E-21         0.00000E+00
    0.31311E-20         0.12371E-20         0.00000E+00
    0.24720E-20         0.91063E-21         0.00000E+00
    0.25402E-20         0.21511E-21         0.00000E+00
    0.26940E-20         0.29580E-22         0.00000E+00
    0.29622E-20         0.58658E-21         0.00000E+00
    0.30910E-20         0.83695E-21         0.00000E+00
    0.30459E-20         0.58495E-21         0.00000E+00
    0.29830E-20         0.24159E-21         0.00000E+00
    0.29692E-20         0.59792E-22         0.00000E+00
   -0.11646E-35         0.65559E-21         0.00000E+00
    0.64236E-21         0.10340E-20         0.00000E+00
    0.98263E-21         0.74600E-21         0.00000E+00
    0.10471E-20         0.13341E-21         0.00000E+00
    0.77838E-21         0.11012E-20         0.00000E+00
    0.28123E-21         0.16567E-20         0.00000E+00
    0.55834E-21         0.15718E-20         0.00000E+00
    0.10055E-20         0.20632E-20         0.00000E+00
    0.74869E-21         0.31811E-20         0.00000E+00
    0.16201E-20         0.36158E-20         0.00000E+00
    0.24060E-20         0.28320E-20         0.00000E+00
    0.35253E-20         0.24341E-20         0.00000E+00
    0.36903E-20         0.20575E-20         0.00000E+00
    0.42616E-20         0.16628E-20         0.00000E+00
    0.36237E-20         0.14121E-20         0.00000E+00
    0.28018E-20         0.11882E-20         0.00000E+00
    0.29004E-20         0.12986E-20         0.00000E+00
    0.30558E-20         0.88949E-21         0.00000E+00
    0.29955E-20         0.24260E-21         0.00000E+00
    0.26462E-20         0.24460E-21         0.00000E+00
    0.24727E-20         0.41671E-21         0.00000E+00
    0.27491E-20         0.62543E-21         0.00000E+00
    0.28227E-20         0.56428E-21         0.00000E+00
    0.28283E-20         0.26868E-21         0.00000E+00
    0.27897E-20         0.12939E-21         0.00000E+00
    0.00000E+00         0.33021E-21         0.00000E+00
   -0.40337E-21         0.73300E-21         0.00000E+00
    0.25435E-21         0.62482E-21         0.00000E+00
   -0.32415E-21         0.50901E-21         0.00000E+00
   -0.47101E-21         0.14414E-20         0.00000E+00
    0.46155E-21         0.16675E-20         0.00000E+00
    0.85211E-22         0.12782E-20         0.00000E+00
   -0.87113E-22         0.20001E-20         0.00000E+00
    0.18331E-21         0.27748E-20         0.00000E+00
    0.11753E-20         0.25307E-20         0.00000E+00
    0.18236E-20         0.17641E-20         0.00000E+00
    0.25073E-20         0.14324E-20         0.00000E+00
    0.32240E-20         0.15315E-20         0.00000E+00
    0.32615E-20         0.19657E-20         0.00000E+00
    0.29161E-20         0.22300E-20         0.00000E+00
    0.26727E-20         0.15079E-20         0.00000E+00
    0.26147E-20         0.98308E-21         0.00000E+00
    0.32501E-20         0.81549E-21         0.00000E+00
    0.32963E-20         0.62471E-21         0.00000E+00
    0.28705E-20         0.55239E-21         0.00000E+00
    0.24992E-20         0.48369E-21         0.00000E+00
    0.23590E-20         0.48694E-21         0.00000E+00
    0.25268E-20         0.50573E-21         0.00000E+00
    0.25564E-20         0.27463E-21         0.00000E+00
    0.25428E-20         0.13703E-21         0.00000E+00
    0.00000E+00         0.14623E-20         0.00000E+00
   -0.68933E-21         0.77969E-21         0.00000E+00
   -0.41557E-21         0.66678E-21         0.00000E+00
   -0.97368E-21         0.85877E-21         0.00000E+00
   -0.10098E-20         0.31554E-21         0.00000E+00
   -0.38524E-21         0.11005E-20         0.00000E+00
   -0.20264E-21         0.21204E-20         0.00000E+00
   -0.24735E-21         0.19651E-20         0.00000E+00
    0.34686E-21         0.19187E-20         0.00000E+00
    0.87018E-21         0.19755E-20         0.00000E+00
    0.12317E-20         0.15000E-20         0.00000E+00
    0.10729E-20         0.10337E-20         0.00000E+00
    0.14836E-20         0.13034E-20         0.00000E+00
    0.16109E-20         0.19708E-20         0.00000E+00
    0.22890E-20         0.20009E-20         0.00000E+00
    0.22913E-20         0.14895E-20         0.00000E+00
    0.24011E-20         0.72117E-21         0.00000E+00
    0.27527E-20         0.20793E-21         0.00000E+00
    0.31006E-20         0.62223E-21         0.00000E+00
    0.26877E-20         0.10417E-20         0.00000E+00
    0.23171E-20         0.92818E-21         0.00000E+00
    0.21058E-20         0.59784E-21         0.00000E+00
    0.22376E-20         0.36691E-21         0.00000E+00
    0.22646E-20         0.25262E-21         0.00000E+00
    0.22538E-20         0.15659E-21         0.00000E+00
    0.00000E+00         0.17089E-20         0.00000E+00
    0.43640E-21         0.11486E-20         0.00000E+00
   -0.15869E-21         0.90916E-21         0.00000E+00
   -0.24555E-21         0.11033E-20         0.00000E+00
   -0.60286E-21         0.85300E-21         0.00000E+00
   -0.12081E-20         0.86029E-21         0.00000E+00
   -0.37619E-21         0.11404E-20         0.00000E+00
    0.34468E-21         0.14505E-20         0.00000E+00
    0.50775E-21         0.16573E-20         0.00000E+00
    0.68637E-21         0.16459E-20         0.00000E+00
    0.69299E-21         0.15614E-20         0.00000E+00
    0.55336E-21         0.11804E-20         0.00000E+00
    0.46110E-21         0.99342E-21         0.00000E+00
    0.10137E-20         0.11603E-20         0.00000E+00
    0.13299E-20         0.15495E-20         0.00000E+00
    0.17805E-20         0.13958E-20         0.00000E+00
    0.22321E-20         0.52167E-21         0.00000E+00
    0.18673E-20         0.11596E-21         0.00000E+00
    0.14381E-20         0.68971E-21         0.00000E+00
    0.15198E-20         0.13360E-20         0.00000E+00
    0.17052E-20         0.10656E-20         0.00000E+00
    0.18431E-20         0.56641E-21         0.00000E+00
    0.18817E-20         0.34697E-21         0.00000E+00
    0.19296E-20         0.25848E-21         0.00000E+00
    0.19491E-20         0.15872E-21         0.00000E+00
    0.00000E+00         0.58953E-21         0.00000E+00
    0.10361E-20         0.93838E-21         0.00000E+00
    0.61289E-21         0.13487E-20         0.00000E+00
    0.68504E-21         0.13029E-20         0.00000E+00
    0.73506E-21         0.12781E-20         0.00000E+00
    0.48044E-21         0.87380E-21         0.00000E+00
    0.58389E-21         0.56767E-21         0.00000E+00
    0.73465E-21         0.10812E-20         0.00000E+00
    0.79101E-21         0.15770E-20         0.00000E+00
    0.84393E-21         0.17903E-20         0.00000E+00
    0.71166E-21         0.16330E-20         0.00000E+00
    0.89971E-21         0.12656E-20         0.00000E+00
    0.58654E-21         0.84309E-21         0.00000E+00
    0.58969E-21         0.11019E-20         0.00000E+00
    0.56298E-21         0.12340E-20         0.00000E+00
    0.13372E-20         0.58731E-21         0.00000E+00
    0.14529E-20         0.63441E-21         0.00000E+00
    0.10856E-20         0.10019E-20         0.00000E+00
    0.54233E-21         0.96969E-21         0.00000E+00
    0.85096E-21         0.77467E-21         0.00000E+00
    0.10935E-20         0.60489E-21         0.00000E+00
    0.13696E-20         0.42134E-21         0.00000E+00
    0.14725E-20         0.28040E-21         0.00000E+00
    0.15954E-20         0.18517E-21         0.00000E+00
    0.16271E-20         0.11762E-21         0.00000E+00
    0.00000E+00        -0.36339E-21         0.00000E+00
    0.42028E-21         0.53567E-21         0.00000E+00
    0.89487E-21         0.12603E-20         0.00000E+00
    0.12375E-20         0.98111E-21         0.00000E+00
    0.12938E-20         0.10576E-20         0.00000E+00
    0.12206E-20         0.10115E-20         0.00000E+00
    0.90678E-21         0.88615E-21         0.00000E+00
    0.79168E-21         0.12434E-20         0.00000E+00
    0.77944E-21         0.15480E-20         0.00000E+00
    0.10046E-20         0.17252E-20         0.00000E+00
    0.10154E-20         0.15056E-20         0.00000E+00
    0.98346E-21         0.13055E-20         0.00000E+00
    0.91961E-21         0.13034E-20         0.00000E+00
    0.69310E-21         0.11839E-20         0.00000E+00
    0.10230E-20         0.80199E-21         0.00000E+00
    0.11409E-20         0.50584E-21         0.00000E+00
    0.10648E-20         0.77327E-21         0.00000E+00
    0.10124E-20         0.10265E-20         0.00000E+00
    0.10780E-20         0.92438E-21         0.00000E+00
    0.11372E-20         0.78477E-21         0.00000E+00
    0.10975E-20         0.54693E-21         0.00000E+00
    0.12010E-20         0.18742E-21         0.00000E+00
    0.12572E-20         0.12118E-21         0.00000E+00
    0.13062E-20         0.10392E-21         0.00000E+00
    0.13304E-20         0.95402E-22         0.00000E+00
    0.00000E+00        -0.25103E-21         0.00000E+00
   -0.16333E-21         0.43503E-22         0.00000E+00
    0.58167E-21         0.53151E-21         0.00000E+00
    0.70138E-21         0.90402E-21         0.00000E+00
    0.59084E-21         0.12949E-20         0.00000E+00
    0.50683E-21         0.12608E-20         0.00000E+00
    0.31368E-21         0.99663E-21         0.00000E+00
    0.49383E-21         0.12085E-20         0.00000E+00
    0.52292E-21         0.13640E-20         0.00000E+00
    0.58509E-21         0.15543E-20         0.00000E+00
    0.71370E-21         0.16542E-20         0.00000E+00
    0.71099E-21         0.13614E-20         0.00000E+00
    0.82714E-21         0.11334E-20         0.00000E+00
    0.97249E-21         0.99853E-21         0.00000E+00
    0.12481E-20         0.78617E-21         0.00000E+00
    0.99978E-21         0.54557E-21         0.00000E+00
    0.10209E-20         0.76295E-21         0.00000E+00
    0.11826E-20         0.98872E-21         0.00000E+00
    0.12429E-20         0.84489E-21         0.00000E+00
    0.11243E-20         0.75509E-21         0.00000E+00
    0.13197E-20         0.54112E-21         0.00000E+00
    0.12489E-20         0.26168E-21         0.00000E+00
    0.11170E-20         0.17518E-21         0.00000E+00
    0.10690E-20         0.11202E-21         0.00000E+00
    0.11022E-20         0.69295E-22         0.00000E+00
    0.00000E+00        -0.36731E-22         0.00000E+00
   -0.18052E-21        -0.45993E-22         0.00000E+00
    0.25895E-22         0.39555E-21         0.00000E+00
   -0.43009E-22         0.97194E-21         0.00000E+00
   -0.50139E-22         0.12522E-20         0.00000E+00
    0.17161E-21         0.12886E-20         0.00000E+00
    0.25990E-21         0.89915E-21         0.00000E+00
    0.25571E-21         0.10342E-20         0.00000E+00
    0.42279E-21         0.14567E-20         0.00000E+00
    0.28938E-21         0.15345E-20         0.00000E+00
    0.58603E-21         0.13797E-20         0.00000E+00
    0.72201E-21         0.11921E-20         0.00000E+00
    0.77066E-21         0.10419E-20         0.00000E+00
    0.78443E-21         0.76290E-21         0.00000E+00
    0.95019E-21         0.77470E-21         0.00000E+00
    0.83996E-21         0.73307E-21         0.00000E+00
    0.65480E-21         0.59047E-21         0.00000E+00
    0.90668E-21         0.80456E-21         0.00000E+00
    0.98681E-21         0.98265E-21         0.00000E+00
    0.87139E-21         0.70792E-21         0.00000E+00
    0.98473E-21         0.42230E-21         0.00000E+00
    0.94861E-21         0.39011E-21         0.00000E+00
    0.93124E-21         0.30109E-21         0.00000E+00
    0.89948E-21         0.11871E-21         0.00000E+00
    0.87599E-21         0.29000E-22         0.00000E+00
    0.00000E+00         0.11002E-21         0.00000E+00
   -0.14981E-21         0.17609E-22         0.00000E+00
   -0.18974E-21         0.39400E-21         0.00000E+00
   -0.15713E-21         0.98005E-21         0.00000E+00
   -0.25008E-21         0.10803E-20         0.00000E+00
    0.17626E-21         0.95078E-21         0.00000E+00
    0.44504E-21         0.91252E-21         0.00000E+00
    0.20857E-21         0.10456E-20         0.00000E+00
    0.53524E-21         0.13304E-20         0.00000E+00
    0.58169E-21         0.13910E-20         0.00000E+00
    0.77658E-21         0.12215E-20         0.00000E+00
    0.64584E-21         0.11768E-20         0.00000E+00
    0.73989E-21         0.10710E-20         0.00000E+00
    0.47434E-21         0.81899E-21         0.00000E+00
    0.34885E-21         0.73064E-21         0.00000E+00
    0.57279E-21         0.84097E-21         0.00000E+00
    0.51231E-21         0.69623E-21         0.00000E+00
    0.32342E-21         0.65671E-21         0.00000E+00
    0.44625E-21         0.88019E-21         0.00000E+00
    0.57101E-21         0.75718E-21         0.00000E+00
    0.56690E-21         0.46389E-21         0.00000E+00
    0.59956E-21         0.31517E-21         0.00000E+00
    0.64871E-21         0.22431E-21         0.00000E+00
    0.64284E-21         0.16726E-21         0.00000E+00
    0.60996E-21         0.11626E-21         0.00000E+00
    0.00000E+00         0.26288E-21         0.00000E+00
   -0.23274E-21         0.14375E-21         0.00000E+00
   -0.61294E-21         0.40287E-21         0.00000E+00
   -0.54213E-21         0.10323E-20         0.00000E+00
   -0.22513E-21         0.91877E-21         0.00000E+00
    0.74732E-22         0.59351E-21         0.00000E+00
    0.23453E-21         0.86683E-21         0.00000E+00
    0.32947E-21         0.94398E-21         0.00000E+00
    0.41503E-21         0.10836E-20         0.00000E+00
    0.48250E-21         0.12931E-20         0.00000E+00
    0.47735E-21         0.13156E-20         0.00000E+00
    0.43647E-21         0.12288E-20         0.00000E+00
    0.43350E-21         0.12134E-20         0.00000E+00
    0.33489E-21         0.11539E-20         0.00000E+00
    0.22025E-21         0.67625E-21         0.00000E+00
    0.33277E-21         0.56961E-21         0.00000E+00
    0.46534E-21         0.83984E-21         0.00000E+00
    0.25952E-21         0.87062E-21         0.00000E+00
    0.14622E-21         0.73506E-21         0.00000E+00
    0.31937E-21         0.58727E-21         0.00000E+00
    0.37529E-21         0.39375E-21         0.00000E+00
    0.42813E-21         0.30830E-21         0.00000E+00
    0.35540E-21         0.25782E-21         0.00000E+00
    0.35095E-21         0.15745E-21         0.00000E+00
    0.39793E-21         0.94742E-22         0.00000E+00
    0.00000E+00         0.57550E-21         0.00000E+00
   -0.26431E-21         0.63054E-21         0.00000E+00
   -0.58534E-21         0.70339E-21         0.00000E+00
   -0.54088E-21         0.59224E-21         0.00000E+00
   -0.19777E-22         0.46344E-21         0.00000E+00
   -0.52658E-23         0.49112E-21         0.00000E+00
    0.36993E-22         0.65778E-21         0.00000E+00
    0.25095E-21         0.86510E-21         0.00000E+00
    0.14145E-21         0.11774E-20         0.00000E+00
    0.14913E-21         0.13287E-20         0.00000E+00
    0.99628E-22         0.12676E-20         0.00000E+00
    0.20347E-21         0.12207E-20         0.00000E+00
    0.98520E-22         0.11726E-20         0.00000E+00
    0.27752E-21         0.10322E-20         0.00000E+00
    0.30486E-21         0.73276E-21         0.00000E+00
    0.19377E-21         0.59588E-21         0.00000E+00
    0.32572E-21         0.76948E-21         0.00000E+00
    0.31295E-21         0.97583E-21         0.00000E+00
    0.14517E-21         0.82034E-21         0.00000E+00
    0.11823E-21         0.52810E-21         0.00000E+00
    0.18554E-21         0.35514E-21         0.00000E+00
    0.22374E-21         0.33507E-21         0.00000E+00
    0.18203E-21         0.30149E-21         0.00000E+00
    0.17751E-21         0.12472E-21         0.00000E+00
    0.20903E-21         0.22288E-22         0.00000E+00
    0.00000E+00         0.79150E-21         0.00000E+00
   -0.21600E-21         0.72908E-21         0.00000E+00
   -0.19708E-21         0.67944E-21         0.00000E+00
   -0.16811E-21         0.46672E-21         0.00000E+00
    0.53972E-22         0.38315E-21         0.00000E+00
   -0.75428E-23         0.53674E-21         0.00000E+00
   -0.37267E-22         0.61062E-21         0.00000E+00
    0.86791E-22         0.83952E-21         0.00000E+00
    0.13901E-22         0.11854E-20         0.00000E+00
    0.70650E-22         0.13349E-20         0.00000E+00
    0.14619E-23         0.12612E-20         0.00000E+00
    0.83313E-22         0.12299E-20         0.00000E+00
   -0.17034E-22         0.11394E-20         0.00000E+00
    0.14973E-21         0.94760E-21         0.00000E+00
    0.15224E-21         0.76000E-21         0.00000E+00
    0.95260E-22         0.54875E-21         0.00000E+00
    0.24650E-21         0.72067E-21         0.00000E+00
    0.19287E-21         0.10512E-20         0.00000E+00
    0.95821E-22         0.92978E-21         0.00000E+00
   -0.26010E-22         0.54690E-21         0.00000E+00
    0.58221E-22         0.28823E-21         0.00000E+00
    0.10779E-21         0.31181E-21         0.00000E+00
    0.10472E-21         0.30406E-21         0.00000E+00
    0.10267E-21         0.13046E-21         0.00000E+00
    0.93254E-22         0.31704E-22         0.00000E+00
CELL_DATA       1152
TENSORS stressef double 
   -0.50391E+05         0.36730E+03         0.00000E+00
    0.36730E+03        -0.10022E+06         0.00000E+00
    0.00000E+00         0.00000E+00        -0.56226E+05
 
   -0.40546E+05         0.26486E+04         0.00000E+00
    0.26486E+04        -0.96900E+05         0.00000E+00
    0.00000E+00         0.00000E+00        -0.65782E+05
 
   -0.34885E+05         0.38063E+04         0.00000E+00
    0.38063E+04        -0.88952E+05         0.00000E+00
    0.00000E+00         0.00000E+00        -0.63209E+05
 
   -0.29645E+05         0.40509E+04         0.00000E+00
    0.40509E+04        -0.80509E+05         0.00000E+00
    0.00000E+00         0.00000E+00        -0.57496E+05
 
   -0.24761E+05         0.38935E+04         0.00000E+00
    0.38935E+04        -0.72692E+05         0.00000E+00
    0.00000E+00         0.00000E+00        -0.51282E+05
 
   -0.20330E+05         0.35934E+04         0.00000E+00
    0.35934E+04        -0.65568E+05         0.00000E+00
    0.00000E+00         0.00000E+00        -0.45219E+05
 
   -0.16348E+05         0.32081E+04         0.00000E+00
    0.32081E+04        -0.59151E+05         0.00000E+00
    0.00000E+00         0.00000E+00        -0.39561E+05
 
   -0.13259E+05         0.27880E+04         0.00000E+00
    0.27880E+04        -0.53412E+05         0.00000E+00
    0.00000E+00         0.00000E+00        -0.34605E+05
 
   -0.10653E+05         0.24213E+04         0.00000E+00
    0.24213E+04        -0.48357E+05         0.00000E+00
    0.00000E+00         0.00000E+00        -0.30293E+05
 
   -0.83767E+04         0.20929E+04         0.00000E+00
    0.20929E+04        -0.43954E+05         0.00000E+00
    0.00000E+00         0.00000E+00        -0.26573E+05
 
   -0.64942E+04         0.18174E+04         0.00000E+00
    0.18174E+04        -0.40076E+05         0.00000E+00
    0.00000E+00         0.00000E+00        -0.23398E+05
 
   -0.48386E+04         0.16290E+04         0.00000E+00
    0.16290E+04        -0.36660E+05         0.00000E+00
    0.00000E+00         0.00000E+00        -0.20596E+05
 
   -0.33193E+04         0.14654E+04         0.00000E+00
    0.14654E+04        -0.33629E+05         0.00000E+00
    0.00000E+00         0.00000E+00        -0.18044E+05
 
   -0.19102E+04         0.13215E+04         0.00000E+00
    0.13215E+04        -0.30891E+05         0.00000E+00
    0.00000E+00         0.00000E+00        -0.15675E+05
 
   -0.62664E+03         0.11691E+04         0.00000E+00
    0.11691E+04        -0.28436E+05         0.00000E+00
    0.00000E+00         0.00000E+00        -0.13468E+05
 
    0.38828E+03         0.10430E+04         0.00000E+00
    0.10430E+04        -0.26254E+05         0.00000E+00
    0.00000E+00         0.00000E+00        -0.11469E+05
 
    0.12312E+04         0.89577E+03         0.00000E+00
    0.89577E+03        -0.24359E+05         0.00000E+00
    0.00000E+00         0.00000E+00        -0.96121E+04
 
    0.19401E+04         0.79589E+03         0.00000E+00
    0.79589E+03        -0.22703E+05         0.00000E+00
    0.00000E+00         0.00000E+00        -0.79618E+04
 
    0.25345E+04         0.70734E+03         0.00000E+00
    0.70734E+03        -0.21226E+05         0.00000E+00
    0.00000E+00         0.00000E+00        -0.64142E+04
 
    0.27045E+04         0.63230E+03         0.00000E+00
    0.63230E+03        -0.19901E+05         0.00000E+00
    0.00000E+00         0.00000E+00        -0.52517E+04
 
    0.78899E+03         0.54023E+03         0.00000E+00
    0.54023E+03        -0.18737E+05         0.00000E+00
    0.00000E+00         0.00000E+00        -0.53843E+04
 
   -0.13049E+04         0.48390E+03         0.00000E+00
    0.48390E+03        -0.17720E+05         0.00000E+00
    0.00000E+00         0.00000E+00        -0.57075E+04
 
   -0.33711E+04         0.46006E+03         0.00000E+00
    0.46006E+03        -0.16781E+05         0.00000E+00
    0.00000E+00         0.00000E+00        -0.60456E+04
 
   -0.55070E+04         0.46042E+03         0.00000E+00
    0.46042E+03        -0.15865E+05         0.00000E+00
    0.00000E+00         0.00000E+00        -0.64115E+04
 
   -0.46905E+05         0.27391E+04         0.00000E+00
    0.27391E+04        -0.99614E+05         0.00000E+00
    0.00000E+00         0.00000E+00        -0.59029E+05
 
   -0.37182E+05         0.97166E+04         0.00000E+00
    0.97166E+04        -0.88863E+05         0.00000E+00
    0.00000E+00         0.00000E+00        -0.63738E+05
 
   -0.33484E+05         0.11696E+05         0.00000E+00
    0.11696E+05        -0.80360E+05         0.00000E+00
    0.00000E+00         0.00000E+00        -0.59430E+05
 
   -0.29650E+05         0.11870E+05         0.00000E+00
    0.11870E+05        -0.73326E+05         0.00000E+00
    0.00000E+00         0.00000E+00        -0.54320E+05
 
   -0.25346E+05         0.11185E+05         0.00000E+00
    0.11185E+05        -0.66651E+05         0.00000E+00
    0.00000E+00         0.00000E+00        -0.48714E+05
 
   -0.21103E+05         0.10180E+05         0.00000E+00
    0.10180E+05        -0.60606E+05         0.00000E+00
    0.00000E+00         0.00000E+00        -0.43217E+05
 
   -0.17293E+05         0.90435E+04         0.00000E+00
    0.90435E+04        -0.55212E+05         0.00000E+00
    0.00000E+00         0.00000E+00        -0.38134E+05
 
   -0.14047E+05         0.79392E+04         0.00000E+00
    0.79392E+04        -0.50454E+05         0.00000E+00
    0.00000E+00         0.00000E+00        -0.33598E+05
 
   -0.11359E+05         0.69290E+04         0.00000E+00
    0.69290E+04        -0.46145E+05         0.00000E+00
    0.00000E+00         0.00000E+00        -0.29593E+05
 
   -0.89791E+04         0.60580E+04         0.00000E+00
    0.60580E+04        -0.42208E+05         0.00000E+00
    0.00000E+00         0.00000E+00        -0.26015E+05
 
   -0.69214E+04         0.53488E+04         0.00000E+00
    0.53488E+04        -0.38725E+05         0.00000E+00
    0.00000E+00         0.00000E+00        -0.22876E+05
 
   -0.51691E+04         0.47850E+04         0.00000E+00
    0.47850E+04        -0.35551E+05         0.00000E+00
    0.00000E+00         0.00000E+00        -0.20117E+05
 
   -0.36323E+04         0.42983E+04         0.00000E+00
    0.42983E+04        -0.32658E+05         0.00000E+00
    0.00000E+00         0.00000E+00        -0.17626E+05
 
   -0.21938E+04         0.38774E+04         0.00000E+00
    0.38774E+04        -0.30101E+05         0.00000E+00
    0.00000E+00         0.00000E+00        -0.15307E+05
 
   -0.92462E+03         0.34478E+04         0.00000E+00
    0.34478E+04        -0.27827E+05         0.00000E+00
    0.00000E+00         0.00000E+00        -0.13185E+05
 
    0.11973E+03         0.30234E+04         0.00000E+00
    0.30234E+04        -0.25818E+05         0.00000E+00
    0.00000E+00         0.00000E+00        -0.11265E+05
 
    0.99390E+03         0.26574E+04         0.00000E+00
    0.26574E+04        -0.24029E+05         0.00000E+00
    0.00000E+00         0.00000E+00        -0.94461E+04
 
    0.17507E+04         0.23527E+04         0.00000E+00
    0.23527E+04        -0.22425E+05         0.00000E+00
    0.00000E+00         0.00000E+00        -0.78184E+04
 
    0.23768E+04         0.21001E+04         0.00000E+00
    0.21001E+04        -0.21004E+05         0.00000E+00
    0.00000E+00         0.00000E+00        -0.63129E+04
 
    0.25249E+04         0.18769E+04         0.00000E+00
    0.18769E+04        -0.19710E+05         0.00000E+00
    0.00000E+00         0.00000E+00        -0.52244E+04
 
    0.63689E+03         0.16069E+04         0.00000E+00
    0.16069E+04        -0.18585E+05         0.00000E+00
    0.00000E+00         0.00000E+00        -0.53845E+04
 
   -0.13809E+04         0.14443E+04         0.00000E+00
    0.14443E+04        -0.17587E+05         0.00000E+00
    0.00000E+00         0.00000E+00        -0.56904E+04
 
   -0.33933E+04         0.13733E+04         0.00000E+00
    0.13733E+04        -0.16662E+05         0.00000E+00
    0.00000E+00         0.00000E+00        -0.60165E+04
 
   -0.54856E+04         0.13738E+04         0.00000E+00
    0.13738E+04        -0.15760E+05         0.00000E+00
    0.00000E+00         0.00000E+00        -0.63738E+04
 
   -0.34308E+05         0.16166E+05         0.00000E+00
    0.16166E+05        -0.75384E+05         0.00000E+00
    0.00000E+00         0.00000E+00        -0.55713E+05
 
   -0.33389E+05         0.18376E+05         0.00000E+00
    0.18376E+05        -0.64371E+05         0.00000E+00
    0.00000E+00         0.00000E+00        -0.52842E+05
 
   -0.33536E+05         0.18913E+05         0.00000E+00
    0.18913E+05        -0.61966E+05         0.00000E+00
    0.00000E+00         0.00000E+00        -0.51523E+05
 
   -0.30579E+05         0.17942E+05         0.00000E+00
    0.17942E+05        -0.58431E+05         0.00000E+00
    0.00000E+00         0.00000E+00        -0.47919E+05
 
   -0.26760E+05         0.16566E+05         0.00000E+00
    0.16566E+05        -0.55017E+05         0.00000E+00
    0.00000E+00         0.00000E+00        -0.43895E+05
 
   -0.22640E+05         0.14973E+05         0.00000E+00
    0.14973E+05        -0.51500E+05         0.00000E+00
    0.00000E+00         0.00000E+00        -0.39628E+05
 
   -0.18792E+05         0.13368E+05         0.00000E+00
    0.13368E+05        -0.48055E+05         0.00000E+00
    0.00000E+00         0.00000E+00        -0.35481E+05
 
   -0.15435E+05         0.11880E+05         0.00000E+00
    0.11880E+05        -0.44737E+05         0.00000E+00
    0.00000E+00         0.00000E+00        -0.31594E+05
 
   -0.12522E+05         0.10622E+05         0.00000E+00
    0.10622E+05        -0.41612E+05         0.00000E+00
    0.00000E+00         0.00000E+00        -0.28020E+05
 
   -0.99566E+04         0.94652E+04         0.00000E+00
    0.94652E+04        -0.38612E+05         0.00000E+00
    0.00000E+00         0.00000E+00        -0.24768E+05
 
   -0.77452E+04         0.84419E+04         0.00000E+00
    0.84419E+04        -0.35718E+05         0.00000E+00
    0.00000E+00         0.00000E+00        -0.21794E+05
 
   -0.58439E+04         0.75695E+04         0.00000E+00
    0.75695E+04        -0.33140E+05         0.00000E+00
    0.00000E+00         0.00000E+00        -0.19138E+05
 
   -0.42040E+04         0.68304E+04         0.00000E+00
    0.68304E+04        -0.30829E+05         0.00000E+00
    0.00000E+00         0.00000E+00        -0.16768E+05
 
   -0.27501E+04         0.61366E+04         0.00000E+00
    0.61366E+04        -0.28684E+05         0.00000E+00
    0.00000E+00         0.00000E+00        -0.14613E+05
 
   -0.14931E+04         0.54808E+04         0.00000E+00
    0.54808E+04        -0.26720E+05         0.00000E+00
    0.00000E+00         0.00000E+00        -0.12623E+05
 
   -0.38869E+03         0.48451E+04         0.00000E+00
    0.48451E+04        -0.24951E+05         0.00000E+00
    0.00000E+00         0.00000E+00        -0.10746E+05
 
    0.57353E+03         0.42774E+04         0.00000E+00
    0.42774E+04        -0.23346E+05         0.00000E+00
    0.00000E+00         0.00000E+00        -0.90464E+04
 
    0.13887E+04         0.38061E+04         0.00000E+00
    0.38061E+04        -0.21894E+05         0.00000E+00
    0.00000E+00         0.00000E+00        -0.75201E+04
 
    0.20778E+04         0.34279E+04         0.00000E+00
    0.34279E+04        -0.20566E+05         0.00000E+00
    0.00000E+00         0.00000E+00        -0.61163E+04
 
    0.21726E+04         0.30632E+04         0.00000E+00
    0.30632E+04        -0.19352E+05         0.00000E+00
    0.00000E+00         0.00000E+00        -0.51739E+04
 
    0.34950E+03         0.26406E+04         0.00000E+00
    0.26406E+04        -0.18272E+05         0.00000E+00
    0.00000E+00         0.00000E+00        -0.53767E+04
 
   -0.15292E+04         0.23831E+04         0.00000E+00
    0.23831E+04        -0.17308E+05         0.00000E+00
    0.00000E+00         0.00000E+00        -0.56512E+04
 
   -0.34392E+04         0.22644E+04         0.00000E+00
    0.22644E+04        -0.16414E+05         0.00000E+00
    0.00000E+00         0.00000E+00        -0.59559E+04
 
   -0.54425E+04         0.22634E+04         0.00000E+00
    0.22634E+04        -0.15545E+05         0.00000E+00
    0.00000E+00         0.00000E+00        -0.62962E+04
 
   -0.13667E+05         0.14261E+05         0.00000E+00
    0.14261E+05        -0.27519E+05         0.00000E+00
    0.00000E+00         0.00000E+00        -0.24696E+05
 
   -0.33315E+05         0.19993E+05         0.00000E+00
    0.19993E+05        -0.37879E+05         0.00000E+00
    0.00000E+00         0.00000E+00        -0.41094E+05
 
   -0.33834E+05         0.19630E+05         0.00000E+00
    0.19630E+05        -0.37797E+05         0.00000E+00
    0.00000E+00         0.00000E+00        -0.40565E+05
 
   -0.31843E+05         0.19156E+05         0.00000E+00
    0.19156E+05        -0.38809E+05         0.00000E+00
    0.00000E+00         0.00000E+00        -0.39546E+05
 
   -0.28267E+05         0.18222E+05         0.00000E+00
    0.18222E+05        -0.38968E+05         0.00000E+00
    0.00000E+00         0.00000E+00        -0.37283E+05
 
   -0.24305E+05         0.17046E+05         0.00000E+00
    0.17046E+05        -0.38593E+05         0.00000E+00
    0.00000E+00         0.00000E+00        -0.34534E+05
 
   -0.20436E+05         0.15706E+05         0.00000E+00
    0.15706E+05        -0.37658E+05         0.00000E+00
    0.00000E+00         0.00000E+00        -0.31522E+05
 
   -0.16926E+05         0.14338E+05         0.00000E+00
    0.14338E+05        -0.36332E+05         0.00000E+00
    0.00000E+00         0.00000E+00        -0.28473E+05
 
   -0.13889E+05         0.13037E+05         0.00000E+00
    0.13037E+05        -0.34814E+05         0.00000E+00
    0.00000E+00         0.00000E+00        -0.25514E+05
 
   -0.11146E+05         0.11875E+05         0.00000E+00
    0.11875E+05        -0.33248E+05         0.00000E+00
    0.00000E+00         0.00000E+00        -0.22674E+05
 
   -0.87931E+04         0.10766E+05         0.00000E+00
    0.10766E+05        -0.31607E+05         0.00000E+00
    0.00000E+00         0.00000E+00        -0.20065E+05
 
   -0.67725E+04         0.96977E+04         0.00000E+00
    0.96977E+04        -0.29870E+05         0.00000E+00
    0.00000E+00         0.00000E+00        -0.17688E+05
 
   -0.50155E+04         0.87620E+04         0.00000E+00
    0.87620E+04        -0.28192E+05         0.00000E+00
    0.00000E+00         0.00000E+00        -0.15537E+05
 
   -0.35112E+04         0.79189E+04         0.00000E+00
    0.79189E+04        -0.26640E+05         0.00000E+00
    0.00000E+00         0.00000E+00        -0.13603E+05
 
   -0.22066E+04         0.71244E+04         0.00000E+00
    0.71244E+04        -0.25200E+05         0.00000E+00
    0.00000E+00         0.00000E+00        -0.11804E+05
 
   -0.10641E+04         0.63871E+04         0.00000E+00
    0.63871E+04        -0.23832E+05         0.00000E+00
    0.00000E+00         0.00000E+00        -0.10128E+05
 
   -0.26000E+02         0.57347E+04         0.00000E+00
    0.57347E+04        -0.22452E+05         0.00000E+00
    0.00000E+00         0.00000E+00        -0.85749E+04
 
    0.91722E+03         0.51302E+04         0.00000E+00
    0.51302E+04        -0.21118E+05         0.00000E+00
    0.00000E+00         0.00000E+00        -0.71372E+04
 
    0.17001E+04         0.46607E+04         0.00000E+00
    0.46607E+04        -0.19885E+05         0.00000E+00
    0.00000E+00         0.00000E+00        -0.58498E+04
 
    0.16256E+04         0.41619E+04         0.00000E+00
    0.41619E+04        -0.18763E+05         0.00000E+00
    0.00000E+00         0.00000E+00        -0.51412E+04
 
   -0.43840E+02         0.36219E+04         0.00000E+00
    0.36219E+04        -0.17765E+05         0.00000E+00
    0.00000E+00         0.00000E+00        -0.53427E+04
 
   -0.17473E+04         0.32798E+04         0.00000E+00
    0.32798E+04        -0.16863E+05         0.00000E+00
    0.00000E+00         0.00000E+00        -0.55830E+04
 
   -0.35104E+04         0.31135E+04         0.00000E+00
    0.31135E+04        -0.16023E+05         0.00000E+00
    0.00000E+00         0.00000E+00        -0.58602E+04
 
   -0.53774E+04         0.31096E+04         0.00000E+00
    0.31096E+04        -0.15209E+05         0.00000E+00
    0.00000E+00         0.00000E+00        -0.61759E+04
 
   -0.53469E+04         0.32349E+04         0.00000E+00
    0.32349E+04         0.36723E+04         0.00000E+00
    0.00000E+00         0.00000E+00         0.23212E+03
 
   -0.27103E+05         0.11085E+05         0.00000E+00
    0.11085E+05        -0.97059E+04         0.00000E+00
    0.00000E+00         0.00000E+00        -0.19807E+05
 
   -0.32124E+05         0.14176E+05         0.00000E+00
    0.14176E+05        -0.17695E+05         0.00000E+00
    0.00000E+00         0.00000E+00        -0.27674E+05
 
   -0.30963E+05         0.15562E+05         0.00000E+00
    0.15562E+05        -0.21987E+05         0.00000E+00
    0.00000E+00         0.00000E+00        -0.29206E+05
 
   -0.28342E+05         0.16162E+05         0.00000E+00
    0.16162E+05        -0.24972E+05         0.00000E+00
    0.00000E+00         0.00000E+00        -0.29112E+05
 
   -0.24962E+05         0.16103E+05         0.00000E+00
    0.16103E+05        -0.26821E+05         0.00000E+00
    0.00000E+00         0.00000E+00        -0.27933E+05
 
   -0.21430E+05         0.15590E+05         0.00000E+00
    0.15590E+05        -0.27861E+05         0.00000E+00
    0.00000E+00         0.00000E+00        -0.26198E+05
 
   -0.18058E+05         0.14789E+05         0.00000E+00
    0.14789E+05        -0.28262E+05         0.00000E+00
    0.00000E+00         0.00000E+00        -0.24178E+05
 
   -0.15009E+05         0.13853E+05         0.00000E+00
    0.13853E+05        -0.28171E+05         0.00000E+00
    0.00000E+00         0.00000E+00        -0.22050E+05
 
   -0.12272E+05         0.12870E+05         0.00000E+00
    0.12870E+05        -0.27744E+05         0.00000E+00
    0.00000E+00         0.00000E+00        -0.19909E+05
 
   -0.98618E+04         0.11908E+05         0.00000E+00
    0.11908E+05        -0.27142E+05         0.00000E+00
    0.00000E+00         0.00000E+00        -0.17841E+05
 
   -0.77535E+04         0.10979E+05         0.00000E+00
    0.10979E+05        -0.26368E+05         0.00000E+00
    0.00000E+00         0.00000E+00        -0.15892E+05
 
   -0.59144E+04         0.10067E+05         0.00000E+00
    0.10067E+05        -0.25391E+05         0.00000E+00
    0.00000E+00         0.00000E+00        -0.14077E+05
 
   -0.43694E+04         0.91818E+04         0.00000E+00
    0.91818E+04        -0.24354E+05         0.00000E+00
    0.00000E+00         0.00000E+00        -0.12417E+05
 
   -0.29850E+04         0.83396E+04         0.00000E+00
    0.83396E+04        -0.23314E+05         0.00000E+00
    0.00000E+00         0.00000E+00        -0.10870E+05
 
   -0.17770E+04         0.76113E+04         0.00000E+00
    0.76113E+04        -0.22205E+05         0.00000E+00
    0.00000E+00         0.00000E+00        -0.94383E+04
 
   -0.69009E+03         0.69418E+04         0.00000E+00
    0.69418E+04        -0.21129E+05         0.00000E+00
    0.00000E+00         0.00000E+00        -0.80770E+04
 
    0.34342E+03         0.63231E+04         0.00000E+00
    0.63231E+04        -0.20069E+05         0.00000E+00
    0.00000E+00         0.00000E+00        -0.67235E+04
 
    0.12771E+04         0.57860E+04         0.00000E+00
    0.57860E+04        -0.18954E+05         0.00000E+00
    0.00000E+00         0.00000E+00        -0.55141E+04
 
    0.91327E+03         0.51595E+04         0.00000E+00
    0.51595E+04        -0.17920E+05         0.00000E+00
    0.00000E+00         0.00000E+00        -0.51021E+04
 
   -0.52612E+03         0.45179E+04         0.00000E+00
    0.45179E+04        -0.17043E+05         0.00000E+00
    0.00000E+00         0.00000E+00        -0.52707E+04
 
   -0.20290E+04         0.41035E+04         0.00000E+00
    0.41035E+04        -0.16239E+05         0.00000E+00
    0.00000E+00         0.00000E+00        -0.54804E+04
 
   -0.36066E+04         0.38952E+04         0.00000E+00
    0.38952E+04        -0.15486E+05         0.00000E+00
    0.00000E+00         0.00000E+00        -0.57277E+04
 
   -0.52900E+04         0.38895E+04         0.00000E+00
    0.38895E+04        -0.14750E+05         0.00000E+00
    0.00000E+00         0.00000E+00        -0.60120E+04
 
    0.33639E+03        -0.11882E+04         0.00000E+00
   -0.11882E+04        -0.16838E+04         0.00000E+00
    0.00000E+00         0.00000E+00        -0.16420E+03
 
   -0.24262E+05         0.58099E+04         0.00000E+00
    0.58099E+04        -0.31118E+04         0.00000E+00
    0.00000E+00         0.00000E+00        -0.10025E+05
 
   -0.28863E+05         0.95685E+04         0.00000E+00
    0.95685E+04        -0.92097E+04         0.00000E+00
    0.00000E+00         0.00000E+00        -0.18316E+05
 
   -0.29153E+05         0.11881E+05         0.00000E+00
    0.11881E+05        -0.13479E+05         0.00000E+00
    0.00000E+00         0.00000E+00        -0.21768E+05
 
   -0.27273E+05         0.13319E+05         0.00000E+00
    0.13319E+05        -0.16587E+05         0.00000E+00
    0.00000E+00         0.00000E+00        -0.22791E+05
 
   -0.24636E+05         0.14068E+05         0.00000E+00
    0.14068E+05        -0.18911E+05         0.00000E+00
    0.00000E+00         0.00000E+00        -0.22591E+05
 
   -0.21632E+05         0.14282E+05         0.00000E+00
    0.14282E+05        -0.20587E+05         0.00000E+00
    0.00000E+00         0.00000E+00        -0.21711E+05
 
   -0.18606E+05         0.14091E+05         0.00000E+00
    0.14091E+05        -0.21700E+05         0.00000E+00
    0.00000E+00         0.00000E+00        -0.20427E+05
 
   -0.15747E+05         0.13634E+05         0.00000E+00
    0.13634E+05        -0.22353E+05         0.00000E+00
    0.00000E+00         0.00000E+00        -0.18938E+05
 
   -0.13116E+05         0.13006E+05         0.00000E+00
    0.13006E+05        -0.22633E+05         0.00000E+00
    0.00000E+00         0.00000E+00        -0.17346E+05
 
   -0.10738E+05         0.12268E+05         0.00000E+00
    0.12268E+05        -0.22615E+05         0.00000E+00
    0.00000E+00         0.00000E+00        -0.15732E+05
 
   -0.86043E+04         0.11540E+05         0.00000E+00
    0.11540E+05        -0.22382E+05         0.00000E+00
    0.00000E+00         0.00000E+00        -0.14132E+05
 
   -0.67729E+04         0.10766E+05         0.00000E+00
    0.10766E+05        -0.22038E+05         0.00000E+00
    0.00000E+00         0.00000E+00        -0.12647E+05
 
   -0.51816E+04         0.99913E+04         0.00000E+00
    0.99913E+04        -0.21522E+05         0.00000E+00
    0.00000E+00         0.00000E+00        -0.11256E+05
 
   -0.37702E+04         0.92553E+04         0.00000E+00
    0.92553E+04        -0.20804E+05         0.00000E+00
    0.00000E+00         0.00000E+00        -0.99528E+04
 
   -0.24763E+04         0.85359E+04         0.00000E+00
    0.85359E+04        -0.20024E+05         0.00000E+00
    0.00000E+00         0.00000E+00        -0.86863E+04
 
   -0.13432E+04         0.78591E+04         0.00000E+00
    0.78591E+04        -0.19230E+05         0.00000E+00
    0.00000E+00         0.00000E+00        -0.74664E+04
 
   -0.22848E+03         0.72841E+04         0.00000E+00
    0.72841E+04        -0.18419E+05         0.00000E+00
    0.00000E+00         0.00000E+00        -0.62236E+04
 
    0.76161E+03         0.67704E+04         0.00000E+00
    0.67704E+04        -0.17586E+05         0.00000E+00
    0.00000E+00         0.00000E+00        -0.51440E+04
 
    0.94004E+02         0.59908E+04         0.00000E+00
    0.59908E+04        -0.16813E+05         0.00000E+00
    0.00000E+00         0.00000E+00        -0.50157E+04
 
   -0.10801E+04         0.52840E+04         0.00000E+00
    0.52840E+04        -0.16111E+05         0.00000E+00
    0.00000E+00         0.00000E+00        -0.51572E+04
 
   -0.23610E+04         0.48173E+04         0.00000E+00
    0.48173E+04        -0.15450E+05         0.00000E+00
    0.00000E+00         0.00000E+00        -0.53432E+04
 
   -0.37207E+04         0.45829E+04         0.00000E+00
    0.45829E+04        -0.14812E+05         0.00000E+00
    0.00000E+00         0.00000E+00        -0.55597E+04
 
   -0.51809E+04         0.45806E+04         0.00000E+00
    0.45806E+04        -0.14178E+05         0.00000E+00
    0.00000E+00         0.00000E+00        -0.58075E+04
 
    0.94886E+03        -0.17039E+04         0.00000E+00
   -0.17039E+04         0.49000E+02         0.00000E+00
    0.00000E+00         0.00000E+00         0.35061E+03
 
   -0.18633E+05         0.80513E+03         0.00000E+00
    0.80513E+03        -0.13738E+04         0.00000E+00
    0.00000E+00         0.00000E+00        -0.60021E+04
 
   -0.26652E+05         0.61350E+04         0.00000E+00
    0.61350E+04        -0.49879E+04         0.00000E+00
    0.00000E+00         0.00000E+00        -0.12163E+05
 
   -0.26866E+05         0.88909E+04         0.00000E+00
    0.88909E+04        -0.83077E+04         0.00000E+00
    0.00000E+00         0.00000E+00        -0.15722E+05
 
   -0.25819E+05         0.10756E+05         0.00000E+00
    0.10756E+05        -0.11200E+05         0.00000E+00
    0.00000E+00         0.00000E+00        -0.17432E+05
 
   -0.23743E+05         0.12012E+05         0.00000E+00
    0.12012E+05        -0.13532E+05         0.00000E+00
    0.00000E+00         0.00000E+00        -0.17925E+05
 
   -0.21274E+05         0.12691E+05         0.00000E+00
    0.12691E+05        -0.15312E+05         0.00000E+00
    0.00000E+00         0.00000E+00        -0.17677E+05
 
   -0.18639E+05         0.12948E+05         0.00000E+00
    0.12948E+05        -0.16671E+05         0.00000E+00
    0.00000E+00         0.00000E+00        -0.16960E+05
 
   -0.16062E+05         0.12881E+05         0.00000E+00
    0.12881E+05        -0.17656E+05         0.00000E+00
    0.00000E+00         0.00000E+00        -0.15976E+05
 
   -0.13629E+05         0.12588E+05         0.00000E+00
    0.12588E+05        -0.18329E+05         0.00000E+00
    0.00000E+00         0.00000E+00        -0.14829E+05
 
   -0.11342E+05         0.12166E+05         0.00000E+00
    0.12166E+05        -0.18723E+05         0.00000E+00
    0.00000E+00         0.00000E+00        -0.13573E+05
 
   -0.92757E+04         0.11624E+05         0.00000E+00
    0.11624E+05        -0.18892E+05         0.00000E+00
    0.00000E+00         0.00000E+00        -0.12303E+05
 
   -0.74748E+04         0.11037E+05         0.00000E+00
    0.11037E+05        -0.18828E+05         0.00000E+00
    0.00000E+00         0.00000E+00        -0.11097E+05
 
   -0.58745E+04         0.10419E+05         0.00000E+00
    0.10419E+05        -0.18585E+05         0.00000E+00
    0.00000E+00         0.00000E+00        -0.99498E+04
 
   -0.44468E+04         0.97933E+04         0.00000E+00
    0.97933E+04        -0.18255E+05         0.00000E+00
    0.00000E+00         0.00000E+00        -0.88637E+04
 
   -0.31403E+04         0.91719E+04         0.00000E+00
    0.91719E+04        -0.17824E+05         0.00000E+00
    0.00000E+00         0.00000E+00        -0.77694E+04
 
   -0.19320E+04         0.85745E+04         0.00000E+00
    0.85745E+04        -0.17271E+05         0.00000E+00
    0.00000E+00         0.00000E+00        -0.66786E+04
 
   -0.77438E+03         0.80332E+04         0.00000E+00
    0.80332E+04        -0.16616E+05         0.00000E+00
    0.00000E+00         0.00000E+00        -0.56677E+04
 
    0.49807E+02         0.74566E+04         0.00000E+00
    0.74566E+04        -0.15971E+05         0.00000E+00
    0.00000E+00         0.00000E+00        -0.48140E+04
 
   -0.71328E+03         0.65799E+04         0.00000E+00
    0.65799E+04        -0.15497E+05         0.00000E+00
    0.00000E+00         0.00000E+00        -0.48631E+04
 
   -0.16787E+04         0.58665E+04         0.00000E+00
    0.58665E+04        -0.15029E+05         0.00000E+00
    0.00000E+00         0.00000E+00        -0.50124E+04
 
   -0.27151E+04         0.53907E+04         0.00000E+00
    0.53907E+04        -0.14538E+05         0.00000E+00
    0.00000E+00         0.00000E+00        -0.51760E+04
 
   -0.38388E+04         0.51553E+04         0.00000E+00
    0.51553E+04        -0.14034E+05         0.00000E+00
    0.00000E+00         0.00000E+00        -0.53619E+04
 
   -0.50506E+04         0.51650E+04         0.00000E+00
    0.51650E+04        -0.13515E+05         0.00000E+00
    0.00000E+00         0.00000E+00        -0.55698E+04
 
   -0.85879E+03        -0.17690E+04         0.00000E+00
   -0.17690E+04        -0.28083E+02         0.00000E+00
    0.00000E+00         0.00000E+00        -0.26606E+03
 
   -0.14035E+05        -0.11455E+04         0.00000E+00
   -0.11455E+04        -0.32864E+03         0.00000E+00
    0.00000E+00         0.00000E+00        -0.43091E+04
 
   -0.23208E+05         0.29835E+04         0.00000E+00
    0.29835E+04        -0.14805E+04         0.00000E+00
    0.00000E+00         0.00000E+00        -0.76369E+04
 
   -0.24778E+05         0.62787E+04         0.00000E+00
    0.62787E+04        -0.46971E+04         0.00000E+00
    0.00000E+00         0.00000E+00        -0.11370E+05
 
   -0.24089E+05         0.84507E+04         0.00000E+00
    0.84507E+04        -0.71061E+04         0.00000E+00
    0.00000E+00         0.00000E+00        -0.13210E+05
 
   -0.22523E+05         0.10024E+05         0.00000E+00
    0.10024E+05        -0.92865E+04         0.00000E+00
    0.00000E+00         0.00000E+00        -0.13934E+05
 
   -0.20561E+05         0.11079E+05         0.00000E+00
    0.11079E+05        -0.11179E+05         0.00000E+00
    0.00000E+00         0.00000E+00        -0.14109E+05
 
   -0.18317E+05         0.11676E+05         0.00000E+00
    0.11676E+05        -0.12665E+05         0.00000E+00
    0.00000E+00         0.00000E+00        -0.13789E+05
 
   -0.16049E+05         0.11923E+05         0.00000E+00
    0.11923E+05        -0.13809E+05         0.00000E+00
    0.00000E+00         0.00000E+00        -0.13195E+05
 
   -0.13819E+05         0.11917E+05         0.00000E+00
    0.11917E+05        -0.14651E+05         0.00000E+00
    0.00000E+00         0.00000E+00        -0.12395E+05
 
   -0.11692E+05         0.11738E+05         0.00000E+00
    0.11738E+05        -0.15235E+05         0.00000E+00
    0.00000E+00         0.00000E+00        -0.11466E+05
 
   -0.97379E+04         0.11432E+05         0.00000E+00
    0.11432E+05        -0.15589E+05         0.00000E+00
    0.00000E+00         0.00000E+00        -0.10482E+05
 
   -0.79966E+04         0.11021E+05         0.00000E+00
    0.11021E+05        -0.15783E+05         0.00000E+00
    0.00000E+00         0.00000E+00        -0.95297E+04
 
   -0.64293E+04         0.10558E+05         0.00000E+00
    0.10558E+05        -0.15833E+05         0.00000E+00
    0.00000E+00         0.00000E+00        -0.86046E+04
 
   -0.50032E+04         0.10065E+05         0.00000E+00
    0.10065E+05        -0.15714E+05         0.00000E+00
    0.00000E+00         0.00000E+00        -0.76959E+04
 
   -0.37032E+04         0.95621E+04         0.00000E+00
    0.95621E+04        -0.15459E+05         0.00000E+00
    0.00000E+00         0.00000E+00        -0.68247E+04
 
   -0.24583E+04         0.90654E+04         0.00000E+00
    0.90654E+04        -0.15114E+05         0.00000E+00
    0.00000E+00         0.00000E+00        -0.59392E+04
 
   -0.12849E+04         0.85754E+04         0.00000E+00
    0.85754E+04        -0.14687E+05         0.00000E+00
    0.00000E+00         0.00000E+00        -0.50593E+04
 
   -0.83313E+03         0.78527E+04         0.00000E+00
    0.78527E+04        -0.14352E+05         0.00000E+00
    0.00000E+00         0.00000E+00        -0.45556E+04
 
   -0.15300E+04         0.69179E+04         0.00000E+00
    0.69179E+04        -0.14162E+05         0.00000E+00
    0.00000E+00         0.00000E+00        -0.47076E+04
 
   -0.22529E+04         0.62514E+04         0.00000E+00
    0.62514E+04        -0.13896E+05         0.00000E+00
    0.00000E+00         0.00000E+00        -0.48446E+04
 
   -0.30572E+04         0.58140E+04         0.00000E+00
    0.58140E+04        -0.13569E+05         0.00000E+00
    0.00000E+00         0.00000E+00        -0.49877E+04
 
   -0.39429E+04         0.56042E+04         0.00000E+00
    0.56042E+04        -0.13197E+05         0.00000E+00
    0.00000E+00         0.00000E+00        -0.51419E+04
 
   -0.49005E+04         0.56343E+04         0.00000E+00
    0.56343E+04        -0.12796E+05         0.00000E+00
    0.00000E+00         0.00000E+00        -0.53089E+04
 
   -0.28933E+04        -0.15202E+04         0.00000E+00
   -0.15202E+04         0.15846E+03         0.00000E+00
    0.00000E+00         0.00000E+00        -0.82044E+03
 
   -0.11935E+05        -0.16427E+04         0.00000E+00
   -0.16427E+04         0.28788E+03         0.00000E+00
    0.00000E+00         0.00000E+00        -0.34942E+04
 
   -0.19235E+05         0.78366E+03         0.00000E+00
    0.78366E+03        -0.66784E+03         0.00000E+00
    0.00000E+00         0.00000E+00        -0.59710E+04
 
   -0.22452E+05         0.41344E+04         0.00000E+00
    0.41344E+04        -0.20292E+04         0.00000E+00
    0.00000E+00         0.00000E+00        -0.80266E+04
 
   -0.22272E+05         0.65008E+04         0.00000E+00
    0.65008E+04        -0.41139E+04         0.00000E+00
    0.00000E+00         0.00000E+00        -0.99064E+04
 
   -0.21132E+05         0.82004E+04         0.00000E+00
    0.82004E+04        -0.59006E+04         0.00000E+00
    0.00000E+00         0.00000E+00        -0.10847E+05
 
   -0.19582E+05         0.94568E+04         0.00000E+00
    0.94568E+04        -0.75618E+04         0.00000E+00
    0.00000E+00         0.00000E+00        -0.11158E+05
 
   -0.17718E+05         0.10347E+05         0.00000E+00
    0.10347E+05        -0.90534E+04         0.00000E+00
    0.00000E+00         0.00000E+00        -0.11095E+05
 
   -0.15778E+05         0.10864E+05         0.00000E+00
    0.10864E+05        -0.10293E+05         0.00000E+00
    0.00000E+00         0.00000E+00        -0.10763E+05
 
   -0.13763E+05         0.11108E+05         0.00000E+00
    0.11108E+05        -0.11265E+05         0.00000E+00
    0.00000E+00         0.00000E+00        -0.10221E+05
 
   -0.11810E+05         0.11158E+05         0.00000E+00
    0.11158E+05        -0.12011E+05         0.00000E+00
    0.00000E+00         0.00000E+00        -0.95412E+04
 
   -0.99983E+04         0.11044E+05         0.00000E+00
    0.11044E+05        -0.12561E+05         0.00000E+00
    0.00000E+00         0.00000E+00        -0.88017E+04
 
   -0.83532E+04         0.10809E+05         0.00000E+00
    0.10809E+05        -0.12920E+05         0.00000E+00
    0.00000E+00         0.00000E+00        -0.80669E+04
 
   -0.68353E+04         0.10502E+05         0.00000E+00
    0.10502E+05        -0.13103E+05         0.00000E+00
    0.00000E+00         0.00000E+00        -0.73334E+04
 
   -0.54348E+04         0.10142E+05         0.00000E+00
    0.10142E+05        -0.13176E+05         0.00000E+00
    0.00000E+00         0.00000E+00        -0.65981E+04
 
   -0.41538E+04         0.97446E+04         0.00000E+00
    0.97446E+04        -0.13151E+05         0.00000E+00
    0.00000E+00         0.00000E+00        -0.58851E+04
 
   -0.29116E+04         0.93335E+04         0.00000E+00
    0.93335E+04        -0.12983E+05         0.00000E+00
    0.00000E+00         0.00000E+00        -0.51328E+04
 
   -0.18341E+04         0.88775E+04         0.00000E+00
    0.88775E+04        -0.12817E+05         0.00000E+00
    0.00000E+00         0.00000E+00        -0.44384E+04
 
   -0.18899E+04         0.78617E+04         0.00000E+00
    0.78617E+04        -0.12913E+05         0.00000E+00
    0.00000E+00         0.00000E+00        -0.44409E+04
 
   -0.22673E+04         0.70549E+04         0.00000E+00
    0.70549E+04        -0.12911E+05         0.00000E+00
    0.00000E+00         0.00000E+00        -0.45536E+04
 
   -0.27675E+04         0.64762E+04         0.00000E+00
    0.64762E+04        -0.12796E+05         0.00000E+00
    0.00000E+00         0.00000E+00        -0.46691E+04
 
   -0.33558E+04         0.61020E+04         0.00000E+00
    0.61020E+04        -0.12599E+05         0.00000E+00
    0.00000E+00         0.00000E+00        -0.47864E+04
 
   -0.40186E+04         0.59351E+04         0.00000E+00
    0.59351E+04        -0.12344E+05         0.00000E+00
    0.00000E+00         0.00000E+00        -0.49087E+04
 
   -0.47333E+04         0.59900E+04         0.00000E+00
    0.59900E+04        -0.12053E+05         0.00000E+00
    0.00000E+00         0.00000E+00        -0.50359E+04
 
   -0.47269E+04        -0.11862E+04         0.00000E+00
   -0.11862E+04         0.14245E+03         0.00000E+00
    0.00000E+00         0.00000E+00        -0.13753E+04
 
   -0.11047E+05        -0.16568E+04         0.00000E+00
   -0.16568E+04         0.43173E+03         0.00000E+00
    0.00000E+00         0.00000E+00        -0.31847E+04
 
   -0.16292E+05        -0.95858E+02         0.00000E+00
   -0.95858E+02         0.34137E+03         0.00000E+00
    0.00000E+00         0.00000E+00        -0.47852E+04
 
   -0.19717E+05         0.24489E+04         0.00000E+00
    0.24489E+04        -0.40740E+03         0.00000E+00
    0.00000E+00         0.00000E+00        -0.60373E+04
 
   -0.20417E+05         0.48762E+04         0.00000E+00
    0.48762E+04        -0.18355E+04         0.00000E+00
    0.00000E+00         0.00000E+00        -0.72832E+04
 
   -0.19683E+05         0.66865E+04         0.00000E+00
    0.66865E+04        -0.34016E+04         0.00000E+00
    0.00000E+00         0.00000E+00        -0.82663E+04
 
   -0.18455E+05         0.80361E+04         0.00000E+00
    0.80361E+04        -0.47981E+04         0.00000E+00
    0.00000E+00         0.00000E+00        -0.87344E+04
 
   -0.16919E+05         0.90457E+04         0.00000E+00
    0.90457E+04        -0.60913E+04         0.00000E+00
    0.00000E+00         0.00000E+00        -0.88335E+04
 
   -0.15274E+05         0.97703E+04         0.00000E+00
    0.97703E+04        -0.72626E+04         0.00000E+00
    0.00000E+00         0.00000E+00        -0.86739E+04
 
   -0.13502E+05         0.10223E+05         0.00000E+00
    0.10223E+05        -0.82791E+04         0.00000E+00
    0.00000E+00         0.00000E+00        -0.83371E+04
 
   -0.11742E+05         0.10460E+05         0.00000E+00
    0.10460E+05        -0.90917E+04         0.00000E+00
    0.00000E+00         0.00000E+00        -0.78551E+04
 
   -0.10087E+05         0.10516E+05         0.00000E+00
    0.10516E+05        -0.97327E+04         0.00000E+00
    0.00000E+00         0.00000E+00        -0.73021E+04
 
   -0.85416E+04         0.10444E+05         0.00000E+00
    0.10444E+05        -0.10234E+05         0.00000E+00
    0.00000E+00         0.00000E+00        -0.67062E+04
 
   -0.70980E+04         0.10280E+05         0.00000E+00
    0.10280E+05        -0.10625E+05         0.00000E+00
    0.00000E+00         0.00000E+00        -0.61321E+04
 
   -0.57467E+04         0.10048E+05         0.00000E+00
    0.10048E+05        -0.10834E+05         0.00000E+00
    0.00000E+00         0.00000E+00        -0.55334E+04
 
   -0.45157E+04         0.97447E+04         0.00000E+00
    0.97447E+04        -0.10909E+05         0.00000E+00
    0.00000E+00         0.00000E+00        -0.49475E+04
 
   -0.32800E+04         0.94363E+04         0.00000E+00
    0.94363E+04        -0.11002E+05         0.00000E+00
    0.00000E+00         0.00000E+00        -0.43277E+04
 
   -0.28000E+04         0.85713E+04         0.00000E+00
    0.85713E+04        -0.11370E+05         0.00000E+00
    0.00000E+00         0.00000E+00        -0.42511E+04
 
   -0.27299E+04         0.77261E+04         0.00000E+00
    0.77261E+04        -0.11674E+05         0.00000E+00
    0.00000E+00         0.00000E+00        -0.43211E+04
 
   -0.28983E+04         0.70649E+04         0.00000E+00
    0.70649E+04        -0.11780E+05         0.00000E+00
    0.00000E+00         0.00000E+00        -0.44034E+04
 
   -0.32011E+04         0.65839E+04         0.00000E+00
    0.65839E+04        -0.11765E+05         0.00000E+00
    0.00000E+00         0.00000E+00        -0.44897E+04
 
   -0.35979E+04         0.62810E+04         0.00000E+00
    0.62810E+04        -0.11665E+05         0.00000E+00
    0.00000E+00         0.00000E+00        -0.45790E+04
 
   -0.40587E+04         0.61621E+04         0.00000E+00
    0.61621E+04        -0.11507E+05         0.00000E+00
    0.00000E+00         0.00000E+00        -0.46697E+04
 
   -0.45530E+04         0.62414E+04         0.00000E+00
    0.62414E+04        -0.11313E+05         0.00000E+00
    0.00000E+00         0.00000E+00        -0.47597E+04
 
   -0.62296E+04        -0.87760E+03         0.00000E+00
   -0.87760E+03         0.12298E+03         0.00000E+00
    0.00000E+00         0.00000E+00        -0.18320E+04
 
   -0.10573E+05        -0.13323E+04         0.00000E+00
   -0.13323E+04         0.49511E+03         0.00000E+00
    0.00000E+00         0.00000E+00        -0.30234E+04
 
   -0.14492E+05        -0.34043E+03         0.00000E+00
   -0.34043E+03         0.66362E+03         0.00000E+00
    0.00000E+00         0.00000E+00        -0.41485E+04
 
   -0.17174E+05         0.15172E+04         0.00000E+00
    0.15172E+04         0.31660E+03         0.00000E+00
    0.00000E+00         0.00000E+00        -0.50574E+04
 
   -0.18455E+05         0.36122E+04         0.00000E+00
    0.36122E+04        -0.27224E+03         0.00000E+00
    0.00000E+00         0.00000E+00        -0.56182E+04
 
   -0.18199E+05         0.53906E+04         0.00000E+00
    0.53906E+04        -0.13932E+04         0.00000E+00
    0.00000E+00         0.00000E+00        -0.62368E+04
 
   -0.17279E+05         0.68192E+04         0.00000E+00
    0.68192E+04        -0.26544E+04         0.00000E+00
    0.00000E+00         0.00000E+00        -0.67050E+04
 
   -0.16024E+05         0.79157E+04         0.00000E+00
    0.79157E+04        -0.37929E+04         0.00000E+00
    0.00000E+00         0.00000E+00        -0.68947E+04
 
   -0.14609E+05         0.87133E+04         0.00000E+00
    0.87133E+04        -0.48589E+04         0.00000E+00
    0.00000E+00         0.00000E+00        -0.68866E+04
 
   -0.13078E+05         0.93270E+04         0.00000E+00
    0.93270E+04        -0.57892E+04         0.00000E+00
    0.00000E+00         0.00000E+00        -0.66458E+04
 
   -0.11514E+05         0.97069E+04         0.00000E+00
    0.97069E+04        -0.66270E+04         0.00000E+00
    0.00000E+00         0.00000E+00        -0.63117E+04
 
   -0.10016E+05         0.99219E+04         0.00000E+00
    0.99219E+04        -0.73432E+04         0.00000E+00
    0.00000E+00         0.00000E+00        -0.59045E+04
 
   -0.85960E+04         0.99736E+04         0.00000E+00
    0.99736E+04        -0.78915E+04         0.00000E+00
    0.00000E+00         0.00000E+00        -0.54619E+04
 
   -0.72245E+04         0.99317E+04         0.00000E+00
    0.99317E+04        -0.82713E+04         0.00000E+00
    0.00000E+00         0.00000E+00        -0.49872E+04
 
   -0.59829E+04         0.98139E+04         0.00000E+00
    0.98139E+04        -0.86439E+04         0.00000E+00
    0.00000E+00         0.00000E+00        -0.45277E+04
 
   -0.48085E+04         0.95438E+04         0.00000E+00
    0.95438E+04        -0.90728E+04         0.00000E+00
    0.00000E+00         0.00000E+00        -0.41644E+04
 
   -0.40217E+04         0.88593E+04         0.00000E+00
    0.88593E+04        -0.97152E+04         0.00000E+00
    0.00000E+00         0.00000E+00        -0.41211E+04
 
   -0.35873E+04         0.81566E+04         0.00000E+00
    0.81566E+04        -0.10263E+05         0.00000E+00
    0.00000E+00         0.00000E+00        -0.41552E+04
 
   -0.34007E+04         0.75135E+04         0.00000E+00
    0.75135E+04        -0.10584E+05         0.00000E+00
    0.00000E+00         0.00000E+00        -0.41955E+04
 
   -0.34103E+04         0.69899E+04         0.00000E+00
    0.69899E+04        -0.10752E+05         0.00000E+00
    0.00000E+00         0.00000E+00        -0.42488E+04
 
   -0.35516E+04         0.66068E+04         0.00000E+00
    0.66068E+04        -0.10809E+05         0.00000E+00
    0.00000E+00         0.00000E+00        -0.43081E+04
 
   -0.37808E+04         0.63737E+04         0.00000E+00
    0.63737E+04        -0.10785E+05         0.00000E+00
    0.00000E+00         0.00000E+00        -0.43696E+04
 
   -0.40633E+04         0.63009E+04         0.00000E+00
    0.63009E+04        -0.10705E+05         0.00000E+00
    0.00000E+00         0.00000E+00        -0.44304E+04
 
   -0.43639E+04         0.64011E+04         0.00000E+00
    0.64011E+04        -0.10593E+05         0.00000E+00
    0.00000E+00         0.00000E+00        -0.44872E+04
 
   -0.73281E+04        -0.60329E+03         0.00000E+00
   -0.60329E+03         0.10361E+03         0.00000E+00
    0.00000E+00         0.00000E+00        -0.21674E+04
 
   -0.10325E+05        -0.94944E+03         0.00000E+00
   -0.94944E+03         0.43993E+03         0.00000E+00
    0.00000E+00         0.00000E+00        -0.29656E+04
 
   -0.13209E+05        -0.26268E+03         0.00000E+00
   -0.26268E+03         0.72374E+03         0.00000E+00
    0.00000E+00         0.00000E+00        -0.37454E+04
 
   -0.15356E+05         0.11436E+04         0.00000E+00
    0.11436E+04         0.69969E+03         0.00000E+00
    0.00000E+00         0.00000E+00        -0.43968E+04
 
   -0.16508E+05         0.28279E+04         0.00000E+00
    0.28279E+04         0.26371E+03         0.00000E+00
    0.00000E+00         0.00000E+00        -0.48734E+04
 
   -0.16675E+05         0.44510E+04         0.00000E+00
    0.44510E+04        -0.25740E+03         0.00000E+00
    0.00000E+00         0.00000E+00        -0.50797E+04
 
   -0.16101E+05         0.58299E+04         0.00000E+00
    0.58299E+04        -0.93854E+03         0.00000E+00
    0.00000E+00         0.00000E+00        -0.51867E+04
 
   -0.15094E+05         0.69051E+04         0.00000E+00
    0.69051E+04        -0.19088E+04         0.00000E+00
    0.00000E+00         0.00000E+00        -0.53480E+04
 
   -0.13870E+05         0.78024E+04         0.00000E+00
    0.78024E+04        -0.28345E+04         0.00000E+00
    0.00000E+00         0.00000E+00        -0.53552E+04
 
   -0.12534E+05         0.84782E+04         0.00000E+00
    0.84782E+04        -0.37027E+04         0.00000E+00
    0.00000E+00         0.00000E+00        -0.52132E+04
 
   -0.11162E+05         0.89547E+04         0.00000E+00
    0.89547E+04        -0.44695E+04         0.00000E+00
    0.00000E+00         0.00000E+00        -0.49794E+04
 
   -0.98216E+04         0.92662E+04         0.00000E+00
    0.92662E+04        -0.51508E+04         0.00000E+00
    0.00000E+00         0.00000E+00        -0.46734E+04
 
   -0.85344E+04         0.94674E+04         0.00000E+00
    0.94674E+04        -0.57953E+04         0.00000E+00
    0.00000E+00         0.00000E+00        -0.43468E+04
 
   -0.73175E+04         0.94252E+04         0.00000E+00
    0.94252E+04        -0.65246E+04         0.00000E+00
    0.00000E+00         0.00000E+00        -0.41537E+04
 
   -0.62163E+04         0.91762E+04         0.00000E+00
    0.91762E+04        -0.73106E+04         0.00000E+00
    0.00000E+00         0.00000E+00        -0.40581E+04
 
   -0.53287E+04         0.87700E+04         0.00000E+00
    0.87700E+04        -0.81417E+04         0.00000E+00
    0.00000E+00         0.00000E+00        -0.40411E+04
 
   -0.46466E+04         0.82748E+04         0.00000E+00
    0.82748E+04        -0.88033E+04         0.00000E+00
    0.00000E+00         0.00000E+00        -0.40350E+04
 
   -0.41769E+04         0.77446E+04         0.00000E+00
    0.77446E+04        -0.92796E+04         0.00000E+00
    0.00000E+00         0.00000E+00        -0.40369E+04
 
   -0.39173E+04         0.72612E+04         0.00000E+00
    0.72612E+04        -0.96135E+04         0.00000E+00
    0.00000E+00         0.00000E+00        -0.40592E+04
 
   -0.38119E+04         0.68594E+04         0.00000E+00
    0.68594E+04        -0.98191E+04         0.00000E+00
    0.00000E+00         0.00000E+00        -0.40893E+04
 
   -0.38220E+04         0.65663E+04         0.00000E+00
    0.65663E+04        -0.99264E+04         0.00000E+00
    0.00000E+00         0.00000E+00        -0.41245E+04
 
   -0.39085E+04         0.63977E+04         0.00000E+00
    0.63977E+04        -0.99609E+04         0.00000E+00
    0.00000E+00         0.00000E+00        -0.41608E+04
 
   -0.40364E+04         0.63660E+04         0.00000E+00
    0.63660E+04        -0.99458E+04         0.00000E+00
    0.00000E+00         0.00000E+00        -0.41947E+04
 
   -0.41703E+04         0.64827E+04         0.00000E+00
    0.64827E+04        -0.99042E+04         0.00000E+00
    0.00000E+00         0.00000E+00        -0.42224E+04
 
   -0.80647E+04        -0.38413E+03         0.00000E+00
   -0.38413E+03         0.79132E+02         0.00000E+00
    0.00000E+00         0.00000E+00        -0.23957E+04
 
   -0.10146E+05        -0.58713E+03         0.00000E+00
   -0.58713E+03         0.35939E+03         0.00000E+00
    0.00000E+00         0.00000E+00        -0.29361E+04
 
   -0.12251E+05        -0.60532E+02         0.00000E+00
   -0.60532E+02         0.64815E+03         0.00000E+00
    0.00000E+00         0.00000E+00        -0.34808E+04
 
   -0.13935E+05         0.10248E+04         0.00000E+00
    0.10248E+04         0.73677E+03         0.00000E+00
    0.00000E+00         0.00000E+00        -0.39595E+04
 
   -0.14937E+05         0.24159E+04         0.00000E+00
    0.24159E+04         0.55900E+03         0.00000E+00
    0.00000E+00         0.00000E+00        -0.43133E+04
 
   -0.15207E+05         0.38420E+04         0.00000E+00
    0.38420E+04         0.10876E+03         0.00000E+00
    0.00000E+00         0.00000E+00        -0.45293E+04
 
   -0.14893E+05         0.50911E+04         0.00000E+00
    0.50911E+04        -0.49709E+03         0.00000E+00
    0.00000E+00         0.00000E+00        -0.46170E+04
 
   -0.14127E+05         0.61596E+04         0.00000E+00
    0.61596E+04        -0.10431E+04         0.00000E+00
    0.00000E+00         0.00000E+00        -0.45511E+04
 
   -0.13103E+05         0.70370E+04         0.00000E+00
    0.70370E+04        -0.16792E+04         0.00000E+00
    0.00000E+00         0.00000E+00        -0.44346E+04
 
   -0.11960E+05         0.77096E+04         0.00000E+00
    0.77096E+04        -0.24165E+04         0.00000E+00
    0.00000E+00         0.00000E+00        -0.43131E+04
 
   -0.10772E+05         0.82009E+04         0.00000E+00
    0.82009E+04        -0.32268E+04         0.00000E+00
    0.00000E+00         0.00000E+00        -0.41996E+04
 
   -0.95799E+04         0.85001E+04         0.00000E+00
    0.85001E+04        -0.40904E+04         0.00000E+00
    0.00000E+00         0.00000E+00        -0.41011E+04
 
   -0.84849E+04         0.86037E+04         0.00000E+00
    0.86037E+04        -0.50147E+04         0.00000E+00
    0.00000E+00         0.00000E+00        -0.40499E+04
 
   -0.74644E+04         0.85728E+04         0.00000E+00
    0.85728E+04        -0.58906E+04         0.00000E+00
    0.00000E+00         0.00000E+00        -0.40065E+04
 
   -0.65193E+04         0.83886E+04         0.00000E+00
    0.83886E+04        -0.66870E+04         0.00000E+00
    0.00000E+00         0.00000E+00        -0.39619E+04
 
   -0.57193E+04         0.80869E+04         0.00000E+00
    0.80869E+04        -0.73717E+04         0.00000E+00
    0.00000E+00         0.00000E+00        -0.39273E+04
 
   -0.50903E+04         0.77297E+04         0.00000E+00
    0.77297E+04        -0.79507E+04         0.00000E+00
    0.00000E+00         0.00000E+00        -0.39123E+04
 
   -0.46212E+04         0.73483E+04         0.00000E+00
    0.73483E+04        -0.84074E+04         0.00000E+00
    0.00000E+00         0.00000E+00        -0.39086E+04
 
   -0.43047E+04         0.69894E+04         0.00000E+00
    0.69894E+04        -0.87397E+04         0.00000E+00
    0.00000E+00         0.00000E+00        -0.39133E+04
 
   -0.41155E+04         0.66910E+04         0.00000E+00
    0.66910E+04        -0.89688E+04         0.00000E+00
    0.00000E+00         0.00000E+00        -0.39253E+04
 
   -0.40200E+04         0.64773E+04         0.00000E+00
    0.64773E+04        -0.91134E+04         0.00000E+00
    0.00000E+00         0.00000E+00        -0.39400E+04
 
   -0.39865E+04         0.63658E+04         0.00000E+00
    0.63658E+04        -0.91946E+04         0.00000E+00
    0.00000E+00         0.00000E+00        -0.39543E+04
 
   -0.39828E+04         0.63695E+04         0.00000E+00
    0.63695E+04        -0.92330E+04         0.00000E+00
    0.00000E+00         0.00000E+00        -0.39647E+04
 
   -0.39755E+04         0.64985E+04         0.00000E+00
    0.64985E+04        -0.92498E+04         0.00000E+00
    0.00000E+00         0.00000E+00        -0.39676E+04
 
   -0.85028E+04        -0.21785E+03         0.00000E+00
   -0.21785E+03         0.58385E+02         0.00000E+00
    0.00000E+00         0.00000E+00        -0.25333E+04
 
   -0.99670E+04        -0.28460E+03         0.00000E+00
   -0.28460E+03         0.27468E+03         0.00000E+00
    0.00000E+00         0.00000E+00        -0.29077E+04
 
   -0.11504E+05         0.15677E+03         0.00000E+00
    0.15677E+03         0.51984E+03         0.00000E+00
    0.00000E+00         0.00000E+00        -0.32954E+04
 
   -0.12792E+05         0.10248E+04         0.00000E+00
    0.10248E+04         0.63897E+03         0.00000E+00
    0.00000E+00         0.00000E+00        -0.36459E+04
 
   -0.13625E+05         0.21560E+04         0.00000E+00
    0.21560E+04         0.54336E+03         0.00000E+00
    0.00000E+00         0.00000E+00        -0.39245E+04
 
   -0.13935E+05         0.33665E+04         0.00000E+00
    0.33665E+04         0.22791E+03         0.00000E+00
    0.00000E+00         0.00000E+00        -0.41122E+04
 
   -0.13756E+05         0.45189E+04         0.00000E+00
    0.45189E+04        -0.25085E+03         0.00000E+00
    0.00000E+00         0.00000E+00        -0.42022E+04
 
   -0.13190E+05         0.55226E+04         0.00000E+00
    0.55226E+04        -0.85678E+03         0.00000E+00
    0.00000E+00         0.00000E+00        -0.42139E+04
 
   -0.12364E+05         0.63284E+04         0.00000E+00
    0.63284E+04        -0.15334E+04         0.00000E+00
    0.00000E+00         0.00000E+00        -0.41693E+04
 
   -0.11408E+05         0.69439E+04         0.00000E+00
    0.69439E+04        -0.22614E+04         0.00000E+00
    0.00000E+00         0.00000E+00        -0.41009E+04
 
   -0.10397E+05         0.73850E+04         0.00000E+00
    0.73850E+04        -0.30292E+04         0.00000E+00
    0.00000E+00         0.00000E+00        -0.40278E+04
 
   -0.93906E+04         0.76556E+04         0.00000E+00
    0.76556E+04        -0.38223E+04         0.00000E+00
    0.00000E+00         0.00000E+00        -0.39639E+04
 
   -0.84338E+04         0.77791E+04         0.00000E+00
    0.77791E+04        -0.46000E+04         0.00000E+00
    0.00000E+00         0.00000E+00        -0.39101E+04
 
   -0.75409E+04         0.77877E+04         0.00000E+00
    0.77877E+04        -0.53509E+04         0.00000E+00
    0.00000E+00         0.00000E+00        -0.38675E+04
 
   -0.67194E+04         0.76837E+04         0.00000E+00
    0.76837E+04        -0.60510E+04         0.00000E+00
    0.00000E+00         0.00000E+00        -0.38311E+04
 
   -0.60015E+04         0.74860E+04         0.00000E+00
    0.74860E+04        -0.66710E+04         0.00000E+00
    0.00000E+00         0.00000E+00        -0.38017E+04
 
   -0.54081E+04         0.72339E+04         0.00000E+00
    0.72339E+04        -0.71943E+04         0.00000E+00
    0.00000E+00         0.00000E+00        -0.37807E+04
 
   -0.49405E+04         0.69639E+04         0.00000E+00
    0.69639E+04        -0.76199E+04         0.00000E+00
    0.00000E+00         0.00000E+00        -0.37681E+04
 
   -0.45885E+04         0.67082E+04         0.00000E+00
    0.67082E+04        -0.79496E+04         0.00000E+00
    0.00000E+00         0.00000E+00        -0.37614E+04
 
   -0.43344E+04         0.64962E+04         0.00000E+00
    0.64962E+04        -0.81930E+04         0.00000E+00
    0.00000E+00         0.00000E+00        -0.37582E+04
 
   -0.41545E+04         0.63507E+04         0.00000E+00
    0.63507E+04        -0.83656E+04         0.00000E+00
    0.00000E+00         0.00000E+00        -0.37560E+04
 
   -0.40216E+04         0.62883E+04         0.00000E+00
    0.62883E+04        -0.84841E+04         0.00000E+00
    0.00000E+00         0.00000E+00        -0.37517E+04
 
   -0.39075E+04         0.63216E+04         0.00000E+00
    0.63216E+04        -0.85665E+04         0.00000E+00
    0.00000E+00         0.00000E+00        -0.37422E+04
 
   -0.37820E+04         0.64594E+04         0.00000E+00
    0.64594E+04        -0.86318E+04         0.00000E+00
    0.00000E+00         0.00000E+00        -0.37241E+04
 
   -0.87116E+04        -0.97278E+02         0.00000E+00
   -0.97278E+02         0.41219E+02         0.00000E+00
    0.00000E+00         0.00000E+00        -0.26011E+04
 
   -0.97628E+04        -0.52517E+02         0.00000E+00
   -0.52517E+02         0.19847E+03         0.00000E+00
    0.00000E+00         0.00000E+00        -0.28693E+04
 
   -0.10891E+05         0.34354E+03         0.00000E+00
    0.34354E+03         0.38622E+03         0.00000E+00
    0.00000E+00         0.00000E+00        -0.31513E+04
 
   -0.11869E+05         0.10547E+04         0.00000E+00
    0.10547E+04         0.48744E+03         0.00000E+00
    0.00000E+00         0.00000E+00        -0.34143E+04
 
   -0.12538E+05         0.19811E+04         0.00000E+00
    0.19811E+04         0.42912E+03         0.00000E+00
    0.00000E+00         0.00000E+00        -0.36328E+04
 
   -0.12826E+05         0.30007E+04         0.00000E+00
    0.30007E+04         0.18863E+03         0.00000E+00
    0.00000E+00         0.00000E+00        -0.37913E+04
 
   -0.12735E+05         0.40005E+04         0.00000E+00
    0.40005E+04        -0.22070E+03         0.00000E+00
    0.00000E+00         0.00000E+00        -0.38868E+04
 
   -0.12323E+05         0.48961E+04         0.00000E+00
    0.48961E+04        -0.76090E+03         0.00000E+00
    0.00000E+00         0.00000E+00        -0.39252E+04
 
   -0.11680E+05         0.56390E+04         0.00000E+00
    0.56390E+04        -0.13915E+04         0.00000E+00
    0.00000E+00         0.00000E+00        -0.39214E+04
 
   -0.10897E+05         0.62160E+04         0.00000E+00
    0.62160E+04        -0.20733E+04         0.00000E+00
    0.00000E+00         0.00000E+00        -0.38911E+04
 
   -0.10049E+05         0.66344E+04         0.00000E+00
    0.66344E+04        -0.27815E+04         0.00000E+00
    0.00000E+00         0.00000E+00        -0.38492E+04
 
   -0.91892E+04         0.69083E+04         0.00000E+00
    0.69083E+04        -0.34934E+04         0.00000E+00
    0.00000E+00         0.00000E+00        -0.38048E+04
 
   -0.83547E+04         0.70575E+04         0.00000E+00
    0.70575E+04        -0.41896E+04         0.00000E+00
    0.00000E+00         0.00000E+00        -0.37633E+04
 
   -0.75656E+04         0.71025E+04         0.00000E+00
    0.71025E+04        -0.48540E+04         0.00000E+00
    0.00000E+00         0.00000E+00        -0.37259E+04
 
   -0.68373E+04         0.70578E+04         0.00000E+00
    0.70578E+04        -0.54732E+04         0.00000E+00
    0.00000E+00         0.00000E+00        -0.36932E+04
 
   -0.61869E+04         0.69407E+04         0.00000E+00
    0.69407E+04        -0.60293E+04         0.00000E+00
    0.00000E+00         0.00000E+00        -0.36649E+04
 
   -0.56277E+04         0.67771E+04         0.00000E+00
    0.67771E+04        -0.65098E+04         0.00000E+00
    0.00000E+00         0.00000E+00        -0.36412E+04
 
   -0.51627E+04         0.65955E+04         0.00000E+00
    0.65955E+04        -0.69101E+04         0.00000E+00
    0.00000E+00         0.00000E+00        -0.36219E+04
 
   -0.47855E+04         0.64230E+04         0.00000E+00
    0.64230E+04        -0.72329E+04         0.00000E+00
    0.00000E+00         0.00000E+00        -0.36055E+04
 
   -0.44824E+04         0.62829E+04         0.00000E+00
    0.62829E+04        -0.74853E+04         0.00000E+00
    0.00000E+00         0.00000E+00        -0.35903E+04
 
   -0.42348E+04         0.61948E+04         0.00000E+00
    0.61948E+04        -0.76786E+04         0.00000E+00
    0.00000E+00         0.00000E+00        -0.35740E+04
 
   -0.40205E+04         0.61739E+04         0.00000E+00
    0.61739E+04        -0.78268E+04         0.00000E+00
    0.00000E+00         0.00000E+00        -0.35542E+04
 
   -0.38150E+04         0.62314E+04         0.00000E+00
    0.62314E+04        -0.79451E+04         0.00000E+00
    0.00000E+00         0.00000E+00        -0.35280E+04
 
   -0.35917E+04         0.63748E+04         0.00000E+00
    0.63748E+04        -0.80504E+04         0.00000E+00
    0.00000E+00         0.00000E+00        -0.34926E+04
 
   -0.87539E+04        -0.13730E+02         0.00000E+00
   -0.13730E+02         0.27824E+02         0.00000E+00
    0.00000E+00         0.00000E+00        -0.26178E+04
 
   -0.95299E+04         0.11397E+03         0.00000E+00
    0.11397E+03         0.13588E+03         0.00000E+00
    0.00000E+00         0.00000E+00        -0.28182E+04
 
   -0.10367E+05         0.48279E+03         0.00000E+00
    0.48279E+03         0.26701E+03         0.00000E+00
    0.00000E+00         0.00000E+00        -0.30300E+04
 
   -0.11109E+05         0.10808E+04         0.00000E+00
    0.10808E+04         0.33707E+03         0.00000E+00
    0.00000E+00         0.00000E+00        -0.32315E+04
 
   -0.11637E+05         0.18479E+04         0.00000E+00
    0.18479E+04         0.28655E+03         0.00000E+00
    0.00000E+00         0.00000E+00        -0.34050E+04
 
   -0.11886E+05         0.27005E+04         0.00000E+00
    0.27005E+04         0.87910E+02         0.00000E+00
    0.00000E+00         0.00000E+00        -0.35393E+04
 
   -0.11845E+05         0.35541E+04         0.00000E+00
    0.35541E+04        -0.25642E+03         0.00000E+00
    0.00000E+00         0.00000E+00        -0.36303E+04
 
   -0.11546E+05         0.43394E+04         0.00000E+00
    0.43394E+04        -0.72376E+03         0.00000E+00
    0.00000E+00         0.00000E+00        -0.36808E+04
 
   -0.11046E+05         0.50114E+04         0.00000E+00
    0.50114E+04        -0.12801E+04         0.00000E+00
    0.00000E+00         0.00000E+00        -0.36979E+04
 
   -0.10413E+05         0.55505E+04         0.00000E+00
    0.55505E+04        -0.18914E+04         0.00000E+00
    0.00000E+00         0.00000E+00        -0.36914E+04
 
   -0.97061E+04         0.59559E+04         0.00000E+00
    0.59559E+04        -0.25284E+04         0.00000E+00
    0.00000E+00         0.00000E+00        -0.36703E+04
 
   -0.89719E+04         0.62375E+04         0.00000E+00
    0.62375E+04        -0.31683E+04         0.00000E+00
    0.00000E+00         0.00000E+00        -0.36421E+04
 
   -0.82441E+04         0.64109E+04         0.00000E+00
    0.64109E+04        -0.37931E+04         0.00000E+00
    0.00000E+00         0.00000E+00        -0.36112E+04
 
   -0.75454E+04         0.64926E+04         0.00000E+00
    0.64926E+04        -0.43892E+04         0.00000E+00
    0.00000E+00         0.00000E+00        -0.35804E+04
 
   -0.68915E+04         0.64983E+04         0.00000E+00
    0.64983E+04        -0.49444E+04         0.00000E+00
    0.00000E+00         0.00000E+00        -0.35508E+04
 
   -0.62957E+04         0.64447E+04         0.00000E+00
    0.64447E+04        -0.54476E+04         0.00000E+00
    0.00000E+00         0.00000E+00        -0.35230E+04
 
   -0.57666E+04         0.63521E+04         0.00000E+00
    0.63521E+04        -0.58900E+04         0.00000E+00
    0.00000E+00         0.00000E+00        -0.34970E+04
 
   -0.53068E+04         0.62425E+04         0.00000E+00
    0.62425E+04        -0.62680E+04         0.00000E+00
    0.00000E+00         0.00000E+00        -0.34724E+04
 
   -0.49117E+04         0.61375E+04         0.00000E+00
    0.61375E+04        -0.65827E+04         0.00000E+00
    0.00000E+00         0.00000E+00        -0.34483E+04
 
   -0.45711E+04         0.60567E+04         0.00000E+00
    0.60567E+04        -0.68400E+04         0.00000E+00
    0.00000E+00         0.00000E+00        -0.34233E+04
 
   -0.42698E+04         0.60163E+04         0.00000E+00
    0.60163E+04        -0.70487E+04         0.00000E+00
    0.00000E+00         0.00000E+00        -0.33956E+04
 
   -0.39896E+04         0.60296E+04         0.00000E+00
    0.60296E+04        -0.72201E+04         0.00000E+00
    0.00000E+00         0.00000E+00        -0.33629E+04
 
   -0.37094E+04         0.61064E+04         0.00000E+00
    0.61064E+04        -0.73675E+04         0.00000E+00
    0.00000E+00         0.00000E+00        -0.33231E+04
 
   -0.34062E+04         0.62530E+04         0.00000E+00
    0.62530E+04        -0.75053E+04         0.00000E+00
    0.00000E+00         0.00000E+00        -0.32734E+04
 
   -0.86818E+04         0.41390E+02         0.00000E+00
    0.41390E+02         0.17830E+02         0.00000E+00
    0.00000E+00         0.00000E+00        -0.25992E+04
 
   -0.92744E+04         0.22544E+03         0.00000E+00
    0.22544E+03         0.87376E+02         0.00000E+00
    0.00000E+00         0.00000E+00        -0.27561E+04
 
   -0.99069E+04         0.57488E+03         0.00000E+00
    0.57488E+03         0.17054E+03         0.00000E+00
    0.00000E+00         0.00000E+00        -0.29209E+04
 
   -0.10473E+05         0.10893E+04         0.00000E+00
    0.10893E+04         0.20775E+03         0.00000E+00
    0.00000E+00         0.00000E+00        -0.30794E+04
 
   -0.10885E+05         0.17326E+04         0.00000E+00
    0.17326E+04         0.15290E+03         0.00000E+00
    0.00000E+00         0.00000E+00        -0.32196E+04
 
   -0.11092E+05         0.24482E+04         0.00000E+00
    0.24482E+04        -0.19062E+02         0.00000E+00
    0.00000E+00         0.00000E+00        -0.33333E+04
 
   -0.11077E+05         0.31747E+04         0.00000E+00
    0.31747E+04        -0.31170E+03         0.00000E+00
    0.00000E+00         0.00000E+00        -0.34167E+04
 
   -0.10857E+05         0.38580E+04         0.00000E+00
    0.38580E+04        -0.71105E+03         0.00000E+00
    0.00000E+00         0.00000E+00        -0.34703E+04
 
   -0.10467E+05         0.44597E+04         0.00000E+00
    0.44597E+04        -0.11927E+04         0.00000E+00
    0.00000E+00         0.00000E+00        -0.34979E+04
 
   -0.99550E+04         0.49588E+04         0.00000E+00
    0.49588E+04        -0.17287E+04         0.00000E+00
    0.00000E+00         0.00000E+00        -0.35051E+04
 
   -0.93661E+04         0.53494E+04         0.00000E+00
    0.53494E+04        -0.22930E+04         0.00000E+00
    0.00000E+00         0.00000E+00        -0.34977E+04
 
   -0.87394E+04         0.56363E+04         0.00000E+00
    0.56363E+04        -0.28637E+04         0.00000E+00
    0.00000E+00         0.00000E+00        -0.34809E+04
 
   -0.81049E+04         0.58301E+04         0.00000E+00
    0.58301E+04        -0.34238E+04         0.00000E+00
    0.00000E+00         0.00000E+00        -0.34586E+04
 
   -0.74843E+04         0.59442E+04         0.00000E+00
    0.59442E+04        -0.39600E+04         0.00000E+00
    0.00000E+00         0.00000E+00        -0.34333E+04
 
   -0.68934E+04         0.59928E+04         0.00000E+00
    0.59928E+04        -0.44617E+04         0.00000E+00
    0.00000E+00         0.00000E+00        -0.34065E+04
 
   -0.63431E+04         0.59909E+04         0.00000E+00
    0.59909E+04        -0.49204E+04         0.00000E+00
    0.00000E+00         0.00000E+00        -0.33791E+04
 
   -0.58405E+04         0.59555E+04         0.00000E+00
    0.59555E+04        -0.53298E+04         0.00000E+00
    0.00000E+00         0.00000E+00        -0.33511E+04
 
   -0.53873E+04         0.59042E+04         0.00000E+00
    0.59042E+04        -0.56870E+04         0.00000E+00
    0.00000E+00         0.00000E+00        -0.33223E+04
 
   -0.49801E+04         0.58543E+04         0.00000E+00
    0.58543E+04        -0.59931E+04         0.00000E+00
    0.00000E+00         0.00000E+00        -0.32920E+04
 
   -0.46109E+04         0.58218E+04         0.00000E+00
    0.58218E+04        -0.62524E+04         0.00000E+00
    0.00000E+00         0.00000E+00        -0.32590E+04
 
   -0.42675E+04         0.58206E+04         0.00000E+00
    0.58206E+04        -0.64720E+04         0.00000E+00
    0.00000E+00         0.00000E+00        -0.32218E+04
 
   -0.39345E+04         0.58618E+04         0.00000E+00
    0.58618E+04        -0.66615E+04         0.00000E+00
    0.00000E+00         0.00000E+00        -0.31788E+04
 
   -0.35940E+04         0.59535E+04         0.00000E+00
    0.59535E+04        -0.68319E+04         0.00000E+00
    0.00000E+00         0.00000E+00        -0.31278E+04
 
   -0.32264E+04         0.61011E+04         0.00000E+00
    0.61011E+04        -0.69958E+04         0.00000E+00
    0.00000E+00         0.00000E+00        -0.30667E+04
 
   -0.85357E+04         0.75553E+02         0.00000E+00
    0.75553E+02         0.10632E+02         0.00000E+00
    0.00000E+00         0.00000E+00        -0.25575E+04
 
   -0.90052E+04         0.29401E+03         0.00000E+00
    0.29401E+03         0.51549E+02         0.00000E+00
    0.00000E+00         0.00000E+00        -0.26861E+04
 
   -0.94939E+04         0.62659E+03         0.00000E+00
    0.62659E+03         0.97058E+02         0.00000E+00
    0.00000E+00         0.00000E+00        -0.28191E+04
 
   -0.99301E+04         0.10774E+04         0.00000E+00
    0.10774E+04         0.10576E+03         0.00000E+00
    0.00000E+00         0.00000E+00        -0.29473E+04
 
   -0.10252E+05         0.16248E+04         0.00000E+00
    0.16248E+04         0.43315E+02         0.00000E+00
    0.00000E+00         0.00000E+00        -0.30627E+04
 
   -0.10420E+05         0.22308E+04         0.00000E+00
    0.22308E+04        -0.11117E+03         0.00000E+00
    0.00000E+00         0.00000E+00        -0.31594E+04
 
   -0.10417E+05         0.28513E+04         0.00000E+00
    0.28513E+04        -0.36325E+03         0.00000E+00
    0.00000E+00         0.00000E+00        -0.32341E+04
 
   -0.10250E+05         0.34454E+04         0.00000E+00
    0.34454E+04        -0.70512E+03         0.00000E+00
    0.00000E+00         0.00000E+00        -0.32866E+04
 
   -0.99418E+04         0.39815E+04         0.00000E+00
    0.39815E+04        -0.11197E+04         0.00000E+00
    0.00000E+00         0.00000E+00        -0.33184E+04
 
   -0.95245E+04         0.44400E+04         0.00000E+00
    0.44400E+04        -0.15854E+04         0.00000E+00
    0.00000E+00         0.00000E+00        -0.33330E+04
 
   -0.90322E+04         0.48125E+04         0.00000E+00
    0.48125E+04        -0.20808E+04         0.00000E+00
    0.00000E+00         0.00000E+00        -0.33339E+04
 
   -0.84961E+04         0.50999E+04         0.00000E+00
    0.50999E+04        -0.25865E+04         0.00000E+00
    0.00000E+00         0.00000E+00        -0.33248E+04
 
   -0.79417E+04         0.53089E+04         0.00000E+00
    0.53089E+04        -0.30868E+04         0.00000E+00
    0.00000E+00         0.00000E+00        -0.33086E+04
 
   -0.73888E+04         0.54494E+04         0.00000E+00
    0.54494E+04        -0.35692E+04         0.00000E+00
    0.00000E+00         0.00000E+00        -0.32874E+04
 
   -0.68519E+04         0.55333E+04         0.00000E+00
    0.55333E+04        -0.40241E+04         0.00000E+00
    0.00000E+00         0.00000E+00        -0.32628E+04
 
   -0.63410E+04         0.55737E+04         0.00000E+00
    0.55737E+04        -0.44440E+04         0.00000E+00
    0.00000E+00         0.00000E+00        -0.32355E+04
 
   -0.58619E+04         0.55845E+04         0.00000E+00
    0.55845E+04        -0.48241E+04         0.00000E+00
    0.00000E+00         0.00000E+00        -0.32058E+04
 
   -0.54162E+04         0.55801E+04         0.00000E+00
    0.55801E+04        -0.51622E+04         0.00000E+00
    0.00000E+00         0.00000E+00        -0.31735E+04
 
   -0.50014E+04         0.55749E+04         0.00000E+00
    0.55749E+04        -0.54590E+04         0.00000E+00
    0.00000E+00         0.00000E+00        -0.31381E+04
 
   -0.46109E+04         0.55817E+04         0.00000E+00
    0.55817E+04        -0.57180E+04         0.00000E+00
    0.00000E+00         0.00000E+00        -0.30987E+04
 
   -0.42348E+04         0.56122E+04         0.00000E+00
    0.56122E+04        -0.59451E+04         0.00000E+00
    0.00000E+00         0.00000E+00        -0.30540E+04
 
   -0.38602E+04         0.56755E+04         0.00000E+00
    0.56755E+04        -0.61481E+04         0.00000E+00
    0.00000E+00         0.00000E+00        -0.30025E+04
 
   -0.34720E+04         0.57784E+04         0.00000E+00
    0.57784E+04        -0.63365E+04         0.00000E+00
    0.00000E+00         0.00000E+00        -0.29426E+04
 
   -0.30534E+04         0.59252E+04         0.00000E+00
    0.59252E+04        -0.65209E+04         0.00000E+00
    0.00000E+00         0.00000E+00        -0.28723E+04
 
   -0.83457E+04         0.94825E+02         0.00000E+00
    0.94825E+02         0.56205E+01         0.00000E+00
    0.00000E+00         0.00000E+00        -0.25020E+04
 
   -0.87311E+04         0.33080E+03         0.00000E+00
    0.33080E+03         0.26092E+02         0.00000E+00
    0.00000E+00         0.00000E+00        -0.26115E+04
 
   -0.91184E+04         0.64666E+03         0.00000E+00
    0.64666E+03         0.43735E+02         0.00000E+00
    0.00000E+00         0.00000E+00        -0.27224E+04
 
   -0.94600E+04         0.10475E+04         0.00000E+00
    0.10475E+04         0.30232E+02         0.00000E+00
    0.00000E+00         0.00000E+00        -0.28289E+04
 
   -0.97129E+04         0.15202E+04         0.00000E+00
    0.15202E+04        -0.39344E+02         0.00000E+00
    0.00000E+00         0.00000E+00        -0.29257E+04
 
   -0.98469E+04         0.20391E+04         0.00000E+00
    0.20391E+04        -0.18143E+03         0.00000E+00
    0.00000E+00         0.00000E+00        -0.30085E+04
 
   -0.98475E+04         0.25730E+04         0.00000E+00
    0.25730E+04        -0.40189E+03         0.00000E+00
    0.00000E+00         0.00000E+00        -0.30748E+04
 
   -0.97164E+04         0.30913E+04         0.00000E+00
    0.30913E+04        -0.69659E+03         0.00000E+00
    0.00000E+00         0.00000E+00        -0.31239E+04
 
   -0.94677E+04         0.35686E+04         0.00000E+00
    0.35686E+04        -0.10539E+04         0.00000E+00
    0.00000E+00         0.00000E+00        -0.31565E+04
 
   -0.91234E+04         0.39878E+04         0.00000E+00
    0.39878E+04        -0.14578E+04         0.00000E+00
    0.00000E+00         0.00000E+00        -0.31743E+04
 
   -0.87084E+04         0.43400E+04         0.00000E+00
    0.43400E+04        -0.18911E+04         0.00000E+00
    0.00000E+00         0.00000E+00        -0.31798E+04
 
   -0.82471E+04         0.46235E+04         0.00000E+00
    0.46235E+04        -0.23376E+04         0.00000E+00
    0.00000E+00         0.00000E+00        -0.31754E+04
 
   -0.77604E+04         0.48420E+04         0.00000E+00
    0.48420E+04        -0.27833E+04         0.00000E+00
    0.00000E+00         0.00000E+00        -0.31631E+04
 
   -0.72655E+04         0.50025E+04         0.00000E+00
    0.50025E+04        -0.32170E+04         0.00000E+00
    0.00000E+00         0.00000E+00        -0.31448E+04
 
   -0.67754E+04         0.51145E+04         0.00000E+00
    0.51145E+04        -0.36298E+04         0.00000E+00
    0.00000E+00         0.00000E+00        -0.31215E+04
 
   -0.62988E+04         0.51887E+04         0.00000E+00
    0.51887E+04        -0.40151E+04         0.00000E+00
    0.00000E+00         0.00000E+00        -0.30942E+04
 
   -0.58410E+04         0.52365E+04         0.00000E+00
    0.52365E+04        -0.43688E+04         0.00000E+00
    0.00000E+00         0.00000E+00        -0.30629E+04
 
   -0.54036E+04         0.52700E+04         0.00000E+00
    0.52700E+04        -0.46889E+04         0.00000E+00
    0.00000E+00         0.00000E+00        -0.30278E+04
 
   -0.49847E+04         0.53006E+04         0.00000E+00
    0.53006E+04        -0.49761E+04         0.00000E+00
    0.00000E+00         0.00000E+00        -0.29882E+04
 
   -0.45788E+04         0.53390E+04         0.00000E+00
    0.53390E+04        -0.52331E+04         0.00000E+00
    0.00000E+00         0.00000E+00        -0.29436E+04
 
   -0.41779E+04         0.53947E+04         0.00000E+00
    0.53947E+04        -0.54647E+04         0.00000E+00
    0.00000E+00         0.00000E+00        -0.28928E+04
 
   -0.37711E+04         0.54753E+04         0.00000E+00
    0.54753E+04        -0.56775E+04         0.00000E+00
    0.00000E+00         0.00000E+00        -0.28346E+04
 
   -0.33459E+04         0.55861E+04         0.00000E+00
    0.55861E+04        -0.58795E+04         0.00000E+00
    0.00000E+00         0.00000E+00        -0.27676E+04
 
   -0.28878E+04         0.57306E+04         0.00000E+00
    0.57306E+04        -0.60796E+04         0.00000E+00
    0.00000E+00         0.00000E+00        -0.26902E+04
 
   -0.81333E+04         0.10386E+03         0.00000E+00
    0.10386E+03         0.22419E+01         0.00000E+00
    0.00000E+00         0.00000E+00        -0.24393E+04
 
   -0.84595E+04         0.34503E+03         0.00000E+00
    0.34503E+03         0.86606E+01         0.00000E+00
    0.00000E+00         0.00000E+00        -0.25353E+04
 
   -0.87744E+04         0.64353E+03         0.00000E+00
    0.64353E+03         0.67064E+01         0.00000E+00
    0.00000E+00         0.00000E+00        -0.26303E+04
 
   -0.90468E+04         0.10037E+04         0.00000E+00
    0.10037E+04        -0.22747E+02         0.00000E+00
    0.00000E+00         0.00000E+00        -0.27209E+04
 
   -0.92470E+04         0.14174E+04         0.00000E+00
    0.14174E+04        -0.97437E+02         0.00000E+00
    0.00000E+00         0.00000E+00        -0.28033E+04
 
   -0.93529E+04         0.18672E+04         0.00000E+00
    0.18672E+04        -0.22984E+03         0.00000E+00
    0.00000E+00         0.00000E+00        -0.28748E+04
 
   -0.93527E+04         0.23309E+04         0.00000E+00
    0.23309E+04        -0.42522E+03         0.00000E+00
    0.00000E+00         0.00000E+00        -0.29334E+04
 
   -0.92456E+04         0.27855E+04         0.00000E+00
    0.27855E+04        -0.68162E+03         0.00000E+00
    0.00000E+00         0.00000E+00        -0.29782E+04
 
   -0.90402E+04         0.32114E+04         0.00000E+00
    0.32114E+04        -0.99115E+03         0.00000E+00
    0.00000E+00         0.00000E+00        -0.30094E+04
 
   -0.87515E+04         0.35941E+04         0.00000E+00
    0.35941E+04        -0.13421E+04         0.00000E+00
    0.00000E+00         0.00000E+00        -0.30281E+04
 
   -0.83976E+04         0.39251E+04         0.00000E+00
    0.39251E+04        -0.17211E+04         0.00000E+00
    0.00000E+00         0.00000E+00        -0.30356E+04
 
   -0.79971E+04         0.42013E+04         0.00000E+00
    0.42013E+04        -0.21150E+04         0.00000E+00
    0.00000E+00         0.00000E+00        -0.30336E+04
 
   -0.75668E+04         0.44243E+04         0.00000E+00
    0.44243E+04        -0.25118E+04         0.00000E+00
    0.00000E+00         0.00000E+00        -0.30236E+04
 
   -0.71212E+04         0.45989E+04         0.00000E+00
    0.45989E+04        -0.29016E+04         0.00000E+00
    0.00000E+00         0.00000E+00        -0.30068E+04
 
   -0.66712E+04         0.47323E+04         0.00000E+00
    0.47323E+04        -0.32764E+04         0.00000E+00
    0.00000E+00         0.00000E+00        -0.29843E+04
 
   -0.62247E+04         0.48328E+04         0.00000E+00
    0.48328E+04        -0.36304E+04         0.00000E+00
    0.00000E+00         0.00000E+00        -0.29565E+04
 
   -0.57864E+04         0.49100E+04         0.00000E+00
    0.49100E+04        -0.39598E+04         0.00000E+00
    0.00000E+00         0.00000E+00        -0.29239E+04
 
   -0.53578E+04         0.49734E+04         0.00000E+00
    0.49734E+04        -0.42630E+04         0.00000E+00
    0.00000E+00         0.00000E+00        -0.28863E+04
 
   -0.49375E+04         0.50324E+04         0.00000E+00
    0.50324E+04        -0.45403E+04         0.00000E+00
    0.00000E+00         0.00000E+00        -0.28433E+04
 
   -0.45211E+04         0.50958E+04         0.00000E+00
    0.50958E+04        -0.47938E+04         0.00000E+00
    0.00000E+00         0.00000E+00        -0.27945E+04
 
   -0.41020E+04         0.51713E+04         0.00000E+00
    0.51713E+04        -0.50276E+04         0.00000E+00
    0.00000E+00         0.00000E+00        -0.27389E+04
 
   -0.36712E+04         0.52649E+04         0.00000E+00
    0.52649E+04        -0.52470E+04         0.00000E+00
    0.00000E+00         0.00000E+00        -0.26754E+04
 
   -0.32179E+04         0.53809E+04         0.00000E+00
    0.53809E+04        -0.54588E+04         0.00000E+00
    0.00000E+00         0.00000E+00        -0.26030E+04
 
   -0.27302E+04         0.55219E+04         0.00000E+00
    0.55219E+04        -0.56706E+04         0.00000E+00
    0.00000E+00         0.00000E+00        -0.25202E+04
 
   -0.79132E+04         0.10609E+03         0.00000E+00
    0.10609E+03         0.44625E-01         0.00000E+00
    0.00000E+00         0.00000E+00        -0.23740E+04
 
   -0.81959E+04         0.34395E+03         0.00000E+00
    0.34395E+03        -0.28050E+01         0.00000E+00
    0.00000E+00         0.00000E+00        -0.24596E+04
 
   -0.84581E+04         0.62437E+03         0.00000E+00
    0.62437E+03        -0.17832E+02         0.00000E+00
    0.00000E+00         0.00000E+00        -0.25428E+04
 
   -0.86794E+04         0.95043E+03         0.00000E+00
    0.95043E+03        -0.57834E+02         0.00000E+00
    0.00000E+00         0.00000E+00        -0.26212E+04
 
   -0.88396E+04         0.13167E+04         0.00000E+00
    0.13167E+04        -0.13524E+03         0.00000E+00
    0.00000E+00         0.00000E+00        -0.26924E+04
 
   -0.89226E+04         0.17112E+04         0.00000E+00
    0.17112E+04        -0.25926E+03         0.00000E+00
    0.00000E+00         0.00000E+00        -0.27546E+04
 
   -0.89194E+04         0.21177E+04         0.00000E+00
    0.21177E+04        -0.43426E+03         0.00000E+00
    0.00000E+00         0.00000E+00        -0.28061E+04
 
   -0.88283E+04         0.25194E+04         0.00000E+00
    0.25194E+04        -0.65943E+03         0.00000E+00
    0.00000E+00         0.00000E+00        -0.28463E+04
 
   -0.86543E+04         0.29011E+04         0.00000E+00
    0.29011E+04        -0.92943E+03         0.00000E+00
    0.00000E+00         0.00000E+00        -0.28751E+04
 
   -0.84077E+04         0.32506E+04         0.00000E+00
    0.32506E+04        -0.12357E+04         0.00000E+00
    0.00000E+00         0.00000E+00        -0.28930E+04
 
   -0.81015E+04         0.35605E+04         0.00000E+00
    0.35605E+04        -0.15681E+04         0.00000E+00
    0.00000E+00         0.00000E+00        -0.29009E+04
 
   -0.77499E+04         0.38271E+04         0.00000E+00
    0.38271E+04        -0.19160E+04         0.00000E+00
    0.00000E+00         0.00000E+00        -0.28998E+04
 
   -0.73660E+04         0.40507E+04         0.00000E+00
    0.40507E+04        -0.22695E+04         0.00000E+00
    0.00000E+00         0.00000E+00        -0.28907E+04
 
   -0.69616E+04         0.42343E+04         0.00000E+00
    0.42343E+04        -0.26200E+04         0.00000E+00
    0.00000E+00         0.00000E+00        -0.28745E+04
 
   -0.65460E+04         0.43830E+04         0.00000E+00
    0.43830E+04        -0.29607E+04         0.00000E+00
    0.00000E+00         0.00000E+00        -0.28520E+04
 
   -0.61259E+04         0.45036E+04         0.00000E+00
    0.45036E+04        -0.32864E+04         0.00000E+00
    0.00000E+00         0.00000E+00        -0.28237E+04
 
   -0.57054E+04         0.46033E+04         0.00000E+00
    0.46033E+04        -0.35935E+04         0.00000E+00
    0.00000E+00         0.00000E+00        -0.27897E+04
 
   -0.52859E+04         0.46900E+04         0.00000E+00
    0.46900E+04        -0.38806E+04         0.00000E+00
    0.00000E+00         0.00000E+00        -0.27500E+04
 
   -0.48665E+04         0.47712E+04         0.00000E+00
    0.47712E+04        -0.41478E+04         0.00000E+00
    0.00000E+00         0.00000E+00        -0.27043E+04
 
   -0.44436E+04         0.48540E+04         0.00000E+00
    0.48540E+04        -0.43967E+04         0.00000E+00
    0.00000E+00         0.00000E+00        -0.26521E+04
 
   -0.40117E+04         0.49444E+04         0.00000E+00
    0.49444E+04        -0.46306E+04         0.00000E+00
    0.00000E+00         0.00000E+00        -0.25927E+04
 
   -0.35634E+04         0.50475E+04         0.00000E+00
    0.50475E+04        -0.48541E+04         0.00000E+00
    0.00000E+00         0.00000E+00        -0.25253E+04
 
   -0.30898E+04         0.51664E+04         0.00000E+00
    0.51664E+04        -0.50726E+04         0.00000E+00
    0.00000E+00         0.00000E+00        -0.24487E+04
 
   -0.25807E+04         0.53029E+04         0.00000E+00
    0.53029E+04        -0.52927E+04         0.00000E+00
    0.00000E+00         0.00000E+00        -0.23620E+04
 
   -0.76952E+04         0.10398E+03         0.00000E+00
    0.10398E+03        -0.13200E+01         0.00000E+00
    0.00000E+00         0.00000E+00        -0.23089E+04
 
   -0.79442E+04         0.33294E+03         0.00000E+00
    0.33294E+03        -0.99733E+01         0.00000E+00
    0.00000E+00         0.00000E+00        -0.23862E+04
 
   -0.81668E+04         0.59489E+03         0.00000E+00
    0.59489E+03        -0.33159E+02         0.00000E+00
    0.00000E+00         0.00000E+00        -0.24600E+04
 
   -0.83497E+04         0.89152E+03         0.00000E+00
    0.89152E+03        -0.79395E+02         0.00000E+00
    0.00000E+00         0.00000E+00        -0.25287E+04
 
   -0.84792E+04         0.12189E+04         0.00000E+00
    0.12189E+04        -0.15729E+03         0.00000E+00
    0.00000E+00         0.00000E+00        -0.25909E+04
 
   -0.85438E+04         0.15684E+04         0.00000E+00
    0.15684E+04        -0.27350E+03         0.00000E+00
    0.00000E+00         0.00000E+00        -0.26452E+04
 
   -0.85367E+04         0.19283E+04         0.00000E+00
    0.19283E+04        -0.43144E+03         0.00000E+00
    0.00000E+00         0.00000E+00        -0.26905E+04
 
   -0.84560E+04         0.22860E+04         0.00000E+00
    0.22860E+04        -0.63086E+03         0.00000E+00
    0.00000E+00         0.00000E+00        -0.27261E+04
 
   -0.83048E+04         0.26297E+04         0.00000E+00
    0.26297E+04        -0.86810E+03         0.00000E+00
    0.00000E+00         0.00000E+00        -0.27519E+04
 
   -0.80899E+04         0.29496E+04         0.00000E+00
    0.29496E+04        -0.11370E+04         0.00000E+00
    0.00000E+00         0.00000E+00        -0.27681E+04
 
   -0.78209E+04         0.32392E+04         0.00000E+00
    0.32392E+04        -0.14296E+04         0.00000E+00
    0.00000E+00         0.00000E+00        -0.27752E+04
 
   -0.75082E+04         0.34949E+04         0.00000E+00
    0.34949E+04        -0.17378E+04         0.00000E+00
    0.00000E+00         0.00000E+00        -0.27738E+04
 
   -0.71621E+04         0.37160E+04         0.00000E+00
    0.37160E+04        -0.20535E+04         0.00000E+00
    0.00000E+00         0.00000E+00        -0.27647E+04
 
   -0.67921E+04         0.39043E+04         0.00000E+00
    0.39043E+04        -0.23694E+04         0.00000E+00
    0.00000E+00         0.00000E+00        -0.27484E+04
 
   -0.64056E+04         0.40635E+04         0.00000E+00
    0.40635E+04        -0.26796E+04         0.00000E+00
    0.00000E+00         0.00000E+00        -0.27255E+04
 
   -0.60084E+04         0.41985E+04         0.00000E+00
    0.41985E+04        -0.29795E+04         0.00000E+00
    0.00000E+00         0.00000E+00        -0.26964E+04
 
   -0.56041E+04         0.43151E+04         0.00000E+00
    0.43151E+04        -0.32662E+04         0.00000E+00
    0.00000E+00         0.00000E+00        -0.26611E+04
 
   -0.51939E+04         0.44194E+04         0.00000E+00
    0.44194E+04        -0.35380E+04         0.00000E+00
    0.00000E+00         0.00000E+00        -0.26196E+04
 
   -0.47770E+04         0.45174E+04         0.00000E+00
    0.45174E+04        -0.37950E+04         0.00000E+00
    0.00000E+00         0.00000E+00        -0.25716E+04
 
   -0.43509E+04         0.46148E+04         0.00000E+00
    0.46148E+04        -0.40385E+04         0.00000E+00
    0.00000E+00         0.00000E+00        -0.25168E+04
 
   -0.39108E+04         0.47163E+04         0.00000E+00
    0.47163E+04        -0.42710E+04         0.00000E+00
    0.00000E+00         0.00000E+00        -0.24545E+04
 
   -0.34508E+04         0.48258E+04         0.00000E+00
    0.48258E+04        -0.44963E+04         0.00000E+00
    0.00000E+00         0.00000E+00        -0.23841E+04
 
   -0.29632E+04         0.49456E+04         0.00000E+00
    0.49456E+04        -0.47189E+04         0.00000E+00
    0.00000E+00         0.00000E+00        -0.23046E+04
 
   -0.24397E+04         0.50769E+04         0.00000E+00
    0.50769E+04        -0.49443E+04         0.00000E+00
    0.00000E+00         0.00000E+00        -0.22152E+04
 
   -0.74852E+04         0.99252E+02         0.00000E+00
    0.99252E+02        -0.21112E+01         0.00000E+00
    0.00000E+00         0.00000E+00        -0.22462E+04
 
   -0.77067E+04         0.31593E+03         0.00000E+00
    0.31593E+03        -0.14128E+02         0.00000E+00
    0.00000E+00         0.00000E+00        -0.23163E+04
 
   -0.78985E+04         0.55937E+03         0.00000E+00
    0.55937E+03        -0.41906E+02         0.00000E+00
    0.00000E+00         0.00000E+00        -0.23821E+04
 
   -0.80519E+04         0.83007E+03         0.00000E+00
    0.83007E+03        -0.91113E+02         0.00000E+00
    0.00000E+00         0.00000E+00        -0.24429E+04
 
   -0.81574E+04         0.11249E+04         0.00000E+00
    0.11249E+04        -0.16767E+03         0.00000E+00
    0.00000E+00         0.00000E+00        -0.24975E+04
 
   -0.82071E+04         0.14373E+04         0.00000E+00
    0.14373E+04        -0.27630E+03         0.00000E+00
    0.00000E+00         0.00000E+00        -0.25450E+04
 
   -0.81958E+04         0.17587E+04         0.00000E+00
    0.17587E+04        -0.41957E+03         0.00000E+00
    0.00000E+00         0.00000E+00        -0.25846E+04
 
   -0.81219E+04         0.20796E+04         0.00000E+00
    0.20796E+04        -0.59746E+03         0.00000E+00
    0.00000E+00         0.00000E+00        -0.26158E+04
 
   -0.79870E+04         0.23907E+04         0.00000E+00
    0.23907E+04        -0.80742E+03         0.00000E+00
    0.00000E+00         0.00000E+00        -0.26383E+04
 
   -0.77960E+04         0.26844E+04         0.00000E+00
    0.26844E+04        -0.10449E+04         0.00000E+00
    0.00000E+00         0.00000E+00        -0.26523E+04
 
   -0.75557E+04         0.29550E+04         0.00000E+00
    0.29550E+04        -0.13040E+04         0.00000E+00
    0.00000E+00         0.00000E+00        -0.26579E+04
 
   -0.72738E+04         0.31990E+04         0.00000E+00
    0.31990E+04        -0.15781E+04         0.00000E+00
    0.00000E+00         0.00000E+00        -0.26556E+04
 
   -0.69584E+04         0.34155E+04         0.00000E+00
    0.34155E+04        -0.18609E+04         0.00000E+00
    0.00000E+00         0.00000E+00        -0.26458E+04
 
   -0.66166E+04         0.36052E+04         0.00000E+00
    0.36052E+04        -0.21463E+04         0.00000E+00
    0.00000E+00         0.00000E+00        -0.26289E+04
 
   -0.62548E+04         0.37707E+04         0.00000E+00
    0.37707E+04        -0.24295E+04         0.00000E+00
    0.00000E+00         0.00000E+00        -0.26053E+04
 
   -0.58775E+04         0.39155E+04         0.00000E+00
    0.39155E+04        -0.27063E+04         0.00000E+00
    0.00000E+00         0.00000E+00        -0.25751E+04
 
   -0.54878E+04         0.40442E+04         0.00000E+00
    0.40442E+04        -0.29742E+04         0.00000E+00
    0.00000E+00         0.00000E+00        -0.25386E+04
 
   -0.50868E+04         0.41613E+04         0.00000E+00
    0.41613E+04        -0.32317E+04         0.00000E+00
    0.00000E+00         0.00000E+00        -0.24955E+04
 
   -0.46740E+04         0.42716E+04         0.00000E+00
    0.42716E+04        -0.34786E+04         0.00000E+00
    0.00000E+00         0.00000E+00        -0.24458E+04
 
   -0.42472E+04         0.43795E+04         0.00000E+00
    0.43795E+04        -0.37159E+04         0.00000E+00
    0.00000E+00         0.00000E+00        -0.23889E+04
 
   -0.38026E+04         0.44886E+04         0.00000E+00
    0.44886E+04        -0.39457E+04         0.00000E+00
    0.00000E+00         0.00000E+00        -0.23245E+04
 
   -0.33354E+04         0.46020E+04         0.00000E+00
    0.46020E+04        -0.41711E+04         0.00000E+00
    0.00000E+00         0.00000E+00        -0.22519E+04
 
   -0.28392E+04         0.47211E+04         0.00000E+00
    0.47211E+04        -0.43957E+04         0.00000E+00
    0.00000E+00         0.00000E+00        -0.21705E+04
 
   -0.23072E+04         0.48466E+04         0.00000E+00
    0.48466E+04        -0.46240E+04         0.00000E+00
    0.00000E+00         0.00000E+00        -0.20794E+04
 
   -0.72869E+04         0.93090E+02         0.00000E+00
    0.93090E+02        -0.25167E+01         0.00000E+00
    0.00000E+00         0.00000E+00        -0.21868E+04
 
   -0.74849E+04         0.29567E+03         0.00000E+00
    0.29567E+03        -0.16224E+02         0.00000E+00
    0.00000E+00         0.00000E+00        -0.22503E+04
 
   -0.76517E+04         0.52092E+03         0.00000E+00
    0.52092E+03        -0.46091E+02         0.00000E+00
    0.00000E+00         0.00000E+00        -0.23093E+04
 
   -0.77816E+04         0.76842E+03         0.00000E+00
    0.76842E+03        -0.95917E+02         0.00000E+00
    0.00000E+00         0.00000E+00        -0.23632E+04
 
   -0.78680E+04         0.10354E+04         0.00000E+00
    0.10354E+04        -0.16976E+03         0.00000E+00
    0.00000E+00         0.00000E+00        -0.24113E+04
 
   -0.79054E+04         0.13168E+04         0.00000E+00
    0.13168E+04        -0.27095E+03         0.00000E+00
    0.00000E+00         0.00000E+00        -0.24529E+04
 
   -0.78898E+04         0.16060E+04         0.00000E+00
    0.16060E+04        -0.40134E+03         0.00000E+00
    0.00000E+00         0.00000E+00        -0.24873E+04
 
   -0.78200E+04         0.18958E+04         0.00000E+00
    0.18958E+04        -0.56096E+03         0.00000E+00
    0.00000E+00         0.00000E+00        -0.25143E+04
 
   -0.76969E+04         0.21790E+04         0.00000E+00
    0.21790E+04        -0.74800E+03         0.00000E+00
    0.00000E+00         0.00000E+00        -0.25335E+04
 
   -0.75238E+04         0.24494E+04         0.00000E+00
    0.24494E+04        -0.95907E+03         0.00000E+00
    0.00000E+00         0.00000E+00        -0.25449E+04
 
   -0.73056E+04         0.27022E+04         0.00000E+00
    0.27022E+04        -0.11897E+04         0.00000E+00
    0.00000E+00         0.00000E+00        -0.25486E+04
 
   -0.70480E+04         0.29344E+04         0.00000E+00
    0.29344E+04        -0.14348E+04         0.00000E+00
    0.00000E+00         0.00000E+00        -0.25448E+04
 
   -0.67572E+04         0.31446E+04         0.00000E+00
    0.31446E+04        -0.16892E+04         0.00000E+00
    0.00000E+00         0.00000E+00        -0.25339E+04
 
   -0.64388E+04         0.33332E+04         0.00000E+00
    0.33332E+04        -0.19481E+04         0.00000E+00
    0.00000E+00         0.00000E+00        -0.25161E+04
 
   -0.60976E+04         0.35016E+04         0.00000E+00
    0.35016E+04        -0.22073E+04         0.00000E+00
    0.00000E+00         0.00000E+00        -0.24915E+04
 
   -0.57376E+04         0.36525E+04         0.00000E+00
    0.36525E+04        -0.24634E+04         0.00000E+00
    0.00000E+00         0.00000E+00        -0.24603E+04
 
   -0.53610E+04         0.37891E+04         0.00000E+00
    0.37891E+04        -0.27141E+04         0.00000E+00
    0.00000E+00         0.00000E+00        -0.24225E+04
 
   -0.49690E+04         0.39150E+04         0.00000E+00
    0.39150E+04        -0.29582E+04         0.00000E+00
    0.00000E+00         0.00000E+00        -0.23782E+04
 
   -0.45612E+04         0.40338E+04         0.00000E+00
    0.40338E+04        -0.31952E+04         0.00000E+00
    0.00000E+00         0.00000E+00        -0.23269E+04
 
   -0.41358E+04         0.41488E+04         0.00000E+00
    0.41488E+04        -0.34260E+04         0.00000E+00
    0.00000E+00         0.00000E+00        -0.22686E+04
 
   -0.36899E+04         0.42628E+04         0.00000E+00
    0.42628E+04        -0.36522E+04         0.00000E+00
    0.00000E+00         0.00000E+00        -0.22026E+04
 
   -0.32192E+04         0.43778E+04         0.00000E+00
    0.43778E+04        -0.38762E+04         0.00000E+00
    0.00000E+00         0.00000E+00        -0.21286E+04
 
   -0.27189E+04         0.44950E+04         0.00000E+00
    0.44950E+04        -0.41010E+04         0.00000E+00
    0.00000E+00         0.00000E+00        -0.20460E+04
 
   -0.21831E+04         0.46142E+04         0.00000E+00
    0.46142E+04        -0.43302E+04         0.00000E+00
    0.00000E+00         0.00000E+00        -0.19540E+04
 
   -0.71021E+04         0.86273E+02         0.00000E+00
    0.86273E+02        -0.26694E+01         0.00000E+00
    0.00000E+00         0.00000E+00        -0.21314E+04
 
   -0.72791E+04         0.27404E+03         0.00000E+00
    0.27404E+03        -0.16953E+02         0.00000E+00
    0.00000E+00         0.00000E+00        -0.21888E+04
 
   -0.74249E+04         0.48172E+03         0.00000E+00
    0.48172E+03        -0.47211E+02         0.00000E+00
    0.00000E+00         0.00000E+00        -0.22416E+04
 
   -0.75354E+04         0.70824E+03         0.00000E+00
    0.70824E+03        -0.96044E+02         0.00000E+00
    0.00000E+00         0.00000E+00        -0.22894E+04
 
   -0.76061E+04         0.95099E+03         0.00000E+00
    0.95099E+03        -0.16625E+03         0.00000E+00
    0.00000E+00         0.00000E+00        -0.23317E+04
 
   -0.76330E+04         0.12059E+04         0.00000E+00
    0.12059E+04        -0.26014E+03         0.00000E+00
    0.00000E+00         0.00000E+00        -0.23679E+04
 
   -0.76132E+04         0.14679E+04         0.00000E+00
    0.14679E+04        -0.37905E+03         0.00000E+00
    0.00000E+00         0.00000E+00        -0.23977E+04
 
   -0.75456E+04         0.17312E+04         0.00000E+00
    0.17312E+04        -0.52297E+03         0.00000E+00
    0.00000E+00         0.00000E+00        -0.24206E+04
 
   -0.74309E+04         0.19901E+04         0.00000E+00
    0.19901E+04        -0.69059E+03         0.00000E+00
    0.00000E+00         0.00000E+00        -0.24364E+04
 
   -0.72711E+04         0.22398E+04         0.00000E+00
    0.22398E+04        -0.87936E+03         0.00000E+00
    0.00000E+00         0.00000E+00        -0.24451E+04
 
   -0.70699E+04         0.24762E+04         0.00000E+00
    0.24762E+04        -0.10859E+04         0.00000E+00
    0.00000E+00         0.00000E+00        -0.24467E+04
 
   -0.68315E+04         0.26966E+04         0.00000E+00
    0.26966E+04        -0.13062E+04         0.00000E+00
    0.00000E+00         0.00000E+00        -0.24413E+04
 
   -0.65604E+04         0.28995E+04         0.00000E+00
    0.28995E+04        -0.15362E+04         0.00000E+00
    0.00000E+00         0.00000E+00        -0.24290E+04
 
   -0.62611E+04         0.30849E+04         0.00000E+00
    0.30849E+04        -0.17720E+04         0.00000E+00
    0.00000E+00         0.00000E+00        -0.24099E+04
 
   -0.59373E+04         0.32537E+04         0.00000E+00
    0.32537E+04        -0.20101E+04         0.00000E+00
    0.00000E+00         0.00000E+00        -0.23842E+04
 
   -0.55921E+04         0.34075E+04         0.00000E+00
    0.34075E+04        -0.22477E+04         0.00000E+00
    0.00000E+00         0.00000E+00        -0.23519E+04
 
   -0.52274E+04         0.35488E+04         0.00000E+00
    0.35488E+04        -0.24829E+04         0.00000E+00
    0.00000E+00         0.00000E+00        -0.23131E+04
 
   -0.48442E+04         0.36801E+04         0.00000E+00
    0.36801E+04        -0.27144E+04         0.00000E+00
    0.00000E+00         0.00000E+00        -0.22676E+04
 
   -0.44421E+04         0.38042E+04         0.00000E+00
    0.38042E+04        -0.29419E+04         0.00000E+00
    0.00000E+00         0.00000E+00        -0.22152E+04
 
   -0.40198E+04         0.39234E+04         0.00000E+00
    0.39234E+04        -0.31660E+04         0.00000E+00
    0.00000E+00         0.00000E+00        -0.21557E+04
 
   -0.35748E+04         0.40398E+04         0.00000E+00
    0.40398E+04        -0.33877E+04         0.00000E+00
    0.00000E+00         0.00000E+00        -0.20888E+04
 
   -0.31039E+04         0.41548E+04         0.00000E+00
    0.41548E+04        -0.36092E+04         0.00000E+00
    0.00000E+00         0.00000E+00        -0.20139E+04
 
   -0.26029E+04         0.42689E+04         0.00000E+00
    0.42689E+04        -0.38328E+04         0.00000E+00
    0.00000E+00         0.00000E+00        -0.19307E+04
 
   -0.20673E+04         0.43817E+04         0.00000E+00
    0.43817E+04        -0.40614E+04         0.00000E+00
    0.00000E+00         0.00000E+00        -0.18386E+04
 
   -0.69315E+04         0.79309E+02         0.00000E+00
    0.79309E+02        -0.26622E+01         0.00000E+00
    0.00000E+00         0.00000E+00        -0.20802E+04
 
   -0.70892E+04         0.25226E+03         0.00000E+00
    0.25226E+03        -0.16807E+02         0.00000E+00
    0.00000E+00         0.00000E+00        -0.21318E+04
 
   -0.72166E+04         0.44322E+03         0.00000E+00
    0.44322E+03        -0.46357E+02         0.00000E+00
    0.00000E+00         0.00000E+00        -0.21789E+04
 
   -0.73106E+04         0.65064E+03         0.00000E+00
    0.65064E+03        -0.93154E+02         0.00000E+00
    0.00000E+00         0.00000E+00        -0.22211E+04
 
   -0.73679E+04         0.87206E+03         0.00000E+00
    0.87206E+03        -0.15916E+03         0.00000E+00
    0.00000E+00         0.00000E+00        -0.22581E+04
 
   -0.73857E+04         0.11041E+04         0.00000E+00
    0.11041E+04        -0.24598E+03         0.00000E+00
    0.00000E+00         0.00000E+00        -0.22895E+04
 
   -0.73618E+04         0.13425E+04         0.00000E+00
    0.13425E+04        -0.35456E+03         0.00000E+00
    0.00000E+00         0.00000E+00        -0.23149E+04
 
   -0.72951E+04         0.15829E+04         0.00000E+00
    0.15829E+04        -0.48486E+03         0.00000E+00
    0.00000E+00         0.00000E+00        -0.23340E+04
 
   -0.71861E+04         0.18207E+04         0.00000E+00
    0.18207E+04        -0.63588E+03         0.00000E+00
    0.00000E+00         0.00000E+00        -0.23466E+04
 
   -0.70363E+04         0.20518E+04         0.00000E+00
    0.20518E+04        -0.80572E+03         0.00000E+00
    0.00000E+00         0.00000E+00        -0.23526E+04
 
   -0.68480E+04         0.22729E+04         0.00000E+00
    0.22729E+04        -0.99173E+03         0.00000E+00
    0.00000E+00         0.00000E+00        -0.23519E+04
 
   -0.66246E+04         0.24817E+04         0.00000E+00
    0.24817E+04        -0.11909E+04         0.00000E+00
    0.00000E+00         0.00000E+00        -0.23446E+04
 
   -0.63694E+04         0.26766E+04         0.00000E+00
    0.26766E+04        -0.13998E+04         0.00000E+00
    0.00000E+00         0.00000E+00        -0.23308E+04
 
   -0.60856E+04         0.28574E+04         0.00000E+00
    0.28574E+04        -0.16156E+04         0.00000E+00
    0.00000E+00         0.00000E+00        -0.23104E+04
 
   -0.57764E+04         0.30244E+04         0.00000E+00
    0.30244E+04        -0.18352E+04         0.00000E+00
    0.00000E+00         0.00000E+00        -0.22835E+04
 
   -0.54440E+04         0.31786E+04         0.00000E+00
    0.31786E+04        -0.20565E+04         0.00000E+00
    0.00000E+00         0.00000E+00        -0.22502E+04
 
   -0.50901E+04         0.33219E+04         0.00000E+00
    0.33219E+04        -0.22776E+04         0.00000E+00
    0.00000E+00         0.00000E+00        -0.22103E+04
 
   -0.47153E+04         0.34559E+04         0.00000E+00
    0.34559E+04        -0.24975E+04         0.00000E+00
    0.00000E+00         0.00000E+00        -0.21638E+04
 
   -0.43195E+04         0.35826E+04         0.00000E+00
    0.35826E+04        -0.27158E+04         0.00000E+00
    0.00000E+00         0.00000E+00        -0.21106E+04
 
   -0.39014E+04         0.37037E+04         0.00000E+00
    0.37037E+04        -0.29330E+04         0.00000E+00
    0.00000E+00         0.00000E+00        -0.20503E+04
 
   -0.34594E+04         0.38206E+04         0.00000E+00
    0.38206E+04        -0.31499E+04         0.00000E+00
    0.00000E+00         0.00000E+00        -0.19828E+04
 
   -0.29906E+04         0.39341E+04         0.00000E+00
    0.39341E+04        -0.33680E+04         0.00000E+00
    0.00000E+00         0.00000E+00        -0.19076E+04
 
   -0.24919E+04         0.40443E+04         0.00000E+00
    0.40443E+04        -0.35892E+04         0.00000E+00
    0.00000E+00         0.00000E+00        -0.18243E+04
 
   -0.19597E+04         0.41505E+04         0.00000E+00
    0.41505E+04        -0.38159E+04         0.00000E+00
    0.00000E+00         0.00000E+00        -0.17327E+04
 
   -0.67748E+04         0.72512E+02         0.00000E+00
    0.72512E+02        -0.25588E+01         0.00000E+00
    0.00000E+00         0.00000E+00        -0.20332E+04
 
   -0.69146E+04         0.23113E+03         0.00000E+00
    0.23113E+03        -0.16130E+02         0.00000E+00
    0.00000E+00         0.00000E+00        -0.20792E+04
 
   -0.70255E+04         0.40632E+03         0.00000E+00
    0.40632E+03        -0.44303E+02         0.00000E+00
    0.00000E+00         0.00000E+00        -0.21209E+04
 
   -0.71050E+04         0.59629E+03         0.00000E+00
    0.59629E+03        -0.88452E+02         0.00000E+00
    0.00000E+00         0.00000E+00        -0.21580E+04
 
   -0.71507E+04         0.79868E+03         0.00000E+00
    0.79868E+03        -0.14999E+03         0.00000E+00
    0.00000E+00         0.00000E+00        -0.21902E+04
 
   -0.71603E+04         0.10106E+04         0.00000E+00
    0.10106E+04        -0.23006E+03         0.00000E+00
    0.00000E+00         0.00000E+00        -0.22171E+04
 
   -0.71322E+04         0.12285E+04         0.00000E+00
    0.12285E+04        -0.32931E+03         0.00000E+00
    0.00000E+00         0.00000E+00        -0.22384E+04
 
   -0.70654E+04         0.14488E+04         0.00000E+00
    0.14488E+04        -0.44770E+03         0.00000E+00
    0.00000E+00         0.00000E+00        -0.22539E+04
 
   -0.69602E+04         0.16678E+04         0.00000E+00
    0.16678E+04        -0.58445E+03         0.00000E+00
    0.00000E+00         0.00000E+00        -0.22634E+04
 
   -0.68176E+04         0.18821E+04         0.00000E+00
    0.18821E+04        -0.73809E+03         0.00000E+00
    0.00000E+00         0.00000E+00        -0.22667E+04
 
   -0.66393E+04         0.20891E+04         0.00000E+00
    0.20891E+04        -0.90661E+03         0.00000E+00
    0.00000E+00         0.00000E+00        -0.22638E+04
 
   -0.64276E+04         0.22865E+04         0.00000E+00
    0.22865E+04        -0.10876E+04         0.00000E+00
    0.00000E+00         0.00000E+00        -0.22546E+04
 
   -0.61850E+04         0.24730E+04         0.00000E+00
    0.24730E+04        -0.12785E+04         0.00000E+00
    0.00000E+00         0.00000E+00        -0.22391E+04
 
   -0.59141E+04         0.26479E+04         0.00000E+00
    0.26479E+04        -0.14769E+04         0.00000E+00
    0.00000E+00         0.00000E+00        -0.22173E+04
 
   -0.56171E+04         0.28115E+04         0.00000E+00
    0.28115E+04        -0.16803E+04         0.00000E+00
    0.00000E+00         0.00000E+00        -0.21892E+04
 
   -0.52958E+04         0.29643E+04         0.00000E+00
    0.29643E+04        -0.18870E+04         0.00000E+00
    0.00000E+00         0.00000E+00        -0.21548E+04
 
   -0.49515E+04         0.31072E+04         0.00000E+00
    0.31072E+04        -0.20954E+04         0.00000E+00
    0.00000E+00         0.00000E+00        -0.21141E+04
 
   -0.45848E+04         0.32417E+04         0.00000E+00
    0.32417E+04        -0.23046E+04         0.00000E+00
    0.00000E+00         0.00000E+00        -0.20668E+04
 
   -0.41955E+04         0.33688E+04         0.00000E+00
    0.33688E+04        -0.25143E+04         0.00000E+00
    0.00000E+00         0.00000E+00        -0.20129E+04
 
   -0.37828E+04         0.34899E+04         0.00000E+00
    0.34899E+04        -0.27246E+04         0.00000E+00
    0.00000E+00         0.00000E+00        -0.19522E+04
 
   -0.33451E+04         0.36056E+04         0.00000E+00
    0.36056E+04        -0.29363E+04         0.00000E+00
    0.00000E+00         0.00000E+00        -0.18844E+04
 
   -0.28805E+04         0.37165E+04         0.00000E+00
    0.37165E+04        -0.31504E+04         0.00000E+00
    0.00000E+00         0.00000E+00        -0.18093E+04
 
   -0.23863E+04         0.38222E+04         0.00000E+00
    0.38222E+04        -0.33684E+04         0.00000E+00
    0.00000E+00         0.00000E+00        -0.17264E+04
 
   -0.18598E+04         0.39218E+04         0.00000E+00
    0.39218E+04        -0.35921E+04         0.00000E+00
    0.00000E+00         0.00000E+00        -0.16356E+04
 
   -0.66317E+04         0.66064E+02         0.00000E+00
    0.66064E+02        -0.24026E+01         0.00000E+00
    0.00000E+00         0.00000E+00        -0.19902E+04
 
   -0.67547E+04         0.21109E+03         0.00000E+00
    0.21109E+03        -0.15160E+02         0.00000E+00
    0.00000E+00         0.00000E+00        -0.20309E+04
 
   -0.68504E+04         0.37155E+03         0.00000E+00
    0.37155E+03        -0.41591E+02         0.00000E+00
    0.00000E+00         0.00000E+00        -0.20676E+04
 
   -0.69169E+04         0.54553E+03         0.00000E+00
    0.54553E+03        -0.82789E+02         0.00000E+00
    0.00000E+00         0.00000E+00        -0.20999E+04
 
   -0.69521E+04         0.73078E+03         0.00000E+00
    0.73078E+03        -0.13982E+03         0.00000E+00
    0.00000E+00         0.00000E+00        -0.21276E+04
 
   -0.69542E+04         0.92472E+03         0.00000E+00
    0.92472E+03        -0.21352E+03         0.00000E+00
    0.00000E+00         0.00000E+00        -0.21503E+04
 
   -0.69218E+04         0.11244E+04         0.00000E+00
    0.11244E+04        -0.30436E+03         0.00000E+00
    0.00000E+00         0.00000E+00        -0.21678E+04
 
   -0.68542E+04         0.13269E+04         0.00000E+00
    0.13269E+04        -0.41228E+03         0.00000E+00
    0.00000E+00         0.00000E+00        -0.21799E+04
 
   -0.67513E+04         0.15291E+04         0.00000E+00
    0.15291E+04        -0.53668E+03         0.00000E+00
    0.00000E+00         0.00000E+00        -0.21864E+04
 
   -0.66139E+04         0.17282E+04         0.00000E+00
    0.17282E+04        -0.67643E+03         0.00000E+00
    0.00000E+00         0.00000E+00        -0.21871E+04
 
   -0.64431E+04         0.19218E+04         0.00000E+00
    0.19218E+04        -0.82996E+03         0.00000E+00
    0.00000E+00         0.00000E+00        -0.21819E+04
 
   -0.62405E+04         0.21082E+04         0.00000E+00
    0.21082E+04        -0.99541E+03         0.00000E+00
    0.00000E+00         0.00000E+00        -0.21708E+04
 
   -0.60081E+04         0.22859E+04         0.00000E+00
    0.22859E+04        -0.11708E+04         0.00000E+00
    0.00000E+00         0.00000E+00        -0.21536E+04
 
   -0.57476E+04         0.24542E+04         0.00000E+00
    0.24542E+04        -0.13540E+04         0.00000E+00
    0.00000E+00         0.00000E+00        -0.21305E+04
 
   -0.54609E+04         0.26131E+04         0.00000E+00
    0.26131E+04        -0.15433E+04         0.00000E+00
    0.00000E+00         0.00000E+00        -0.21013E+04
 
   -0.51492E+04         0.27628E+04         0.00000E+00
    0.27628E+04        -0.17371E+04         0.00000E+00
    0.00000E+00         0.00000E+00        -0.20659E+04
 
   -0.48137E+04         0.29037E+04         0.00000E+00
    0.29037E+04        -0.19341E+04         0.00000E+00
    0.00000E+00         0.00000E+00        -0.20243E+04
 
   -0.44547E+04         0.30368E+04         0.00000E+00
    0.30368E+04        -0.21335E+04         0.00000E+00
    0.00000E+00         0.00000E+00        -0.19764E+04
 
   -0.40721E+04         0.31627E+04         0.00000E+00
    0.31627E+04        -0.23350E+04         0.00000E+00
    0.00000E+00         0.00000E+00        -0.19221E+04
 
   -0.36654E+04         0.32821E+04         0.00000E+00
    0.32821E+04        -0.25386E+04         0.00000E+00
    0.00000E+00         0.00000E+00        -0.18612E+04
 
   -0.32333E+04         0.33954E+04         0.00000E+00
    0.33954E+04        -0.27448E+04         0.00000E+00
    0.00000E+00         0.00000E+00        -0.17934E+04
 
   -0.27742E+04         0.35027E+04         0.00000E+00
    0.35027E+04        -0.29544E+04         0.00000E+00
    0.00000E+00         0.00000E+00        -0.17186E+04
 
   -0.22864E+04         0.36034E+04         0.00000E+00
    0.36034E+04        -0.31686E+04         0.00000E+00
    0.00000E+00         0.00000E+00        -0.16365E+04
 
   -0.17676E+04         0.36965E+04         0.00000E+00
    0.36965E+04        -0.33886E+04         0.00000E+00
    0.00000E+00         0.00000E+00        -0.15469E+04
 
   -0.65012E+04         0.60059E+02         0.00000E+00
    0.60059E+02        -0.22221E+01         0.00000E+00
    0.00000E+00         0.00000E+00        -0.19510E+04
 
   -0.66083E+04         0.19239E+03         0.00000E+00
    0.19239E+03        -0.14055E+02         0.00000E+00
    0.00000E+00         0.00000E+00        -0.19867E+04
 
   -0.66901E+04         0.33916E+03         0.00000E+00
    0.33916E+03        -0.38588E+02         0.00000E+00
    0.00000E+00         0.00000E+00        -0.20186E+04
 
   -0.67447E+04         0.49845E+03         0.00000E+00
    0.49845E+03        -0.76754E+02         0.00000E+00
    0.00000E+00         0.00000E+00        -0.20464E+04
 
   -0.67702E+04         0.66815E+03         0.00000E+00
    0.66815E+03        -0.12940E+03         0.00000E+00
    0.00000E+00         0.00000E+00        -0.20699E+04
 
   -0.67652E+04         0.84595E+03         0.00000E+00
    0.84595E+03        -0.19719E+03         0.00000E+00
    0.00000E+00         0.00000E+00        -0.20887E+04
 
   -0.67285E+04         0.10293E+04         0.00000E+00
    0.10293E+04        -0.28045E+03         0.00000E+00
    0.00000E+00         0.00000E+00        -0.21027E+04
 
   -0.66594E+04         0.12158E+04         0.00000E+00
    0.12158E+04        -0.37915E+03         0.00000E+00
    0.00000E+00         0.00000E+00        -0.21116E+04
 
   -0.65578E+04         0.14027E+04         0.00000E+00
    0.14027E+04        -0.49282E+03         0.00000E+00
    0.00000E+00         0.00000E+00        -0.21152E+04
 
   -0.64240E+04         0.15877E+04         0.00000E+00
    0.15877E+04        -0.62059E+03         0.00000E+00
    0.00000E+00         0.00000E+00        -0.21134E+04
 
   -0.62588E+04         0.17688E+04         0.00000E+00
    0.17688E+04        -0.76124E+03         0.00000E+00
    0.00000E+00         0.00000E+00        -0.21060E+04
 
   -0.60633E+04         0.19444E+04         0.00000E+00
    0.19444E+04        -0.91331E+03         0.00000E+00
    0.00000E+00         0.00000E+00        -0.20930E+04
 
   -0.58390E+04         0.21131E+04         0.00000E+00
    0.21131E+04        -0.10752E+04         0.00000E+00
    0.00000E+00         0.00000E+00        -0.20743E+04
 
   -0.55871E+04         0.22743E+04         0.00000E+00
    0.22743E+04        -0.12454E+04         0.00000E+00
    0.00000E+00         0.00000E+00        -0.20498E+04
 
   -0.53091E+04         0.24275E+04         0.00000E+00
    0.24275E+04        -0.14223E+04         0.00000E+00
    0.00000E+00         0.00000E+00        -0.20194E+04
 
   -0.50059E+04         0.25728E+04         0.00000E+00
    0.25728E+04        -0.16046E+04         0.00000E+00
    0.00000E+00         0.00000E+00        -0.19831E+04
 
   -0.46782E+04         0.27104E+04         0.00000E+00
    0.27104E+04        -0.17913E+04         0.00000E+00
    0.00000E+00         0.00000E+00        -0.19409E+04
 
   -0.43266E+04         0.28406E+04         0.00000E+00
    0.28406E+04        -0.19817E+04         0.00000E+00
    0.00000E+00         0.00000E+00        -0.18925E+04
 
   -0.39508E+04         0.29638E+04         0.00000E+00
    0.29638E+04        -0.21755E+04         0.00000E+00
    0.00000E+00         0.00000E+00        -0.18379E+04
 
   -0.35505E+04         0.30803E+04         0.00000E+00
    0.30803E+04        -0.23726E+04         0.00000E+00
    0.00000E+00         0.00000E+00        -0.17769E+04
 
   -0.31248E+04         0.31902E+04         0.00000E+00
    0.31902E+04        -0.25733E+04         0.00000E+00
    0.00000E+00         0.00000E+00        -0.17094E+04
 
   -0.26725E+04         0.32932E+04         0.00000E+00
    0.32932E+04        -0.27782E+04         0.00000E+00
    0.00000E+00         0.00000E+00        -0.16352E+04
 
   -0.21923E+04         0.33886E+04         0.00000E+00
    0.33886E+04        -0.29881E+04         0.00000E+00
    0.00000E+00         0.00000E+00        -0.15541E+04
 
   -0.16825E+04         0.34752E+04         0.00000E+00
    0.34752E+04        -0.32039E+04         0.00000E+00
    0.00000E+00         0.00000E+00        -0.14659E+04
 
   -0.63825E+04         0.54530E+02         0.00000E+00
    0.54530E+02        -0.20362E+01         0.00000E+00
    0.00000E+00         0.00000E+00        -0.19154E+04
 
   -0.64747E+04         0.17510E+03         0.00000E+00
    0.17510E+03        -0.12921E+02         0.00000E+00
    0.00000E+00         0.00000E+00        -0.19463E+04
 
   -0.65435E+04         0.30921E+03         0.00000E+00
    0.30921E+03        -0.35542E+02         0.00000E+00
    0.00000E+00         0.00000E+00        -0.19737E+04
 
   -0.65869E+04         0.45498E+03         0.00000E+00
    0.45498E+03        -0.70742E+02         0.00000E+00
    0.00000E+00         0.00000E+00        -0.19973E+04
 
   -0.66035E+04         0.61047E+03         0.00000E+00
    0.61047E+03        -0.11925E+03         0.00000E+00
    0.00000E+00         0.00000E+00        -0.20168E+04
 
   -0.65918E+04         0.77359E+03         0.00000E+00
    0.77359E+03        -0.18159E+03         0.00000E+00
    0.00000E+00         0.00000E+00        -0.20320E+04
 
   -0.65508E+04         0.94216E+03         0.00000E+00
    0.94216E+03        -0.25807E+03         0.00000E+00
    0.00000E+00         0.00000E+00        -0.20427E+04
 
   -0.64797E+04         0.11140E+04         0.00000E+00
    0.11140E+04        -0.34864E+03         0.00000E+00
    0.00000E+00         0.00000E+00        -0.20485E+04
 
   -0.63784E+04         0.12869E+04         0.00000E+00
    0.12869E+04        -0.45296E+03         0.00000E+00
    0.00000E+00         0.00000E+00        -0.20494E+04
 
   -0.62470E+04         0.14588E+04         0.00000E+00
    0.14588E+04        -0.57036E+03         0.00000E+00
    0.00000E+00         0.00000E+00        -0.20452E+04
 
   -0.60859E+04         0.16281E+04         0.00000E+00
    0.16281E+04        -0.69990E+03         0.00000E+00
    0.00000E+00         0.00000E+00        -0.20357E+04
 
   -0.58960E+04         0.17931E+04         0.00000E+00
    0.17931E+04        -0.84044E+03         0.00000E+00
    0.00000E+00         0.00000E+00        -0.20209E+04
 
   -0.56781E+04         0.19528E+04         0.00000E+00
    0.19528E+04        -0.99073E+03         0.00000E+00
    0.00000E+00         0.00000E+00        -0.20007E+04
 
   -0.54334E+04         0.21063E+04         0.00000E+00
    0.21063E+04        -0.11495E+04         0.00000E+00
    0.00000E+00         0.00000E+00        -0.19749E+04
 
   -0.51627E+04         0.22531E+04         0.00000E+00
    0.22531E+04        -0.13155E+04         0.00000E+00
    0.00000E+00         0.00000E+00        -0.19435E+04
 
   -0.48669E+04         0.23931E+04         0.00000E+00
    0.23931E+04        -0.14877E+04         0.00000E+00
    0.00000E+00         0.00000E+00        -0.19064E+04
 
   -0.45465E+04         0.25261E+04         0.00000E+00
    0.25261E+04        -0.16652E+04         0.00000E+00
    0.00000E+00         0.00000E+00        -0.18635E+04
 
   -0.42018E+04         0.26523E+04         0.00000E+00
    0.26523E+04        -0.18474E+04         0.00000E+00
    0.00000E+00         0.00000E+00        -0.18148E+04
 
   -0.38328E+04         0.27718E+04         0.00000E+00
    0.27718E+04        -0.20340E+04         0.00000E+00
    0.00000E+00         0.00000E+00        -0.17600E+04
 
   -0.34393E+04         0.28844E+04         0.00000E+00
    0.28844E+04        -0.22248E+04         0.00000E+00
    0.00000E+00         0.00000E+00        -0.16992E+04
 
   -0.30205E+04         0.29901E+04         0.00000E+00
    0.29901E+04        -0.24201E+04         0.00000E+00
    0.00000E+00         0.00000E+00        -0.16322E+04
 
   -0.25758E+04         0.30883E+04         0.00000E+00
    0.30883E+04        -0.26201E+04         0.00000E+00
    0.00000E+00         0.00000E+00        -0.15588E+04
 
   -0.21041E+04         0.31782E+04         0.00000E+00
    0.31782E+04        -0.28254E+04         0.00000E+00
    0.00000E+00         0.00000E+00        -0.14788E+04
 
   -0.16043E+04         0.32585E+04         0.00000E+00
    0.32585E+04        -0.30366E+04         0.00000E+00
    0.00000E+00         0.00000E+00        -0.13923E+04
 
   -0.62746E+04         0.49474E+02         0.00000E+00
    0.49474E+02        -0.18563E+01         0.00000E+00
    0.00000E+00         0.00000E+00        -0.18829E+04
 
   -0.63529E+04         0.15921E+03         0.00000E+00
    0.15921E+03        -0.11823E+02         0.00000E+00
    0.00000E+00         0.00000E+00        -0.19094E+04
 
   -0.64094E+04         0.28162E+03         0.00000E+00
    0.28162E+03        -0.32607E+02         0.00000E+00
    0.00000E+00         0.00000E+00        -0.19326E+04
 
   -0.64425E+04         0.41494E+03         0.00000E+00
    0.41494E+03        -0.65005E+02         0.00000E+00
    0.00000E+00         0.00000E+00        -0.19523E+04
 
   -0.64507E+04         0.55737E+03         0.00000E+00
    0.55737E+03        -0.10967E+03         0.00000E+00
    0.00000E+00         0.00000E+00        -0.19681E+04
 
   -0.64325E+04         0.70703E+03         0.00000E+00
    0.70703E+03        -0.16708E+03         0.00000E+00
    0.00000E+00         0.00000E+00        -0.19799E+04
 
   -0.63872E+04         0.86202E+03         0.00000E+00
    0.86202E+03        -0.23749E+03         0.00000E+00
    0.00000E+00         0.00000E+00        -0.19874E+04
 
   -0.63138E+04         0.10204E+04         0.00000E+00
    0.10204E+04        -0.32091E+03         0.00000E+00
    0.00000E+00         0.00000E+00        -0.19904E+04
 
   -0.62121E+04         0.11803E+04         0.00000E+00
    0.11803E+04        -0.41708E+03         0.00000E+00
    0.00000E+00         0.00000E+00        -0.19888E+04
 
   -0.60821E+04         0.13400E+04         0.00000E+00
    0.13400E+04        -0.52550E+03         0.00000E+00
    0.00000E+00         0.00000E+00        -0.19823E+04
 
   -0.59240E+04         0.14979E+04         0.00000E+00
    0.14979E+04        -0.64544E+03         0.00000E+00
    0.00000E+00         0.00000E+00        -0.19708E+04
 
   -0.57384E+04         0.16527E+04         0.00000E+00
    0.16527E+04        -0.77600E+03         0.00000E+00
    0.00000E+00         0.00000E+00        -0.19543E+04
 
   -0.55257E+04         0.18032E+04         0.00000E+00
    0.18032E+04        -0.91621E+03         0.00000E+00
    0.00000E+00         0.00000E+00        -0.19326E+04
 
   -0.52869E+04         0.19487E+04         0.00000E+00
    0.19487E+04        -0.10650E+04         0.00000E+00
    0.00000E+00         0.00000E+00        -0.19056E+04
 
   -0.50225E+04         0.20886E+04         0.00000E+00
    0.20886E+04        -0.12215E+04         0.00000E+00
    0.00000E+00         0.00000E+00        -0.18732E+04
 
   -0.47332E+04         0.22225E+04         0.00000E+00
    0.22225E+04        -0.13847E+04         0.00000E+00
    0.00000E+00         0.00000E+00        -0.18354E+04
 
   -0.44193E+04         0.23502E+04         0.00000E+00
    0.23502E+04        -0.15540E+04         0.00000E+00
    0.00000E+00         0.00000E+00        -0.17920E+04
 
   -0.40813E+04         0.24715E+04         0.00000E+00
    0.24715E+04        -0.17287E+04         0.00000E+00
    0.00000E+00         0.00000E+00        -0.17430E+04
 
   -0.37190E+04         0.25863E+04         0.00000E+00
    0.25863E+04        -0.19086E+04         0.00000E+00
    0.00000E+00         0.00000E+00        -0.16883E+04
 
   -0.33324E+04         0.26943E+04         0.00000E+00
    0.26943E+04        -0.20935E+04         0.00000E+00
    0.00000E+00         0.00000E+00        -0.16277E+04
 
   -0.29210E+04         0.27951E+04         0.00000E+00
    0.27951E+04        -0.22833E+04         0.00000E+00
    0.00000E+00         0.00000E+00        -0.15613E+04
 
   -0.24843E+04         0.28882E+04         0.00000E+00
    0.28882E+04        -0.24784E+04         0.00000E+00
    0.00000E+00         0.00000E+00        -0.14888E+04
 
   -0.20217E+04         0.29724E+04         0.00000E+00
    0.29724E+04        -0.26789E+04         0.00000E+00
    0.00000E+00         0.00000E+00        -0.14102E+04
 
   -0.15326E+04         0.30466E+04         0.00000E+00
    0.30466E+04        -0.28853E+04         0.00000E+00
    0.00000E+00         0.00000E+00        -0.13254E+04
 
   -0.61767E+04         0.44868E+02         0.00000E+00
    0.44868E+02        -0.16894E+01         0.00000E+00
    0.00000E+00         0.00000E+00        -0.18535E+04
 
   -0.62418E+04         0.14466E+03         0.00000E+00
    0.14466E+03        -0.10802E+02         0.00000E+00
    0.00000E+00         0.00000E+00        -0.18758E+04
 
   -0.62870E+04         0.25627E+03         0.00000E+00
    0.25627E+03        -0.29879E+02         0.00000E+00
    0.00000E+00         0.00000E+00        -0.18951E+04
 
   -0.63104E+04         0.37808E+03         0.00000E+00
    0.37808E+03        -0.59694E+02         0.00000E+00
    0.00000E+00         0.00000E+00        -0.19110E+04
 
   -0.63106E+04         0.50844E+03         0.00000E+00
    0.50844E+03        -0.10087E+03         0.00000E+00
    0.00000E+00         0.00000E+00        -0.19234E+04
 
   -0.62863E+04         0.64568E+03         0.00000E+00
    0.64568E+03        -0.15384E+03         0.00000E+00
    0.00000E+00         0.00000E+00        -0.19320E+04
 
   -0.62366E+04         0.78810E+03         0.00000E+00
    0.78810E+03        -0.21887E+03         0.00000E+00
    0.00000E+00         0.00000E+00        -0.19366E+04
 
   -0.61607E+04         0.93401E+03         0.00000E+00
    0.93401E+03        -0.29601E+03         0.00000E+00
    0.00000E+00         0.00000E+00        -0.19370E+04
 
   -0.60581E+04         0.10818E+04         0.00000E+00
    0.10818E+04        -0.38507E+03         0.00000E+00
    0.00000E+00         0.00000E+00        -0.19330E+04
 
   -0.59288E+04         0.12299E+04         0.00000E+00
    0.12299E+04        -0.48569E+03         0.00000E+00
    0.00000E+00         0.00000E+00        -0.19244E+04
 
   -0.57728E+04         0.13769E+04         0.00000E+00
    0.13769E+04        -0.59731E+03         0.00000E+00
    0.00000E+00         0.00000E+00        -0.19110E+04
 
   -0.55904E+04         0.15216E+04         0.00000E+00
    0.15216E+04        -0.71923E+03         0.00000E+00
    0.00000E+00         0.00000E+00        -0.18929E+04
 
   -0.53819E+04         0.16630E+04         0.00000E+00
    0.16630E+04        -0.85069E+03         0.00000E+00
    0.00000E+00         0.00000E+00        -0.18698E+04
 
   -0.51480E+04         0.18003E+04         0.00000E+00
    0.18003E+04        -0.99086E+03         0.00000E+00
    0.00000E+00         0.00000E+00        -0.18417E+04
 
   -0.48890E+04         0.19328E+04         0.00000E+00
    0.19328E+04        -0.11390E+04         0.00000E+00
    0.00000E+00         0.00000E+00        -0.18084E+04
 
   -0.46055E+04         0.20601E+04         0.00000E+00
    0.20601E+04        -0.12942E+04         0.00000E+00
    0.00000E+00         0.00000E+00        -0.17699E+04
 
   -0.42977E+04         0.21818E+04         0.00000E+00
    0.21818E+04        -0.14561E+04         0.00000E+00
    0.00000E+00         0.00000E+00        -0.17261E+04
 
   -0.39659E+04         0.22975E+04         0.00000E+00
    0.22975E+04        -0.16240E+04         0.00000E+00
    0.00000E+00         0.00000E+00        -0.16770E+04
 
   -0.36102E+04         0.24070E+04         0.00000E+00
    0.24070E+04        -0.17976E+04         0.00000E+00
    0.00000E+00         0.00000E+00        -0.16224E+04
 
   -0.32305E+04         0.25097E+04         0.00000E+00
    0.25097E+04        -0.19768E+04         0.00000E+00
    0.00000E+00         0.00000E+00        -0.15622E+04
 
   -0.28266E+04         0.26053E+04         0.00000E+00
    0.26053E+04        -0.21614E+04         0.00000E+00
    0.00000E+00         0.00000E+00        -0.14964E+04
 
   -0.23983E+04         0.26928E+04         0.00000E+00
    0.26928E+04        -0.23516E+04         0.00000E+00
    0.00000E+00         0.00000E+00        -0.14250E+04
 
   -0.19452E+04         0.27714E+04         0.00000E+00
    0.27714E+04        -0.25473E+04         0.00000E+00
    0.00000E+00         0.00000E+00        -0.13477E+04
 
   -0.14671E+04         0.28397E+04         0.00000E+00
    0.28397E+04        -0.27487E+04         0.00000E+00
    0.00000E+00         0.00000E+00        -0.12647E+04
 
   -0.60878E+04         0.40671E+02         0.00000E+00
    0.40671E+02        -0.15390E+01         0.00000E+00
    0.00000E+00         0.00000E+00        -0.18268E+04
 
   -0.61408E+04         0.13132E+03         0.00000E+00
    0.13132E+03        -0.98779E+01         0.00000E+00
    0.00000E+00         0.00000E+00        -0.18452E+04
 
   -0.61753E+04         0.23295E+03         0.00000E+00
    0.23295E+03        -0.27408E+02         0.00000E+00
    0.00000E+00         0.00000E+00        -0.18608E+04
 
   -0.61896E+04         0.34410E+03         0.00000E+00
    0.34410E+03        -0.54889E+02         0.00000E+00
    0.00000E+00         0.00000E+00        -0.18733E+04
 
   -0.61823E+04         0.46326E+03         0.00000E+00
    0.46326E+03        -0.92925E+02         0.00000E+00
    0.00000E+00         0.00000E+00        -0.18826E+04
 
   -0.61521E+04         0.58895E+03         0.00000E+00
    0.58895E+03        -0.14195E+03         0.00000E+00
    0.00000E+00         0.00000E+00        -0.18882E+04
 
   -0.60981E+04         0.71966E+03         0.00000E+00
    0.71966E+03        -0.20224E+03         0.00000E+00
    0.00000E+00         0.00000E+00        -0.18901E+04
 
   -0.60195E+04         0.85390E+03         0.00000E+00
    0.85390E+03        -0.27386E+03         0.00000E+00
    0.00000E+00         0.00000E+00        -0.18880E+04
 
   -0.59157E+04         0.99022E+03         0.00000E+00
    0.99022E+03        -0.35673E+03         0.00000E+00
    0.00000E+00         0.00000E+00        -0.18817E+04
 
   -0.57865E+04         0.11273E+04         0.00000E+00
    0.11273E+04        -0.45058E+03         0.00000E+00
    0.00000E+00         0.00000E+00        -0.18711E+04
 
   -0.56319E+04         0.12638E+04         0.00000E+00
    0.12638E+04        -0.55499E+03         0.00000E+00
    0.00000E+00         0.00000E+00        -0.18561E+04
 
   -0.54519E+04         0.13987E+04         0.00000E+00
    0.13987E+04        -0.66943E+03         0.00000E+00
    0.00000E+00         0.00000E+00        -0.18364E+04
 
   -0.52469E+04         0.15310E+04         0.00000E+00
    0.15310E+04        -0.79328E+03         0.00000E+00
    0.00000E+00         0.00000E+00        -0.18120E+04
 
   -0.50170E+04         0.16599E+04         0.00000E+00
    0.16599E+04        -0.92589E+03         0.00000E+00
    0.00000E+00         0.00000E+00        -0.17829E+04
 
   -0.47627E+04         0.17848E+04         0.00000E+00
    0.17848E+04        -0.10666E+04         0.00000E+00
    0.00000E+00         0.00000E+00        -0.17488E+04
 
   -0.44843E+04         0.19050E+04         0.00000E+00
    0.19050E+04        -0.12148E+04         0.00000E+00
    0.00000E+00         0.00000E+00        -0.17098E+04
 
   -0.41821E+04         0.20201E+04         0.00000E+00
    0.20201E+04        -0.13700E+04         0.00000E+00
    0.00000E+00         0.00000E+00        -0.16656E+04
 
   -0.38562E+04         0.21297E+04         0.00000E+00
    0.21297E+04        -0.15318E+04         0.00000E+00
    0.00000E+00         0.00000E+00        -0.16164E+04
 
   -0.35069E+04         0.22333E+04         0.00000E+00
    0.22333E+04        -0.16996E+04         0.00000E+00
    0.00000E+00         0.00000E+00        -0.15620E+04
 
   -0.31340E+04         0.23304E+04         0.00000E+00
    0.23304E+04        -0.18735E+04         0.00000E+00
    0.00000E+00         0.00000E+00        -0.15023E+04
 
   -0.27377E+04         0.24204E+04         0.00000E+00
    0.24204E+04        -0.20531E+04         0.00000E+00
    0.00000E+00         0.00000E+00        -0.14372E+04
 
   -0.23179E+04         0.25024E+04         0.00000E+00
    0.25024E+04        -0.22383E+04         0.00000E+00
    0.00000E+00         0.00000E+00        -0.13669E+04
 
   -0.18744E+04         0.25753E+04         0.00000E+00
    0.25753E+04        -0.24293E+04         0.00000E+00
    0.00000E+00         0.00000E+00        -0.12911E+04
 
   -0.14074E+04         0.26380E+04         0.00000E+00
    0.26380E+04        -0.26258E+04         0.00000E+00
    0.00000E+00         0.00000E+00        -0.12100E+04
 
   -0.60072E+04         0.36839E+02         0.00000E+00
    0.36839E+02        -0.14067E+01         0.00000E+00
    0.00000E+00         0.00000E+00        -0.18026E+04
 
   -0.60489E+04         0.11908E+03         0.00000E+00
    0.11908E+03        -0.90605E+01         0.00000E+00
    0.00000E+00         0.00000E+00        -0.18174E+04
 
   -0.60736E+04         0.21147E+03         0.00000E+00
    0.21147E+03        -0.25215E+02         0.00000E+00
    0.00000E+00         0.00000E+00        -0.18296E+04
 
   -0.60794E+04         0.31269E+03         0.00000E+00
    0.31269E+03        -0.50622E+02         0.00000E+00
    0.00000E+00         0.00000E+00        -0.18390E+04
 
   -0.60651E+04         0.42142E+03         0.00000E+00
    0.42142E+03        -0.85877E+02         0.00000E+00
    0.00000E+00         0.00000E+00        -0.18453E+04
 
   -0.60293E+04         0.53631E+03         0.00000E+00
    0.53631E+03        -0.13142E+03         0.00000E+00
    0.00000E+00         0.00000E+00        -0.18482E+04
 
   -0.59710E+04         0.65603E+03         0.00000E+00
    0.65603E+03        -0.18754E+03         0.00000E+00
    0.00000E+00         0.00000E+00        -0.18476E+04
 
   -0.58895E+04         0.77926E+03         0.00000E+00
    0.77926E+03        -0.25436E+03         0.00000E+00
    0.00000E+00         0.00000E+00        -0.18432E+04
 
   -0.57842E+04         0.90473E+03         0.00000E+00
    0.90473E+03        -0.33184E+03         0.00000E+00
    0.00000E+00         0.00000E+00        -0.18348E+04
 
   -0.56548E+04         0.10312E+04         0.00000E+00
    0.10312E+04        -0.41981E+03         0.00000E+00
    0.00000E+00         0.00000E+00        -0.18224E+04
 
   -0.55010E+04         0.11576E+04         0.00000E+00
    0.11576E+04        -0.51797E+03         0.00000E+00
    0.00000E+00         0.00000E+00        -0.18057E+04
 
   -0.53229E+04         0.12828E+04         0.00000E+00
    0.12828E+04        -0.62591E+03         0.00000E+00
    0.00000E+00         0.00000E+00        -0.17846E+04
 
   -0.51206E+04         0.14061E+04         0.00000E+00
    0.14061E+04        -0.74314E+03         0.00000E+00
    0.00000E+00         0.00000E+00        -0.17591E+04
 
   -0.48942E+04         0.15265E+04         0.00000E+00
    0.15265E+04        -0.86915E+03         0.00000E+00
    0.00000E+00         0.00000E+00        -0.17290E+04
 
   -0.46439E+04         0.16435E+04         0.00000E+00
    0.16435E+04        -0.10034E+04         0.00000E+00
    0.00000E+00         0.00000E+00        -0.16942E+04
 
   -0.43701E+04         0.17563E+04         0.00000E+00
    0.17563E+04        -0.11454E+04         0.00000E+00
    0.00000E+00         0.00000E+00        -0.16547E+04
 
   -0.40730E+04         0.18646E+04         0.00000E+00
    0.18646E+04        -0.12946E+04         0.00000E+00
    0.00000E+00         0.00000E+00        -0.16103E+04
 
   -0.37527E+04         0.19677E+04         0.00000E+00
    0.19677E+04        -0.14507E+04         0.00000E+00
    0.00000E+00         0.00000E+00        -0.15610E+04
 
   -0.34095E+04         0.20651E+04         0.00000E+00
    0.20651E+04        -0.16133E+04         0.00000E+00
    0.00000E+00         0.00000E+00        -0.15068E+04
 
   -0.30434E+04         0.21562E+04         0.00000E+00
    0.21562E+04        -0.17821E+04         0.00000E+00
    0.00000E+00         0.00000E+00        -0.14476E+04
 
   -0.26545E+04         0.22403E+04         0.00000E+00
    0.22403E+04        -0.19569E+04         0.00000E+00
    0.00000E+00         0.00000E+00        -0.13834E+04
 
   -0.22431E+04         0.23166E+04         0.00000E+00
    0.23166E+04        -0.21375E+04         0.00000E+00
    0.00000E+00         0.00000E+00        -0.13142E+04
 
   -0.18092E+04         0.23840E+04         0.00000E+00
    0.23840E+04        -0.23237E+04         0.00000E+00
    0.00000E+00         0.00000E+00        -0.12399E+04
 
   -0.13532E+04         0.24412E+04         0.00000E+00
    0.24412E+04        -0.25153E+04         0.00000E+00
    0.00000E+00         0.00000E+00        -0.11606E+04
 
   -0.59342E+04         0.33325E+02         0.00000E+00
    0.33325E+02        -0.12923E+01         0.00000E+00
    0.00000E+00         0.00000E+00        -0.17806E+04
 
   -0.59656E+04         0.10781E+03         0.00000E+00
    0.10781E+03        -0.83502E+01         0.00000E+00
    0.00000E+00         0.00000E+00        -0.17922E+04
 
   -0.59811E+04         0.19160E+03         0.00000E+00
    0.19160E+03        -0.23301E+02         0.00000E+00
    0.00000E+00         0.00000E+00        -0.18013E+04
 
   -0.59791E+04         0.28356E+03         0.00000E+00
    0.28356E+03        -0.46889E+02         0.00000E+00
    0.00000E+00         0.00000E+00        -0.18078E+04
 
   -0.59581E+04         0.38251E+03         0.00000E+00
    0.38251E+03        -0.79708E+02         0.00000E+00
    0.00000E+00         0.00000E+00        -0.18113E+04
 
   -0.59170E+04         0.48725E+03         0.00000E+00
    0.48725E+03        -0.12221E+03         0.00000E+00
    0.00000E+00         0.00000E+00        -0.18118E+04
 
   -0.58546E+04         0.59661E+03         0.00000E+00
    0.59661E+03        -0.17469E+03         0.00000E+00
    0.00000E+00         0.00000E+00        -0.18088E+04
 
   -0.57703E+04         0.70940E+03         0.00000E+00
    0.70940E+03        -0.23733E+03         0.00000E+00
    0.00000E+00         0.00000E+00        -0.18023E+04
 
   -0.56633E+04         0.82449E+03         0.00000E+00
    0.82449E+03        -0.31014E+03         0.00000E+00
    0.00000E+00         0.00000E+00        -0.17920E+04
 
   -0.55333E+04         0.94081E+03         0.00000E+00
    0.94081E+03        -0.39302E+03         0.00000E+00
    0.00000E+00         0.00000E+00        -0.17779E+04
 
   -0.53799E+04         0.10573E+04         0.00000E+00
    0.10573E+04        -0.48576E+03         0.00000E+00
    0.00000E+00         0.00000E+00        -0.17597E+04
 
   -0.52032E+04         0.11731E+04         0.00000E+00
    0.11731E+04        -0.58805E+03         0.00000E+00
    0.00000E+00         0.00000E+00        -0.17374E+04
 
   -0.50030E+04         0.12874E+04         0.00000E+00
    0.12874E+04        -0.69952E+03         0.00000E+00
    0.00000E+00         0.00000E+00        -0.17108E+04
 
   -0.47795E+04         0.13993E+04         0.00000E+00
    0.13993E+04        -0.81976E+03         0.00000E+00
    0.00000E+00         0.00000E+00        -0.16798E+04
 
   -0.45329E+04         0.15082E+04         0.00000E+00
    0.15082E+04        -0.94831E+03         0.00000E+00
    0.00000E+00         0.00000E+00        -0.16444E+04
 
   -0.42632E+04         0.16134E+04         0.00000E+00
    0.16134E+04        -0.10847E+04         0.00000E+00
    0.00000E+00         0.00000E+00        -0.16044E+04
 
   -0.39707E+04         0.17145E+04         0.00000E+00
    0.17145E+04        -0.12286E+04         0.00000E+00
    0.00000E+00         0.00000E+00        -0.15598E+04
 
   -0.36557E+04         0.18108E+04         0.00000E+00
    0.18108E+04        -0.13796E+04         0.00000E+00
    0.00000E+00         0.00000E+00        -0.15106E+04
 
   -0.33183E+04         0.19018E+04         0.00000E+00
    0.19018E+04        -0.15373E+04         0.00000E+00
    0.00000E+00         0.00000E+00        -0.14567E+04
 
   -0.29587E+04         0.19867E+04         0.00000E+00
    0.19867E+04        -0.17015E+04         0.00000E+00
    0.00000E+00         0.00000E+00        -0.13980E+04
 
   -0.25772E+04         0.20649E+04         0.00000E+00
    0.20649E+04        -0.18717E+04         0.00000E+00
    0.00000E+00         0.00000E+00        -0.13347E+04
 
   -0.21739E+04         0.21354E+04         0.00000E+00
    0.21354E+04        -0.20478E+04         0.00000E+00
    0.00000E+00         0.00000E+00        -0.12665E+04
 
   -0.17494E+04         0.21973E+04         0.00000E+00
    0.21973E+04        -0.22295E+04         0.00000E+00
    0.00000E+00         0.00000E+00        -0.11937E+04
 
   -0.13041E+04         0.22494E+04         0.00000E+00
    0.22494E+04        -0.24165E+04         0.00000E+00
    0.00000E+00         0.00000E+00        -0.11162E+04
 
   -0.58682E+04         0.30084E+02         0.00000E+00
    0.30084E+02        -0.11952E+01         0.00000E+00
    0.00000E+00         0.00000E+00        -0.17608E+04
 
   -0.58901E+04         0.97362E+02         0.00000E+00
    0.97362E+02        -0.77424E+01         0.00000E+00
    0.00000E+00         0.00000E+00        -0.17694E+04
 
   -0.58973E+04         0.17314E+03         0.00000E+00
    0.17314E+03        -0.21655E+02         0.00000E+00
    0.00000E+00         0.00000E+00        -0.17757E+04
 
   -0.58880E+04         0.25642E+03         0.00000E+00
    0.25642E+03        -0.43667E+02         0.00000E+00
    0.00000E+00         0.00000E+00        -0.17795E+04
 
   -0.58609E+04         0.34616E+03         0.00000E+00
    0.34616E+03        -0.74372E+02         0.00000E+00
    0.00000E+00         0.00000E+00        -0.17806E+04
 
   -0.58147E+04         0.44131E+03         0.00000E+00
    0.44131E+03        -0.11423E+03         0.00000E+00
    0.00000E+00         0.00000E+00        -0.17787E+04
 
   -0.57484E+04         0.54083E+03         0.00000E+00
    0.54083E+03        -0.16357E+03         0.00000E+00
    0.00000E+00         0.00000E+00        -0.17736E+04
 
   -0.56612E+04         0.64366E+03         0.00000E+00
    0.64366E+03        -0.22258E+03         0.00000E+00
    0.00000E+00         0.00000E+00        -0.17651E+04
 
   -0.55524E+04         0.74882E+03         0.00000E+00
    0.74882E+03        -0.29134E+03         0.00000E+00
    0.00000E+00         0.00000E+00        -0.17531E+04
 
   -0.54216E+04         0.85531E+03         0.00000E+00
    0.85531E+03        -0.36982E+03         0.00000E+00
    0.00000E+00         0.00000E+00        -0.17374E+04
 
   -0.52684E+04         0.96224E+03         0.00000E+00
    0.96224E+03        -0.45787E+03         0.00000E+00
    0.00000E+00         0.00000E+00        -0.17179E+04
 
   -0.50927E+04         0.10687E+04         0.00000E+00
    0.10687E+04        -0.55527E+03         0.00000E+00
    0.00000E+00         0.00000E+00        -0.16944E+04
 
   -0.48943E+04         0.11740E+04         0.00000E+00
    0.11740E+04        -0.66174E+03         0.00000E+00
    0.00000E+00         0.00000E+00        -0.16668E+04
 
   -0.46732E+04         0.12774E+04         0.00000E+00
    0.12774E+04        -0.77693E+03         0.00000E+00
    0.00000E+00         0.00000E+00        -0.16350E+04
 
   -0.44297E+04         0.13781E+04         0.00000E+00
    0.13781E+04        -0.90047E+03         0.00000E+00
    0.00000E+00         0.00000E+00        -0.15990E+04
 
   -0.41637E+04         0.14757E+04         0.00000E+00
    0.14757E+04        -0.10320E+04         0.00000E+00
    0.00000E+00         0.00000E+00        -0.15587E+04
 
   -0.38755E+04         0.15694E+04         0.00000E+00
    0.15694E+04        -0.11711E+04         0.00000E+00
    0.00000E+00         0.00000E+00        -0.15140E+04
 
   -0.35654E+04         0.16587E+04         0.00000E+00
    0.16587E+04        -0.13175E+04         0.00000E+00
    0.00000E+00         0.00000E+00        -0.14649E+04
 
   -0.32335E+04         0.17430E+04         0.00000E+00
    0.17430E+04        -0.14707E+04         0.00000E+00
    0.00000E+00         0.00000E+00        -0.14113E+04
 
   -0.28801E+04         0.18216E+04         0.00000E+00
    0.18216E+04        -0.16305E+04         0.00000E+00
    0.00000E+00         0.00000E+00        -0.13532E+04
 
   -0.25056E+04         0.18938E+04         0.00000E+00
    0.18938E+04        -0.17965E+04         0.00000E+00
    0.00000E+00         0.00000E+00        -0.12906E+04
 
   -0.21104E+04         0.19586E+04         0.00000E+00
    0.19586E+04        -0.19684E+04         0.00000E+00
    0.00000E+00         0.00000E+00        -0.12236E+04
 
   -0.16949E+04         0.20152E+04         0.00000E+00
    0.20152E+04        -0.21458E+04         0.00000E+00
    0.00000E+00         0.00000E+00        -0.11522E+04
 
   -0.12598E+04         0.20623E+04         0.00000E+00
    0.20623E+04        -0.23282E+04         0.00000E+00
    0.00000E+00         0.00000E+00        -0.10764E+04
 
   -0.58087E+04         0.27075E+02         0.00000E+00
    0.27075E+02        -0.11139E+01         0.00000E+00
    0.00000E+00         0.00000E+00        -0.17429E+04
 
   -0.58221E+04         0.87631E+02         0.00000E+00
    0.87631E+02        -0.72296E+01         0.00000E+00
    0.00000E+00         0.00000E+00        -0.17488E+04
 
   -0.58216E+04         0.15589E+03         0.00000E+00
    0.15589E+03        -0.20257E+02         0.00000E+00
    0.00000E+00         0.00000E+00        -0.17526E+04
 
   -0.58056E+04         0.23099E+03         0.00000E+00
    0.23099E+03        -0.40919E+02         0.00000E+00
    0.00000E+00         0.00000E+00        -0.17540E+04
 
   -0.57728E+04         0.31202E+03         0.00000E+00
    0.31202E+03        -0.69808E+02         0.00000E+00
    0.00000E+00         0.00000E+00        -0.17528E+04
 
   -0.57219E+04         0.39806E+03         0.00000E+00
    0.39806E+03        -0.10739E+03         0.00000E+00
    0.00000E+00         0.00000E+00        -0.17488E+04
 
   -0.56518E+04         0.48820E+03         0.00000E+00
    0.48820E+03        -0.15401E+03         0.00000E+00
    0.00000E+00         0.00000E+00        -0.17418E+04
 
   -0.55619E+04         0.58150E+03         0.00000E+00
    0.58150E+03        -0.20990E+03         0.00000E+00
    0.00000E+00         0.00000E+00        -0.17315E+04
 
   -0.54513E+04         0.67708E+03         0.00000E+00
    0.67708E+03        -0.27518E+03         0.00000E+00
    0.00000E+00         0.00000E+00        -0.17179E+04
 
   -0.53195E+04         0.77406E+03         0.00000E+00
    0.77406E+03        -0.34986E+03         0.00000E+00
    0.00000E+00         0.00000E+00        -0.17008E+04
 
   -0.51663E+04         0.87162E+03         0.00000E+00
    0.87162E+03        -0.43386E+03         0.00000E+00
    0.00000E+00         0.00000E+00        -0.16800E+04
 
   -0.49912E+04         0.96898E+03         0.00000E+00
    0.96898E+03        -0.52703E+03         0.00000E+00
    0.00000E+00         0.00000E+00        -0.16555E+04
 
   -0.47942E+04         0.10654E+04         0.00000E+00
    0.10654E+04        -0.62915E+03         0.00000E+00
    0.00000E+00         0.00000E+00        -0.16270E+04
 
   -0.45753E+04         0.11602E+04         0.00000E+00
    0.11602E+04        -0.73993E+03         0.00000E+00
    0.00000E+00         0.00000E+00        -0.15946E+04
 
   -0.43344E+04         0.12528E+04         0.00000E+00
    0.12528E+04        -0.85908E+03         0.00000E+00
    0.00000E+00         0.00000E+00        -0.15581E+04
 
   -0.40718E+04         0.13425E+04         0.00000E+00
    0.13425E+04        -0.98627E+03         0.00000E+00
    0.00000E+00         0.00000E+00        -0.15174E+04
 
   -0.37876E+04         0.14288E+04         0.00000E+00
    0.14288E+04        -0.11211E+04         0.00000E+00
    0.00000E+00         0.00000E+00        -0.14726E+04
 
   -0.34820E+04         0.15110E+04         0.00000E+00
    0.15110E+04        -0.12634E+04         0.00000E+00
    0.00000E+00         0.00000E+00        -0.14236E+04
 
   -0.31553E+04         0.15885E+04         0.00000E+00
    0.15885E+04        -0.14125E+04         0.00000E+00
    0.00000E+00         0.00000E+00        -0.13703E+04
 
   -0.28078E+04         0.16607E+04         0.00000E+00
    0.16607E+04        -0.15684E+04         0.00000E+00
    0.00000E+00         0.00000E+00        -0.13128E+04
 
   -0.24399E+04         0.17268E+04         0.00000E+00
    0.17268E+04        -0.17304E+04         0.00000E+00
    0.00000E+00         0.00000E+00        -0.12511E+04
 
   -0.20523E+04         0.17860E+04         0.00000E+00
    0.17860E+04        -0.18983E+04         0.00000E+00
    0.00000E+00         0.00000E+00        -0.11852E+04
 
   -0.16454E+04         0.18373E+04         0.00000E+00
    0.18373E+04        -0.20716E+04         0.00000E+00
    0.00000E+00         0.00000E+00        -0.11151E+04
 
   -0.12200E+04         0.18798E+04         0.00000E+00
    0.18798E+04        -0.22497E+04         0.00000E+00
    0.00000E+00         0.00000E+00        -0.10409E+04
 
   -0.57553E+04         0.24257E+02         0.00000E+00
    0.24257E+02        -0.10467E+01         0.00000E+00
    0.00000E+00         0.00000E+00        -0.17269E+04
 
   -0.57610E+04         0.78499E+02         0.00000E+00
    0.78499E+02        -0.68025E+01         0.00000E+00
    0.00000E+00         0.00000E+00        -0.17303E+04
 
   -0.57536E+04         0.13967E+03         0.00000E+00
    0.13967E+03        -0.19085E+02         0.00000E+00
    0.00000E+00         0.00000E+00        -0.17318E+04
 
   -0.57315E+04         0.20702E+03         0.00000E+00
    0.20702E+03        -0.38602E+02         0.00000E+00
    0.00000E+00         0.00000E+00        -0.17310E+04
 
   -0.56934E+04         0.27977E+03         0.00000E+00
    0.27977E+03        -0.65943E+02         0.00000E+00
    0.00000E+00         0.00000E+00        -0.17278E+04
 
   -0.56381E+04         0.35713E+03         0.00000E+00
    0.35713E+03        -0.10158E+03         0.00000E+00
    0.00000E+00         0.00000E+00        -0.17219E+04
 
   -0.55646E+04         0.43828E+03         0.00000E+00
    0.43828E+03        -0.14588E+03         0.00000E+00
    0.00000E+00         0.00000E+00        -0.17131E+04
 
   -0.54720E+04         0.52241E+03         0.00000E+00
    0.52241E+03        -0.19910E+03         0.00000E+00
    0.00000E+00         0.00000E+00        -0.17013E+04
 
   -0.53596E+04         0.60873E+03         0.00000E+00
    0.60873E+03        -0.26138E+03         0.00000E+00
    0.00000E+00         0.00000E+00        -0.16863E+04
 
   -0.52268E+04         0.69646E+03         0.00000E+00
    0.69646E+03        -0.33280E+03         0.00000E+00
    0.00000E+00         0.00000E+00        -0.16679E+04
 
   -0.50733E+04         0.78486E+03         0.00000E+00
    0.78486E+03        -0.41331E+03         0.00000E+00
    0.00000E+00         0.00000E+00        -0.16460E+04
 
   -0.48987E+04         0.87322E+03         0.00000E+00
    0.87322E+03        -0.50283E+03         0.00000E+00
    0.00000E+00         0.00000E+00        -0.16204E+04
 
   -0.47028E+04         0.96088E+03         0.00000E+00
    0.96088E+03        -0.60118E+03         0.00000E+00
    0.00000E+00         0.00000E+00        -0.15912E+04
 
   -0.44857E+04         0.10472E+04         0.00000E+00
    0.10472E+04        -0.70813E+03         0.00000E+00
    0.00000E+00         0.00000E+00        -0.15581E+04
 
   -0.42473E+04         0.11316E+04         0.00000E+00
    0.11316E+04        -0.82344E+03         0.00000E+00
    0.00000E+00         0.00000E+00        -0.15212E+04
 
   -0.39876E+04         0.12134E+04         0.00000E+00
    0.12134E+04        -0.94680E+03         0.00000E+00
    0.00000E+00         0.00000E+00        -0.14803E+04
 
   -0.37070E+04         0.12921E+04         0.00000E+00
    0.12921E+04        -0.10779E+04         0.00000E+00
    0.00000E+00         0.00000E+00        -0.14355E+04
 
   -0.34055E+04         0.13671E+04         0.00000E+00
    0.13671E+04        -0.12164E+04         0.00000E+00
    0.00000E+00         0.00000E+00        -0.13866E+04
 
   -0.30836E+04         0.14378E+04         0.00000E+00
    0.14378E+04        -0.13619E+04         0.00000E+00
    0.00000E+00         0.00000E+00        -0.13337E+04
 
   -0.27417E+04         0.15035E+04         0.00000E+00
    0.15035E+04        -0.15141E+04         0.00000E+00
    0.00000E+00         0.00000E+00        -0.12767E+04
 
   -0.23801E+04         0.15636E+04         0.00000E+00
    0.15636E+04        -0.16725E+04         0.00000E+00
    0.00000E+00         0.00000E+00        -0.12158E+04
 
   -0.19996E+04         0.16172E+04         0.00000E+00
    0.16172E+04        -0.18366E+04         0.00000E+00
    0.00000E+00         0.00000E+00        -0.11509E+04
 
   -0.16007E+04         0.16635E+04         0.00000E+00
    0.16635E+04        -0.20061E+04         0.00000E+00
    0.00000E+00         0.00000E+00        -0.10820E+04
 
   -0.11845E+04         0.17015E+04         0.00000E+00
    0.17015E+04        -0.21802E+04         0.00000E+00
    0.00000E+00         0.00000E+00        -0.10094E+04
 
   -0.57075E+04         0.21598E+02         0.00000E+00
    0.21598E+02        -0.99205E+00         0.00000E+00
    0.00000E+00         0.00000E+00        -0.17126E+04
 
   -0.57064E+04         0.69868E+02         0.00000E+00
    0.69868E+02        -0.64512E+01         0.00000E+00
    0.00000E+00         0.00000E+00        -0.17138E+04
 
   -0.56928E+04         0.12431E+03         0.00000E+00
    0.12431E+03        -0.18113E+02         0.00000E+00
    0.00000E+00         0.00000E+00        -0.17133E+04
 
   -0.56652E+04         0.18428E+03         0.00000E+00
    0.18428E+03        -0.36670E+02         0.00000E+00
    0.00000E+00         0.00000E+00        -0.17106E+04
 
   -0.56223E+04         0.24914E+03         0.00000E+00
    0.24914E+03        -0.62704E+02         0.00000E+00
    0.00000E+00         0.00000E+00        -0.17055E+04
 
   -0.55630E+04         0.31817E+03         0.00000E+00
    0.31817E+03        -0.96696E+02         0.00000E+00
    0.00000E+00         0.00000E+00        -0.16979E+04
 
   -0.54863E+04         0.39067E+03         0.00000E+00
    0.39067E+03        -0.13902E+03         0.00000E+00
    0.00000E+00         0.00000E+00        -0.16876E+04
 
   -0.53911E+04         0.46594E+03         0.00000E+00
    0.46594E+03        -0.18996E+03         0.00000E+00
    0.00000E+00         0.00000E+00        -0.16743E+04
 
   -0.52770E+04         0.54328E+03         0.00000E+00
    0.54328E+03        -0.24969E+03         0.00000E+00
    0.00000E+00         0.00000E+00        -0.16580E+04
 
   -0.51432E+04         0.62199E+03         0.00000E+00
    0.62199E+03        -0.31831E+03         0.00000E+00
    0.00000E+00         0.00000E+00        -0.16384E+04
 
   -0.49893E+04         0.70141E+03         0.00000E+00
    0.70141E+03        -0.39584E+03         0.00000E+00
    0.00000E+00         0.00000E+00        -0.16155E+04
 
   -0.48150E+04         0.78092E+03         0.00000E+00
    0.78092E+03        -0.48222E+03         0.00000E+00
    0.00000E+00         0.00000E+00        -0.15892E+04
 
   -0.46201E+04         0.85989E+03         0.00000E+00
    0.85989E+03        -0.57731E+03         0.00000E+00
    0.00000E+00         0.00000E+00        -0.15592E+04
 
   -0.44045E+04         0.93774E+03         0.00000E+00
    0.93774E+03        -0.68095E+03         0.00000E+00
    0.00000E+00         0.00000E+00        -0.15256E+04
 
   -0.41681E+04         0.10139E+04         0.00000E+00
    0.10139E+04        -0.79290E+03         0.00000E+00
    0.00000E+00         0.00000E+00        -0.14883E+04
 
   -0.39112E+04         0.10878E+04         0.00000E+00
    0.10878E+04        -0.91291E+03         0.00000E+00
    0.00000E+00         0.00000E+00        -0.14472E+04
 
   -0.36337E+04         0.11590E+04         0.00000E+00
    0.11590E+04        -0.10407E+04         0.00000E+00
    0.00000E+00         0.00000E+00        -0.14023E+04
 
   -0.33361E+04         0.12267E+04         0.00000E+00
    0.12267E+04        -0.11758E+04         0.00000E+00
    0.00000E+00         0.00000E+00        -0.13536E+04
 
   -0.30187E+04         0.12906E+04         0.00000E+00
    0.12906E+04        -0.13180E+04         0.00000E+00
    0.00000E+00         0.00000E+00        -0.13010E+04
 
   -0.26818E+04         0.13499E+04         0.00000E+00
    0.13499E+04        -0.14669E+04         0.00000E+00
    0.00000E+00         0.00000E+00        -0.12446E+04
 
   -0.23261E+04         0.14039E+04         0.00000E+00
    0.14039E+04        -0.16220E+04         0.00000E+00
    0.00000E+00         0.00000E+00        -0.11844E+04
 
   -0.19521E+04         0.14520E+04         0.00000E+00
    0.14520E+04        -0.17828E+04         0.00000E+00
    0.00000E+00         0.00000E+00        -0.11205E+04
 
   -0.15608E+04         0.14934E+04         0.00000E+00
    0.14934E+04        -0.19487E+04         0.00000E+00
    0.00000E+00         0.00000E+00        -0.10528E+04
 
   -0.11530E+04         0.15271E+04         0.00000E+00
    0.15271E+04        -0.21191E+04         0.00000E+00
    0.00000E+00         0.00000E+00        -0.98165E+03
 
   -0.56652E+04         0.19066E+02         0.00000E+00
    0.19066E+02        -0.94813E+00         0.00000E+00
    0.00000E+00         0.00000E+00        -0.16999E+04
 
   -0.56580E+04         0.61647E+02         0.00000E+00
    0.61647E+02        -0.61660E+01         0.00000E+00
    0.00000E+00         0.00000E+00        -0.16993E+04
 
   -0.56389E+04         0.10966E+03         0.00000E+00
    0.10966E+03        -0.17317E+02         0.00000E+00
    0.00000E+00         0.00000E+00        -0.16969E+04
 
   -0.56064E+04         0.16259E+03         0.00000E+00
    0.16259E+03        -0.35076E+02         0.00000E+00
    0.00000E+00         0.00000E+00        -0.16924E+04
 
   -0.55592E+04         0.21985E+03         0.00000E+00
    0.21985E+03        -0.60018E+02         0.00000E+00
    0.00000E+00         0.00000E+00        -0.16858E+04
 
   -0.54963E+04         0.28087E+03         0.00000E+00
    0.28087E+03        -0.92626E+02         0.00000E+00
    0.00000E+00         0.00000E+00        -0.16767E+04
 
   -0.54165E+04         0.34503E+03         0.00000E+00
    0.34503E+03        -0.13329E+03         0.00000E+00
    0.00000E+00         0.00000E+00        -0.16649E+04
 
   -0.53191E+04         0.41171E+03         0.00000E+00
    0.41171E+03        -0.18230E+03         0.00000E+00
    0.00000E+00         0.00000E+00        -0.16504E+04
 
   -0.52033E+04         0.48030E+03         0.00000E+00
    0.48030E+03        -0.23987E+03         0.00000E+00
    0.00000E+00         0.00000E+00        -0.16329E+04
 
   -0.50684E+04         0.55019E+03         0.00000E+00
    0.55019E+03        -0.30612E+03         0.00000E+00
    0.00000E+00         0.00000E+00        -0.16124E+04
 
   -0.49141E+04         0.62081E+03         0.00000E+00
    0.62081E+03        -0.38110E+03         0.00000E+00
    0.00000E+00         0.00000E+00        -0.15886E+04
 
   -0.47400E+04         0.69158E+03         0.00000E+00
    0.69158E+03        -0.46479E+03         0.00000E+00
    0.00000E+00         0.00000E+00        -0.15614E+04
 
   -0.45458E+04         0.76195E+03         0.00000E+00
    0.76195E+03        -0.55709E+03         0.00000E+00
    0.00000E+00         0.00000E+00        -0.15309E+04
 
   -0.43315E+04         0.83139E+03         0.00000E+00
    0.83139E+03        -0.65787E+03         0.00000E+00
    0.00000E+00         0.00000E+00        -0.14968E+04
 
   -0.40970E+04         0.89938E+03         0.00000E+00
    0.89938E+03        -0.76692E+03         0.00000E+00
    0.00000E+00         0.00000E+00        -0.14592E+04
 
   -0.38424E+04         0.96540E+03         0.00000E+00
    0.96540E+03        -0.88400E+03         0.00000E+00
    0.00000E+00         0.00000E+00        -0.14179E+04
 
   -0.35679E+04         0.10289E+04         0.00000E+00
    0.10289E+04        -0.10088E+04         0.00000E+00
    0.00000E+00         0.00000E+00        -0.13730E+04
 
   -0.32738E+04         0.10895E+04         0.00000E+00
    0.10895E+04        -0.11410E+04         0.00000E+00
    0.00000E+00         0.00000E+00        -0.13244E+04
 
   -0.29603E+04         0.11465E+04         0.00000E+00
    0.11465E+04        -0.12803E+04         0.00000E+00
    0.00000E+00         0.00000E+00        -0.12722E+04
 
   -0.26281E+04         0.11993E+04         0.00000E+00
    0.11993E+04        -0.14262E+04         0.00000E+00
    0.00000E+00         0.00000E+00        -0.12163E+04
 
   -0.22777E+04         0.12475E+04         0.00000E+00
    0.12475E+04        -0.15783E+04         0.00000E+00
    0.00000E+00         0.00000E+00        -0.11568E+04
 
   -0.19098E+04         0.12902E+04         0.00000E+00
    0.12902E+04        -0.17360E+04         0.00000E+00
    0.00000E+00         0.00000E+00        -0.10937E+04
 
   -0.15254E+04         0.13268E+04         0.00000E+00
    0.13268E+04        -0.18987E+04         0.00000E+00
    0.00000E+00         0.00000E+00        -0.10272E+04
 
   -0.11253E+04         0.13564E+04         0.00000E+00
    0.13564E+04        -0.20658E+04         0.00000E+00
    0.00000E+00         0.00000E+00        -0.95734E+03
 
   -0.56281E+04         0.16637E+02         0.00000E+00
    0.16637E+02        -0.91333E+00         0.00000E+00
    0.00000E+00         0.00000E+00        -0.16887E+04
 
   -0.56156E+04         0.53761E+02         0.00000E+00
    0.53761E+02        -0.59373E+01         0.00000E+00
    0.00000E+00         0.00000E+00        -0.16865E+04
 
   -0.55916E+04         0.95609E+02         0.00000E+00
    0.95609E+02        -0.16673E+02         0.00000E+00
    0.00000E+00         0.00000E+00        -0.16825E+04
 
   -0.55548E+04         0.14175E+03         0.00000E+00
    0.14175E+03        -0.33776E+02         0.00000E+00
    0.00000E+00         0.00000E+00        -0.16766E+04
 
   -0.55038E+04         0.19170E+03         0.00000E+00
    0.19170E+03        -0.57815E+02         0.00000E+00
    0.00000E+00         0.00000E+00        -0.16685E+04
 
   -0.54376E+04         0.24497E+03         0.00000E+00
    0.24497E+03        -0.89273E+02         0.00000E+00
    0.00000E+00         0.00000E+00        -0.16581E+04
 
   -0.53552E+04         0.30103E+03         0.00000E+00
    0.30103E+03        -0.12854E+03         0.00000E+00
    0.00000E+00         0.00000E+00        -0.16451E+04
 
   -0.52556E+04         0.35935E+03         0.00000E+00
    0.35935E+03        -0.17594E+03         0.00000E+00
    0.00000E+00         0.00000E+00        -0.16295E+04
 
   -0.51383E+04         0.41940E+03         0.00000E+00
    0.41940E+03        -0.23169E+03         0.00000E+00
    0.00000E+00         0.00000E+00        -0.16110E+04
 
   -0.50024E+04         0.48067E+03         0.00000E+00
    0.48067E+03        -0.29594E+03         0.00000E+00
    0.00000E+00         0.00000E+00        -0.15895E+04
 
   -0.48477E+04         0.54263E+03         0.00000E+00
    0.54263E+03        -0.36877E+03         0.00000E+00
    0.00000E+00         0.00000E+00        -0.15649E+04
 
   -0.46737E+04         0.60478E+03         0.00000E+00
    0.60478E+03        -0.45018E+03         0.00000E+00
    0.00000E+00         0.00000E+00        -0.15372E+04
 
   -0.44801E+04         0.66664E+03         0.00000E+00
    0.66664E+03        -0.54011E+03         0.00000E+00
    0.00000E+00         0.00000E+00        -0.15061E+04
 
   -0.42669E+04         0.72773E+03         0.00000E+00
    0.72773E+03        -0.63844E+03         0.00000E+00
    0.00000E+00         0.00000E+00        -0.14716E+04
 
   -0.40340E+04         0.78757E+03         0.00000E+00
    0.78757E+03        -0.74499E+03         0.00000E+00
    0.00000E+00         0.00000E+00        -0.14337E+04
 
   -0.37815E+04         0.84571E+03         0.00000E+00
    0.84571E+03        -0.85954E+03         0.00000E+00
    0.00000E+00         0.00000E+00        -0.13923E+04
 
   -0.35095E+04         0.90168E+03         0.00000E+00
    0.90168E+03        -0.98181E+03         0.00000E+00
    0.00000E+00         0.00000E+00        -0.13474E+04
 
   -0.32185E+04         0.95499E+03         0.00000E+00
    0.95499E+03        -0.11115E+04         0.00000E+00
    0.00000E+00         0.00000E+00        -0.12990E+04
 
   -0.29086E+04         0.10051E+04         0.00000E+00
    0.10051E+04        -0.12482E+04         0.00000E+00
    0.00000E+00         0.00000E+00        -0.12470E+04
 
   -0.25806E+04         0.10516E+04         0.00000E+00
    0.10516E+04        -0.13914E+04         0.00000E+00
    0.00000E+00         0.00000E+00        -0.11916E+04
 
   -0.22350E+04         0.10939E+04         0.00000E+00
    0.10939E+04        -0.15408E+04         0.00000E+00
    0.00000E+00         0.00000E+00        -0.11328E+04
 
   -0.18726E+04         0.11313E+04         0.00000E+00
    0.11313E+04        -0.16958E+04         0.00000E+00
    0.00000E+00         0.00000E+00        -0.10705E+04
 
   -0.14943E+04         0.11632E+04         0.00000E+00
    0.11632E+04        -0.18556E+04         0.00000E+00
    0.00000E+00         0.00000E+00        -0.10050E+04
 
   -0.11012E+04         0.11890E+04         0.00000E+00
    0.11890E+04        -0.20197E+04         0.00000E+00
    0.00000E+00         0.00000E+00        -0.93628E+03
 
   -0.55959E+04         0.14289E+02         0.00000E+00
    0.14289E+02        -0.88619E+00         0.00000E+00
    0.00000E+00         0.00000E+00        -0.16790E+04
 
   -0.55789E+04         0.46143E+02         0.00000E+00
    0.46143E+02        -0.57566E+01         0.00000E+00
    0.00000E+00         0.00000E+00        -0.16754E+04
 
   -0.55507E+04         0.82036E+02         0.00000E+00
    0.82036E+02        -0.16159E+02         0.00000E+00
    0.00000E+00         0.00000E+00        -0.16701E+04
 
   -0.55101E+04         0.12161E+03         0.00000E+00
    0.12161E+03        -0.32731E+02         0.00000E+00
    0.00000E+00         0.00000E+00        -0.16628E+04
 
   -0.54558E+04         0.16448E+03         0.00000E+00
    0.16448E+03        -0.56032E+02         0.00000E+00
    0.00000E+00         0.00000E+00        -0.16536E+04
 
   -0.53868E+04         0.21023E+03         0.00000E+00
    0.21023E+03        -0.86544E+02         0.00000E+00
    0.00000E+00         0.00000E+00        -0.16420E+04
 
   -0.53020E+04         0.25840E+03         0.00000E+00
    0.25840E+03        -0.12467E+03         0.00000E+00
    0.00000E+00         0.00000E+00        -0.16280E+04
 
   -0.52005E+04         0.30856E+03         0.00000E+00
    0.30856E+03        -0.17073E+03         0.00000E+00
    0.00000E+00         0.00000E+00        -0.16114E+04
 
   -0.50818E+04         0.36026E+03         0.00000E+00
    0.36026E+03        -0.22496E+03         0.00000E+00
    0.00000E+00         0.00000E+00        -0.15920E+04
 
   -0.49450E+04         0.41305E+03         0.00000E+00
    0.41305E+03        -0.28755E+03         0.00000E+00
    0.00000E+00         0.00000E+00        -0.15698E+04
 
   -0.47898E+04         0.46648E+03         0.00000E+00
    0.46648E+03        -0.35858E+03         0.00000E+00
    0.00000E+00         0.00000E+00        -0.15445E+04
 
   -0.46158E+04         0.52012E+03         0.00000E+00
    0.52012E+03        -0.43807E+03         0.00000E+00
    0.00000E+00         0.00000E+00        -0.15162E+04
 
   -0.44228E+04         0.57355E+03         0.00000E+00
    0.57355E+03        -0.52600E+03         0.00000E+00
    0.00000E+00         0.00000E+00        -0.14846E+04
 
   -0.42105E+04         0.62634E+03         0.00000E+00
    0.62634E+03        -0.62226E+03         0.00000E+00
    0.00000E+00         0.00000E+00        -0.14498E+04
 
   -0.39789E+04         0.67809E+03         0.00000E+00
    0.67809E+03        -0.72670E+03         0.00000E+00
    0.00000E+00         0.00000E+00        -0.14117E+04
 
   -0.37282E+04         0.72838E+03         0.00000E+00
    0.72838E+03        -0.83909E+03         0.00000E+00
    0.00000E+00         0.00000E+00        -0.13702E+04
 
   -0.34585E+04         0.77679E+03         0.00000E+00
    0.77679E+03        -0.95917E+03         0.00000E+00
    0.00000E+00         0.00000E+00        -0.13253E+04
 
   -0.31702E+04         0.82290E+03         0.00000E+00
    0.82290E+03        -0.10866E+04         0.00000E+00
    0.00000E+00         0.00000E+00        -0.12770E+04
 
   -0.28635E+04         0.86626E+03         0.00000E+00
    0.86626E+03        -0.12211E+04         0.00000E+00
    0.00000E+00         0.00000E+00        -0.12254E+04
 
   -0.25392E+04         0.90641E+03         0.00000E+00
    0.90641E+03        -0.13621E+04         0.00000E+00
    0.00000E+00         0.00000E+00        -0.11704E+04
 
   -0.21979E+04         0.94285E+03         0.00000E+00
    0.94285E+03        -0.15091E+04         0.00000E+00
    0.00000E+00         0.00000E+00        -0.11121E+04
 
   -0.18403E+04         0.97505E+03         0.00000E+00
    0.97505E+03        -0.16616E+04         0.00000E+00
    0.00000E+00         0.00000E+00        -0.10506E+04
 
   -0.14675E+04         0.10025E+04         0.00000E+00
    0.10025E+04        -0.18189E+04         0.00000E+00
    0.00000E+00         0.00000E+00        -0.98592E+03
 
   -0.10805E+04         0.10245E+04         0.00000E+00
    0.10245E+04        -0.19803E+04         0.00000E+00
    0.00000E+00         0.00000E+00        -0.91826E+03
 
   -0.55686E+04         0.12003E+02         0.00000E+00
    0.12003E+02        -0.86538E+00         0.00000E+00
    0.00000E+00         0.00000E+00        -0.16708E+04
 
   -0.55477E+04         0.38738E+02         0.00000E+00
    0.38738E+02        -0.56162E+01         0.00000E+00
    0.00000E+00         0.00000E+00        -0.16660E+04
 
   -0.55160E+04         0.68847E+02         0.00000E+00
    0.68847E+02        -0.15755E+02         0.00000E+00
    0.00000E+00         0.00000E+00        -0.16595E+04
 
   -0.54721E+04         0.10205E+03         0.00000E+00
    0.10205E+03        -0.31903E+02         0.00000E+00
    0.00000E+00         0.00000E+00        -0.16512E+04
 
   -0.54150E+04         0.13802E+03         0.00000E+00
    0.13802E+03        -0.54611E+02         0.00000E+00
    0.00000E+00         0.00000E+00        -0.16409E+04
 
   -0.53435E+04         0.17643E+03         0.00000E+00
    0.17643E+03        -0.84358E+02         0.00000E+00
    0.00000E+00         0.00000E+00        -0.16284E+04
 
   -0.52567E+04         0.21690E+03         0.00000E+00
    0.21690E+03        -0.12155E+03         0.00000E+00
    0.00000E+00         0.00000E+00        -0.16135E+04
 
   -0.51536E+04         0.25907E+03         0.00000E+00
    0.25907E+03        -0.16652E+03         0.00000E+00
    0.00000E+00         0.00000E+00        -0.15960E+04
 
   -0.50336E+04         0.30256E+03         0.00000E+00
    0.30256E+03        -0.21952E+03         0.00000E+00
    0.00000E+00         0.00000E+00        -0.15759E+04
 
   -0.48961E+04         0.34701E+03         0.00000E+00
    0.34701E+03        -0.28073E+03         0.00000E+00
    0.00000E+00         0.00000E+00        -0.15530E+04
 
   -0.47405E+04         0.39202E+03         0.00000E+00
    0.39202E+03        -0.35028E+03         0.00000E+00
    0.00000E+00         0.00000E+00        -0.15272E+04
 
   -0.45665E+04         0.43725E+03         0.00000E+00
    0.43725E+03        -0.42820E+03         0.00000E+00
    0.00000E+00         0.00000E+00        -0.14984E+04
 
   -0.43738E+04         0.48232E+03         0.00000E+00
    0.48232E+03        -0.51447E+03         0.00000E+00
    0.00000E+00         0.00000E+00        -0.14665E+04
 
   -0.41622E+04         0.52688E+03         0.00000E+00
    0.52688E+03        -0.60901E+03         0.00000E+00
    0.00000E+00         0.00000E+00        -0.14314E+04
 
   -0.39318E+04         0.57057E+03         0.00000E+00
    0.57057E+03        -0.71167E+03         0.00000E+00
    0.00000E+00         0.00000E+00        -0.13931E+04
 
   -0.36827E+04         0.61304E+03         0.00000E+00
    0.61304E+03        -0.82225E+03         0.00000E+00
    0.00000E+00         0.00000E+00        -0.13515E+04
 
   -0.34149E+04         0.65393E+03         0.00000E+00
    0.65393E+03        -0.94049E+03         0.00000E+00
    0.00000E+00         0.00000E+00        -0.13066E+04
 
   -0.31289E+04         0.69286E+03         0.00000E+00
    0.69286E+03        -0.10661E+04         0.00000E+00
    0.00000E+00         0.00000E+00        -0.12585E+04
 
   -0.28250E+04         0.72946E+03         0.00000E+00
    0.72946E+03        -0.11986E+04         0.00000E+00
    0.00000E+00         0.00000E+00        -0.12071E+04
 
   -0.25039E+04         0.76333E+03         0.00000E+00
    0.76333E+03        -0.13376E+04         0.00000E+00
    0.00000E+00         0.00000E+00        -0.11525E+04
 
   -0.21662E+04         0.79403E+03         0.00000E+00
    0.79403E+03        -0.14826E+04         0.00000E+00
    0.00000E+00         0.00000E+00        -0.10947E+04
 
   -0.18128E+04         0.82111E+03         0.00000E+00
    0.82111E+03        -0.16331E+04         0.00000E+00
    0.00000E+00         0.00000E+00        -0.10338E+04
 
   -0.14447E+04         0.84410E+03         0.00000E+00
    0.84410E+03        -0.17882E+04         0.00000E+00
    0.00000E+00         0.00000E+00        -0.96988E+03
 
   -0.10631E+04         0.86249E+03         0.00000E+00
    0.86249E+03        -0.19473E+04         0.00000E+00
    0.00000E+00         0.00000E+00        -0.90312E+03
 
   -0.55460E+04         0.97649E+01         0.00000E+00
    0.97649E+01        -0.84978E+00         0.00000E+00
    0.00000E+00         0.00000E+00        -0.16640E+04
 
   -0.55219E+04         0.31496E+02         0.00000E+00
    0.31496E+02        -0.55094E+01         0.00000E+00
    0.00000E+00         0.00000E+00        -0.16582E+04
 
   -0.54873E+04         0.55959E+02         0.00000E+00
    0.55959E+02        -0.15445E+02         0.00000E+00
    0.00000E+00         0.00000E+00        -0.16508E+04
 
   -0.54408E+04         0.82932E+02         0.00000E+00
    0.82932E+02        -0.31262E+02         0.00000E+00
    0.00000E+00         0.00000E+00        -0.16416E+04
 
   -0.53813E+04         0.11217E+03         0.00000E+00
    0.11217E+03        -0.53502E+02         0.00000E+00
    0.00000E+00         0.00000E+00        -0.16304E+04
 
   -0.53077E+04         0.14339E+03         0.00000E+00
    0.14339E+03        -0.82645E+02         0.00000E+00
    0.00000E+00         0.00000E+00        -0.16171E+04
 
   -0.52192E+04         0.17631E+03         0.00000E+00
    0.17631E+03        -0.11910E+03         0.00000E+00
    0.00000E+00         0.00000E+00        -0.16015E+04
 
   -0.51147E+04         0.21063E+03         0.00000E+00
    0.21063E+03        -0.16319E+03         0.00000E+00
    0.00000E+00         0.00000E+00        -0.15834E+04
 
   -0.49937E+04         0.24604E+03         0.00000E+00
    0.24604E+03        -0.21520E+03         0.00000E+00
    0.00000E+00         0.00000E+00        -0.15627E+04
 
   -0.48554E+04         0.28225E+03         0.00000E+00
    0.28225E+03        -0.27532E+03         0.00000E+00
    0.00000E+00         0.00000E+00        -0.15392E+04
 
   -0.46995E+04         0.31895E+03         0.00000E+00
    0.31895E+03        -0.34367E+03         0.00000E+00
    0.00000E+00         0.00000E+00        -0.15129E+04
 
   -0.45254E+04         0.35584E+03         0.00000E+00
    0.35584E+03        -0.42032E+03         0.00000E+00
    0.00000E+00         0.00000E+00        -0.14837E+04
 
   -0.43330E+04         0.39262E+03         0.00000E+00
    0.39262E+03        -0.50524E+03         0.00000E+00
    0.00000E+00         0.00000E+00        -0.14515E+04
 
   -0.41221E+04         0.42899E+03         0.00000E+00
    0.42899E+03        -0.59839E+03         0.00000E+00
    0.00000E+00         0.00000E+00        -0.14161E+04
 
   -0.38927E+04         0.46467E+03         0.00000E+00
    0.46467E+03        -0.69960E+03         0.00000E+00
    0.00000E+00         0.00000E+00        -0.13777E+04
 
   -0.36448E+04         0.49936E+03         0.00000E+00
    0.49936E+03        -0.80871E+03         0.00000E+00
    0.00000E+00         0.00000E+00        -0.13360E+04
 
   -0.33786E+04         0.53276E+03         0.00000E+00
    0.53276E+03        -0.92543E+03         0.00000E+00
    0.00000E+00         0.00000E+00        -0.12912E+04
 
   -0.30945E+04         0.56456E+03         0.00000E+00
    0.56456E+03        -0.10495E+04         0.00000E+00
    0.00000E+00         0.00000E+00        -0.12432E+04
 
   -0.27930E+04         0.59444E+03         0.00000E+00
    0.59444E+03        -0.11804E+04         0.00000E+00
    0.00000E+00         0.00000E+00        -0.11920E+04
 
   -0.24745E+04         0.62206E+03         0.00000E+00
    0.62206E+03        -0.13178E+04         0.00000E+00
    0.00000E+00         0.00000E+00        -0.11377E+04
 
   -0.21399E+04         0.64709E+03         0.00000E+00
    0.64709E+03        -0.14611E+04         0.00000E+00
    0.00000E+00         0.00000E+00        -0.10803E+04
 
   -0.17901E+04         0.66914E+03         0.00000E+00
    0.66914E+03        -0.16098E+04         0.00000E+00
    0.00000E+00         0.00000E+00        -0.10200E+04
 
   -0.14259E+04         0.68781E+03         0.00000E+00
    0.68781E+03        -0.17631E+04         0.00000E+00
    0.00000E+00         0.00000E+00        -0.95672E+03
 
   -0.10487E+04         0.70269E+03         0.00000E+00
    0.70269E+03        -0.19203E+04         0.00000E+00
    0.00000E+00         0.00000E+00        -0.89071E+03
 
   -0.55280E+04         0.75623E+01         0.00000E+00
    0.75623E+01        -0.83843E+00         0.00000E+00
    0.00000E+00         0.00000E+00        -0.16586E+04
 
   -0.55014E+04         0.24380E+02         0.00000E+00
    0.24380E+02        -0.54306E+01         0.00000E+00
    0.00000E+00         0.00000E+00        -0.16520E+04
 
   -0.54644E+04         0.43302E+02         0.00000E+00
    0.43302E+02        -0.15214E+02         0.00000E+00
    0.00000E+00         0.00000E+00        -0.16439E+04
 
   -0.54158E+04         0.64165E+02         0.00000E+00
    0.64165E+02        -0.30780E+02         0.00000E+00
    0.00000E+00         0.00000E+00        -0.16340E+04
 
   -0.53545E+04         0.86780E+02         0.00000E+00
    0.86780E+02        -0.52666E+02         0.00000E+00
    0.00000E+00         0.00000E+00        -0.16221E+04
 
   -0.52793E+04         0.11094E+03         0.00000E+00
    0.11094E+03        -0.81345E+02         0.00000E+00
    0.00000E+00         0.00000E+00        -0.16082E+04
 
   -0.51893E+04         0.13642E+03         0.00000E+00
    0.13642E+03        -0.11723E+03         0.00000E+00
    0.00000E+00         0.00000E+00        -0.15920E+04
 
   -0.50838E+04         0.16300E+03         0.00000E+00
    0.16300E+03        -0.16065E+03         0.00000E+00
    0.00000E+00         0.00000E+00        -0.15733E+04
 
   -0.49619E+04         0.19044E+03         0.00000E+00
    0.19044E+03        -0.21190E+03         0.00000E+00
    0.00000E+00         0.00000E+00        -0.15521E+04
 
   -0.48231E+04         0.21851E+03         0.00000E+00
    0.21851E+03        -0.27116E+03         0.00000E+00
    0.00000E+00         0.00000E+00        -0.15283E+04
 
   -0.46668E+04         0.24697E+03         0.00000E+00
    0.24697E+03        -0.33859E+03         0.00000E+00
    0.00000E+00         0.00000E+00        -0.15016E+04
 
   -0.44927E+04         0.27559E+03         0.00000E+00
    0.27559E+03        -0.41424E+03         0.00000E+00
    0.00000E+00         0.00000E+00        -0.14721E+04
 
   -0.43005E+04         0.30414E+03         0.00000E+00
    0.30414E+03        -0.49812E+03         0.00000E+00
    0.00000E+00         0.00000E+00        -0.14396E+04
 
   -0.40901E+04         0.33238E+03         0.00000E+00
    0.33238E+03        -0.59016E+03         0.00000E+00
    0.00000E+00         0.00000E+00        -0.14041E+04
 
   -0.38614E+04         0.36008E+03         0.00000E+00
    0.36008E+03        -0.69025E+03         0.00000E+00
    0.00000E+00         0.00000E+00        -0.13655E+04
 
   -0.36145E+04         0.38702E+03         0.00000E+00
    0.38702E+03        -0.79818E+03         0.00000E+00
    0.00000E+00         0.00000E+00        -0.13238E+04
 
   -0.33496E+04         0.41296E+03         0.00000E+00
    0.41296E+03        -0.91371E+03         0.00000E+00
    0.00000E+00         0.00000E+00        -0.12790E+04
 
   -0.30671E+04         0.43765E+03         0.00000E+00
    0.43765E+03        -0.10365E+04         0.00000E+00
    0.00000E+00         0.00000E+00        -0.12311E+04
 
   -0.27674E+04         0.46085E+03         0.00000E+00
    0.46085E+03        -0.11662E+04         0.00000E+00
    0.00000E+00         0.00000E+00        -0.11801E+04
 
   -0.24511E+04         0.48229E+03         0.00000E+00
    0.48229E+03        -0.13023E+04         0.00000E+00
    0.00000E+00         0.00000E+00        -0.11260E+04
 
   -0.21190E+04         0.50169E+03         0.00000E+00
    0.50169E+03        -0.14443E+04         0.00000E+00
    0.00000E+00         0.00000E+00        -0.10690E+04
 
   -0.17720E+04         0.51876E+03         0.00000E+00
    0.51876E+03        -0.15916E+04         0.00000E+00
    0.00000E+00         0.00000E+00        -0.10091E+04
 
   -0.14110E+04         0.53320E+03         0.00000E+00
    0.53320E+03        -0.17434E+04         0.00000E+00
    0.00000E+00         0.00000E+00        -0.94633E+03
 
   -0.10374E+04         0.54468E+03         0.00000E+00
    0.54468E+03        -0.18990E+04         0.00000E+00
    0.00000E+00         0.00000E+00        -0.88093E+03
 
   -0.55145E+04         0.53850E+01         0.00000E+00
    0.53850E+01        -0.83057E+00         0.00000E+00
    0.00000E+00         0.00000E+00        -0.16546E+04
 
   -0.54861E+04         0.17353E+02         0.00000E+00
    0.17353E+02        -0.53754E+01         0.00000E+00
    0.00000E+00         0.00000E+00        -0.16474E+04
 
   -0.54474E+04         0.30815E+02         0.00000E+00
    0.30815E+02        -0.15050E+02         0.00000E+00
    0.00000E+00         0.00000E+00        -0.16387E+04
 
   -0.53972E+04         0.45656E+02         0.00000E+00
    0.45656E+02        -0.30437E+02         0.00000E+00
    0.00000E+00         0.00000E+00        -0.16283E+04
 
   -0.53344E+04         0.61745E+02         0.00000E+00
    0.61745E+02        -0.52067E+02         0.00000E+00
    0.00000E+00         0.00000E+00        -0.16159E+04
 
   -0.52580E+04         0.78937E+02         0.00000E+00
    0.78937E+02        -0.80412E+02         0.00000E+00
    0.00000E+00         0.00000E+00        -0.16015E+04
 
   -0.51670E+04         0.97076E+02         0.00000E+00
    0.97076E+02        -0.11588E+03         0.00000E+00
    0.00000E+00         0.00000E+00        -0.15849E+04
 
   -0.50606E+04         0.11600E+03         0.00000E+00
    0.11600E+03        -0.15882E+03         0.00000E+00
    0.00000E+00         0.00000E+00        -0.15658E+04
 
   -0.49381E+04         0.13555E+03         0.00000E+00
    0.13555E+03        -0.20950E+03         0.00000E+00
    0.00000E+00         0.00000E+00        -0.15443E+04
 
   -0.47988E+04         0.15554E+03         0.00000E+00
    0.15554E+03        -0.26815E+03         0.00000E+00
    0.00000E+00         0.00000E+00        -0.15201E+04
 
   -0.46423E+04         0.17583E+03         0.00000E+00
    0.17583E+03        -0.33489E+03         0.00000E+00
    0.00000E+00         0.00000E+00        -0.14932E+04
 
   -0.44682E+04         0.19623E+03         0.00000E+00
    0.19623E+03        -0.40981E+03         0.00000E+00
    0.00000E+00         0.00000E+00        -0.14634E+04
 
   -0.42762E+04         0.21659E+03         0.00000E+00
    0.21659E+03        -0.49292E+03         0.00000E+00
    0.00000E+00         0.00000E+00        -0.14307E+04
 
   -0.40661E+04         0.23673E+03         0.00000E+00
    0.23673E+03        -0.58416E+03         0.00000E+00
    0.00000E+00         0.00000E+00        -0.13951E+04
 
   -0.38379E+04         0.25650E+03         0.00000E+00
    0.25650E+03        -0.68340E+03         0.00000E+00
    0.00000E+00         0.00000E+00        -0.13564E+04
 
   -0.35918E+04         0.27572E+03         0.00000E+00
    0.27572E+03        -0.79047E+03         0.00000E+00
    0.00000E+00         0.00000E+00        -0.13147E+04
 
   -0.33279E+04         0.29422E+03         0.00000E+00
    0.29422E+03        -0.90511E+03         0.00000E+00
    0.00000E+00         0.00000E+00        -0.12699E+04
 
   -0.30466E+04         0.31184E+03         0.00000E+00
    0.31184E+03        -0.10270E+04         0.00000E+00
    0.00000E+00         0.00000E+00        -0.12221E+04
 
   -0.27483E+04         0.32838E+03         0.00000E+00
    0.32838E+03        -0.11557E+04         0.00000E+00
    0.00000E+00         0.00000E+00        -0.11712E+04
 
   -0.24336E+04         0.34367E+03         0.00000E+00
    0.34367E+03        -0.12909E+04         0.00000E+00
    0.00000E+00         0.00000E+00        -0.11173E+04
 
   -0.21034E+04         0.35749E+03         0.00000E+00
    0.35749E+03        -0.14318E+04         0.00000E+00
    0.00000E+00         0.00000E+00        -0.10606E+04
 
   -0.17585E+04         0.36965E+03         0.00000E+00
    0.36965E+03        -0.15781E+04         0.00000E+00
    0.00000E+00         0.00000E+00        -0.10010E+04
 
   -0.13999E+04         0.37992E+03         0.00000E+00
    0.37992E+03        -0.17288E+04         0.00000E+00
    0.00000E+00         0.00000E+00        -0.93861E+03
 
   -0.10290E+04         0.38806E+03         0.00000E+00
    0.38806E+03        -0.18833E+04         0.00000E+00
    0.00000E+00         0.00000E+00        -0.87367E+03
 
   -0.55056E+04         0.32246E+01         0.00000E+00
    0.32246E+01        -0.82565E+00         0.00000E+00
    0.00000E+00         0.00000E+00        -0.16519E+04
 
   -0.54759E+04         0.10388E+02         0.00000E+00
    0.10388E+02        -0.53405E+01         0.00000E+00
    0.00000E+00         0.00000E+00        -0.16444E+04
 
   -0.54361E+04         0.18444E+02         0.00000E+00
    0.18444E+02        -0.14946E+02         0.00000E+00
    0.00000E+00         0.00000E+00        -0.16353E+04
 
   -0.53848E+04         0.27325E+02         0.00000E+00
    0.27325E+02        -0.30218E+02         0.00000E+00
    0.00000E+00         0.00000E+00        -0.16245E+04
 
   -0.53211E+04         0.36953E+02         0.00000E+00
    0.36953E+02        -0.51682E+02         0.00000E+00
    0.00000E+00         0.00000E+00        -0.16118E+04
 
   -0.52439E+04         0.47242E+02         0.00000E+00
    0.47242E+02        -0.79809E+02         0.00000E+00
    0.00000E+00         0.00000E+00        -0.15971E+04
 
   -0.51522E+04         0.58100E+02         0.00000E+00
    0.58100E+02        -0.11501E+03         0.00000E+00
    0.00000E+00         0.00000E+00        -0.15802E+04
 
   -0.50452E+04         0.69430E+02         0.00000E+00
    0.69430E+02        -0.15763E+03         0.00000E+00
    0.00000E+00         0.00000E+00        -0.15609E+04
 
   -0.49223E+04         0.81135E+02         0.00000E+00
    0.81135E+02        -0.20795E+03         0.00000E+00
    0.00000E+00         0.00000E+00        -0.15391E+04
 
   -0.47827E+04         0.93114E+02         0.00000E+00
    0.93114E+02        -0.26618E+03         0.00000E+00
    0.00000E+00         0.00000E+00        -0.15147E+04
 
   -0.46260E+04         0.10527E+03         0.00000E+00
    0.10527E+03        -0.33248E+03         0.00000E+00
    0.00000E+00         0.00000E+00        -0.14876E+04
 
   -0.44519E+04         0.11749E+03         0.00000E+00
    0.11749E+03        -0.40692E+03         0.00000E+00
    0.00000E+00         0.00000E+00        -0.14576E+04
 
   -0.42600E+04         0.12969E+03         0.00000E+00
    0.12969E+03        -0.48952E+03         0.00000E+00
    0.00000E+00         0.00000E+00        -0.14248E+04
 
   -0.40501E+04         0.14177E+03         0.00000E+00
    0.14177E+03        -0.58023E+03         0.00000E+00
    0.00000E+00         0.00000E+00        -0.13891E+04
 
   -0.38223E+04         0.15362E+03         0.00000E+00
    0.15362E+03        -0.67892E+03         0.00000E+00
    0.00000E+00         0.00000E+00        -0.13504E+04
 
   -0.35767E+04         0.16514E+03         0.00000E+00
    0.16514E+03        -0.78541E+03         0.00000E+00
    0.00000E+00         0.00000E+00        -0.13086E+04
 
   -0.33134E+04         0.17624E+03         0.00000E+00
    0.17624E+03        -0.89946E+03         0.00000E+00
    0.00000E+00         0.00000E+00        -0.12639E+04
 
   -0.30329E+04         0.18680E+03         0.00000E+00
    0.18680E+03        -0.10207E+04         0.00000E+00
    0.00000E+00         0.00000E+00        -0.12161E+04
 
   -0.27355E+04         0.19671E+03         0.00000E+00
    0.19671E+03        -0.11488E+04         0.00000E+00
    0.00000E+00         0.00000E+00        -0.11653E+04
 
   -0.24220E+04         0.20587E+03         0.00000E+00
    0.20587E+03        -0.12833E+04         0.00000E+00
    0.00000E+00         0.00000E+00        -0.11116E+04
 
   -0.20930E+04         0.21415E+03         0.00000E+00
    0.21415E+03        -0.14236E+04         0.00000E+00
    0.00000E+00         0.00000E+00        -0.10550E+04
 
   -0.17495E+04         0.22143E+03         0.00000E+00
    0.22143E+03        -0.15692E+04         0.00000E+00
    0.00000E+00         0.00000E+00        -0.99559E+03
 
   -0.13925E+04         0.22757E+03         0.00000E+00
    0.22757E+03        -0.17192E+04         0.00000E+00
    0.00000E+00         0.00000E+00        -0.93351E+03
 
   -0.10234E+04         0.23244E+03         0.00000E+00
    0.23244E+03        -0.18729E+04         0.00000E+00
    0.00000E+00         0.00000E+00        -0.86888E+03
 
   -0.55011E+04         0.10738E+01         0.00000E+00
    0.10738E+01        -0.82328E+00         0.00000E+00
    0.00000E+00         0.00000E+00        -0.16506E+04
 
   -0.54709E+04         0.34590E+01         0.00000E+00
    0.34590E+01        -0.53236E+01         0.00000E+00
    0.00000E+00         0.00000E+00        -0.16429E+04
 
   -0.54304E+04         0.61406E+01         0.00000E+00
    0.61406E+01        -0.14895E+02         0.00000E+00
    0.00000E+00         0.00000E+00        -0.16336E+04
 
   -0.53787E+04         0.90968E+01         0.00000E+00
    0.90968E+01        -0.30111E+02         0.00000E+00
    0.00000E+00         0.00000E+00        -0.16226E+04
 
   -0.53145E+04         0.12302E+02         0.00000E+00
    0.12302E+02        -0.51494E+02         0.00000E+00
    0.00000E+00         0.00000E+00        -0.16098E+04
 
   -0.52368E+04         0.15727E+02         0.00000E+00
    0.15727E+02        -0.79514E+02         0.00000E+00
    0.00000E+00         0.00000E+00        -0.15949E+04
 
   -0.51448E+04         0.19343E+02         0.00000E+00
    0.19343E+02        -0.11458E+03         0.00000E+00
    0.00000E+00         0.00000E+00        -0.15778E+04
 
   -0.50375E+04         0.23115E+02         0.00000E+00
    0.23115E+02        -0.15704E+03         0.00000E+00
    0.00000E+00         0.00000E+00        -0.15584E+04
 
   -0.49144E+04         0.27013E+02         0.00000E+00
    0.27013E+02        -0.20718E+03         0.00000E+00
    0.00000E+00         0.00000E+00        -0.15365E+04
 
   -0.47747E+04         0.31003E+02         0.00000E+00
    0.31003E+02        -0.26522E+03         0.00000E+00
    0.00000E+00         0.00000E+00        -0.15120E+04
 
   -0.46179E+04         0.35051E+02         0.00000E+00
    0.35051E+02        -0.33130E+03         0.00000E+00
    0.00000E+00         0.00000E+00        -0.14848E+04
 
   -0.44437E+04         0.39123E+02         0.00000E+00
    0.39123E+02        -0.40550E+03         0.00000E+00
    0.00000E+00         0.00000E+00        -0.14548E+04
 
   -0.42519E+04         0.43188E+02         0.00000E+00
    0.43188E+02        -0.48785E+03         0.00000E+00
    0.00000E+00         0.00000E+00        -0.14219E+04
 
   -0.40421E+04         0.47211E+02         0.00000E+00
    0.47211E+02        -0.57829E+03         0.00000E+00
    0.00000E+00         0.00000E+00        -0.13861E+04
 
   -0.38145E+04         0.51159E+02         0.00000E+00
    0.51159E+02        -0.67670E+03         0.00000E+00
    0.00000E+00         0.00000E+00        -0.13474E+04
 
   -0.35692E+04         0.54999E+02         0.00000E+00
    0.54999E+02        -0.78291E+03         0.00000E+00
    0.00000E+00         0.00000E+00        -0.13056E+04
 
   -0.33062E+04         0.58695E+02         0.00000E+00
    0.58695E+02        -0.89666E+03         0.00000E+00
    0.00000E+00         0.00000E+00        -0.12609E+04
 
   -0.30260E+04         0.62214E+02         0.00000E+00
    0.62214E+02        -0.10176E+04         0.00000E+00
    0.00000E+00         0.00000E+00        -0.12131E+04
 
   -0.27291E+04         0.65518E+02         0.00000E+00
    0.65518E+02        -0.11454E+04         0.00000E+00
    0.00000E+00         0.00000E+00        -0.11624E+04
 
   -0.24161E+04         0.68569E+02         0.00000E+00
    0.68569E+02        -0.12796E+04         0.00000E+00
    0.00000E+00         0.00000E+00        -0.11087E+04
 
   -0.20878E+04         0.71327E+02         0.00000E+00
    0.71327E+02        -0.14196E+04         0.00000E+00
    0.00000E+00         0.00000E+00        -0.10522E+04
 
   -0.17450E+04         0.73750E+02         0.00000E+00
    0.73750E+02        -0.15647E+04         0.00000E+00
    0.00000E+00         0.00000E+00        -0.99292E+03
 
   -0.13889E+04         0.75794E+02         0.00000E+00
    0.75794E+02        -0.17144E+04         0.00000E+00
    0.00000E+00         0.00000E+00        -0.93097E+03
 
   -0.10206E+04         0.77413E+02         0.00000E+00
    0.77413E+02        -0.18677E+04         0.00000E+00
    0.00000E+00         0.00000E+00        -0.86649E+03
 
TENSORS stresstot double 
   -0.50391E+05         0.36730E+03         0.00000E+00
    0.36730E+03        -0.10022E+06         0.00000E+00
    0.00000E+00         0.00000E+00        -0.56226E+05
 
   -0.40546E+05         0.26486E+04         0.00000E+00
    0.26486E+04        -0.96900E+05         0.00000E+00
    0.00000E+00         0.00000E+00        -0.65782E+05
 
   -0.34885E+05         0.38063E+04         0.00000E+00
    0.38063E+04        -0.88952E+05         0.00000E+00
    0.00000E+00         0.00000E+00        -0.63209E+05
 
   -0.29645E+05         0.40509E+04         0.00000E+00
    0.40509E+04        -0.80509E+05         0.00000E+00
    0.00000E+00         0.00000E+00        -0.57496E+05
 
   -0.24761E+05         0.38935E+04         0.00000E+00
    0.38935E+04        -0.72692E+05         0.00000E+00
    0.00000E+00         0.00000E+00        -0.51282E+05
 
   -0.20330E+05         0.35934E+04         0.00000E+00
    0.35934E+04        -0.65568E+05         0.00000E+00
    0.00000E+00         0.00000E+00        -0.45219E+05
 
   -0.16348E+05         0.32081E+04         0.00000E+00
    0.32081E+04        -0.59151E+05         0.00000E+00
    0.00000E+00         0.00000E+00        -0.39561E+05
 
   -0.13259E+05         0.27880E+04         0.00000E+00
    0.27880E+04        -0.53412E+05         0.00000E+00
    0.00000E+00         0.00000E+00        -0.34605E+05
 
   -0.10653E+05         0.24213E+04         0.00000E+00
    0.24213E+04        -0.48357E+05         0.00000E+00
    0.00000E+00         0.00000E+00        -0.30293E+05
 
   -0.83767E+04         0.20929E+04         0.00000E+00
    0.20929E+04        -0.43954E+05         0.00000E+00
    0.00000E+00         0.00000E+00        -0.26573E+05
 
   -0.64942E+04         0.18174E+04         0.00000E+00
    0.18174E+04        -0.40076E+05         0.00000E+00
    0.00000E+00         0.00000E+00        -0.23398E+05
 
   -0.48386E+04         0.16290E+04         0.00000E+00
    0.16290E+04        -0.36660E+05         0.00000E+00
    0.00000E+00         0.00000E+00        -0.20596E+05
 
   -0.33193E+04         0.14654E+04         0.00000E+00
    0.14654E+04        -0.33629E+05         0.00000E+00
    0.00000E+00         0.00000E+00        -0.18044E+05
 
   -0.19102E+04         0.13215E+04         0.00000E+00
    0.13215E+04        -0.30891E+05         0.00000E+00
    0.00000E+00         0.00000E+00        -0.15675E+05
 
   -0.62664E+03         0.11691E+04         0.00000E+00
    0.11691E+04        -0.28436E+05         0.00000E+00
    0.00000E+00         0.00000E+00        -0.13468E+05
 
    0.38828E+03         0.10430E+04         0.00000E+00
    0.10430E+04        -0.26254E+05         0.00000E+00
    0.00000E+00         0.00000E+00        -0.11469E+05
 
    0.12312E+04         0.89577E+03         0.00000E+00
    0.89577E+03        -0.24359E+05         0.00000E+00
    0.00000E+00         0.00000E+00        -0.96121E+04
 
    0.19401E+04         0.79589E+03         0.00000E+00
    0.79589E+03        -0.22703E+05         0.00000E+00
    0.00000E+00         0.00000E+00        -0.79618E+04
 
    0.25345E+04         0.70734E+03         0.00000E+00
    0.70734E+03        -0.21226E+05         0.00000E+00
    0.00000E+00         0.00000E+00        -0.64142E+04
 
    0.27045E+04         0.63230E+03         0.00000E+00
    0.63230E+03        -0.19901E+05         0.00000E+00
    0.00000E+00         0.00000E+00        -0.52517E+04
 
    0.78899E+03         0.54023E+03         0.00000E+00
    0.54023E+03        -0.18737E+05         0.00000E+00
    0.00000E+00         0.00000E+00        -0.53843E+04
 
   -0.13049E+04         0.48390E+03         0.00000E+00
    0.48390E+03        -0.17720E+05         0.00000E+00
    0.00000E+00         0.00000E+00        -0.57075E+04
 
   -0.33711E+04         0.46006E+03         0.00000E+00
    0.46006E+03        -0.16781E+05         0.00000E+00
    0.00000E+00         0.00000E+00        -0.60456E+04
 
   -0.55070E+04         0.46042E+03         0.00000E+00
    0.46042E+03        -0.15865E+05         0.00000E+00
    0.00000E+00         0.00000E+00        -0.64115E+04
 
   -0.46905E+05         0.27391E+04         0.00000E+00
    0.27391E+04        -0.99614E+05         0.00000E+00
    0.00000E+00         0.00000E+00        -0.59029E+05
 
   -0.37182E+05         0.97166E+04         0.00000E+00
    0.97166E+04        -0.88863E+05         0.00000E+00
    0.00000E+00         0.00000E+00        -0.63738E+05
 
   -0.33484E+05         0.11696E+05         0.00000E+00
    0.11696E+05        -0.80360E+05         0.00000E+00
    0.00000E+00         0.00000E+00        -0.59430E+05
 
   -0.29650E+05         0.11870E+05         0.00000E+00
    0.11870E+05        -0.73326E+05         0.00000E+00
    0.00000E+00         0.00000E+00        -0.54320E+05
 
   -0.25346E+05         0.11185E+05         0.00000E+00
    0.11185E+05        -0.66651E+05         0.00000E+00
    0.00000E+00         0.00000E+00        -0.48714E+05
 
   -0.21103E+05         0.10180E+05         0.00000E+00
    0.10180E+05        -0.60606E+05         0.00000E+00
    0.00000E+00         0.00000E+00        -0.43217E+05
 
   -0.17293E+05         0.90435E+04         0.00000E+00
    0.90435E+04        -0.55212E+05         0.00000E+00
    0.00000E+00         0.00000E+00        -0.38134E+05
 
   -0.14047E+05         0.79392E+04         0.00000E+00
    0.79392E+04        -0.50454E+05         0.00000E+00
    0.00000E+00         0.00000E+00        -0.33598E+05
 
   -0.11359E+05         0.69290E+04         0.00000E+00
    0.69290E+04        -0.46145E+05         0.00000E+00
    0.00000E+00         0.00000E+00        -0.29593E+05
 
   -0.89791E+04         0.60580E+04         0.00000E+00
    0.60580E+04        -0.42208E+05         0.00000E+00
    0.00000E+00         0.00000E+00        -0.26015E+05
 
   -0.69214E+04         0.53488E+04         0.00000E+00
    0.53488E+04        -0.38725E+05         0.00000E+00
    0.00000E+00         0.00000E+00        -0.22876E+05
 
   -0.51691E+04         0.47850E+04         0.00000E+00
    0.47850E+04        -0.35551E+05         0.00000E+00
    0.00000E+00         0.00000E+00        -0.20117E+05
 
   -0.36323E+04         0.42983E+04         0.00000E+00
    0.42983E+04        -0.32658E+05         0.00000E+00
    0.00000E+00         0.00000E+00        -0.17626E+05
 
   -0.21938E+04         0.38774E+04         0.00000E+00
    0.38774E+04        -0.30101E+05         0.00000E+00
    0.00000E+00         0.00000E+00        -0.15307E+05
 
   -0.92462E+03         0.34478E+04         0.00000E+00
    0.34478E+04        -0.27827E+05         0.00000E+00
    0.00000E+00         0.00000E+00        -0.13185E+05
 
    0.11973E+03         0.30234E+04         0.00000E+00
    0.30234E+04        -0.25818E+05         0.00000E+00
    0.00000E+00         0.00000E+00        -0.11265E+05
 
    0.99390E+03         0.26574E+04         0.00000E+00
    0.26574E+04        -0.24029E+05         0.00000E+00
    0.00000E+00         0.00000E+00        -0.94461E+04
 
    0.17507E+04         0.23527E+04         0.00000E+00
    0.23527E+04        -0.22425E+05         0.00000E+00
    0.00000E+00         0.00000E+00        -0.78184E+04
 
    0.23768E+04         0.21001E+04         0.00000E+00
    0.21001E+04        -0.21004E+05         0.00000E+00
    0.00000E+00         0.00000E+00        -0.63129E+04
 
    0.25249E+04         0.18769E+04         0.00000E+00
    0.18769E+04        -0.19710E+05         0.00000E+00
    0.00000E+00         0.00000E+00        -0.52244E+04
 
    0.63689E+03         0.16069E+04         0.00000E+00
    0.16069E+04        -0.18585E+05         0.00000E+00
    0.00000E+00         0.00000E+00        -0.53845E+04
 
   -0.13809E+04         0.14443E+04         0.00000E+00
    0.14443E+04        -0.17587E+05         0.00000E+00
    0.00000E+00         0.00000E+00        -0.56904E+04
 
   -0.33933E+04         0.13733E+04         0.00000E+00
    0.13733E+04        -0.16662E+05         0.00000E+00
    0.00000E+00         0.00000E+00        -0.60165E+04
 
   -0.54856E+04         0.13738E+04         0.00000E+00
    0.13738E+04        -0.15760E+05         0.00000E+00
    0.00000E+00         0.00000E+00        -0.63738E+04
 
   -0.34308E+05         0.16166E+05         0.00000E+00
    0.16166E+05        -0.75384E+05         0.00000E+00
    0.00000E+00         0.00000E+00        -0.55713E+05
 
   -0.33389E+05         0.18376E+05         0.00000E+00
    0.18376E+05        -0.64371E+05         0.00000E+00
    0.00000E+00         0.00000E+00        -0.52842E+05
 
   -0.33536E+05         0.18913E+05         0.00000E+00
    0.18913E+05        -0.61966E+05         0.00000E+00
    0.00000E+00         0.00000E+00        -0.51523E+05
 
   -0.30579E+05         0.17942E+05         0.00000E+00
    0.17942E+05        -0.58431E+05         0.00000E+00
    0.00000E+00         0.00000E+00        -0.47919E+05
 
   -0.26760E+05         0.16566E+05         0.00000E+00
    0.16566E+05        -0.55017E+05         0.00000E+00
    0.00000E+00         0.00000E+00        -0.43895E+05
 
   -0.22640E+05         0.14973E+05         0.00000E+00
    0.14973E+05        -0.51500E+05         0.00000E+00
    0.00000E+00         0.00000E+00        -0.39628E+05
 
   -0.18792E+05         0.13368E+05         0.00000E+00
    0.13368E+05        -0.48055E+05         0.00000E+00
    0.00000E+00         0.00000E+00        -0.35481E+05
 
   -0.15435E+05         0.11880E+05         0.00000E+00
    0.11880E+05        -0.44737E+05         0.00000E+00
    0.00000E+00         0.00000E+00        -0.31594E+05
 
   -0.12522E+05         0.10622E+05         0.00000E+00
    0.10622E+05        -0.41612E+05         0.00000E+00
    0.00000E+00         0.00000E+00        -0.28020E+05
 
   -0.99566E+04         0.94652E+04         0.00000E+00
    0.94652E+04        -0.38612E+05         0.00000E+00
    0.00000E+00         0.00000E+00        -0.24768E+05
 
   -0.77452E+04         0.84419E+04         0.00000E+00
    0.84419E+04        -0.35718E+05         0.00000E+00
    0.00000E+00         0.00000E+00        -0.21794E+05
 
   -0.58439E+04         0.75695E+04         0.00000E+00
    0.75695E+04        -0.33140E+05         0.00000E+00
    0.00000E+00         0.00000E+00        -0.19138E+05
 
   -0.42040E+04         0.68304E+04         0.00000E+00
    0.68304E+04        -0.30829E+05         0.00000E+00
    0.00000E+00         0.00000E+00        -0.16768E+05
 
   -0.27501E+04         0.61366E+04         0.00000E+00
    0.61366E+04        -0.28684E+05         0.00000E+00
    0.00000E+00         0.00000E+00        -0.14613E+05
 
   -0.14931E+04         0.54808E+04         0.00000E+00
    0.54808E+04        -0.26720E+05         0.00000E+00
    0.00000E+00         0.00000E+00        -0.12623E+05
 
   -0.38869E+03         0.48451E+04         0.00000E+00
    0.48451E+04        -0.24951E+05         0.00000E+00
    0.00000E+00         0.00000E+00        -0.10746E+05
 
    0.57353E+03         0.42774E+04         0.00000E+00
    0.42774E+04        -0.23346E+05         0.00000E+00
    0.00000E+00         0.00000E+00        -0.90464E+04
 
    0.13887E+04         0.38061E+04         0.00000E+00
    0.38061E+04        -0.21894E+05         0.00000E+00
    0.00000E+00         0.00000E+00        -0.75201E+04
 
    0.20778E+04         0.34279E+04         0.00000E+00
    0.34279E+04        -0.20566E+05         0.00000E+00
    0.00000E+00         0.00000E+00        -0.61163E+04
 
    0.21726E+04         0.30632E+04         0.00000E+00
    0.30632E+04        -0.19352E+05         0.00000E+00
    0.00000E+00         0.00000E+00        -0.51739E+04
 
    0.34950E+03         0.26406E+04         0.00000E+00
    0.26406E+04        -0.18272E+05         0.00000E+00
    0.00000E+00         0.00000E+00        -0.53767E+04
 
   -0.15292E+04         0.23831E+04         0.00000E+00
    0.23831E+04        -0.17308E+05         0.00000E+00
    0.00000E+00         0.00000E+00        -0.56512E+04
 
   -0.34392E+04         0.22644E+04         0.00000E+00
    0.22644E+04        -0.16414E+05         0.00000E+00
    0.00000E+00         0.00000E+00        -0.59559E+04
 
   -0.54425E+04         0.22634E+04         0.00000E+00
    0.22634E+04        -0.15545E+05         0.00000E+00
    0.00000E+00         0.00000E+00        -0.62962E+04
 
   -0.13667E+05         0.14261E+05         0.00000E+00
    0.14261E+05        -0.27519E+05         0.00000E+00
    0.00000E+00         0.00000E+00        -0.24696E+05
 
   -0.33315E+05         0.19993E+05         0.00000E+00
    0.19993E+05        -0.37879E+05         0.00000E+00
    0.00000E+00         0.00000E+00        -0.41094E+05
 
   -0.33834E+05         0.19630E+05         0.00000E+00
    0.19630E+05        -0.37797E+05         0.00000E+00
    0.00000E+00         0.00000E+00        -0.40565E+05
 
   -0.31843E+05         0.19156E+05         0.00000E+00
    0.19156E+05        -0.38809E+05         0.00000E+00
    0.00000E+00         0.00000E+00        -0.39546E+05
 
   -0.28267E+05         0.18222E+05         0.00000E+00
    0.18222E+05        -0.38968E+05         0.00000E+00
    0.00000E+00         0.00000E+00        -0.37283E+05
 
   -0.24305E+05         0.17046E+05         0.00000E+00
    0.17046E+05        -0.38593E+05         0.00000E+00
    0.00000E+00         0.00000E+00        -0.34534E+05
 
   -0.20436E+05         0.15706E+05         0.00000E+00
    0.15706E+05        -0.37658E+05         0.00000E+00
    0.00000E+00         0.00000E+00        -0.31522E+05
 
   -0.16926E+05         0.14338E+05         0.00000E+00
    0.14338E+05        -0.36332E+05         0.00000E+00
    0.00000E+00         0.00000E+00        -0.28473E+05
 
   -0.13889E+05         0.13037E+05         0.00000E+00
    0.13037E+05        -0.34814E+05         0.00000E+00
    0.00000E+00         0.00000E+00        -0.25514E+05
 
   -0.11146E+05         0.11875E+05         0.00000E+00
    0.11875E+05        -0.33248E+05         0.00000E+00
    0.00000E+00         0.00000E+00        -0.22674E+05
 
   -0.87931E+04         0.10766E+05         0.00000E+00
    0.10766E+05        -0.31607E+05         0.00000E+00
    0.00000E+00         0.00000E+00        -0.20065E+05
 
   -0.67725E+04         0.96977E+04         0.00000E+00
    0.96977E+04        -0.29870E+05         0.00000E+00
    0.00000E+00         0.00000E+00        -0.17688E+05
 
   -0.50155E+04         0.87620E+04         0.00000E+00
    0.87620E+04        -0.28192E+05         0.00000E+00
    0.00000E+00         0.00000E+00        -0.15537E+05
 
   -0.35112E+04         0.79189E+04         0.00000E+00
    0.79189E+04        -0.26640E+05         0.00000E+00
    0.00000E+00         0.00000E+00        -0.13603E+05
 
   -0.22066E+04         0.71244E+04         0.00000E+00
    0.71244E+04        -0.25200E+05         0.00000E+00
    0.00000E+00         0.00000E+00        -0.11804E+05
 
   -0.10641E+04         0.63871E+04         0.00000E+00
    0.63871E+04        -0.23832E+05         0.00000E+00
    0.00000E+00         0.00000E+00        -0.10128E+05
 
   -0.26000E+02         0.57347E+04         0.00000E+00
    0.57347E+04        -0.22452E+05         0.00000E+00
    0.00000E+00         0.00000E+00        -0.85749E+04
 
    0.91722E+03         0.51302E+04         0.00000E+00
    0.51302E+04        -0.21118E+05         0.00000E+00
    0.00000E+00         0.00000E+00        -0.71372E+04
 
    0.17001E+04         0.46607E+04         0.00000E+00
    0.46607E+04        -0.19885E+05         0.00000E+00
    0.00000E+00         0.00000E+00        -0.58498E+04
 
    0.16256E+04         0.41619E+04         0.00000E+00
    0.41619E+04        -0.18763E+05         0.00000E+00
    0.00000E+00         0.00000E+00        -0.51412E+04
 
   -0.43840E+02         0.36219E+04         0.00000E+00
    0.36219E+04        -0.17765E+05         0.00000E+00
    0.00000E+00         0.00000E+00        -0.53427E+04
 
   -0.17473E+04         0.32798E+04         0.00000E+00
    0.32798E+04        -0.16863E+05         0.00000E+00
    0.00000E+00         0.00000E+00        -0.55830E+04
 
   -0.35104E+04         0.31135E+04         0.00000E+00
    0.31135E+04        -0.16023E+05         0.00000E+00
    0.00000E+00         0.00000E+00        -0.58602E+04
 
   -0.53774E+04         0.31096E+04         0.00000E+00
    0.31096E+04        -0.15209E+05         0.00000E+00
    0.00000E+00         0.00000E+00        -0.61759E+04
 
   -0.53469E+04         0.32349E+04         0.00000E+00
    0.32349E+04         0.36723E+04         0.00000E+00
    0.00000E+00         0.00000E+00         0.23212E+03
 
   -0.27103E+05         0.11085E+05         0.00000E+00
    0.11085E+05        -0.97059E+04         0.00000E+00
    0.00000E+00         0.00000E+00        -0.19807E+05
 
   -0.32124E+05         0.14176E+05         0.00000E+00
    0.14176E+05        -0.17695E+05         0.00000E+00
    0.00000E+00         0.00000E+00        -0.27674E+05
 
   -0.30963E+05         0.15562E+05         0.00000E+00
    0.15562E+05        -0.21987E+05         0.00000E+00
    0.00000E+00         0.00000E+00        -0.29206E+05
 
   -0.28342E+05         0.16162E+05         0.00000E+00
    0.16162E+05        -0.24972E+05         0.00000E+00
    0.00000E+00         0.00000E+00        -0.29112E+05
 
   -0.24962E+05         0.16103E+05         0.00000E+00
    0.16103E+05        -0.26821E+05         0.00000E+00
    0.00000E+00         0.00000E+00        -0.27933E+05
 
   -0.21430E+05         0.15590E+05         0.00000E+00
    0.15590E+05        -0.27861E+05         0.00000E+00
    0.00000E+00         0.00000E+00        -0.26198E+05
 
   -0.18058E+05         0.14789E+05         0.00000E+00
    0.14789E+05        -0.28262E+05         0.00000E+00
    0.00000E+00         0.00000E+00        -0.24178E+05
 
   -0.15009E+05         0.13853E+05         0.00000E+00
    0.13853E+05        -0.28171E+05         0.00000E+00
    0.00000E+00         0.00000E+00        -0.22050E+05
 
   -0.12272E+05         0.12870E+05         0.00000E+00
    0.12870E+05        -0.27744E+05         0.00000E+00
    0.00000E+00         0.00000E+00        -0.19909E+05
 
   -0.98618E+04         0.11908E+05         0.00000E+00
    0.11908E+05        -0.27142E+05         0.00000E+00
    0.00000E+00         0.00000E+00        -0.17841E+05
 
   -0.77535E+04         0.10979E+05         0.00000E+00
    0.10979E+05        -0.26368E+05         0.00000E+00
    0.00000E+00         0.00000E+00        -0.15892E+05
 
   -0.59144E+04         0.10067E+05         0.00000E+00
    0.10067E+05        -0.25391E+05         0.00000E+00
    0.00000E+00         0.00000E+00        -0.14077E+05
 
   -0.43694E+04         0.91818E+04         0.00000E+00
    0.91818E+04        -0.24354E+05         0.00000E+00
    0.00000E+00         0.00000E+00        -0.12417E+05
 
   -0.29850E+04         0.83396E+04         0.00000E+00
    0.83396E+04        -0.23314E+05         0.00000E+00
    0.00000E+00         0.00000E+00        -0.10870E+05
 
   -0.17770E+04         0.76113E+04         0.00000E+00
    0.76113E+04        -0.22205E+05         0.00000E+00
    0.00000E+00         0.00000E+00        -0.94383E+04
 
   -0.69009E+03         0.69418E+04         0.00000E+00
    0.69418E+04        -0.21129E+05         0.00000E+00
    0.00000E+00         0.00000E+00        -0.80770E+04
 
    0.34342E+03         0.63231E+04         0.00000E+00
    0.63231E+04        -0.20069E+05         0.00000E+00
    0.00000E+00         0.00000E+00        -0.67235E+04
 
    0.12771E+04         0.57860E+04         0.00000E+00
    0.57860E+04        -0.18954E+05         0.00000E+00
    0.00000E+00         0.00000E+00        -0.55141E+04
 
    0.91327E+03         0.51595E+04         0.00000E+00
    0.51595E+04        -0.17920E+05         0.00000E+00
    0.00000E+00         0.00000E+00        -0.51021E+04
 
   -0.52612E+03         0.45179E+04         0.00000E+00
    0.45179E+04        -0.17043E+05         0.00000E+00
    0.00000E+00         0.00000E+00        -0.52707E+04
 
   -0.20290E+04         0.41035E+04         0.00000E+00
    0.41035E+04        -0.16239E+05         0.00000E+00
    0.00000E+00         0.00000E+00        -0.54804E+04
 
   -0.36066E+04         0.38952E+04         0.00000E+00
    0.38952E+04        -0.15486E+05         0.00000E+00
    0.00000E+00         0.00000E+00        -0.57277E+04
 
   -0.52900E+04         0.38895E+04         0.00000E+00
    0.38895E+04        -0.14750E+05         0.00000E+00
    0.00000E+00         0.00000E+00        -0.60120E+04
 
    0.33639E+03        -0.11882E+04         0.00000E+00
   -0.11882E+04        -0.16838E+04         0.00000E+00
    0.00000E+00         0.00000E+00        -0.16420E+03
 
   -0.24262E+05         0.58099E+04         0.00000E+00
    0.58099E+04        -0.31118E+04         0.00000E+00
    0.00000E+00         0.00000E+00        -0.10025E+05
 
   -0.28863E+05         0.95685E+04         0.00000E+00
    0.95685E+04        -0.92097E+04         0.00000E+00
    0.00000E+00         0.00000E+00        -0.18316E+05
 
   -0.29153E+05         0.11881E+05         0.00000E+00
    0.11881E+05        -0.13479E+05         0.00000E+00
    0.00000E+00         0.00000E+00        -0.21768E+05
 
   -0.27273E+05         0.13319E+05         0.00000E+00
    0.13319E+05        -0.16587E+05         0.00000E+00
    0.00000E+00         0.00000E+00        -0.22791E+05
 
   -0.24636E+05         0.14068E+05         0.00000E+00
    0.14068E+05        -0.18911E+05         0.00000E+00
    0.00000E+00         0.00000E+00        -0.22591E+05
 
   -0.21632E+05         0.14282E+05         0.00000E+00
    0.14282E+05        -0.20587E+05         0.00000E+00
    0.00000E+00         0.00000E+00        -0.21711E+05
 
   -0.18606E+05         0.14091E+05         0.00000E+00
    0.14091E+05        -0.21700E+05         0.00000E+00
    0.00000E+00         0.00000E+00        -0.20427E+05
 
   -0.15747E+05         0.13634E+05         0.00000E+00
    0.13634E+05        -0.22353E+05         0.00000E+00
    0.00000E+00         0.00000E+00        -0.18938E+05
 
   -0.13116E+05         0.13006E+05         0.00000E+00
    0.13006E+05        -0.22633E+05         0.00000E+00
    0.00000E+00         0.00000E+00        -0.17346E+05
 
   -0.10738E+05         0.12268E+05         0.00000E+00
    0.12268E+05        -0.22615E+05         0.00000E+00
    0.00000E+00         0.00000E+00        -0.15732E+05
 
   -0.86043E+04         0.11540E+05         0.00000E+00
    0.11540E+05        -0.22382E+05         0.00000E+00
    0.00000E+00         0.00000E+00        -0.14132E+05
 
   -0.67729E+04         0.10766E+05         0.00000E+00
    0.10766E+05        -0.22038E+05         0.00000E+00
    0.00000E+00         0.00000E+00        -0.12647E+05
 
   -0.51816E+04         0.99913E+04         0.00000E+00
    0.99913E+04        -0.21522E+05         0.00000E+00
    0.00000E+00         0.00000E+00        -0.11256E+05
 
   -0.37702E+04         0.92553E+04         0.00000E+00
    0.92553E+04        -0.20804E+05         0.00000E+00
    0.00000E+00         0.00000E+00        -0.99528E+04
 
   -0.24763E+04         0.85359E+04         0.00000E+00
    0.85359E+04        -0.20024E+05         0.00000E+00
    0.00000E+00         0.00000E+00        -0.86863E+04
 
   -0.13432E+04         0.78591E+04         0.00000E+00
    0.78591E+04        -0.19230E+05         0.00000E+00
    0.00000E+00         0.00000E+00        -0.74664E+04
 
   -0.22848E+03         0.72841E+04         0.00000E+00
    0.72841E+04        -0.18419E+05         0.00000E+00
    0.00000E+00         0.00000E+00        -0.62236E+04
 
    0.76161E+03         0.67704E+04         0.00000E+00
    0.67704E+04        -0.17586E+05         0.00000E+00
    0.00000E+00         0.00000E+00        -0.51440E+04
 
    0.94004E+02         0.59908E+04         0.00000E+00
    0.59908E+04        -0.16813E+05         0.00000E+00
    0.00000E+00         0.00000E+00        -0.50157E+04
 
   -0.10801E+04         0.52840E+04         0.00000E+00
    0.52840E+04        -0.16111E+05         0.00000E+00
    0.00000E+00         0.00000E+00        -0.51572E+04
 
   -0.23610E+04         0.48173E+04         0.00000E+00
    0.48173E+04        -0.15450E+05         0.00000E+00
    0.00000E+00         0.00000E+00        -0.53432E+04
 
   -0.37207E+04         0.45829E+04         0.00000E+00
    0.45829E+04        -0.14812E+05         0.00000E+00
    0.00000E+00         0.00000E+00        -0.55597E+04
 
   -0.51809E+04         0.45806E+04         0.00000E+00
    0.45806E+04        -0.14178E+05         0.00000E+00
    0.00000E+00         0.00000E+00        -0.58075E+04
 
    0.94886E+03        -0.17039E+04         0.00000E+00
   -0.17039E+04         0.49000E+02         0.00000E+00
    0.00000E+00         0.00000E+00         0.35061E+03
 
   -0.18633E+05         0.80513E+03         0.00000E+00
    0.80513E+03        -0.13738E+04         0.00000E+00
    0.00000E+00         0.00000E+00        -0.60021E+04
 
   -0.26652E+05         0.61350E+04         0.00000E+00
    0.61350E+04        -0.49879E+04         0.00000E+00
    0.00000E+00         0.00000E+00        -0.12163E+05
 
   -0.26866E+05         0.88909E+04         0.00000E+00
    0.88909E+04        -0.83077E+04         0.00000E+00
    0.00000E+00         0.00000E+00        -0.15722E+05
 
   -0.25819E+05         0.10756E+05         0.00000E+00
    0.10756E+05        -0.11200E+05         0.00000E+00
    0.00000E+00         0.00000E+00        -0.17432E+05
 
   -0.23743E+05         0.12012E+05         0.00000E+00
    0.12012E+05        -0.13532E+05         0.00000E+00
    0.00000E+00         0.00000E+00        -0.17925E+05
 
   -0.21274E+05         0.12691E+05         0.00000E+00
    0.12691E+05        -0.15312E+05         0.00000E+00
    0.00000E+00         0.00000E+00        -0.17677E+05
 
   -0.18639E+05         0.12948E+05         0.00000E+00
    0.12948E+05        -0.16671E+05         0.00000E+00
    0.00000E+00         0.00000E+00        -0.16960E+05
 
   -0.16062E+05         0.12881E+05         0.00000E+00
    0.12881E+05        -0.17656E+05         0.00000E+00
    0.00000E+00         0.00000E+00        -0.15976E+05
 
   -0.13629E+05         0.12588E+05         0.00000E+00
    0.12588E+05        -0.18329E+05         0.00000E+00
    0.00000E+00         0.00000E+00        -0.14829E+05
 
   -0.11342E+05         0.12166E+05         0.00000E+00
    0.12166E+05        -0.18723E+05         0.00000E+00
    0.00000E+00         0.00000E+00        -0.13573E+05
 
   -0.92757E+04         0.11624E+05         0.00000E+00
    0.11624E+05        -0.18892E+05         0.00000E+00
    0.00000E+00         0.00000E+00        -0.12303E+05
 
   -0.74748E+04         0.11037E+05         0.00000E+00
    0.11037E+05        -0.18828E+05         0.00000E+00
    0.00000E+00         0.00000E+00        -0.11097E+05
 
   -0.58745E+04         0.10419E+05         0.00000E+00
    0.10419E+05        -0.18585E+05         0.00000E+00
    0.00000E+00         0.00000E+00        -0.99498E+04
 
   -0.44468E+04         0.97933E+04         0.00000E+00
    0.97933E+04        -0.18255E+05         0.00000E+00
    0.00000E+00         0.00000E+00        -0.88637E+04
 
   -0.31403E+04         0.91719E+04         0.00000E+00
    0.91719E+04        -0.17824E+05         0.00000E+00
    0.00000E+00         0.00000E+00        -0.77694E+04
 
   -0.19320E+04         0.85745E+04         0.00000E+00
    0.85745E+04        -0.17271E+05         0.00000E+00
    0.00000E+00         0.00000E+00        -0.66786E+04
 
   -0.77438E+03         0.80332E+04         0.00000E+00
    0.80332E+04        -0.16616E+05         0.00000E+00
    0.00000E+00         0.00000E+00        -0.56677E+04
 
    0.49807E+02         0.74566E+04         0.00000E+00
    0.74566E+04        -0.15971E+05         0.00000E+00
    0.00000E+00         0.00000E+00        -0.48140E+04
 
   -0.71328E+03         0.65799E+04         0.00000E+00
    0.65799E+04        -0.15497E+05         0.00000E+00
    0.00000E+00         0.00000E+00        -0.48631E+04
 
   -0.16787E+04         0.58665E+04         0.00000E+00
    0.58665E+04        -0.15029E+05         0.00000E+00
    0.00000E+00         0.00000E+00        -0.50124E+04
 
   -0.27151E+04         0.53907E+04         0.00000E+00
    0.53907E+04        -0.14538E+05         0.00000E+00
    0.00000E+00         0.00000E+00        -0.51760E+04
 
   -0.38388E+04         0.51553E+04         0.00000E+00
    0.51553E+04        -0.14034E+05         0.00000E+00
    0.00000E+00         0.00000E+00        -0.53619E+04
 
   -0.50506E+04         0.51650E+04         0.00000E+00
    0.51650E+04        -0.13515E+05         0.00000E+00
    0.00000E+00         0.00000E+00        -0.55698E+04
 
   -0.85879E+03        -0.17690E+04         0.00000E+00
   -0.17690E+04        -0.28083E+02         0.00000E+00
    0.00000E+00         0.00000E+00        -0.26606E+03
 
   -0.14035E+05        -0.11455E+04         0.00000E+00
   -0.11455E+04        -0.32864E+03         0.00000E+00
    0.00000E+00         0.00000E+00        -0.43091E+04
 
   -0.23208E+05         0.29835E+04         0.00000E+00
    0.29835E+04        -0.14805E+04         0.00000E+00
    0.00000E+00         0.00000E+00        -0.76369E+04
 
   -0.24778E+05         0.62787E+04         0.00000E+00
    0.62787E+04        -0.46971E+04         0.00000E+00
    0.00000E+00         0.00000E+00        -0.11370E+05
 
   -0.24089E+05         0.84507E+04         0.00000E+00
    0.84507E+04        -0.71061E+04         0.00000E+00
    0.00000E+00         0.00000E+00        -0.13210E+05
 
   -0.22523E+05         0.10024E+05         0.00000E+00
    0.10024E+05        -0.92865E+04         0.00000E+00
    0.00000E+00         0.00000E+00        -0.13934E+05
 
   -0.20561E+05         0.11079E+05         0.00000E+00
    0.11079E+05        -0.11179E+05         0.00000E+00
    0.00000E+00         0.00000E+00        -0.14109E+05
 
   -0.18317E+05         0.11676E+05         0.00000E+00
    0.11676E+05        -0.12665E+05         0.00000E+00
    0.00000E+00         0.00000E+00        -0.13789E+05
 
   -0.16049E+05         0.11923E+05         0.00000E+00
    0.11923E+05        -0.13809E+05         0.00000E+00
    0.00000E+00         0.00000E+00        -0.13195E+05
 
   -0.13819E+05         0.11917E+05         0.00000E+00
    0.11917E+05        -0.14651E+05         0.00000E+00
    0.00000E+00         0.00000E+00        -0.12395E+05
 
   -0.11692E+05         0.11738E+05         0.00000E+00
    0.11738E+05        -0.15235E+05         0.00000E+00
    0.00000E+00         0.00000E+00        -0.11466E+05
 
   -0.97379E+04         0.11432E+05         0.00000E+00
    0.11432E+05        -0.15589E+05         0.00000E+00
    0.00000E+00         0.00000E+00        -0.10482E+05
 
   -0.79966E+04         0.11021E+05         0.00000E+00
    0.11021E+05        -0.15783E+05         0.00000E+00
    0.00000E+00         0.00000E+00        -0.95297E+04
 
   -0.64293E+04         0.10558E+05         0.00000E+00
    0.10558E+05        -0.15833E+05         0.00000E+00
    0.00000E+00         0.00000E+00        -0.86046E+04
 
   -0.50032E+04         0.10065E+05         0.00000E+00
    0.10065E+05        -0.15714E+05         0.00000E+00
    0.00000E+00         0.00000E+00        -0.76959E+04
 
   -0.37032E+04         0.95621E+04         0.00000E+00
    0.95621E+04        -0.15459E+05         0.00000E+00
    0.00000E+00         0.00000E+00        -0.68247E+04
 
   -0.24583E+04         0.90654E+04         0.00000E+00
    0.90654E+04        -0.15114E+05         0.00000E+00
    0.00000E+00         0.00000E+00        -0.59392E+04
 
   -0.12849E+04         0.85754E+04         0.00000E+00
    0.85754E+04        -0.14687E+05         0.00000E+00
    0.00000E+00         0.00000E+00        -0.50593E+04
 
   -0.83313E+03         0.78527E+04         0.00000E+00
    0.78527E+04        -0.14352E+05         0.00000E+00
    0.00000E+00         0.00000E+00        -0.45556E+04
 
   -0.15300E+04         0.69179E+04         0.00000E+00
    0.69179E+04        -0.14162E+05         0.00000E+00
    0.00000E+00         0.00000E+00        -0.47076E+04
 
   -0.22529E+04         0.62514E+04         0.00000E+00
    0.62514E+04        -0.13896E+05         0.00000E+00
    0.00000E+00         0.00000E+00        -0.48446E+04
 
   -0.30572E+04         0.58140E+04         0.00000E+00
    0.58140E+04        -0.13569E+05         0.00000E+00
    0.00000E+00         0.00000E+00        -0.49877E+04
 
   -0.39429E+04         0.56042E+04         0.00000E+00
    0.56042E+04        -0.13197E+05         0.00000E+00
    0.00000E+00         0.00000E+00        -0.51419E+04
 
   -0.49005E+04         0.56343E+04         0.00000E+00
    0.56343E+04        -0.12796E+05         0.00000E+00
    0.00000E+00         0.00000E+00        -0.53089E+04
 
   -0.28933E+04        -0.15202E+04         0.00000E+00
   -0.15202E+04         0.15846E+03         0.00000E+00
    0.00000E+00         0.00000E+00        -0.82044E+03
 
   -0.11935E+05        -0.16427E+04         0.00000E+00
   -0.16427E+04         0.28788E+03         0.00000E+00
    0.00000E+00         0.00000E+00        -0.34942E+04
 
   -0.19235E+05         0.78366E+03         0.00000E+00
    0.78366E+03        -0.66784E+03         0.00000E+00
    0.00000E+00         0.00000E+00        -0.59710E+04
 
   -0.22452E+05         0.41344E+04         0.00000E+00
    0.41344E+04        -0.20292E+04         0.00000E+00
    0.00000E+00         0.00000E+00        -0.80266E+04
 
   -0.22272E+05         0.65008E+04         0.00000E+00
    0.65008E+04        -0.41139E+04         0.00000E+00
    0.00000E+00         0.00000E+00        -0.99064E+04
 
   -0.21132E+05         0.82004E+04         0.00000E+00
    0.82004E+04        -0.59006E+04         0.00000E+00
    0.00000E+00         0.00000E+00        -0.10847E+05
 
   -0.19582E+05         0.94568E+04         0.00000E+00
    0.94568E+04        -0.75618E+04         0.00000E+00
    0.00000E+00         0.00000E+00        -0.11158E+05
 
   -0.17718E+05         0.10347E+05         0.00000E+00
    0.10347E+05        -0.90534E+04         0.00000E+00
    0.00000E+00         0.00000E+00        -0.11095E+05
 
   -0.15778E+05         0.10864E+05         0.00000E+00
    0.10864E+05        -0.10293E+05         0.00000E+00
    0.00000E+00         0.00000E+00        -0.10763E+05
 
   -0.13763E+05         0.11108E+05         0.00000E+00
    0.11108E+05        -0.11265E+05         0.00000E+00
    0.00000E+00         0.00000E+00        -0.10221E+05
 
   -0.11810E+05         0.11158E+05         0.00000E+00
    0.11158E+05        -0.12011E+05         0.00000E+00
    0.00000E+00         0.00000E+00        -0.95412E+04
 
   -0.99983E+04         0.11044E+05         0.00000E+00
    0.11044E+05        -0.12561E+05         0.00000E+00
    0.00000E+00         0.00000E+00        -0.88017E+04
 
   -0.83532E+04         0.10809E+05         0.00000E+00
    0.10809E+05        -0.12920E+05         0.00000E+00
    0.00000E+00         0.00000E+00        -0.80669E+04
 
   -0.68353E+04         0.10502E+05         0.00000E+00
    0.10502E+05        -0.13103E+05         0.00000E+00
    0.00000E+00         0.00000E+00        -0.73334E+04
 
   -0.54348E+04         0.10142E+05         0.00000E+00
    0.10142E+05        -0.13176E+05         0.00000E+00
    0.00000E+00         0.00000E+00        -0.65981E+04
 
   -0.41538E+04         0.97446E+04         0.00000E+00
    0.97446E+04        -0.13151E+05         0.00000E+00
    0.00000E+00         0.00000E+00        -0.58851E+04
 
   -0.29116E+04         0.93335E+04         0.00000E+00
    0.93335E+04        -0.12983E+05         0.00000E+00
    0.00000E+00         0.00000E+00        -0.51328E+04
 
   -0.18341E+04         0.88775E+04         0.00000E+00
    0.88775E+04        -0.12817E+05         0.00000E+00
    0.00000E+00         0.00000E+00        -0.44384E+04
 
   -0.18899E+04         0.78617E+04         0.00000E+00
    0.78617E+04        -0.12913E+05         0.00000E+00
    0.00000E+00         0.00000E+00        -0.44409E+04
 
   -0.22673E+04         0.70549E+04         0.00000E+00
    0.70549E+04        -0.12911E+05         0.00000E+00
    0.00000E+00         0.00000E+00        -0.45536E+04
 
   -0.27675E+04         0.64762E+04         0.00000E+00
    0.64762E+04        -0.12796E+05         0.00000E+00
    0.00000E+00         0.00000E+00        -0.46691E+04
 
   -0.33558E+04         0.61020E+04         0.00000E+00
    0.61020E+04        -0.12599E+05         0.00000E+00
    0.00000E+00         0.00000E+00        -0.47864E+04
 
   -0.40186E+04         0.59351E+04         0.00000E+00
    0.59351E+04        -0.12344E+05         0.00000E+00
    0.00000E+00         0.00000E+00        -0.49087E+04
 
   -0.47333E+04         0.59900E+04         0.00000E+00
    0.59900E+04        -0.12053E+05         0.00000E+00
    0.00000E+00         0.00000E+00        -0.50359E+04
 
   -0.47269E+04        -0.11862E+04         0.00000E+00
   -0.11862E+04         0.14245E+03         0.00000E+00
    0.00000E+00         0.00000E+00        -0.13753E+04
 
   -0.11047E+05        -0.16568E+04         0.00000E+00
   -0.16568E+04         0.43173E+03         0.00000E+00
    0.00000E+00         0.00000E+00        -0.31847E+04
 
   -0.16292E+05        -0.95858E+02         0.00000E+00
   -0.95858E+02         0.34137E+03         0.00000E+00
    0.00000E+00         0.00000E+00        -0.47852E+04
 
   -0.19717E+05         0.24489E+04         0.00000E+00
    0.24489E+04        -0.40740E+03         0.00000E+00
    0.00000E+00         0.00000E+00        -0.60373E+04
 
   -0.20417E+05         0.48762E+04         0.00000E+00
    0.48762E+04        -0.18355E+04         0.00000E+00
    0.00000E+00         0.00000E+00        -0.72832E+04
 
   -0.19683E+05         0.66865E+04         0.00000E+00
    0.66865E+04        -0.34016E+04         0.00000E+00
    0.00000E+00         0.00000E+00        -0.82663E+04
 
   -0.18455E+05         0.80361E+04         0.00000E+00
    0.80361E+04        -0.47981E+04         0.00000E+00
    0.00000E+00         0.00000E+00        -0.87344E+04
 
   -0.16919E+05         0.90457E+04         0.00000E+00
    0.90457E+04        -0.60913E+04         0.00000E+00
    0.00000E+00         0.00000E+00        -0.88335E+04
 
   -0.15274E+05         0.97703E+04         0.00000E+00
    0.97703E+04        -0.72626E+04         0.00000E+00
    0.00000E+00         0.00000E+00        -0.86739E+04
 
   -0.13502E+05         0.10223E+05         0.00000E+00
    0.10223E+05        -0.82791E+04         0.00000E+00
    0.00000E+00         0.00000E+00        -0.83371E+04
 
   -0.11742E+05         0.10460E+05         0.00000E+00
    0.10460E+05        -0.90917E+04         0.00000E+00
    0.00000E+00         0.00000E+00        -0.78551E+04
 
   -0.10087E+05         0.10516E+05         0.00000E+00
    0.10516E+05        -0.97327E+04         0.00000E+00
    0.00000E+00         0.00000E+00        -0.73021E+04
 
   -0.85416E+04         0.10444E+05         0.00000E+00
    0.10444E+05        -0.10234E+05         0.00000E+00
    0.00000E+00         0.00000E+00        -0.67062E+04
 
   -0.70980E+04         0.10280E+05         0.00000E+00
    0.10280E+05        -0.10625E+05         0.00000E+00
    0.00000E+00         0.00000E+00        -0.61321E+04
 
   -0.57467E+04         0.10048E+05         0.00000E+00
    0.10048E+05        -0.10834E+05         0.00000E+00
    0.00000E+00         0.00000E+00        -0.55334E+04
 
   -0.45157E+04         0.97447E+04         0.00000E+00
    0.97447E+04        -0.10909E+05         0.00000E+00
    0.00000E+00         0.00000E+00        -0.49475E+04
 
   -0.32800E+04         0.94363E+04         0.00000E+00
    0.94363E+04        -0.11002E+05         0.00000E+00
    0.00000E+00         0.00000E+00        -0.43277E+04
 
   -0.28000E+04         0.85713E+04         0.00000E+00
    0.85713E+04        -0.11370E+05         0.00000E+00
    0.00000E+00         0.00000E+00        -0.42511E+04
 
   -0.27299E+04         0.77261E+04         0.00000E+00
    0.77261E+04        -0.11674E+05         0.00000E+00
    0.00000E+00         0.00000E+00        -0.43211E+04
 
   -0.28983E+04         0.70649E+04         0.00000E+00
    0.70649E+04        -0.11780E+05         0.00000E+00
    0.00000E+00         0.00000E+00        -0.44034E+04
 
   -0.32011E+04         0.65839E+04         0.00000E+00
    0.65839E+04        -0.11765E+05         0.00000E+00
    0.00000E+00         0.00000E+00        -0.44897E+04
 
   -0.35979E+04         0.62810E+04         0.00000E+00
    0.62810E+04        -0.11665E+05         0.00000E+00
    0.00000E+00         0.00000E+00        -0.45790E+04
 
   -0.40587E+04         0.61621E+04         0.00000E+00
    0.61621E+04        -0.11507E+05         0.00000E+00
    0.00000E+00         0.00000E+00        -0.46697E+04
 
   -0.45530E+04         0.62414E+04         0.00000E+00
    0.62414E+04        -0.11313E+05         0.00000E+00
    0.00000E+00         0.00000E+00        -0.47597E+04
 
   -0.62296E+04        -0.87760E+03         0.00000E+00
   -0.87760E+03         0.12298E+03         0.00000E+00
    0.00000E+00         0.00000E+00        -0.18320E+04
 
   -0.10573E+05        -0.13323E+04         0.00000E+00
   -0.13323E+04         0.49511E+03         0.00000E+00
    0.00000E+00         0.00000E+00        -0.30234E+04
 
   -0.14492E+05        -0.34043E+03         0.00000E+00
   -0.34043E+03         0.66362E+03         0.00000E+00
    0.00000E+00         0.00000E+00        -0.41485E+04
 
   -0.17174E+05         0.15172E+04         0.00000E+00
    0.15172E+04         0.31660E+03         0.00000E+00
    0.00000E+00         0.00000E+00        -0.50574E+04
 
   -0.18455E+05         0.36122E+04         0.00000E+00
    0.36122E+04        -0.27224E+03         0.00000E+00
    0.00000E+00         0.00000E+00        -0.56182E+04
 
   -0.18199E+05         0.53906E+04         0.00000E+00
    0.53906E+04        -0.13932E+04         0.00000E+00
    0.00000E+00         0.00000E+00        -0.62368E+04
 
   -0.17279E+05         0.68192E+04         0.00000E+00
    0.68192E+04        -0.26544E+04         0.00000E+00
    0.00000E+00         0.00000E+00        -0.67050E+04
 
   -0.16024E+05         0.79157E+04         0.00000E+00
    0.79157E+04        -0.37929E+04         0.00000E+00
    0.00000E+00         0.00000E+00        -0.68947E+04
 
   -0.14609E+05         0.87133E+04         0.00000E+00
    0.87133E+04        -0.48589E+04         0.00000E+00
    0.00000E+00         0.00000E+00        -0.68866E+04
 
   -0.13078E+05         0.93270E+04         0.00000E+00
    0.93270E+04        -0.57892E+04         0.00000E+00
    0.00000E+00         0.00000E+00        -0.66458E+04
 
   -0.11514E+05         0.97069E+04         0.00000E+00
    0.97069E+04        -0.66270E+04         0.00000E+00
    0.00000E+00         0.00000E+00        -0.63117E+04
 
   -0.10016E+05         0.99219E+04         0.00000E+00
    0.99219E+04        -0.73432E+04         0.00000E+00
    0.00000E+00         0.00000E+00        -0.59045E+04
 
   -0.85960E+04         0.99736E+04         0.00000E+00
    0.99736E+04        -0.78915E+04         0.00000E+00
    0.00000E+00         0.00000E+00        -0.54619E+04
 
   -0.72245E+04         0.99317E+04         0.00000E+00
    0.99317E+04        -0.82713E+04         0.00000E+00
    0.00000E+00         0.00000E+00        -0.49872E+04
 
   -0.59829E+04         0.98139E+04         0.00000E+00
    0.98139E+04        -0.86439E+04         0.00000E+00
    0.00000E+00         0.00000E+00        -0.45277E+04
 
   -0.48085E+04         0.95438E+04         0.00000E+00
    0.95438E+04        -0.90728E+04         0.00000E+00
    0.00000E+00         0.00000E+00        -0.41644E+04
 
   -0.40217E+04         0.88593E+04         0.00000E+00
    0.88593E+04        -0.97152E+04         0.00000E+00
    0.00000E+00         0.00000E+00        -0.41211E+04
 
   -0.35873E+04         0.81566E+04         0.00000E+00
    0.81566E+04        -0.10263E+05         0.00000E+00
    0.00000E+00         0.00000E+00        -0.41552E+04
 
   -0.34007E+04         0.75135E+04         0.00000E+00
    0.75135E+04        -0.10584E+05         0.00000E+00
    0.00000E+00         0.00000E+00        -0.41955E+04
 
   -0.34103E+04         0.69899E+04         0.00000E+00
    0.69899E+04        -0.10752E+05         0.00000E+00
    0.00000E+00         0.00000E+00        -0.42488E+04
 
   -0.35516E+04         0.66068E+04         0.00000E+00
    0.66068E+04        -0.10809E+05         0.00000E+00
    0.00000E+00         0.00000E+00        -0.43081E+04
 
   -0.37808E+04         0.63737E+04         0.00000E+00
    0.63737E+04        -0.10785E+05         0.00000E+00
    0.00000E+00         0.00000E+00        -0.43696E+04
 
   -0.40633E+04         0.63009E+04         0.00000E+00
    0.63009E+04        -0.10705E+05         0.00000E+00
    0.00000E+00         0.00000E+00        -0.44304E+04
 
   -0.43639E+04         0.64011E+04         0.00000E+00
    0.64011E+04        -0.10593E+05         0.00000E+00
    0.00000E+00         0.00000E+00        -0.44872E+04
 
   -0.73281E+04        -0.60329E+03         0.00000E+00
   -0.60329E+03         0.10361E+03         0.00000E+00
    0.00000E+00         0.00000E+00        -0.21674E+04
 
   -0.10325E+05        -0.94944E+03         0.00000E+00
   -0.94944E+03         0.43993E+03         0.00000E+00
    0.00000E+00         0.00000E+00        -0.29656E+04
 
   -0.13209E+05        -0.26268E+03         0.00000E+00
   -0.26268E+03         0.72374E+03         0.00000E+00
    0.00000E+00         0.00000E+00        -0.37454E+04
 
   -0.15356E+05         0.11436E+04         0.00000E+00
    0.11436E+04         0.69969E+03         0.00000E+00
    0.00000E+00         0.00000E+00        -0.43968E+04
 
   -0.16508E+05         0.28279E+04         0.00000E+00
    0.28279E+04         0.26371E+03         0.00000E+00
    0.00000E+00         0.00000E+00        -0.48734E+04
 
   -0.16675E+05         0.44510E+04         0.00000E+00
    0.44510E+04        -0.25740E+03         0.00000E+00
    0.00000E+00         0.00000E+00        -0.50797E+04
 
   -0.16101E+05         0.58299E+04         0.00000E+00
    0.58299E+04        -0.93854E+03         0.00000E+00
    0.00000E+00         0.00000E+00        -0.51867E+04
 
   -0.15094E+05         0.69051E+04         0.00000E+00
    0.69051E+04        -0.19088E+04         0.00000E+00
    0.00000E+00         0.00000E+00        -0.53480E+04
 
   -0.13870E+05         0.78024E+04         0.00000E+00
    0.78024E+04        -0.28345E+04         0.00000E+00
    0.00000E+00         0.00000E+00        -0.53552E+04
 
   -0.12534E+05         0.84782E+04         0.00000E+00
    0.84782E+04        -0.37027E+04         0.00000E+00
    0.00000E+00         0.00000E+00        -0.52132E+04
 
   -0.11162E+05         0.89547E+04         0.00000E+00
    0.89547E+04        -0.44695E+04         0.00000E+00
    0.00000E+00         0.00000E+00        -0.49794E+04
 
   -0.98216E+04         0.92662E+04         0.00000E+00
    0.92662E+04        -0.51508E+04         0.00000E+00
    0.00000E+00         0.00000E+00        -0.46734E+04
 
   -0.85344E+04         0.94674E+04         0.00000E+00
    0.94674E+04        -0.57953E+04         0.00000E+00
    0.00000E+00         0.00000E+00        -0.43468E+04
 
   -0.73175E+04         0.94252E+04         0.00000E+00
    0.94252E+04        -0.65246E+04         0.00000E+00
    0.00000E+00         0.00000E+00        -0.41537E+04
 
   -0.62163E+04         0.91762E+04         0.00000E+00
    0.91762E+04        -0.73106E+04         0.00000E+00
    0.00000E+00         0.00000E+00        -0.40581E+04
 
   -0.53287E+04         0.87700E+04         0.00000E+00
    0.87700E+04        -0.81417E+04         0.00000E+00
    0.00000E+00         0.00000E+00        -0.40411E+04
 
   -0.46466E+04         0.82748E+04         0.00000E+00
    0.82748E+04        -0.88033E+04         0.00000E+00
    0.00000E+00         0.00000E+00        -0.40350E+04
 
   -0.41769E+04         0.77446E+04         0.00000E+00
    0.77446E+04        -0.92796E+04         0.00000E+00
    0.00000E+00         0.00000E+00        -0.40369E+04
 
   -0.39173E+04         0.72612E+04         0.00000E+00
    0.72612E+04        -0.96135E+04         0.00000E+00
    0.00000E+00         0.00000E+00        -0.40592E+04
 
   -0.38119E+04         0.68594E+04         0.00000E+00
    0.68594E+04        -0.98191E+04         0.00000E+00
    0.00000E+00         0.00000E+00        -0.40893E+04
 
   -0.38220E+04         0.65663E+04         0.00000E+00
    0.65663E+04        -0.99264E+04         0.00000E+00
    0.00000E+00         0.00000E+00        -0.41245E+04
 
   -0.39085E+04         0.63977E+04         0.00000E+00
    0.63977E+04        -0.99609E+04         0.00000E+00
    0.00000E+00         0.00000E+00        -0.41608E+04
 
   -0.40364E+04         0.63660E+04         0.00000E+00
    0.63660E+04        -0.99458E+04         0.00000E+00
    0.00000E+00         0.00000E+00        -0.41947E+04
 
   -0.41703E+04         0.64827E+04         0.00000E+00
    0.64827E+04        -0.99042E+04         0.00000E+00
    0.00000E+00         0.00000E+00        -0.42224E+04
 
   -0.80647E+04        -0.38413E+03         0.00000E+00
   -0.38413E+03         0.79132E+02         0.00000E+00
    0.00000E+00         0.00000E+00        -0.23957E+04
 
   -0.10146E+05        -0.58713E+03         0.00000E+00
   -0.58713E+03         0.35939E+03         0.00000E+00
    0.00000E+00         0.00000E+00        -0.29361E+04
 
   -0.12251E+05        -0.60532E+02         0.00000E+00
   -0.60532E+02         0.64815E+03         0.00000E+00
    0.00000E+00         0.00000E+00        -0.34808E+04
 
   -0.13935E+05         0.10248E+04         0.00000E+00
    0.10248E+04         0.73677E+03         0.00000E+00
    0.00000E+00         0.00000E+00        -0.39595E+04
 
   -0.14937E+05         0.24159E+04         0.00000E+00
    0.24159E+04         0.55900E+03         0.00000E+00
    0.00000E+00         0.00000E+00        -0.43133E+04
 
   -0.15207E+05         0.38420E+04         0.00000E+00
    0.38420E+04         0.10876E+03         0.00000E+00
    0.00000E+00         0.00000E+00        -0.45293E+04
 
   -0.14893E+05         0.50911E+04         0.00000E+00
    0.50911E+04        -0.49709E+03         0.00000E+00
    0.00000E+00         0.00000E+00        -0.46170E+04
 
   -0.14127E+05         0.61596E+04         0.00000E+00
    0.61596E+04        -0.10431E+04         0.00000E+00
    0.00000E+00         0.00000E+00        -0.45511E+04
 
   -0.13103E+05         0.70370E+04         0.00000E+00
    0.70370E+04        -0.16792E+04         0.00000E+00
    0.00000E+00         0.00000E+00        -0.44346E+04
 
   -0.11960E+05         0.77096E+04         0.00000E+00
    0.77096E+04        -0.24165E+04         0.00000E+00
    0.00000E+00         0.00000E+00        -0.43131E+04
 
   -0.10772E+05         0.82009E+04         0.00000E+00
    0.82009E+04        -0.32268E+04         0.00000E+00
    0.00000E+00         0.00000E+00        -0.41996E+04
 
   -0.95799E+04         0.85001E+04         0.00000E+00
    0.85001E+04        -0.40904E+04         0.00000E+00
    0.00000E+00         0.00000E+00        -0.41011E+04
 
   -0.84849E+04         0.86037E+04         0.00000E+00
    0.86037E+04        -0.50147E+04         0.00000E+00
    0.00000E+00         0.00000E+00        -0.40499E+04
 
   -0.74644E+04         0.85728E+04         0.00000E+00
    0.85728E+04        -0.58906E+04         0.00000E+00
    0.00000E+00         0.00000E+00        -0.40065E+04
 
   -0.65193E+04         0.83886E+04         0.00000E+00
    0.83886E+04        -0.66870E+04         0.00000E+00
    0.00000E+00         0.00000E+00        -0.39619E+04
 
   -0.57193E+04         0.80869E+04         0.00000E+00
    0.80869E+04        -0.73717E+04         0.00000E+00
    0.00000E+00         0.00000E+00        -0.39273E+04
 
   -0.50903E+04         0.77297E+04         0.00000E+00
    0.77297E+04        -0.79507E+04         0.00000E+00
    0.00000E+00         0.00000E+00        -0.39123E+04
 
   -0.46212E+04         0.73483E+04         0.00000E+00
    0.73483E+04        -0.84074E+04         0.00000E+00
    0.00000E+00         0.00000E+00        -0.39086E+04
 
   -0.43047E+04         0.69894E+04         0.00000E+00
    0.69894E+04        -0.87397E+04         0.00000E+00
    0.00000E+00         0.00000E+00        -0.39133E+04
 
   -0.41155E+04         0.66910E+04         0.00000E+00
    0.66910E+04        -0.89688E+04         0.00000E+00
    0.00000E+00         0.00000E+00        -0.39253E+04
 
   -0.40200E+04         0.64773E+04         0.00000E+00
    0.64773E+04        -0.91134E+04         0.00000E+00
    0.00000E+00         0.00000E+00        -0.39400E+04
 
   -0.39865E+04         0.63658E+04         0.00000E+00
    0.63658E+04        -0.91946E+04         0.00000E+00
    0.00000E+00         0.00000E+00        -0.39543E+04
 
   -0.39828E+04         0.63695E+04         0.00000E+00
    0.63695E+04        -0.92330E+04         0.00000E+00
    0.00000E+00         0.00000E+00        -0.39647E+04
 
   -0.39755E+04         0.64985E+04         0.00000E+00
    0.64985E+04        -0.92498E+04         0.00000E+00
    0.00000E+00         0.00000E+00        -0.39676E+04
 
   -0.85028E+04        -0.21785E+03         0.00000E+00
   -0.21785E+03         0.58385E+02         0.00000E+00
    0.00000E+00         0.00000E+00        -0.25333E+04
 
   -0.99670E+04        -0.28460E+03         0.00000E+00
   -0.28460E+03         0.27468E+03         0.00000E+00
    0.00000E+00         0.00000E+00        -0.29077E+04
 
   -0.11504E+05         0.15677E+03         0.00000E+00
    0.15677E+03         0.51984E+03         0.00000E+00
    0.00000E+00         0.00000E+00        -0.32954E+04
 
   -0.12792E+05         0.10248E+04         0.00000E+00
    0.10248E+04         0.63897E+03         0.00000E+00
    0.00000E+00         0.00000E+00        -0.36459E+04
 
   -0.13625E+05         0.21560E+04         0.00000E+00
    0.21560E+04         0.54336E+03         0.00000E+00
    0.00000E+00         0.00000E+00        -0.39245E+04
 
   -0.13935E+05         0.33665E+04         0.00000E+00
    0.33665E+04         0.22791E+03         0.00000E+00
    0.00000E+00         0.00000E+00        -0.41122E+04
 
   -0.13756E+05         0.45189E+04         0.00000E+00
    0.45189E+04        -0.25085E+03         0.00000E+00
    0.00000E+00         0.00000E+00        -0.42022E+04
 
   -0.13190E+05         0.55226E+04         0.00000E+00
    0.55226E+04        -0.85678E+03         0.00000E+00
    0.00000E+00         0.00000E+00        -0.42139E+04
 
   -0.12364E+05         0.63284E+04         0.00000E+00
    0.63284E+04        -0.15334E+04         0.00000E+00
    0.00000E+00         0.00000E+00        -0.41693E+04
 
   -0.11408E+05         0.69439E+04         0.00000E+00
    0.69439E+04        -0.22614E+04         0.00000E+00
    0.00000E+00         0.00000E+00        -0.41009E+04
 
   -0.10397E+05         0.73850E+04         0.00000E+00
    0.73850E+04        -0.30292E+04         0.00000E+00
    0.00000E+00         0.00000E+00        -0.40278E+04
 
   -0.93906E+04         0.76556E+04         0.00000E+00
    0.76556E+04        -0.38223E+04         0.00000E+00
    0.00000E+00         0.00000E+00        -0.39639E+04
 
   -0.84338E+04         0.77791E+04         0.00000E+00
    0.77791E+04        -0.46000E+04         0.00000E+00
    0.00000E+00         0.00000E+00        -0.39101E+04
 
   -0.75409E+04         0.77877E+04         0.00000E+00
    0.77877E+04        -0.53509E+04         0.00000E+00
    0.00000E+00         0.00000E+00        -0.38675E+04
 
   -0.67194E+04         0.76837E+04         0.00000E+00
    0.76837E+04        -0.60510E+04         0.00000E+00
    0.00000E+00         0.00000E+00        -0.38311E+04
 
   -0.60015E+04         0.74860E+04         0.00000E+00
    0.74860E+04        -0.66710E+04         0.00000E+00
    0.00000E+00         0.00000E+00        -0.38017E+04
 
   -0.54081E+04         0.72339E+04         0.00000E+00
    0.72339E+04        -0.71943E+04         0.00000E+00
    0.00000E+00         0.00000E+00        -0.37807E+04
 
   -0.49405E+04         0.69639E+04         0.00000E+00
    0.69639E+04        -0.76199E+04         0.00000E+00
    0.00000E+00         0.00000E+00        -0.37681E+04
 
   -0.45885E+04         0.67082E+04         0.00000E+00
    0.67082E+04        -0.79496E+04         0.00000E+00
    0.00000E+00         0.00000E+00        -0.37614E+04
 
   -0.43344E+04         0.64962E+04         0.00000E+00
    0.64962E+04        -0.81930E+04         0.00000E+00
    0.00000E+00         0.00000E+00        -0.37582E+04
 
   -0.41545E+04         0.63507E+04         0.00000E+00
    0.63507E+04        -0.83656E+04         0.00000E+00
    0.00000E+00         0.00000E+00        -0.37560E+04
 
   -0.40216E+04         0.62883E+04         0.00000E+00
    0.62883E+04        -0.84841E+04         0.00000E+00
    0.00000E+00         0.00000E+00        -0.37517E+04
 
   -0.39075E+04         0.63216E+04         0.00000E+00
    0.63216E+04        -0.85665E+04         0.00000E+00
    0.00000E+00         0.00000E+00        -0.37422E+04
 
   -0.37820E+04         0.64594E+04         0.00000E+00
    0.64594E+04        -0.86318E+04         0.00000E+00
    0.00000E+00         0.00000E+00        -0.37241E+04
 
   -0.87116E+04        -0.97278E+02         0.00000E+00
   -0.97278E+02         0.41219E+02         0.00000E+00
    0.00000E+00         0.00000E+00        -0.26011E+04
 
   -0.97628E+04        -0.52517E+02         0.00000E+00
   -0.52517E+02         0.19847E+03         0.00000E+00
    0.00000E+00         0.00000E+00        -0.28693E+04
 
   -0.10891E+05         0.34354E+03         0.00000E+00
    0.34354E+03         0.38622E+03         0.00000E+00
    0.00000E+00         0.00000E+00        -0.31513E+04
 
   -0.11869E+05         0.10547E+04         0.00000E+00
    0.10547E+04         0.48744E+03         0.00000E+00
    0.00000E+00         0.00000E+00        -0.34143E+04
 
   -0.12538E+05         0.19811E+04         0.00000E+00
    0.19811E+04         0.42912E+03         0.00000E+00
    0.00000E+00         0.00000E+00        -0.36328E+04
 
   -0.12826E+05         0.30007E+04         0.00000E+00
    0.30007E+04         0.18863E+03         0.00000E+00
    0.00000E+00         0.00000E+00        -0.37913E+04
 
   -0.12735E+05         0.40005E+04         0.00000E+00
    0.40005E+04        -0.22070E+03         0.00000E+00
    0.00000E+00         0.00000E+00        -0.38868E+04
 
   -0.12323E+05         0.48961E+04         0.00000E+00
    0.48961E+04        -0.76090E+03         0.00000E+00
    0.00000E+00         0.00000E+00        -0.39252E+04
 
   -0.11680E+05         0.56390E+04         0.00000E+00
    0.56390E+04        -0.13915E+04         0.00000E+00
    0.00000E+00         0.00000E+00        -0.39214E+04
 
   -0.10897E+05         0.62160E+04         0.00000E+00
    0.62160E+04        -0.20733E+04         0.00000E+00
    0.00000E+00         0.00000E+00        -0.38911E+04
 
   -0.10049E+05         0.66344E+04         0.00000E+00
    0.66344E+04        -0.27815E+04         0.00000E+00
    0.00000E+00         0.00000E+00        -0.38492E+04
 
   -0.91892E+04         0.69083E+04         0.00000E+00
    0.69083E+04        -0.34934E+04         0.00000E+00
    0.00000E+00         0.00000E+00        -0.38048E+04
 
   -0.83547E+04         0.70575E+04         0.00000E+00
    0.70575E+04        -0.41896E+04         0.00000E+00
    0.00000E+00         0.00000E+00        -0.37633E+04
 
   -0.75656E+04         0.71025E+04         0.00000E+00
    0.71025E+04        -0.48540E+04         0.00000E+00
    0.00000E+00         0.00000E+00        -0.37259E+04
 
   -0.68373E+04         0.70578E+04         0.00000E+00
    0.70578E+04        -0.54732E+04         0.00000E+00
    0.00000E+00         0.00000E+00        -0.36932E+04
 
   -0.61869E+04         0.69407E+04         0.00000E+00
    0.69407E+04        -0.60293E+04         0.00000E+00
    0.00000E+00         0.00000E+00        -0.36649E+04
 
   -0.56277E+04         0.67771E+04         0.00000E+00
    0.67771E+04        -0.65098E+04         0.00000E+00
    0.00000E+00         0.00000E+00        -0.36412E+04
 
   -0.51627E+04         0.65955E+04         0.00000E+00
    0.65955E+04        -0.69101E+04         0.00000E+00
    0.00000E+00         0.00000E+00        -0.36219E+04
 
   -0.47855E+04         0.64230E+04         0.00000E+00
    0.64230E+04        -0.72329E+04         0.00000E+00
    0.00000E+00         0.00000E+00        -0.36055E+04
 
   -0.44824E+04         0.62829E+04         0.00000E+00
    0.62829E+04        -0.74853E+04         0.00000E+00
    0.00000E+00         0.00000E+00        -0.35903E+04
 
   -0.42348E+04         0.61948E+04         0.00000E+00
    0.61948E+04        -0.76786E+04         0.00000E+00
    0.00000E+00         0.00000E+00        -0.35740E+04
 
   -0.40205E+04         0.61739E+04         0.00000E+00
    0.61739E+04        -0.78268E+04         0.00000E+00
    0.00000E+00         0.00000E+00        -0.35542E+04
 
   -0.38150E+04         0.62314E+04         0.00000E+00
    0.62314E+04        -0.79451E+04         0.00000E+00
    0.00000E+00         0.00000E+00        -0.35280E+04
 
   -0.35917E+04         0.63748E+04         0.00000E+00
    0.63748E+04        -0.80504E+04         0.00000E+00
    0.00000E+00         0.00000E+00        -0.34926E+04
 
   -0.87539E+04        -0.13730E+02         0.00000E+00
   -0.13730E+02         0.27824E+02         0.00000E+00
    0.00000E+00         0.00000E+00        -0.26178E+04
 
   -0.95299E+04         0.11397E+03         0.00000E+00
    0.11397E+03         0.13588E+03         0.00000E+00
    0.00000E+00         0.00000E+00        -0.28182E+04
 
   -0.10367E+05         0.48279E+03         0.00000E+00
    0.48279E+03         0.26701E+03         0.00000E+00
    0.00000E+00         0.00000E+00        -0.30300E+04
 
   -0.11109E+05         0.10808E+04         0.00000E+00
    0.10808E+04         0.33707E+03         0.00000E+00
    0.00000E+00         0.00000E+00        -0.32315E+04
 
   -0.11637E+05         0.18479E+04         0.00000E+00
    0.18479E+04         0.28655E+03         0.00000E+00
    0.00000E+00         0.00000E+00        -0.34050E+04
 
   -0.11886E+05         0.27005E+04         0.00000E+00
    0.27005E+04         0.87910E+02         0.00000E+00
    0.00000E+00         0.00000E+00        -0.35393E+04
 
   -0.11845E+05         0.35541E+04         0.00000E+00
    0.35541E+04        -0.25642E+03         0.00000E+00
    0.00000E+00         0.00000E+00        -0.36303E+04
 
   -0.11546E+05         0.43394E+04         0.00000E+00
    0.43394E+04        -0.72376E+03         0.00000E+00
    0.00000E+00         0.00000E+00        -0.36808E+04
 
   -0.11046E+05         0.50114E+04         0.00000E+00
    0.50114E+04        -0.12801E+04         0.00000E+00
    0.00000E+00         0.00000E+00        -0.36979E+04
 
   -0.10413E+05         0.55505E+04         0.00000E+00
    0.55505E+04        -0.18914E+04         0.00000E+00
    0.00000E+00         0.00000E+00        -0.36914E+04
 
   -0.97061E+04         0.59559E+04         0.00000E+00
    0.59559E+04        -0.25284E+04         0.00000E+00
    0.00000E+00         0.00000E+00        -0.36703E+04
 
   -0.89719E+04         0.62375E+04         0.00000E+00
    0.62375E+04        -0.31683E+04         0.00000E+00
    0.00000E+00         0.00000E+00        -0.36421E+04
 
   -0.82441E+04         0.64109E+04         0.00000E+00
    0.64109E+04        -0.37931E+04         0.00000E+00
    0.00000E+00         0.00000E+00        -0.36112E+04
 
   -0.75454E+04         0.64926E+04         0.00000E+00
    0.64926E+04        -0.43892E+04         0.00000E+00
    0.00000E+00         0.00000E+00        -0.35804E+04
 
   -0.68915E+04         0.64983E+04         0.00000E+00
    0.64983E+04        -0.49444E+04         0.00000E+00
    0.00000E+00         0.00000E+00        -0.35508E+04
 
   -0.62957E+04         0.64447E+04         0.00000E+00
    0.64447E+04        -0.54476E+04         0.00000E+00
    0.00000E+00         0.00000E+00        -0.35230E+04
 
   -0.57666E+04         0.63521E+04         0.00000E+00
    0.63521E+04        -0.58900E+04         0.00000E+00
    0.00000E+00         0.00000E+00        -0.34970E+04
 
   -0.53068E+04         0.62425E+04         0.00000E+00
    0.62425E+04        -0.62680E+04         0.00000E+00
    0.00000E+00         0.00000E+00        -0.34724E+04
 
   -0.49117E+04         0.61375E+04         0.00000E+00
    0.61375E+04        -0.65827E+04         0.00000E+00
    0.00000E+00         0.00000E+00        -0.34483E+04
 
   -0.45711E+04         0.60567E+04         0.00000E+00
    0.60567E+04        -0.68400E+04         0.00000E+00
    0.00000E+00         0.00000E+00        -0.34233E+04
 
   -0.42698E+04         0.60163E+04         0.00000E+00
    0.60163E+04        -0.70487E+04         0.00000E+00
    0.00000E+00         0.00000E+00        -0.33956E+04
 
   -0.39896E+04         0.60296E+04         0.00000E+00
    0.60296E+04        -0.72201E+04         0.00000E+00
    0.00000E+00         0.00000E+00        -0.33629E+04
 
   -0.37094E+04         0.61064E+04         0.00000E+00
    0.61064E+04        -0.73675E+04         0.00000E+00
    0.00000E+00         0.00000E+00        -0.33231E+04
 
   -0.34062E+04         0.62530E+04         0.00000E+00
    0.62530E+04        -0.75053E+04         0.00000E+00
    0.00000E+00         0.00000E+00        -0.32734E+04
 
   -0.86818E+04         0.41390E+02         0.00000E+00
    0.41390E+02         0.17830E+02         0.00000E+00
    0.00000E+00         0.00000E+00        -0.25992E+04
 
   -0.92744E+04         0.22544E+03         0.00000E+00
    0.22544E+03         0.87376E+02         0.00000E+00
    0.00000E+00         0.00000E+00        -0.27561E+04
 
   -0.99069E+04         0.57488E+03         0.00000E+00
    0.57488E+03         0.17054E+03         0.00000E+00
    0.00000E+00         0.00000E+00        -0.29209E+04
 
   -0.10473E+05         0.10893E+04         0.00000E+00
    0.10893E+04         0.20775E+03         0.00000E+00
    0.00000E+00         0.00000E+00        -0.30794E+04
 
   -0.10885E+05         0.17326E+04         0.00000E+00
    0.17326E+04         0.15290E+03         0.00000E+00
    0.00000E+00         0.00000E+00        -0.32196E+04
 
   -0.11092E+05         0.24482E+04         0.00000E+00
    0.24482E+04        -0.19062E+02         0.00000E+00
    0.00000E+00         0.00000E+00        -0.33333E+04
 
   -0.11077E+05         0.31747E+04         0.00000E+00
    0.31747E+04        -0.31170E+03         0.00000E+00
    0.00000E+00         0.00000E+00        -0.34167E+04
 
   -0.10857E+05         0.38580E+04         0.00000E+00
    0.38580E+04        -0.71105E+03         0.00000E+00
    0.00000E+00         0.00000E+00        -0.34703E+04
 
   -0.10467E+05         0.44597E+04         0.00000E+00
    0.44597E+04        -0.11927E+04         0.00000E+00
    0.00000E+00         0.00000E+00        -0.34979E+04
 
   -0.99550E+04         0.49588E+04         0.00000E+00
    0.49588E+04        -0.17287E+04         0.00000E+00
    0.00000E+00         0.00000E+00        -0.35051E+04
 
   -0.93661E+04         0.53494E+04         0.00000E+00
    0.53494E+04        -0.22930E+04         0.00000E+00
    0.00000E+00         0.00000E+00        -0.34977E+04
 
   -0.87394E+04         0.56363E+04         0.00000E+00
    0.56363E+04        -0.28637E+04         0.00000E+00
    0.00000E+00         0.00000E+00        -0.34809E+04
 
   -0.81049E+04         0.58301E+04         0.00000E+00
    0.58301E+04        -0.34238E+04         0.00000E+00
    0.00000E+00         0.00000E+00        -0.34586E+04
 
   -0.74843E+04         0.59442E+04         0.00000E+00
    0.59442E+04        -0.39600E+04         0.00000E+00
    0.00000E+00         0.00000E+00        -0.34333E+04
 
   -0.68934E+04         0.59928E+04         0.00000E+00
    0.59928E+04        -0.44617E+04         0.00000E+00
    0.00000E+00         0.00000E+00        -0.34065E+04
 
   -0.63431E+04         0.59909E+04         0.00000E+00
    0.59909E+04        -0.49204E+04         0.00000E+00
    0.00000E+00         0.00000E+00        -0.33791E+04
 
   -0.58405E+04         0.59555E+04         0.00000E+00
    0.59555E+04        -0.53298E+04         0.00000E+00
    0.00000E+00         0.00000E+00        -0.33511E+04
 
   -0.53873E+04         0.59042E+04         0.00000E+00
    0.59042E+04        -0.56870E+04         0.00000E+00
    0.00000E+00         0.00000E+00        -0.33223E+04
 
   -0.49801E+04         0.58543E+04         0.00000E+00
    0.58543E+04        -0.59931E+04         0.00000E+00
    0.00000E+00         0.00000E+00        -0.32920E+04
 
   -0.46109E+04         0.58218E+04         0.00000E+00
    0.58218E+04        -0.62524E+04         0.00000E+00
    0.00000E+00         0.00000E+00        -0.32590E+04
 
   -0.42675E+04         0.58206E+04         0.00000E+00
    0.58206E+04        -0.64720E+04         0.00000E+00
    0.00000E+00         0.00000E+00        -0.32218E+04
 
   -0.39345E+04         0.58618E+04         0.00000E+00
    0.58618E+04        -0.66615E+04         0.00000E+00
    0.00000E+00         0.00000E+00        -0.31788E+04
 
   -0.35940E+04         0.59535E+04         0.00000E+00
    0.59535E+04        -0.68319E+04         0.00000E+00
    0.00000E+00         0.00000E+00        -0.31278E+04
 
   -0.32264E+04         0.61011E+04         0.00000E+00
    0.61011E+04        -0.69958E+04         0.00000E+00
    0.00000E+00         0.00000E+00        -0.30667E+04
 
   -0.85357E+04         0.75553E+02         0.00000E+00
    0.75553E+02         0.10632E+02         0.00000E+00
    0.00000E+00         0.00000E+00        -0.25575E+04
 
   -0.90052E+04         0.29401E+03         0.00000E+00
    0.29401E+03         0.51549E+02         0.00000E+00
    0.00000E+00         0.00000E+00        -0.26861E+04
 
   -0.94939E+04         0.62659E+03         0.00000E+00
    0.62659E+03         0.97058E+02         0.00000E+00
    0.00000E+00         0.00000E+00        -0.28191E+04
 
   -0.99301E+04         0.10774E+04         0.00000E+00
    0.10774E+04         0.10576E+03         0.00000E+00
    0.00000E+00         0.00000E+00        -0.29473E+04
 
   -0.10252E+05         0.16248E+04         0.00000E+00
    0.16248E+04         0.43315E+02         0.00000E+00
    0.00000E+00         0.00000E+00        -0.30627E+04
 
   -0.10420E+05         0.22308E+04         0.00000E+00
    0.22308E+04        -0.11117E+03         0.00000E+00
    0.00000E+00         0.00000E+00        -0.31594E+04
 
   -0.10417E+05         0.28513E+04         0.00000E+00
    0.28513E+04        -0.36325E+03         0.00000E+00
    0.00000E+00         0.00000E+00        -0.32341E+04
 
   -0.10250E+05         0.34454E+04         0.00000E+00
    0.34454E+04        -0.70512E+03         0.00000E+00
    0.00000E+00         0.00000E+00        -0.32866E+04
 
   -0.99418E+04         0.39815E+04         0.00000E+00
    0.39815E+04        -0.11197E+04         0.00000E+00
    0.00000E+00         0.00000E+00        -0.33184E+04
 
   -0.95245E+04         0.44400E+04         0.00000E+00
    0.44400E+04        -0.15854E+04         0.00000E+00
    0.00000E+00         0.00000E+00        -0.33330E+04
 
   -0.90322E+04         0.48125E+04         0.00000E+00
    0.48125E+04        -0.20808E+04         0.00000E+00
    0.00000E+00         0.00000E+00        -0.33339E+04
 
   -0.84961E+04         0.50999E+04         0.00000E+00
    0.50999E+04        -0.25865E+04         0.00000E+00
    0.00000E+00         0.00000E+00        -0.33248E+04
 
   -0.79417E+04         0.53089E+04         0.00000E+00
    0.53089E+04        -0.30868E+04         0.00000E+00
    0.00000E+00         0.00000E+00        -0.33086E+04
 
   -0.73888E+04         0.54494E+04         0.00000E+00
    0.54494E+04        -0.35692E+04         0.00000E+00
    0.00000E+00         0.00000E+00        -0.32874E+04
 
   -0.68519E+04         0.55333E+04         0.00000E+00
    0.55333E+04        -0.40241E+04         0.00000E+00
    0.00000E+00         0.00000E+00        -0.32628E+04
 
   -0.63410E+04         0.55737E+04         0.00000E+00
    0.55737E+04        -0.44440E+04         0.00000E+00
    0.00000E+00         0.00000E+00        -0.32355E+04
 
   -0.58619E+04         0.55845E+04         0.00000E+00
    0.55845E+04        -0.48241E+04         0.00000E+00
    0.00000E+00         0.00000E+00        -0.32058E+04
 
   -0.54162E+04         0.55801E+04         0.00000E+00
    0.55801E+04        -0.51622E+04         0.00000E+00
    0.00000E+00         0.00000E+00        -0.31735E+04
 
   -0.50014E+04         0.55749E+04         0.00000E+00
    0.55749E+04        -0.54590E+04         0.00000E+00
    0.00000E+00         0.00000E+00        -0.31381E+04
 
   -0.46109E+04         0.55817E+04         0.00000E+00
    0.55817E+04        -0.57180E+04         0.00000E+00
    0.00000E+00         0.00000E+00        -0.30987E+04
 
   -0.42348E+04         0.56122E+04         0.00000E+00
    0.56122E+04        -0.59451E+04         0.00000E+00
    0.00000E+00         0.00000E+00        -0.30540E+04
 
   -0.38602E+04         0.56755E+04         0.00000E+00
    0.56755E+04        -0.61481E+04         0.00000E+00
    0.00000E+00         0.00000E+00        -0.30025E+04
 
   -0.34720E+04         0.57784E+04         0.00000E+00
    0.57784E+04        -0.63365E+04         0.00000E+00
    0.00000E+00         0.00000E+00        -0.29426E+04
 
   -0.30534E+04         0.59252E+04         0.00000E+00
    0.59252E+04        -0.65209E+04         0.00000E+00
    0.00000E+00         0.00000E+00        -0.28723E+04
 
   -0.83457E+04         0.94825E+02         0.00000E+00
    0.94825E+02         0.56205E+01         0.00000E+00
    0.00000E+00         0.00000E+00        -0.25020E+04
 
   -0.87311E+04         0.33080E+03         0.00000E+00
    0.33080E+03         0.26092E+02         0.00000E+00
    0.00000E+00         0.00000E+00        -0.26115E+04
 
   -0.91184E+04         0.64666E+03         0.00000E+00
    0.64666E+03         0.43735E+02         0.00000E+00
    0.00000E+00         0.00000E+00        -0.27224E+04
 
   -0.94600E+04         0.10475E+04         0.00000E+00
    0.10475E+04         0.30232E+02         0.00000E+00
    0.00000E+00         0.00000E+00        -0.28289E+04
 
   -0.97129E+04         0.15202E+04         0.00000E+00
    0.15202E+04        -0.39344E+02         0.00000E+00
    0.00000E+00         0.00000E+00        -0.29257E+04
 
   -0.98469E+04         0.20391E+04         0.00000E+00
    0.20391E+04        -0.18143E+03         0.00000E+00
    0.00000E+00         0.00000E+00        -0.30085E+04
 
   -0.98475E+04         0.25730E+04         0.00000E+00
    0.25730E+04        -0.40189E+03         0.00000E+00
    0.00000E+00         0.00000E+00        -0.30748E+04
 
   -0.97164E+04         0.30913E+04         0.00000E+00
    0.30913E+04        -0.69659E+03         0.00000E+00
    0.00000E+00         0.00000E+00        -0.31239E+04
 
   -0.94677E+04         0.35686E+04         0.00000E+00
    0.35686E+04        -0.10539E+04         0.00000E+00
    0.00000E+00         0.00000E+00        -0.31565E+04
 
   -0.91234E+04         0.39878E+04         0.00000E+00
    0.39878E+04        -0.14578E+04         0.00000E+00
    0.00000E+00         0.00000E+00        -0.31743E+04
 
   -0.87084E+04         0.43400E+04         0.00000E+00
    0.43400E+04        -0.18911E+04         0.00000E+00
    0.00000E+00         0.00000E+00        -0.31798E+04
 
   -0.82471E+04         0.46235E+04         0.00000E+00
    0.46235E+04        -0.23376E+04         0.00000E+00
    0.00000E+00         0.00000E+00        -0.31754E+04
 
   -0.77604E+04         0.48420E+04         0.00000E+00
    0.48420E+04        -0.27833E+04         0.00000E+00
    0.00000E+00         0.00000E+00        -0.31631E+04
 
   -0.72655E+04         0.50025E+04         0.00000E+00
    0.50025E+04        -0.32170E+04         0.00000E+00
    0.00000E+00         0.00000E+00        -0.31448E+04
 
   -0.67754E+04         0.51145E+04         0.00000E+00
    0.51145E+04        -0.36298E+04         0.00000E+00
    0.00000E+00         0.00000E+00        -0.31215E+04
 
   -0.62988E+04         0.51887E+04         0.00000E+00
    0.51887E+04        -0.40151E+04         0.00000E+00
    0.00000E+00         0.00000E+00        -0.30942E+04
 
   -0.58410E+04         0.52365E+04         0.00000E+00
    0.52365E+04        -0.43688E+04         0.00000E+00
    0.00000E+00         0.00000E+00        -0.30629E+04
 
   -0.54036E+04         0.52700E+04         0.00000E+00
    0.52700E+04        -0.46889E+04         0.00000E+00
    0.00000E+00         0.00000E+00        -0.30278E+04
 
   -0.49847E+04         0.53006E+04         0.00000E+00
    0.53006E+04        -0.49761E+04         0.00000E+00
    0.00000E+00         0.00000E+00        -0.29882E+04
 
   -0.45788E+04         0.53390E+04         0.00000E+00
    0.53390E+04        -0.52331E+04         0.00000E+00
    0.00000E+00         0.00000E+00        -0.29436E+04
 
   -0.41779E+04         0.53947E+04         0.00000E+00
    0.53947E+04        -0.54647E+04         0.00000E+00
    0.00000E+00         0.00000E+00        -0.28928E+04
 
   -0.37711E+04         0.54753E+04         0.00000E+00
    0.54753E+04        -0.56775E+04         0.00000E+00
    0.00000E+00         0.00000E+00        -0.28346E+04
 
   -0.33459E+04         0.55861E+04         0.00000E+00
    0.55861E+04        -0.58795E+04         0.00000E+00
    0.00000E+00         0.00000E+00        -0.27676E+04
 
   -0.28878E+04         0.57306E+04         0.00000E+00
    0.57306E+04        -0.60796E+04         0.00000E+00
    0.00000E+00         0.00000E+00        -0.26902E+04
 
   -0.81333E+04         0.10386E+03         0.00000E+00
    0.10386E+03         0.22419E+01         0.00000E+00
    0.00000E+00         0.00000E+00        -0.24393E+04
 
   -0.84595E+04         0.34503E+03         0.00000E+00
    0.34503E+03         0.86606E+01         0.00000E+00
    0.00000E+00         0.00000E+00        -0.25353E+04
 
   -0.87744E+04         0.64353E+03         0.00000E+00
    0.64353E+03         0.67064E+01         0.00000E+00
    0.00000E+00         0.00000E+00        -0.26303E+04
 
   -0.90468E+04         0.10037E+04         0.00000E+00
    0.10037E+04        -0.22747E+02         0.00000E+00
    0.00000E+00         0.00000E+00        -0.27209E+04
 
   -0.92470E+04         0.14174E+04         0.00000E+00
    0.14174E+04        -0.97437E+02         0.00000E+00
    0.00000E+00         0.00000E+00        -0.28033E+04
 
   -0.93529E+04         0.18672E+04         0.00000E+00
    0.18672E+04        -0.22984E+03         0.00000E+00
    0.00000E+00         0.00000E+00        -0.28748E+04
 
   -0.93527E+04         0.23309E+04         0.00000E+00
    0.23309E+04        -0.42522E+03         0.00000E+00
    0.00000E+00         0.00000E+00        -0.29334E+04
 
   -0.92456E+04         0.27855E+04         0.00000E+00
    0.27855E+04        -0.68162E+03         0.00000E+00
    0.00000E+00         0.00000E+00        -0.29782E+04
 
   -0.90402E+04         0.32114E+04         0.00000E+00
    0.32114E+04        -0.99115E+03         0.00000E+00
    0.00000E+00         0.00000E+00        -0.30094E+04
 
   -0.87515E+04         0.35941E+04         0.00000E+00
    0.35941E+04        -0.13421E+04         0.00000E+00
    0.00000E+00         0.00000E+00        -0.30281E+04
 
   -0.83976E+04         0.39251E+04         0.00000E+00
    0.39251E+04        -0.17211E+04         0.00000E+00
    0.00000E+00         0.00000E+00        -0.30356E+04
 
   -0.79971E+04         0.42013E+04         0.00000E+00
    0.42013E+04        -0.21150E+04         0.00000E+00
    0.00000E+00         0.00000E+00        -0.30336E+04
 
   -0.75668E+04         0.44243E+04         0.00000E+00
    0.44243E+04        -0.25118E+04         0.00000E+00
    0.00000E+00         0.00000E+00        -0.30236E+04
 
   -0.71212E+04         0.45989E+04         0.00000E+00
    0.45989E+04        -0.29016E+04         0.00000E+00
    0.00000E+00         0.00000E+00        -0.30068E+04
 
   -0.66712E+04         0.47323E+04         0.00000E+00
    0.47323E+04        -0.32764E+04         0.00000E+00
    0.00000E+00         0.00000E+00        -0.29843E+04
 
   -0.62247E+04         0.48328E+04         0.00000E+00
    0.48328E+04        -0.36304E+04         0.00000E+00
    0.00000E+00         0.00000E+00        -0.29565E+04
 
   -0.57864E+04         0.49100E+04         0.00000E+00
    0.49100E+04        -0.39598E+04         0.00000E+00
    0.00000E+00         0.00000E+00        -0.29239E+04
 
   -0.53578E+04         0.49734E+04         0.00000E+00
    0.49734E+04        -0.42630E+04         0.00000E+00
    0.00000E+00         0.00000E+00        -0.28863E+04
 
   -0.49375E+04         0.50324E+04         0.00000E+00
    0.50324E+04        -0.45403E+04         0.00000E+00
    0.00000E+00         0.00000E+00        -0.28433E+04
 
   -0.45211E+04         0.50958E+04         0.00000E+00
    0.50958E+04        -0.47938E+04         0.00000E+00
    0.00000E+00         0.00000E+00        -0.27945E+04
 
   -0.41020E+04         0.51713E+04         0.00000E+00
    0.51713E+04        -0.50276E+04         0.00000E+00
    0.00000E+00         0.00000E+00        -0.27389E+04
 
   -0.36712E+04         0.52649E+04         0.00000E+00
    0.52649E+04        -0.52470E+04         0.00000E+00
    0.00000E+00         0.00000E+00        -0.26754E+04
 
   -0.32179E+04         0.53809E+04         0.00000E+00
    0.53809E+04        -0.54588E+04         0.00000E+00
    0.00000E+00         0.00000E+00        -0.26030E+04
 
   -0.27302E+04         0.55219E+04         0.00000E+00
    0.55219E+04        -0.56706E+04         0.00000E+00
    0.00000E+00         0.00000E+00        -0.25202E+04
 
   -0.79132E+04         0.10609E+03         0.00000E+00
    0.10609E+03         0.44625E-01         0.00000E+00
    0.00000E+00         0.00000E+00        -0.23740E+04
 
   -0.81959E+04         0.34395E+03         0.00000E+00
    0.34395E+03        -0.28050E+01         0.00000E+00
    0.00000E+00         0.00000E+00        -0.24596E+04
 
   -0.84581E+04         0.62437E+03         0.00000E+00
    0.62437E+03        -0.17832E+02         0.00000E+00
    0.00000E+00         0.00000E+00        -0.25428E+04
 
   -0.86794E+04         0.95043E+03         0.00000E+00
    0.95043E+03        -0.57834E+02         0.00000E+00
    0.00000E+00         0.00000E+00        -0.26212E+04
 
   -0.88396E+04         0.13167E+04         0.00000E+00
    0.13167E+04        -0.13524E+03         0.00000E+00
    0.00000E+00         0.00000E+00        -0.26924E+04
 
   -0.89226E+04         0.17112E+04         0.00000E+00
    0.17112E+04        -0.25926E+03         0.00000E+00
    0.00000E+00         0.00000E+00        -0.27546E+04
 
   -0.89194E+04         0.21177E+04         0.00000E+00
    0.21177E+04        -0.43426E+03         0.00000E+00
    0.00000E+00         0.00000E+00        -0.28061E+04
 
   -0.88283E+04         0.25194E+04         0.00000E+00
    0.25194E+04        -0.65943E+03         0.00000E+00
    0.00000E+00         0.00000E+00        -0.28463E+04
 
   -0.86543E+04         0.29011E+04         0.00000E+00
    0.29011E+04        -0.92943E+03         0.00000E+00
    0.00000E+00         0.00000E+00        -0.28751E+04
 
   -0.84077E+04         0.32506E+04         0.00000E+00
    0.32506E+04        -0.12357E+04         0.00000E+00
    0.00000E+00         0.00000E+00        -0.28930E+04
 
   -0.81015E+04         0.35605E+04         0.00000E+00
    0.35605E+04        -0.15681E+04         0.00000E+00
    0.00000E+00         0.00000E+00        -0.29009E+04
 
   -0.77499E+04         0.38271E+04         0.00000E+00
    0.38271E+04        -0.19160E+04         0.00000E+00
    0.00000E+00         0.00000E+00        -0.28998E+04
 
   -0.73660E+04         0.40507E+04         0.00000E+00
    0.40507E+04        -0.22695E+04         0.00000E+00
    0.00000E+00         0.00000E+00        -0.28907E+04
 
   -0.69616E+04         0.42343E+04         0.00000E+00
    0.42343E+04        -0.26200E+04         0.00000E+00
    0.00000E+00         0.00000E+00        -0.28745E+04
 
   -0.65460E+04         0.43830E+04         0.00000E+00
    0.43830E+04        -0.29607E+04         0.00000E+00
    0.00000E+00         0.00000E+00        -0.28520E+04
 
   -0.61259E+04         0.45036E+04         0.00000E+00
    0.45036E+04        -0.32864E+04         0.00000E+00
    0.00000E+00         0.00000E+00        -0.28237E+04
 
   -0.57054E+04         0.46033E+04         0.00000E+00
    0.46033E+04        -0.35935E+04         0.00000E+00
    0.00000E+00         0.00000E+00        -0.27897E+04
 
   -0.52859E+04         0.46900E+04         0.00000E+00
    0.46900E+04        -0.38806E+04         0.00000E+00
    0.00000E+00         0.00000E+00        -0.27500E+04
 
   -0.48665E+04         0.47712E+04         0.00000E+00
    0.47712E+04        -0.41478E+04         0.00000E+00
    0.00000E+00         0.00000E+00        -0.27043E+04
 
   -0.44436E+04         0.48540E+04         0.00000E+00
    0.48540E+04        -0.43967E+04         0.00000E+00
    0.00000E+00         0.00000E+00        -0.26521E+04
 
   -0.40117E+04         0.49444E+04         0.00000E+00
    0.49444E+04        -0.46306E+04         0.00000E+00
    0.00000E+00         0.00000E+00        -0.25927E+04
 
   -0.35634E+04         0.50475E+04         0.00000E+00
    0.50475E+04        -0.48541E+04         0.00000E+00
    0.00000E+00         0.00000E+00        -0.25253E+04
 
   -0.30898E+04         0.51664E+04         0.00000E+00
    0.51664E+04        -0.50726E+04         0.00000E+00
    0.00000E+00         0.00000E+00        -0.24487E+04
 
   -0.25807E+04         0.53029E+04         0.00000E+00
    0.53029E+04        -0.52927E+04         0.00000E+00
    0.00000E+00         0.00000E+00        -0.23620E+04
 
   -0.76952E+04         0.10398E+03         0.00000E+00
    0.10398E+03        -0.13200E+01         0.00000E+00
    0.00000E+00         0.00000E+00        -0.23089E+04
 
   -0.79442E+04         0.33294E+03         0.00000E+00
    0.33294E+03        -0.99733E+01         0.00000E+00
    0.00000E+00         0.00000E+00        -0.23862E+04
 
   -0.81668E+04         0.59489E+03         0.00000E+00
    0.59489E+03        -0.33159E+02         0.00000E+00
    0.00000E+00         0.00000E+00        -0.24600E+04
 
   -0.83497E+04         0.89152E+03         0.00000E+00
    0.89152E+03        -0.79395E+02         0.00000E+00
    0.00000E+00         0.00000E+00        -0.25287E+04
 
   -0.84792E+04         0.12189E+04         0.00000E+00
    0.12189E+04        -0.15729E+03         0.00000E+00
    0.00000E+00         0.00000E+00        -0.25909E+04
 
   -0.85438E+04         0.15684E+04         0.00000E+00
    0.15684E+04        -0.27350E+03         0.00000E+00
    0.00000E+00         0.00000E+00        -0.26452E+04
 
   -0.85367E+04         0.19283E+04         0.00000E+00
    0.19283E+04        -0.43144E+03         0.00000E+00
    0.00000E+00         0.00000E+00        -0.26905E+04
 
   -0.84560E+04         0.22860E+04         0.00000E+00
    0.22860E+04        -0.63086E+03         0.00000E+00
    0.00000E+00         0.00000E+00        -0.27261E+04
 
   -0.83048E+04         0.26297E+04         0.00000E+00
    0.26297E+04        -0.86810E+03         0.00000E+00
    0.00000E+00         0.00000E+00        -0.27519E+04
 
   -0.80899E+04         0.29496E+04         0.00000E+00
    0.29496E+04        -0.11370E+04         0.00000E+00
    0.00000E+00         0.00000E+00        -0.27681E+04
 
   -0.78209E+04         0.32392E+04         0.00000E+00
    0.32392E+04        -0.14296E+04         0.00000E+00
    0.00000E+00         0.00000E+00        -0.27752E+04
 
   -0.75082E+04         0.34949E+04         0.00000E+00
    0.34949E+04        -0.17378E+04         0.00000E+00
    0.00000E+00         0.00000E+00        -0.27738E+04
 
   -0.71621E+04         0.37160E+04         0.00000E+00
    0.37160E+04        -0.20535E+04         0.00000E+00
    0.00000E+00         0.00000E+00        -0.27647E+04
 
   -0.67921E+04         0.39043E+04         0.00000E+00
    0.39043E+04        -0.23694E+04         0.00000E+00
    0.00000E+00         0.00000E+00        -0.27484E+04
 
   -0.64056E+04         0.40635E+04         0.00000E+00
    0.40635E+04        -0.26796E+04         0.00000E+00
    0.00000E+00         0.00000E+00        -0.27255E+04
 
   -0.60084E+04         0.41985E+04         0.00000E+00
    0.41985E+04        -0.29795E+04         0.00000E+00
    0.00000E+00         0.00000E+00        -0.26964E+04
 
   -0.56041E+04         0.43151E+04         0.00000E+00
    0.43151E+04        -0.32662E+04         0.00000E+00
    0.00000E+00         0.00000E+00        -0.26611E+04
 
   -0.51939E+04         0.44194E+04         0.00000E+00
    0.44194E+04        -0.35380E+04         0.00000E+00
    0.00000E+00         0.00000E+00        -0.26196E+04
 
   -0.47770E+04         0.45174E+04         0.00000E+00
    0.45174E+04        -0.37950E+04         0.00000E+00
    0.00000E+00         0.00000E+00        -0.25716E+04
 
   -0.43509E+04         0.46148E+04         0.00000E+00
    0.46148E+04        -0.40385E+04         0.00000E+00
    0.00000E+00         0.00000E+00        -0.25168E+04
 
   -0.39108E+04         0.47163E+04         0.00000E+00
    0.47163E+04        -0.42710E+04         0.00000E+00
    0.00000E+00         0.00000E+00        -0.24545E+04
 
   -0.34508E+04         0.48258E+04         0.00000E+00
    0.48258E+04        -0.44963E+04         0.00000E+00
    0.00000E+00         0.00000E+00        -0.23841E+04
 
   -0.29632E+04         0.49456E+04         0.00000E+00
    0.49456E+04        -0.47189E+04         0.00000E+00
    0.00000E+00         0.00000E+00        -0.23046E+04
 
   -0.24397E+04         0.50769E+04         0.00000E+00
    0.50769E+04        -0.49443E+04         0.00000E+00
    0.00000E+00         0.00000E+00        -0.22152E+04
 
   -0.74852E+04         0.99252E+02         0.00000E+00
    0.99252E+02        -0.21112E+01         0.00000E+00
    0.00000E+00         0.00000E+00        -0.22462E+04
 
   -0.77067E+04         0.31593E+03         0.00000E+00
    0.31593E+03        -0.14128E+02         0.00000E+00
    0.00000E+00         0.00000E+00        -0.23163E+04
 
   -0.78985E+04         0.55937E+03         0.00000E+00
    0.55937E+03        -0.41906E+02         0.00000E+00
    0.00000E+00         0.00000E+00        -0.23821E+04
 
   -0.80519E+04         0.83007E+03         0.00000E+00
    0.83007E+03        -0.91113E+02         0.00000E+00
    0.00000E+00         0.00000E+00        -0.24429E+04
 
   -0.81574E+04         0.11249E+04         0.00000E+00
    0.11249E+04        -0.16767E+03         0.00000E+00
    0.00000E+00         0.00000E+00        -0.24975E+04
 
   -0.82071E+04         0.14373E+04         0.00000E+00
    0.14373E+04        -0.27630E+03         0.00000E+00
    0.00000E+00         0.00000E+00        -0.25450E+04
 
   -0.81958E+04         0.17587E+04         0.00000E+00
    0.17587E+04        -0.41957E+03         0.00000E+00
    0.00000E+00         0.00000E+00        -0.25846E+04
 
   -0.81219E+04         0.20796E+04         0.00000E+00
    0.20796E+04        -0.59746E+03         0.00000E+00
    0.00000E+00         0.00000E+00        -0.26158E+04
 
   -0.79870E+04         0.23907E+04         0.00000E+00
    0.23907E+04        -0.80742E+03         0.00000E+00
    0.00000E+00         0.00000E+00        -0.26383E+04
 
   -0.77960E+04         0.26844E+04         0.00000E+00
    0.26844E+04        -0.10449E+04         0.00000E+00
    0.00000E+00         0.00000E+00        -0.26523E+04
 
   -0.75557E+04         0.29550E+04         0.00000E+00
    0.29550E+04        -0.13040E+04         0.00000E+00
    0.00000E+00         0.00000E+00        -0.26579E+04
 
   -0.72738E+04         0.31990E+04         0.00000E+00
    0.31990E+04        -0.15781E+04         0.00000E+00
    0.00000E+00         0.00000E+00        -0.26556E+04
 
   -0.69584E+04         0.34155E+04         0.00000E+00
    0.34155E+04        -0.18609E+04         0.00000E+00
    0.00000E+00         0.00000E+00        -0.26458E+04
 
   -0.66166E+04         0.36052E+04         0.00000E+00
    0.36052E+04        -0.21463E+04         0.00000E+00
    0.00000E+00         0.00000E+00        -0.26289E+04
 
   -0.62548E+04         0.37707E+04         0.00000E+00
    0.37707E+04        -0.24295E+04         0.00000E+00
    0.00000E+00         0.00000E+00        -0.26053E+04
 
   -0.58775E+04         0.39155E+04         0.00000E+00
    0.39155E+04        -0.27063E+04         0.00000E+00
    0.00000E+00         0.00000E+00        -0.25751E+04
 
   -0.54878E+04         0.40442E+04         0.00000E+00
    0.40442E+04        -0.29742E+04         0.00000E+00
    0.00000E+00         0.00000E+00        -0.25386E+04
 
   -0.50868E+04         0.41613E+04         0.00000E+00
    0.41613E+04        -0.32317E+04         0.00000E+00
    0.00000E+00         0.00000E+00        -0.24955E+04
 
   -0.46740E+04         0.42716E+04         0.00000E+00
    0.42716E+04        -0.34786E+04         0.00000E+00
    0.00000E+00         0.00000E+00        -0.24458E+04
 
   -0.42472E+04         0.43795E+04         0.00000E+00
    0.43795E+04        -0.37159E+04         0.00000E+00
    0.00000E+00         0.00000E+00        -0.23889E+04
 
   -0.38026E+04         0.44886E+04         0.00000E+00
    0.44886E+04        -0.39457E+04         0.00000E+00
    0.00000E+00         0.00000E+00        -0.23245E+04
 
   -0.33354E+04         0.46020E+04         0.00000E+00
    0.46020E+04        -0.41711E+04         0.00000E+00
    0.00000E+00         0.00000E+00        -0.22519E+04
 
   -0.28392E+04         0.47211E+04         0.00000E+00
    0.47211E+04        -0.43957E+04         0.00000E+00
    0.00000E+00         0.00000E+00        -0.21705E+04
 
   -0.23072E+04         0.48466E+04         0.00000E+00
    0.48466E+04        -0.46240E+04         0.00000E+00
    0.00000E+00         0.00000E+00        -0.20794E+04
 
   -0.72869E+04         0.93090E+02         0.00000E+00
    0.93090E+02        -0.25167E+01         0.00000E+00
    0.00000E+00         0.00000E+00        -0.21868E+04
 
   -0.74849E+04         0.29567E+03         0.00000E+00
    0.29567E+03        -0.16224E+02         0.00000E+00
    0.00000E+00         0.00000E+00        -0.22503E+04
 
   -0.76517E+04         0.52092E+03         0.00000E+00
    0.52092E+03        -0.46091E+02         0.00000E+00
    0.00000E+00         0.00000E+00        -0.23093E+04
 
   -0.77816E+04         0.76842E+03         0.00000E+00
    0.76842E+03        -0.95917E+02         0.00000E+00
    0.00000E+00         0.00000E+00        -0.23632E+04
 
   -0.78680E+04         0.10354E+04         0.00000E+00
    0.10354E+04        -0.16976E+03         0.00000E+00
    0.00000E+00         0.00000E+00        -0.24113E+04
 
   -0.79054E+04         0.13168E+04         0.00000E+00
    0.13168E+04        -0.27095E+03         0.00000E+00
    0.00000E+00         0.00000E+00        -0.24529E+04
 
   -0.78898E+04         0.16060E+04         0.00000E+00
    0.16060E+04        -0.40134E+03         0.00000E+00
    0.00000E+00         0.00000E+00        -0.24873E+04
 
   -0.78200E+04         0.18958E+04         0.00000E+00
    0.18958E+04        -0.56096E+03         0.00000E+00
    0.00000E+00         0.00000E+00        -0.25143E+04
 
   -0.76969E+04         0.21790E+04         0.00000E+00
    0.21790E+04        -0.74800E+03         0.00000E+00
    0.00000E+00         0.00000E+00        -0.25335E+04
 
   -0.75238E+04         0.24494E+04         0.00000E+00
    0.24494E+04        -0.95907E+03         0.00000E+00
    0.00000E+00         0.00000E+00        -0.25449E+04
 
   -0.73056E+04         0.27022E+04         0.00000E+00
    0.27022E+04        -0.11897E+04         0.00000E+00
    0.00000E+00         0.00000E+00        -0.25486E+04
 
   -0.70480E+04         0.29344E+04         0.00000E+00
    0.29344E+04        -0.14348E+04         0.00000E+00
    0.00000E+00         0.00000E+00        -0.25448E+04
 
   -0.67572E+04         0.31446E+04         0.00000E+00
    0.31446E+04        -0.16892E+04         0.00000E+00
    0.00000E+00         0.00000E+00        -0.25339E+04
 
   -0.64388E+04         0.33332E+04         0.00000E+00
    0.33332E+04        -0.19481E+04         0.00000E+00
    0.00000E+00         0.00000E+00        -0.25161E+04
 
   -0.60976E+04         0.35016E+04         0.00000E+00
    0.35016E+04        -0.22073E+04         0.00000E+00
    0.00000E+00         0.00000E+00        -0.24915E+04
 
   -0.57376E+04         0.36525E+04         0.00000E+00
    0.36525E+04        -0.24634E+04         0.00000E+00
    0.00000E+00         0.00000E+00        -0.24603E+04
 
   -0.53610E+04         0.37891E+04         0.00000E+00
    0.37891E+04        -0.27141E+04         0.00000E+00
    0.00000E+00         0.00000E+00        -0.24225E+04
 
   -0.49690E+04         0.39150E+04         0.00000E+00
    0.39150E+04        -0.29582E+04         0.00000E+00
    0.00000E+00         0.00000E+00        -0.23782E+04
 
   -0.45612E+04         0.40338E+04         0.00000E+00
    0.40338E+04        -0.31952E+04         0.00000E+00
    0.00000E+00         0.00000E+00        -0.23269E+04
 
   -0.41358E+04         0.41488E+04         0.00000E+00
    0.41488E+04        -0.34260E+04         0.00000E+00
    0.00000E+00         0.00000E+00        -0.22686E+04
 
   -0.36899E+04         0.42628E+04         0.00000E+00
    0.42628E+04        -0.36522E+04         0.00000E+00
    0.00000E+00         0.00000E+00        -0.22026E+04
 
   -0.32192E+04         0.43778E+04         0.00000E+00
    0.43778E+04        -0.38762E+04         0.00000E+00
    0.00000E+00         0.00000E+00        -0.21286E+04
 
   -0.27189E+04         0.44950E+04         0.00000E+00
    0.44950E+04        -0.41010E+04         0.00000E+00
    0.00000E+00         0.00000E+00        -0.20460E+04
 
   -0.21831E+04         0.46142E+04         0.00000E+00
    0.46142E+04        -0.43302E+04         0.00000E+00
    0.00000E+00         0.00000E+00        -0.19540E+04
 
   -0.71021E+04         0.86273E+02         0.00000E+00
    0.86273E+02        -0.26694E+01         0.00000E+00
    0.00000E+00         0.00000E+00        -0.21314E+04
 
   -0.72791E+04         0.27404E+03         0.00000E+00
    0.27404E+03        -0.16953E+02         0.00000E+00
    0.00000E+00         0.00000E+00        -0.21888E+04
 
   -0.74249E+04         0.48172E+03         0.00000E+00
    0.48172E+03        -0.47211E+02         0.00000E+00
    0.00000E+00         0.00000E+00        -0.22416E+04
 
   -0.75354E+04         0.70824E+03         0.00000E+00
    0.70824E+03        -0.96044E+02         0.00000E+00
    0.00000E+00         0.00000E+00        -0.22894E+04
 
   -0.76061E+04         0.95099E+03         0.00000E+00
    0.95099E+03        -0.16625E+03         0.00000E+00
    0.00000E+00         0.00000E+00        -0.23317E+04
 
   -0.76330E+04         0.12059E+04         0.00000E+00
    0.12059E+04        -0.26014E+03         0.00000E+00
    0.00000E+00         0.00000E+00        -0.23679E+04
 
   -0.76132E+04         0.14679E+04         0.00000E+00
    0.14679E+04        -0.37905E+03         0.00000E+00
    0.00000E+00         0.00000E+00        -0.23977E+04
 
   -0.75456E+04         0.17312E+04         0.00000E+00
    0.17312E+04        -0.52297E+03         0.00000E+00
    0.00000E+00         0.00000E+00        -0.24206E+04
 
   -0.74309E+04         0.19901E+04         0.00000E+00
    0.19901E+04        -0.69059E+03         0.00000E+00
    0.00000E+00         0.00000E+00        -0.24364E+04
 
   -0.72711E+04         0.22398E+04         0.00000E+00
    0.22398E+04        -0.87936E+03         0.00000E+00
    0.00000E+00         0.00000E+00        -0.24451E+04
 
   -0.70699E+04         0.24762E+04         0.00000E+00
    0.24762E+04        -0.10859E+04         0.00000E+00
    0.00000E+00         0.00000E+00        -0.24467E+04
 
   -0.68315E+04         0.26966E+04         0.00000E+00
    0.26966E+04        -0.13062E+04         0.00000E+00
    0.00000E+00         0.00000E+00        -0.24413E+04
 
   -0.65604E+04         0.28995E+04         0.00000E+00
    0.28995E+04        -0.15362E+04         0.00000E+00
    0.00000E+00         0.00000E+00        -0.24290E+04
 
   -0.62611E+04         0.30849E+04         0.00000E+00
    0.30849E+04        -0.17720E+04         0.00000E+00
    0.00000E+00         0.00000E+00        -0.24099E+04
 
   -0.59373E+04         0.32537E+04         0.00000E+00
    0.32537E+04        -0.20101E+04         0.00000E+00
    0.00000E+00         0.00000E+00        -0.23842E+04
 
   -0.55921E+04         0.34075E+04         0.00000E+00
    0.34075E+04        -0.22477E+04         0.00000E+00
    0.00000E+00         0.00000E+00        -0.23519E+04
 
   -0.52274E+04         0.35488E+04         0.00000E+00
    0.35488E+04        -0.24829E+04         0.00000E+00
    0.00000E+00         0.00000E+00        -0.23131E+04
 
   -0.48442E+04         0.36801E+04         0.00000E+00
    0.36801E+04        -0.27144E+04         0.00000E+00
    0.00000E+00         0.00000E+00        -0.22676E+04
 
   -0.44421E+04         0.38042E+04         0.00000E+00
    0.38042E+04        -0.29419E+04         0.00000E+00
    0.00000E+00         0.00000E+00        -0.22152E+04
 
   -0.40198E+04         0.39234E+04         0.00000E+00
    0.39234E+04        -0.31660E+04         0.00000E+00
    0.00000E+00         0.00000E+00        -0.21557E+04
 
   -0.35748E+04         0.40398E+04         0.00000E+00
    0.40398E+04        -0.33877E+04         0.00000E+00
    0.00000E+00         0.00000E+00        -0.20888E+04
 
   -0.31039E+04         0.41548E+04         0.00000E+00
    0.41548E+04        -0.36092E+04         0.00000E+00
    0.00000E+00         0.00000E+00        -0.20139E+04
 
   -0.26029E+04         0.42689E+04         0.00000E+00
    0.42689E+04        -0.38328E+04         0.00000E+00
    0.00000E+00         0.00000E+00        -0.19307E+04
 
   -0.20673E+04         0.43817E+04         0.00000E+00
    0.43817E+04        -0.40614E+04         0.00000E+00
    0.00000E+00         0.00000E+00        -0.18386E+04
 
   -0.69315E+04         0.79309E+02         0.00000E+00
    0.79309E+02        -0.26622E+01         0.00000E+00
    0.00000E+00         0.00000E+00        -0.20802E+04
 
   -0.70892E+04         0.25226E+03         0.00000E+00
    0.25226E+03        -0.16807E+02         0.00000E+00
    0.00000E+00         0.00000E+00        -0.21318E+04
 
   -0.72166E+04         0.44322E+03         0.00000E+00
    0.44322E+03        -0.46357E+02         0.00000E+00
    0.00000E+00         0.00000E+00        -0.21789E+04
 
   -0.73106E+04         0.65064E+03         0.00000E+00
    0.65064E+03        -0.93154E+02         0.00000E+00
    0.00000E+00         0.00000E+00        -0.22211E+04
 
   -0.73679E+04         0.87206E+03         0.00000E+00
    0.87206E+03        -0.15916E+03         0.00000E+00
    0.00000E+00         0.00000E+00        -0.22581E+04
 
   -0.73857E+04         0.11041E+04         0.00000E+00
    0.11041E+04        -0.24598E+03         0.00000E+00
    0.00000E+00         0.00000E+00        -0.22895E+04
 
   -0.73618E+04         0.13425E+04         0.00000E+00
    0.13425E+04        -0.35456E+03         0.00000E+00
    0.00000E+00         0.00000E+00        -0.23149E+04
 
   -0.72951E+04         0.15829E+04         0.00000E+00
    0.15829E+04        -0.48486E+03         0.00000E+00
    0.00000E+00         0.00000E+00        -0.23340E+04
 
   -0.71861E+04         0.18207E+04         0.00000E+00
    0.18207E+04        -0.63588E+03         0.00000E+00
    0.00000E+00         0.00000E+00        -0.23466E+04
 
   -0.70363E+04         0.20518E+04         0.00000E+00
    0.20518E+04        -0.80572E+03         0.00000E+00
    0.00000E+00         0.00000E+00        -0.23526E+04
 
   -0.68480E+04         0.22729E+04         0.00000E+00
    0.22729E+04        -0.99173E+03         0.00000E+00
    0.00000E+00         0.00000E+00        -0.23519E+04
 
   -0.66246E+04         0.24817E+04         0.00000E+00
    0.24817E+04        -0.11909E+04         0.00000E+00
    0.00000E+00         0.00000E+00        -0.23446E+04
 
   -0.63694E+04         0.26766E+04         0.00000E+00
    0.26766E+04        -0.13998E+04         0.00000E+00
    0.00000E+00         0.00000E+00        -0.23308E+04
 
   -0.60856E+04         0.28574E+04         0.00000E+00
    0.28574E+04        -0.16156E+04         0.00000E+00
    0.00000E+00         0.00000E+00        -0.23104E+04
 
   -0.57764E+04         0.30244E+04         0.00000E+00
    0.30244E+04        -0.18352E+04         0.00000E+00
    0.00000E+00         0.00000E+00        -0.22835E+04
 
   -0.54440E+04         0.31786E+04         0.00000E+00
    0.31786E+04        -0.20565E+04         0.00000E+00
    0.00000E+00         0.00000E+00        -0.22502E+04
 
   -0.50901E+04         0.33219E+04         0.00000E+00
    0.33219E+04        -0.22776E+04         0.00000E+00
    0.00000E+00         0.00000E+00        -0.22103E+04
 
   -0.47153E+04         0.34559E+04         0.00000E+00
    0.34559E+04        -0.24975E+04         0.00000E+00
    0.00000E+00         0.00000E+00        -0.21638E+04
 
   -0.43195E+04         0.35826E+04         0.00000E+00
    0.35826E+04        -0.27158E+04         0.00000E+00
    0.00000E+00         0.00000E+00        -0.21106E+04
 
   -0.39014E+04         0.37037E+04         0.00000E+00
    0.37037E+04        -0.29330E+04         0.00000E+00
    0.00000E+00         0.00000E+00        -0.20503E+04
 
   -0.34594E+04         0.38206E+04         0.00000E+00
    0.38206E+04        -0.31499E+04         0.00000E+00
    0.00000E+00         0.00000E+00        -0.19828E+04
 
   -0.29906E+04         0.39341E+04         0.00000E+00
    0.39341E+04        -0.33680E+04         0.00000E+00
    0.00000E+00         0.00000E+00        -0.19076E+04
 
   -0.24919E+04         0.40443E+04         0.00000E+00
    0.40443E+04        -0.35892E+04         0.00000E+00
    0.00000E+00         0.00000E+00        -0.18243E+04
 
   -0.19597E+04         0.41505E+04         0.00000E+00
    0.41505E+04        -0.38159E+04         0.00000E+00
    0.00000E+00         0.00000E+00        -0.17327E+04
 
   -0.67748E+04         0.72512E+02         0.00000E+00
    0.72512E+02        -0.25588E+01         0.00000E+00
    0.00000E+00         0.00000E+00        -0.20332E+04
 
   -0.69146E+04         0.23113E+03         0.00000E+00
    0.23113E+03        -0.16130E+02         0.00000E+00
    0.00000E+00         0.00000E+00        -0.20792E+04
 
   -0.70255E+04         0.40632E+03         0.00000E+00
    0.40632E+03        -0.44303E+02         0.00000E+00
    0.00000E+00         0.00000E+00        -0.21209E+04
 
   -0.71050E+04         0.59629E+03         0.00000E+00
    0.59629E+03        -0.88452E+02         0.00000E+00
    0.00000E+00         0.00000E+00        -0.21580E+04
 
   -0.71507E+04         0.79868E+03         0.00000E+00
    0.79868E+03        -0.14999E+03         0.00000E+00
    0.00000E+00         0.00000E+00        -0.21902E+04
 
   -0.71603E+04         0.10106E+04         0.00000E+00
    0.10106E+04        -0.23006E+03         0.00000E+00
    0.00000E+00         0.00000E+00        -0.22171E+04
 
   -0.71322E+04         0.12285E+04         0.00000E+00
    0.12285E+04        -0.32931E+03         0.00000E+00
    0.00000E+00         0.00000E+00        -0.22384E+04
 
   -0.70654E+04         0.14488E+04         0.00000E+00
    0.14488E+04        -0.44770E+03         0.00000E+00
    0.00000E+00         0.00000E+00        -0.22539E+04
 
   -0.69602E+04         0.16678E+04         0.00000E+00
    0.16678E+04        -0.58445E+03         0.00000E+00
    0.00000E+00         0.00000E+00        -0.22634E+04
 
   -0.68176E+04         0.18821E+04         0.00000E+00
    0.18821E+04        -0.73809E+03         0.00000E+00
    0.00000E+00         0.00000E+00        -0.22667E+04
 
   -0.66393E+04         0.20891E+04         0.00000E+00
    0.20891E+04        -0.90661E+03         0.00000E+00
    0.00000E+00         0.00000E+00        -0.22638E+04
 
   -0.64276E+04         0.22865E+04         0.00000E+00
    0.22865E+04        -0.10876E+04         0.00000E+00
    0.00000E+00         0.00000E+00        -0.22546E+04
 
   -0.61850E+04         0.24730E+04         0.00000E+00
    0.24730E+04        -0.12785E+04         0.00000E+00
    0.00000E+00         0.00000E+00        -0.22391E+04
 
   -0.59141E+04         0.26479E+04         0.00000E+00
    0.26479E+04        -0.14769E+04         0.00000E+00
    0.00000E+00         0.00000E+00        -0.22173E+04
 
   -0.56171E+04         0.28115E+04         0.00000E+00
    0.28115E+04        -0.16803E+04         0.00000E+00
    0.00000E+00         0.00000E+00        -0.21892E+04
 
   -0.52958E+04         0.29643E+04         0.00000E+00
    0.29643E+04        -0.18870E+04         0.00000E+00
    0.00000E+00         0.00000E+00        -0.21548E+04
 
   -0.49515E+04         0.31072E+04         0.00000E+00
    0.31072E+04        -0.20954E+04         0.00000E+00
    0.00000E+00         0.00000E+00        -0.21141E+04
 
   -0.45848E+04         0.32417E+04         0.00000E+00
    0.32417E+04        -0.23046E+04         0.00000E+00
    0.00000E+00         0.00000E+00        -0.20668E+04
 
   -0.41955E+04         0.33688E+04         0.00000E+00
    0.33688E+04        -0.25143E+04         0.00000E+00
    0.00000E+00         0.00000E+00        -0.20129E+04
 
   -0.37828E+04         0.34899E+04         0.00000E+00
    0.34899E+04        -0.27246E+04         0.00000E+00
    0.00000E+00         0.00000E+00        -0.19522E+04
 
   -0.33451E+04         0.36056E+04         0.00000E+00
    0.36056E+04        -0.29363E+04         0.00000E+00
    0.00000E+00         0.00000E+00        -0.18844E+04
 
   -0.28805E+04         0.37165E+04         0.00000E+00
    0.37165E+04        -0.31504E+04         0.00000E+00
    0.00000E+00         0.00000E+00        -0.18093E+04
 
   -0.23863E+04         0.38222E+04         0.00000E+00
    0.38222E+04        -0.33684E+04         0.00000E+00
    0.00000E+00         0.00000E+00        -0.17264E+04
 
   -0.18598E+04         0.39218E+04         0.00000E+00
    0.39218E+04        -0.35921E+04         0.00000E+00
    0.00000E+00         0.00000E+00        -0.16356E+04
 
   -0.66317E+04         0.66064E+02         0.00000E+00
    0.66064E+02        -0.24026E+01         0.00000E+00
    0.00000E+00         0.00000E+00        -0.19902E+04
 
   -0.67547E+04         0.21109E+03         0.00000E+00
    0.21109E+03        -0.15160E+02         0.00000E+00
    0.00000E+00         0.00000E+00        -0.20309E+04
 
   -0.68504E+04         0.37155E+03         0.00000E+00
    0.37155E+03        -0.41591E+02         0.00000E+00
    0.00000E+00         0.00000E+00        -0.20676E+04
 
   -0.69169E+04         0.54553E+03         0.00000E+00
    0.54553E+03        -0.82789E+02         0.00000E+00
    0.00000E+00         0.00000E+00        -0.20999E+04
 
   -0.69521E+04         0.73078E+03         0.00000E+00
    0.73078E+03        -0.13982E+03         0.00000E+00
    0.00000E+00         0.00000E+00        -0.21276E+04
 
   -0.69542E+04         0.92472E+03         0.00000E+00
    0.92472E+03        -0.21352E+03         0.00000E+00
    0.00000E+00         0.00000E+00        -0.21503E+04
 
   -0.69218E+04         0.11244E+04         0.00000E+00
    0.11244E+04        -0.30436E+03         0.00000E+00
    0.00000E+00         0.00000E+00        -0.21678E+04
 
   -0.68542E+04         0.13269E+04         0.00000E+00
    0.13269E+04        -0.41228E+03         0.00000E+00
    0.00000E+00         0.00000E+00        -0.21799E+04
 
   -0.67513E+04         0.15291E+04         0.00000E+00
    0.15291E+04        -0.53668E+03         0.00000E+00
    0.00000E+00         0.00000E+00        -0.21864E+04
 
   -0.66139E+04         0.17282E+04         0.00000E+00
    0.17282E+04        -0.67643E+03         0.00000E+00
    0.00000E+00         0.00000E+00        -0.21871E+04
 
   -0.64431E+04         0.19218E+04         0.00000E+00
    0.19218E+04        -0.82996E+03         0.00000E+00
    0.00000E+00         0.00000E+00        -0.21819E+04
 
   -0.62405E+04         0.21082E+04         0.00000E+00
    0.21082E+04        -0.99541E+03         0.00000E+00
    0.00000E+00         0.00000E+00        -0.21708E+04
 
   -0.60081E+04         0.22859E+04         0.00000E+00
    0.22859E+04        -0.11708E+04         0.00000E+00
    0.00000E+00         0.00000E+00        -0.21536E+04
 
   -0.57476E+04         0.24542E+04         0.00000E+00
    0.24542E+04        -0.13540E+04         0.00000E+00
    0.00000E+00         0.00000E+00        -0.21305E+04
 
   -0.54609E+04         0.26131E+04         0.00000E+00
    0.26131E+04        -0.15433E+04         0.00000E+00
    0.00000E+00         0.00000E+00        -0.21013E+04
 
   -0.51492E+04         0.27628E+04         0.00000E+00
    0.27628E+04        -0.17371E+04         0.00000E+00
    0.00000E+00         0.00000E+00        -0.20659E+04
 
   -0.48137E+04         0.29037E+04         0.00000E+00
    0.29037E+04        -0.19341E+04         0.00000E+00
    0.00000E+00         0.00000E+00        -0.20243E+04
 
   -0.44547E+04         0.30368E+04         0.00000E+00
    0.30368E+04        -0.21335E+04         0.00000E+00
    0.00000E+00         0.00000E+00        -0.19764E+04
 
   -0.40721E+04         0.31627E+04         0.00000E+00
    0.31627E+04        -0.23350E+04         0.00000E+00
    0.00000E+00         0.00000E+00        -0.19221E+04
 
   -0.36654E+04         0.32821E+04         0.00000E+00
    0.32821E+04        -0.25386E+04         0.00000E+00
    0.00000E+00         0.00000E+00        -0.18612E+04
 
   -0.32333E+04         0.33954E+04         0.00000E+00
    0.33954E+04        -0.27448E+04         0.00000E+00
    0.00000E+00         0.00000E+00        -0.17934E+04
 
   -0.27742E+04         0.35027E+04         0.00000E+00
    0.35027E+04        -0.29544E+04         0.00000E+00
    0.00000E+00         0.00000E+00        -0.17186E+04
 
   -0.22864E+04         0.36034E+04         0.00000E+00
    0.36034E+04        -0.31686E+04         0.00000E+00
    0.00000E+00         0.00000E+00        -0.16365E+04
 
   -0.17676E+04         0.36965E+04         0.00000E+00
    0.36965E+04        -0.33886E+04         0.00000E+00
    0.00000E+00         0.00000E+00        -0.15469E+04
 
   -0.65012E+04         0.60059E+02         0.00000E+00
    0.60059E+02        -0.22221E+01         0.00000E+00
    0.00000E+00         0.00000E+00        -0.19510E+04
 
   -0.66083E+04         0.19239E+03         0.00000E+00
    0.19239E+03        -0.14055E+02         0.00000E+00
    0.00000E+00         0.00000E+00        -0.19867E+04
 
   -0.66901E+04         0.33916E+03         0.00000E+00
    0.33916E+03        -0.38588E+02         0.00000E+00
    0.00000E+00         0.00000E+00        -0.20186E+04
 
   -0.67447E+04         0.49845E+03         0.00000E+00
    0.49845E+03        -0.76754E+02         0.00000E+00
    0.00000E+00         0.00000E+00        -0.20464E+04
 
   -0.67702E+04         0.66815E+03         0.00000E+00
    0.66815E+03        -0.12940E+03         0.00000E+00
    0.00000E+00         0.00000E+00        -0.20699E+04
 
   -0.67652E+04         0.84595E+03         0.00000E+00
    0.84595E+03        -0.19719E+03         0.00000E+00
    0.00000E+00         0.00000E+00        -0.20887E+04
 
   -0.67285E+04         0.10293E+04         0.00000E+00
    0.10293E+04        -0.28045E+03         0.00000E+00
    0.00000E+00         0.00000E+00        -0.21027E+04
 
   -0.66594E+04         0.12158E+04         0.00000E+00
    0.12158E+04        -0.37915E+03         0.00000E+00
    0.00000E+00         0.00000E+00        -0.21116E+04
 
   -0.65578E+04         0.14027E+04         0.00000E+00
    0.14027E+04        -0.49282E+03         0.00000E+00
    0.00000E+00         0.00000E+00        -0.21152E+04
 
   -0.64240E+04         0.15877E+04         0.00000E+00
    0.15877E+04        -0.62059E+03         0.00000E+00
    0.00000E+00         0.00000E+00        -0.21134E+04
 
   -0.62588E+04         0.17688E+04         0.00000E+00
    0.17688E+04        -0.76124E+03         0.00000E+00
    0.00000E+00         0.00000E+00        -0.21060E+04
 
   -0.60633E+04         0.19444E+04         0.00000E+00
    0.19444E+04        -0.91331E+03         0.00000E+00
    0.00000E+00         0.00000E+00        -0.20930E+04
 
   -0.58390E+04         0.21131E+04         0.00000E+00
    0.21131E+04        -0.10752E+04         0.00000E+00
    0.00000E+00         0.00000E+00        -0.20743E+04
 
   -0.55871E+04         0.22743E+04         0.00000E+00
    0.22743E+04        -0.12454E+04         0.00000E+00
    0.00000E+00         0.00000E+00        -0.20498E+04
 
   -0.53091E+04         0.24275E+04         0.00000E+00
    0.24275E+04        -0.14223E+04         0.00000E+00
    0.00000E+00         0.00000E+00        -0.20194E+04
 
   -0.50059E+04         0.25728E+04         0.00000E+00
    0.25728E+04        -0.16046E+04         0.00000E+00
    0.00000E+00         0.00000E+00        -0.19831E+04
 
   -0.46782E+04         0.27104E+04         0.00000E+00
    0.27104E+04        -0.17913E+04         0.00000E+00
    0.00000E+00         0.00000E+00        -0.19409E+04
 
   -0.43266E+04         0.28406E+04         0.00000E+00
    0.28406E+04        -0.19817E+04         0.00000E+00
    0.00000E+00         0.00000E+00        -0.18925E+04
 
   -0.39508E+04         0.29638E+04         0.00000E+00
    0.29638E+04        -0.21755E+04         0.00000E+00
    0.00000E+00         0.00000E+00        -0.18379E+04
 
   -0.35505E+04         0.30803E+04         0.00000E+00
    0.30803E+04        -0.23726E+04         0.00000E+00
    0.00000E+00         0.00000E+00        -0.17769E+04
 
   -0.31248E+04         0.31902E+04         0.00000E+00
    0.31902E+04        -0.25733E+04         0.00000E+00
    0.00000E+00         0.00000E+00        -0.17094E+04
 
   -0.26725E+04         0.32932E+04         0.00000E+00
    0.32932E+04        -0.27782E+04         0.00000E+00
    0.00000E+00         0.00000E+00        -0.16352E+04
 
   -0.21923E+04         0.33886E+04         0.00000E+00
    0.33886E+04        -0.29881E+04         0.00000E+00
    0.00000E+00         0.00000E+00        -0.15541E+04
 
   -0.16825E+04         0.34752E+04         0.00000E+00
    0.34752E+04        -0.32039E+04         0.00000E+00
    0.00000E+00         0.00000E+00        -0.14659E+04
 
   -0.63825E+04         0.54530E+02         0.00000E+00
    0.54530E+02        -0.20362E+01         0.00000E+00
    0.00000E+00         0.00000E+00        -0.19154E+04
 
   -0.64747E+04         0.17510E+03         0.00000E+00
    0.17510E+03        -0.12921E+02         0.00000E+00
    0.00000E+00         0.00000E+00        -0.19463E+04
 
   -0.65435E+04         0.30921E+03         0.00000E+00
    0.30921E+03        -0.35542E+02         0.00000E+00
    0.00000E+00         0.00000E+00        -0.19737E+04
 
   -0.65869E+04         0.45498E+03         0.00000E+00
    0.45498E+03        -0.70742E+02         0.00000E+00
    0.00000E+00         0.00000E+00        -0.19973E+04
 
   -0.66035E+04         0.61047E+03         0.00000E+00
    0.61047E+03        -0.11925E+03         0.00000E+00
    0.00000E+00         0.00000E+00        -0.20168E+04
 
   -0.65918E+04         0.77359E+03         0.00000E+00
    0.77359E+03        -0.18159E+03         0.00000E+00
    0.00000E+00         0.00000E+00        -0.20320E+04
 
   -0.65508E+04         0.94216E+03         0.00000E+00
    0.94216E+03        -0.25807E+03         0.00000E+00
    0.00000E+00         0.00000E+00        -0.20427E+04
 
   -0.64797E+04         0.11140E+04         0.00000E+00
    0.11140E+04        -0.34864E+03         0.00000E+00
    0.00000E+00         0.00000E+00        -0.20485E+04
 
   -0.63784E+04         0.12869E+04         0.00000E+00
    0.12869E+04        -0.45296E+03         0.00000E+00
    0.00000E+00         0.00000E+00        -0.20494E+04
 
   -0.62470E+04         0.14588E+04         0.00000E+00
    0.14588E+04        -0.57036E+03         0.00000E+00
    0.00000E+00         0.00000E+00        -0.20452E+04
 
   -0.60859E+04         0.16281E+04         0.00000E+00
    0.16281E+04        -0.69990E+03         0.00000E+00
    0.00000E+00         0.00000E+00        -0.20357E+04
 
   -0.58960E+04         0.17931E+04         0.00000E+00
    0.17931E+04        -0.84044E+03         0.00000E+00
    0.00000E+00         0.00000E+00        -0.20209E+04
 
   -0.56781E+04         0.19528E+04         0.00000E+00
    0.19528E+04        -0.99073E+03         0.00000E+00
    0.00000E+00         0.00000E+00        -0.20007E+04
 
   -0.54334E+04         0.21063E+04         0.00000E+00
    0.21063E+04        -0.11495E+04         0.00000E+00
    0.00000E+00         0.00000E+00        -0.19749E+04
 
   -0.51627E+04         0.22531E+04         0.00000E+00
    0.22531E+04        -0.13155E+04         0.00000E+00
    0.00000E+00         0.00000E+00        -0.19435E+04
 
   -0.48669E+04         0.23931E+04         0.00000E+00
    0.23931E+04        -0.14877E+04         0.00000E+00
    0.00000E+00         0.00000E+00        -0.19064E+04
 
   -0.45465E+04         0.25261E+04         0.00000E+00
    0.25261E+04        -0.16652E+04         0.00000E+00
    0.00000E+00         0.00000E+00        -0.18635E+04
 
   -0.42018E+04         0.26523E+04         0.00000E+00
    0.26523E+04        -0.18474E+04         0.00000E+00
    0.00000E+00         0.00000E+00        -0.18148E+04
 
   -0.38328E+04         0.27718E+04         0.00000E+00
    0.27718E+04        -0.20340E+04         0.00000E+00
    0.00000E+00         0.00000E+00        -0.17600E+04
 
   -0.34393E+04         0.28844E+04         0.00000E+00
    0.28844E+04        -0.22248E+04         0.00000E+00
    0.00000E+00         0.00000E+00        -0.16992E+04
 
   -0.30205E+04         0.29901E+04         0.00000E+00
    0.29901E+04        -0.24201E+04         0.00000E+00
    0.00000E+00         0.00000E+00        -0.16322E+04
 
   -0.25758E+04         0.30883E+04         0.00000E+00
    0.30883E+04        -0.26201E+04         0.00000E+00
    0.00000E+00         0.00000E+00        -0.15588E+04
 
   -0.21041E+04         0.31782E+04         0.00000E+00
    0.31782E+04        -0.28254E+04         0.00000E+00
    0.00000E+00         0.00000E+00        -0.14788E+04
 
   -0.16043E+04         0.32585E+04         0.00000E+00
    0.32585E+04        -0.30366E+04         0.00000E+00
    0.00000E+00         0.00000E+00        -0.13923E+04
 
   -0.62746E+04         0.49474E+02         0.00000E+00
    0.49474E+02        -0.18563E+01         0.00000E+00
    0.00000E+00         0.00000E+00        -0.18829E+04
 
   -0.63529E+04         0.15921E+03         0.00000E+00
    0.15921E+03        -0.11823E+02         0.00000E+00
    0.00000E+00         0.00000E+00        -0.19094E+04
 
   -0.64094E+04         0.28162E+03         0.00000E+00
    0.28162E+03        -0.32607E+02         0.00000E+00
    0.00000E+00         0.00000E+00        -0.19326E+04
 
   -0.64425E+04         0.41494E+03         0.00000E+00
    0.41494E+03        -0.65005E+02         0.00000E+00
    0.00000E+00         0.00000E+00        -0.19523E+04
 
   -0.64507E+04         0.55737E+03         0.00000E+00
    0.55737E+03        -0.10967E+03         0.00000E+00
    0.00000E+00         0.00000E+00        -0.19681E+04
 
   -0.64325E+04         0.70703E+03         0.00000E+00
    0.70703E+03        -0.16708E+03         0.00000E+00
    0.00000E+00         0.00000E+00        -0.19799E+04
 
   -0.63872E+04         0.86202E+03         0.00000E+00
    0.86202E+03        -0.23749E+03         0.00000E+00
    0.00000E+00         0.00000E+00        -0.19874E+04
 
   -0.63138E+04         0.10204E+04         0.00000E+00
    0.10204E+04        -0.32091E+03         0.00000E+00
    0.00000E+00         0.00000E+00        -0.19904E+04
 
   -0.62121E+04         0.11803E+04         0.00000E+00
    0.11803E+04        -0.41708E+03         0.00000E+00
    0.00000E+00         0.00000E+00        -0.19888E+04
 
   -0.60821E+04         0.13400E+04         0.00000E+00
    0.13400E+04        -0.52550E+03         0.00000E+00
    0.00000E+00         0.00000E+00        -0.19823E+04
 
   -0.59240E+04         0.14979E+04         0.00000E+00
    0.14979E+04        -0.64544E+03         0.00000E+00
    0.00000E+00         0.00000E+00        -0.19708E+04
 
   -0.57384E+04         0.16527E+04         0.00000E+00
    0.16527E+04        -0.77600E+03         0.00000E+00
    0.00000E+00         0.00000E+00        -0.19543E+04
 
   -0.55257E+04         0.18032E+04         0.00000E+00
    0.18032E+04        -0.91621E+03         0.00000E+00
    0.00000E+00         0.00000E+00        -0.19326E+04
 
   -0.52869E+04         0.19487E+04         0.00000E+00
    0.19487E+04        -0.10650E+04         0.00000E+00
    0.00000E+00         0.00000E+00        -0.19056E+04
 
   -0.50225E+04         0.20886E+04         0.00000E+00
    0.20886E+04        -0.12215E+04         0.00000E+00
    0.00000E+00         0.00000E+00        -0.18732E+04
 
   -0.47332E+04         0.22225E+04         0.00000E+00
    0.22225E+04        -0.13847E+04         0.00000E+00
    0.00000E+00         0.00000E+00        -0.18354E+04
 
   -0.44193E+04         0.23502E+04         0.00000E+00
    0.23502E+04        -0.15540E+04         0.00000E+00
    0.00000E+00         0.00000E+00        -0.17920E+04
 
   -0.40813E+04         0.24715E+04         0.00000E+00
    0.24715E+04        -0.17287E+04         0.00000E+00
    0.00000E+00         0.00000E+00        -0.17430E+04
 
   -0.37190E+04         0.25863E+04         0.00000E+00
    0.25863E+04        -0.19086E+04         0.00000E+00
    0.00000E+00         0.00000E+00        -0.16883E+04
 
   -0.33324E+04         0.26943E+04         0.00000E+00
    0.26943E+04        -0.20935E+04         0.00000E+00
    0.00000E+00         0.00000E+00        -0.16277E+04
 
   -0.29210E+04         0.27951E+04         0.00000E+00
    0.27951E+04        -0.22833E+04         0.00000E+00
    0.00000E+00         0.00000E+00        -0.15613E+04
 
   -0.24843E+04         0.28882E+04         0.00000E+00
    0.28882E+04        -0.24784E+04         0.00000E+00
    0.00000E+00         0.00000E+00        -0.14888E+04
 
   -0.20217E+04         0.29724E+04         0.00000E+00
    0.29724E+04        -0.26789E+04         0.00000E+00
    0.00000E+00         0.00000E+00        -0.14102E+04
 
   -0.15326E+04         0.30466E+04         0.00000E+00
    0.30466E+04        -0.28853E+04         0.00000E+00
    0.00000E+00         0.00000E+00        -0.13254E+04
 
   -0.61767E+04         0.44868E+02         0.00000E+00
    0.44868E+02        -0.16894E+01         0.00000E+00
    0.00000E+00         0.00000E+00        -0.18535E+04
 
   -0.62418E+04         0.14466E+03         0.00000E+00
    0.14466E+03        -0.10802E+02         0.00000E+00
    0.00000E+00         0.00000E+00        -0.18758E+04
 
   -0.62870E+04         0.25627E+03         0.00000E+00
    0.25627E+03        -0.29879E+02         0.00000E+00
    0.00000E+00         0.00000E+00        -0.18951E+04
 
   -0.63104E+04         0.37808E+03         0.00000E+00
    0.37808E+03        -0.59694E+02         0.00000E+00
    0.00000E+00         0.00000E+00        -0.19110E+04
 
   -0.63106E+04         0.50844E+03         0.00000E+00
    0.50844E+03        -0.10087E+03         0.00000E+00
    0.00000E+00         0.00000E+00        -0.19234E+04
 
   -0.62863E+04         0.64568E+03         0.00000E+00
    0.64568E+03        -0.15384E+03         0.00000E+00
    0.00000E+00         0.00000E+00        -0.19320E+04
 
   -0.62366E+04         0.78810E+03         0.00000E+00
    0.78810E+03        -0.21887E+03         0.00000E+00
    0.00000E+00         0.00000E+00        -0.19366E+04
 
   -0.61607E+04         0.93401E+03         0.00000E+00
    0.93401E+03        -0.29601E+03         0.00000E+00
    0.00000E+00         0.00000E+00        -0.19370E+04
 
   -0.60581E+04         0.10818E+04         0.00000E+00
    0.10818E+04        -0.38507E+03         0.00000E+00
    0.00000E+00         0.00000E+00        -0.19330E+04
 
   -0.59288E+04         0.12299E+04         0.00000E+00
    0.12299E+04        -0.48569E+03         0.00000E+00
    0.00000E+00         0.00000E+00        -0.19244E+04
 
   -0.57728E+04         0.13769E+04         0.00000E+00
    0.13769E+04        -0.59731E+03         0.00000E+00
    0.00000E+00         0.00000E+00        -0.19110E+04
 
   -0.55904E+04         0.15216E+04         0.00000E+00
    0.15216E+04        -0.71923E+03         0.00000E+00
    0.00000E+00         0.00000E+00        -0.18929E+04
 
   -0.53819E+04         0.16630E+04         0.00000E+00
    0.16630E+04        -0.85069E+03         0.00000E+00
    0.00000E+00         0.00000E+00        -0.18698E+04
 
   -0.51480E+04         0.18003E+04         0.00000E+00
    0.18003E+04        -0.99086E+03         0.00000E+00
    0.00000E+00         0.00000E+00        -0.18417E+04
 
   -0.48890E+04         0.19328E+04         0.00000E+00
    0.19328E+04        -0.11390E+04         0.00000E+00
    0.00000E+00         0.00000E+00        -0.18084E+04
 
   -0.46055E+04         0.20601E+04         0.00000E+00
    0.20601E+04        -0.12942E+04         0.00000E+00
    0.00000E+00         0.00000E+00        -0.17699E+04
 
   -0.42977E+04         0.21818E+04         0.00000E+00
    0.21818E+04        -0.14561E+04         0.00000E+00
    0.00000E+00         0.00000E+00        -0.17261E+04
 
   -0.39659E+04         0.22975E+04         0.00000E+00
    0.22975E+04        -0.16240E+04         0.00000E+00
    0.00000E+00         0.00000E+00        -0.16770E+04
 
   -0.36102E+04         0.24070E+04         0.00000E+00
    0.24070E+04        -0.17976E+04         0.00000E+00
    0.00000E+00         0.00000E+00        -0.16224E+04
 
   -0.32305E+04         0.25097E+04         0.00000E+00
    0.25097E+04        -0.19768E+04         0.00000E+00
    0.00000E+00         0.00000E+00        -0.15622E+04
 
   -0.28266E+04         0.26053E+04         0.00000E+00
    0.26053E+04        -0.21614E+04         0.00000E+00
    0.00000E+00         0.00000E+00        -0.14964E+04
 
   -0.23983E+04         0.26928E+04         0.00000E+00
    0.26928E+04        -0.23516E+04         0.00000E+00
    0.00000E+00         0.00000E+00        -0.14250E+04
 
   -0.19452E+04         0.27714E+04         0.00000E+00
    0.27714E+04        -0.25473E+04         0.00000E+00
    0.00000E+00         0.00000E+00        -0.13477E+04
 
   -0.14671E+04         0.28397E+04         0.00000E+00
    0.28397E+04        -0.27487E+04         0.00000E+00
    0.00000E+00         0.00000E+00        -0.12647E+04
 
   -0.60878E+04         0.40671E+02         0.00000E+00
    0.40671E+02        -0.15390E+01         0.00000E+00
    0.00000E+00         0.00000E+00        -0.18268E+04
 
   -0.61408E+04         0.13132E+03         0.00000E+00
    0.13132E+03        -0.98779E+01         0.00000E+00
    0.00000E+00         0.00000E+00        -0.18452E+04
 
   -0.61753E+04         0.23295E+03         0.00000E+00
    0.23295E+03        -0.27408E+02         0.00000E+00
    0.00000E+00         0.00000E+00        -0.18608E+04
 
   -0.61896E+04         0.34410E+03         0.00000E+00
    0.34410E+03        -0.54889E+02         0.00000E+00
    0.00000E+00         0.00000E+00        -0.18733E+04
 
   -0.61823E+04         0.46326E+03         0.00000E+00
    0.46326E+03        -0.92925E+02         0.00000E+00
    0.00000E+00         0.00000E+00        -0.18826E+04
 
   -0.61521E+04         0.58895E+03         0.00000E+00
    0.58895E+03        -0.14195E+03         0.00000E+00
    0.00000E+00         0.00000E+00        -0.18882E+04
 
   -0.60981E+04         0.71966E+03         0.00000E+00
    0.71966E+03        -0.20224E+03         0.00000E+00
    0.00000E+00         0.00000E+00        -0.18901E+04
 
   -0.60195E+04         0.85390E+03         0.00000E+00
    0.85390E+03        -0.27386E+03         0.00000E+00
    0.00000E+00         0.00000E+00        -0.18880E+04
 
   -0.59157E+04         0.99022E+03         0.00000E+00
    0.99022E+03        -0.35673E+03         0.00000E+00
    0.00000E+00         0.00000E+00        -0.18817E+04
 
   -0.57865E+04         0.11273E+04         0.00000E+00
    0.11273E+04        -0.45058E+03         0.00000E+00
    0.00000E+00         0.00000E+00        -0.18711E+04
 
   -0.56319E+04         0.12638E+04         0.00000E+00
    0.12638E+04        -0.55499E+03         0.00000E+00
    0.00000E+00         0.00000E+00        -0.18561E+04
 
   -0.54519E+04         0.13987E+04         0.00000E+00
    0.13987E+04        -0.66943E+03         0.00000E+00
    0.00000E+00         0.00000E+00        -0.18364E+04
 
   -0.52469E+04         0.15310E+04         0.00000E+00
    0.15310E+04        -0.79328E+03         0.00000E+00
    0.00000E+00         0.00000E+00        -0.18120E+04
 
   -0.50170E+04         0.16599E+04         0.00000E+00
    0.16599E+04        -0.92589E+03         0.00000E+00
    0.00000E+00         0.00000E+00        -0.17829E+04
 
   -0.47627E+04         0.17848E+04         0.00000E+00
    0.17848E+04        -0.10666E+04         0.00000E+00
    0.00000E+00         0.00000E+00        -0.17488E+04
 
   -0.44843E+04         0.19050E+04         0.00000E+00
    0.19050E+04        -0.12148E+04         0.00000E+00
    0.00000E+00         0.00000E+00        -0.17098E+04
 
   -0.41821E+04         0.20201E+04         0.00000E+00
    0.20201E+04        -0.13700E+04         0.00000E+00
    0.00000E+00         0.00000E+00        -0.16656E+04
 
   -0.38562E+04         0.21297E+04         0.00000E+00
    0.21297E+04        -0.15318E+04         0.00000E+00
    0.00000E+00         0.00000E+00        -0.16164E+04
 
   -0.35069E+04         0.22333E+04         0.00000E+00
    0.22333E+04        -0.16996E+04         0.00000E+00
    0.00000E+00         0.00000E+00        -0.15620E+04
 
   -0.31340E+04         0.23304E+04         0.00000E+00
    0.23304E+04        -0.18735E+04         0.00000E+00
    0.00000E+00         0.00000E+00        -0.15023E+04
 
   -0.27377E+04         0.24204E+04         0.00000E+00
    0.24204E+04        -0.20531E+04         0.00000E+00
    0.00000E+00         0.00000E+00        -0.14372E+04
 
   -0.23179E+04         0.25024E+04         0.00000E+00
    0.25024E+04        -0.22383E+04         0.00000E+00
    0.00000E+00         0.00000E+00        -0.13669E+04
 
   -0.18744E+04         0.25753E+04         0.00000E+00
    0.25753E+04        -0.24293E+04         0.00000E+00
    0.00000E+00         0.00000E+00        -0.12911E+04
 
   -0.14074E+04         0.26380E+04         0.00000E+00
    0.26380E+04        -0.26258E+04         0.00000E+00
    0.00000E+00         0.00000E+00        -0.12100E+04
 
   -0.60072E+04         0.36839E+02         0.00000E+00
    0.36839E+02        -0.14067E+01         0.00000E+00
    0.00000E+00         0.00000E+00        -0.18026E+04
 
   -0.60489E+04         0.11908E+03         0.00000E+00
    0.11908E+03        -0.90605E+01         0.00000E+00
    0.00000E+00         0.00000E+00        -0.18174E+04
 
   -0.60736E+04         0.21147E+03         0.00000E+00
    0.21147E+03        -0.25215E+02         0.00000E+00
    0.00000E+00         0.00000E+00        -0.18296E+04
 
   -0.60794E+04         0.31269E+03         0.00000E+00
    0.31269E+03        -0.50622E+02         0.00000E+00
    0.00000E+00         0.00000E+00        -0.18390E+04
 
   -0.60651E+04         0.42142E+03         0.00000E+00
    0.42142E+03        -0.85877E+02         0.00000E+00
    0.00000E+00         0.00000E+00        -0.18453E+04
 
   -0.60293E+04         0.53631E+03         0.00000E+00
    0.53631E+03        -0.13142E+03         0.00000E+00
    0.00000E+00         0.00000E+00        -0.18482E+04
 
   -0.59710E+04         0.65603E+03         0.00000E+00
    0.65603E+03        -0.18754E+03         0.00000E+00
    0.00000E+00         0.00000E+00        -0.18476E+04
 
   -0.58895E+04         0.77926E+03         0.00000E+00
    0.77926E+03        -0.25436E+03         0.00000E+00
    0.00000E+00         0.00000E+00        -0.18432E+04
 
   -0.57842E+04         0.90473E+03         0.00000E+00
    0.90473E+03        -0.33184E+03         0.00000E+00
    0.00000E+00         0.00000E+00        -0.18348E+04
 
   -0.56548E+04         0.10312E+04         0.00000E+00
    0.10312E+04        -0.41981E+03         0.00000E+00
    0.00000E+00         0.00000E+00        -0.18224E+04
 
   -0.55010E+04         0.11576E+04         0.00000E+00
    0.11576E+04        -0.51797E+03         0.00000E+00
    0.00000E+00         0.00000E+00        -0.18057E+04
 
   -0.53229E+04         0.12828E+04         0.00000E+00
    0.12828E+04        -0.62591E+03         0.00000E+00
    0.00000E+00         0.00000E+00        -0.17846E+04
 
   -0.51206E+04         0.14061E+04         0.00000E+00
    0.14061E+04        -0.74314E+03         0.00000E+00
    0.00000E+00         0.00000E+00        -0.17591E+04
 
   -0.48942E+04         0.15265E+04         0.00000E+00
    0.15265E+04        -0.86915E+03         0.00000E+00
    0.00000E+00         0.00000E+00        -0.17290E+04
 
   -0.46439E+04         0.16435E+04         0.00000E+00
    0.16435E+04        -0.10034E+04         0.00000E+00
    0.00000E+00         0.00000E+00        -0.16942E+04
 
   -0.43701E+04         0.17563E+04         0.00000E+00
    0.17563E+04        -0.11454E+04         0.00000E+00
    0.00000E+00         0.00000E+00        -0.16547E+04
 
   -0.40730E+04         0.18646E+04         0.00000E+00
    0.18646E+04        -0.12946E+04         0.00000E+00
    0.00000E+00         0.00000E+00        -0.16103E+04
 
   -0.37527E+04         0.19677E+04         0.00000E+00
    0.19677E+04        -0.14507E+04         0.00000E+00
    0.00000E+00         0.00000E+00        -0.15610E+04
 
   -0.34095E+04         0.20651E+04         0.00000E+00
    0.20651E+04        -0.16133E+04         0.00000E+00
    0.00000E+00         0.00000E+00        -0.15068E+04
 
   -0.30434E+04         0.21562E+04         0.00000E+00
    0.21562E+04        -0.17821E+04         0.00000E+00
    0.00000E+00         0.00000E+00        -0.14476E+04
 
   -0.26545E+04         0.22403E+04         0.00000E+00
    0.22403E+04        -0.19569E+04         0.00000E+00
    0.00000E+00         0.00000E+00        -0.13834E+04
 
   -0.22431E+04         0.23166E+04         0.00000E+00
    0.23166E+04        -0.21375E+04         0.00000E+00
    0.00000E+00         0.00000E+00        -0.13142E+04
 
   -0.18092E+04         0.23840E+04         0.00000E+00
    0.23840E+04        -0.23237E+04         0.00000E+00
    0.00000E+00         0.00000E+00        -0.12399E+04
 
   -0.13532E+04         0.24412E+04         0.00000E+00
    0.24412E+04        -0.25153E+04         0.00000E+00
    0.00000E+00         0.00000E+00        -0.11606E+04
 
   -0.59342E+04         0.33325E+02         0.00000E+00
    0.33325E+02        -0.12923E+01         0.00000E+00
    0.00000E+00         0.00000E+00        -0.17806E+04
 
   -0.59656E+04         0.10781E+03         0.00000E+00
    0.10781E+03        -0.83502E+01         0.00000E+00
    0.00000E+00         0.00000E+00        -0.17922E+04
 
   -0.59811E+04         0.19160E+03         0.00000E+00
    0.19160E+03        -0.23301E+02         0.00000E+00
    0.00000E+00         0.00000E+00        -0.18013E+04
 
   -0.59791E+04         0.28356E+03         0.00000E+00
    0.28356E+03        -0.46889E+02         0.00000E+00
    0.00000E+00         0.00000E+00        -0.18078E+04
 
   -0.59581E+04         0.38251E+03         0.00000E+00
    0.38251E+03        -0.79708E+02         0.00000E+00
    0.00000E+00         0.00000E+00        -0.18113E+04
 
   -0.59170E+04         0.48725E+03         0.00000E+00
    0.48725E+03        -0.12221E+03         0.00000E+00
    0.00000E+00         0.00000E+00        -0.18118E+04
 
   -0.58546E+04         0.59661E+03         0.00000E+00
    0.59661E+03        -0.17469E+03         0.00000E+00
    0.00000E+00         0.00000E+00        -0.18088E+04
 
   -0.57703E+04         0.70940E+03         0.00000E+00
    0.70940E+03        -0.23733E+03         0.00000E+00
    0.00000E+00         0.00000E+00        -0.18023E+04
 
   -0.56633E+04         0.82449E+03         0.00000E+00
    0.82449E+03        -0.31014E+03         0.00000E+00
    0.00000E+00         0.00000E+00        -0.17920E+04
 
   -0.55333E+04         0.94081E+03         0.00000E+00
    0.94081E+03        -0.39302E+03         0.00000E+00
    0.00000E+00         0.00000E+00        -0.17779E+04
 
   -0.53799E+04         0.10573E+04         0.00000E+00
    0.10573E+04        -0.48576E+03         0.00000E+00
    0.00000E+00         0.00000E+00        -0.17597E+04
 
   -0.52032E+04         0.11731E+04         0.00000E+00
    0.11731E+04        -0.58805E+03         0.00000E+00
    0.00000E+00         0.00000E+00        -0.17374E+04
 
   -0.50030E+04         0.12874E+04         0.00000E+00
    0.12874E+04        -0.69952E+03         0.00000E+00
    0.00000E+00         0.00000E+00        -0.17108E+04
 
   -0.47795E+04         0.13993E+04         0.00000E+00
    0.13993E+04        -0.81976E+03         0.00000E+00
    0.00000E+00         0.00000E+00        -0.16798E+04
 
   -0.45329E+04         0.15082E+04         0.00000E+00
    0.15082E+04        -0.94831E+03         0.00000E+00
    0.00000E+00         0.00000E+00        -0.16444E+04
 
   -0.42632E+04         0.16134E+04         0.00000E+00
    0.16134E+04        -0.10847E+04         0.00000E+00
    0.00000E+00         0.00000E+00        -0.16044E+04
 
   -0.39707E+04         0.17145E+04         0.00000E+00
    0.17145E+04        -0.12286E+04         0.00000E+00
    0.00000E+00         0.00000E+00        -0.15598E+04
 
   -0.36557E+04         0.18108E+04         0.00000E+00
    0.18108E+04        -0.13796E+04         0.00000E+00
    0.00000E+00         0.00000E+00        -0.15106E+04
 
   -0.33183E+04         0.19018E+04         0.00000E+00
    0.19018E+04        -0.15373E+04         0.00000E+00
    0.00000E+00         0.00000E+00        -0.14567E+04
 
   -0.29587E+04         0.19867E+04         0.00000E+00
    0.19867E+04        -0.17015E+04         0.00000E+00
    0.00000E+00         0.00000E+00        -0.13980E+04
 
   -0.25772E+04         0.20649E+04         0.00000E+00
    0.20649E+04        -0.18717E+04         0.00000E+00
    0.00000E+00         0.00000E+00        -0.13347E+04
 
   -0.21739E+04         0.21354E+04         0.00000E+00
    0.21354E+04        -0.20478E+04         0.00000E+00
    0.00000E+00         0.00000E+00        -0.12665E+04
 
   -0.17494E+04         0.21973E+04         0.00000E+00
    0.21973E+04        -0.22295E+04         0.00000E+00
    0.00000E+00         0.00000E+00        -0.11937E+04
 
   -0.13041E+04         0.22494E+04         0.00000E+00
    0.22494E+04        -0.24165E+04         0.00000E+00
    0.00000E+00         0.00000E+00        -0.11162E+04
 
   -0.58682E+04         0.30084E+02         0.00000E+00
    0.30084E+02        -0.11952E+01         0.00000E+00
    0.00000E+00         0.00000E+00        -0.17608E+04
 
   -0.58901E+04         0.97362E+02         0.00000E+00
    0.97362E+02        -0.77424E+01         0.00000E+00
    0.00000E+00         0.00000E+00        -0.17694E+04
 
   -0.58973E+04         0.17314E+03         0.00000E+00
    0.17314E+03        -0.21655E+02         0.00000E+00
    0.00000E+00         0.00000E+00        -0.17757E+04
 
   -0.58880E+04         0.25642E+03         0.00000E+00
    0.25642E+03        -0.43667E+02         0.00000E+00
    0.00000E+00         0.00000E+00        -0.17795E+04
 
   -0.58609E+04         0.34616E+03         0.00000E+00
    0.34616E+03        -0.74372E+02         0.00000E+00
    0.00000E+00         0.00000E+00        -0.17806E+04
 
   -0.58147E+04         0.44131E+03         0.00000E+00
    0.44131E+03        -0.11423E+03         0.00000E+00
    0.00000E+00         0.00000E+00        -0.17787E+04
 
   -0.57484E+04         0.54083E+03         0.00000E+00
    0.54083E+03        -0.16357E+03         0.00000E+00
    0.00000E+00         0.00000E+00        -0.17736E+04
 
   -0.56612E+04         0.64366E+03         0.00000E+00
    0.64366E+03        -0.22258E+03         0.00000E+00
    0.00000E+00         0.00000E+00        -0.17651E+04
 
   -0.55524E+04         0.74882E+03         0.00000E+00
    0.74882E+03        -0.29134E+03         0.00000E+00
    0.00000E+00         0.00000E+00        -0.17531E+04
 
   -0.54216E+04         0.85531E+03         0.00000E+00
    0.85531E+03        -0.36982E+03         0.00000E+00
    0.00000E+00         0.00000E+00        -0.17374E+04
 
   -0.52684E+04         0.96224E+03         0.00000E+00
    0.96224E+03        -0.45787E+03         0.00000E+00
    0.00000E+00         0.00000E+00        -0.17179E+04
 
   -0.50927E+04         0.10687E+04         0.00000E+00
    0.10687E+04        -0.55527E+03         0.00000E+00
    0.00000E+00         0.00000E+00        -0.16944E+04
 
   -0.48943E+04         0.11740E+04         0.00000E+00
    0.11740E+04        -0.66174E+03         0.00000E+00
    0.00000E+00         0.00000E+00        -0.16668E+04
 
   -0.46732E+04         0.12774E+04         0.00000E+00
    0.12774E+04        -0.77693E+03         0.00000E+00
    0.00000E+00         0.00000E+00        -0.16350E+04
 
   -0.44297E+04         0.13781E+04         0.00000E+00
    0.13781E+04        -0.90047E+03         0.00000E+00
    0.00000E+00         0.00000E+00        -0.15990E+04
 
   -0.41637E+04         0.14757E+04         0.00000E+00
    0.14757E+04        -0.10320E+04         0.00000E+00
    0.00000E+00         0.00000E+00        -0.15587E+04
 
   -0.38755E+04         0.15694E+04         0.00000E+00
    0.15694E+04        -0.11711E+04         0.00000E+00
    0.00000E+00         0.00000E+00        -0.15140E+04
 
   -0.35654E+04         0.16587E+04         0.00000E+00
    0.16587E+04        -0.13175E+04         0.00000E+00
    0.00000E+00         0.00000E+00        -0.14649E+04
 
   -0.32335E+04         0.17430E+04         0.00000E+00
    0.17430E+04        -0.14707E+04         0.00000E+00
    0.00000E+00         0.00000E+00        -0.14113E+04
 
   -0.28801E+04         0.18216E+04         0.00000E+00
    0.18216E+04        -0.16305E+04         0.00000E+00
    0.00000E+00         0.00000E+00        -0.13532E+04
 
   -0.25056E+04         0.18938E+04         0.00000E+00
    0.18938E+04        -0.17965E+04         0.00000E+00
    0.00000E+00         0.00000E+00        -0.12906E+04
 
   -0.21104E+04         0.19586E+04         0.00000E+00
    0.19586E+04        -0.19684E+04         0.00000E+00
    0.00000E+00         0.00000E+00        -0.12236E+04
 
   -0.16949E+04         0.20152E+04         0.00000E+00
    0.20152E+04        -0.21458E+04         0.00000E+00
    0.00000E+00         0.00000E+00        -0.11522E+04
 
   -0.12598E+04         0.20623E+04         0.00000E+00
    0.20623E+04        -0.23282E+04         0.00000E+00
    0.00000E+00         0.00000E+00        -0.10764E+04
 
   -0.58087E+04         0.27075E+02         0.00000E+00
    0.27075E+02        -0.11139E+01         0.00000E+00
    0.00000E+00         0.00000E+00        -0.17429E+04
 
   -0.58221E+04         0.87631E+02         0.00000E+00
    0.87631E+02        -0.72296E+01         0.00000E+00
    0.00000E+00         0.00000E+00        -0.17488E+04
 
   -0.58216E+04         0.15589E+03         0.00000E+00
    0.15589E+03        -0.20257E+02         0.00000E+00
    0.00000E+00         0.00000E+00        -0.17526E+04
 
   -0.58056E+04         0.23099E+03         0.00000E+00
    0.23099E+03        -0.40919E+02         0.00000E+00
    0.00000E+00         0.00000E+00        -0.17540E+04
 
   -0.57728E+04         0.31202E+03         0.00000E+00
    0.31202E+03        -0.69808E+02         0.00000E+00
    0.00000E+00         0.00000E+00        -0.17528E+04
 
   -0.57219E+04         0.39806E+03         0.00000E+00
    0.39806E+03        -0.10739E+03         0.00000E+00
    0.00000E+00         0.00000E+00        -0.17488E+04
 
   -0.56518E+04         0.48820E+03         0.00000E+00
    0.48820E+03        -0.15401E+03         0.00000E+00
    0.00000E+00         0.00000E+00        -0.17418E+04
 
   -0.55619E+04         0.58150E+03         0.00000E+00
    0.58150E+03        -0.20990E+03         0.00000E+00
    0.00000E+00         0.00000E+00        -0.17315E+04
 
   -0.54513E+04         0.67708E+03         0.00000E+00
    0.67708E+03        -0.27518E+03         0.00000E+00
    0.00000E+00         0.00000E+00        -0.17179E+04
 
   -0.53195E+04         0.77406E+03         0.00000E+00
    0.77406E+03        -0.34986E+03         0.00000E+00
    0.00000E+00         0.00000E+00        -0.17008E+04
 
   -0.51663E+04         0.87162E+03         0.00000E+00
    0.87162E+03        -0.43386E+03         0.00000E+00
    0.00000E+00         0.00000E+00        -0.16800E+04
 
   -0.49912E+04         0.96898E+03         0.00000E+00
    0.96898E+03        -0.52703E+03         0.00000E+00
    0.00000E+00         0.00000E+00        -0.16555E+04
 
   -0.47942E+04         0.10654E+04         0.00000E+00
    0.10654E+04        -0.62915E+03         0.00000E+00
    0.00000E+00         0.00000E+00        -0.16270E+04
 
   -0.45753E+04         0.11602E+04         0.00000E+00
    0.11602E+04        -0.73993E+03         0.00000E+00
    0.00000E+00         0.00000E+00        -0.15946E+04
 
   -0.43344E+04         0.12528E+04         0.00000E+00
    0.12528E+04        -0.85908E+03         0.00000E+00
    0.00000E+00         0.00000E+00        -0.15581E+04
 
   -0.40718E+04         0.13425E+04         0.00000E+00
    0.13425E+04        -0.98627E+03         0.00000E+00
    0.00000E+00         0.00000E+00        -0.15174E+04
 
   -0.37876E+04         0.14288E+04         0.00000E+00
    0.14288E+04        -0.11211E+04         0.00000E+00
    0.00000E+00         0.00000E+00        -0.14726E+04
 
   -0.34820E+04         0.15110E+04         0.00000E+00
    0.15110E+04        -0.12634E+04         0.00000E+00
    0.00000E+00         0.00000E+00        -0.14236E+04
 
   -0.31553E+04         0.15885E+04         0.00000E+00
    0.15885E+04        -0.14125E+04         0.00000E+00
    0.00000E+00         0.00000E+00        -0.13703E+04
 
   -0.28078E+04         0.16607E+04         0.00000E+00
    0.16607E+04        -0.15684E+04         0.00000E+00
    0.00000E+00         0.00000E+00        -0.13128E+04
 
   -0.24399E+04         0.17268E+04         0.00000E+00
    0.17268E+04        -0.17304E+04         0.00000E+00
    0.00000E+00         0.00000E+00        -0.12511E+04
 
   -0.20523E+04         0.17860E+04         0.00000E+00
    0.17860E+04        -0.18983E+04         0.00000E+00
    0.00000E+00         0.00000E+00        -0.11852E+04
 
   -0.16454E+04         0.18373E+04         0.00000E+00
    0.18373E+04        -0.20716E+04         0.00000E+00
    0.00000E+00         0.00000E+00        -0.11151E+04
 
   -0.12200E+04         0.18798E+04         0.00000E+00
    0.18798E+04        -0.22497E+04         0.00000E+00
    0.00000E+00         0.00000E+00        -0.10409E+04
 
   -0.57553E+04         0.24257E+02         0.00000E+00
    0.24257E+02        -0.10467E+01         0.00000E+00
    0.00000E+00         0.00000E+00        -0.17269E+04
 
   -0.57610E+04         0.78499E+02         0.00000E+00
    0.78499E+02        -0.68025E+01         0.00000E+00
    0.00000E+00         0.00000E+00        -0.17303E+04
 
   -0.57536E+04         0.13967E+03         0.00000E+00
    0.13967E+03        -0.19085E+02         0.00000E+00
    0.00000E+00         0.00000E+00        -0.17318E+04
 
   -0.57315E+04         0.20702E+03         0.00000E+00
    0.20702E+03        -0.38602E+02         0.00000E+00
    0.00000E+00         0.00000E+00        -0.17310E+04
 
   -0.56934E+04         0.27977E+03         0.00000E+00
    0.27977E+03        -0.65943E+02         0.00000E+00
    0.00000E+00         0.00000E+00        -0.17278E+04
 
   -0.56381E+04         0.35713E+03         0.00000E+00
    0.35713E+03        -0.10158E+03         0.00000E+00
    0.00000E+00         0.00000E+00        -0.17219E+04
 
   -0.55646E+04         0.43828E+03         0.00000E+00
    0.43828E+03        -0.14588E+03         0.00000E+00
    0.00000E+00         0.00000E+00        -0.17131E+04
 
   -0.54720E+04         0.52241E+03         0.00000E+00
    0.52241E+03        -0.19910E+03         0.00000E+00
    0.00000E+00         0.00000E+00        -0.17013E+04
 
   -0.53596E+04         0.60873E+03         0.00000E+00
    0.60873E+03        -0.26138E+03         0.00000E+00
    0.00000E+00         0.00000E+00        -0.16863E+04
 
   -0.52268E+04         0.69646E+03         0.00000E+00
    0.69646E+03        -0.33280E+03         0.00000E+00
    0.00000E+00         0.00000E+00        -0.16679E+04
 
   -0.50733E+04         0.78486E+03         0.00000E+00
    0.78486E+03        -0.41331E+03         0.00000E+00
    0.00000E+00         0.00000E+00        -0.16460E+04
 
   -0.48987E+04         0.87322E+03         0.00000E+00
    0.87322E+03        -0.50283E+03         0.00000E+00
    0.00000E+00         0.00000E+00        -0.16204E+04
 
   -0.47028E+04         0.96088E+03         0.00000E+00
    0.96088E+03        -0.60118E+03         0.00000E+00
    0.00000E+00         0.00000E+00        -0.15912E+04
 
   -0.44857E+04         0.10472E+04         0.00000E+00
    0.10472E+04        -0.70813E+03         0.00000E+00
    0.00000E+00         0.00000E+00        -0.15581E+04
 
   -0.42473E+04         0.11316E+04         0.00000E+00
    0.11316E+04        -0.82344E+03         0.00000E+00
    0.00000E+00         0.00000E+00        -0.15212E+04
 
   -0.39876E+04         0.12134E+04         0.00000E+00
    0.12134E+04        -0.94680E+03         0.00000E+00
    0.00000E+00         0.00000E+00        -0.14803E+04
 
   -0.37070E+04         0.12921E+04         0.00000E+00
    0.12921E+04        -0.10779E+04         0.00000E+00
    0.00000E+00         0.00000E+00        -0.14355E+04
 
   -0.34055E+04         0.13671E+04         0.00000E+00
    0.13671E+04        -0.12164E+04         0.00000E+00
    0.00000E+00         0.00000E+00        -0.13866E+04
 
   -0.30836E+04         0.14378E+04         0.00000E+00
    0.14378E+04        -0.13619E+04         0.00000E+00
    0.00000E+00         0.00000E+00        -0.13337E+04
 
   -0.27417E+04         0.15035E+04         0.00000E+00
    0.15035E+04        -0.15141E+04         0.00000E+00
    0.00000E+00         0.00000E+00        -0.12767E+04
 
   -0.23801E+04         0.15636E+04         0.00000E+00
    0.15636E+04        -0.16725E+04         0.00000E+00
    0.00000E+00         0.00000E+00        -0.12158E+04
 
   -0.19996E+04         0.16172E+04         0.00000E+00
    0.16172E+04        -0.18366E+04         0.00000E+00
    0.00000E+00         0.00000E+00        -0.11509E+04
 
   -0.16007E+04         0.16635E+04         0.00000E+00
    0.16635E+04        -0.20061E+04         0.00000E+00
    0.00000E+00         0.00000E+00        -0.10820E+04
 
   -0.11845E+04         0.17015E+04         0.00000E+00
    0.17015E+04        -0.21802E+04         0.00000E+00
    0.00000E+00         0.00000E+00        -0.10094E+04
 
   -0.57075E+04         0.21598E+02         0.00000E+00
    0.21598E+02        -0.99205E+00         0.00000E+00
    0.00000E+00         0.00000E+00        -0.17126E+04
 
   -0.57064E+04         0.69868E+02         0.00000E+00
    0.69868E+02        -0.64512E+01         0.00000E+00
    0.00000E+00         0.00000E+00        -0.17138E+04
 
   -0.56928E+04         0.12431E+03         0.00000E+00
    0.12431E+03        -0.18113E+02         0.00000E+00
    0.00000E+00         0.00000E+00        -0.17133E+04
 
   -0.56652E+04         0.18428E+03         0.00000E+00
    0.18428E+03        -0.36670E+02         0.00000E+00
    0.00000E+00         0.00000E+00        -0.17106E+04
 
   -0.56223E+04         0.24914E+03         0.00000E+00
    0.24914E+03        -0.62704E+02         0.00000E+00
    0.00000E+00         0.00000E+00        -0.17055E+04
 
   -0.55630E+04         0.31817E+03         0.00000E+00
    0.31817E+03        -0.96696E+02         0.00000E+00
    0.00000E+00         0.00000E+00        -0.16979E+04
 
   -0.54863E+04         0.39067E+03         0.00000E+00
    0.39067E+03        -0.13902E+03         0.00000E+00
    0.00000E+00         0.00000E+00        -0.16876E+04
 
   -0.53911E+04         0.46594E+03         0.00000E+00
    0.46594E+03        -0.18996E+03         0.00000E+00
    0.00000E+00         0.00000E+00        -0.16743E+04
 
   -0.52770E+04         0.54328E+03         0.00000E+00
    0.54328E+03        -0.24969E+03         0.00000E+00
    0.00000E+00         0.00000E+00        -0.16580E+04
 
   -0.51432E+04         0.62199E+03         0.00000E+00
    0.62199E+03        -0.31831E+03         0.00000E+00
    0.00000E+00         0.00000E+00        -0.16384E+04
 
   -0.49893E+04         0.70141E+03         0.00000E+00
    0.70141E+03        -0.39584E+03         0.00000E+00
    0.00000E+00         0.00000E+00        -0.16155E+04
 
   -0.48150E+04         0.78092E+03         0.00000E+00
    0.78092E+03        -0.48222E+03         0.00000E+00
    0.00000E+00         0.00000E+00        -0.15892E+04
 
   -0.46201E+04         0.85989E+03         0.00000E+00
    0.85989E+03        -0.57731E+03         0.00000E+00
    0.00000E+00         0.00000E+00        -0.15592E+04
 
   -0.44045E+04         0.93774E+03         0.00000E+00
    0.93774E+03        -0.68095E+03         0.00000E+00
    0.00000E+00         0.00000E+00        -0.15256E+04
 
   -0.41681E+04         0.10139E+04         0.00000E+00
    0.10139E+04        -0.79290E+03         0.00000E+00
    0.00000E+00         0.00000E+00        -0.14883E+04
 
   -0.39112E+04         0.10878E+04         0.00000E+00
    0.10878E+04        -0.91291E+03         0.00000E+00
    0.00000E+00         0.00000E+00        -0.14472E+04
 
   -0.36337E+04         0.11590E+04         0.00000E+00
    0.11590E+04        -0.10407E+04         0.00000E+00
    0.00000E+00         0.00000E+00        -0.14023E+04
 
   -0.33361E+04         0.12267E+04         0.00000E+00
    0.12267E+04        -0.11758E+04         0.00000E+00
    0.00000E+00         0.00000E+00        -0.13536E+04
 
   -0.30187E+04         0.12906E+04         0.00000E+00
    0.12906E+04        -0.13180E+04         0.00000E+00
    0.00000E+00         0.00000E+00        -0.13010E+04
 
   -0.26818E+04         0.13499E+04         0.00000E+00
    0.13499E+04        -0.14669E+04         0.00000E+00
    0.00000E+00         0.00000E+00        -0.12446E+04
 
   -0.23261E+04         0.14039E+04         0.00000E+00
    0.14039E+04        -0.16220E+04         0.00000E+00
    0.00000E+00         0.00000E+00        -0.11844E+04
 
   -0.19521E+04         0.14520E+04         0.00000E+00
    0.14520E+04        -0.17828E+04         0.00000E+00
    0.00000E+00         0.00000E+00        -0.11205E+04
 
   -0.15608E+04         0.14934E+04         0.00000E+00
    0.14934E+04        -0.19487E+04         0.00000E+00
    0.00000E+00         0.00000E+00        -0.10528E+04
 
   -0.11530E+04         0.15271E+04         0.00000E+00
    0.15271E+04        -0.21191E+04         0.00000E+00
    0.00000E+00         0.00000E+00        -0.98165E+03
 
   -0.56652E+04         0.19066E+02         0.00000E+00
    0.19066E+02        -0.94813E+00         0.00000E+00
    0.00000E+00         0.00000E+00        -0.16999E+04
 
   -0.56580E+04         0.61647E+02         0.00000E+00
    0.61647E+02        -0.61660E+01         0.00000E+00
    0.00000E+00         0.00000E+00        -0.16993E+04
 
   -0.56389E+04         0.10966E+03         0.00000E+00
    0.10966E+03        -0.17317E+02         0.00000E+00
    0.00000E+00         0.00000E+00        -0.16969E+04
 
   -0.56064E+04         0.16259E+03         0.00000E+00
    0.16259E+03        -0.35076E+02         0.00000E+00
    0.00000E+00         0.00000E+00        -0.16924E+04
 
   -0.55592E+04         0.21985E+03         0.00000E+00
    0.21985E+03        -0.60018E+02         0.00000E+00
    0.00000E+00         0.00000E+00        -0.16858E+04
 
   -0.54963E+04         0.28087E+03         0.00000E+00
    0.28087E+03        -0.92626E+02         0.00000E+00
    0.00000E+00         0.00000E+00        -0.16767E+04
 
   -0.54165E+04         0.34503E+03         0.00000E+00
    0.34503E+03        -0.13329E+03         0.00000E+00
    0.00000E+00         0.00000E+00        -0.16649E+04
 
   -0.53191E+04         0.41171E+03         0.00000E+00
    0.41171E+03        -0.18230E+03         0.00000E+00
    0.00000E+00         0.00000E+00        -0.16504E+04
 
   -0.52033E+04         0.48030E+03         0.00000E+00
    0.48030E+03        -0.23987E+03         0.00000E+00
    0.00000E+00         0.00000E+00        -0.16329E+04
 
   -0.50684E+04         0.55019E+03         0.00000E+00
    0.55019E+03        -0.30612E+03         0.00000E+00
    0.00000E+00         0.00000E+00        -0.16124E+04
 
   -0.49141E+04         0.62081E+03         0.00000E+00
    0.62081E+03        -0.38110E+03         0.00000E+00
    0.00000E+00         0.00000E+00        -0.15886E+04
 
   -0.47400E+04         0.69158E+03         0.00000E+00
    0.69158E+03        -0.46479E+03         0.00000E+00
    0.00000E+00         0.00000E+00        -0.15614E+04
 
   -0.45458E+04         0.76195E+03         0.00000E+00
    0.76195E+03        -0.55709E+03         0.00000E+00
    0.00000E+00         0.00000E+00        -0.15309E+04
 
   -0.43315E+04         0.83139E+03         0.00000E+00
    0.83139E+03        -0.65787E+03         0.00000E+00
    0.00000E+00         0.00000E+00        -0.14968E+04
 
   -0.40970E+04         0.89938E+03         0.00000E+00
    0.89938E+03        -0.76692E+03         0.00000E+00
    0.00000E+00         0.00000E+00        -0.14592E+04
 
   -0.38424E+04         0.96540E+03         0.00000E+00
    0.96540E+03        -0.88400E+03         0.00000E+00
    0.00000E+00         0.00000E+00        -0.14179E+04
 
   -0.35679E+04         0.10289E+04         0.00000E+00
    0.10289E+04        -0.10088E+04         0.00000E+00
    0.00000E+00         0.00000E+00        -0.13730E+04
 
   -0.32738E+04         0.10895E+04         0.00000E+00
    0.10895E+04        -0.11410E+04         0.00000E+00
    0.00000E+00         0.00000E+00        -0.13244E+04
 
   -0.29603E+04         0.11465E+04         0.00000E+00
    0.11465E+04        -0.12803E+04         0.00000E+00
    0.00000E+00         0.00000E+00        -0.12722E+04
 
   -0.26281E+04         0.11993E+04         0.00000E+00
    0.11993E+04        -0.14262E+04         0.00000E+00
    0.00000E+00         0.00000E+00        -0.12163E+04
 
   -0.22777E+04         0.12475E+04         0.00000E+00
    0.12475E+04        -0.15783E+04         0.00000E+00
    0.00000E+00         0.00000E+00        -0.11568E+04
 
   -0.19098E+04         0.12902E+04         0.00000E+00
    0.12902E+04        -0.17360E+04         0.00000E+00
    0.00000E+00         0.00000E+00        -0.10937E+04
 
   -0.15254E+04         0.13268E+04         0.00000E+00
    0.13268E+04        -0.18987E+04         0.00000E+00
    0.00000E+00         0.00000E+00        -0.10272E+04
 
   -0.11253E+04         0.13564E+04         0.00000E+00
    0.13564E+04        -0.20658E+04         0.00000E+00
    0.00000E+00         0.00000E+00        -0.95734E+03
 
   -0.56281E+04         0.16637E+02         0.00000E+00
    0.16637E+02        -0.91333E+00         0.00000E+00
    0.00000E+00         0.00000E+00        -0.16887E+04
 
   -0.56156E+04         0.53761E+02         0.00000E+00
    0.53761E+02        -0.59373E+01         0.00000E+00
    0.00000E+00         0.00000E+00        -0.16865E+04
 
   -0.55916E+04         0.95609E+02         0.00000E+00
    0.95609E+02        -0.16673E+02         0.00000E+00
    0.00000E+00         0.00000E+00        -0.16825E+04
 
   -0.55548E+04         0.14175E+03         0.00000E+00
    0.14175E+03        -0.33776E+02         0.00000E+00
    0.00000E+00         0.00000E+00        -0.16766E+04
 
   -0.55038E+04         0.19170E+03         0.00000E+00
    0.19170E+03        -0.57815E+02         0.00000E+00
    0.00000E+00         0.00000E+00        -0.16685E+04
 
   -0.54376E+04         0.24497E+03         0.00000E+00
    0.24497E+03        -0.89273E+02         0.00000E+00
    0.00000E+00         0.00000E+00        -0.16581E+04
 
   -0.53552E+04         0.30103E+03         0.00000E+00
    0.30103E+03        -0.12854E+03         0.00000E+00
    0.00000E+00         0.00000E+00        -0.16451E+04
 
   -0.52556E+04         0.35935E+03         0.00000E+00
    0.35935E+03        -0.17594E+03         0.00000E+00
    0.00000E+00         0.00000E+00        -0.16295E+04
 
   -0.51383E+04         0.41940E+03         0.00000E+00
    0.41940E+03        -0.23169E+03         0.00000E+00
    0.00000E+00         0.00000E+00        -0.16110E+04
 
   -0.50024E+04         0.48067E+03         0.00000E+00
    0.48067E+03        -0.29594E+03         0.00000E+00
    0.00000E+00         0.00000E+00        -0.15895E+04
 
   -0.48477E+04         0.54263E+03         0.00000E+00
    0.54263E+03        -0.36877E+03         0.00000E+00
    0.00000E+00         0.00000E+00        -0.15649E+04
 
   -0.46737E+04         0.60478E+03         0.00000E+00
    0.60478E+03        -0.45018E+03         0.00000E+00
    0.00000E+00         0.00000E+00        -0.15372E+04
 
   -0.44801E+04         0.66664E+03         0.00000E+00
    0.66664E+03        -0.54011E+03         0.00000E+00
    0.00000E+00         0.00000E+00        -0.15061E+04
 
   -0.42669E+04         0.72773E+03         0.00000E+00
    0.72773E+03        -0.63844E+03         0.00000E+00
    0.00000E+00         0.00000E+00        -0.14716E+04
 
   -0.40340E+04         0.78757E+03         0.00000E+00
    0.78757E+03        -0.74499E+03         0.00000E+00
    0.00000E+00         0.00000E+00        -0.14337E+04
 
   -0.37815E+04         0.84571E+03         0.00000E+00
    0.84571E+03        -0.85954E+03         0.00000E+00
    0.00000E+00         0.00000E+00        -0.13923E+04
 
   -0.35095E+04         0.90168E+03         0.00000E+00
    0.90168E+03        -0.98181E+03         0.00000E+00
    0.00000E+00         0.00000E+00        -0.13474E+04
 
   -0.32185E+04         0.95499E+03         0.00000E+00
    0.95499E+03        -0.11115E+04         0.00000E+00
    0.00000E+00         0.00000E+00        -0.12990E+04
 
   -0.29086E+04         0.10051E+04         0.00000E+00
    0.10051E+04        -0.12482E+04         0.00000E+00
    0.00000E+00         0.00000E+00        -0.12470E+04
 
   -0.25806E+04         0.10516E+04         0.00000E+00
    0.10516E+04        -0.13914E+04         0.00000E+00
    0.00000E+00         0.00000E+00        -0.11916E+04
 
   -0.22350E+04         0.10939E+04         0.00000E+00
    0.10939E+04        -0.15408E+04         0.00000E+00
    0.00000E+00         0.00000E+00        -0.11328E+04
 
   -0.18726E+04         0.11313E+04         0.00000E+00
    0.11313E+04        -0.16958E+04         0.00000E+00
    0.00000E+00         0.00000E+00        -0.10705E+04
 
   -0.14943E+04         0.11632E+04         0.00000E+00
    0.11632E+04        -0.18556E+04         0.00000E+00
    0.00000E+00         0.00000E+00        -0.10050E+04
 
   -0.11012E+04         0.11890E+04         0.00000E+00
    0.11890E+04        -0.20197E+04         0.00000E+00
    0.00000E+00         0.00000E+00        -0.93628E+03
 
   -0.55959E+04         0.14289E+02         0.00000E+00
    0.14289E+02        -0.88619E+00         0.00000E+00
    0.00000E+00         0.00000E+00        -0.16790E+04
 
   -0.55789E+04         0.46143E+02         0.00000E+00
    0.46143E+02        -0.57566E+01         0.00000E+00
    0.00000E+00         0.00000E+00        -0.16754E+04
 
   -0.55507E+04         0.82036E+02         0.00000E+00
    0.82036E+02        -0.16159E+02         0.00000E+00
    0.00000E+00         0.00000E+00        -0.16701E+04
 
   -0.55101E+04         0.12161E+03         0.00000E+00
    0.12161E+03        -0.32731E+02         0.00000E+00
    0.00000E+00         0.00000E+00        -0.16628E+04
 
   -0.54558E+04         0.16448E+03         0.00000E+00
    0.16448E+03        -0.56032E+02         0.00000E+00
    0.00000E+00         0.00000E+00        -0.16536E+04
 
   -0.53868E+04         0.21023E+03         0.00000E+00
    0.21023E+03        -0.86544E+02         0.00000E+00
    0.00000E+00         0.00000E+00        -0.16420E+04
 
   -0.53020E+04         0.25840E+03         0.00000E+00
    0.25840E+03        -0.12467E+03         0.00000E+00
    0.00000E+00         0.00000E+00        -0.16280E+04
 
   -0.52005E+04         0.30856E+03         0.00000E+00
    0.30856E+03        -0.17073E+03         0.00000E+00
    0.00000E+00         0.00000E+00        -0.16114E+04
 
   -0.50818E+04         0.36026E+03         0.00000E+00
    0.36026E+03        -0.22496E+03         0.00000E+00
    0.00000E+00         0.00000E+00        -0.15920E+04
 
   -0.49450E+04         0.41305E+03         0.00000E+00
    0.41305E+03        -0.28755E+03         0.00000E+00
    0.00000E+00         0.00000E+00        -0.15698E+04
 
   -0.47898E+04         0.46648E+03         0.00000E+00
    0.46648E+03        -0.35858E+03         0.00000E+00
    0.00000E+00         0.00000E+00        -0.15445E+04
 
   -0.46158E+04         0.52012E+03         0.00000E+00
    0.52012E+03        -0.43807E+03         0.00000E+00
    0.00000E+00         0.00000E+00        -0.15162E+04
 
   -0.44228E+04         0.57355E+03         0.00000E+00
    0.57355E+03        -0.52600E+03         0.00000E+00
    0.00000E+00         0.00000E+00        -0.14846E+04
 
   -0.42105E+04         0.62634E+03         0.00000E+00
    0.62634E+03        -0.62226E+03         0.00000E+00
    0.00000E+00         0.00000E+00        -0.14498E+04
 
   -0.39789E+04         0.67809E+03         0.00000E+00
    0.67809E+03        -0.72670E+03         0.00000E+00
    0.00000E+00         0.00000E+00        -0.14117E+04
 
   -0.37282E+04         0.72838E+03         0.00000E+00
    0.72838E+03        -0.83909E+03         0.00000E+00
    0.00000E+00         0.00000E+00        -0.13702E+04
 
   -0.34585E+04         0.77679E+03         0.00000E+00
    0.77679E+03        -0.95917E+03         0.00000E+00
    0.00000E+00         0.00000E+00        -0.13253E+04
 
   -0.31702E+04         0.82290E+03         0.00000E+00
    0.82290E+03        -0.10866E+04         0.00000E+00
    0.00000E+00         0.00000E+00        -0.12770E+04
 
   -0.28635E+04         0.86626E+03         0.00000E+00
    0.86626E+03        -0.12211E+04         0.00000E+00
    0.00000E+00         0.00000E+00        -0.12254E+04
 
   -0.25392E+04         0.90641E+03         0.00000E+00
    0.90641E+03        -0.13621E+04         0.00000E+00
    0.00000E+00         0.00000E+00        -0.11704E+04
 
   -0.21979E+04         0.94285E+03         0.00000E+00
    0.94285E+03        -0.15091E+04         0.00000E+00
    0.00000E+00         0.00000E+00        -0.11121E+04
 
   -0.18403E+04         0.97505E+03         0.00000E+00
    0.97505E+03        -0.16616E+04         0.00000E+00
    0.00000E+00         0.00000E+00        -0.10506E+04
 
   -0.14675E+04         0.10025E+04         0.00000E+00
    0.10025E+04        -0.18189E+04         0.00000E+00
    0.00000E+00         0.00000E+00        -0.98592E+03
 
   -0.10805E+04         0.10245E+04         0.00000E+00
    0.10245E+04        -0.19803E+04         0.00000E+00
    0.00000E+00         0.00000E+00        -0.91826E+03
 
   -0.55686E+04         0.12003E+02         0.00000E+00
    0.12003E+02        -0.86538E+00         0.00000E+00
    0.00000E+00         0.00000E+00        -0.16708E+04
 
   -0.55477E+04         0.38738E+02         0.00000E+00
    0.38738E+02        -0.56162E+01         0.00000E+00
    0.00000E+00         0.00000E+00        -0.16660E+04
 
   -0.55160E+04         0.68847E+02         0.00000E+00
    0.68847E+02        -0.15755E+02         0.00000E+00
    0.00000E+00         0.00000E+00        -0.16595E+04
 
   -0.54721E+04         0.10205E+03         0.00000E+00
    0.10205E+03        -0.31903E+02         0.00000E+00
    0.00000E+00         0.00000E+00        -0.16512E+04
 
   -0.54150E+04         0.13802E+03         0.00000E+00
    0.13802E+03        -0.54611E+02         0.00000E+00
    0.00000E+00         0.00000E+00        -0.16409E+04
 
   -0.53435E+04         0.17643E+03         0.00000E+00
    0.17643E+03        -0.84358E+02         0.00000E+00
    0.00000E+00         0.00000E+00        -0.16284E+04
 
   -0.52567E+04         0.21690E+03         0.00000E+00
    0.21690E+03        -0.12155E+03         0.00000E+00
    0.00000E+00         0.00000E+00        -0.16135E+04
 
   -0.51536E+04         0.25907E+03         0.00000E+00
    0.25907E+03        -0.16652E+03         0.00000E+00
    0.00000E+00         0.00000E+00        -0.15960E+04
 
   -0.50336E+04         0.30256E+03         0.00000E+00
    0.30256E+03        -0.21952E+03         0.00000E+00
    0.00000E+00         0.00000E+00        -0.15759E+04
 
   -0.48961E+04         0.34701E+03         0.00000E+00
    0.34701E+03        -0.28073E+03         0.00000E+00
    0.00000E+00         0.00000E+00        -0.15530E+04
 
   -0.47405E+04         0.39202E+03         0.00000E+00
    0.39202E+03        -0.35028E+03         0.00000E+00
    0.00000E+00         0.00000E+00        -0.15272E+04
 
   -0.45665E+04         0.43725E+03         0.00000E+00
    0.43725E+03        -0.42820E+03         0.00000E+00
    0.00000E+00         0.00000E+00        -0.14984E+04
 
   -0.43738E+04         0.48232E+03         0.00000E+00
    0.48232E+03        -0.51447E+03         0.00000E+00
    0.00000E+00         0.00000E+00        -0.14665E+04
 
   -0.41622E+04         0.52688E+03         0.00000E+00
    0.52688E+03        -0.60901E+03         0.00000E+00
    0.00000E+00         0.00000E+00        -0.14314E+04
 
   -0.39318E+04         0.57057E+03         0.00000E+00
    0.57057E+03        -0.71167E+03         0.00000E+00
    0.00000E+00         0.00000E+00        -0.13931E+04
 
   -0.36827E+04         0.61304E+03         0.00000E+00
    0.61304E+03        -0.82225E+03         0.00000E+00
    0.00000E+00         0.00000E+00        -0.13515E+04
 
   -0.34149E+04         0.65393E+03         0.00000E+00
    0.65393E+03        -0.94049E+03         0.00000E+00
    0.00000E+00         0.00000E+00        -0.13066E+04
 
   -0.31289E+04         0.69286E+03         0.00000E+00
    0.69286E+03        -0.10661E+04         0.00000E+00
    0.00000E+00         0.00000E+00        -0.12585E+04
 
   -0.28250E+04         0.72946E+03         0.00000E+00
    0.72946E+03        -0.11986E+04         0.00000E+00
    0.00000E+00         0.00000E+00        -0.12071E+04
 
   -0.25039E+04         0.76333E+03         0.00000E+00
    0.76333E+03        -0.13376E+04         0.00000E+00
    0.00000E+00         0.00000E+00        -0.11525E+04
 
   -0.21662E+04         0.79403E+03         0.00000E+00
    0.79403E+03        -0.14826E+04         0.00000E+00
    0.00000E+00         0.00000E+00        -0.10947E+04
 
   -0.18128E+04         0.82111E+03         0.00000E+00
    0.82111E+03        -0.16331E+04         0.00000E+00
    0.00000E+00         0.00000E+00        -0.10338E+04
 
   -0.14447E+04         0.84410E+03         0.00000E+00
    0.84410E+03        -0.17882E+04         0.00000E+00
    0.00000E+00         0.00000E+00        -0.96988E+03
 
   -0.10631E+04         0.86249E+03         0.00000E+00
    0.86249E+03        -0.19473E+04         0.00000E+00
    0.00000E+00         0.00000E+00        -0.90312E+03
 
   -0.55460E+04         0.97649E+01         0.00000E+00
    0.97649E+01        -0.84978E+00         0.00000E+00
    0.00000E+00         0.00000E+00        -0.16640E+04
 
   -0.55219E+04         0.31496E+02         0.00000E+00
    0.31496E+02        -0.55094E+01         0.00000E+00
    0.00000E+00         0.00000E+00        -0.16582E+04
 
   -0.54873E+04         0.55959E+02         0.00000E+00
    0.55959E+02        -0.15445E+02         0.00000E+00
    0.00000E+00         0.00000E+00        -0.16508E+04
 
   -0.54408E+04         0.82932E+02         0.00000E+00
    0.82932E+02        -0.31262E+02         0.00000E+00
    0.00000E+00         0.00000E+00        -0.16416E+04
 
   -0.53813E+04         0.11217E+03         0.00000E+00
    0.11217E+03        -0.53502E+02         0.00000E+00
    0.00000E+00         0.00000E+00        -0.16304E+04
 
   -0.53077E+04         0.14339E+03         0.00000E+00
    0.14339E+03        -0.82645E+02         0.00000E+00
    0.00000E+00         0.00000E+00        -0.16171E+04
 
   -0.52192E+04         0.17631E+03         0.00000E+00
    0.17631E+03        -0.11910E+03         0.00000E+00
    0.00000E+00         0.00000E+00        -0.16015E+04
 
   -0.51147E+04         0.21063E+03         0.00000E+00
    0.21063E+03        -0.16319E+03         0.00000E+00
    0.00000E+00         0.00000E+00        -0.15834E+04
 
   -0.49937E+04         0.24604E+03         0.00000E+00
    0.24604E+03        -0.21520E+03         0.00000E+00
    0.00000E+00         0.00000E+00        -0.15627E+04
 
   -0.48554E+04         0.28225E+03         0.00000E+00
    0.28225E+03        -0.27532E+03         0.00000E+00
    0.00000E+00         0.00000E+00        -0.15392E+04
 
   -0.46995E+04         0.31895E+03         0.00000E+00
    0.31895E+03        -0.34367E+03         0.00000E+00
    0.00000E+00         0.00000E+00        -0.15129E+04
 
   -0.45254E+04         0.35584E+03         0.00000E+00
    0.35584E+03        -0.42032E+03         0.00000E+00
    0.00000E+00         0.00000E+00        -0.14837E+04
 
   -0.43330E+04         0.39262E+03         0.00000E+00
    0.39262E+03        -0.50524E+03         0.00000E+00
    0.00000E+00         0.00000E+00        -0.14515E+04
 
   -0.41221E+04         0.42899E+03         0.00000E+00
    0.42899E+03        -0.59839E+03         0.00000E+00
    0.00000E+00         0.00000E+00        -0.14161E+04
 
   -0.38927E+04         0.46467E+03         0.00000E+00
    0.46467E+03        -0.69960E+03         0.00000E+00
    0.00000E+00         0.00000E+00        -0.13777E+04
 
   -0.36448E+04         0.49936E+03         0.00000E+00
    0.49936E+03        -0.80871E+03         0.00000E+00
    0.00000E+00         0.00000E+00        -0.13360E+04
 
   -0.33786E+04         0.53276E+03         0.00000E+00
    0.53276E+03        -0.92543E+03         0.00000E+00
    0.00000E+00         0.00000E+00        -0.12912E+04
 
   -0.30945E+04         0.56456E+03         0.00000E+00
    0.56456E+03        -0.10495E+04         0.00000E+00
    0.00000E+00         0.00000E+00        -0.12432E+04
 
   -0.27930E+04         0.59444E+03         0.00000E+00
    0.59444E+03        -0.11804E+04         0.00000E+00
    0.00000E+00         0.00000E+00        -0.11920E+04
 
   -0.24745E+04         0.62206E+03         0.00000E+00
    0.62206E+03        -0.13178E+04         0.00000E+00
    0.00000E+00         0.00000E+00        -0.11377E+04
 
   -0.21399E+04         0.64709E+03         0.00000E+00
    0.64709E+03        -0.14611E+04         0.00000E+00
    0.00000E+00         0.00000E+00        -0.10803E+04
 
   -0.17901E+04         0.66914E+03         0.00000E+00
    0.66914E+03        -0.16098E+04         0.00000E+00
    0.00000E+00         0.00000E+00        -0.10200E+04
 
   -0.14259E+04         0.68781E+03         0.00000E+00
    0.68781E+03        -0.17631E+04         0.00000E+00
    0.00000E+00         0.00000E+00        -0.95672E+03
 
   -0.10487E+04         0.70269E+03         0.00000E+00
    0.70269E+03        -0.19203E+04         0.00000E+00
    0.00000E+00         0.00000E+00        -0.89071E+03
 
   -0.55280E+04         0.75623E+01         0.00000E+00
    0.75623E+01        -0.83843E+00         0.00000E+00
    0.00000E+00         0.00000E+00        -0.16586E+04
 
   -0.55014E+04         0.24380E+02         0.00000E+00
    0.24380E+02        -0.54306E+01         0.00000E+00
    0.00000E+00         0.00000E+00        -0.16520E+04
 
   -0.54644E+04         0.43302E+02         0.00000E+00
    0.43302E+02        -0.15214E+02         0.00000E+00
    0.00000E+00         0.00000E+00        -0.16439E+04
 
   -0.54158E+04         0.64165E+02         0.00000E+00
    0.64165E+02        -0.30780E+02         0.00000E+00
    0.00000E+00         0.00000E+00        -0.16340E+04
 
   -0.53545E+04         0.86780E+02         0.00000E+00
    0.86780E+02        -0.52666E+02         0.00000E+00
    0.00000E+00         0.00000E+00        -0.16221E+04
 
   -0.52793E+04         0.11094E+03         0.00000E+00
    0.11094E+03        -0.81345E+02         0.00000E+00
    0.00000E+00         0.00000E+00        -0.16082E+04
 
   -0.51893E+04         0.13642E+03         0.00000E+00
    0.13642E+03        -0.11723E+03         0.00000E+00
    0.00000E+00         0.00000E+00        -0.15920E+04
 
   -0.50838E+04         0.16300E+03         0.00000E+00
    0.16300E+03        -0.16065E+03         0.00000E+00
    0.00000E+00         0.00000E+00        -0.15733E+04
 
   -0.49619E+04         0.19044E+03         0.00000E+00
    0.19044E+03        -0.21190E+03         0.00000E+00
    0.00000E+00         0.00000E+00        -0.15521E+04
 
   -0.48231E+04         0.21851E+03         0.00000E+00
    0.21851E+03        -0.27116E+03         0.00000E+00
    0.00000E+00         0.00000E+00        -0.15283E+04
 
   -0.46668E+04         0.24697E+03         0.00000E+00
    0.24697E+03        -0.33859E+03         0.00000E+00
    0.00000E+00         0.00000E+00        -0.15016E+04
 
   -0.44927E+04         0.27559E+03         0.00000E+00
    0.27559E+03        -0.41424E+03         0.00000E+00
    0.00000E+00         0.00000E+00        -0.14721E+04
 
   -0.43005E+04         0.30414E+03         0.00000E+00
    0.30414E+03        -0.49812E+03         0.00000E+00
    0.00000E+00         0.00000E+00        -0.14396E+04
 
   -0.40901E+04         0.33238E+03         0.00000E+00
    0.33238E+03        -0.59016E+03         0.00000E+00
    0.00000E+00         0.00000E+00        -0.14041E+04
 
   -0.38614E+04         0.36008E+03         0.00000E+00
    0.36008E+03        -0.69025E+03         0.00000E+00
    0.00000E+00         0.00000E+00        -0.13655E+04
 
   -0.36145E+04         0.38702E+03         0.00000E+00
    0.38702E+03        -0.79818E+03         0.00000E+00
    0.00000E+00         0.00000E+00        -0.13238E+04
 
   -0.33496E+04         0.41296E+03         0.00000E+00
    0.41296E+03        -0.91371E+03         0.00000E+00
    0.00000E+00         0.00000E+00        -0.12790E+04
 
   -0.30671E+04         0.43765E+03         0.00000E+00
    0.43765E+03        -0.10365E+04         0.00000E+00
    0.00000E+00         0.00000E+00        -0.12311E+04
 
   -0.27674E+04         0.46085E+03         0.00000E+00
    0.46085E+03        -0.11662E+04         0.00000E+00
    0.00000E+00         0.00000E+00        -0.11801E+04
 
   -0.24511E+04         0.48229E+03         0.00000E+00
    0.48229E+03        -0.13023E+04         0.00000E+00
    0.00000E+00         0.00000E+00        -0.11260E+04
 
   -0.21190E+04         0.50169E+03         0.00000E+00
    0.50169E+03        -0.14443E+04         0.00000E+00
    0.00000E+00         0.00000E+00        -0.10690E+04
 
   -0.17720E+04         0.51876E+03         0.00000E+00
    0.51876E+03        -0.15916E+04         0.00000E+00
    0.00000E+00         0.00000E+00        -0.10091E+04
 
   -0.14110E+04         0.53320E+03         0.00000E+00
    0.53320E+03        -0.17434E+04         0.00000E+00
    0.00000E+00         0.00000E+00        -0.94633E+03
 
   -0.10374E+04         0.54468E+03         0.00000E+00
    0.54468E+03        -0.18990E+04         0.00000E+00
    0.00000E+00         0.00000E+00        -0.88093E+03
 
   -0.55145E+04         0.53850E+01         0.00000E+00
    0.53850E+01        -0.83057E+00         0.00000E+00
    0.00000E+00         0.00000E+00        -0.16546E+04
 
   -0.54861E+04         0.17353E+02         0.00000E+00
    0.17353E+02        -0.53754E+01         0.00000E+00
    0.00000E+00         0.00000E+00        -0.16474E+04
 
   -0.54474E+04         0.30815E+02         0.00000E+00
    0.30815E+02        -0.15050E+02         0.00000E+00
    0.00000E+00         0.00000E+00        -0.16387E+04
 
   -0.53972E+04         0.45656E+02         0.00000E+00
    0.45656E+02        -0.30437E+02         0.00000E+00
    0.00000E+00         0.00000E+00        -0.16283E+04
 
   -0.53344E+04         0.61745E+02         0.00000E+00
    0.61745E+02        -0.52067E+02         0.00000E+00
    0.00000E+00         0.00000E+00        -0.16159E+04
 
   -0.52580E+04         0.78937E+02         0.00000E+00
    0.78937E+02        -0.80412E+02         0.00000E+00
    0.00000E+00         0.00000E+00        -0.16015E+04
 
   -0.51670E+04         0.97076E+02         0.00000E+00
    0.97076E+02        -0.11588E+03         0.00000E+00
    0.00000E+00         0.00000E+00        -0.15849E+04
 
   -0.50606E+04         0.11600E+03         0.00000E+00
    0.11600E+03        -0.15882E+03         0.00000E+00
    0.00000E+00         0.00000E+00        -0.15658E+04
 
   -0.49381E+04         0.13555E+03         0.00000E+00
    0.13555E+03        -0.20950E+03         0.00000E+00
    0.00000E+00         0.00000E+00        -0.15443E+04
 
   -0.47988E+04         0.15554E+03         0.00000E+00
    0.15554E+03        -0.26815E+03         0.00000E+00
    0.00000E+00         0.00000E+00        -0.15201E+04
 
   -0.46423E+04         0.17583E+03         0.00000E+00
    0.17583E+03        -0.33489E+03         0.00000E+00
    0.00000E+00         0.00000E+00        -0.14932E+04
 
   -0.44682E+04         0.19623E+03         0.00000E+00
    0.19623E+03        -0.40981E+03         0.00000E+00
    0.00000E+00         0.00000E+00        -0.14634E+04
 
   -0.42762E+04         0.21659E+03         0.00000E+00
    0.21659E+03        -0.49292E+03         0.00000E+00
    0.00000E+00         0.00000E+00        -0.14307E+04
 
   -0.40661E+04         0.23673E+03         0.00000E+00
    0.23673E+03        -0.58416E+03         0.00000E+00
    0.00000E+00         0.00000E+00        -0.13951E+04
 
   -0.38379E+04         0.25650E+03         0.00000E+00
    0.25650E+03        -0.68340E+03         0.00000E+00
    0.00000E+00         0.00000E+00        -0.13564E+04
 
   -0.35918E+04         0.27572E+03         0.00000E+00
    0.27572E+03        -0.79047E+03         0.00000E+00
    0.00000E+00         0.00000E+00        -0.13147E+04
 
   -0.33279E+04         0.29422E+03         0.00000E+00
    0.29422E+03        -0.90511E+03         0.00000E+00
    0.00000E+00         0.00000E+00        -0.12699E+04
 
   -0.30466E+04         0.31184E+03         0.00000E+00
    0.31184E+03        -0.10270E+04         0.00000E+00
    0.00000E+00         0.00000E+00        -0.12221E+04
 
   -0.27483E+04         0.32838E+03         0.00000E+00
    0.32838E+03        -0.11557E+04         0.00000E+00
    0.00000E+00         0.00000E+00        -0.11712E+04
 
   -0.24336E+04         0.34367E+03         0.00000E+00
    0.34367E+03        -0.12909E+04         0.00000E+00
    0.00000E+00         0.00000E+00        -0.11173E+04
 
   -0.21034E+04         0.35749E+03         0.00000E+00
    0.35749E+03        -0.14318E+04         0.00000E+00
    0.00000E+00         0.00000E+00        -0.10606E+04
 
   -0.17585E+04         0.36965E+03         0.00000E+00
    0.36965E+03        -0.15781E+04         0.00000E+00
    0.00000E+00         0.00000E+00        -0.10010E+04
 
   -0.13999E+04         0.37992E+03         0.00000E+00
    0.37992E+03        -0.17288E+04         0.00000E+00
    0.00000E+00         0.00000E+00        -0.93861E+03
 
   -0.10290E+04         0.38806E+03         0.00000E+00
    0.38806E+03        -0.18833E+04         0.00000E+00
    0.00000E+00         0.00000E+00        -0.87367E+03
 
   -0.55056E+04         0.32246E+01         0.00000E+00
    0.32246E+01        -0.82565E+00         0.00000E+00
    0.00000E+00         0.00000E+00        -0.16519E+04
 
   -0.54759E+04         0.10388E+02         0.00000E+00
    0.10388E+02        -0.53405E+01         0.00000E+00
    0.00000E+00         0.00000E+00        -0.16444E+04
 
   -0.54361E+04         0.18444E+02         0.00000E+00
    0.18444E+02        -0.14946E+02         0.00000E+00
    0.00000E+00         0.00000E+00        -0.16353E+04
 
   -0.53848E+04         0.27325E+02         0.00000E+00
    0.27325E+02        -0.30218E+02         0.00000E+00
    0.00000E+00         0.00000E+00        -0.16245E+04
 
   -0.53211E+04         0.36953E+02         0.00000E+00
    0.36953E+02        -0.51682E+02         0.00000E+00
    0.00000E+00         0.00000E+00        -0.16118E+04
 
   -0.52439E+04         0.47242E+02         0.00000E+00
    0.47242E+02        -0.79809E+02         0.00000E+00
    0.00000E+00         0.00000E+00        -0.15971E+04
 
   -0.51522E+04         0.58100E+02         0.00000E+00
    0.58100E+02        -0.11501E+03         0.00000E+00
    0.00000E+00         0.00000E+00        -0.15802E+04
 
   -0.50452E+04         0.69430E+02         0.00000E+00
    0.69430E+02        -0.15763E+03         0.00000E+00
    0.00000E+00         0.00000E+00        -0.15609E+04
 
   -0.49223E+04         0.81135E+02         0.00000E+00
    0.81135E+02        -0.20795E+03         0.00000E+00
    0.00000E+00         0.00000E+00        -0.15391E+04
 
   -0.47827E+04         0.93114E+02         0.00000E+00
    0.93114E+02        -0.26618E+03         0.00000E+00
    0.00000E+00         0.00000E+00        -0.15147E+04
 
   -0.46260E+04         0.10527E+03         0.00000E+00
    0.10527E+03        -0.33248E+03         0.00000E+00
    0.00000E+00         0.00000E+00        -0.14876E+04
 
   -0.44519E+04         0.11749E+03         0.00000E+00
    0.11749E+03        -0.40692E+03         0.00000E+00
    0.00000E+00         0.00000E+00        -0.14576E+04
 
   -0.42600E+04         0.12969E+03         0.00000E+00
    0.12969E+03        -0.48952E+03         0.00000E+00
    0.00000E+00         0.00000E+00        -0.14248E+04
 
   -0.40501E+04         0.14177E+03         0.00000E+00
    0.14177E+03        -0.58023E+03         0.00000E+00
    0.00000E+00         0.00000E+00        -0.13891E+04
 
   -0.38223E+04         0.15362E+03         0.00000E+00
    0.15362E+03        -0.67892E+03         0.00000E+00
    0.00000E+00         0.00000E+00        -0.13504E+04
 
   -0.35767E+04         0.16514E+03         0.00000E+00
    0.16514E+03        -0.78541E+03         0.00000E+00
    0.00000E+00         0.00000E+00        -0.13086E+04
 
   -0.33134E+04         0.17624E+03         0.00000E+00
    0.17624E+03        -0.89946E+03         0.00000E+00
    0.00000E+00         0.00000E+00        -0.12639E+04
 
   -0.30329E+04         0.18680E+03         0.00000E+00
    0.18680E+03        -0.10207E+04         0.00000E+00
    0.00000E+00         0.00000E+00        -0.12161E+04
 
   -0.27355E+04         0.19671E+03         0.00000E+00
    0.19671E+03        -0.11488E+04         0.00000E+00
    0.00000E+00         0.00000E+00        -0.11653E+04
 
   -0.24220E+04         0.20587E+03         0.00000E+00
    0.20587E+03        -0.12833E+04         0.00000E+00
    0.00000E+00         0.00000E+00        -0.11116E+04
 
   -0.20930E+04         0.21415E+03         0.00000E+00
    0.21415E+03        -0.14236E+04         0.00000E+00
    0.00000E+00         0.00000E+00        -0.10550E+04
 
   -0.17495E+04         0.22143E+03         0.00000E+00
    0.22143E+03        -0.15692E+04         0.00000E+00
    0.00000E+00         0.00000E+00        -0.99559E+03
 
   -0.13925E+04         0.22757E+03         0.00000E+00
    0.22757E+03        -0.17192E+04         0.00000E+00
    0.00000E+00         0.00000E+00        -0.93351E+03
 
   -0.10234E+04         0.23244E+03         0.00000E+00
    0.23244E+03        -0.18729E+04         0.00000E+00
    0.00000E+00         0.00000E+00        -0.86888E+03
 
   -0.55011E+04         0.10738E+01         0.00000E+00
    0.10738E+01        -0.82328E+00         0.00000E+00
    0.00000E+00         0.00000E+00        -0.16506E+04
 
   -0.54709E+04         0.34590E+01         0.00000E+00
    0.34590E+01        -0.53236E+01         0.00000E+00
    0.00000E+00         0.00000E+00        -0.16429E+04
 
   -0.54304E+04         0.61406E+01         0.00000E+00
    0.61406E+01        -0.14895E+02         0.00000E+00
    0.00000E+00         0.00000E+00        -0.16336E+04
 
   -0.53787E+04         0.90968E+01         0.00000E+00
    0.90968E+01        -0.30111E+02         0.00000E+00
    0.00000E+00         0.00000E+00        -0.16226E+04
 
   -0.53145E+04         0.12302E+02         0.00000E+00
    0.12302E+02        -0.51494E+02         0.00000E+00
    0.00000E+00         0.00000E+00        -0.16098E+04
 
   -0.52368E+04         0.15727E+02         0.00000E+00
    0.15727E+02        -0.79514E+02         0.00000E+00
    0.00000E+00         0.00000E+00        -0.15949E+04
 
   -0.51448E+04         0.19343E+02         0.00000E+00
    0.19343E+02        -0.11458E+03         0.00000E+00
    0.00000E+00         0.00000E+00        -0.15778E+04
 
   -0.50375E+04         0.23115E+02         0.00000E+00
    0.23115E+02        -0.15704E+03         0.00000E+00
    0.00000E+00         0.00000E+00        -0.15584E+04
 
   -0.49144E+04         0.27013E+02         0.00000E+00
    0.27013E+02        -0.20718E+03         0.00000E+00
    0.00000E+00         0.00000E+00        -0.15365E+04
 
   -0.47747E+04         0.31003E+02         0.00000E+00
    0.31003E+02        -0.26522E+03         0.00000E+00
    0.00000E+00         0.00000E+00        -0.15120E+04
 
   -0.46179E+04         0.35051E+02         0.00000E+00
    0.35051E+02        -0.33130E+03         0.00000E+00
    0.00000E+00         0.00000E+00        -0.14848E+04
 
   -0.44437E+04         0.39123E+02         0.00000E+00
    0.39123E+02        -0.40550E+03         0.00000E+00
    0.00000E+00         0.00000E+00        -0.14548E+04
 
   -0.42519E+04         0.43188E+02         0.00000E+00
    0.43188E+02        -0.48785E+03         0.00000E+00
    0.00000E+00         0.00000E+00        -0.14219E+04
 
   -0.40421E+04         0.47211E+02         0.00000E+00
    0.47211E+02        -0.57829E+03         0.00000E+00
    0.00000E+00         0.00000E+00        -0.13861E+04
 
   -0.38145E+04         0.51159E+02         0.00000E+00
    0.51159E+02        -0.67670E+03         0.00000E+00
    0.00000E+00         0.00000E+00        -0.13474E+04
 
   -0.35692E+04         0.54999E+02         0.00000E+00
    0.54999E+02        -0.78291E+03         0.00000E+00
    0.00000E+00         0.00000E+00        -0.13056E+04
 
   -0.33062E+04         0.58695E+02         0.00000E+00
    0.58695E+02        -0.89666E+03         0.00000E+00
    0.00000E+00         0.00000E+00        -0.12609E+04
 
   -0.30260E+04         0.62214E+02         0.00000E+00
    0.62214E+02        -0.10176E+04         0.00000E+00
    0.00000E+00         0.00000E+00        -0.12131E+04
 
   -0.27291E+04         0.65518E+02         0.00000E+00
    0.65518E+02        -0.11454E+04         0.00000E+00
    0.00000E+00         0.00000E+00        -0.11624E+04
 
   -0.24161E+04         0.68569E+02         0.00000E+00
    0.68569E+02        -0.12796E+04         0.00000E+00
    0.00000E+00         0.00000E+00        -0.11087E+04
 
   -0.20878E+04         0.71327E+02         0.00000E+00
    0.71327E+02        -0.14196E+04         0.00000E+00
    0.00000E+00         0.00000E+00        -0.10522E+04
 
   -0.17450E+04         0.73750E+02         0.00000E+00
    0.73750E+02        -0.15647E+04         0.00000E+00
    0.00000E+00         0.00000E+00        -0.99292E+03
 
   -0.13889E+04         0.75794E+02         0.00000E+00
    0.75794E+02        -0.17144E+04         0.00000E+00
    0.00000E+00         0.00000E+00        -0.93097E+03
 
   -0.10206E+04         0.77413E+02         0.00000E+00
    0.77413E+02        -0.18677E+04         0.00000E+00
    0.00000E+00         0.00000E+00        -0.86649E+03
 
SCALARS stresss double 
LOOKUP_TABLE default
  -68946.3284073660     
  -67742.3782816388     
  -62348.4927774688     
  -55883.6438384251     
  -49578.4524050858     
  -43705.5834839603     
  -38353.3390967078     
  -33758.7621826055     
  -29767.6302774373     
  -26301.2412808941     
  -23322.7669498391     
  -20698.1090816253     
  -18330.9822583611     
  -16158.8313048191     
  -14176.8234540682     
  -12444.8509794866     
  -10913.1629896857     
  -9574.83671758169     
  -8368.64807373268     
  -7482.68857031145     
  -7777.38462652903     
  -8244.12372964139     
  -8732.57139789475     
  -9261.12743708987     
  -68516.0009353668     
  -63260.7682255475     
  -57758.1142742544     
  -52431.6604907948     
  -46903.7632855559     
  -41642.1575304103     
  -36879.8352266003     
  -32699.5808655567     
  -29032.0333024761     
  -25734.2535530874     
  -22840.9120820353     
  -20279.1011879021     
  -17971.9096076510     
  -15867.4587386073     
  -13979.0132451938     
  -12321.0521990534     
  -10827.1962561458     
  -9497.55904192404     
  -8313.28733237183     
  -7469.89738008838     
  -7777.61438354918     
  -8219.43539374410     
  -8690.54984009602     
  -9206.64258757111     
  -55134.8503102632     
  -50200.5025722464     
  -49008.4871073857     
  -45643.0845327082     
  -41890.6267632718     
  -37922.5606485396     
  -34109.5268041437     
  -30588.7401389895     
  -27384.8481274227     
  -24445.7391462523     
  -21752.3111238251     
  -19373.7015563961     
  -17267.1631497721     
  -15348.8813647077     
  -13612.0197753437     
  -12028.5003632611     
  -10606.1627381494     
  -9341.83768025415     
  -8201.43247176107     
  -7450.95476967521     
  -7766.32020995437     
  -8162.78800843130     
  -8602.91931146652     
  -9094.50418688020     
  -21960.6030429094     
  -37429.4236921880     
  -37398.7668949253     
  -36732.8004230173     
  -34839.3575388397     
  -32477.0118084757     
  -29871.9232043157     
  -27243.7204454771     
  -24738.6693994763     
  -22355.9527893816     
  -20155.0579051170     
  -18110.2117152338     
  -16248.0908683526     
  -14584.8478896185     
  -13070.1218061078     
  -11674.4112760627     
  -10351.0134011054     
  -9112.52797472154     
  -8011.52814915933     
  -7426.21971865982     
  -7717.24530219305     
  -8064.39220220771     
  -8464.69791680653     
  -8920.73649524430     
  -480.825868362423     
  -18872.0281522551     
  -25831.2700543105     
  -27385.5606985133     
  -27475.3758328760     
  -26571.6313816139     
  -25162.7168417589     
  -23499.2474656888     
  -21743.4287312427     
  -19974.9855529891     
  -18281.5594054634     
  -16671.1450180868     
  -15127.3833193226     
  -13713.5548016802     
  -12389.7219965140     
  -11140.1511958268     
  -9965.33469499223     
  -8816.36397359862     
  -7730.41398788382     
  -7369.65749895256     
  -7613.27207690369     
  -7916.10190995401     
  -8273.27666765858     
  -8684.01592049644     
  -503.873210752311     
  -12466.3425369112     
  -18796.3230041890     
  -21466.3937100815     
  -22216.9224565789     
  -22046.2527241471     
  -21310.0013461919     
  -20244.0406236633     
  -19012.7169091229     
  -17698.2003714368     
  -16361.6671873288     
  -15039.4324547412     
  -13819.3887534209     
  -12653.3987794827     
  -11509.0580472527     
  -10395.4750797289     
  -9346.36586806333     
  -8290.45138730731     
  -7322.81002246465     
  -7244.93047794562     
  -7449.28483354799     
  -7717.98159769279     
  -8030.71691200661     
  -8388.67310896447     
   449.488634691582     
  -8669.74049001143     
  -14600.7107869462     
  -16965.2324332217     
  -18150.4303577284     
  -18400.0670869996     
  -18087.8800038641     
  -17423.4794609836     
  -16564.8181012434     
  -15595.7614367619     
  -14546.3169412678     
  -13490.3133094187     
  -12466.8303718289     
  -11469.6677426835     
  -10521.7597912494     
  -9578.06457003596     
  -8627.25882760314     
  -7686.12459344604     
  -6911.66477185158     
  -7024.46085745527     
  -7240.11875869435     
  -7476.46620762404     
  -7744.90790259012     
  -8045.20817601765     
  -384.312091125112     
  -6224.21808440245     
  -10775.0125515627     
  -13615.2236446933     
  -14801.8104184488     
  -15247.8463105672     
  -15282.9097518355     
  -14923.5608751488     
  -14350.8699803809     
  -13621.5481689977     
  -12797.7748919913     
  -11936.1991985602     
  -11102.9734495127     
  -10289.0619175564     
  -9470.98559723469     
  -8662.22219925840     
  -7837.30442569704     
  -7010.42986943160     
  -6580.33478951314     
  -6799.88858850892     
  -6997.72482776028     
  -7204.51344793358     
  -7427.23450640967     
  -7668.46662393471     
  -1185.07962318854     
  -5047.24969568125     
  -8624.76641707883     
  -10835.7784106895     
  -12097.3328363660     
  -12626.5456037706     
  -12767.3138621839     
  -12622.0233697129     
  -12278.1637994570     
  -11749.5007100660     
  -11120.6260780925     
  -10453.5904403667     
  -9780.09262678231     
  -9090.71160880301     
  -8403.09367038161     
  -7729.97317373609     
  -7009.05595637108     
  -6363.15663810882     
  -6414.68296621699     
  -6577.47924453381     
  -6744.30158214910     
  -6913.62587438533     
  -7090.36320769436     
  -7274.01240951309     
  -1986.60551908926     
  -4600.12626707042     
  -6911.90195757491     
  -8720.60805140661     
  -9845.11436446368     
  -10450.4241977313     
  -10662.5473824197     
  -10614.4701609388     
  -10403.5454718172     
  -10039.2787264859     
  -9562.97010612110     
  -9040.53515713602     
  -8493.86598109125     
  -7951.82589149107     
  -7371.41366370078     
  -6790.87223685956     
  -6203.33079397215     
  -6140.46936111845     
  -6241.58578139223     
  -6360.44650048565     
  -6485.14285625572     
  -6614.12153293811     
  -6745.05788538444     
  -6875.18149238097     
  -2646.19423393850     
  -4367.12654860980     
  -5992.25825625384     
  -7305.07952039431     
  -8115.19995473102     
  -8609.70351924919     
  -8879.48705726699     
  -8903.71628654808     
  -8784.93478180478     
  -8504.36680919623     
  -8150.95383544488     
  -7754.70423043468     
  -7316.46694385140     
  -6827.65317824702     
  -6384.83233538242     
  -6015.19638268521     
  -5952.65089999519     
  -6001.91346160116     
  -6060.16100225110     
  -6137.15052130221     
  -6222.87368684826     
  -6311.67657894794     
  -6399.48380239474     
  -6481.50659112573     
  -3130.61986258197     
  -4283.62823227574     
  -5410.08751241166     
  -6350.94546663970     
  -7039.39584757018     
  -7337.35217916111     
  -7408.78930107197     
  -7450.14767025144     
  -7353.22900230603     
  -7149.86908084710     
  -6870.32484007927     
  -6548.59964185939     
  -6225.51803126381     
  -5998.60585370521     
  -5861.66774398511     
  -5837.16532472580     
  -5828.29243427946     
  -5831.12841200479     
  -5863.30652520481     
  -5906.79303694317     
  -5957.65484527273     
  -6010.06273827034     
  -6058.94048633721     
  -6098.98053750789     
  -3460.39688444688     
  -4241.04078414907     
  -5027.82985701850     
  -5719.29678056186     
  -6230.26954707598     
  -6542.37185716770     
  -6668.99470727333     
  -6573.84882160964     
  -6405.50314331083     
  -6229.99056889034     
  -6066.06165360197     
  -5923.79162085744     
  -5849.82207264994     
  -5787.19824150543     
  -5722.75628581051     
  -5672.76205918857     
  -5651.09884909848     
  -5645.73033434848     
  -5652.56883808458     
  -5669.83622622316     
  -5691.14536409951     
  -5711.81672094290     
  -5726.83663878285     
  -5730.97926981938     
  -3659.26111999016     
  -4199.99672389334     
  -4760.00088104631     
  -5266.32726157712     
  -5668.69287572986     
  -5939.90100489383     
  -6069.77846657080     
  -6086.73582245895     
  -6022.28824479378     
  -5923.51018256737     
  -5817.96796701564     
  -5725.61477086361     
  -5647.96265628973     
  -5586.44450287412     
  -5533.84455968943     
  -5491.40736309916     
  -5461.03645190226     
  -5442.82563293235     
  -5433.17661979300     
  -5428.56044142285     
  -5425.35812789988     
  -5419.11916852139     
  -5405.36959195130     
  -5379.31528505755     
  -3757.17083254884     
  -4144.54827291207     
  -4551.93614200041     
  -4931.79779912356     
  -5247.37570558461     
  -5476.34032995062     
  -5614.28432699933     
  -5669.75176918671     
  -5664.31165098406     
  -5620.52119031791     
  -5559.94942378273     
  -5495.78803558607     
  -5435.87073544109     
  -5381.85375084474     
  -5334.55735568613     
  -5293.68022246684     
  -5259.56577588309     
  -5231.56311156661     
  -5207.95780363734     
  -5186.00976872192     
  -5162.49395426271     
  -5133.83175023499     
  -5096.05552588038     
  -5044.93339929689     
  -3781.30708214717     
  -4070.73626458372     
  -4376.72571498568     
  -4667.77808154786     
  -4918.37572788749     
  -5112.38525049070     
  -5243.83153970576     
  -5316.71624974488     
  -5341.45011289082     
  -5332.04905102705     
  -5301.61359270433     
  -5260.75473222223     
  -5216.13291544434     
  -5171.62107231319     
  -5128.88651035420     
  -5088.73705503394     
  -5051.20064437521     
  -5015.71996513308     
  -4980.93869493082     
  -4944.80318571761     
  -4904.68764490793     
  -4857.54130790867     
  -4799.97547856274     
  -4728.30736938425     
  -3754.36706407618     
  -3981.04176194531     
  -4219.10132498842     
  -4448.07014241031     
  -4650.59530368221     
  -4814.76840565348     
  -4935.22657411407     
  -5012.67315810896     
  -5052.58340274782     
  -5062.93075052761     
  -5052.26839441224     
  -5027.99590495287     
  -4995.74227354440     
  -4959.19006944254     
  -4920.54358449055     
  -4880.86943896807     
  -4840.45136078765     
  -4798.86894304281     
  -4755.07317474253     
  -4707.42240211518     
  -4653.77193687949     
  -4591.56312848504     
  -4517.90230339971     
  -4429.62567678567     
  -3694.18004349508     
  -3879.92414719425     
  -4071.97506911978     
  -4257.19914016931     
  -4423.89863178650     
  -4563.52872815239     
  -4671.51559569303     
  -4747.24930295643     
  -4793.30471298580     
  -4814.30530352379     
  -4815.63650192919     
  -4802.45366953131     
  -4779.01763706166     
  -4748.48465680699     
  -4712.92431888175     
  -4673.49737216197     
  -4630.60176411465     
  -4583.99540681253     
  -4532.86332222084     
  -4475.88287039447     
  -4411.28636861565     
  -4336.93031262127     
  -4250.36119628894     
  -4148.87589649001     
  -3614.03724934121     
  -3772.18697767002     
  -3932.36153394205     
  -4086.22728364529     
  -4225.98863463664     
  -4345.59199753077     
  -4441.39909941982     
  -4512.29719136780     
  -4559.35534663675     
  -4585.16802252708     
  -4593.11292091230     
  -4586.67263116576     
  -4568.95945453774     
  -4542.44675749979     
  -4508.88959338741     
  -4469.34486526027     
  -4424.24082348576     
  -4373.44495093865     
  -4316.32680292497     
  -4251.81246588250     
  -4178.43970670926     
  -4094.41328590249     
  -3997.66036051093     
  -3885.88410060098     
  -3523.46912543226     
  -3662.03411443090     
  -3799.33687214485     
  -3930.13597025832     
  -4049.27521002540     
  -4152.52419936219     
  -4237.09345910107     
  -4301.80225120091     
  -4346.93832419533     
  -4373.90805730461     
  -4384.78734830573     
  -4381.88675131937     
  -4367.40052556400     
  -4343.17652241663     
  -4310.59553186468     
  -4270.53449491486     
  -4223.37630641160     
  -4169.04260580893     
  -4107.03340994704     
  -4036.46981743529     
  -3956.13803514612     
  -3864.53510163528     
  -3759.91535926831     
  -3640.33694946970     
  -3429.05231824375     
  -3552.77081639787     
  -3672.88862860307     
  -3786.12272432710     
  -3889.07696979185     
  -3978.81796153619     
  -4053.26018592160     
  -4111.33292260583     
  -4152.94734057102     
  -4178.81350631775     
  -4190.17572721076     
  -4188.53119856278     
  -4175.38361262355     
  -4152.05829395076     
  -4119.58523682001     
  -4078.63927252231     
  -4029.52160065746     
  -3972.16651916842     
  -3906.16259804204     
  -3830.78160320416     
  -3745.01221055288     
  -3647.59676973268     
  -3537.07010503611     
  -3411.79941924869     
  -3335.14854153474     
  -3446.79359152804     
  -3553.30033345367     
  -3652.60380260709     
  -3742.46149589256     
  -3820.84235460492     
  -3886.20611919701     
  -3937.64845556180     
  -3974.91567365780     
  -3998.31547212979     
  -4008.56218532381     
  -4006.59735736182     
  -3993.41910545884     
  -3969.94217955517     
  -3936.89744439971     
  -3894.76978923480     
  -3843.76742657439     
  -3783.81417337299     
  -3714.55716944556     
  -3635.38471758899     
  -3545.45074511287     
  -3443.70376319688     
  -3328.91888404500     
  -3199.73187194246     
  -3244.51241678409     
  -3345.70770157799     
  -3440.85571510744     
  -3528.63259840385     
  -3607.53829239035     
  -3676.15518885369     
  -3733.34596282872     
  -3778.36977717664     
  -3810.91451271315     
  -3831.05753234314     
  -3839.17684850235     
  -3835.83741466639     
  -3821.67480043902     
  -3797.29231748585     
  -3763.18046302475     
  -3719.66104398397     
  -3666.85402159635     
  -3604.66293686063     
  -3532.77445943766     
  -3450.66819818932     
  -3357.63386836200     
  -3252.79372973483     
  -3135.12882747041     
  -3003.50796393700     
  -3158.76487011463     
  -3250.48528248940     
  -3335.71731597425     
  -3413.57558981623     
  -3483.02779031004     
  -3543.06383858835     
  -3592.83279019825     
  -3631.73100759031     
  -3659.43680020580     
  -3675.89671600843     
  -3681.27542292271     
  -3675.88412419305     
  -3660.10196032524     
  -3634.30194272960     
  -3598.78887841138     
  -3553.75275938925     
  -3499.23795892716     
  -3435.12666622796     
  -3361.13415257232     
  -3276.81339729678     
  -3181.56691657480     
  -3074.66407745776     
  -2955.26258181697     
  -2822.43313383788     
  -3078.74800857809     
  -3161.62064667624     
  -3237.89622345955     
  -3306.93910979753     
  -3368.00424364163     
  -3420.34564425978     
  -3463.30900498266     
  -3496.39583057720     
  -3519.29391285671     
  -3531.87554344692     
  -3534.16971638795     
  -3526.31717574298     
  -3508.51759859650     
  -3480.97695631996     
  -3443.86090433588     
  -3397.25761994636     
  -3341.15139566629     
  -3275.40677646064     
  -3199.76215553393     
  -3113.83138884753     
  -3017.11197840077     
  -2908.99853759038     
  -2788.80047784192     
  -2655.76308363836     
  -3004.78399455551     
  -3079.26466012261     
  -3147.26463081802     
  -3208.28291990388     
  -3261.74531792532     
  -3307.07232386202     
  -3343.74022367708     
  -3371.32604873638     
  -3389.53169812375     
  -3398.18684949521     
  -3397.23369564786     
  -3386.69864555943     
  -3366.65687038612     
  -3337.19519005577     
  -3298.37767409999     
  -3250.21690075028     
  -3192.65243360715     
  -3125.53696196516     
  -3048.62979334463     
  -2961.59696623343     
  -2864.01708813029     
  -2755.39200850241     
  -2635.16153192600     
  -2502.72151505833     
  -2936.85999092925     
  -3003.33304366013     
  -3063.58514013125     
  -3117.18185749539     
  -3163.64648888089     
  -3202.50118491917     
  -3233.30606230657     
  -3255.68957394521     
  -3269.36623404811     
  -3274.14061581214     
  -3269.89890466089     
  -3256.59090203739     
  -3234.20614718690     
  -3202.74784752373     
  -3162.20778931842     
  -3112.54458821333     
  -3053.66676120828     
  -2985.42132153841     
  -2907.58800249388     
  -2819.87882497854     
  -2721.94251194116     
  -2613.37317607382     
  -2493.72272052895     
  -2362.51646082277     
  -2874.75795399433     
  -2933.58968620401     
  -2986.54343013806     
  -3033.21289342904     
  -3073.17404435646     
  -3106.00884605259     
  -3131.32934566770     
  -3148.79735113008     
  -3158.13662807213     
  -3159.13637059760     
  -3151.64631655759     
  -3135.56507403961     
  -3110.82390921399     
  -3077.36843886714     
  -3035.14047712212     
  -2984.06184777202     
  -2924.02143373557     
  -2854.86620765760     
  -2776.39654519106     
  -2688.36579680454     
  -2590.48388548882     
  -2482.42458882049     
  -2363.83613029690     
  -2234.35472409620     
  -2818.14415027757     
  -2869.70851379444     
  -2915.77808342114     
  -2955.95462416603     
  -2989.84056177024     
  -3017.05163118687     
  -3037.23091384178     
  -3050.06092498667     
  -3055.27142987766     
  -3052.64183025458     
  -3041.99805472776     
  -3023.20475205606     
  -2996.15414392479     
  -2960.75313496832     
  -2916.91024956959     
  -2864.52374667102     
  -2803.47194299875     
  -2733.60642868626     
  -2654.74854291811     
  -2566.68922241021     
  -2469.19215303749     
  -2362.00004104813     
  -2244.84376379670     
  -2117.45414721300     
  -2766.62969889758     
  -2811.31804427138     
  -2850.90520360427     
  -2884.99201631558     
  -2913.19305950795     
  -2935.14243011852     
  -2950.50122410505     
  -2958.96440774999     
  -2960.26537338212     
  -2954.17720611394     
  -2940.51041738895     
  -2919.10751506193     
  -2889.83521259287     
  -2852.57531147656     
  -2807.21533878167     
  -2753.63992783644     
  -2691.72374713955     
  -2621.32656096310     
  -2542.29078515565     
  -2454.44171000862     
  -2357.59041209917     
  -2251.53927166371     
  -2136.08994732986     
  -2011.05362840583     
  -2719.81051104955     
  -2758.03249131331     
  -2791.53739750594     
  -2819.92260672675     
  -2842.80797052352     
  -2859.83751739067     
  -2870.68279522048     
  -2875.04628621386     
  -2872.66366786676     
  -2863.30415130243     
  -2846.76860950785     
  -2822.88563638520     
  -2791.50600217349     
  -2752.49616936268     
  -2705.73160852971     
  -2651.09062651437     
  -2588.44932055996     
  -2517.67813370468     
  -2438.64033692080     
  -2351.19262299162     
  -2255.18787845509     
  -2150.48010843681     
  -2036.93142467877     
  -1914.42096577122     
  -2677.29272912925     
  -2709.47270159004     
  -2737.29759407833     
  -2760.36229746568     
  -2778.28952158720     
  -2790.72923467509     
  -2797.35952201254     
  -2797.88781624367     
  -2792.05163868733     
  -2779.61827147650     
  -2760.38309406658     
  -2734.16661204533     
  -2700.81044335720     
  -2660.17268665340     
  -2612.12317469218     
  -2556.53912166220     
  -2493.30162406360     
  -2422.29339040590     
  -2343.39797444302     
  -2256.50068524461     
  -2161.49125554358     
  -2058.26827313022     
  -1946.74532013068     
  -1826.85872026798     
  -2638.70806789512     
  -2665.27957231963     
  -2687.82851328381     
  -2705.94996039061     
  -2719.26958513842     
  -2727.44200104771     
  -2730.15024781557     
  -2727.10573472264     
  -2718.04805407457     
  -2702.74424346731     
  -2680.98727721083     
  -2652.59376658003     
  -2617.40101808492     
  -2575.26372172180     
  -2526.05061099629     
  -2469.64145622102     
  -2405.92473119429     
  -2334.79624295912     
  -2256.15894737752     
  -2169.92410056564     
  -2076.01382591666     
  -1974.36511350443     
  -1864.93521523697     
  -1747.70835492415     
  -2603.72221090759     
  -2625.12201502312     
  -2642.79865961051     
  -2656.35063909429     
  -2665.40796078474     
  -2669.63011299684     
  -2668.70490356902     
  -2662.34773457049     
  -2650.30092163236     
  -2632.33276371059     
  -2608.23619624485     
  -2577.82699351155     
  -2540.94160472468     
  -2497.43479974177     
  -2447.17735760993     
  -2390.05405433153     
  -2325.96219944549     
  -2254.81094133459     
  -2176.52151653395     
  -2091.02856616592     
  -1998.28258895544     
  -1898.25354917908     
  -1790.93561150883     
  -1676.35293339593     
  -2572.03850846718     
  -2588.70104260733     
  -2601.90564752682     
  -2611.25742140489     
  -2616.39256725707     
  -2616.97642683339     
  -2612.70213891402     
  -2603.28965893369     
  -2588.48488989101     
  -2568.05872810548     
  -2541.80590569807     
  -2509.54359856206     
  -2471.10985010764     
  -2426.36192700910     
  -2375.17476772455     
  -2317.43970602175     
  -2253.06365178991     
  -2181.96889392457     
  -2104.09365996309     
  -2019.39352939263     
  -1927.84375643333     
  -1829.44251679182     
  -1724.21505328704     
  -1612.21865805289     
  -2543.39856938271     
  -2555.75116484332     
  -2564.87754938424     
  -2570.39218047393     
  -2571.93932562226     
  -2569.19140976303     
  -2561.84777830445     
  -2549.63372815243     
  -2532.29965634179     
  -2509.62020288555     
  -2481.39331105930     
  -2447.43918385947     
  -2407.59917007656     
  -2361.73465971313     
  -2309.72610148848     
  -2251.47227280393     
  -2186.88993505422     
  -2115.91399653340     
  -2038.49828434317     
  -1954.61699890470     
  -1864.26689288529     
  -1767.47018296079     
  -1664.27816943977     
  -1554.77550616955     
  -2517.58086955194     
  -2526.03997155855     
  -2531.47283006757     
  -2533.50542085278     
  -2531.79167957055     
  -2526.01228726587     
  -2515.87370114292     
  -2501.10735940949     
  -2481.46897881827     
  -2456.73787471114     
  -2426.71625967546     
  -2391.22851128688     
  -2350.12043511292     
  -2303.25858063715     
  -2250.52969116628     
  -2191.84038203829     
  -2127.11714414200     
  -2056.30676274919     
  -1979.37722663629     
  -1896.31918148913     
  -1807.14795668168     
  -1711.90616744611     
  -1610.66686650301     
  -1503.53719119848     
  -2494.39816442443     
  -2499.36654885135     
  -2501.47931554465     
  -2500.37546042721     
  -2495.71978351735     
  -2487.20215908564     
  -2474.53691589287     
  -2457.46230595190     
  -2435.74002722934     
  -2409.15476787297     
  -2377.51375308268     
  -2340.64629602669     
  -2298.40337664157     
  -2250.65729274851     
  -2197.30144369167     
  -2138.25031584112     
  -2073.43974111874     
  -2002.82749444826     
  -1926.39428460979     
  -1844.14517667001     
  -1756.11146433489     
  -1662.35298850286     
  -1562.96087501689     
  -1458.06064087564     
  -2473.69425256667     
  -2475.55919689441     
  -2474.71254157377     
  -2470.80715355941     
  -2463.51942771583     
  -2452.54903999328     
  -2437.61870591683     
  -2418.47395407052     
  -2394.88291095073     
  -2366.63609090260     
  -2333.54619053806     
  -2295.44789809417     
  -2252.19774150837     
  -2203.67401173156     
  -2149.77680772940     
  -2090.42825524042     
  -2025.57295193151     
  -1955.17868705363     
  -1879.23747449867     
  -1797.76692506683     
  -1710.81196768854     
  -1618.44691122645     
  -1520.77781913118     
  -1417.94514931739     
  -2455.34046673228     
  -2454.47278576333     
  -2451.01374568857     
  -2444.63032831216     
  -2435.01078196456     
  -2421.86482767215     
  -2404.92379109799     
  -2383.94068874636     
  -2358.69028463441     
  -2328.96912866772     
  -2294.59558898086     
  -2255.40989563503     
  -2211.27422021807     
  -2162.07282308588     
  -2107.71230556808     
  -2048.12200725261     
  -1983.25458778700     
  -1913.08682828930     
  -1837.62067963363     
  -1756.88457402210     
  -1670.93500299153     
  -1579.85834999615     
  -1483.77294961000     
  -1382.83132879770     
  -2439.23214762173     
  -2435.98598781191     
  -2430.24769906908     
  -2421.69807796266     
  -2410.03703802089     
  -2394.98422332678     
  -2376.27948865652     
  -2353.68328521960     
  -2326.97698035021     
  -2295.96313370267     
  -2260.46575089567     
  -2220.33053696233     
  -2175.42517502599     
  -2125.63965896622     
  -2070.88671127587     
  -2011.10231793152     
  -1946.24641033736     
  -1876.30372001542     
  -1801.28482475376     
  -1721.22739565536     
  -1636.19764336985     
  -1546.29194922989     
  -1451.63865357324     
  -1352.39995972542     
  -2425.28526995108     
  -2419.99855317937     
  -2412.30052284705     
  -2401.88501736665     
  -2388.46302266782     
  -2371.76364027534     
  -2351.53487867616     
  -2327.54431228070     
  -2299.57964329424     
  -2267.44919600603     
  -2230.98237002359     
  -2190.03007813568     
  -2144.46519489423     
  -2094.18304273632     
  -2039.10194267952     
  -1979.16385564218     
  -1914.33513781042     
  -1844.60742896812     
  -1769.99868631054     
  -1690.55436813557     
  -1606.34876223493     
  -1517.48644316251     
  -1424.10383125645     
  -1326.37081477542     
  -2413.43333054287     
  -2406.42874266253     
  -2397.07759336284     
  -2385.08558935668     
  -2370.17384263151     
  -2352.08013768531     
  -2330.55999110801     
  -2305.38754977337     
  -2276.35636654957     
  -2243.28008702150     
  -2205.99307712801     
  -2164.35101946002     
  -2118.23150469447     
  -2067.53464363443     
  -2012.18372400583     
  -1952.12593403568     
  -1887.33317155596     
  -1817.80295275257     
  -1743.55942867097     
  -1664.65451029902     
  -1581.16909467997     
  -1493.21437535097     
  -1400.93321079668     
  -1304.50151492933     
  -2403.62456672521     
  -2395.21099452063     
  -2384.50161060562     
  -2371.21248546437     
  -2355.07361145242     
  -2335.83041434540     
  -2313.24503560725     
  -2287.09743172509     
  -2257.18633102321     
  -2223.33008350603     
  -2185.36743550667     
  -2143.15825804624     
  -2096.58425550774     
  -2045.54967910407     
  -1989.98206727274     
  -1929.83303221398     
  -1865.07910804810     
  -1795.72267135068     
  -1721.79293909460     
  -1643.34704235340     
  -1560.47116665940     
  -1473.28174189142     
  -1381.92665627487     
  -1286.58646083470     
  -2395.81954521058     
  -2386.29387507957     
  -2374.51088151690     
  -2360.19522853701     
  -2343.08429811306     
  -2322.92989309720     
  -2299.49969618687     
  -2272.57853045328     
  -2241.96946217040     
  -2207.49478237658     
  -2168.99689986494     
  -2126.33917506756     
  -2079.40672139375     
  -2028.10719775572     
  -1972.37161300169     
  -1912.15515953719     
  -1847.43808936274     
  -1778.22664098095     
  -1704.55402010025     
  -1626.48143083847     
  -1544.09914733808     
  -1457.52760853537     
  -1366.91851152099     
  -1272.45587176875     
  -2389.98914309027     
  -2379.63834444490     
  -2367.05785332913     
  -2351.97895173748     
  -2334.14472820605     
  -2313.31192153749     
  -2289.25251105364     
  -2261.75509779554     
  -2230.62611718460     
  -2195.69091982433     
  -2156.79475350490     
  -2113.80367608536     
  -2066.60542568540     
  -2015.11027137130     
  -1959.25186409448     
  -1898.98810387008     
  -1834.30203493361     
  -1765.20277580771     
  -1691.72648583065     
  -1613.93736379269     
  -1531.92866800711     
  -1445.82374057588     
  -1355.77701200836     
  -1261.97495596194     
  -2386.11293091390     
  -2375.21635607805     
  -2362.10792024875     
  -2346.52339836835     
  -2328.20976080361     
  -2306.92710953026     
  -2282.45035518977     
  -2254.57067850011     
  -2223.09681617543     
  -2187.85620801174     
  -2148.69603829721     
  -2105.48420126253     
  -2058.11021686974     
  -2006.48611975842     
  -1950.54734050612     
  -1890.25359439683     
  -1825.58978852882     
  -1756.56695327314     
  -1683.22319880945     
  -1605.62469176413     
  -1523.86664095775     
  -1438.07427508900     
  -1348.40378903053     
  -1255.04322951889     
  -2384.17796103655     
  -2373.00980081078     
  -2359.63851843467     
  -2343.80215933906     
  -2325.24965787327     
  -2303.74281927484     
  -2279.05803988741     
  -2250.98780858085     
  -2219.34202928872     
  -2183.94920125547     
  -2144.65749015662     
  -2101.33571979808     
  -2053.87431061213     
  -2002.18618758446     
  -1946.20767647914     
  -1885.89940317805     
  -1821.24720653697     
  -1752.26307033660     
  -1678.98607466946     
  -1601.48336150105     
  -1519.85110327415     
  -1434.21545743227     
  -1344.73348380795     
  -1251.59399616908     
SCALARS 2waySource double 
LOOKUP_TABLE default
  6.148884054217565E-018
 -5.510488087395083E-018
 -2.678869593355949E-018
 -1.717604690407031E-018
  6.084694522419056E-018
  1.632950686317076E-018
 -4.547473508864619E-020
  2.401240980238678E-018
 -1.404819379122873E-018
  3.121992810853106E-020
 -4.884745863274599E-019
  1.233910306664964E-018
 -9.533369673198529E-019
  9.937541873555348E-019
  3.487854419780796E-019
 -3.934439422958656E-019
  2.137749968061753E-019
 -5.461342399591284E-020
  3.588204188701076E-019
 -8.638012572365960E-020
  1.333779756301836E-019
 -1.595696901956926E-019
 -4.770472995354150E-020
  1.364242052659392E-019
 -1.515263501954147E-021
 -4.547473508864718E-020
 -1.494839615997053E-019
  7.861302528407562E-019
  4.929986186283720E-018
  1.013503928283984E-018
  3.191714016769454E-018
 -4.547473508864636E-020
 -2.993607587037424E-018
  1.589545839665533E-018
 -2.245461552551626E-019
 -9.268972417967143E-019
 -2.383635433399054E-019
  5.184994637896437E-019
  5.379718922505237E-019
 -5.379718922505251E-020
 -7.816702631109649E-020
 -1.746114304367260E-020
  7.488100141447880E-019
 -3.091844567132583E-019
 -2.552779127643626E-019
  1.071862610646748E-019
  7.044209749786469E-020
  7.125833226872511E-020
 -2.829228392746406E-018
  1.590858096351649E-018
  1.440499296961191E-018
  5.928040256941258E-019
  2.970432800597734E-018
 -3.787782981547019E-018
  2.175499774337167E-018
 -2.962707871784492E-018
  8.615126593518164E-019
 -3.435732600485511E-018
  2.756759307199469E-019
 -2.266160436922549E-019
 -7.683917973295112E-019
  1.224467107533946E-019
 -1.605753329042968E-019
 -1.569315779453673E-019
  8.169127620539150E-019
 -1.175493021282318E-019
  2.107287671704199E-019
 -3.035294163371197E-020
 -2.489960455551077E-019
  3.478598524833763E-019
  5.795841629325557E-020
 -7.348832713362021E-020
 -2.200861655253730E-019
 -6.906067274202712E-018
 -1.002834273242917E-018
  1.415371828124182E-018
  1.905041465097985E-018
 -1.944423740915115E-018
  1.910376292618520E-018
 -8.527098859319998E-019
 -6.735212597257191E-019
  3.844653598164024E-019
 -2.208437972763482E-019
  5.716991276915226E-019
 -1.849608726221898E-020
  1.311479807652887E-019
  2.673534765835411E-019
  1.151064581176390E-018
 -6.879947761535210E-019
 -1.729789608950050E-019
 -3.940414676190404E-019
  2.151887569002101E-019
  1.078931411116920E-019
 -2.174187517651051E-019
  7.958078640513114E-020
  1.075943784501050E-019
  1.004357388060795E-018
  3.838678344932265E-019
  2.765038860947846E-018
  1.178320541470390E-018
  1.967598527354821E-018
 -2.815731217517261E-018
  4.892322180784345E-019
  3.528080128124973E-019
 -5.923666067987505E-019
  8.713074766021434E-019
 -1.461662797983680E-018
 -7.617018127348278E-019
  1.743271081547336E-018
 -9.247258499517053E-019
 -8.806648749570925E-019
 -4.642648556692181E-019
  2.407536446326025E-019
  2.436983708604398E-020
  6.172539159940688E-019
  5.086031431314010E-020
  5.456968210637567E-019
  3.065170429529906E-020
  2.379261244445333E-019
  8.942635535941500E-020
  1.995787928459437E-019
  4.703866164506720E-019
  5.302469634372940E-019
 -1.348792195032932E-018
  9.338645388589724E-019
  2.996083489106190E-019
  1.683381433050776E-018
  2.505570419605337E-018
  2.993986402912908E-018
 -1.005341580575388E-018
 -5.668017190663590E-019
  2.106034018037966E-018
  2.283472968662759E-018
 -6.045515253417748E-019
  1.487446395163760E-018
 -6.987659346025095E-019
  3.288755946218260E-019
 -3.046229635755484E-021
 -1.234230519520570E-019
  7.033274277402154E-020
 -1.885889249492709E-019
  1.075943784501050E-019
  1.421085471520200E-019
  6.973521745084737E-020
 -1.085709300241429E-018
 -3.881677177952163E-019
 -2.092216629953220E-018
 -1.316158506830362E-018
 -2.485660572249098E-018
  4.969571468916675E-019
 -5.091420654346909E-019
  1.257026490084775E-018
 -7.068696792912247E-019
  6.867997255071751E-019
  5.915503720278916E-019
 -2.050737267942815E-020
  5.448805862928950E-019
  7.216634085746329E-019
 -7.326961768593483E-020
 -7.109508531455295E-019
  8.567324567664229E-020
 -1.210036491494176E-019
  7.835643424884042E-020
 -2.480704560604046E-019
  6.077071097013726E-019
 -3.751665644813328E-019
 -5.684341886080797E-021
  4.131350802044333E-020
  2.754718720272325E-019
  2.119238178167683E-019
  2.572384464776133E-019
  1.815126939139232E-018
  1.136282347017315E-019
 -2.350052601754009E-018
 -2.409126015479702E-018
 -2.357500218099672E-018
  1.133603438132712E-018
 -1.091831061022887E-018
 -1.004904161680010E-018
  2.365662565808278E-018
 -5.176832290187817E-019
  1.111463595911568E-018
  2.496736240921816E-020
 -8.935566735471326E-019
 -4.198250647991181E-019
  3.772872046223849E-019
 -9.530010518323989E-020
 -2.922407857788589E-019
 -3.765803245753669E-019
  4.090539063501319E-020
  5.450406927206984E-020
 -6.211964336145859E-020
  4.616706956838087E-019
  2.017095833277884E-018
 -1.492066491321350E-019
 -9.430032277662414E-019
 -8.970910737822238E-019
  1.057885116134199E-018
  9.366920590470417E-019
 -9.731882116562225E-019
  2.361639994973855E-018
 -4.691622642943818E-019
  8.124527723241252E-019
  5.229594535194346E-019
 -1.350424664574650E-018
  3.497910846866847E-019
  4.084563810269573E-019
  1.289179859003938E-019
  3.632804085998984E-019
  5.588873823153835E-019
 -5.684341886080807E-020
  4.543392335010341E-019
  3.318124695337382E-019
 -3.410605131648477E-020
 -1.113474881328778E-019
  1.705302565824237E-020
 -6.005368058232821E-020
 -3.909298355243547E-019
  1.143937177686336E-019
  6.874265523402896E-019
  1.358528409263372E-018
  6.135301078212378E-019
  2.557735139288665E-018
  1.042872677403113E-018
  8.648948044750249E-020
  2.105100577227338E-019
  4.123188454335725E-019
  3.592792879594950E-020
  3.075519871715359E-019
  3.689647504859781E-019
  2.576172623531002E-019
  1.109393707474474E-019
 -1.283028796712539E-018
  2.330580173293120E-019
  4.044045086825967E-019
  5.574736222213487E-019
 -8.526512829121210E-020
  1.307398633798585E-019
  1.019100365640243E-019
 -3.258293649860704E-020
 -6.650533499164800E-019
 -2.307186677405754E-019
 -9.029334183423481E-021
 -7.664898666361456E-019
 -1.510591880093516E-018
  1.359867863705667E-020
 -3.046229635755492E-021
  1.746114304367258E-020
 -3.146793906615944E-019
 -6.934897101018595E-019
 -4.488736010626390E-019
 -1.356218361184573E-018
 -5.638648441544467E-019
 -6.461637960238043E-019
 -2.478810481226600E-019
 -1.156639568338631E-018
 -1.425967177513510E-019
  7.148933707660475E-019
 -2.213905708955642E-019
 -4.444936645467500E-019
 -9.388634508920519E-020
  4.515917665268654E-019
  1.177680115759182E-020
  2.689859461252622E-020
  3.466355003270852E-020
 -2.847745930202645E-019
 -6.100464592901104E-020
  1.723222577957305E-018
  9.160753316437705E-019
 -1.637309172638952E-019
 -1.315560981507187E-019
 -1.268773989732425E-019
 -5.918276844954601E-020
 -1.758064810830752E-019
  2.675721860312280E-019
  4.021452123077619E-019
 -6.859541892263664E-019
 -4.759616036129099E-019
 -6.063734028212376E-019
 -3.940414676190411E-019
  4.546379961626208E-019
 -7.437231975818819E-019
  5.238342913101821E-020
  4.162613630540914E-019
 -1.775990570525979E-020
  3.804427889819843E-019
  2.311267851260047E-019
  3.046229635755507E-021
  6.225301404947190E-019
  2.156769274995423E-020
  3.369793393105462E-020
 -1.858414579751025E-019
  9.407575302694927E-020
 -3.655397049747351E-019
 -6.897072989091467E-019
  3.967889345932080E-019
 -6.182088069987147E-020
  1.136868377216171E-020
 -8.853006737465386E-020
  7.890320786805664E-020
  1.710061318215615E-018
 -3.527572611085395E-019
 -5.683248338842371E-019
  8.667888838524638E-020
 -1.288086311765509E-019
 -1.225267639672955E-019
 -1.042493861527626E-019
  2.437198210544582E-019
  6.300363598602669E-019
  3.080694592808115E-019
  4.963596215684959E-020
  1.523114817877755E-021
 -1.387412913441127E-018
 -4.658973252109404E-020
 -1.600871623049655E-019
 -4.336131513739180E-019
  4.665241520440577E-019
 -4.524880545116280E-019
  7.028978601607671E-019
  2.344424759134060E-020
  2.582440891862180E-019
  7.547931186924597E-019
  3.514235542284041E-019
  1.033187214876632E-018
 -1.761220395190339E-018
  2.539735073941707E-019
  7.189452431104073E-019
 -2.112169377697513E-019
  2.293049076465405E-019
  1.684096164413716E-019
 -2.988214156497008E-019
  2.594391398325658E-019
  4.506661770321603E-020
 -2.311267851260042E-019
 -1.166237126335284E-019
  1.289179859003935E-020
  8.374201347333444E-020
 -3.923289448634164E-020
 -1.036225593196457E-019
  1.360678350914363E-018
  6.362381738556229E-019
  4.427518402811841E-019
  2.339349588738133E-021
  3.178056735112522E-019
 -3.710346389230705E-019
 -1.071702504218945E-018
 -3.367899313728019E-019
  3.503164081118840E-020
  6.336000616052920E-019
  7.868585830817896E-019
  8.674743137054676E-019
  7.685011520533541E-019
  8.001584990572573E-019
  1.943826215591946E-019
 -2.283793181518365E-019
  2.455416985339224E-019
  1.284005137911203E-019
  4.131350802044337E-020
  1.261705189262252E-019
 -4.658973252109398E-020
  1.746114304367269E-020
  2.593297851087234E-020
  2.649047722709611E-020
  9.054135279186292E-020
 -1.136868377216164E-020
 -7.958078640513099E-020
 -5.439471454822691E-020
  2.489667440451668E-019
 -3.536535490933005E-019
 -6.391457472575899E-019
  1.036780218131605E-018
 -7.430456190448077E-020
 -1.151582053285663E-018
 -8.260514509611826E-019
 -6.536993168992931E-019
 -5.491511680849435E-019
  1.397691975632822E-019
 -2.319430198968661E-019
 -3.413592758264361E-019
 -3.170987934642360E-019
 -5.825717895484259E-020
  9.734069211039118E-020
  8.151201860843946E-020
 -5.948153111113345E-020
 -1.150058938467791E-019
  5.628592014458420E-020
  3.250288328470558E-021
 -4.506661770321641E-020
  4.049727324958306E-020
 -4.985467160453543E-020
 -7.036340417177289E-019
 -2.556488773239245E-020
  1.538226656263003E-018
  6.476068576277845E-019
  1.182561821752496E-019
 -3.046229635755524E-021
 -3.548485997396487E-019
  1.450104706273783E-018
  1.310933034033672E-018
  7.035246869938886E-019
 -4.731047819148985E-019
  2.401561193094281E-019
  6.175526786556581E-019
  4.580923431838073E-019
 -1.609834502897280E-019
  3.436986254151742E-019
  4.019851058799599E-020
  1.344929730626318E-019
  2.572891981815715E-020
 -1.116462507944657E-020
  2.613703720358741E-020
 -6.092459271511130E-021
 -1.512179345493448E-020
  1.456722488970487E-019
 -2.536747447325842E-019
 -6.531818447900190E-019
 -2.162237011187566E-020
 -1.473847716526707E-019
 -3.785916099925769E-020
  0.000000000000000E+000
 -5.026707902876911E-019
 -8.160965272830545E-019
 -4.669908724493694E-020
  2.016994329869965E-019
  2.920220763311729E-019
 -1.326710955831664E-019
 -1.716452540148717E-019
 -1.978369685803806E-019
 -1.019100365640243E-019
 -9.317946504218802E-020
  3.431011000919972E-020
  4.131350802044325E-020
  1.256130202100017E-019
  5.379718922505233E-020
  2.741821174120120E-019
  8.157430872595471E-019
 -6.252776074688898E-020
  2.730671199795640E-020
  2.468754054140558E-019
  7.387457357428180E-019
 -3.258293649860694E-020
  7.460332456606763E-020
 -2.807627472828549E-019
 -7.653455676937599E-020
  1.226361186911385E-019
  7.034153322700439E-019
 -2.803546298974242E-019
 -4.907553328963131E-019
  1.930489146790604E-019
  4.592073406162536E-019
 -6.399912835383936E-019
  3.481293136350224E-020
  1.727173510592787E-021
  3.908351315554845E-020
  1.684896696552740E-020
 -3.826727838468802E-020
  8.860358034266171E-019
  1.110633762262625E-019
 -3.391039051095612E-019
 -1.309708681877381E-018
 -1.191671209149819E-019
  2.537547979464850E-020
 -2.578359718007875E-020
 -1.132787203361855E-019
  8.214821065075509E-019
  8.211833438459644E-019
  4.524080012977261E-019
 -6.692292277396572E-019
 -5.024520808400048E-019
  1.000932342549552E-018
 -1.018006818401809E-019
 -2.016994329869976E-019
 -1.929542107101903E-019
  5.360553108021893E-019
  7.330760446117085E-019
  1.038012421603819E-019
  4.138819868584012E-019
 -2.918326683934292E-020
 -1.523075561298129E-019
  4.131350802044346E-020
 -5.470812796478473E-020
 -9.174637158858285E-019
  3.807787044694376E-020
  6.747495375399733E-019
 -1.725708435095758E-020
  1.233429987381549E-020
 -5.888400578795928E-021
 -6.425493425748156E-020
  2.162237011187566E-020
 -9.754367829340526E-019
 -1.052051392917329E-018
 -7.393979384279139E-019
 -2.376820391448671E-019
 -1.164196539408134E-019
 -1.479969477308160E-019
 -8.591733097630799E-020
  3.136991238049685E-019
  1.140402777451243E-019
 -8.846073925776108E-020
 -4.699784990652419E-020
  1.431688672225461E-019
 -8.521045092929042E-020
  3.369793393105452E-020
 -2.537547979464847E-020
  2.068809535187751E-019
  6.194292334970407E-019
 -6.288120077039729E-020
  1.476835343142578E-020
 -2.121425272644553E-020
 -7.969014112897418E-021
 -7.615574089388753E-022
  7.359768185746335E-020
  6.736345401075255E-019
 -1.453041581185689E-019
  6.675420808360142E-019
  7.442806962981029E-019
  4.013582790468413E-019
  3.371980487582322E-019
 -3.628176138525465E-019
  7.170833390239897E-019
  3.578948293754046E-019
 -3.534895170075367E-019
 -6.639022515350478E-020
 -1.464191555510168E-019
  9.138688907266525E-021
  1.375392026983864E-019
  5.262751443068347E-020
 -7.969014112897436E-021
 -1.642483893731693E-019
 -1.353252184762715E-018
  5.511624535021514E-020
 -1.608740955658850E-020
 -7.389644451905022E-020
  1.831232925108752E-019
  7.014987508217010E-019
 -2.658196366686546E-019
 -7.050478018117621E-019
  9.176570494815306E-020
  3.655250542197639E-019
  2.343223960925544E-019
  5.024813823499452E-020
  1.709930513297753E-019
 -1.576384579923835E-019
 -2.097016742677973E-020
 -3.498857886555556E-019
  2.909617562606446E-019
 -1.181468274514058E-019
 -1.873792235479514E-019
 -1.468272729364464E-019
  1.192618248838533E-020
  2.061047453548652E-019
  5.968558980384825E-020
 -1.064793810176582E-019
  0.000000000000000E+000
 -1.532585214764951E-020
 -8.450357088227324E-020
 -8.394607216604948E-020
 -5.874584730765853E-019
  5.320834916717331E-019
  0.000000000000000E+000
  4.527067639593134E-020
 -3.882477710091185E-020
 -4.528707960450774E-019
 -5.601117344716739E-019
 -1.523114817877759E-021
 -3.586710375393145E-019
 -2.060100413859943E-019
  2.883929721272147E-019
  2.511713630580815E-019
 -4.395162027076895E-020
 -5.684341886080861E-021
  2.665518925676526E-019
  2.083894175816810E-019
  9.288070238060116E-021
  1.705302565824242E-020
 -2.273736754432330E-020
 -2.397480019239973E-019
  3.508514047572126E-019
  5.836653367868559E-019
  6.630274137443047E-019
 -5.760497626974673E-020
 -1.697833499284550E-019
 -7.455050484543934E-019
  3.394827209850488E-019
  1.365335599897823E-020
 -6.481243297370556E-020
  3.735887723015332E-019
 -6.100464592901127E-020
  5.871997370219415E-020
  8.886885664319111E-020
 -3.944495850044685E-019
  6.308525946311240E-020
 -7.615574089388775E-022
 -1.114568428567208E-019
 -1.173852700424675E-019
  1.706796379132177E-019
  1.116462507944649E-020
  6.241840602304566E-021
 -9.698725208688266E-020
 -3.902883579362675E-020
  4.506808277871315E-019
  1.821877479464895E-021
 -5.817712574094163E-020
 -8.135130923946544E-019
  2.239740057839687E-019
  1.381513787765323E-019
 -9.193366269188081E-021
 -3.622747658912948E-019
  1.629146824930355E-020
 -6.557399038264452E-020
 -1.755077184214879E-019
 -6.460837428099049E-020
  3.694822225952514E-020
  1.549056417731882E-019
  1.916498053399981E-019
  5.684341886080820E-021
 -4.811284733897187E-020
 -2.136363405723916E-020
  3.672922543373089E-019
 -1.358667065497161E-019
 -4.963596215684965E-020
  1.253835856653072E-020
  8.886885664319164E-020
  2.405642366948587E-020
  4.280928415736005E-019
  1.307252126248874E-019
  3.235993701211741E-019
  7.888991700089382E-019
 -2.351239801084428E-019
  6.624084382271089E-020
  1.786086254191633E-019
  4.055195061150433E-019
  7.744295792390991E-019
  3.117132142397401E-019
 -8.775385921074333E-020
  8.013828512135473E-020
  3.830262238703852E-019
 -2.405642366948585E-020
 -5.480283193365677E-021
  0.000000000000000E+000
 -1.533278495933876E-019
 -1.688030830718305E-019
 -1.268773989732420E-020
 -4.679379121380891E-020
  5.115907697472683E-020
 -5.648997883729913E-020
 -1.227708492669606E-019
 -6.592743040615256E-020
  2.433517302759790E-019
 -2.604047559342207E-019
 -2.208330721793416E-019
 -4.839852950877318E-019
 -4.783409798086026E-019
  4.445444162507028E-020
 -6.571936905274286E-019
 -8.896942091405217E-019
 -1.492212998871067E-019
  2.273736754432332E-020
  2.086081270293683E-020
 -1.543520687149270E-020
 -3.290249759526203E-019
  4.090539063501320E-020
 -5.532030404293044E-020
  6.024308852007225E-020
 -5.912809108762489E-020
  4.038870365733265E-019
  1.476835343142589E-020
  1.863081783804183E-020
  1.854479913446448E-019
 -1.125171629272474E-019
 -7.729611417831517E-020
 -3.050232296450574E-020
  4.543939108629552E-019
  2.173240477962327E-019
 -4.721538165682168E-019
 -2.080613534101503E-021
 -2.812655686371578E-019
 -2.889758466954179E-019
 -1.837608444410011E-019
  3.400402197012729E-019
  6.445899295019676E-021
 -3.522104874893235E-020
 -1.989519660128280E-020
  0.000000000000000E+000
 -1.060712636322267E-020
  4.207506542938232E-020
 -1.280070471606611E-019
 -3.192340843602587E-019
 -2.694487408726152E-019
 -1.670759095612383E-019
  4.365285760918143E-021
  3.750572097574900E-020
 -2.405642366948585E-020
 -4.222444676017582E-020
  4.034789191878940E-020
 -2.974076555556665E-020
 -5.151251699823593E-020
  6.069123251245331E-020
  1.223227052745793E-019
  3.421208332353720E-019
  3.500898473482717E-019
 -2.930423697947474E-019
 -6.860556926342863E-020
  3.223349913579342E-019
  2.890852014192595E-019
 -7.207456703958536E-021
 -9.806222291237920E-020
 -7.466200458868424E-019
 -3.614585311204312E-019
 -2.385236497677059E-020
  2.558500622355568E-019
  2.910711109844895E-019
  5.643530147537730E-020
  1.684896696552724E-020
  1.629146824930352E-020
 -1.801864175989639E-020
 -1.254089615172858E-019
  1.172905660735947E-019
  1.771255372082375E-020
 -2.880248813487337E-020
  7.362570048232891E-019
 -3.314043521483106E-020
 -6.759992655482458E-020
 -8.318451475711070E-020
  1.058818556944842E-019
  4.224631770494471E-019
  3.804828155889327E-019
  2.664972152057309E-019
  3.449630041784157E-019
  1.913363919234398E-020
 -2.054739928637866E-020
  8.640199666842838E-019
  2.739087306024049E-019
  1.837208178340514E-020
 -4.161227068203043E-020
  3.602888563260628E-019
 -1.421085471520217E-020
  1.222133505507376E-019
  4.207506542938230E-020
 -4.151756671315857E-020
 -6.704242783860079E-020
 -1.060712636322273E-020
 -3.902883579362658E-020
  1.012431831239578E-020
 -1.101005850879133E-018
  2.126453486187566E-019
  4.852096472440166E-020
 -1.391716722401084E-019
 -2.398973832547925E-019
  7.837108500381126E-020
  2.890705506642881E-019
 -7.630608954669381E-019
 -1.382460827454036E-019
 -1.766520173638778E-020
 -4.529655000139475E-019
 -8.933165139054339E-020
 -1.917445093088697E-019
  4.705252726844581E-020
  1.875286048787455E-019
  5.247813309989004E-020
 -3.263761386052859E-020
 -1.786486520261143E-019
 -2.638112250325283E-021
 -4.471317767970757E-020
  2.238392752081457E-020
 -1.517647081685607E-020
 -3.740369162939161E-020
 -6.445899295019676E-021
  2.509526536103957E-019
 -6.431322171430158E-019
 -2.212519146617803E-020
  4.731194326698702E-019
  1.446959076983873E-020
 -3.238581061758094E-019
  2.575225583842286E-019
  1.386542001308330E-019
 -3.643075015025266E-020
  4.274953162504275E-019
  2.613703720358709E-020
  1.285098685149626E-019
  1.754530410595644E-019
 -4.415567896348355E-020
 -4.415567896348348E-020
 -1.870257835244416E-019
 -3.176562921804582E-019
  1.505803826192185E-019
 -5.039751956578805E-020
  1.513419400281586E-019
 -3.448683002095419E-020
 -4.820755130784329E-021
 -2.944200289397932E-021
 -2.842170943040375E-021
  3.409511584410063E-019
  3.105982168072954E-020
  1.508464062906793E-021
 -7.024643669233601E-019
  6.263711547073192E-020
  7.958078640513108E-020
  4.605263967414160E-019
  5.425605831444132E-021
 -1.350397466818488E-020
 -1.954175657777421E-020
 -2.027050756956023E-019
  4.221097370259378E-019
  3.901389766054742E-019
  1.680415256628920E-019
 -2.258798621352964E-020
 -1.492066491321363E-019
  1.945866802519103E-019
  2.786421071418036E-020
  1.969113790856785E-020
 -3.768244098750335E-020
 -1.098790506769204E-020
  3.694822225952534E-020
 -1.969113790856786E-020
  2.689859461252637E-020
 -4.194169474136872E-019
  2.417739380961817E-019
 -3.120666542632478E-019
  4.194716247756126E-019
 -3.496231269429615E-020
  1.007403617696554E-019
 -1.029156792726289E-019
  8.078368836740746E-021
  2.393398845385682E-019
 -2.497976295710003E-019
  1.280470737676116E-019
  2.147298878108219E-020
  1.629146824930350E-019
 -4.116412668964994E-020
  1.263345510119908E-019
  3.100953954529931E-019
 -2.842170943040402E-021
 -2.598765587279384E-020
 -9.566819596172000E-020
  1.865083114151704E-020
 -4.644035119030033E-021
  6.092459271511044E-021
  2.641578656169927E-020
 -2.017394595939470E-020
  6.399619820284451E-020
 -1.582867350195129E-020
  3.101900994218624E-019
 -1.873245461860286E-019
  2.827232809961047E-020
 -1.154686885941301E-019
 -3.396867796777626E-019
 -2.970542155321548E-019
 -2.485879281696755E-019
  1.004962764699885E-020
 -6.821210263296916E-020
 -4.552941245056806E-020
 -1.640296799254826E-019
 -5.613653881379034E-020
 -1.983944672966030E-019
 -1.782952120026049E-019
 -8.095451989221495E-020
 -8.859010728507880E-020
 -1.160008114583723E-020
 -1.162229206255827E-019
 -3.400402197012704E-020
 -7.615574089388729E-022
  1.289179859003928E-020
  2.055472466386399E-020
 -2.227457279697159E-020
  1.192618248838537E-020
  1.125718402891688E-019
 -2.584881744858833E-019
 -3.257893383791215E-019
 -1.727602514473189E-019
  5.684341886080817E-021
  1.937772449201074E-020
 -3.413592758264348E-019
  3.618666485058658E-020
 -2.496736240921830E-020
  1.703261978897092E-019
  4.532535375785306E-020
  1.956069737154868E-019
  4.547473508864671E-020
 -9.845568954283858E-021
  1.274241725924593E-020
  2.608675506815733E-019
  1.097296693461288E-019
 -5.610920013283000E-020
 -3.590791549247447E-020
  0.000000000000000E+000
  2.055472466386414E-020
 -1.421085471520211E-021
  1.986932299581908E-019
 -3.790690554949030E-019
  2.833461821712563E-019
 -3.927224114938814E-019
  2.313308438187217E-019
  3.093338380440528E-019
 -1.959604137389931E-019
 -4.263256414560615E-020
  2.842170943040435E-021
  4.055195061150480E-020
 -1.081118505593789E-020
 -2.032625744118265E-019
  1.407348136649361E-019
 -2.506685417037805E-019
  2.197581013538437E-020
 -1.629146824930364E-020
 -6.445899295019718E-021
 -2.245861818621131E-020
 -2.273736754432320E-020
  1.923566853870160E-020
  1.182415314202782E-020
 -4.745331927639108E-020
  0.000000000000000E+000
  0.000000000000000E+000
  8.922229666669950E-020
 -4.969063951877067E-020
 -3.618666485058593E-020
 -2.923794420126435E-020
 -1.402866696725543E-019
 -7.049677485978581E-020
  9.982942302992301E-020
 -2.766015202146518E-020
 -8.526512829121109E-021
  2.842170943040279E-021
  2.974076555556663E-020
 -2.044322492061928E-019
 -2.980198316338120E-019
 -2.117890872409447E-019
  1.041947087908400E-019
 -2.880248813487335E-020
  7.615574089388787E-022
  3.014888294099675E-020
  4.620895381662423E-020
  7.417519387716184E-020
 -4.679379121380875E-020
 -3.400402197012683E-020
 -1.487038277778327E-020
  0.000000000000000E+000
 -1.204314996782235E-019
  3.383130461906784E-019
 -1.684896696552742E-020
  2.582294384312461E-019
 -2.507671713306160E-020
 -2.472688720445146E-019
 -5.480283193365631E-021
 -6.445899295019630E-021
  2.045269531750646E-020
 -2.842170943040390E-021
 -7.003398011243395E-021
 -5.760497626974697E-020
  2.766015202146499E-020
  5.095501828201166E-020
  3.732900096399461E-020
  3.365058194661843E-020
  1.165016699836946E-019
 -2.178341945280199E-019
 -2.353900415405658E-019
 -1.268300469888066E-019
  3.580588614611694E-020
  2.689859461252626E-020
 -8.145734124651789E-021
 -5.303563181611348E-021
  1.676334082774622E-019
  1.579918980158943E-019
  4.049727324958273E-020
  2.009925529399814E-020
  1.086146719136809E-019
  2.381848604991699E-019
  1.289179859003933E-020
 -2.253330885160815E-020
  3.334449390754588E-020
 -2.481798107842482E-020
  5.330901862572129E-021
  8.561856831472069E-020
 -2.086081270293675E-020
 -2.203702774319890E-019
 -1.596917328455252E-019
 -2.190111946998739E-020
 -1.417004297665890E-019
 -5.326702918978946E-020
 -2.005922868704732E-021
 -8.333389608790464E-020
 -1.895691918058960E-020
 -6.745054522403085E-020
 -2.946201619745497E-020
 -1.421085471520200E-021
 -1.921526266942988E-019
 -1.076490558120260E-019
  1.994987396320410E-020
  8.089984253029334E-020
 -8.879952852630008E-021
  8.678824310908961E-020
 -2.689859461252651E-020
 -1.857614047612015E-020
 -2.897920814662800E-020
  2.730671199795661E-020
  9.282602501867981E-020
  2.730671199795641E-020
  7.293082841739634E-020
  1.119123122265878E-019
  2.105720604621407E-019
 -5.684341886080810E-021
 -1.847411112976271E-020
  4.682112989476977E-020
  1.117829441992689E-019
  7.320957777550886E-020
  6.516587299721412E-020
  3.778447033386088E-020
  6.595280625812912E-022
 -1.525116148225288E-020
 -4.075600930421956E-020
 -3.598260615787113E-020
  1.373351440056707E-019
 -1.752489823668525E-019
 -2.097084737068458E-019
 -3.694822225952537E-020
 -1.195752383004112E-019
  0.000000000000000E+000
 -7.615574089388801E-022
 -8.714168313259898E-020
 -3.583322482707769E-020
 -7.105427357601048E-020
 -6.572337171343822E-020
 -1.005162897734645E-019
 -3.649275288965911E-020
 -6.724648653131566E-021
 -2.301611690243501E-020
  2.405642366948600E-020
 -6.110667527536887E-020
 -3.113451234612572E-020
  4.679379121380902E-020
  1.258571055096671E-020
 -2.870045878851607E-020
 -8.145734124651776E-021
  2.083894175816824E-019
 -4.552941245056755E-020
 -2.158009329783540E-019
 -6.912304137270231E-020
 -4.811284733897172E-020
  5.136313566744229E-020
  4.298600416911504E-020
 -8.089984253029315E-020
 -2.238392752081445E-020
 -9.754475080310515E-020
  7.653455676937581E-020
  5.534960555287319E-021
  3.022357360639360E-020
  7.257738839388793E-020
  9.691256142148527E-020
 -7.690264754785569E-021
 -8.259967735992599E-020
  1.185149182298860E-020
  5.389921857141012E-020
  4.867034605519550E-020
 -7.588235408427956E-021
 -2.689859461252607E-020
  1.487038277778317E-020
 -1.421085471520193E-021
  5.663936016809305E-020
 -7.577299936043758E-020
 -1.720240698903596E-020
  1.236817880066935E-019
 -3.182137908966830E-020
  7.805767158725267E-020
 -5.567374406643892E-020
 -4.679379121380926E-020
  1.142443364378399E-019
  1.523075561298135E-019
  2.669453591981114E-020
 -2.557953848736379E-020
  1.591068954483407E-020
 -6.834147066028793E-020
 -1.591342341293018E-019
  9.390099584417632E-021
 -8.628542175478754E-021
 -1.492886651750178E-019
 -6.970787876988661E-020
 -4.044992126514697E-020
 -2.634109589630250E-020
 -2.944200289397953E-021
 -2.689859461252622E-020
 -3.222949647509827E-021
 -1.248368120460903E-020
 -5.888400578795889E-021
 -1.936210641502558E-019
 -6.592743040615301E-020
  5.871997370219435E-020
 -1.062753223249417E-019
  3.486760872542365E-020
 -2.918326683934288E-020
 -8.734574182531341E-020
 -5.126843169857010E-021
 -4.034789191878942E-020
  5.227407440717487E-020
 -2.263533819796562E-020
  8.024031446771249E-020
  3.040029361814799E-020
 -2.405642366948585E-020
 -2.121425272644548E-020
  3.712494227127952E-020
  1.523114817877752E-021
  4.110944932772831E-020
  1.383007601073257E-020
  3.882477710091156E-021
 -2.131628207280318E-020
 -7.105427357601102E-021
  1.032290926891864E-019
 -2.481798107842474E-020
  2.309080756783178E-020
  3.486760872542345E-020
  1.081118505593784E-020
 -1.101524374865275E-020
  4.471317767970740E-020
 -7.445394323527360E-020
 -2.065675401022153E-020
  1.608740955658833E-020
 -2.065675401022152E-020
 -2.710265330524122E-020
 -2.603500785722958E-020
  1.344929730626303E-020
  8.907291533590592E-021
 -3.722697161763687E-020
 -1.334726795990548E-020
  1.497241212414079E-020
  1.317054794815125E-020
 -2.017394595939472E-020
 -2.311814624879252E-020
 -2.121425272644561E-020
  1.098790506769209E-020
 -1.040306767050765E-021
  1.057178236087186E-019
 -7.085021488329429E-020
  1.229749079596754E-019
 -4.603223380486985E-020
  1.801864175989632E-020
 -2.162237011187544E-020
  3.603728351979264E-021
 -4.775940731546285E-020
  0.000000000000000E+000
  0.000000000000000E+000
 -2.080613534101522E-021
 -1.060712636322267E-020
  0.000000000000000E+000
 -1.801864175989644E-021
 -1.421085471520210E-021
 -1.223227052745806E-020
 -5.930481109937860E-020
 -3.222949647509813E-021
  2.055472466386400E-020
  1.344929730626304E-020
 -1.951441789681333E-020
 -1.951441789681311E-020
  3.807787044694361E-022
 -2.182642880459047E-021
SCALARS elementIsPlast double 
LOOKUP_TABLE default
  0.000000000000000E+000
  0.000000000000000E+000
  0.000000000000000E+000
  0.000000000000000E+000
  0.000000000000000E+000
  0.000000000000000E+000
  0.000000000000000E+000
  0.000000000000000E+000
  0.000000000000000E+000
  0.000000000000000E+000
  0.000000000000000E+000
  0.000000000000000E+000
  0.000000000000000E+000
  0.000000000000000E+000
  0.000000000000000E+000
  0.000000000000000E+000
  0.000000000000000E+000
  0.000000000000000E+000
  0.000000000000000E+000
  0.000000000000000E+000
  0.000000000000000E+000
  0.000000000000000E+000
  0.000000000000000E+000
  0.000000000000000E+000
  0.000000000000000E+000
  0.000000000000000E+000
  0.000000000000000E+000
  0.000000000000000E+000
  0.000000000000000E+000
  0.000000000000000E+000
  0.000000000000000E+000
  0.000000000000000E+000
  0.000000000000000E+000
  0.000000000000000E+000
  0.000000000000000E+000
  0.000000000000000E+000
  0.000000000000000E+000
  0.000000000000000E+000
  0.000000000000000E+000
  0.000000000000000E+000
  0.000000000000000E+000
  0.000000000000000E+000
  0.000000000000000E+000
  0.000000000000000E+000
  0.000000000000000E+000
  0.000000000000000E+000
  0.000000000000000E+000
  0.000000000000000E+000
  0.000000000000000E+000
  0.000000000000000E+000
  0.000000000000000E+000
  0.000000000000000E+000
  0.000000000000000E+000
  0.000000000000000E+000
  0.000000000000000E+000
  0.000000000000000E+000
  0.000000000000000E+000
  0.000000000000000E+000
  0.000000000000000E+000
  0.000000000000000E+000
  0.000000000000000E+000
  0.000000000000000E+000
  0.000000000000000E+000
  0.000000000000000E+000
  0.000000000000000E+000
  0.000000000000000E+000
  0.000000000000000E+000
  0.000000000000000E+000
  0.000000000000000E+000
  0.000000000000000E+000
  0.000000000000000E+000
  0.000000000000000E+000
  0.000000000000000E+000
  0.000000000000000E+000
  0.000000000000000E+000
  0.000000000000000E+000
  0.000000000000000E+000
  0.000000000000000E+000
  0.000000000000000E+000
  0.000000000000000E+000
  0.000000000000000E+000
  0.000000000000000E+000
  0.000000000000000E+000
  0.000000000000000E+000
  0.000000000000000E+000
  0.000000000000000E+000
  0.000000000000000E+000
  0.000000000000000E+000
  0.000000000000000E+000
  0.000000000000000E+000
  0.000000000000000E+000
  0.000000000000000E+000
  0.000000000000000E+000
  0.000000000000000E+000
  0.000000000000000E+000
  0.000000000000000E+000
  0.000000000000000E+000
  0.000000000000000E+000
  0.000000000000000E+000
  0.000000000000000E+000
  0.000000000000000E+000
  0.000000000000000E+000
  0.000000000000000E+000
  0.000000000000000E+000
  0.000000000000000E+000
  0.000000000000000E+000
  0.000000000000000E+000
  0.000000000000000E+000
  0.000000000000000E+000
  0.000000000000000E+000
  0.000000000000000E+000
  0.000000000000000E+000
  0.000000000000000E+000
  0.000000000000000E+000
  0.000000000000000E+000
  0.000000000000000E+000
  0.000000000000000E+000
  0.000000000000000E+000
  0.000000000000000E+000
  0.000000000000000E+000
  0.000000000000000E+000
  0.000000000000000E+000
  0.000000000000000E+000
  0.000000000000000E+000
  0.000000000000000E+000
  0.000000000000000E+000
  0.000000000000000E+000
  0.000000000000000E+000
  0.000000000000000E+000
  0.000000000000000E+000
  0.000000000000000E+000
  0.000000000000000E+000
  0.000000000000000E+000
  0.000000000000000E+000
  0.000000000000000E+000
  0.000000000000000E+000
  0.000000000000000E+000
  0.000000000000000E+000
  0.000000000000000E+000
  0.000000000000000E+000
  0.000000000000000E+000
  0.000000000000000E+000
  0.000000000000000E+000
  0.000000000000000E+000
  0.000000000000000E+000
  0.000000000000000E+000
  0.000000000000000E+000
  0.000000000000000E+000
  0.000000000000000E+000
  0.000000000000000E+000
  0.000000000000000E+000
  0.000000000000000E+000
  0.000000000000000E+000
  0.000000000000000E+000
  0.000000000000000E+000
  0.000000000000000E+000
  0.000000000000000E+000
  0.000000000000000E+000
  0.000000000000000E+000
  0.000000000000000E+000
  0.000000000000000E+000
  0.000000000000000E+000
  0.000000000000000E+000
  0.000000000000000E+000
  0.000000000000000E+000
  0.000000000000000E+000
  0.000000000000000E+000
  0.000000000000000E+000
  0.000000000000000E+000
  0.000000000000000E+000
  0.000000000000000E+000
  0.000000000000000E+000
  0.000000000000000E+000
  0.000000000000000E+000
  0.000000000000000E+000
  0.000000000000000E+000
  0.000000000000000E+000
  0.000000000000000E+000
  0.000000000000000E+000
  0.000000000000000E+000
  0.000000000000000E+000
  0.000000000000000E+000
  0.000000000000000E+000
  0.000000000000000E+000
  0.000000000000000E+000
  0.000000000000000E+000
  0.000000000000000E+000
  0.000000000000000E+000
  0.000000000000000E+000
  0.000000000000000E+000
  0.000000000000000E+000
  0.000000000000000E+000
  0.000000000000000E+000
  0.000000000000000E+000
  0.000000000000000E+000
  0.000000000000000E+000
  0.000000000000000E+000
  0.000000000000000E+000
  0.000000000000000E+000
  0.000000000000000E+000
  0.000000000000000E+000
  0.000000000000000E+000
  0.000000000000000E+000
  0.000000000000000E+000
  0.000000000000000E+000
  0.000000000000000E+000
  0.000000000000000E+000
  0.000000000000000E+000
  0.000000000000000E+000
  0.000000000000000E+000
  0.000000000000000E+000
  0.000000000000000E+000
  0.000000000000000E+000
  0.000000000000000E+000
  0.000000000000000E+000
  0.000000000000000E+000
  0.000000000000000E+000
  0.000000000000000E+000
  0.000000000000000E+000
  0.000000000000000E+000
  0.000000000000000E+000
  0.000000000000000E+000
  0.000000000000000E+000
  0.000000000000000E+000
  0.000000000000000E+000
  0.000000000000000E+000
  0.000000000000000E+000
  0.000000000000000E+000
  0.000000000000000E+000
  0.000000000000000E+000
  0.000000000000000E+000
  0.000000000000000E+000
  0.000000000000000E+000
  0.000000000000000E+000
  0.000000000000000E+000
  0.000000000000000E+000
  0.000000000000000E+000
  0.000000000000000E+000
  0.000000000000000E+000
  0.000000000000000E+000
  0.000000000000000E+000
  0.000000000000000E+000
  0.000000000000000E+000
  0.000000000000000E+000
  0.000000000000000E+000
  0.000000000000000E+000
  0.000000000000000E+000
  0.000000000000000E+000
  0.000000000000000E+000
  0.000000000000000E+000
  0.000000000000000E+000
  0.000000000000000E+000
  0.000000000000000E+000
  0.000000000000000E+000
  0.000000000000000E+000
  0.000000000000000E+000
  0.000000000000000E+000
  0.000000000000000E+000
  0.000000000000000E+000
  0.000000000000000E+000
  0.000000000000000E+000
  0.000000000000000E+000
  0.000000000000000E+000
  0.000000000000000E+000
  0.000000000000000E+000
  0.000000000000000E+000
  0.000000000000000E+000
  0.000000000000000E+000
  0.000000000000000E+000
  0.000000000000000E+000
  0.000000000000000E+000
  0.000000000000000E+000
  0.000000000000000E+000
  0.000000000000000E+000
  0.000000000000000E+000
  0.000000000000000E+000
  0.000000000000000E+000
  0.000000000000000E+000
  0.000000000000000E+000
  0.000000000000000E+000
  0.000000000000000E+000
  0.000000000000000E+000
  0.000000000000000E+000
  0.000000000000000E+000
  0.000000000000000E+000
  0.000000000000000E+000
  0.000000000000000E+000
  0.000000000000000E+000
  0.000000000000000E+000
  0.000000000000000E+000
  0.000000000000000E+000
  0.000000000000000E+000
  0.000000000000000E+000
  0.000000000000000E+000
  0.000000000000000E+000
  0.000000000000000E+000
  0.000000000000000E+000
  0.000000000000000E+000
  0.000000000000000E+000
  0.000000000000000E+000
  0.000000000000000E+000
  0.000000000000000E+000
  0.000000000000000E+000
  0.000000000000000E+000
  0.000000000000000E+000
  0.000000000000000E+000
  0.000000000000000E+000
  0.000000000000000E+000
  0.000000000000000E+000
  0.000000000000000E+000
  0.000000000000000E+000
  0.000000000000000E+000
  0.000000000000000E+000
  0.000000000000000E+000
  0.000000000000000E+000
  0.000000000000000E+000
  0.000000000000000E+000
  0.000000000000000E+000
  0.000000000000000E+000
  0.000000000000000E+000
  0.000000000000000E+000
  0.000000000000000E+000
  0.000000000000000E+000
  0.000000000000000E+000
  0.000000000000000E+000
  0.000000000000000E+000
  0.000000000000000E+000
  0.000000000000000E+000
  0.000000000000000E+000
  0.000000000000000E+000
  0.000000000000000E+000
  0.000000000000000E+000
  0.000000000000000E+000
  0.000000000000000E+000
  0.000000000000000E+000
  0.000000000000000E+000
  0.000000000000000E+000
  0.000000000000000E+000
  0.000000000000000E+000
  0.000000000000000E+000
  0.000000000000000E+000
  0.000000000000000E+000
  0.000000000000000E+000
  0.000000000000000E+000
  0.000000000000000E+000
  0.000000000000000E+000
  0.000000000000000E+000
  0.000000000000000E+000
  0.000000000000000E+000
  0.000000000000000E+000
  0.000000000000000E+000
  0.000000000000000E+000
  0.000000000000000E+000
  0.000000000000000E+000
  0.000000000000000E+000
  0.000000000000000E+000
  0.000000000000000E+000
  0.000000000000000E+000
  0.000000000000000E+000
  0.000000000000000E+000
  0.000000000000000E+000
  0.000000000000000E+000
  0.000000000000000E+000
  0.000000000000000E+000
  0.000000000000000E+000
  0.000000000000000E+000
  0.000000000000000E+000
  0.000000000000000E+000
  0.000000000000000E+000
  0.000000000000000E+000
  0.000000000000000E+000
  0.000000000000000E+000
  0.000000000000000E+000
  0.000000000000000E+000
  0.000000000000000E+000
  0.000000000000000E+000
  0.000000000000000E+000
  0.000000000000000E+000
  0.000000000000000E+000
  0.000000000000000E+000
  0.000000000000000E+000
  0.000000000000000E+000
  0.000000000000000E+000
  0.000000000000000E+000
  0.000000000000000E+000
  0.000000000000000E+000
  0.000000000000000E+000
  0.000000000000000E+000
  0.000000000000000E+000
  0.000000000000000E+000
  0.000000000000000E+000
  0.000000000000000E+000
  0.000000000000000E+000
  0.000000000000000E+000
  0.000000000000000E+000
  0.000000000000000E+000
  0.000000000000000E+000
  0.000000000000000E+000
  0.000000000000000E+000
  0.000000000000000E+000
  0.000000000000000E+000
  0.000000000000000E+000
  0.000000000000000E+000
  0.000000000000000E+000
  0.000000000000000E+000
  0.000000000000000E+000
  0.000000000000000E+000
  0.000000000000000E+000
  0.000000000000000E+000
  0.000000000000000E+000
  0.000000000000000E+000
  0.000000000000000E+000
  0.000000000000000E+000
  0.000000000000000E+000
  0.000000000000000E+000
  0.000000000000000E+000
  0.000000000000000E+000
  0.000000000000000E+000
  0.000000000000000E+000
  0.000000000000000E+000
  0.000000000000000E+000
  0.000000000000000E+000
  0.000000000000000E+000
  0.000000000000000E+000
  0.000000000000000E+000
  0.000000000000000E+000
  0.000000000000000E+000
  0.000000000000000E+000
  0.000000000000000E+000
  0.000000000000000E+000
  0.000000000000000E+000
  0.000000000000000E+000
  0.000000000000000E+000
  0.000000000000000E+000
  0.000000000000000E+000
  0.000000000000000E+000
  0.000000000000000E+000
  0.000000000000000E+000
  0.000000000000000E+000
  0.000000000000000E+000
  0.000000000000000E+000
  0.000000000000000E+000
  0.000000000000000E+000
  0.000000000000000E+000
  0.000000000000000E+000
  0.000000000000000E+000
  0.000000000000000E+000
  0.000000000000000E+000
  0.000000000000000E+000
  0.000000000000000E+000
  0.000000000000000E+000
  0.000000000000000E+000
  0.000000000000000E+000
  0.000000000000000E+000
  0.000000000000000E+000
  0.000000000000000E+000
  0.000000000000000E+000
  0.000000000000000E+000
  0.000000000000000E+000
  0.000000000000000E+000
  0.000000000000000E+000
  0.000000000000000E+000
  0.000000000000000E+000
  0.000000000000000E+000
  0.000000000000000E+000
  0.000000000000000E+000
  0.000000000000000E+000
  0.000000000000000E+000
  0.000000000000000E+000
  0.000000000000000E+000
  0.000000000000000E+000
  0.000000000000000E+000
  0.000000000000000E+000
  0.000000000000000E+000
  0.000000000000000E+000
  0.000000000000000E+000
  0.000000000000000E+000
  0.000000000000000E+000
  0.000000000000000E+000
  0.000000000000000E+000
  0.000000000000000E+000
  0.000000000000000E+000
  0.000000000000000E+000
  0.000000000000000E+000
  0.000000000000000E+000
  0.000000000000000E+000
  0.000000000000000E+000
  0.000000000000000E+000
  0.000000000000000E+000
  0.000000000000000E+000
  0.000000000000000E+000
  0.000000000000000E+000
  0.000000000000000E+000
  0.000000000000000E+000
  0.000000000000000E+000
  0.000000000000000E+000
  0.000000000000000E+000
  0.000000000000000E+000
  0.000000000000000E+000
  0.000000000000000E+000
  0.000000000000000E+000
  0.000000000000000E+000
  0.000000000000000E+000
  0.000000000000000E+000
  0.000000000000000E+000
  0.000000000000000E+000
  0.000000000000000E+000
  0.000000000000000E+000
  0.000000000000000E+000
  0.000000000000000E+000
  0.000000000000000E+000
  0.000000000000000E+000
  0.000000000000000E+000
  0.000000000000000E+000
  0.000000000000000E+000
  0.000000000000000E+000
  0.000000000000000E+000
  0.000000000000000E+000
  0.000000000000000E+000
  0.000000000000000E+000
  0.000000000000000E+000
  0.000000000000000E+000
  0.000000000000000E+000
  0.000000000000000E+000
  0.000000000000000E+000
  0.000000000000000E+000
  0.000000000000000E+000
  0.000000000000000E+000
  0.000000000000000E+000
  0.000000000000000E+000
  0.000000000000000E+000
  0.000000000000000E+000
  0.000000000000000E+000
  0.000000000000000E+000
  0.000000000000000E+000
  0.000000000000000E+000
  0.000000000000000E+000
  0.000000000000000E+000
  0.000000000000000E+000
  0.000000000000000E+000
  0.000000000000000E+000
  0.000000000000000E+000
  0.000000000000000E+000
  0.000000000000000E+000
  0.000000000000000E+000
  0.000000000000000E+000
  0.000000000000000E+000
  0.000000000000000E+000
  0.000000000000000E+000
  0.000000000000000E+000
  0.000000000000000E+000
  0.000000000000000E+000
  0.000000000000000E+000
  0.000000000000000E+000
  0.000000000000000E+000
  0.000000000000000E+000
  0.000000000000000E+000
  0.000000000000000E+000
  0.000000000000000E+000
  0.000000000000000E+000
  0.000000000000000E+000
  0.000000000000000E+000
  0.000000000000000E+000
  0.000000000000000E+000
  0.000000000000000E+000
  0.000000000000000E+000
  0.000000000000000E+000
  0.000000000000000E+000
  0.000000000000000E+000
  0.000000000000000E+000
  0.000000000000000E+000
  0.000000000000000E+000
  0.000000000000000E+000
  0.000000000000000E+000
  0.000000000000000E+000
  0.000000000000000E+000
  0.000000000000000E+000
  0.000000000000000E+000
  0.000000000000000E+000
  0.000000000000000E+000
  0.000000000000000E+000
  0.000000000000000E+000
  0.000000000000000E+000
  0.000000000000000E+000
  0.000000000000000E+000
  0.000000000000000E+000
  0.000000000000000E+000
  0.000000000000000E+000
  0.000000000000000E+000
  0.000000000000000E+000
  0.000000000000000E+000
  0.000000000000000E+000
  0.000000000000000E+000
  0.000000000000000E+000
  0.000000000000000E+000
  0.000000000000000E+000
  0.000000000000000E+000
  0.000000000000000E+000
  0.000000000000000E+000
  0.000000000000000E+000
  0.000000000000000E+000
  0.000000000000000E+000
  0.000000000000000E+000
  0.000000000000000E+000
  0.000000000000000E+000
  0.000000000000000E+000
  0.000000000000000E+000
  0.000000000000000E+000
  0.000000000000000E+000
  0.000000000000000E+000
  0.000000000000000E+000
  0.000000000000000E+000
  0.000000000000000E+000
  0.000000000000000E+000
  0.000000000000000E+000
  0.000000000000000E+000
  0.000000000000000E+000
  0.000000000000000E+000
  0.000000000000000E+000
  0.000000000000000E+000
  0.000000000000000E+000
  0.000000000000000E+000
  0.000000000000000E+000
  0.000000000000000E+000
  0.000000000000000E+000
  0.000000000000000E+000
  0.000000000000000E+000
  0.000000000000000E+000
  0.000000000000000E+000
  0.000000000000000E+000
  0.000000000000000E+000
  0.000000000000000E+000
  0.000000000000000E+000
  0.000000000000000E+000
  0.000000000000000E+000
  0.000000000000000E+000
  0.000000000000000E+000
  0.000000000000000E+000
  0.000000000000000E+000
  0.000000000000000E+000
  0.000000000000000E+000
  0.000000000000000E+000
  0.000000000000000E+000
  0.000000000000000E+000
  0.000000000000000E+000
  0.000000000000000E+000
  0.000000000000000E+000
  0.000000000000000E+000
  0.000000000000000E+000
  0.000000000000000E+000
  0.000000000000000E+000
  0.000000000000000E+000
  0.000000000000000E+000
  0.000000000000000E+000
  0.000000000000000E+000
  0.000000000000000E+000
  0.000000000000000E+000
  0.000000000000000E+000
  0.000000000000000E+000
  0.000000000000000E+000
  0.000000000000000E+000
  0.000000000000000E+000
  0.000000000000000E+000
  0.000000000000000E+000
  0.000000000000000E+000
  0.000000000000000E+000
  0.000000000000000E+000
  0.000000000000000E+000
  0.000000000000000E+000
  0.000000000000000E+000
  0.000000000000000E+000
  0.000000000000000E+000
  0.000000000000000E+000
  0.000000000000000E+000
  0.000000000000000E+000
  0.000000000000000E+000
  0.000000000000000E+000
  0.000000000000000E+000
  0.000000000000000E+000
  0.000000000000000E+000
  0.000000000000000E+000
  0.000000000000000E+000
  0.000000000000000E+000
  0.000000000000000E+000
  0.000000000000000E+000
  0.000000000000000E+000
  0.000000000000000E+000
  0.000000000000000E+000
  0.000000000000000E+000
  0.000000000000000E+000
  0.000000000000000E+000
  0.000000000000000E+000
  0.000000000000000E+000
  0.000000000000000E+000
  0.000000000000000E+000
  0.000000000000000E+000
  0.000000000000000E+000
  0.000000000000000E+000
  0.000000000000000E+000
  0.000000000000000E+000
  0.000000000000000E+000
  0.000000000000000E+000
  0.000000000000000E+000
  0.000000000000000E+000
  0.000000000000000E+000
  0.000000000000000E+000
  0.000000000000000E+000
  0.000000000000000E+000
  0.000000000000000E+000
  0.000000000000000E+000
  0.000000000000000E+000
  0.000000000000000E+000
  0.000000000000000E+000
  0.000000000000000E+000
  0.000000000000000E+000
  0.000000000000000E+000
  0.000000000000000E+000
  0.000000000000000E+000
  0.000000000000000E+000
  0.000000000000000E+000
  0.000000000000000E+000
  0.000000000000000E+000
  0.000000000000000E+000
  0.000000000000000E+000
  0.000000000000000E+000
  0.000000000000000E+000
  0.000000000000000E+000
  0.000000000000000E+000
  0.000000000000000E+000
  0.000000000000000E+000
  0.000000000000000E+000
  0.000000000000000E+000
  0.000000000000000E+000
  0.000000000000000E+000
  0.000000000000000E+000
  0.000000000000000E+000
  0.000000000000000E+000
  0.000000000000000E+000
  0.000000000000000E+000
  0.000000000000000E+000
  0.000000000000000E+000
  0.000000000000000E+000
  0.000000000000000E+000
  0.000000000000000E+000
  0.000000000000000E+000
  0.000000000000000E+000
  0.000000000000000E+000
  0.000000000000000E+000
  0.000000000000000E+000
  0.000000000000000E+000
  0.000000000000000E+000
  0.000000000000000E+000
  0.000000000000000E+000
  0.000000000000000E+000
  0.000000000000000E+000
  0.000000000000000E+000
  0.000000000000000E+000
  0.000000000000000E+000
  0.000000000000000E+000
  0.000000000000000E+000
  0.000000000000000E+000
  0.000000000000000E+000
  0.000000000000000E+000
  0.000000000000000E+000
  0.000000000000000E+000
  0.000000000000000E+000
  0.000000000000000E+000
  0.000000000000000E+000
  0.000000000000000E+000
  0.000000000000000E+000
  0.000000000000000E+000
  0.000000000000000E+000
  0.000000000000000E+000
  0.000000000000000E+000
  0.000000000000000E+000
  0.000000000000000E+000
  0.000000000000000E+000
  0.000000000000000E+000
  0.000000000000000E+000
  0.000000000000000E+000
  0.000000000000000E+000
  0.000000000000000E+000
  0.000000000000000E+000
  0.000000000000000E+000
  0.000000000000000E+000
  0.000000000000000E+000
  0.000000000000000E+000
  0.000000000000000E+000
  0.000000000000000E+000
  0.000000000000000E+000
  0.000000000000000E+000
  0.000000000000000E+000
  0.000000000000000E+000
  0.000000000000000E+000
  0.000000000000000E+000
  0.000000000000000E+000
  0.000000000000000E+000
  0.000000000000000E+000
  0.000000000000000E+000
  0.000000000000000E+000
  0.000000000000000E+000
  0.000000000000000E+000
  0.000000000000000E+000
  0.000000000000000E+000
  0.000000000000000E+000
  0.000000000000000E+000
  0.000000000000000E+000
  0.000000000000000E+000
  0.000000000000000E+000
  0.000000000000000E+000
  0.000000000000000E+000
  0.000000000000000E+000
  0.000000000000000E+000
  0.000000000000000E+000
  0.000000000000000E+000
  0.000000000000000E+000
  0.000000000000000E+000
  0.000000000000000E+000
  0.000000000000000E+000
  0.000000000000000E+000
  0.000000000000000E+000
  0.000000000000000E+000
  0.000000000000000E+000
  0.000000000000000E+000
  0.000000000000000E+000
  0.000000000000000E+000
  0.000000000000000E+000
  0.000000000000000E+000
  0.000000000000000E+000
  0.000000000000000E+000
  0.000000000000000E+000
  0.000000000000000E+000
  0.000000000000000E+000
  0.000000000000000E+000
  0.000000000000000E+000
  0.000000000000000E+000
  0.000000000000000E+000
  0.000000000000000E+000
  0.000000000000000E+000
  0.000000000000000E+000
  0.000000000000000E+000
  0.000000000000000E+000
  0.000000000000000E+000
  0.000000000000000E+000
  0.000000000000000E+000
  0.000000000000000E+000
  0.000000000000000E+000
  0.000000000000000E+000
  0.000000000000000E+000
  0.000000000000000E+000
  0.000000000000000E+000
  0.000000000000000E+000
  0.000000000000000E+000
  0.000000000000000E+000
  0.000000000000000E+000
  0.000000000000000E+000
  0.000000000000000E+000
  0.000000000000000E+000
  0.000000000000000E+000
  0.000000000000000E+000
  0.000000000000000E+000
  0.000000000000000E+000
  0.000000000000000E+000
  0.000000000000000E+000
  0.000000000000000E+000
  0.000000000000000E+000
  0.000000000000000E+000
  0.000000000000000E+000
  0.000000000000000E+000
  0.000000000000000E+000
  0.000000000000000E+000
  0.000000000000000E+000
  0.000000000000000E+000
  0.000000000000000E+000
  0.000000000000000E+000
  0.000000000000000E+000
  0.000000000000000E+000
  0.000000000000000E+000
  0.000000000000000E+000
  0.000000000000000E+000
  0.000000000000000E+000
  0.000000000000000E+000
  0.000000000000000E+000
  0.000000000000000E+000
  0.000000000000000E+000
  0.000000000000000E+000
  0.000000000000000E+000
  0.000000000000000E+000
  0.000000000000000E+000
  0.000000000000000E+000
  0.000000000000000E+000
  0.000000000000000E+000
  0.000000000000000E+000
  0.000000000000000E+000
  0.000000000000000E+000
  0.000000000000000E+000
  0.000000000000000E+000
  0.000000000000000E+000
  0.000000000000000E+000
  0.000000000000000E+000
  0.000000000000000E+000
  0.000000000000000E+000
  0.000000000000000E+000
  0.000000000000000E+000
  0.000000000000000E+000
  0.000000000000000E+000
  0.000000000000000E+000
  0.000000000000000E+000
  0.000000000000000E+000
  0.000000000000000E+000
  0.000000000000000E+000
  0.000000000000000E+000
  0.000000000000000E+000
  0.000000000000000E+000
  0.000000000000000E+000
  0.000000000000000E+000
  0.000000000000000E+000
  0.000000000000000E+000
  0.000000000000000E+000
  0.000000000000000E+000
  0.000000000000000E+000
  0.000000000000000E+000
  0.000000000000000E+000
  0.000000000000000E+000
  0.000000000000000E+000
  0.000000000000000E+000
  0.000000000000000E+000
  0.000000000000000E+000
  0.000000000000000E+000
  0.000000000000000E+000
  0.000000000000000E+000
  0.000000000000000E+000
  0.000000000000000E+000
  0.000000000000000E+000
  0.000000000000000E+000
  0.000000000000000E+000
  0.000000000000000E+000
  0.000000000000000E+000
  0.000000000000000E+000
  0.000000000000000E+000
  0.000000000000000E+000
  0.000000000000000E+000
  0.000000000000000E+000
  0.000000000000000E+000
  0.000000000000000E+000
  0.000000000000000E+000
  0.000000000000000E+000
  0.000000000000000E+000
  0.000000000000000E+000
  0.000000000000000E+000
  0.000000000000000E+000
  0.000000000000000E+000
  0.000000000000000E+000
  0.000000000000000E+000
  0.000000000000000E+000
  0.000000000000000E+000
  0.000000000000000E+000
  0.000000000000000E+000
  0.000000000000000E+000
  0.000000000000000E+000
  0.000000000000000E+000
  0.000000000000000E+000
  0.000000000000000E+000
  0.000000000000000E+000
  0.000000000000000E+000
  0.000000000000000E+000
  0.000000000000000E+000
  0.000000000000000E+000
  0.000000000000000E+000
  0.000000000000000E+000
  0.000000000000000E+000
  0.000000000000000E+000
  0.000000000000000E+000
  0.000000000000000E+000
  0.000000000000000E+000
  0.000000000000000E+000
  0.000000000000000E+000
  0.000000000000000E+000
  0.000000000000000E+000
  0.000000000000000E+000
  0.000000000000000E+000
  0.000000000000000E+000
  0.000000000000000E+000
  0.000000000000000E+000
  0.000000000000000E+000
  0.000000000000000E+000
  0.000000000000000E+000
  0.000000000000000E+000
  0.000000000000000E+000
  0.000000000000000E+000
  0.000000000000000E+000
  0.000000000000000E+000
  0.000000000000000E+000
  0.000000000000000E+000
  0.000000000000000E+000
  0.000000000000000E+000
  0.000000000000000E+000
  0.000000000000000E+000
  0.000000000000000E+000
  0.000000000000000E+000
  0.000000000000000E+000
  0.000000000000000E+000
  0.000000000000000E+000
  0.000000000000000E+000
  0.000000000000000E+000
  0.000000000000000E+000
  0.000000000000000E+000
  0.000000000000000E+000
  0.000000000000000E+000
  0.000000000000000E+000
  0.000000000000000E+000
  0.000000000000000E+000
  0.000000000000000E+000
  0.000000000000000E+000
  0.000000000000000E+000
  0.000000000000000E+000
  0.000000000000000E+000
  0.000000000000000E+000
  0.000000000000000E+000
  0.000000000000000E+000
  0.000000000000000E+000
  0.000000000000000E+000
  0.000000000000000E+000
  0.000000000000000E+000
  0.000000000000000E+000
  0.000000000000000E+000
  0.000000000000000E+000
  0.000000000000000E+000
  0.000000000000000E+000
  0.000000000000000E+000
  0.000000000000000E+000
  0.000000000000000E+000
  0.000000000000000E+000
  0.000000000000000E+000
  0.000000000000000E+000
  0.000000000000000E+000
  0.000000000000000E+000
  0.000000000000000E+000
  0.000000000000000E+000
  0.000000000000000E+000
  0.000000000000000E+000
  0.000000000000000E+000
  0.000000000000000E+000
  0.000000000000000E+000
  0.000000000000000E+000
  0.000000000000000E+000
  0.000000000000000E+000
  0.000000000000000E+000
  0.000000000000000E+000
  0.000000000000000E+000
  0.000000000000000E+000
  0.000000000000000E+000
  0.000000000000000E+000
  0.000000000000000E+000
  0.000000000000000E+000
  0.000000000000000E+000
  0.000000000000000E+000
  0.000000000000000E+000
  0.000000000000000E+000
  0.000000000000000E+000
  0.000000000000000E+000
  0.000000000000000E+000
  0.000000000000000E+000
  0.000000000000000E+000
  0.000000000000000E+000
  0.000000000000000E+000
  0.000000000000000E+000
  0.000000000000000E+000
  0.000000000000000E+000
  0.000000000000000E+000
  0.000000000000000E+000
  0.000000000000000E+000
  0.000000000000000E+000
  0.000000000000000E+000
  0.000000000000000E+000
  0.000000000000000E+000
  0.000000000000000E+000
  0.000000000000000E+000
  0.000000000000000E+000
  0.000000000000000E+000
  0.000000000000000E+000
  0.000000000000000E+000
  0.000000000000000E+000
  0.000000000000000E+000
  0.000000000000000E+000
  0.000000000000000E+000
  0.000000000000000E+000
  0.000000000000000E+000
  0.000000000000000E+000
  0.000000000000000E+000
  0.000000000000000E+000
  0.000000000000000E+000
  0.000000000000000E+000
  0.000000000000000E+000
  0.000000000000000E+000
  0.000000000000000E+000
  0.000000000000000E+000
  0.000000000000000E+000
  0.000000000000000E+000
  0.000000000000000E+000
  0.000000000000000E+000
  0.000000000000000E+000
  0.000000000000000E+000
  0.000000000000000E+000
  0.000000000000000E+000
  0.000000000000000E+000
  0.000000000000000E+000
  0.000000000000000E+000
  0.000000000000000E+000
  0.000000000000000E+000
  0.000000000000000E+000
  0.000000000000000E+000
  0.000000000000000E+000
  0.000000000000000E+000
  0.000000000000000E+000
  0.000000000000000E+000
  0.000000000000000E+000
  0.000000000000000E+000
  0.000000000000000E+000
  0.000000000000000E+000
  0.000000000000000E+000
  0.000000000000000E+000
  0.000000000000000E+000
  0.000000000000000E+000
  0.000000000000000E+000
  0.000000000000000E+000
  0.000000000000000E+000
  0.000000000000000E+000
  0.000000000000000E+000
  0.000000000000000E+000
  0.000000000000000E+000
  0.000000000000000E+000
  0.000000000000000E+000
  0.000000000000000E+000
  0.000000000000000E+000
  0.000000000000000E+000
  0.000000000000000E+000
  0.000000000000000E+000
  0.000000000000000E+000
  0.000000000000000E+000
  0.000000000000000E+000
  0.000000000000000E+000
  0.000000000000000E+000
  0.000000000000000E+000
  0.000000000000000E+000
  0.000000000000000E+000
  0.000000000000000E+000
  0.000000000000000E+000
  0.000000000000000E+000
  0.000000000000000E+000
  0.000000000000000E+000
  0.000000000000000E+000
