# vtk DataFile Version 3.0
vtk output
ASCII
DATASET UNSTRUCTURED_GRID
POINTS      1225 double 
  0.00000000E+00  2.40000000E+01  0.00000000E+00
  0.00000000E+00  2.30000000E+01  0.00000000E+00
  0.00000000E+00  2.20000000E+01  0.00000000E+00
  0.00000000E+00  2.10000000E+01  0.00000000E+00
  0.00000000E+00  2.00000000E+01  0.00000000E+00
  0.00000000E+00  1.90000000E+01  0.00000000E+00
  0.00000000E+00  1.80000000E+01  0.00000000E+00
  0.00000000E+00  1.70000000E+01  0.00000000E+00
  0.00000000E+00  1.60000000E+01  0.00000000E+00
  0.00000000E+00  1.50000000E+01  0.00000000E+00
  0.00000000E+00  1.40000000E+01  0.00000000E+00
  0.00000000E+00  1.30000000E+01  0.00000000E+00
  0.00000000E+00  1.20000000E+01  0.00000000E+00
  0.00000000E+00  1.10000000E+01  0.00000000E+00
  0.00000000E+00  1.00000000E+01  0.00000000E+00
  0.00000000E+00  9.00000000E+00  0.00000000E+00
  0.00000000E+00  8.00000000E+00  0.00000000E+00
  0.00000000E+00  7.00000000E+00  0.00000000E+00
  0.00000000E+00  6.00000000E+00  0.00000000E+00
  0.00000000E+00  5.00000000E+00  0.00000000E+00
  0.00000000E+00  4.00000000E+00  0.00000000E+00
  0.00000000E+00  3.00000000E+00  0.00000000E+00
  0.00000000E+00  2.00000000E+00  0.00000000E+00
  0.00000000E+00  1.00000000E+00  0.00000000E+00
  0.00000000E+00 -2.66453526E-15  0.00000000E+00
  1.00000000E+00  2.40000000E+01  0.00000000E+00
  1.00000000E+00  2.30000000E+01  0.00000000E+00
  1.00000000E+00  2.20000000E+01  0.00000000E+00
  1.00000000E+00  2.10000000E+01  0.00000000E+00
  1.00000000E+00  2.00000000E+01  0.00000000E+00
  1.00000000E+00  1.90000000E+01  0.00000000E+00
  1.00000000E+00  1.80000000E+01  0.00000000E+00
  1.00000000E+00  1.70000000E+01  0.00000000E+00
  1.00000000E+00  1.60000000E+01  0.00000000E+00
  1.00000000E+00  1.50000000E+01  0.00000000E+00
  1.00000000E+00  1.40000000E+01  0.00000000E+00
  1.00000000E+00  1.30000000E+01  0.00000000E+00
  1.00000000E+00  1.20000000E+01  0.00000000E+00
  1.00000000E+00  1.10000000E+01  0.00000000E+00
  1.00000000E+00  1.00000000E+01  0.00000000E+00
  1.00000000E+00  9.00000000E+00  0.00000000E+00
  1.00000000E+00  8.00000000E+00  0.00000000E+00
  1.00000000E+00  7.00000000E+00  0.00000000E+00
  1.00000000E+00  6.00000000E+00  0.00000000E+00
  1.00000000E+00  5.00000000E+00  0.00000000E+00
  1.00000000E+00  4.00000000E+00  0.00000000E+00
  1.00000000E+00  3.00000000E+00  0.00000000E+00
  1.00000000E+00  2.00000000E+00  0.00000000E+00
  1.00000000E+00  1.00000000E+00  0.00000000E+00
  1.00000000E+00 -2.66453526E-15  0.00000000E+00
  2.00000000E+00  2.40000000E+01  0.00000000E+00
  2.00000000E+00  2.30000000E+01  0.00000000E+00
  2.00000000E+00  2.20000000E+01  0.00000000E+00
  2.00000000E+00  2.10000000E+01  0.00000000E+00
  2.00000000E+00  2.00000000E+01  0.00000000E+00
  2.00000000E+00  1.90000000E+01  0.00000000E+00
  2.00000000E+00  1.80000000E+01  0.00000000E+00
  2.00000000E+00  1.70000000E+01  0.00000000E+00
  2.00000000E+00  1.60000000E+01  0.00000000E+00
  2.00000000E+00  1.50000000E+01  0.00000000E+00
  2.00000000E+00  1.40000000E+01  0.00000000E+00
  2.00000000E+00  1.30000000E+01  0.00000000E+00
  2.00000000E+00  1.20000000E+01  0.00000000E+00
  2.00000000E+00  1.10000000E+01  0.00000000E+00
  2.00000000E+00  1.00000000E+01  0.00000000E+00
  2.00000000E+00  9.00000000E+00  0.00000000E+00
  2.00000000E+00  8.00000000E+00  0.00000000E+00
  2.00000000E+00  7.00000000E+00  0.00000000E+00
  2.00000000E+00  6.00000000E+00  0.00000000E+00
  2.00000000E+00  5.00000000E+00  0.00000000E+00
  2.00000000E+00  4.00000000E+00  0.00000000E+00
  2.00000000E+00  3.00000000E+00  0.00000000E+00
  2.00000000E+00  2.00000000E+00  0.00000000E+00
  2.00000000E+00  1.00000000E+00  0.00000000E+00
  2.00000000E+00 -2.66453526E-15  0.00000000E+00
  3.00000000E+00  2.40000000E+01  0.00000000E+00
  3.00000000E+00  2.30000000E+01  0.00000000E+00
  3.00000000E+00  2.20000000E+01  0.00000000E+00
  3.00000000E+00  2.10000000E+01  0.00000000E+00
  3.00000000E+00  2.00000000E+01  0.00000000E+00
  3.00000000E+00  1.90000000E+01  0.00000000E+00
  3.00000000E+00  1.80000000E+01  0.00000000E+00
  3.00000000E+00  1.70000000E+01  0.00000000E+00
  3.00000000E+00  1.60000000E+01  0.00000000E+00
  3.00000000E+00  1.50000000E+01  0.00000000E+00
  3.00000000E+00  1.40000000E+01  0.00000000E+00
  3.00000000E+00  1.30000000E+01  0.00000000E+00
  3.00000000E+00  1.20000000E+01  0.00000000E+00
  3.00000000E+00  1.10000000E+01  0.00000000E+00
  3.00000000E+00  1.00000000E+01  0.00000000E+00
  3.00000000E+00  9.00000000E+00  0.00000000E+00
  3.00000000E+00  8.00000000E+00  0.00000000E+00
  3.00000000E+00  7.00000000E+00  0.00000000E+00
  3.00000000E+00  6.00000000E+00  0.00000000E+00
  3.00000000E+00  5.00000000E+00  0.00000000E+00
  3.00000000E+00  4.00000000E+00  0.00000000E+00
  3.00000000E+00  3.00000000E+00  0.00000000E+00
  3.00000000E+00  2.00000000E+00  0.00000000E+00
  3.00000000E+00  1.00000000E+00  0.00000000E+00
  3.00000000E+00 -2.66453526E-15  0.00000000E+00
  4.00000000E+00  2.40000000E+01  0.00000000E+00
  4.00000000E+00  2.30000000E+01  0.00000000E+00
  4.00000000E+00  2.20000000E+01  0.00000000E+00
  4.00000000E+00  2.10000000E+01  0.00000000E+00
  4.00000000E+00  2.00000000E+01  0.00000000E+00
  4.00000000E+00  1.90000000E+01  0.00000000E+00
  4.00000000E+00  1.80000000E+01  0.00000000E+00
  4.00000000E+00  1.70000000E+01  0.00000000E+00
  4.00000000E+00  1.60000000E+01  0.00000000E+00
  4.00000000E+00  1.50000000E+01  0.00000000E+00
  4.00000000E+00  1.40000000E+01  0.00000000E+00
  4.00000000E+00  1.30000000E+01  0.00000000E+00
  4.00000000E+00  1.20000000E+01  0.00000000E+00
  4.00000000E+00  1.10000000E+01  0.00000000E+00
  4.00000000E+00  1.00000000E+01  0.00000000E+00
  4.00000000E+00  9.00000000E+00  0.00000000E+00
  4.00000000E+00  8.00000000E+00  0.00000000E+00
  4.00000000E+00  7.00000000E+00  0.00000000E+00
  4.00000000E+00  6.00000000E+00  0.00000000E+00
  4.00000000E+00  5.00000000E+00  0.00000000E+00
  4.00000000E+00  4.00000000E+00  0.00000000E+00
  4.00000000E+00  3.00000000E+00  0.00000000E+00
  4.00000000E+00  2.00000000E+00  0.00000000E+00
  4.00000000E+00  1.00000000E+00  0.00000000E+00
  4.00000000E+00 -2.66453526E-15  0.00000000E+00
  5.00000000E+00  2.40000000E+01  0.00000000E+00
  5.00000000E+00  2.30000000E+01  0.00000000E+00
  5.00000000E+00  2.20000000E+01  0.00000000E+00
  5.00000000E+00  2.10000000E+01  0.00000000E+00
  5.00000000E+00  2.00000000E+01  0.00000000E+00
  5.00000000E+00  1.90000000E+01  0.00000000E+00
  5.00000000E+00  1.80000000E+01  0.00000000E+00
  5.00000000E+00  1.70000000E+01  0.00000000E+00
  5.00000000E+00  1.60000000E+01  0.00000000E+00
  5.00000000E+00  1.50000000E+01  0.00000000E+00
  5.00000000E+00  1.40000000E+01  0.00000000E+00
  5.00000000E+00  1.30000000E+01  0.00000000E+00
  5.00000000E+00  1.20000000E+01  0.00000000E+00
  5.00000000E+00  1.10000000E+01  0.00000000E+00
  5.00000000E+00  1.00000000E+01  0.00000000E+00
  5.00000000E+00  9.00000000E+00  0.00000000E+00
  5.00000000E+00  8.00000000E+00  0.00000000E+00
  5.00000000E+00  7.00000000E+00  0.00000000E+00
  5.00000000E+00  6.00000000E+00  0.00000000E+00
  5.00000000E+00  5.00000000E+00  0.00000000E+00
  5.00000000E+00  4.00000000E+00  0.00000000E+00
  5.00000000E+00  3.00000000E+00  0.00000000E+00
  5.00000000E+00  2.00000000E+00  0.00000000E+00
  5.00000000E+00  1.00000000E+00  0.00000000E+00
  5.00000000E+00 -2.66453526E-15  0.00000000E+00
  6.00000000E+00  2.40000000E+01  0.00000000E+00
  6.00000000E+00  2.30000000E+01  0.00000000E+00
  6.00000000E+00  2.20000000E+01  0.00000000E+00
  6.00000000E+00  2.10000000E+01  0.00000000E+00
  6.00000000E+00  2.00000000E+01  0.00000000E+00
  6.00000000E+00  1.90000000E+01  0.00000000E+00
  6.00000000E+00  1.80000000E+01  0.00000000E+00
  6.00000000E+00  1.70000000E+01  0.00000000E+00
  6.00000000E+00  1.60000000E+01  0.00000000E+00
  6.00000000E+00  1.50000000E+01  0.00000000E+00
  6.00000000E+00  1.40000000E+01  0.00000000E+00
  6.00000000E+00  1.30000000E+01  0.00000000E+00
  6.00000000E+00  1.20000000E+01  0.00000000E+00
  6.00000000E+00  1.10000000E+01  0.00000000E+00
  6.00000000E+00  1.00000000E+01  0.00000000E+00
  6.00000000E+00  9.00000000E+00  0.00000000E+00
  6.00000000E+00  8.00000000E+00  0.00000000E+00
  6.00000000E+00  7.00000000E+00  0.00000000E+00
  6.00000000E+00  6.00000000E+00  0.00000000E+00
  6.00000000E+00  5.00000000E+00  0.00000000E+00
  6.00000000E+00  4.00000000E+00  0.00000000E+00
  6.00000000E+00  3.00000000E+00  0.00000000E+00
  6.00000000E+00  2.00000000E+00  0.00000000E+00
  6.00000000E+00  1.00000000E+00  0.00000000E+00
  6.00000000E+00 -2.66453526E-15  0.00000000E+00
  7.00000000E+00  2.40000000E+01  0.00000000E+00
  7.00000000E+00  2.30000000E+01  0.00000000E+00
  7.00000000E+00  2.20000000E+01  0.00000000E+00
  7.00000000E+00  2.10000000E+01  0.00000000E+00
  7.00000000E+00  2.00000000E+01  0.00000000E+00
  7.00000000E+00  1.90000000E+01  0.00000000E+00
  7.00000000E+00  1.80000000E+01  0.00000000E+00
  7.00000000E+00  1.70000000E+01  0.00000000E+00
  7.00000000E+00  1.60000000E+01  0.00000000E+00
  7.00000000E+00  1.50000000E+01  0.00000000E+00
  7.00000000E+00  1.40000000E+01  0.00000000E+00
  7.00000000E+00  1.30000000E+01  0.00000000E+00
  7.00000000E+00  1.20000000E+01  0.00000000E+00
  7.00000000E+00  1.10000000E+01  0.00000000E+00
  7.00000000E+00  1.00000000E+01  0.00000000E+00
  7.00000000E+00  9.00000000E+00  0.00000000E+00
  7.00000000E+00  8.00000000E+00  0.00000000E+00
  7.00000000E+00  7.00000000E+00  0.00000000E+00
  7.00000000E+00  6.00000000E+00  0.00000000E+00
  7.00000000E+00  5.00000000E+00  0.00000000E+00
  7.00000000E+00  4.00000000E+00  0.00000000E+00
  7.00000000E+00  3.00000000E+00  0.00000000E+00
  7.00000000E+00  2.00000000E+00  0.00000000E+00
  7.00000000E+00  1.00000000E+00  0.00000000E+00
  7.00000000E+00 -2.66453526E-15  0.00000000E+00
  8.00000000E+00  2.40000000E+01  0.00000000E+00
  8.00000000E+00  2.30000000E+01  0.00000000E+00
  8.00000000E+00  2.20000000E+01  0.00000000E+00
  8.00000000E+00  2.10000000E+01  0.00000000E+00
  8.00000000E+00  2.00000000E+01  0.00000000E+00
  8.00000000E+00  1.90000000E+01  0.00000000E+00
  8.00000000E+00  1.80000000E+01  0.00000000E+00
  8.00000000E+00  1.70000000E+01  0.00000000E+00
  8.00000000E+00  1.60000000E+01  0.00000000E+00
  8.00000000E+00  1.50000000E+01  0.00000000E+00
  8.00000000E+00  1.40000000E+01  0.00000000E+00
  8.00000000E+00  1.30000000E+01  0.00000000E+00
  8.00000000E+00  1.20000000E+01  0.00000000E+00
  8.00000000E+00  1.10000000E+01  0.00000000E+00
  8.00000000E+00  1.00000000E+01  0.00000000E+00
  8.00000000E+00  9.00000000E+00  0.00000000E+00
  8.00000000E+00  8.00000000E+00  0.00000000E+00
  8.00000000E+00  7.00000000E+00  0.00000000E+00
  8.00000000E+00  6.00000000E+00  0.00000000E+00
  8.00000000E+00  5.00000000E+00  0.00000000E+00
  8.00000000E+00  4.00000000E+00  0.00000000E+00
  8.00000000E+00  3.00000000E+00  0.00000000E+00
  8.00000000E+00  2.00000000E+00  0.00000000E+00
  8.00000000E+00  1.00000000E+00  0.00000000E+00
  8.00000000E+00 -2.66453526E-15  0.00000000E+00
  9.00000000E+00  2.40000000E+01  0.00000000E+00
  9.00000000E+00  2.30000000E+01  0.00000000E+00
  9.00000000E+00  2.20000000E+01  0.00000000E+00
  9.00000000E+00  2.10000000E+01  0.00000000E+00
  9.00000000E+00  2.00000000E+01  0.00000000E+00
  9.00000000E+00  1.90000000E+01  0.00000000E+00
  9.00000000E+00  1.80000000E+01  0.00000000E+00
  9.00000000E+00  1.70000000E+01  0.00000000E+00
  9.00000000E+00  1.60000000E+01  0.00000000E+00
  9.00000000E+00  1.50000000E+01  0.00000000E+00
  9.00000000E+00  1.40000000E+01  0.00000000E+00
  9.00000000E+00  1.30000000E+01  0.00000000E+00
  9.00000000E+00  1.20000000E+01  0.00000000E+00
  9.00000000E+00  1.10000000E+01  0.00000000E+00
  9.00000000E+00  1.00000000E+01  0.00000000E+00
  9.00000000E+00  9.00000000E+00  0.00000000E+00
  9.00000000E+00  8.00000000E+00  0.00000000E+00
  9.00000000E+00  7.00000000E+00  0.00000000E+00
  9.00000000E+00  6.00000000E+00  0.00000000E+00
  9.00000000E+00  5.00000000E+00  0.00000000E+00
  9.00000000E+00  4.00000000E+00  0.00000000E+00
  9.00000000E+00  3.00000000E+00  0.00000000E+00
  9.00000000E+00  2.00000000E+00  0.00000000E+00
  9.00000000E+00  1.00000000E+00  0.00000000E+00
  9.00000000E+00 -2.66453526E-15  0.00000000E+00
  1.00000000E+01  2.40000000E+01  0.00000000E+00
  1.00000000E+01  2.30000000E+01  0.00000000E+00
  1.00000000E+01  2.20000000E+01  0.00000000E+00
  1.00000000E+01  2.10000000E+01  0.00000000E+00
  1.00000000E+01  2.00000000E+01  0.00000000E+00
  1.00000000E+01  1.90000000E+01  0.00000000E+00
  1.00000000E+01  1.80000000E+01  0.00000000E+00
  1.00000000E+01  1.70000000E+01  0.00000000E+00
  1.00000000E+01  1.60000000E+01  0.00000000E+00
  1.00000000E+01  1.50000000E+01  0.00000000E+00
  1.00000000E+01  1.40000000E+01  0.00000000E+00
  1.00000000E+01  1.30000000E+01  0.00000000E+00
  1.00000000E+01  1.20000000E+01  0.00000000E+00
  1.00000000E+01  1.10000000E+01  0.00000000E+00
  1.00000000E+01  1.00000000E+01  0.00000000E+00
  1.00000000E+01  9.00000000E+00  0.00000000E+00
  1.00000000E+01  8.00000000E+00  0.00000000E+00
  1.00000000E+01  7.00000000E+00  0.00000000E+00
  1.00000000E+01  6.00000000E+00  0.00000000E+00
  1.00000000E+01  5.00000000E+00  0.00000000E+00
  1.00000000E+01  4.00000000E+00  0.00000000E+00
  1.00000000E+01  3.00000000E+00  0.00000000E+00
  1.00000000E+01  2.00000000E+00  0.00000000E+00
  1.00000000E+01  1.00000000E+00  0.00000000E+00
  1.00000000E+01 -2.66453526E-15  0.00000000E+00
  1.10000000E+01  2.40000000E+01  0.00000000E+00
  1.10000000E+01  2.30000000E+01  0.00000000E+00
  1.10000000E+01  2.20000000E+01  0.00000000E+00
  1.10000000E+01  2.10000000E+01  0.00000000E+00
  1.10000000E+01  2.00000000E+01  0.00000000E+00
  1.10000000E+01  1.90000000E+01  0.00000000E+00
  1.10000000E+01  1.80000000E+01  0.00000000E+00
  1.10000000E+01  1.70000000E+01  0.00000000E+00
  1.10000000E+01  1.60000000E+01  0.00000000E+00
  1.10000000E+01  1.50000000E+01  0.00000000E+00
  1.10000000E+01  1.40000000E+01  0.00000000E+00
  1.10000000E+01  1.30000000E+01  0.00000000E+00
  1.10000000E+01  1.20000000E+01  0.00000000E+00
  1.10000000E+01  1.10000000E+01  0.00000000E+00
  1.10000000E+01  1.00000000E+01  0.00000000E+00
  1.10000000E+01  9.00000000E+00  0.00000000E+00
  1.10000000E+01  8.00000000E+00  0.00000000E+00
  1.10000000E+01  7.00000000E+00  0.00000000E+00
  1.10000000E+01  6.00000000E+00  0.00000000E+00
  1.10000000E+01  5.00000000E+00  0.00000000E+00
  1.10000000E+01  4.00000000E+00  0.00000000E+00
  1.10000000E+01  3.00000000E+00  0.00000000E+00
  1.10000000E+01  2.00000000E+00  0.00000000E+00
  1.10000000E+01  1.00000000E+00  0.00000000E+00
  1.10000000E+01 -2.66453526E-15  0.00000000E+00
  1.20000000E+01  2.40000000E+01  0.00000000E+00
  1.20000000E+01  2.30000000E+01  0.00000000E+00
  1.20000000E+01  2.20000000E+01  0.00000000E+00
  1.20000000E+01  2.10000000E+01  0.00000000E+00
  1.20000000E+01  2.00000000E+01  0.00000000E+00
  1.20000000E+01  1.90000000E+01  0.00000000E+00
  1.20000000E+01  1.80000000E+01  0.00000000E+00
  1.20000000E+01  1.70000000E+01  0.00000000E+00
  1.20000000E+01  1.60000000E+01  0.00000000E+00
  1.20000000E+01  1.50000000E+01  0.00000000E+00
  1.20000000E+01  1.40000000E+01  0.00000000E+00
  1.20000000E+01  1.30000000E+01  0.00000000E+00
  1.20000000E+01  1.20000000E+01  0.00000000E+00
  1.20000000E+01  1.10000000E+01  0.00000000E+00
  1.20000000E+01  1.00000000E+01  0.00000000E+00
  1.20000000E+01  9.00000000E+00  0.00000000E+00
  1.20000000E+01  8.00000000E+00  0.00000000E+00
  1.20000000E+01  7.00000000E+00  0.00000000E+00
  1.20000000E+01  6.00000000E+00  0.00000000E+00
  1.20000000E+01  5.00000000E+00  0.00000000E+00
  1.20000000E+01  4.00000000E+00  0.00000000E+00
  1.20000000E+01  3.00000000E+00  0.00000000E+00
  1.20000000E+01  2.00000000E+00  0.00000000E+00
  1.20000000E+01  1.00000000E+00  0.00000000E+00
  1.20000000E+01 -2.66453526E-15  0.00000000E+00
  1.30000000E+01  2.40000000E+01  0.00000000E+00
  1.30000000E+01  2.30000000E+01  0.00000000E+00
  1.30000000E+01  2.20000000E+01  0.00000000E+00
  1.30000000E+01  2.10000000E+01  0.00000000E+00
  1.30000000E+01  2.00000000E+01  0.00000000E+00
  1.30000000E+01  1.90000000E+01  0.00000000E+00
  1.30000000E+01  1.80000000E+01  0.00000000E+00
  1.30000000E+01  1.70000000E+01  0.00000000E+00
  1.30000000E+01  1.60000000E+01  0.00000000E+00
  1.30000000E+01  1.50000000E+01  0.00000000E+00
  1.30000000E+01  1.40000000E+01  0.00000000E+00
  1.30000000E+01  1.30000000E+01  0.00000000E+00
  1.30000000E+01  1.20000000E+01  0.00000000E+00
  1.30000000E+01  1.10000000E+01  0.00000000E+00
  1.30000000E+01  1.00000000E+01  0.00000000E+00
  1.30000000E+01  9.00000000E+00  0.00000000E+00
  1.30000000E+01  8.00000000E+00  0.00000000E+00
  1.30000000E+01  7.00000000E+00  0.00000000E+00
  1.30000000E+01  6.00000000E+00  0.00000000E+00
  1.30000000E+01  5.00000000E+00  0.00000000E+00
  1.30000000E+01  4.00000000E+00  0.00000000E+00
  1.30000000E+01  3.00000000E+00  0.00000000E+00
  1.30000000E+01  2.00000000E+00  0.00000000E+00
  1.30000000E+01  1.00000000E+00  0.00000000E+00
  1.30000000E+01 -2.66453526E-15  0.00000000E+00
  1.40000000E+01  2.40000000E+01  0.00000000E+00
  1.40000000E+01  2.30000000E+01  0.00000000E+00
  1.40000000E+01  2.20000000E+01  0.00000000E+00
  1.40000000E+01  2.10000000E+01  0.00000000E+00
  1.40000000E+01  2.00000000E+01  0.00000000E+00
  1.40000000E+01  1.90000000E+01  0.00000000E+00
  1.40000000E+01  1.80000000E+01  0.00000000E+00
  1.40000000E+01  1.70000000E+01  0.00000000E+00
  1.40000000E+01  1.60000000E+01  0.00000000E+00
  1.40000000E+01  1.50000000E+01  0.00000000E+00
  1.40000000E+01  1.40000000E+01  0.00000000E+00
  1.40000000E+01  1.30000000E+01  0.00000000E+00
  1.40000000E+01  1.20000000E+01  0.00000000E+00
  1.40000000E+01  1.10000000E+01  0.00000000E+00
  1.40000000E+01  1.00000000E+01  0.00000000E+00
  1.40000000E+01  9.00000000E+00  0.00000000E+00
  1.40000000E+01  8.00000000E+00  0.00000000E+00
  1.40000000E+01  7.00000000E+00  0.00000000E+00
  1.40000000E+01  6.00000000E+00  0.00000000E+00
  1.40000000E+01  5.00000000E+00  0.00000000E+00
  1.40000000E+01  4.00000000E+00  0.00000000E+00
  1.40000000E+01  3.00000000E+00  0.00000000E+00
  1.40000000E+01  2.00000000E+00  0.00000000E+00
  1.40000000E+01  1.00000000E+00  0.00000000E+00
  1.40000000E+01 -2.66453526E-15  0.00000000E+00
  1.50000000E+01  2.40000000E+01  0.00000000E+00
  1.50000000E+01  2.30000000E+01  0.00000000E+00
  1.50000000E+01  2.20000000E+01  0.00000000E+00
  1.50000000E+01  2.10000000E+01  0.00000000E+00
  1.50000000E+01  2.00000000E+01  0.00000000E+00
  1.50000000E+01  1.90000000E+01  0.00000000E+00
  1.50000000E+01  1.80000000E+01  0.00000000E+00
  1.50000000E+01  1.70000000E+01  0.00000000E+00
  1.50000000E+01  1.60000000E+01  0.00000000E+00
  1.50000000E+01  1.50000000E+01  0.00000000E+00
  1.50000000E+01  1.40000000E+01  0.00000000E+00
  1.50000000E+01  1.30000000E+01  0.00000000E+00
  1.50000000E+01  1.20000000E+01  0.00000000E+00
  1.50000000E+01  1.10000000E+01  0.00000000E+00
  1.50000000E+01  1.00000000E+01  0.00000000E+00
  1.50000000E+01  9.00000000E+00  0.00000000E+00
  1.50000000E+01  8.00000000E+00  0.00000000E+00
  1.50000000E+01  7.00000000E+00  0.00000000E+00
  1.50000000E+01  6.00000000E+00  0.00000000E+00
  1.50000000E+01  5.00000000E+00  0.00000000E+00
  1.50000000E+01  4.00000000E+00  0.00000000E+00
  1.50000000E+01  3.00000000E+00  0.00000000E+00
  1.50000000E+01  2.00000000E+00  0.00000000E+00
  1.50000000E+01  1.00000000E+00  0.00000000E+00
  1.50000000E+01 -2.66453526E-15  0.00000000E+00
  1.60000000E+01  2.40000000E+01  0.00000000E+00
  1.60000000E+01  2.30000000E+01  0.00000000E+00
  1.60000000E+01  2.20000000E+01  0.00000000E+00
  1.60000000E+01  2.10000000E+01  0.00000000E+00
  1.60000000E+01  2.00000000E+01  0.00000000E+00
  1.60000000E+01  1.90000000E+01  0.00000000E+00
  1.60000000E+01  1.80000000E+01  0.00000000E+00
  1.60000000E+01  1.70000000E+01  0.00000000E+00
  1.60000000E+01  1.60000000E+01  0.00000000E+00
  1.60000000E+01  1.50000000E+01  0.00000000E+00
  1.60000000E+01  1.40000000E+01  0.00000000E+00
  1.60000000E+01  1.30000000E+01  0.00000000E+00
  1.60000000E+01  1.20000000E+01  0.00000000E+00
  1.60000000E+01  1.10000000E+01  0.00000000E+00
  1.60000000E+01  1.00000000E+01  0.00000000E+00
  1.60000000E+01  9.00000000E+00  0.00000000E+00
  1.60000000E+01  8.00000000E+00  0.00000000E+00
  1.60000000E+01  7.00000000E+00  0.00000000E+00
  1.60000000E+01  6.00000000E+00  0.00000000E+00
  1.60000000E+01  5.00000000E+00  0.00000000E+00
  1.60000000E+01  4.00000000E+00  0.00000000E+00
  1.60000000E+01  3.00000000E+00  0.00000000E+00
  1.60000000E+01  2.00000000E+00  0.00000000E+00
  1.60000000E+01  1.00000000E+00  0.00000000E+00
  1.60000000E+01 -2.66453526E-15  0.00000000E+00
  1.70000000E+01  2.40000000E+01  0.00000000E+00
  1.70000000E+01  2.30000000E+01  0.00000000E+00
  1.70000000E+01  2.20000000E+01  0.00000000E+00
  1.70000000E+01  2.10000000E+01  0.00000000E+00
  1.70000000E+01  2.00000000E+01  0.00000000E+00
  1.70000000E+01  1.90000000E+01  0.00000000E+00
  1.70000000E+01  1.80000000E+01  0.00000000E+00
  1.70000000E+01  1.70000000E+01  0.00000000E+00
  1.70000000E+01  1.60000000E+01  0.00000000E+00
  1.70000000E+01  1.50000000E+01  0.00000000E+00
  1.70000000E+01  1.40000000E+01  0.00000000E+00
  1.70000000E+01  1.30000000E+01  0.00000000E+00
  1.70000000E+01  1.20000000E+01  0.00000000E+00
  1.70000000E+01  1.10000000E+01  0.00000000E+00
  1.70000000E+01  1.00000000E+01  0.00000000E+00
  1.70000000E+01  9.00000000E+00  0.00000000E+00
  1.70000000E+01  8.00000000E+00  0.00000000E+00
  1.70000000E+01  7.00000000E+00  0.00000000E+00
  1.70000000E+01  6.00000000E+00  0.00000000E+00
  1.70000000E+01  5.00000000E+00  0.00000000E+00
  1.70000000E+01  4.00000000E+00  0.00000000E+00
  1.70000000E+01  3.00000000E+00  0.00000000E+00
  1.70000000E+01  2.00000000E+00  0.00000000E+00
  1.70000000E+01  1.00000000E+00  0.00000000E+00
  1.70000000E+01 -2.66453526E-15  0.00000000E+00
  1.80000000E+01  2.40000000E+01  0.00000000E+00
  1.80000000E+01  2.30000000E+01  0.00000000E+00
  1.80000000E+01  2.20000000E+01  0.00000000E+00
  1.80000000E+01  2.10000000E+01  0.00000000E+00
  1.80000000E+01  2.00000000E+01  0.00000000E+00
  1.80000000E+01  1.90000000E+01  0.00000000E+00
  1.80000000E+01  1.80000000E+01  0.00000000E+00
  1.80000000E+01  1.70000000E+01  0.00000000E+00
  1.80000000E+01  1.60000000E+01  0.00000000E+00
  1.80000000E+01  1.50000000E+01  0.00000000E+00
  1.80000000E+01  1.40000000E+01  0.00000000E+00
  1.80000000E+01  1.30000000E+01  0.00000000E+00
  1.80000000E+01  1.20000000E+01  0.00000000E+00
  1.80000000E+01  1.10000000E+01  0.00000000E+00
  1.80000000E+01  1.00000000E+01  0.00000000E+00
  1.80000000E+01  9.00000000E+00  0.00000000E+00
  1.80000000E+01  8.00000000E+00  0.00000000E+00
  1.80000000E+01  7.00000000E+00  0.00000000E+00
  1.80000000E+01  6.00000000E+00  0.00000000E+00
  1.80000000E+01  5.00000000E+00  0.00000000E+00
  1.80000000E+01  4.00000000E+00  0.00000000E+00
  1.80000000E+01  3.00000000E+00  0.00000000E+00
  1.80000000E+01  2.00000000E+00  0.00000000E+00
  1.80000000E+01  1.00000000E+00  0.00000000E+00
  1.80000000E+01 -2.66453526E-15  0.00000000E+00
  1.90000000E+01  2.40000000E+01  0.00000000E+00
  1.90000000E+01  2.30000000E+01  0.00000000E+00
  1.90000000E+01  2.20000000E+01  0.00000000E+00
  1.90000000E+01  2.10000000E+01  0.00000000E+00
  1.90000000E+01  2.00000000E+01  0.00000000E+00
  1.90000000E+01  1.90000000E+01  0.00000000E+00
  1.90000000E+01  1.80000000E+01  0.00000000E+00
  1.90000000E+01  1.70000000E+01  0.00000000E+00
  1.90000000E+01  1.60000000E+01  0.00000000E+00
  1.90000000E+01  1.50000000E+01  0.00000000E+00
  1.90000000E+01  1.40000000E+01  0.00000000E+00
  1.90000000E+01  1.30000000E+01  0.00000000E+00
  1.90000000E+01  1.20000000E+01  0.00000000E+00
  1.90000000E+01  1.10000000E+01  0.00000000E+00
  1.90000000E+01  1.00000000E+01  0.00000000E+00
  1.90000000E+01  9.00000000E+00  0.00000000E+00
  1.90000000E+01  8.00000000E+00  0.00000000E+00
  1.90000000E+01  7.00000000E+00  0.00000000E+00
  1.90000000E+01  6.00000000E+00  0.00000000E+00
  1.90000000E+01  5.00000000E+00  0.00000000E+00
  1.90000000E+01  4.00000000E+00  0.00000000E+00
  1.90000000E+01  3.00000000E+00  0.00000000E+00
  1.90000000E+01  2.00000000E+00  0.00000000E+00
  1.90000000E+01  1.00000000E+00  0.00000000E+00
  1.90000000E+01 -2.66453526E-15  0.00000000E+00
  2.00000000E+01  2.40000000E+01  0.00000000E+00
  2.00000000E+01  2.30000000E+01  0.00000000E+00
  2.00000000E+01  2.20000000E+01  0.00000000E+00
  2.00000000E+01  2.10000000E+01  0.00000000E+00
  2.00000000E+01  2.00000000E+01  0.00000000E+00
  2.00000000E+01  1.90000000E+01  0.00000000E+00
  2.00000000E+01  1.80000000E+01  0.00000000E+00
  2.00000000E+01  1.70000000E+01  0.00000000E+00
  2.00000000E+01  1.60000000E+01  0.00000000E+00
  2.00000000E+01  1.50000000E+01  0.00000000E+00
  2.00000000E+01  1.40000000E+01  0.00000000E+00
  2.00000000E+01  1.30000000E+01  0.00000000E+00
  2.00000000E+01  1.20000000E+01  0.00000000E+00
  2.00000000E+01  1.10000000E+01  0.00000000E+00
  2.00000000E+01  1.00000000E+01  0.00000000E+00
  2.00000000E+01  9.00000000E+00  0.00000000E+00
  2.00000000E+01  8.00000000E+00  0.00000000E+00
  2.00000000E+01  7.00000000E+00  0.00000000E+00
  2.00000000E+01  6.00000000E+00  0.00000000E+00
  2.00000000E+01  5.00000000E+00  0.00000000E+00
  2.00000000E+01  4.00000000E+00  0.00000000E+00
  2.00000000E+01  3.00000000E+00  0.00000000E+00
  2.00000000E+01  2.00000000E+00  0.00000000E+00
  2.00000000E+01  1.00000000E+00  0.00000000E+00
  2.00000000E+01 -2.66453526E-15  0.00000000E+00
  2.10000000E+01  2.40000000E+01  0.00000000E+00
  2.10000000E+01  2.30000000E+01  0.00000000E+00
  2.10000000E+01  2.20000000E+01  0.00000000E+00
  2.10000000E+01  2.10000000E+01  0.00000000E+00
  2.10000000E+01  2.00000000E+01  0.00000000E+00
  2.10000000E+01  1.90000000E+01  0.00000000E+00
  2.10000000E+01  1.80000000E+01  0.00000000E+00
  2.10000000E+01  1.70000000E+01  0.00000000E+00
  2.10000000E+01  1.60000000E+01  0.00000000E+00
  2.10000000E+01  1.50000000E+01  0.00000000E+00
  2.10000000E+01  1.40000000E+01  0.00000000E+00
  2.10000000E+01  1.30000000E+01  0.00000000E+00
  2.10000000E+01  1.20000000E+01  0.00000000E+00
  2.10000000E+01  1.10000000E+01  0.00000000E+00
  2.10000000E+01  1.00000000E+01  0.00000000E+00
  2.10000000E+01  9.00000000E+00  0.00000000E+00
  2.10000000E+01  8.00000000E+00  0.00000000E+00
  2.10000000E+01  7.00000000E+00  0.00000000E+00
  2.10000000E+01  6.00000000E+00  0.00000000E+00
  2.10000000E+01  5.00000000E+00  0.00000000E+00
  2.10000000E+01  4.00000000E+00  0.00000000E+00
  2.10000000E+01  3.00000000E+00  0.00000000E+00
  2.10000000E+01  2.00000000E+00  0.00000000E+00
  2.10000000E+01  1.00000000E+00  0.00000000E+00
  2.10000000E+01 -2.66453526E-15  0.00000000E+00
  2.20000000E+01  2.40000000E+01  0.00000000E+00
  2.20000000E+01  2.30000000E+01  0.00000000E+00
  2.20000000E+01  2.20000000E+01  0.00000000E+00
  2.20000000E+01  2.10000000E+01  0.00000000E+00
  2.20000000E+01  2.00000000E+01  0.00000000E+00
  2.20000000E+01  1.90000000E+01  0.00000000E+00
  2.20000000E+01  1.80000000E+01  0.00000000E+00
  2.20000000E+01  1.70000000E+01  0.00000000E+00
  2.20000000E+01  1.60000000E+01  0.00000000E+00
  2.20000000E+01  1.50000000E+01  0.00000000E+00
  2.20000000E+01  1.40000000E+01  0.00000000E+00
  2.20000000E+01  1.30000000E+01  0.00000000E+00
  2.20000000E+01  1.20000000E+01  0.00000000E+00
  2.20000000E+01  1.10000000E+01  0.00000000E+00
  2.20000000E+01  1.00000000E+01  0.00000000E+00
  2.20000000E+01  9.00000000E+00  0.00000000E+00
  2.20000000E+01  8.00000000E+00  0.00000000E+00
  2.20000000E+01  7.00000000E+00  0.00000000E+00
  2.20000000E+01  6.00000000E+00  0.00000000E+00
  2.20000000E+01  5.00000000E+00  0.00000000E+00
  2.20000000E+01  4.00000000E+00  0.00000000E+00
  2.20000000E+01  3.00000000E+00  0.00000000E+00
  2.20000000E+01  2.00000000E+00  0.00000000E+00
  2.20000000E+01  1.00000000E+00  0.00000000E+00
  2.20000000E+01 -2.66453526E-15  0.00000000E+00
  2.30000000E+01  2.40000000E+01  0.00000000E+00
  2.30000000E+01  2.30000000E+01  0.00000000E+00
  2.30000000E+01  2.20000000E+01  0.00000000E+00
  2.30000000E+01  2.10000000E+01  0.00000000E+00
  2.30000000E+01  2.00000000E+01  0.00000000E+00
  2.30000000E+01  1.90000000E+01  0.00000000E+00
  2.30000000E+01  1.80000000E+01  0.00000000E+00
  2.30000000E+01  1.70000000E+01  0.00000000E+00
  2.30000000E+01  1.60000000E+01  0.00000000E+00
  2.30000000E+01  1.50000000E+01  0.00000000E+00
  2.30000000E+01  1.40000000E+01  0.00000000E+00
  2.30000000E+01  1.30000000E+01  0.00000000E+00
  2.30000000E+01  1.20000000E+01  0.00000000E+00
  2.30000000E+01  1.10000000E+01  0.00000000E+00
  2.30000000E+01  1.00000000E+01  0.00000000E+00
  2.30000000E+01  9.00000000E+00  0.00000000E+00
  2.30000000E+01  8.00000000E+00  0.00000000E+00
  2.30000000E+01  7.00000000E+00  0.00000000E+00
  2.30000000E+01  6.00000000E+00  0.00000000E+00
  2.30000000E+01  5.00000000E+00  0.00000000E+00
  2.30000000E+01  4.00000000E+00  0.00000000E+00
  2.30000000E+01  3.00000000E+00  0.00000000E+00
  2.30000000E+01  2.00000000E+00  0.00000000E+00
  2.30000000E+01  1.00000000E+00  0.00000000E+00
  2.30000000E+01 -2.66453526E-15  0.00000000E+00
  2.40000000E+01  2.40000000E+01  0.00000000E+00
  2.40000000E+01  2.30000000E+01  0.00000000E+00
  2.40000000E+01  2.20000000E+01  0.00000000E+00
  2.40000000E+01  2.10000000E+01  0.00000000E+00
  2.40000000E+01  2.00000000E+01  0.00000000E+00
  2.40000000E+01  1.90000000E+01  0.00000000E+00
  2.40000000E+01  1.80000000E+01  0.00000000E+00
  2.40000000E+01  1.70000000E+01  0.00000000E+00
  2.40000000E+01  1.60000000E+01  0.00000000E+00
  2.40000000E+01  1.50000000E+01  0.00000000E+00
  2.40000000E+01  1.40000000E+01  0.00000000E+00
  2.40000000E+01  1.30000000E+01  0.00000000E+00
  2.40000000E+01  1.20000000E+01  0.00000000E+00
  2.40000000E+01  1.10000000E+01  0.00000000E+00
  2.40000000E+01  1.00000000E+01  0.00000000E+00
  2.40000000E+01  9.00000000E+00  0.00000000E+00
  2.40000000E+01  8.00000000E+00  0.00000000E+00
  2.40000000E+01  7.00000000E+00  0.00000000E+00
  2.40000000E+01  6.00000000E+00  0.00000000E+00
  2.40000000E+01  5.00000000E+00  0.00000000E+00
  2.40000000E+01  4.00000000E+00  0.00000000E+00
  2.40000000E+01  3.00000000E+00  0.00000000E+00
  2.40000000E+01  2.00000000E+00  0.00000000E+00
  2.40000000E+01  1.00000000E+00  0.00000000E+00
  2.40000000E+01 -2.66453526E-15  0.00000000E+00
  2.50000000E+01  2.40000000E+01  0.00000000E+00
  2.50000000E+01  2.30000000E+01  0.00000000E+00
  2.50000000E+01  2.20000000E+01  0.00000000E+00
  2.50000000E+01  2.10000000E+01  0.00000000E+00
  2.50000000E+01  2.00000000E+01  0.00000000E+00
  2.50000000E+01  1.90000000E+01  0.00000000E+00
  2.50000000E+01  1.80000000E+01  0.00000000E+00
  2.50000000E+01  1.70000000E+01  0.00000000E+00
  2.50000000E+01  1.60000000E+01  0.00000000E+00
  2.50000000E+01  1.50000000E+01  0.00000000E+00
  2.50000000E+01  1.40000000E+01  0.00000000E+00
  2.50000000E+01  1.30000000E+01  0.00000000E+00
  2.50000000E+01  1.20000000E+01  0.00000000E+00
  2.50000000E+01  1.10000000E+01  0.00000000E+00
  2.50000000E+01  1.00000000E+01  0.00000000E+00
  2.50000000E+01  9.00000000E+00  0.00000000E+00
  2.50000000E+01  8.00000000E+00  0.00000000E+00
  2.50000000E+01  7.00000000E+00  0.00000000E+00
  2.50000000E+01  6.00000000E+00  0.00000000E+00
  2.50000000E+01  5.00000000E+00  0.00000000E+00
  2.50000000E+01  4.00000000E+00  0.00000000E+00
  2.50000000E+01  3.00000000E+00  0.00000000E+00
  2.50000000E+01  2.00000000E+00  0.00000000E+00
  2.50000000E+01  1.00000000E+00  0.00000000E+00
  2.50000000E+01 -2.66453526E-15  0.00000000E+00
  2.60000000E+01  2.40000000E+01  0.00000000E+00
  2.60000000E+01  2.30000000E+01  0.00000000E+00
  2.60000000E+01  2.20000000E+01  0.00000000E+00
  2.60000000E+01  2.10000000E+01  0.00000000E+00
  2.60000000E+01  2.00000000E+01  0.00000000E+00
  2.60000000E+01  1.90000000E+01  0.00000000E+00
  2.60000000E+01  1.80000000E+01  0.00000000E+00
  2.60000000E+01  1.70000000E+01  0.00000000E+00
  2.60000000E+01  1.60000000E+01  0.00000000E+00
  2.60000000E+01  1.50000000E+01  0.00000000E+00
  2.60000000E+01  1.40000000E+01  0.00000000E+00
  2.60000000E+01  1.30000000E+01  0.00000000E+00
  2.60000000E+01  1.20000000E+01  0.00000000E+00
  2.60000000E+01  1.10000000E+01  0.00000000E+00
  2.60000000E+01  1.00000000E+01  0.00000000E+00
  2.60000000E+01  9.00000000E+00  0.00000000E+00
  2.60000000E+01  8.00000000E+00  0.00000000E+00
  2.60000000E+01  7.00000000E+00  0.00000000E+00
  2.60000000E+01  6.00000000E+00  0.00000000E+00
  2.60000000E+01  5.00000000E+00  0.00000000E+00
  2.60000000E+01  4.00000000E+00  0.00000000E+00
  2.60000000E+01  3.00000000E+00  0.00000000E+00
  2.60000000E+01  2.00000000E+00  0.00000000E+00
  2.60000000E+01  1.00000000E+00  0.00000000E+00
  2.60000000E+01 -2.66453526E-15  0.00000000E+00
  2.70000000E+01  2.40000000E+01  0.00000000E+00
  2.70000000E+01  2.30000000E+01  0.00000000E+00
  2.70000000E+01  2.20000000E+01  0.00000000E+00
  2.70000000E+01  2.10000000E+01  0.00000000E+00
  2.70000000E+01  2.00000000E+01  0.00000000E+00
  2.70000000E+01  1.90000000E+01  0.00000000E+00
  2.70000000E+01  1.80000000E+01  0.00000000E+00
  2.70000000E+01  1.70000000E+01  0.00000000E+00
  2.70000000E+01  1.60000000E+01  0.00000000E+00
  2.70000000E+01  1.50000000E+01  0.00000000E+00
  2.70000000E+01  1.40000000E+01  0.00000000E+00
  2.70000000E+01  1.30000000E+01  0.00000000E+00
  2.70000000E+01  1.20000000E+01  0.00000000E+00
  2.70000000E+01  1.10000000E+01  0.00000000E+00
  2.70000000E+01  1.00000000E+01  0.00000000E+00
  2.70000000E+01  9.00000000E+00  0.00000000E+00
  2.70000000E+01  8.00000000E+00  0.00000000E+00
  2.70000000E+01  7.00000000E+00  0.00000000E+00
  2.70000000E+01  6.00000000E+00  0.00000000E+00
  2.70000000E+01  5.00000000E+00  0.00000000E+00
  2.70000000E+01  4.00000000E+00  0.00000000E+00
  2.70000000E+01  3.00000000E+00  0.00000000E+00
  2.70000000E+01  2.00000000E+00  0.00000000E+00
  2.70000000E+01  1.00000000E+00  0.00000000E+00
  2.70000000E+01 -2.66453526E-15  0.00000000E+00
  2.80000000E+01  2.40000000E+01  0.00000000E+00
  2.80000000E+01  2.30000000E+01  0.00000000E+00
  2.80000000E+01  2.20000000E+01  0.00000000E+00
  2.80000000E+01  2.10000000E+01  0.00000000E+00
  2.80000000E+01  2.00000000E+01  0.00000000E+00
  2.80000000E+01  1.90000000E+01  0.00000000E+00
  2.80000000E+01  1.80000000E+01  0.00000000E+00
  2.80000000E+01  1.70000000E+01  0.00000000E+00
  2.80000000E+01  1.60000000E+01  0.00000000E+00
  2.80000000E+01  1.50000000E+01  0.00000000E+00
  2.80000000E+01  1.40000000E+01  0.00000000E+00
  2.80000000E+01  1.30000000E+01  0.00000000E+00
  2.80000000E+01  1.20000000E+01  0.00000000E+00
  2.80000000E+01  1.10000000E+01  0.00000000E+00
  2.80000000E+01  1.00000000E+01  0.00000000E+00
  2.80000000E+01  9.00000000E+00  0.00000000E+00
  2.80000000E+01  8.00000000E+00  0.00000000E+00
  2.80000000E+01  7.00000000E+00  0.00000000E+00
  2.80000000E+01  6.00000000E+00  0.00000000E+00
  2.80000000E+01  5.00000000E+00  0.00000000E+00
  2.80000000E+01  4.00000000E+00  0.00000000E+00
  2.80000000E+01  3.00000000E+00  0.00000000E+00
  2.80000000E+01  2.00000000E+00  0.00000000E+00
  2.80000000E+01  1.00000000E+00  0.00000000E+00
  2.80000000E+01 -2.66453526E-15  0.00000000E+00
  2.90000000E+01  2.40000000E+01  0.00000000E+00
  2.90000000E+01  2.30000000E+01  0.00000000E+00
  2.90000000E+01  2.20000000E+01  0.00000000E+00
  2.90000000E+01  2.10000000E+01  0.00000000E+00
  2.90000000E+01  2.00000000E+01  0.00000000E+00
  2.90000000E+01  1.90000000E+01  0.00000000E+00
  2.90000000E+01  1.80000000E+01  0.00000000E+00
  2.90000000E+01  1.70000000E+01  0.00000000E+00
  2.90000000E+01  1.60000000E+01  0.00000000E+00
  2.90000000E+01  1.50000000E+01  0.00000000E+00
  2.90000000E+01  1.40000000E+01  0.00000000E+00
  2.90000000E+01  1.30000000E+01  0.00000000E+00
  2.90000000E+01  1.20000000E+01  0.00000000E+00
  2.90000000E+01  1.10000000E+01  0.00000000E+00
  2.90000000E+01  1.00000000E+01  0.00000000E+00
  2.90000000E+01  9.00000000E+00  0.00000000E+00
  2.90000000E+01  8.00000000E+00  0.00000000E+00
  2.90000000E+01  7.00000000E+00  0.00000000E+00
  2.90000000E+01  6.00000000E+00  0.00000000E+00
  2.90000000E+01  5.00000000E+00  0.00000000E+00
  2.90000000E+01  4.00000000E+00  0.00000000E+00
  2.90000000E+01  3.00000000E+00  0.00000000E+00
  2.90000000E+01  2.00000000E+00  0.00000000E+00
  2.90000000E+01  1.00000000E+00  0.00000000E+00
  2.90000000E+01 -2.66453526E-15  0.00000000E+00
  3.00000000E+01  2.40000000E+01  0.00000000E+00
  3.00000000E+01  2.30000000E+01  0.00000000E+00
  3.00000000E+01  2.20000000E+01  0.00000000E+00
  3.00000000E+01  2.10000000E+01  0.00000000E+00
  3.00000000E+01  2.00000000E+01  0.00000000E+00
  3.00000000E+01  1.90000000E+01  0.00000000E+00
  3.00000000E+01  1.80000000E+01  0.00000000E+00
  3.00000000E+01  1.70000000E+01  0.00000000E+00
  3.00000000E+01  1.60000000E+01  0.00000000E+00
  3.00000000E+01  1.50000000E+01  0.00000000E+00
  3.00000000E+01  1.40000000E+01  0.00000000E+00
  3.00000000E+01  1.30000000E+01  0.00000000E+00
  3.00000000E+01  1.20000000E+01  0.00000000E+00
  3.00000000E+01  1.10000000E+01  0.00000000E+00
  3.00000000E+01  1.00000000E+01  0.00000000E+00
  3.00000000E+01  9.00000000E+00  0.00000000E+00
  3.00000000E+01  8.00000000E+00  0.00000000E+00
  3.00000000E+01  7.00000000E+00  0.00000000E+00
  3.00000000E+01  6.00000000E+00  0.00000000E+00
  3.00000000E+01  5.00000000E+00  0.00000000E+00
  3.00000000E+01  4.00000000E+00  0.00000000E+00
  3.00000000E+01  3.00000000E+00  0.00000000E+00
  3.00000000E+01  2.00000000E+00  0.00000000E+00
  3.00000000E+01  1.00000000E+00  0.00000000E+00
  3.00000000E+01 -2.66453526E-15  0.00000000E+00
  3.10000000E+01  2.40000000E+01  0.00000000E+00
  3.10000000E+01  2.30000000E+01  0.00000000E+00
  3.10000000E+01  2.20000000E+01  0.00000000E+00
  3.10000000E+01  2.10000000E+01  0.00000000E+00
  3.10000000E+01  2.00000000E+01  0.00000000E+00
  3.10000000E+01  1.90000000E+01  0.00000000E+00
  3.10000000E+01  1.80000000E+01  0.00000000E+00
  3.10000000E+01  1.70000000E+01  0.00000000E+00
  3.10000000E+01  1.60000000E+01  0.00000000E+00
  3.10000000E+01  1.50000000E+01  0.00000000E+00
  3.10000000E+01  1.40000000E+01  0.00000000E+00
  3.10000000E+01  1.30000000E+01  0.00000000E+00
  3.10000000E+01  1.20000000E+01  0.00000000E+00
  3.10000000E+01  1.10000000E+01  0.00000000E+00
  3.10000000E+01  1.00000000E+01  0.00000000E+00
  3.10000000E+01  9.00000000E+00  0.00000000E+00
  3.10000000E+01  8.00000000E+00  0.00000000E+00
  3.10000000E+01  7.00000000E+00  0.00000000E+00
  3.10000000E+01  6.00000000E+00  0.00000000E+00
  3.10000000E+01  5.00000000E+00  0.00000000E+00
  3.10000000E+01  4.00000000E+00  0.00000000E+00
  3.10000000E+01  3.00000000E+00  0.00000000E+00
  3.10000000E+01  2.00000000E+00  0.00000000E+00
  3.10000000E+01  1.00000000E+00  0.00000000E+00
  3.10000000E+01 -2.66453526E-15  0.00000000E+00
  3.20000000E+01  2.40000000E+01  0.00000000E+00
  3.20000000E+01  2.30000000E+01  0.00000000E+00
  3.20000000E+01  2.20000000E+01  0.00000000E+00
  3.20000000E+01  2.10000000E+01  0.00000000E+00
  3.20000000E+01  2.00000000E+01  0.00000000E+00
  3.20000000E+01  1.90000000E+01  0.00000000E+00
  3.20000000E+01  1.80000000E+01  0.00000000E+00
  3.20000000E+01  1.70000000E+01  0.00000000E+00
  3.20000000E+01  1.60000000E+01  0.00000000E+00
  3.20000000E+01  1.50000000E+01  0.00000000E+00
  3.20000000E+01  1.40000000E+01  0.00000000E+00
  3.20000000E+01  1.30000000E+01  0.00000000E+00
  3.20000000E+01  1.20000000E+01  0.00000000E+00
  3.20000000E+01  1.10000000E+01  0.00000000E+00
  3.20000000E+01  1.00000000E+01  0.00000000E+00
  3.20000000E+01  9.00000000E+00  0.00000000E+00
  3.20000000E+01  8.00000000E+00  0.00000000E+00
  3.20000000E+01  7.00000000E+00  0.00000000E+00
  3.20000000E+01  6.00000000E+00  0.00000000E+00
  3.20000000E+01  5.00000000E+00  0.00000000E+00
  3.20000000E+01  4.00000000E+00  0.00000000E+00
  3.20000000E+01  3.00000000E+00  0.00000000E+00
  3.20000000E+01  2.00000000E+00  0.00000000E+00
  3.20000000E+01  1.00000000E+00  0.00000000E+00
  3.20000000E+01 -2.66453526E-15  0.00000000E+00
  3.30000000E+01  2.40000000E+01  0.00000000E+00
  3.30000000E+01  2.30000000E+01  0.00000000E+00
  3.30000000E+01  2.20000000E+01  0.00000000E+00
  3.30000000E+01  2.10000000E+01  0.00000000E+00
  3.30000000E+01  2.00000000E+01  0.00000000E+00
  3.30000000E+01  1.90000000E+01  0.00000000E+00
  3.30000000E+01  1.80000000E+01  0.00000000E+00
  3.30000000E+01  1.70000000E+01  0.00000000E+00
  3.30000000E+01  1.60000000E+01  0.00000000E+00
  3.30000000E+01  1.50000000E+01  0.00000000E+00
  3.30000000E+01  1.40000000E+01  0.00000000E+00
  3.30000000E+01  1.30000000E+01  0.00000000E+00
  3.30000000E+01  1.20000000E+01  0.00000000E+00
  3.30000000E+01  1.10000000E+01  0.00000000E+00
  3.30000000E+01  1.00000000E+01  0.00000000E+00
  3.30000000E+01  9.00000000E+00  0.00000000E+00
  3.30000000E+01  8.00000000E+00  0.00000000E+00
  3.30000000E+01  7.00000000E+00  0.00000000E+00
  3.30000000E+01  6.00000000E+00  0.00000000E+00
  3.30000000E+01  5.00000000E+00  0.00000000E+00
  3.30000000E+01  4.00000000E+00  0.00000000E+00
  3.30000000E+01  3.00000000E+00  0.00000000E+00
  3.30000000E+01  2.00000000E+00  0.00000000E+00
  3.30000000E+01  1.00000000E+00  0.00000000E+00
  3.30000000E+01 -2.66453526E-15  0.00000000E+00
  3.40000000E+01  2.40000000E+01  0.00000000E+00
  3.40000000E+01  2.30000000E+01  0.00000000E+00
  3.40000000E+01  2.20000000E+01  0.00000000E+00
  3.40000000E+01  2.10000000E+01  0.00000000E+00
  3.40000000E+01  2.00000000E+01  0.00000000E+00
  3.40000000E+01  1.90000000E+01  0.00000000E+00
  3.40000000E+01  1.80000000E+01  0.00000000E+00
  3.40000000E+01  1.70000000E+01  0.00000000E+00
  3.40000000E+01  1.60000000E+01  0.00000000E+00
  3.40000000E+01  1.50000000E+01  0.00000000E+00
  3.40000000E+01  1.40000000E+01  0.00000000E+00
  3.40000000E+01  1.30000000E+01  0.00000000E+00
  3.40000000E+01  1.20000000E+01  0.00000000E+00
  3.40000000E+01  1.10000000E+01  0.00000000E+00
  3.40000000E+01  1.00000000E+01  0.00000000E+00
  3.40000000E+01  9.00000000E+00  0.00000000E+00
  3.40000000E+01  8.00000000E+00  0.00000000E+00
  3.40000000E+01  7.00000000E+00  0.00000000E+00
  3.40000000E+01  6.00000000E+00  0.00000000E+00
  3.40000000E+01  5.00000000E+00  0.00000000E+00
  3.40000000E+01  4.00000000E+00  0.00000000E+00
  3.40000000E+01  3.00000000E+00  0.00000000E+00
  3.40000000E+01  2.00000000E+00  0.00000000E+00
  3.40000000E+01  1.00000000E+00  0.00000000E+00
  3.40000000E+01 -2.66453526E-15  0.00000000E+00
  3.50000000E+01  2.40000000E+01  0.00000000E+00
  3.50000000E+01  2.30000000E+01  0.00000000E+00
  3.50000000E+01  2.20000000E+01  0.00000000E+00
  3.50000000E+01  2.10000000E+01  0.00000000E+00
  3.50000000E+01  2.00000000E+01  0.00000000E+00
  3.50000000E+01  1.90000000E+01  0.00000000E+00
  3.50000000E+01  1.80000000E+01  0.00000000E+00
  3.50000000E+01  1.70000000E+01  0.00000000E+00
  3.50000000E+01  1.60000000E+01  0.00000000E+00
  3.50000000E+01  1.50000000E+01  0.00000000E+00
  3.50000000E+01  1.40000000E+01  0.00000000E+00
  3.50000000E+01  1.30000000E+01  0.00000000E+00
  3.50000000E+01  1.20000000E+01  0.00000000E+00
  3.50000000E+01  1.10000000E+01  0.00000000E+00
  3.50000000E+01  1.00000000E+01  0.00000000E+00
  3.50000000E+01  9.00000000E+00  0.00000000E+00
  3.50000000E+01  8.00000000E+00  0.00000000E+00
  3.50000000E+01  7.00000000E+00  0.00000000E+00
  3.50000000E+01  6.00000000E+00  0.00000000E+00
  3.50000000E+01  5.00000000E+00  0.00000000E+00
  3.50000000E+01  4.00000000E+00  0.00000000E+00
  3.50000000E+01  3.00000000E+00  0.00000000E+00
  3.50000000E+01  2.00000000E+00  0.00000000E+00
  3.50000000E+01  1.00000000E+00  0.00000000E+00
  3.50000000E+01 -2.66453526E-15  0.00000000E+00
  3.60000000E+01  2.40000000E+01  0.00000000E+00
  3.60000000E+01  2.30000000E+01  0.00000000E+00
  3.60000000E+01  2.20000000E+01  0.00000000E+00
  3.60000000E+01  2.10000000E+01  0.00000000E+00
  3.60000000E+01  2.00000000E+01  0.00000000E+00
  3.60000000E+01  1.90000000E+01  0.00000000E+00
  3.60000000E+01  1.80000000E+01  0.00000000E+00
  3.60000000E+01  1.70000000E+01  0.00000000E+00
  3.60000000E+01  1.60000000E+01  0.00000000E+00
  3.60000000E+01  1.50000000E+01  0.00000000E+00
  3.60000000E+01  1.40000000E+01  0.00000000E+00
  3.60000000E+01  1.30000000E+01  0.00000000E+00
  3.60000000E+01  1.20000000E+01  0.00000000E+00
  3.60000000E+01  1.10000000E+01  0.00000000E+00
  3.60000000E+01  1.00000000E+01  0.00000000E+00
  3.60000000E+01  9.00000000E+00  0.00000000E+00
  3.60000000E+01  8.00000000E+00  0.00000000E+00
  3.60000000E+01  7.00000000E+00  0.00000000E+00
  3.60000000E+01  6.00000000E+00  0.00000000E+00
  3.60000000E+01  5.00000000E+00  0.00000000E+00
  3.60000000E+01  4.00000000E+00  0.00000000E+00
  3.60000000E+01  3.00000000E+00  0.00000000E+00
  3.60000000E+01  2.00000000E+00  0.00000000E+00
  3.60000000E+01  1.00000000E+00  0.00000000E+00
  3.60000000E+01 -2.66453526E-15  0.00000000E+00
  3.70000000E+01  2.40000000E+01  0.00000000E+00
  3.70000000E+01  2.30000000E+01  0.00000000E+00
  3.70000000E+01  2.20000000E+01  0.00000000E+00
  3.70000000E+01  2.10000000E+01  0.00000000E+00
  3.70000000E+01  2.00000000E+01  0.00000000E+00
  3.70000000E+01  1.90000000E+01  0.00000000E+00
  3.70000000E+01  1.80000000E+01  0.00000000E+00
  3.70000000E+01  1.70000000E+01  0.00000000E+00
  3.70000000E+01  1.60000000E+01  0.00000000E+00
  3.70000000E+01  1.50000000E+01  0.00000000E+00
  3.70000000E+01  1.40000000E+01  0.00000000E+00
  3.70000000E+01  1.30000000E+01  0.00000000E+00
  3.70000000E+01  1.20000000E+01  0.00000000E+00
  3.70000000E+01  1.10000000E+01  0.00000000E+00
  3.70000000E+01  1.00000000E+01  0.00000000E+00
  3.70000000E+01  9.00000000E+00  0.00000000E+00
  3.70000000E+01  8.00000000E+00  0.00000000E+00
  3.70000000E+01  7.00000000E+00  0.00000000E+00
  3.70000000E+01  6.00000000E+00  0.00000000E+00
  3.70000000E+01  5.00000000E+00  0.00000000E+00
  3.70000000E+01  4.00000000E+00  0.00000000E+00
  3.70000000E+01  3.00000000E+00  0.00000000E+00
  3.70000000E+01  2.00000000E+00  0.00000000E+00
  3.70000000E+01  1.00000000E+00  0.00000000E+00
  3.70000000E+01 -2.66453526E-15  0.00000000E+00
  3.80000000E+01  2.40000000E+01  0.00000000E+00
  3.80000000E+01  2.30000000E+01  0.00000000E+00
  3.80000000E+01  2.20000000E+01  0.00000000E+00
  3.80000000E+01  2.10000000E+01  0.00000000E+00
  3.80000000E+01  2.00000000E+01  0.00000000E+00
  3.80000000E+01  1.90000000E+01  0.00000000E+00
  3.80000000E+01  1.80000000E+01  0.00000000E+00
  3.80000000E+01  1.70000000E+01  0.00000000E+00
  3.80000000E+01  1.60000000E+01  0.00000000E+00
  3.80000000E+01  1.50000000E+01  0.00000000E+00
  3.80000000E+01  1.40000000E+01  0.00000000E+00
  3.80000000E+01  1.30000000E+01  0.00000000E+00
  3.80000000E+01  1.20000000E+01  0.00000000E+00
  3.80000000E+01  1.10000000E+01  0.00000000E+00
  3.80000000E+01  1.00000000E+01  0.00000000E+00
  3.80000000E+01  9.00000000E+00  0.00000000E+00
  3.80000000E+01  8.00000000E+00  0.00000000E+00
  3.80000000E+01  7.00000000E+00  0.00000000E+00
  3.80000000E+01  6.00000000E+00  0.00000000E+00
  3.80000000E+01  5.00000000E+00  0.00000000E+00
  3.80000000E+01  4.00000000E+00  0.00000000E+00
  3.80000000E+01  3.00000000E+00  0.00000000E+00
  3.80000000E+01  2.00000000E+00  0.00000000E+00
  3.80000000E+01  1.00000000E+00  0.00000000E+00
  3.80000000E+01 -2.66453526E-15  0.00000000E+00
  3.90000000E+01  2.40000000E+01  0.00000000E+00
  3.90000000E+01  2.30000000E+01  0.00000000E+00
  3.90000000E+01  2.20000000E+01  0.00000000E+00
  3.90000000E+01  2.10000000E+01  0.00000000E+00
  3.90000000E+01  2.00000000E+01  0.00000000E+00
  3.90000000E+01  1.90000000E+01  0.00000000E+00
  3.90000000E+01  1.80000000E+01  0.00000000E+00
  3.90000000E+01  1.70000000E+01  0.00000000E+00
  3.90000000E+01  1.60000000E+01  0.00000000E+00
  3.90000000E+01  1.50000000E+01  0.00000000E+00
  3.90000000E+01  1.40000000E+01  0.00000000E+00
  3.90000000E+01  1.30000000E+01  0.00000000E+00
  3.90000000E+01  1.20000000E+01  0.00000000E+00
  3.90000000E+01  1.10000000E+01  0.00000000E+00
  3.90000000E+01  1.00000000E+01  0.00000000E+00
  3.90000000E+01  9.00000000E+00  0.00000000E+00
  3.90000000E+01  8.00000000E+00  0.00000000E+00
  3.90000000E+01  7.00000000E+00  0.00000000E+00
  3.90000000E+01  6.00000000E+00  0.00000000E+00
  3.90000000E+01  5.00000000E+00  0.00000000E+00
  3.90000000E+01  4.00000000E+00  0.00000000E+00
  3.90000000E+01  3.00000000E+00  0.00000000E+00
  3.90000000E+01  2.00000000E+00  0.00000000E+00
  3.90000000E+01  1.00000000E+00  0.00000000E+00
  3.90000000E+01 -2.66453526E-15  0.00000000E+00
  4.00000000E+01  2.40000000E+01  0.00000000E+00
  4.00000000E+01  2.30000000E+01  0.00000000E+00
  4.00000000E+01  2.20000000E+01  0.00000000E+00
  4.00000000E+01  2.10000000E+01  0.00000000E+00
  4.00000000E+01  2.00000000E+01  0.00000000E+00
  4.00000000E+01  1.90000000E+01  0.00000000E+00
  4.00000000E+01  1.80000000E+01  0.00000000E+00
  4.00000000E+01  1.70000000E+01  0.00000000E+00
  4.00000000E+01  1.60000000E+01  0.00000000E+00
  4.00000000E+01  1.50000000E+01  0.00000000E+00
  4.00000000E+01  1.40000000E+01  0.00000000E+00
  4.00000000E+01  1.30000000E+01  0.00000000E+00
  4.00000000E+01  1.20000000E+01  0.00000000E+00
  4.00000000E+01  1.10000000E+01  0.00000000E+00
  4.00000000E+01  1.00000000E+01  0.00000000E+00
  4.00000000E+01  9.00000000E+00  0.00000000E+00
  4.00000000E+01  8.00000000E+00  0.00000000E+00
  4.00000000E+01  7.00000000E+00  0.00000000E+00
  4.00000000E+01  6.00000000E+00  0.00000000E+00
  4.00000000E+01  5.00000000E+00  0.00000000E+00
  4.00000000E+01  4.00000000E+00  0.00000000E+00
  4.00000000E+01  3.00000000E+00  0.00000000E+00
  4.00000000E+01  2.00000000E+00  0.00000000E+00
  4.00000000E+01  1.00000000E+00  0.00000000E+00
  4.00000000E+01 -2.66453526E-15  0.00000000E+00
  4.10000000E+01  2.40000000E+01  0.00000000E+00
  4.10000000E+01  2.30000000E+01  0.00000000E+00
  4.10000000E+01  2.20000000E+01  0.00000000E+00
  4.10000000E+01  2.10000000E+01  0.00000000E+00
  4.10000000E+01  2.00000000E+01  0.00000000E+00
  4.10000000E+01  1.90000000E+01  0.00000000E+00
  4.10000000E+01  1.80000000E+01  0.00000000E+00
  4.10000000E+01  1.70000000E+01  0.00000000E+00
  4.10000000E+01  1.60000000E+01  0.00000000E+00
  4.10000000E+01  1.50000000E+01  0.00000000E+00
  4.10000000E+01  1.40000000E+01  0.00000000E+00
  4.10000000E+01  1.30000000E+01  0.00000000E+00
  4.10000000E+01  1.20000000E+01  0.00000000E+00
  4.10000000E+01  1.10000000E+01  0.00000000E+00
  4.10000000E+01  1.00000000E+01  0.00000000E+00
  4.10000000E+01  9.00000000E+00  0.00000000E+00
  4.10000000E+01  8.00000000E+00  0.00000000E+00
  4.10000000E+01  7.00000000E+00  0.00000000E+00
  4.10000000E+01  6.00000000E+00  0.00000000E+00
  4.10000000E+01  5.00000000E+00  0.00000000E+00
  4.10000000E+01  4.00000000E+00  0.00000000E+00
  4.10000000E+01  3.00000000E+00  0.00000000E+00
  4.10000000E+01  2.00000000E+00  0.00000000E+00
  4.10000000E+01  1.00000000E+00  0.00000000E+00
  4.10000000E+01 -2.66453526E-15  0.00000000E+00
  4.20000000E+01  2.40000000E+01  0.00000000E+00
  4.20000000E+01  2.30000000E+01  0.00000000E+00
  4.20000000E+01  2.20000000E+01  0.00000000E+00
  4.20000000E+01  2.10000000E+01  0.00000000E+00
  4.20000000E+01  2.00000000E+01  0.00000000E+00
  4.20000000E+01  1.90000000E+01  0.00000000E+00
  4.20000000E+01  1.80000000E+01  0.00000000E+00
  4.20000000E+01  1.70000000E+01  0.00000000E+00
  4.20000000E+01  1.60000000E+01  0.00000000E+00
  4.20000000E+01  1.50000000E+01  0.00000000E+00
  4.20000000E+01  1.40000000E+01  0.00000000E+00
  4.20000000E+01  1.30000000E+01  0.00000000E+00
  4.20000000E+01  1.20000000E+01  0.00000000E+00
  4.20000000E+01  1.10000000E+01  0.00000000E+00
  4.20000000E+01  1.00000000E+01  0.00000000E+00
  4.20000000E+01  9.00000000E+00  0.00000000E+00
  4.20000000E+01  8.00000000E+00  0.00000000E+00
  4.20000000E+01  7.00000000E+00  0.00000000E+00
  4.20000000E+01  6.00000000E+00  0.00000000E+00
  4.20000000E+01  5.00000000E+00  0.00000000E+00
  4.20000000E+01  4.00000000E+00  0.00000000E+00
  4.20000000E+01  3.00000000E+00  0.00000000E+00
  4.20000000E+01  2.00000000E+00  0.00000000E+00
  4.20000000E+01  1.00000000E+00  0.00000000E+00
  4.20000000E+01 -2.66453526E-15  0.00000000E+00
  4.30000000E+01  2.40000000E+01  0.00000000E+00
  4.30000000E+01  2.30000000E+01  0.00000000E+00
  4.30000000E+01  2.20000000E+01  0.00000000E+00
  4.30000000E+01  2.10000000E+01  0.00000000E+00
  4.30000000E+01  2.00000000E+01  0.00000000E+00
  4.30000000E+01  1.90000000E+01  0.00000000E+00
  4.30000000E+01  1.80000000E+01  0.00000000E+00
  4.30000000E+01  1.70000000E+01  0.00000000E+00
  4.30000000E+01  1.60000000E+01  0.00000000E+00
  4.30000000E+01  1.50000000E+01  0.00000000E+00
  4.30000000E+01  1.40000000E+01  0.00000000E+00
  4.30000000E+01  1.30000000E+01  0.00000000E+00
  4.30000000E+01  1.20000000E+01  0.00000000E+00
  4.30000000E+01  1.10000000E+01  0.00000000E+00
  4.30000000E+01  1.00000000E+01  0.00000000E+00
  4.30000000E+01  9.00000000E+00  0.00000000E+00
  4.30000000E+01  8.00000000E+00  0.00000000E+00
  4.30000000E+01  7.00000000E+00  0.00000000E+00
  4.30000000E+01  6.00000000E+00  0.00000000E+00
  4.30000000E+01  5.00000000E+00  0.00000000E+00
  4.30000000E+01  4.00000000E+00  0.00000000E+00
  4.30000000E+01  3.00000000E+00  0.00000000E+00
  4.30000000E+01  2.00000000E+00  0.00000000E+00
  4.30000000E+01  1.00000000E+00  0.00000000E+00
  4.30000000E+01 -2.66453526E-15  0.00000000E+00
  4.40000000E+01  2.40000000E+01  0.00000000E+00
  4.40000000E+01  2.30000000E+01  0.00000000E+00
  4.40000000E+01  2.20000000E+01  0.00000000E+00
  4.40000000E+01  2.10000000E+01  0.00000000E+00
  4.40000000E+01  2.00000000E+01  0.00000000E+00
  4.40000000E+01  1.90000000E+01  0.00000000E+00
  4.40000000E+01  1.80000000E+01  0.00000000E+00
  4.40000000E+01  1.70000000E+01  0.00000000E+00
  4.40000000E+01  1.60000000E+01  0.00000000E+00
  4.40000000E+01  1.50000000E+01  0.00000000E+00
  4.40000000E+01  1.40000000E+01  0.00000000E+00
  4.40000000E+01  1.30000000E+01  0.00000000E+00
  4.40000000E+01  1.20000000E+01  0.00000000E+00
  4.40000000E+01  1.10000000E+01  0.00000000E+00
  4.40000000E+01  1.00000000E+01  0.00000000E+00
  4.40000000E+01  9.00000000E+00  0.00000000E+00
  4.40000000E+01  8.00000000E+00  0.00000000E+00
  4.40000000E+01  7.00000000E+00  0.00000000E+00
  4.40000000E+01  6.00000000E+00  0.00000000E+00
  4.40000000E+01  5.00000000E+00  0.00000000E+00
  4.40000000E+01  4.00000000E+00  0.00000000E+00
  4.40000000E+01  3.00000000E+00  0.00000000E+00
  4.40000000E+01  2.00000000E+00  0.00000000E+00
  4.40000000E+01  1.00000000E+00  0.00000000E+00
  4.40000000E+01 -2.66453526E-15  0.00000000E+00
  4.50000000E+01  2.40000000E+01  0.00000000E+00
  4.50000000E+01  2.30000000E+01  0.00000000E+00
  4.50000000E+01  2.20000000E+01  0.00000000E+00
  4.50000000E+01  2.10000000E+01  0.00000000E+00
  4.50000000E+01  2.00000000E+01  0.00000000E+00
  4.50000000E+01  1.90000000E+01  0.00000000E+00
  4.50000000E+01  1.80000000E+01  0.00000000E+00
  4.50000000E+01  1.70000000E+01  0.00000000E+00
  4.50000000E+01  1.60000000E+01  0.00000000E+00
  4.50000000E+01  1.50000000E+01  0.00000000E+00
  4.50000000E+01  1.40000000E+01  0.00000000E+00
  4.50000000E+01  1.30000000E+01  0.00000000E+00
  4.50000000E+01  1.20000000E+01  0.00000000E+00
  4.50000000E+01  1.10000000E+01  0.00000000E+00
  4.50000000E+01  1.00000000E+01  0.00000000E+00
  4.50000000E+01  9.00000000E+00  0.00000000E+00
  4.50000000E+01  8.00000000E+00  0.00000000E+00
  4.50000000E+01  7.00000000E+00  0.00000000E+00
  4.50000000E+01  6.00000000E+00  0.00000000E+00
  4.50000000E+01  5.00000000E+00  0.00000000E+00
  4.50000000E+01  4.00000000E+00  0.00000000E+00
  4.50000000E+01  3.00000000E+00  0.00000000E+00
  4.50000000E+01  2.00000000E+00  0.00000000E+00
  4.50000000E+01  1.00000000E+00  0.00000000E+00
  4.50000000E+01 -2.66453526E-15  0.00000000E+00
  4.60000000E+01  2.40000000E+01  0.00000000E+00
  4.60000000E+01  2.30000000E+01  0.00000000E+00
  4.60000000E+01  2.20000000E+01  0.00000000E+00
  4.60000000E+01  2.10000000E+01  0.00000000E+00
  4.60000000E+01  2.00000000E+01  0.00000000E+00
  4.60000000E+01  1.90000000E+01  0.00000000E+00
  4.60000000E+01  1.80000000E+01  0.00000000E+00
  4.60000000E+01  1.70000000E+01  0.00000000E+00
  4.60000000E+01  1.60000000E+01  0.00000000E+00
  4.60000000E+01  1.50000000E+01  0.00000000E+00
  4.60000000E+01  1.40000000E+01  0.00000000E+00
  4.60000000E+01  1.30000000E+01  0.00000000E+00
  4.60000000E+01  1.20000000E+01  0.00000000E+00
  4.60000000E+01  1.10000000E+01  0.00000000E+00
  4.60000000E+01  1.00000000E+01  0.00000000E+00
  4.60000000E+01  9.00000000E+00  0.00000000E+00
  4.60000000E+01  8.00000000E+00  0.00000000E+00
  4.60000000E+01  7.00000000E+00  0.00000000E+00
  4.60000000E+01  6.00000000E+00  0.00000000E+00
  4.60000000E+01  5.00000000E+00  0.00000000E+00
  4.60000000E+01  4.00000000E+00  0.00000000E+00
  4.60000000E+01  3.00000000E+00  0.00000000E+00
  4.60000000E+01  2.00000000E+00  0.00000000E+00
  4.60000000E+01  1.00000000E+00  0.00000000E+00
  4.60000000E+01 -2.66453526E-15  0.00000000E+00
  4.70000000E+01  2.40000000E+01  0.00000000E+00
  4.70000000E+01  2.30000000E+01  0.00000000E+00
  4.70000000E+01  2.20000000E+01  0.00000000E+00
  4.70000000E+01  2.10000000E+01  0.00000000E+00
  4.70000000E+01  2.00000000E+01  0.00000000E+00
  4.70000000E+01  1.90000000E+01  0.00000000E+00
  4.70000000E+01  1.80000000E+01  0.00000000E+00
  4.70000000E+01  1.70000000E+01  0.00000000E+00
  4.70000000E+01  1.60000000E+01  0.00000000E+00
  4.70000000E+01  1.50000000E+01  0.00000000E+00
  4.70000000E+01  1.40000000E+01  0.00000000E+00
  4.70000000E+01  1.30000000E+01  0.00000000E+00
  4.70000000E+01  1.20000000E+01  0.00000000E+00
  4.70000000E+01  1.10000000E+01  0.00000000E+00
  4.70000000E+01  1.00000000E+01  0.00000000E+00
  4.70000000E+01  9.00000000E+00  0.00000000E+00
  4.70000000E+01  8.00000000E+00  0.00000000E+00
  4.70000000E+01  7.00000000E+00  0.00000000E+00
  4.70000000E+01  6.00000000E+00  0.00000000E+00
  4.70000000E+01  5.00000000E+00  0.00000000E+00
  4.70000000E+01  4.00000000E+00  0.00000000E+00
  4.70000000E+01  3.00000000E+00  0.00000000E+00
  4.70000000E+01  2.00000000E+00  0.00000000E+00
  4.70000000E+01  1.00000000E+00  0.00000000E+00
  4.70000000E+01 -2.66453526E-15  0.00000000E+00
  4.80000000E+01  2.40000000E+01  0.00000000E+00
  4.80000000E+01  2.30000000E+01  0.00000000E+00
  4.80000000E+01  2.20000000E+01  0.00000000E+00
  4.80000000E+01  2.10000000E+01  0.00000000E+00
  4.80000000E+01  2.00000000E+01  0.00000000E+00
  4.80000000E+01  1.90000000E+01  0.00000000E+00
  4.80000000E+01  1.80000000E+01  0.00000000E+00
  4.80000000E+01  1.70000000E+01  0.00000000E+00
  4.80000000E+01  1.60000000E+01  0.00000000E+00
  4.80000000E+01  1.50000000E+01  0.00000000E+00
  4.80000000E+01  1.40000000E+01  0.00000000E+00
  4.80000000E+01  1.30000000E+01  0.00000000E+00
  4.80000000E+01  1.20000000E+01  0.00000000E+00
  4.80000000E+01  1.10000000E+01  0.00000000E+00
  4.80000000E+01  1.00000000E+01  0.00000000E+00
  4.80000000E+01  9.00000000E+00  0.00000000E+00
  4.80000000E+01  8.00000000E+00  0.00000000E+00
  4.80000000E+01  7.00000000E+00  0.00000000E+00
  4.80000000E+01  6.00000000E+00  0.00000000E+00
  4.80000000E+01  5.00000000E+00  0.00000000E+00
  4.80000000E+01  4.00000000E+00  0.00000000E+00
  4.80000000E+01  3.00000000E+00  0.00000000E+00
  4.80000000E+01  2.00000000E+00  0.00000000E+00
  4.80000000E+01  1.00000000E+00  0.00000000E+00
  4.80000000E+01 -2.66453526E-15  0.00000000E+00
CELLS      1152      5760
         4           0           1          26          25
         4           1           2          27          26
         4           2           3          28          27
         4           3           4          29          28
         4           4           5          30          29
         4           5           6          31          30
         4           6           7          32          31
         4           7           8          33          32
         4           8           9          34          33
         4           9          10          35          34
         4          10          11          36          35
         4          11          12          37          36
         4          12          13          38          37
         4          13          14          39          38
         4          14          15          40          39
         4          15          16          41          40
         4          16          17          42          41
         4          17          18          43          42
         4          18          19          44          43
         4          19          20          45          44
         4          20          21          46          45
         4          21          22          47          46
         4          22          23          48          47
         4          23          24          49          48
         4          25          26          51          50
         4          26          27          52          51
         4          27          28          53          52
         4          28          29          54          53
         4          29          30          55          54
         4          30          31          56          55
         4          31          32          57          56
         4          32          33          58          57
         4          33          34          59          58
         4          34          35          60          59
         4          35          36          61          60
         4          36          37          62          61
         4          37          38          63          62
         4          38          39          64          63
         4          39          40          65          64
         4          40          41          66          65
         4          41          42          67          66
         4          42          43          68          67
         4          43          44          69          68
         4          44          45          70          69
         4          45          46          71          70
         4          46          47          72          71
         4          47          48          73          72
         4          48          49          74          73
         4          50          51          76          75
         4          51          52          77          76
         4          52          53          78          77
         4          53          54          79          78
         4          54          55          80          79
         4          55          56          81          80
         4          56          57          82          81
         4          57          58          83          82
         4          58          59          84          83
         4          59          60          85          84
         4          60          61          86          85
         4          61          62          87          86
         4          62          63          88          87
         4          63          64          89          88
         4          64          65          90          89
         4          65          66          91          90
         4          66          67          92          91
         4          67          68          93          92
         4          68          69          94          93
         4          69          70          95          94
         4          70          71          96          95
         4          71          72          97          96
         4          72          73          98          97
         4          73          74          99          98
         4          75          76         101         100
         4          76          77         102         101
         4          77          78         103         102
         4          78          79         104         103
         4          79          80         105         104
         4          80          81         106         105
         4          81          82         107         106
         4          82          83         108         107
         4          83          84         109         108
         4          84          85         110         109
         4          85          86         111         110
         4          86          87         112         111
         4          87          88         113         112
         4          88          89         114         113
         4          89          90         115         114
         4          90          91         116         115
         4          91          92         117         116
         4          92          93         118         117
         4          93          94         119         118
         4          94          95         120         119
         4          95          96         121         120
         4          96          97         122         121
         4          97          98         123         122
         4          98          99         124         123
         4         100         101         126         125
         4         101         102         127         126
         4         102         103         128         127
         4         103         104         129         128
         4         104         105         130         129
         4         105         106         131         130
         4         106         107         132         131
         4         107         108         133         132
         4         108         109         134         133
         4         109         110         135         134
         4         110         111         136         135
         4         111         112         137         136
         4         112         113         138         137
         4         113         114         139         138
         4         114         115         140         139
         4         115         116         141         140
         4         116         117         142         141
         4         117         118         143         142
         4         118         119         144         143
         4         119         120         145         144
         4         120         121         146         145
         4         121         122         147         146
         4         122         123         148         147
         4         123         124         149         148
         4         125         126         151         150
         4         126         127         152         151
         4         127         128         153         152
         4         128         129         154         153
         4         129         130         155         154
         4         130         131         156         155
         4         131         132         157         156
         4         132         133         158         157
         4         133         134         159         158
         4         134         135         160         159
         4         135         136         161         160
         4         136         137         162         161
         4         137         138         163         162
         4         138         139         164         163
         4         139         140         165         164
         4         140         141         166         165
         4         141         142         167         166
         4         142         143         168         167
         4         143         144         169         168
         4         144         145         170         169
         4         145         146         171         170
         4         146         147         172         171
         4         147         148         173         172
         4         148         149         174         173
         4         150         151         176         175
         4         151         152         177         176
         4         152         153         178         177
         4         153         154         179         178
         4         154         155         180         179
         4         155         156         181         180
         4         156         157         182         181
         4         157         158         183         182
         4         158         159         184         183
         4         159         160         185         184
         4         160         161         186         185
         4         161         162         187         186
         4         162         163         188         187
         4         163         164         189         188
         4         164         165         190         189
         4         165         166         191         190
         4         166         167         192         191
         4         167         168         193         192
         4         168         169         194         193
         4         169         170         195         194
         4         170         171         196         195
         4         171         172         197         196
         4         172         173         198         197
         4         173         174         199         198
         4         175         176         201         200
         4         176         177         202         201
         4         177         178         203         202
         4         178         179         204         203
         4         179         180         205         204
         4         180         181         206         205
         4         181         182         207         206
         4         182         183         208         207
         4         183         184         209         208
         4         184         185         210         209
         4         185         186         211         210
         4         186         187         212         211
         4         187         188         213         212
         4         188         189         214         213
         4         189         190         215         214
         4         190         191         216         215
         4         191         192         217         216
         4         192         193         218         217
         4         193         194         219         218
         4         194         195         220         219
         4         195         196         221         220
         4         196         197         222         221
         4         197         198         223         222
         4         198         199         224         223
         4         200         201         226         225
         4         201         202         227         226
         4         202         203         228         227
         4         203         204         229         228
         4         204         205         230         229
         4         205         206         231         230
         4         206         207         232         231
         4         207         208         233         232
         4         208         209         234         233
         4         209         210         235         234
         4         210         211         236         235
         4         211         212         237         236
         4         212         213         238         237
         4         213         214         239         238
         4         214         215         240         239
         4         215         216         241         240
         4         216         217         242         241
         4         217         218         243         242
         4         218         219         244         243
         4         219         220         245         244
         4         220         221         246         245
         4         221         222         247         246
         4         222         223         248         247
         4         223         224         249         248
         4         225         226         251         250
         4         226         227         252         251
         4         227         228         253         252
         4         228         229         254         253
         4         229         230         255         254
         4         230         231         256         255
         4         231         232         257         256
         4         232         233         258         257
         4         233         234         259         258
         4         234         235         260         259
         4         235         236         261         260
         4         236         237         262         261
         4         237         238         263         262
         4         238         239         264         263
         4         239         240         265         264
         4         240         241         266         265
         4         241         242         267         266
         4         242         243         268         267
         4         243         244         269         268
         4         244         245         270         269
         4         245         246         271         270
         4         246         247         272         271
         4         247         248         273         272
         4         248         249         274         273
         4         250         251         276         275
         4         251         252         277         276
         4         252         253         278         277
         4         253         254         279         278
         4         254         255         280         279
         4         255         256         281         280
         4         256         257         282         281
         4         257         258         283         282
         4         258         259         284         283
         4         259         260         285         284
         4         260         261         286         285
         4         261         262         287         286
         4         262         263         288         287
         4         263         264         289         288
         4         264         265         290         289
         4         265         266         291         290
         4         266         267         292         291
         4         267         268         293         292
         4         268         269         294         293
         4         269         270         295         294
         4         270         271         296         295
         4         271         272         297         296
         4         272         273         298         297
         4         273         274         299         298
         4         275         276         301         300
         4         276         277         302         301
         4         277         278         303         302
         4         278         279         304         303
         4         279         280         305         304
         4         280         281         306         305
         4         281         282         307         306
         4         282         283         308         307
         4         283         284         309         308
         4         284         285         310         309
         4         285         286         311         310
         4         286         287         312         311
         4         287         288         313         312
         4         288         289         314         313
         4         289         290         315         314
         4         290         291         316         315
         4         291         292         317         316
         4         292         293         318         317
         4         293         294         319         318
         4         294         295         320         319
         4         295         296         321         320
         4         296         297         322         321
         4         297         298         323         322
         4         298         299         324         323
         4         300         301         326         325
         4         301         302         327         326
         4         302         303         328         327
         4         303         304         329         328
         4         304         305         330         329
         4         305         306         331         330
         4         306         307         332         331
         4         307         308         333         332
         4         308         309         334         333
         4         309         310         335         334
         4         310         311         336         335
         4         311         312         337         336
         4         312         313         338         337
         4         313         314         339         338
         4         314         315         340         339
         4         315         316         341         340
         4         316         317         342         341
         4         317         318         343         342
         4         318         319         344         343
         4         319         320         345         344
         4         320         321         346         345
         4         321         322         347         346
         4         322         323         348         347
         4         323         324         349         348
         4         325         326         351         350
         4         326         327         352         351
         4         327         328         353         352
         4         328         329         354         353
         4         329         330         355         354
         4         330         331         356         355
         4         331         332         357         356
         4         332         333         358         357
         4         333         334         359         358
         4         334         335         360         359
         4         335         336         361         360
         4         336         337         362         361
         4         337         338         363         362
         4         338         339         364         363
         4         339         340         365         364
         4         340         341         366         365
         4         341         342         367         366
         4         342         343         368         367
         4         343         344         369         368
         4         344         345         370         369
         4         345         346         371         370
         4         346         347         372         371
         4         347         348         373         372
         4         348         349         374         373
         4         350         351         376         375
         4         351         352         377         376
         4         352         353         378         377
         4         353         354         379         378
         4         354         355         380         379
         4         355         356         381         380
         4         356         357         382         381
         4         357         358         383         382
         4         358         359         384         383
         4         359         360         385         384
         4         360         361         386         385
         4         361         362         387         386
         4         362         363         388         387
         4         363         364         389         388
         4         364         365         390         389
         4         365         366         391         390
         4         366         367         392         391
         4         367         368         393         392
         4         368         369         394         393
         4         369         370         395         394
         4         370         371         396         395
         4         371         372         397         396
         4         372         373         398         397
         4         373         374         399         398
         4         375         376         401         400
         4         376         377         402         401
         4         377         378         403         402
         4         378         379         404         403
         4         379         380         405         404
         4         380         381         406         405
         4         381         382         407         406
         4         382         383         408         407
         4         383         384         409         408
         4         384         385         410         409
         4         385         386         411         410
         4         386         387         412         411
         4         387         388         413         412
         4         388         389         414         413
         4         389         390         415         414
         4         390         391         416         415
         4         391         392         417         416
         4         392         393         418         417
         4         393         394         419         418
         4         394         395         420         419
         4         395         396         421         420
         4         396         397         422         421
         4         397         398         423         422
         4         398         399         424         423
         4         400         401         426         425
         4         401         402         427         426
         4         402         403         428         427
         4         403         404         429         428
         4         404         405         430         429
         4         405         406         431         430
         4         406         407         432         431
         4         407         408         433         432
         4         408         409         434         433
         4         409         410         435         434
         4         410         411         436         435
         4         411         412         437         436
         4         412         413         438         437
         4         413         414         439         438
         4         414         415         440         439
         4         415         416         441         440
         4         416         417         442         441
         4         417         418         443         442
         4         418         419         444         443
         4         419         420         445         444
         4         420         421         446         445
         4         421         422         447         446
         4         422         423         448         447
         4         423         424         449         448
         4         425         426         451         450
         4         426         427         452         451
         4         427         428         453         452
         4         428         429         454         453
         4         429         430         455         454
         4         430         431         456         455
         4         431         432         457         456
         4         432         433         458         457
         4         433         434         459         458
         4         434         435         460         459
         4         435         436         461         460
         4         436         437         462         461
         4         437         438         463         462
         4         438         439         464         463
         4         439         440         465         464
         4         440         441         466         465
         4         441         442         467         466
         4         442         443         468         467
         4         443         444         469         468
         4         444         445         470         469
         4         445         446         471         470
         4         446         447         472         471
         4         447         448         473         472
         4         448         449         474         473
         4         450         451         476         475
         4         451         452         477         476
         4         452         453         478         477
         4         453         454         479         478
         4         454         455         480         479
         4         455         456         481         480
         4         456         457         482         481
         4         457         458         483         482
         4         458         459         484         483
         4         459         460         485         484
         4         460         461         486         485
         4         461         462         487         486
         4         462         463         488         487
         4         463         464         489         488
         4         464         465         490         489
         4         465         466         491         490
         4         466         467         492         491
         4         467         468         493         492
         4         468         469         494         493
         4         469         470         495         494
         4         470         471         496         495
         4         471         472         497         496
         4         472         473         498         497
         4         473         474         499         498
         4         475         476         501         500
         4         476         477         502         501
         4         477         478         503         502
         4         478         479         504         503
         4         479         480         505         504
         4         480         481         506         505
         4         481         482         507         506
         4         482         483         508         507
         4         483         484         509         508
         4         484         485         510         509
         4         485         486         511         510
         4         486         487         512         511
         4         487         488         513         512
         4         488         489         514         513
         4         489         490         515         514
         4         490         491         516         515
         4         491         492         517         516
         4         492         493         518         517
         4         493         494         519         518
         4         494         495         520         519
         4         495         496         521         520
         4         496         497         522         521
         4         497         498         523         522
         4         498         499         524         523
         4         500         501         526         525
         4         501         502         527         526
         4         502         503         528         527
         4         503         504         529         528
         4         504         505         530         529
         4         505         506         531         530
         4         506         507         532         531
         4         507         508         533         532
         4         508         509         534         533
         4         509         510         535         534
         4         510         511         536         535
         4         511         512         537         536
         4         512         513         538         537
         4         513         514         539         538
         4         514         515         540         539
         4         515         516         541         540
         4         516         517         542         541
         4         517         518         543         542
         4         518         519         544         543
         4         519         520         545         544
         4         520         521         546         545
         4         521         522         547         546
         4         522         523         548         547
         4         523         524         549         548
         4         525         526         551         550
         4         526         527         552         551
         4         527         528         553         552
         4         528         529         554         553
         4         529         530         555         554
         4         530         531         556         555
         4         531         532         557         556
         4         532         533         558         557
         4         533         534         559         558
         4         534         535         560         559
         4         535         536         561         560
         4         536         537         562         561
         4         537         538         563         562
         4         538         539         564         563
         4         539         540         565         564
         4         540         541         566         565
         4         541         542         567         566
         4         542         543         568         567
         4         543         544         569         568
         4         544         545         570         569
         4         545         546         571         570
         4         546         547         572         571
         4         547         548         573         572
         4         548         549         574         573
         4         550         551         576         575
         4         551         552         577         576
         4         552         553         578         577
         4         553         554         579         578
         4         554         555         580         579
         4         555         556         581         580
         4         556         557         582         581
         4         557         558         583         582
         4         558         559         584         583
         4         559         560         585         584
         4         560         561         586         585
         4         561         562         587         586
         4         562         563         588         587
         4         563         564         589         588
         4         564         565         590         589
         4         565         566         591         590
         4         566         567         592         591
         4         567         568         593         592
         4         568         569         594         593
         4         569         570         595         594
         4         570         571         596         595
         4         571         572         597         596
         4         572         573         598         597
         4         573         574         599         598
         4         575         576         601         600
         4         576         577         602         601
         4         577         578         603         602
         4         578         579         604         603
         4         579         580         605         604
         4         580         581         606         605
         4         581         582         607         606
         4         582         583         608         607
         4         583         584         609         608
         4         584         585         610         609
         4         585         586         611         610
         4         586         587         612         611
         4         587         588         613         612
         4         588         589         614         613
         4         589         590         615         614
         4         590         591         616         615
         4         591         592         617         616
         4         592         593         618         617
         4         593         594         619         618
         4         594         595         620         619
         4         595         596         621         620
         4         596         597         622         621
         4         597         598         623         622
         4         598         599         624         623
         4         600         601         626         625
         4         601         602         627         626
         4         602         603         628         627
         4         603         604         629         628
         4         604         605         630         629
         4         605         606         631         630
         4         606         607         632         631
         4         607         608         633         632
         4         608         609         634         633
         4         609         610         635         634
         4         610         611         636         635
         4         611         612         637         636
         4         612         613         638         637
         4         613         614         639         638
         4         614         615         640         639
         4         615         616         641         640
         4         616         617         642         641
         4         617         618         643         642
         4         618         619         644         643
         4         619         620         645         644
         4         620         621         646         645
         4         621         622         647         646
         4         622         623         648         647
         4         623         624         649         648
         4         625         626         651         650
         4         626         627         652         651
         4         627         628         653         652
         4         628         629         654         653
         4         629         630         655         654
         4         630         631         656         655
         4         631         632         657         656
         4         632         633         658         657
         4         633         634         659         658
         4         634         635         660         659
         4         635         636         661         660
         4         636         637         662         661
         4         637         638         663         662
         4         638         639         664         663
         4         639         640         665         664
         4         640         641         666         665
         4         641         642         667         666
         4         642         643         668         667
         4         643         644         669         668
         4         644         645         670         669
         4         645         646         671         670
         4         646         647         672         671
         4         647         648         673         672
         4         648         649         674         673
         4         650         651         676         675
         4         651         652         677         676
         4         652         653         678         677
         4         653         654         679         678
         4         654         655         680         679
         4         655         656         681         680
         4         656         657         682         681
         4         657         658         683         682
         4         658         659         684         683
         4         659         660         685         684
         4         660         661         686         685
         4         661         662         687         686
         4         662         663         688         687
         4         663         664         689         688
         4         664         665         690         689
         4         665         666         691         690
         4         666         667         692         691
         4         667         668         693         692
         4         668         669         694         693
         4         669         670         695         694
         4         670         671         696         695
         4         671         672         697         696
         4         672         673         698         697
         4         673         674         699         698
         4         675         676         701         700
         4         676         677         702         701
         4         677         678         703         702
         4         678         679         704         703
         4         679         680         705         704
         4         680         681         706         705
         4         681         682         707         706
         4         682         683         708         707
         4         683         684         709         708
         4         684         685         710         709
         4         685         686         711         710
         4         686         687         712         711
         4         687         688         713         712
         4         688         689         714         713
         4         689         690         715         714
         4         690         691         716         715
         4         691         692         717         716
         4         692         693         718         717
         4         693         694         719         718
         4         694         695         720         719
         4         695         696         721         720
         4         696         697         722         721
         4         697         698         723         722
         4         698         699         724         723
         4         700         701         726         725
         4         701         702         727         726
         4         702         703         728         727
         4         703         704         729         728
         4         704         705         730         729
         4         705         706         731         730
         4         706         707         732         731
         4         707         708         733         732
         4         708         709         734         733
         4         709         710         735         734
         4         710         711         736         735
         4         711         712         737         736
         4         712         713         738         737
         4         713         714         739         738
         4         714         715         740         739
         4         715         716         741         740
         4         716         717         742         741
         4         717         718         743         742
         4         718         719         744         743
         4         719         720         745         744
         4         720         721         746         745
         4         721         722         747         746
         4         722         723         748         747
         4         723         724         749         748
         4         725         726         751         750
         4         726         727         752         751
         4         727         728         753         752
         4         728         729         754         753
         4         729         730         755         754
         4         730         731         756         755
         4         731         732         757         756
         4         732         733         758         757
         4         733         734         759         758
         4         734         735         760         759
         4         735         736         761         760
         4         736         737         762         761
         4         737         738         763         762
         4         738         739         764         763
         4         739         740         765         764
         4         740         741         766         765
         4         741         742         767         766
         4         742         743         768         767
         4         743         744         769         768
         4         744         745         770         769
         4         745         746         771         770
         4         746         747         772         771
         4         747         748         773         772
         4         748         749         774         773
         4         750         751         776         775
         4         751         752         777         776
         4         752         753         778         777
         4         753         754         779         778
         4         754         755         780         779
         4         755         756         781         780
         4         756         757         782         781
         4         757         758         783         782
         4         758         759         784         783
         4         759         760         785         784
         4         760         761         786         785
         4         761         762         787         786
         4         762         763         788         787
         4         763         764         789         788
         4         764         765         790         789
         4         765         766         791         790
         4         766         767         792         791
         4         767         768         793         792
         4         768         769         794         793
         4         769         770         795         794
         4         770         771         796         795
         4         771         772         797         796
         4         772         773         798         797
         4         773         774         799         798
         4         775         776         801         800
         4         776         777         802         801
         4         777         778         803         802
         4         778         779         804         803
         4         779         780         805         804
         4         780         781         806         805
         4         781         782         807         806
         4         782         783         808         807
         4         783         784         809         808
         4         784         785         810         809
         4         785         786         811         810
         4         786         787         812         811
         4         787         788         813         812
         4         788         789         814         813
         4         789         790         815         814
         4         790         791         816         815
         4         791         792         817         816
         4         792         793         818         817
         4         793         794         819         818
         4         794         795         820         819
         4         795         796         821         820
         4         796         797         822         821
         4         797         798         823         822
         4         798         799         824         823
         4         800         801         826         825
         4         801         802         827         826
         4         802         803         828         827
         4         803         804         829         828
         4         804         805         830         829
         4         805         806         831         830
         4         806         807         832         831
         4         807         808         833         832
         4         808         809         834         833
         4         809         810         835         834
         4         810         811         836         835
         4         811         812         837         836
         4         812         813         838         837
         4         813         814         839         838
         4         814         815         840         839
         4         815         816         841         840
         4         816         817         842         841
         4         817         818         843         842
         4         818         819         844         843
         4         819         820         845         844
         4         820         821         846         845
         4         821         822         847         846
         4         822         823         848         847
         4         823         824         849         848
         4         825         826         851         850
         4         826         827         852         851
         4         827         828         853         852
         4         828         829         854         853
         4         829         830         855         854
         4         830         831         856         855
         4         831         832         857         856
         4         832         833         858         857
         4         833         834         859         858
         4         834         835         860         859
         4         835         836         861         860
         4         836         837         862         861
         4         837         838         863         862
         4         838         839         864         863
         4         839         840         865         864
         4         840         841         866         865
         4         841         842         867         866
         4         842         843         868         867
         4         843         844         869         868
         4         844         845         870         869
         4         845         846         871         870
         4         846         847         872         871
         4         847         848         873         872
         4         848         849         874         873
         4         850         851         876         875
         4         851         852         877         876
         4         852         853         878         877
         4         853         854         879         878
         4         854         855         880         879
         4         855         856         881         880
         4         856         857         882         881
         4         857         858         883         882
         4         858         859         884         883
         4         859         860         885         884
         4         860         861         886         885
         4         861         862         887         886
         4         862         863         888         887
         4         863         864         889         888
         4         864         865         890         889
         4         865         866         891         890
         4         866         867         892         891
         4         867         868         893         892
         4         868         869         894         893
         4         869         870         895         894
         4         870         871         896         895
         4         871         872         897         896
         4         872         873         898         897
         4         873         874         899         898
         4         875         876         901         900
         4         876         877         902         901
         4         877         878         903         902
         4         878         879         904         903
         4         879         880         905         904
         4         880         881         906         905
         4         881         882         907         906
         4         882         883         908         907
         4         883         884         909         908
         4         884         885         910         909
         4         885         886         911         910
         4         886         887         912         911
         4         887         888         913         912
         4         888         889         914         913
         4         889         890         915         914
         4         890         891         916         915
         4         891         892         917         916
         4         892         893         918         917
         4         893         894         919         918
         4         894         895         920         919
         4         895         896         921         920
         4         896         897         922         921
         4         897         898         923         922
         4         898         899         924         923
         4         900         901         926         925
         4         901         902         927         926
         4         902         903         928         927
         4         903         904         929         928
         4         904         905         930         929
         4         905         906         931         930
         4         906         907         932         931
         4         907         908         933         932
         4         908         909         934         933
         4         909         910         935         934
         4         910         911         936         935
         4         911         912         937         936
         4         912         913         938         937
         4         913         914         939         938
         4         914         915         940         939
         4         915         916         941         940
         4         916         917         942         941
         4         917         918         943         942
         4         918         919         944         943
         4         919         920         945         944
         4         920         921         946         945
         4         921         922         947         946
         4         922         923         948         947
         4         923         924         949         948
         4         925         926         951         950
         4         926         927         952         951
         4         927         928         953         952
         4         928         929         954         953
         4         929         930         955         954
         4         930         931         956         955
         4         931         932         957         956
         4         932         933         958         957
         4         933         934         959         958
         4         934         935         960         959
         4         935         936         961         960
         4         936         937         962         961
         4         937         938         963         962
         4         938         939         964         963
         4         939         940         965         964
         4         940         941         966         965
         4         941         942         967         966
         4         942         943         968         967
         4         943         944         969         968
         4         944         945         970         969
         4         945         946         971         970
         4         946         947         972         971
         4         947         948         973         972
         4         948         949         974         973
         4         950         951         976         975
         4         951         952         977         976
         4         952         953         978         977
         4         953         954         979         978
         4         954         955         980         979
         4         955         956         981         980
         4         956         957         982         981
         4         957         958         983         982
         4         958         959         984         983
         4         959         960         985         984
         4         960         961         986         985
         4         961         962         987         986
         4         962         963         988         987
         4         963         964         989         988
         4         964         965         990         989
         4         965         966         991         990
         4         966         967         992         991
         4         967         968         993         992
         4         968         969         994         993
         4         969         970         995         994
         4         970         971         996         995
         4         971         972         997         996
         4         972         973         998         997
         4         973         974         999         998
         4         975         976        1001        1000
         4         976         977        1002        1001
         4         977         978        1003        1002
         4         978         979        1004        1003
         4         979         980        1005        1004
         4         980         981        1006        1005
         4         981         982        1007        1006
         4         982         983        1008        1007
         4         983         984        1009        1008
         4         984         985        1010        1009
         4         985         986        1011        1010
         4         986         987        1012        1011
         4         987         988        1013        1012
         4         988         989        1014        1013
         4         989         990        1015        1014
         4         990         991        1016        1015
         4         991         992        1017        1016
         4         992         993        1018        1017
         4         993         994        1019        1018
         4         994         995        1020        1019
         4         995         996        1021        1020
         4         996         997        1022        1021
         4         997         998        1023        1022
         4         998         999        1024        1023
         4        1000        1001        1026        1025
         4        1001        1002        1027        1026
         4        1002        1003        1028        1027
         4        1003        1004        1029        1028
         4        1004        1005        1030        1029
         4        1005        1006        1031        1030
         4        1006        1007        1032        1031
         4        1007        1008        1033        1032
         4        1008        1009        1034        1033
         4        1009        1010        1035        1034
         4        1010        1011        1036        1035
         4        1011        1012        1037        1036
         4        1012        1013        1038        1037
         4        1013        1014        1039        1038
         4        1014        1015        1040        1039
         4        1015        1016        1041        1040
         4        1016        1017        1042        1041
         4        1017        1018        1043        1042
         4        1018        1019        1044        1043
         4        1019        1020        1045        1044
         4        1020        1021        1046        1045
         4        1021        1022        1047        1046
         4        1022        1023        1048        1047
         4        1023        1024        1049        1048
         4        1025        1026        1051        1050
         4        1026        1027        1052        1051
         4        1027        1028        1053        1052
         4        1028        1029        1054        1053
         4        1029        1030        1055        1054
         4        1030        1031        1056        1055
         4        1031        1032        1057        1056
         4        1032        1033        1058        1057
         4        1033        1034        1059        1058
         4        1034        1035        1060        1059
         4        1035        1036        1061        1060
         4        1036        1037        1062        1061
         4        1037        1038        1063        1062
         4        1038        1039        1064        1063
         4        1039        1040        1065        1064
         4        1040        1041        1066        1065
         4        1041        1042        1067        1066
         4        1042        1043        1068        1067
         4        1043        1044        1069        1068
         4        1044        1045        1070        1069
         4        1045        1046        1071        1070
         4        1046        1047        1072        1071
         4        1047        1048        1073        1072
         4        1048        1049        1074        1073
         4        1050        1051        1076        1075
         4        1051        1052        1077        1076
         4        1052        1053        1078        1077
         4        1053        1054        1079        1078
         4        1054        1055        1080        1079
         4        1055        1056        1081        1080
         4        1056        1057        1082        1081
         4        1057        1058        1083        1082
         4        1058        1059        1084        1083
         4        1059        1060        1085        1084
         4        1060        1061        1086        1085
         4        1061        1062        1087        1086
         4        1062        1063        1088        1087
         4        1063        1064        1089        1088
         4        1064        1065        1090        1089
         4        1065        1066        1091        1090
         4        1066        1067        1092        1091
         4        1067        1068        1093        1092
         4        1068        1069        1094        1093
         4        1069        1070        1095        1094
         4        1070        1071        1096        1095
         4        1071        1072        1097        1096
         4        1072        1073        1098        1097
         4        1073        1074        1099        1098
         4        1075        1076        1101        1100
         4        1076        1077        1102        1101
         4        1077        1078        1103        1102
         4        1078        1079        1104        1103
         4        1079        1080        1105        1104
         4        1080        1081        1106        1105
         4        1081        1082        1107        1106
         4        1082        1083        1108        1107
         4        1083        1084        1109        1108
         4        1084        1085        1110        1109
         4        1085        1086        1111        1110
         4        1086        1087        1112        1111
         4        1087        1088        1113        1112
         4        1088        1089        1114        1113
         4        1089        1090        1115        1114
         4        1090        1091        1116        1115
         4        1091        1092        1117        1116
         4        1092        1093        1118        1117
         4        1093        1094        1119        1118
         4        1094        1095        1120        1119
         4        1095        1096        1121        1120
         4        1096        1097        1122        1121
         4        1097        1098        1123        1122
         4        1098        1099        1124        1123
         4        1100        1101        1126        1125
         4        1101        1102        1127        1126
         4        1102        1103        1128        1127
         4        1103        1104        1129        1128
         4        1104        1105        1130        1129
         4        1105        1106        1131        1130
         4        1106        1107        1132        1131
         4        1107        1108        1133        1132
         4        1108        1109        1134        1133
         4        1109        1110        1135        1134
         4        1110        1111        1136        1135
         4        1111        1112        1137        1136
         4        1112        1113        1138        1137
         4        1113        1114        1139        1138
         4        1114        1115        1140        1139
         4        1115        1116        1141        1140
         4        1116        1117        1142        1141
         4        1117        1118        1143        1142
         4        1118        1119        1144        1143
         4        1119        1120        1145        1144
         4        1120        1121        1146        1145
         4        1121        1122        1147        1146
         4        1122        1123        1148        1147
         4        1123        1124        1149        1148
         4        1125        1126        1151        1150
         4        1126        1127        1152        1151
         4        1127        1128        1153        1152
         4        1128        1129        1154        1153
         4        1129        1130        1155        1154
         4        1130        1131        1156        1155
         4        1131        1132        1157        1156
         4        1132        1133        1158        1157
         4        1133        1134        1159        1158
         4        1134        1135        1160        1159
         4        1135        1136        1161        1160
         4        1136        1137        1162        1161
         4        1137        1138        1163        1162
         4        1138        1139        1164        1163
         4        1139        1140        1165        1164
         4        1140        1141        1166        1165
         4        1141        1142        1167        1166
         4        1142        1143        1168        1167
         4        1143        1144        1169        1168
         4        1144        1145        1170        1169
         4        1145        1146        1171        1170
         4        1146        1147        1172        1171
         4        1147        1148        1173        1172
         4        1148        1149        1174        1173
         4        1150        1151        1176        1175
         4        1151        1152        1177        1176
         4        1152        1153        1178        1177
         4        1153        1154        1179        1178
         4        1154        1155        1180        1179
         4        1155        1156        1181        1180
         4        1156        1157        1182        1181
         4        1157        1158        1183        1182
         4        1158        1159        1184        1183
         4        1159        1160        1185        1184
         4        1160        1161        1186        1185
         4        1161        1162        1187        1186
         4        1162        1163        1188        1187
         4        1163        1164        1189        1188
         4        1164        1165        1190        1189
         4        1165        1166        1191        1190
         4        1166        1167        1192        1191
         4        1167        1168        1193        1192
         4        1168        1169        1194        1193
         4        1169        1170        1195        1194
         4        1170        1171        1196        1195
         4        1171        1172        1197        1196
         4        1172        1173        1198        1197
         4        1173        1174        1199        1198
         4        1175        1176        1201        1200
         4        1176        1177        1202        1201
         4        1177        1178        1203        1202
         4        1178        1179        1204        1203
         4        1179        1180        1205        1204
         4        1180        1181        1206        1205
         4        1181        1182        1207        1206
         4        1182        1183        1208        1207
         4        1183        1184        1209        1208
         4        1184        1185        1210        1209
         4        1185        1186        1211        1210
         4        1186        1187        1212        1211
         4        1187        1188        1213        1212
         4        1188        1189        1214        1213
         4        1189        1190        1215        1214
         4        1190        1191        1216        1215
         4        1191        1192        1217        1216
         4        1192        1193        1218        1217
         4        1193        1194        1219        1218
         4        1194        1195        1220        1219
         4        1195        1196        1221        1220
         4        1196        1197        1222        1221
         4        1197        1198        1223        1222
         4        1198        1199        1224        1223
CELL_TYPES       1152
9
9
9
9
9
9
9
9
9
9
9
9
9
9
9
9
9
9
9
9
9
9
9
9
9
9
9
9
9
9
9
9
9
9
9
9
9
9
9
9
9
9
9
9
9
9
9
9
9
9
9
9
9
9
9
9
9
9
9
9
9
9
9
9
9
9
9
9
9
9
9
9
9
9
9
9
9
9
9
9
9
9
9
9
9
9
9
9
9
9
9
9
9
9
9
9
9
9
9
9
9
9
9
9
9
9
9
9
9
9
9
9
9
9
9
9
9
9
9
9
9
9
9
9
9
9
9
9
9
9
9
9
9
9
9
9
9
9
9
9
9
9
9
9
9
9
9
9
9
9
9
9
9
9
9
9
9
9
9
9
9
9
9
9
9
9
9
9
9
9
9
9
9
9
9
9
9
9
9
9
9
9
9
9
9
9
9
9
9
9
9
9
9
9
9
9
9
9
9
9
9
9
9
9
9
9
9
9
9
9
9
9
9
9
9
9
9
9
9
9
9
9
9
9
9
9
9
9
9
9
9
9
9
9
9
9
9
9
9
9
9
9
9
9
9
9
9
9
9
9
9
9
9
9
9
9
9
9
9
9
9
9
9
9
9
9
9
9
9
9
9
9
9
9
9
9
9
9
9
9
9
9
9
9
9
9
9
9
9
9
9
9
9
9
9
9
9
9
9
9
9
9
9
9
9
9
9
9
9
9
9
9
9
9
9
9
9
9
9
9
9
9
9
9
9
9
9
9
9
9
9
9
9
9
9
9
9
9
9
9
9
9
9
9
9
9
9
9
9
9
9
9
9
9
9
9
9
9
9
9
9
9
9
9
9
9
9
9
9
9
9
9
9
9
9
9
9
9
9
9
9
9
9
9
9
9
9
9
9
9
9
9
9
9
9
9
9
9
9
9
9
9
9
9
9
9
9
9
9
9
9
9
9
9
9
9
9
9
9
9
9
9
9
9
9
9
9
9
9
9
9
9
9
9
9
9
9
9
9
9
9
9
9
9
9
9
9
9
9
9
9
9
9
9
9
9
9
9
9
9
9
9
9
9
9
9
9
9
9
9
9
9
9
9
9
9
9
9
9
9
9
9
9
9
9
9
9
9
9
9
9
9
9
9
9
9
9
9
9
9
9
9
9
9
9
9
9
9
9
9
9
9
9
9
9
9
9
9
9
9
9
9
9
9
9
9
9
9
9
9
9
9
9
9
9
9
9
9
9
9
9
9
9
9
9
9
9
9
9
9
9
9
9
9
9
9
9
9
9
9
9
9
9
9
9
9
9
9
9
9
9
9
9
9
9
9
9
9
9
9
9
9
9
9
9
9
9
9
9
9
9
9
9
9
9
9
9
9
9
9
9
9
9
9
9
9
9
9
9
9
9
9
9
9
9
9
9
9
9
9
9
9
9
9
9
9
9
9
9
9
9
9
9
9
9
9
9
9
9
9
9
9
9
9
9
9
9
9
9
9
9
9
9
9
9
9
9
9
9
9
9
9
9
9
9
9
9
9
9
9
9
9
9
9
9
9
9
9
9
9
9
9
9
9
9
9
9
9
9
9
9
9
9
9
9
9
9
9
9
9
9
9
9
9
9
9
9
9
9
9
9
9
9
9
9
9
9
9
9
9
9
9
9
9
9
9
9
9
9
9
9
9
9
9
9
9
9
9
9
9
9
9
9
9
9
9
9
9
9
9
9
9
9
9
9
9
9
9
9
9
9
9
9
9
9
9
9
9
9
9
9
9
9
9
9
9
9
9
9
9
9
9
9
9
9
9
9
9
9
9
9
9
9
9
9
9
9
9
9
9
9
9
9
9
9
9
9
9
9
9
9
9
9
9
9
9
9
9
9
9
9
9
9
9
9
9
9
9
9
9
9
9
9
9
9
9
9
9
9
9
9
9
9
9
9
9
9
9
9
9
9
9
9
9
9
9
9
9
9
9
9
9
9
9
9
9
9
9
9
9
9
9
9
9
9
9
9
9
9
9
9
9
9
9
9
9
9
9
9
9
9
9
9
9
9
9
9
9
9
9
9
9
9
9
9
9
9
9
9
9
9
9
9
9
9
9
9
9
9
9
9
9
9
9
9
9
9
9
9
9
9
9
9
9
9
9
9
9
9
9
9
9
9
9
9
9
9
9
9
9
9
9
9
9
9
9
9
9
9
9
9
9
9
9
9
9
9
9
9
9
9
9
9
9
9
9
9
9
9
9
9
9
9
9
9
9
9
9
9
9
9
9
9
9
9
9
9
9
9
9
9
9
9
9
9
9
9
9
9
9
9
9
9
9
9
9
9
9
9
9
9
9
9
9
9
9
9
9
9
9
9
9
9
9
9
9
9
9
9
9
9
9
9
9
9
9
9
9
9
9
9
9
9
9
9
9
9
9
9
9
9
9
9
9
9
9
9
9
9
9
9
9
9
9
9
9
9
9
9
9
9
9
9
9
9
9
9
9
9
9
9
9
9
9
9
9
9
9
9
9
9
9
9
9
9
9
9
9
9
9
9
9
9
9
9
9
9
9
9
9
9
9
9
9
9
9
9
9
9
9
9
9
9
9
9
9
9
9
9
9
9
9
9
9
9
9
9
9
9
9
9
9
POINT_DATA      1225
SCALARS p double 
LOOKUP_TABLE default
   15.4560226468527     
   16.3006990691110     
   18.6579305050407     
   22.0549953775892     
   26.0403409010543     
   30.2949326498239     
   34.6519354176302     
   39.0106894589312     
   43.3050189045016     
   47.4875055083133     
   51.5218345535126     
   55.3788883297802     
   59.0349017048926     
   62.4701142322197     
   65.6674046743850     
   68.6110370122789     
   71.2890358321980     
   73.6890209754887     
   75.7976215683812     
   77.5997891524074     
   79.0835011384058     
   80.2441563734578     
   81.0780563605114     
   81.5801739749520     
   81.7477419072733     
   14.4511524308936     
   15.4606060000842     
   18.0885478832942     
   21.7540884035500     
   25.8624190791682     
   30.1833537887950     
   34.5777681469621     
   38.9590945590379     
   43.2678754751147     
   47.4601711333027     
   51.5015257683567     
   55.3638418418739     
   59.0237745913758     
   62.4623000889914     
   65.6626757128986     
   68.6082646785844     
   71.2883048536067     
   73.6891114751281     
   75.7970431302749     
   77.5980390751700     
   79.0810983690942     
   80.2414526644350     
   81.0750496325777     
   81.5769757064018     
   81.7444815021702     
   11.2158564117542     
   12.5654943790839     
   16.6742998049182     
   20.9490811194919     
   25.3791052664210     
   29.8735442074905     
   34.3685655220603     
   38.8117081907996     
   43.1606724677865     
   47.3805837541450     
   51.4420167943229     
   55.3196199772558     
   58.9913224372351     
   62.4382872432168     
   65.6460838099504     
   68.6013140731275     
   71.2864210161378     
   73.6885183265176     
   75.7946928113980     
   77.5921388140141     
   79.0736254509977     
   80.2328336547002     
   81.0654899904775     
   81.5667902608200     
   81.7341073539450     
  0.000000000000000E+000
   9.50405959439370     
   14.9037997189917     
   19.9043010356161     
   24.7147287647059     
   29.4300203677173     
   34.0594059879037     
   38.5884350515094     
   42.9949368838251     
   47.2553299809456     
   51.3468380634948     
   55.2482671424483     
   58.9402998869130     
   62.4048038512078     
   65.6263143154336     
   68.5917287978785     
   71.2820372251745     
   73.6840559402724     
   75.7880400111691     
   77.5829002013020     
   79.0598570445107     
   80.2167899341432     
   81.0476070756188     
   81.5478420613593     
   81.7148637240407     
  0.000000000000000E+000
   7.09224140302402     
   13.4199917560646     
   18.8882903474191     
   24.0128033633299     
   28.9312336950355     
   33.6953104968136     
   38.3158857619567     
   42.7865707168949     
   47.0936131528144     
   51.2205007919002     
   55.1501621636592     
   58.8659109501139     
   62.3519544445546     
   65.5916887054725     
   68.5672354000343     
   71.2642608006849     
   73.6684642346536     
   75.7695602160982     
   77.5614537570265     
   79.0355447925350     
   80.1895699875272     
   81.0182850064648     
   81.5173322738009     
   81.6840395656298     
  0.000000000000000E+000
   6.36484757596830     
   12.4238396349595     
   18.0745892020953     
   23.3788029707841     
   28.4436961690817     
   33.3181667267923     
   38.0206423695317     
   42.5523713822348     
   46.9056577686626     
   51.0683848502577     
   55.0264681073591     
   58.7651429325214     
   62.2692281686812     
   65.5226857429691     
   68.5096328031589     
   71.2154288666709     
   73.6265227921146     
   75.7306398369398     
   77.5198968295358     
   78.9934047672347     
   80.1462982736268     
   80.9737950242653     
   81.4720470834072     
   81.6385341474608     
  0.000000000000000E+000
   6.00998809463838     
   11.8676032611482     
   17.4879231227849     
   22.8594475775979     
   28.0072942303593     
   32.9580150845469     
   37.7241254056281     
   42.3071411116301     
   46.7013354937595     
   50.8966865170114     
   54.8808062899604     
   58.6400366627499     
   62.1598958993565     
   65.4254087357319     
   68.4217270242906     
   71.1348196298754     
   73.5517589469183     
   75.6618185447427     
   77.4555184745704     
   78.9303866902828     
   80.0836914375853     
   80.9111075378199     
   81.4091963323156     
   81.5756211076603     
  0.000000000000000E+000
   5.80632977672788     
   11.5203153565733     
   17.0791728571589     
   22.4529226551054     
   27.6357043979343     
   32.6307760110258     
   37.4403539170859     
   42.0620187096319     
   46.4890636839020     
   50.7116577284140     
   54.7179367777242     
   58.4947743468451     
   62.0282864306613     
   65.3042603661153     
   68.3086660679410     
   71.0281623642829     
   73.4506667337854     
   75.5656672174349     
   77.3651188245797     
   78.8442994431570     
   79.9998902749643     
   80.8284516355764     
   81.3270055490839     
   81.4935295968006     
  0.000000000000000E+000
   5.67511352130462     
   11.2860584088611     
   16.7840582933865     
   22.1365852783925     
   27.3254572869799     
   32.3409965626861     
   37.1763432508479     
   41.8241075834218     
   46.2751834428676     
   50.5187473904200     
   54.5426418920167     
   58.3338049288465     
   61.8786589459029     
   65.1634955684691     
   68.1748907993791     
   70.9001591578574     
   73.3277739305755     
   75.4478216240047     
   77.2525029384081     
   78.7362531957002     
   79.8950027981254     
   80.7254383290576     
   81.2249088049750     
   81.3916536473201     
  0.000000000000000E+000
   5.58334580823408     
   11.1173682933549     
   16.5619854530185     
   21.8858001476886     
   27.0660689464628     
   32.0864223513526     
   36.9339748292282     
   41.5970477443935     
   46.0638903391064     
   50.3221942364705     
   54.3590559924856     
   58.1611365081751     
   61.7149026745275     
   65.0069176714820     
   68.0241749941995     
   70.7544552799347     
   73.1866904046465     
   75.3113190175215     
   77.1205568981763     
   78.6084056245468     
   79.7703216459067     
   80.6028361498881     
   81.1034019759911     
   81.2704324154934     
  0.000000000000000E+000
   5.51492121940481     
   10.9890893961972     
   16.3878933198564     
   21.6817036896894     
   26.8462811068664     
   31.8619383488602     
   36.7121160441493     
   41.3820066378085     
   45.8575686942322     
   50.1249805653120     
   54.1704290846928     
   57.9801082394932     
   61.5403409007162     
   64.8377777875864     
   67.8596470356844     
   70.5940326891051     
   73.0301581821742     
   75.1586405813382     
   76.9716553063101     
   78.4629395122416     
   79.6276350037298     
   80.4620875577514     
   80.9637269125607     
   81.1310540264659     
  0.000000000000000E+000
   5.46117474020842     
   10.8869160558455     
   16.2461602050518     
   21.5108875310273     
   26.6565733602456     
   31.6619390822754     
   36.5082755319889     
   41.1786581094214     
   45.6572820172534     
   49.9290129416159     
   53.9791497861062     
   57.7933535449776     
   61.3576937368469     
   64.6587751255197     
   67.6839171313979     
   70.4213616538491     
   72.8604833892747     
   74.9919704054984     
   76.8079361639643     
   78.3019340202688     
   79.4688836645593     
   80.3049649969913     
   80.8075414968386     
   80.9751422369060     
  0.000000000000000E+000
   5.41709121290680     
   10.8022546399774     
   16.1268025402794     
   21.3640170207699     
   26.4895451461940     
   31.4813911607702     
   36.3196197081251     
   40.9859308997081     
   45.4632463106154     
   49.7353886631941     
   53.7868830228233     
   57.6028725241406     
   61.1691273231452     
   64.4721231426254     
   67.4991670113899     
   70.2385483129137     
   72.6796919476106     
   74.8132884082715     
   76.6313768778224     
   78.1273680028430     
   79.2960142848263     
   80.1333568659374     
   80.6366826285147     
   80.8045140627625     
  0.000000000000000E+000
   5.37960302070932     
   10.7297096270516     
   16.0232748783499     
   21.2345969115893     
   26.3396444070057     
   31.3161452531575     
   36.1434841757754     
   40.8024911330731     
   45.2752024854946     
   49.5446548029330     
   53.5947427779133     
   57.4101495261837     
   60.9763433789987     
   64.2796284092209     
   67.3072330099328     
   70.0474192933926     
   72.4895949868328     
   74.6244095490479     
   76.4438193635718     
   77.9411149907238     
   79.1109155597019     
   79.9491462289783     
   80.4530182741003     
   80.6210270927689     
  0.000000000000000E+000
   5.34675175696724     
   10.6657716303768     
   15.9311851524641     
   21.1180782960473     
   26.2027677994842     
   31.1629255329893     
   35.9775765793436     
   40.6270132014267     
   45.0926726027901     
   49.3570187777762     
   53.4034547530125     
   57.2162774143185     
   60.7806762494952     
   64.0827702715339     
   67.1096731943655     
   69.8495745498799     
   72.2918233868884     
   74.4270017652867     
   76.2469781847166     
   77.7449366922816     
   78.9153846078641     
   79.7541479344088     
   80.2583659799190     
   80.4264949014546     
  0.000000000000000E+000
   5.31724485641839     
   10.6080930330546     
   15.8475275007949     
   21.0112485874749     
   26.0759007561303     
   31.0192073418993     
   35.8200209049626     
   40.4583112396973     
   44.9151190515152     
   49.1725015488831     
   53.2134896008989     
   57.0220679281569     
   60.5831823181566     
   63.8827720865311     
   66.9078220274216     
   69.6464256667778     
   72.0878506125087     
   74.2225972874734     
   76.0424445054292     
   77.5404790491211     
   78.7111107894206     
   79.5500785230734     
   80.0544532931934     
   80.2226450335843     
  0.000000000000000E+000
   5.29020710110822     
   10.5550686120050     
   15.7702117281195     
   20.9118211627162     
   25.9568339120753     
   30.8830741455723     
   35.6693307634108     
   40.2953892662494     
   44.7420343975069     
   48.9910403893111     
   53.0251627112829     
   56.8281406170523     
   60.3847149212949     
   63.6806612017470     
   66.7028353946441     
   69.4392266504045     
   71.8790113777113     
   74.0126026704268     
   75.8316907556432     
   77.3292724647300     
   78.4996704212058     
   79.3385448409048     
   79.8429018269737     
   80.0111014973756     
  0.000000000000000E+000
   5.26503449260650     
   10.5055826866868     
   15.6977669454306     
   20.8181589383877     
   25.8439510717530     
   30.7530877615376     
   35.5243569606453     
   40.1374481171445     
   44.5729862872458     
   48.8125531115836     
   52.8387041919850     
   56.6349898766841     
   60.1859834079059     
   63.4773174527442     
   66.4957276312746     
   69.2290999933219     
   71.6665185851945     
   73.7983093210618     
   75.6160772583425     
   77.1127358433396     
   78.2825283410669     
   79.1210429979539     
   79.6252240825891     
   79.7933806037323     
  0.000000000000000E+000
   5.24130476441155     
   10.4588512478014     
   15.6291501863940     
   20.7290865801235     
   25.7360740184542     
   30.6281812686143     
   35.3842306901843     
   39.9838717215792     
   44.4076351936225     
   48.6369752482374     
   52.6543052833588     
   56.4430329915524     
   59.9875976880277     
   63.2735111699712     
   66.2874016425501     
   69.0170590032840     
   71.4514791149480     
   73.5809046496802     
   75.3968605898828     
   76.8921833536486     
   78.0610435075254     
   78.8989628316236     
   79.4028268546248     
   79.5708937543402     
  0.000000000000000E+000
   5.21872064058761     
   10.4143203391875     
   15.5636199213870     
   20.6437614236878     
   25.6323497110292     
   30.5075743920499     
   35.2483112930685     
   39.8342051311441     
   44.2457367742148     
   48.4642793508518     
   52.4721474710766     
   56.2526431218826     
   59.7901006778362     
   63.0699322006386     
   66.0786730325268     
   68.8040267928869     
   71.2349083705561     
   73.3614833981994     
   75.1752029563976     
   76.6688327666602     
   77.8364767213220     
   78.6735950733060     
   79.1770178137009     
   79.3449536264348     
  0.000000000000000E+000
   5.19707275190216     
   10.3715988651039     
   15.5006506545109     
   20.5615835760126     
   25.5321682319047     
   30.3907080106494     
   35.1161415414322     
   39.6881307059143     
   44.0871361627549     
   48.2944830338057     
   52.2924195390328     
   56.0641710305684     
   59.5939912175020     
   62.8672115702126     
   65.8702891125939     
   68.5908521836250     
   71.0177433598721     
   73.1410586073347     
   74.9521818490985     
   76.4438144189983     
   77.6099992107741     
   78.4461396083061     
   78.9490134005198     
   79.1167818022456     
  0.000000000000000E+000
   5.17621474339792     
   10.3304130777785     
   15.4398741014845     
   20.4821324323713     
   25.4351027987653     
   30.2771938986521     
   34.9874107120495     
   39.5454454957925     
   43.9317585364828     
   48.1276502694966     
   52.1153265508283     
   55.8779587279231     
   59.3997397810944     
   62.6659373093513     
   65.6629436246920     
   68.3783227900753     
   70.8008541507965     
   72.9205717922743     
   74.7287993963859     
   76.2181801170013     
   77.3827012847640     
   78.2177139084635     
   78.7199470084266     
   78.8875167725420     
  0.000000000000000E+000
   5.15604616233539     
   10.2905750695940     
   15.3810379136042     
   20.4051212118106     
   25.3408655659584     
   30.1667762216554     
   34.8619246464944     
   39.4060410569328     
   43.7795984212537     
   47.9638888697502     
   51.9410936208137     
   55.6943474952097     
   59.2077988882704     
   62.4666657692399     
   65.4572879513296     
   68.1671755889994     
   70.5850536555676     
   72.7009020550524     
   74.5059910220646     
   75.9929115352661     
   77.1556005718696     
   77.9893611187509     
   78.4908768960470     
   78.6582217286419     
  0.000000000000000E+000
   5.13650043891983     
   10.2519605195791     
   15.3239762002628     
   20.3303639332330     
   25.2492747514578     
   30.0593019589024     
   34.7395816809430     
   39.2698860282132     
   43.6307090546619     
   47.8033459971754     
   51.7699664445121     
   55.5136821004225     
   59.0186097062487     
   62.2699295137850     
   65.2539394967026     
   67.9581053013522     
   70.3711057969325     
   72.4828740069152     
   74.2846331875153     
   75.7689278496518     
   76.9296495738125     
   77.7620575163902     
   78.2627935315906     
   78.4298918279767     
  0.000000000000000E+000
   5.11753627712933     
   10.2144926822371     
   15.2685881231641     
   20.2577510882358     
   25.1602299298496     
   29.9546980587629     
   34.6203533430156     
   39.1370113594180     
   43.4851924568611     
   47.6462028252034     
   51.6022099026369     
   55.3363124973165     
   58.8326059603101     
   62.0762426520419     
   65.0534878234297     
   67.7517709143924     
   70.1597321783052     
   72.2672644835036     
   74.0655501235539     
   75.5470924787994     
   76.7057423987932     
   77.5367192035548     
   78.0366262198518     
   78.2034607732862     
  0.000000000000000E+000
   5.09913137621916     
   10.1781306670268     
   15.2148221027500     
   20.1872314696719     
   25.0736932551213     
   29.8529536663056     
   34.5042688506694     
   39.0074979032992     
   43.3431904778460     
   47.4926689988766     
   51.4381055922141     
   55.1625939034504     
   58.6502159713795     
   61.8861042780534     
   64.8564990296396     
   67.5488006510689     
   69.9516174177119     
   72.0548081081168     
   73.8495195455331     
   75.3282188989129     
   76.4847206288089     
   77.3142079816899     
   77.8132489513962     
   77.9798066369788     
  0.000000000000000E+000
   5.08127777515637     
   10.1428607187072     
   15.1626639870290     
   20.1187984117302     
   24.9896750253296     
   29.7541061797557     
   34.3914026157298     
   38.8814660325786     
   43.2048768825616     
   47.3429772561000     
   51.2779488248843     
   54.9928858662577     
   58.4718634087060     
   61.7000005240763     
   64.6635187593977     
   67.3497956622575     
   69.7474133188887     
   71.8462018001929     
   73.6372774003739     
   75.1130755544401     
   76.2673783307923     
   77.0953364089722     
   77.5934854670950     
   77.7597569176829     
  0.000000000000000E+000
   5.06397834664784     
   10.1086896306754     
   15.1121280590733     
   20.0524792306634     
   24.9082224555197     
   29.6582302100662     
   34.2818641130817     
   38.7590669527673     
   43.0704504293288     
   47.1973783907201     
   51.1220454245256     
   54.8275507241092     
   58.2979671742264     
   61.5184056058611     
   64.4750741597495     
   67.1553326809853     
   69.5477420502769     
   71.6421083457734     
   73.4295217252432     
   74.9023899217551     
   76.0544662552274     
   76.8808720750855     
   77.3781135641297     
   77.5440928502534     
  0.000000000000000E+000
   5.04724411841369     
   10.0756396975220     
   15.0632501066490     
   19.9883270159904     
   24.8294108441379     
   29.5654287547530     
   34.1757896121486     
   38.6404754170780     
   42.9401288491084     
   47.0561366332730     
   50.9707085213442     
   54.6669517300495     
   58.1289407107511     
   61.3417821408403     
   64.2916750311352     
   66.9659658412081     
   69.3531984905740     
   71.4431591516238     
   73.2269157121021     
   74.6968518013685     
   75.8466952851230     
   76.6715411467921     
   77.1678686896095     
   77.3335530115201     
  0.000000000000000E+000
   5.03109219851664     
   10.0437447942359     
   15.0160820099731     
   19.9264141685520     
   24.7533365429003     
   29.4758260724390     
   34.0733353777726     
   38.5258835928312     
   42.8141436171065     
   46.9195254652810     
   50.8242554537446     
   54.5114510115338     
   57.9651909373508     
   61.1705809464218     
   64.1138143640087     
   66.7822278298426     
   69.1643518828276     
   71.2499563006602     
   73.0300900761788     
   74.4971159220414     
   75.6447392078033     
   76.4680312483321     
   76.9634468795264     
   77.1288362764954     
  0.000000000000000E+000
   5.01554414784050     
   10.0130472912332     
   14.9706874615016     
   19.8668272521110     
   24.6801112993397     
   29.3895618738251     
   33.9746720352119     
   38.4154958711258     
   42.6927354089840     
   46.7878238509518     
   50.6830048359457     
   54.3614074765418     
   57.8071169528516     
   61.0052404709084     
   63.9419684117071     
   66.6046305109558     
   68.9817469210391     
   71.0630740175010     
   72.8396448238415     
   74.3038039413395     
   75.4492368852807     
   76.2709937454154     
   76.7655071066952     
   76.9306041863867     
  0.000000000000000E+000
   5.00062468785250     
   9.98359559743506     
   14.9271385403289     
   19.8096628441105     
   24.6098576548989     
   29.3067865401684     
   33.8799798624102     
   38.3095244495274     
   42.5761501427774     
   46.6613128548362     
   50.5472738170559     
   54.2171747350277     
   57.6551086048336     
   60.8461859693976     
   63.7765964161963     
   66.4336651357026     
   68.8059043757665     
   70.8830596420090     
   72.6561505092096     
   74.1175059243006     
   75.2607938982933     
   76.0810455024511     
   76.5746731033730     
   76.7394827924151     
  0.000000000000000E+000
   4.98636066286778     
   9.95544218109569     
   14.8855129395389     
   19.7550241551291     
   24.5427051631541     
   29.2276571508805     
   33.7894448257263     
   38.2081855500111     
   42.4646355197046     
   46.5402726084207     
   50.4173755385443     
   54.0790990778085     
   57.5095449914799     
   60.6938285077411     
   63.6181400775022     
   66.2698022306157     
   68.6373213492875     
   70.7104341972782     
   72.4801490610409     
   73.9387813767854     
   75.0799837359600     
   75.8987701810176     
   76.3915347236859     
   76.5560640393576     
  0.000000000000000E+000
   4.97278019778376     
   9.92864195838964     
   14.8458916983108     
   19.7030182464350     
   24.4787872519871     
   29.1523341542500     
   33.7032552162600     
   38.1116961613963     
   42.3584379897247     
   46.4249795884641     
   50.2936167867251     
   53.9475175378670     
   57.3707929430074     
   60.5485638563959     
   63.4670228378459     
   66.1134912397393     
   68.4764712369070     
   70.5456926275788     
   72.3121542531205     
   73.7681599038854     
   74.9073485984856     
   75.7247191443476     
   76.2166489086632     
   76.3809067507989     
  0.000000000000000E+000
   4.95991200768857     
   9.90325096841682     
   14.8083573287771     
   19.6537537181967     
   24.4182385968392     
   29.0809785544087     
   33.6215987755064     
   38.0202712175993     
   42.2578000797283     
   46.3157041725131     
   50.1762958317614     
   53.8227560483266     
   57.2392055153581     
   60.4107713206362     
   63.3236490364051     
   65.9651599823028     
   68.3238034590359     
   70.3893037717723     
   72.1526518832051     
   73.6061415572012     
   74.7433998751195     
   75.5594120284267     
   76.0505403132457     
   76.2145372749430     
  0.000000000000000E+000
   4.94778482682842     
   9.87932527388464     
   14.7729922552194     
   19.6073387723386     
   24.3611929041200     
   29.0137495170543     
   33.5446602234768     
   37.9341211409012     
   42.1629580329788     
   46.2127084409286     
   50.0657004426821     
   53.7051277048253     
   57.1151205192899     
   60.2808125424813     
   63.1884029791097     
   65.8252139765771     
   68.1797430185740     
   70.2417101288245     
   72.0020997179383     
   73.4531969283065     
   74.5886183540829     
   75.4033370356384     
   75.8937016505294     
   76.0574498459618     
  0.000000000000000E+000
   4.93642693247350     
   9.85692004171646     
   14.7398775033455     
   19.5638795771564     
   24.3077810276037     
   28.9508023186509     
   33.4726191213190     
   37.8534496938052     
   42.0741397177245     
   46.1162441990189     
   49.9621060676893     
   53.5949311361740     
   56.9988591015586     
   60.1590303016412     
   63.0616479591044     
   65.6940356717184     
   68.0446899297032     
   70.1033274642777     
   71.8609272541626     
   73.3097670395307     
   74.4434542157229     
   75.2569510020355     
   75.7465938040806     
   75.9101067115906     
  0.000000000000000E+000
   4.92586574514094     
   9.83608876886191     
   14.7090915922665     
   19.5234788779807     
   24.2581293584690     
   28.8922865807335     
   33.4056480151436     
   37.7784520945795     
   41.9915627707780     
   46.0265511970427     
   49.8657741697687     
   53.4924489850369     
   56.8907243905253     
   60.0457473369205     
   62.9437252567779     
   65.5719836223370     
   67.9190185571744     
   69.9745442998334     
   71.7295353407972     
   73.1762630774317     
   74.3083268548909     
   75.1206792844799     
   75.6096457546125     
   75.7729380732542     
  0.000000000000000E+000
   4.91612749102343     
   9.81688262677526     
   14.6807095928826     
   19.4862348110620     
   24.2123584431119     
   28.8383447438775     
   33.3439108191943     
   37.7093133607909     
   41.9154329484335     
   45.9438555296621     
   49.7769507088173     
   53.3979464992768     
   56.7910002155814     
   59.9412652052169     
   62.8349531430612     
   65.4593916348395     
   67.8030768993170     
   69.8557213224031     
   71.6082956998737     
   73.0530660090539     
   74.1836245735731     
   74.9949155092058     
   75.4832543628263     
   75.6463418805958     
  0.000000000000000E+000
   4.90723691576190     
   9.79934990417275     
   14.6548023247292     
   19.4522398875790     
   24.1705817931349     
   28.7891107458629     
   33.2875614054415     
   37.6462068525018     
   41.8459426625324     
   45.8683681997956     
   49.6958647628493     
   53.3116702341342     
   56.6999499077763     
   59.8458631920460     
   62.7356259056386     
   65.3565679099853     
   67.6971858431020     
   69.7471907439988     
   71.4975503803796     
   72.9405261162571     
   74.0697041801692     
   74.8800212188931     
   75.3677840458761     
   75.5306835179830     
  0.000000000000000E+000
   4.89921704118927     
   9.78353553232929     
   14.6314356696662     
   19.4215801221047     
   24.1329048597918     
   28.7447088762836     
   33.2367423736939     
   37.5892929926796     
   41.7832696839425     
   45.8002838347220     
   49.6227272821785     
   53.2338468652895     
   56.6178151876439     
   59.7597972851010     
   62.6460129144974     
   65.2637942023263     
   67.6016384154636     
   69.6492556395180     
   71.3976111741867     
   72.8389624790521     
   73.9668905275317     
   74.7763254511383     
   75.2635663807791     
   75.4262954164530     
  0.000000000000000E+000
   4.89208895856529     
   9.76948068072307     
   14.6106699856356     
   19.3943342855610     
   24.0994241512626     
   28.7052527858662     
   33.1915839818478     
   37.5387181470697     
   41.7275759993577     
   45.7397795447277     
   49.5577299716995     
   53.1646821129134     
   56.5448151452337     
   59.6832992204747     
   62.5663577406489     
   65.1813250140627     
   67.5166990515679     
   69.5621892857227     
   71.3087590194496     
   72.7486624349338     
   73.8754760179322     
   74.6841242772847     
   75.1708996641932     
   75.3334766206721     
  0.000000000000000E+000
   4.88587165327939     
   9.75722241356496     
   14.5925596074479     
   19.3705732671083     
   24.0702264758678     
   28.6708446334753     
   33.1522032202594     
   37.4946136495393     
   41.6790068102792     
   45.6870139166314     
   49.5010442974625     
   53.1043597769465     
   56.4811453166156     
   59.6165756096722     
   62.4968773397193     
   65.1093868382072     
   67.4426028976996     
   69.4862345214223     
   71.2312434133918     
   72.6698810376290     
   73.7957200994924     
   74.6036803269241     
   75.0900484543298     
   75.2524923368282     
  0.000000000000000E+000
   4.88058185712488     
   9.74679339986504     
   14.5771524244564     
   19.3503595328578     
   24.0453882980419     
   28.6415743574904     
   33.1187030176867     
   37.4570949619066     
   41.6376896654288     
   45.6421261361886     
   49.4528206146450     
   53.0530408839843     
   56.4269768605444     
   59.5598071543060     
   62.4377613103027     
   65.0481774636831     
   67.3795551637970     
   69.4216031459516     
   71.1652818532820     
   72.6028405354260     
   73.7278487752828     
   74.5352223199966     
   75.0212431173557     
   75.1835734839526     
  0.000000000000000E+000
   4.87623392512751     
   9.73822167134077     
   14.5644895272541     
   19.3337466719892     
   24.0249751968073     
   28.6175190611784     
   33.0911715690082     
   37.4262609596781     
   41.6037337197792     
   45.6052352347431     
   49.4131874147640     
   53.0108629462639     
   56.3824558384739     
   59.5131479543095     
   62.3891712354242     
   64.9978653530036     
   67.3277305383413     
   69.3684753704328     
   71.1110593215825     
   72.5477298862766     
   73.6720541432070     
   74.4789446252625     
   74.9646793974501     
   75.1269162679700     
  0.000000000000000E+000
   4.87283973460409     
   9.73153042377656     
   14.5546049173181     
   19.3207790230054     
   24.0090414188164     
   28.5987425040262     
   33.0696817771292     
   37.4021933370558     
   41.5772291149413     
   45.5764394565913     
   49.3822506905699     
   52.9779393333137     
   56.3477026006701     
   59.4767249145753     
   62.3512401140796     
   64.9585891014202     
   67.2872726762138     
   69.3269993339468     
   71.0687278286799     
   72.5047043241269     
   73.6284939819370     
   74.4350068609872     
   74.9205180267033     
   75.0826817947764     
  0.000000000000000E+000
   4.87040860467803     
   9.72673785848182     
   14.5475252749637     
   19.3114913745589     
   23.9976295198884     
   28.5852946928844     
   33.0542908032694     
   37.3849561261416     
   41.5582464769095     
   45.5558157444083     
   49.3600934175217     
   52.9543587568526     
   56.3228112807440     
   59.4506372540753     
   62.3240718885827     
   64.9304569848306     
   67.2582937682325     
   69.2972906945796     
   71.0384060242339     
   72.4738849883916     
   73.5972913955005     
   74.4035335509291     
   74.8888843882401     
   75.0509957358305     
  0.000000000000000E+000
   4.86894723492514     
   9.72385706133749     
   14.5432697821304     
   19.3059087366820     
   23.9907700904880     
   28.5772115683059     
   33.0450397212758     
   37.3745953265384     
   41.5468365281855     
   45.5434193407914     
   49.3467751510977     
   52.9401848694894     
   56.3078494005172     
   59.4349561207291     
   62.3077410723032     
   64.9135466022675     
   67.2408741993245     
   69.2794323033047     
   71.0201788859687     
   72.4553586261122     
   73.5785345266176     
   74.3846138461291     
   74.8698682433097     
   75.0319480570773     
  0.000000000000000E+000
   4.86845966219001     
   9.72289591761465     
   14.5418499974838     
   19.3040461793995     
   23.9884815618457     
   28.5745147827380     
   33.0419532728094     
   37.3711386426087     
   41.5430298121412     
   45.5392835045439     
   49.3423317394488     
   52.9354559777058     
   56.3028575867086     
   59.4297243145333     
   62.3022924812966     
   64.9079046174133     
   67.2350623006369     
   69.2734739667752     
   71.0140974926463     
   72.4491773740870     
   73.5722763465081     
   74.3783013205352     
   74.8635235305614     
   75.0255928194904     
VECTORS u double 
    0.00000E+00        -0.73990E+00         0.00000E+00
    0.00000E+00        -0.69690E+00         0.00000E+00
    0.00000E+00        -0.63609E+00         0.00000E+00
    0.00000E+00        -0.56729E+00         0.00000E+00
    0.00000E+00        -0.49888E+00         0.00000E+00
    0.00000E+00        -0.43558E+00         0.00000E+00
    0.00000E+00        -0.37916E+00         0.00000E+00
    0.00000E+00        -0.32973E+00         0.00000E+00
    0.00000E+00        -0.28648E+00         0.00000E+00
    0.00000E+00        -0.24839E+00         0.00000E+00
    0.00000E+00        -0.21460E+00         0.00000E+00
    0.00000E+00        -0.18443E+00         0.00000E+00
    0.00000E+00        -0.15749E+00         0.00000E+00
    0.00000E+00        -0.13353E+00         0.00000E+00
    0.00000E+00        -0.11234E+00         0.00000E+00
    0.00000E+00        -0.93658E-01         0.00000E+00
    0.00000E+00        -0.77215E-01         0.00000E+00
    0.00000E+00        -0.62811E-01         0.00000E+00
    0.00000E+00        -0.50243E-01         0.00000E+00
    0.00000E+00        -0.39240E-01         0.00000E+00
    0.00000E+00        -0.29561E-01         0.00000E+00
    0.00000E+00        -0.20886E-01         0.00000E+00
    0.00000E+00        -0.13089E-01         0.00000E+00
    0.00000E+00        -0.61258E-02         0.00000E+00
    0.00000E+00         0.00000E+00         0.00000E+00
   -0.11920E-01        -0.71782E+00         0.00000E+00
    0.31929E-01        -0.67339E+00         0.00000E+00
    0.58399E-01        -0.61095E+00         0.00000E+00
    0.67912E-01        -0.54433E+00         0.00000E+00
    0.66626E-01        -0.48008E+00         0.00000E+00
    0.60327E-01        -0.42095E+00         0.00000E+00
    0.52459E-01        -0.36794E+00         0.00000E+00
    0.44966E-01        -0.32099E+00         0.00000E+00
    0.38756E-01        -0.27953E+00         0.00000E+00
    0.33731E-01        -0.24280E+00         0.00000E+00
    0.29590E-01        -0.21007E+00         0.00000E+00
    0.26020E-01        -0.18084E+00         0.00000E+00
    0.22680E-01        -0.15472E+00         0.00000E+00
    0.19544E-01        -0.13143E+00         0.00000E+00
    0.16624E-01        -0.11076E+00         0.00000E+00
    0.13955E-01        -0.92509E-01         0.00000E+00
    0.11629E-01        -0.76431E-01         0.00000E+00
    0.93684E-02        -0.62313E-01         0.00000E+00
    0.75002E-02        -0.49915E-01         0.00000E+00
    0.59238E-02        -0.39028E-01         0.00000E+00
    0.46014E-02        -0.29424E-01         0.00000E+00
    0.34216E-02        -0.20799E-01         0.00000E+00
    0.23008E-02        -0.13039E-01         0.00000E+00
    0.11759E-02        -0.61046E-02         0.00000E+00
    0.00000E+00         0.00000E+00         0.00000E+00
   -0.19410E-01        -0.64339E+00         0.00000E+00
    0.77755E-01        -0.59111E+00         0.00000E+00
    0.11874E+00        -0.53126E+00         0.00000E+00
    0.12993E+00        -0.47634E+00         0.00000E+00
    0.12566E+00        -0.42564E+00         0.00000E+00
    0.11399E+00        -0.37870E+00         0.00000E+00
    0.10005E+00        -0.33535E+00         0.00000E+00
    0.86584E-01        -0.29557E+00         0.00000E+00
    0.74846E-01        -0.25936E+00         0.00000E+00
    0.65248E-01        -0.22662E+00         0.00000E+00
    0.57159E-01        -0.19715E+00         0.00000E+00
    0.50083E-01        -0.17064E+00         0.00000E+00
    0.43691E-01        -0.14683E+00         0.00000E+00
    0.37702E-01        -0.12548E+00         0.00000E+00
    0.32107E-01        -0.10638E+00         0.00000E+00
    0.27028E-01        -0.89338E-01         0.00000E+00
    0.22376E-01        -0.74224E-01         0.00000E+00
    0.18239E-01        -0.60842E-01         0.00000E+00
    0.14674E-01        -0.48944E-01         0.00000E+00
    0.11644E-01        -0.38393E-01         0.00000E+00
    0.90810E-02        -0.29009E-01         0.00000E+00
    0.67677E-02        -0.20531E-01         0.00000E+00
    0.45562E-02        -0.12885E-01         0.00000E+00
    0.23305E-02        -0.60390E-02         0.00000E+00
    0.00000E+00         0.00000E+00         0.00000E+00
    0.38569E-02        -0.45316E+00         0.00000E+00
    0.13256E+00        -0.41366E+00         0.00000E+00
    0.16852E+00        -0.39111E+00         0.00000E+00
    0.17703E+00        -0.36750E+00         0.00000E+00
    0.17021E+00        -0.34154E+00         0.00000E+00
    0.15584E+00        -0.31349E+00         0.00000E+00
    0.13869E+00        -0.28449E+00         0.00000E+00
    0.12157E+00        -0.25566E+00         0.00000E+00
    0.10588E+00        -0.22789E+00         0.00000E+00
    0.92289E-01        -0.20177E+00         0.00000E+00
    0.80778E-01        -0.17760E+00         0.00000E+00
    0.70700E-01        -0.15544E+00         0.00000E+00
    0.61590E-01        -0.13520E+00         0.00000E+00
    0.53218E-01        -0.11673E+00         0.00000E+00
    0.45491E-01        -0.99901E-01         0.00000E+00
    0.38422E-01        -0.84647E-01         0.00000E+00
    0.31874E-01        -0.70912E-01         0.00000E+00
    0.26182E-01        -0.58536E-01         0.00000E+00
    0.21258E-01        -0.47380E-01         0.00000E+00
    0.16979E-01        -0.37340E-01         0.00000E+00
    0.13327E-01        -0.28291E-01         0.00000E+00
    0.99638E-02        -0.20063E-01         0.00000E+00
    0.67179E-02        -0.12615E-01         0.00000E+00
    0.34403E-02        -0.59248E-02         0.00000E+00
    0.00000E+00         0.00000E+00         0.00000E+00
    0.80687E-01        -0.18103E+00         0.00000E+00
    0.15827E+00        -0.18806E+00         0.00000E+00
    0.19403E+00        -0.21165E+00         0.00000E+00
    0.20258E+00        -0.22722E+00         0.00000E+00
    0.19718E+00        -0.23229E+00         0.00000E+00
    0.18317E+00        -0.22888E+00         0.00000E+00
    0.16539E+00        -0.21918E+00         0.00000E+00
    0.14675E+00        -0.20535E+00         0.00000E+00
    0.12892E+00        -0.18917E+00         0.00000E+00
    0.11277E+00        -0.17197E+00         0.00000E+00
    0.98698E-01        -0.15465E+00         0.00000E+00
    0.86484E-01        -0.13778E+00         0.00000E+00
    0.75574E-01        -0.12165E+00         0.00000E+00
    0.65573E-01        -0.10643E+00         0.00000E+00
    0.56304E-01        -0.92185E-01         0.00000E+00
    0.47698E-01        -0.78981E-01         0.00000E+00
    0.39844E-01        -0.66785E-01         0.00000E+00
    0.33012E-01        -0.55533E-01         0.00000E+00
    0.27059E-01        -0.45244E-01         0.00000E+00
    0.21858E-01        -0.35841E-01         0.00000E+00
    0.17245E-01        -0.27239E-01         0.00000E+00
    0.12933E-01        -0.19377E-01         0.00000E+00
    0.87343E-02        -0.12221E-01         0.00000E+00
    0.44783E-02        -0.57584E-02         0.00000E+00
    0.00000E+00         0.00000E+00         0.00000E+00
    0.92181E-01        -0.11757E+00         0.00000E+00
    0.14337E+00        -0.11513E+00         0.00000E+00
    0.17888E+00        -0.12373E+00         0.00000E+00
    0.19539E+00        -0.14016E+00         0.00000E+00
    0.19702E+00        -0.15409E+00         0.00000E+00
    0.18868E+00        -0.16228E+00         0.00000E+00
    0.17474E+00        -0.16419E+00         0.00000E+00
    0.15829E+00        -0.16083E+00         0.00000E+00
    0.14136E+00        -0.15355E+00         0.00000E+00
    0.12516E+00        -0.14366E+00         0.00000E+00
    0.11040E+00        -0.13224E+00         0.00000E+00
    0.97255E-01        -0.12010E+00         0.00000E+00
    0.85468E-01        -0.10778E+00         0.00000E+00
    0.74645E-01        -0.95638E-01         0.00000E+00
    0.64504E-01        -0.83895E-01         0.00000E+00
    0.55038E-01        -0.72660E-01         0.00000E+00
    0.46461E-01        -0.61963E-01         0.00000E+00
    0.38759E-01        -0.51896E-01         0.00000E+00
    0.32038E-01        -0.42522E-01         0.00000E+00
    0.26177E-01        -0.33860E-01         0.00000E+00
    0.20745E-01        -0.25855E-01         0.00000E+00
    0.15601E-01        -0.18474E-01         0.00000E+00
    0.10553E-01        -0.11703E-01         0.00000E+00
    0.54167E-02        -0.55407E-02         0.00000E+00
    0.00000E+00         0.00000E+00         0.00000E+00
    0.10368E+00        -0.76944E-01         0.00000E+00
    0.13561E+00        -0.76545E-01         0.00000E+00
    0.16291E+00        -0.79931E-01         0.00000E+00
    0.17969E+00        -0.89110E-01         0.00000E+00
    0.18585E+00        -0.10125E+00         0.00000E+00
    0.18287E+00        -0.11186E+00         0.00000E+00
    0.17371E+00        -0.11879E+00         0.00000E+00
    0.16087E+00        -0.12149E+00         0.00000E+00
    0.14639E+00        -0.12033E+00         0.00000E+00
    0.13159E+00        -0.11611E+00         0.00000E+00
    0.11742E+00        -0.10965E+00         0.00000E+00
    0.10434E+00        -0.10172E+00         0.00000E+00
    0.92345E-01        -0.92967E-01         0.00000E+00
    0.81173E-01        -0.83813E-01         0.00000E+00
    0.70721E-01        -0.74519E-01         0.00000E+00
    0.60970E-01        -0.65242E-01         0.00000E+00
    0.51963E-01        -0.56164E-01         0.00000E+00
    0.43698E-01        -0.47447E-01         0.00000E+00
    0.36296E-01        -0.39203E-01         0.00000E+00
    0.29822E-01        -0.31464E-01         0.00000E+00
    0.23745E-01        -0.24190E-01         0.00000E+00
    0.17902E-01        -0.17392E-01         0.00000E+00
    0.12129E-01        -0.11084E-01         0.00000E+00
    0.62312E-02        -0.52796E-02         0.00000E+00
    0.00000E+00         0.00000E+00         0.00000E+00
    0.10953E+00        -0.52450E-01         0.00000E+00
    0.13114E+00        -0.52314E-01         0.00000E+00
    0.15096E+00        -0.54951E-01         0.00000E+00
    0.16499E+00        -0.59875E-01         0.00000E+00
    0.17193E+00        -0.68174E-01         0.00000E+00
    0.17199E+00        -0.77424E-01         0.00000E+00
    0.16662E+00        -0.85103E-01         0.00000E+00
    0.15731E+00        -0.90185E-01         0.00000E+00
    0.14573E+00        -0.92324E-01         0.00000E+00
    0.13304E+00        -0.91755E-01         0.00000E+00
    0.12021E+00        -0.88920E-01         0.00000E+00
    0.10791E+00        -0.84337E-01         0.00000E+00
    0.96328E-01        -0.78529E-01         0.00000E+00
    0.85413E-01        -0.71918E-01         0.00000E+00
    0.75088E-01        -0.64810E-01         0.00000E+00
    0.65305E-01        -0.57457E-01         0.00000E+00
    0.56099E-01        -0.50050E-01         0.00000E+00
    0.47524E-01        -0.42766E-01         0.00000E+00
    0.39744E-01        -0.35666E-01         0.00000E+00
    0.32778E-01        -0.28856E-01         0.00000E+00
    0.26185E-01        -0.22364E-01         0.00000E+00
    0.19796E-01        -0.16200E-01         0.00000E+00
    0.13433E-01        -0.10397E-01         0.00000E+00
    0.69060E-02        -0.49886E-02         0.00000E+00
    0.00000E+00         0.00000E+00         0.00000E+00
    0.11248E+00        -0.36184E-01         0.00000E+00
    0.12742E+00        -0.36631E-01         0.00000E+00
    0.14204E+00        -0.39175E-01         0.00000E+00
    0.15297E+00        -0.42647E-01         0.00000E+00
    0.15899E+00        -0.48019E-01         0.00000E+00
    0.16022E+00        -0.54820E-01         0.00000E+00
    0.15708E+00        -0.61621E-01         0.00000E+00
    0.15044E+00        -0.67040E-01         0.00000E+00
    0.14144E+00        -0.70469E-01         0.00000E+00
    0.13092E+00        -0.71814E-01         0.00000E+00
    0.11979E+00        -0.71199E-01         0.00000E+00
    0.10870E+00        -0.68909E-01         0.00000E+00
    0.97973E-01        -0.65300E-01         0.00000E+00
    0.87619E-01        -0.60750E-01         0.00000E+00
    0.77648E-01        -0.55553E-01         0.00000E+00
    0.68076E-01        -0.49929E-01         0.00000E+00
    0.58895E-01        -0.44078E-01         0.00000E+00
    0.50289E-01        -0.38096E-01         0.00000E+00
    0.42341E-01        -0.32132E-01         0.00000E+00
    0.35023E-01        -0.26261E-01         0.00000E+00
    0.28073E-01        -0.20520E-01         0.00000E+00
    0.21278E-01        -0.14977E-01         0.00000E+00
    0.14461E-01        -0.96852E-02         0.00000E+00
    0.74368E-02        -0.46834E-02         0.00000E+00
    0.00000E+00         0.00000E+00         0.00000E+00
    0.11339E+00        -0.25288E-01         0.00000E+00
    0.12382E+00        -0.26115E-01         0.00000E+00
    0.13467E+00        -0.28494E-01         0.00000E+00
    0.14310E+00        -0.31926E-01         0.00000E+00
    0.14798E+00        -0.35703E-01         0.00000E+00
    0.14927E+00        -0.40503E-01         0.00000E+00
    0.14731E+00        -0.45709E-01         0.00000E+00
    0.14241E+00        -0.50532E-01         0.00000E+00
    0.13538E+00        -0.54165E-01         0.00000E+00
    0.12674E+00        -0.56312E-01         0.00000E+00
    0.11724E+00        -0.56928E-01         0.00000E+00
    0.10743E+00        -0.56112E-01         0.00000E+00
    0.97690E-01        -0.54079E-01         0.00000E+00
    0.88073E-01        -0.51093E-01         0.00000E+00
    0.78627E-01        -0.47409E-01         0.00000E+00
    0.69423E-01        -0.43217E-01         0.00000E+00
    0.60497E-01        -0.38645E-01         0.00000E+00
    0.52013E-01        -0.33856E-01         0.00000E+00
    0.44063E-01        -0.28903E-01         0.00000E+00
    0.36620E-01        -0.23815E-01         0.00000E+00
    0.29449E-01        -0.18748E-01         0.00000E+00
    0.22374E-01        -0.13785E-01         0.00000E+00
    0.15225E-01        -0.89808E-02         0.00000E+00
    0.78301E-02        -0.43777E-02         0.00000E+00
    0.00000E+00         0.00000E+00         0.00000E+00
    0.11271E+00        -0.17735E-01         0.00000E+00
    0.12015E+00        -0.18883E-01         0.00000E+00
    0.12812E+00        -0.21211E-01         0.00000E+00
    0.13469E+00        -0.24453E-01         0.00000E+00
    0.13861E+00        -0.28009E-01         0.00000E+00
    0.13967E+00        -0.31583E-01         0.00000E+00
    0.13813E+00        -0.35508E-01         0.00000E+00
    0.13431E+00        -0.39330E-01         0.00000E+00
    0.12867E+00        -0.42553E-01         0.00000E+00
    0.12148E+00        -0.44881E-01         0.00000E+00
    0.11340E+00        -0.46038E-01         0.00000E+00
    0.10479E+00        -0.46057E-01         0.00000E+00
    0.96026E-01        -0.45047E-01         0.00000E+00
    0.87188E-01        -0.43198E-01         0.00000E+00
    0.78332E-01        -0.40663E-01         0.00000E+00
    0.69627E-01        -0.37569E-01         0.00000E+00
    0.61042E-01        -0.34106E-01         0.00000E+00
    0.52864E-01        -0.30217E-01         0.00000E+00
    0.45101E-01        -0.25970E-01         0.00000E+00
    0.37652E-01        -0.21555E-01         0.00000E+00
    0.30375E-01        -0.17089E-01         0.00000E+00
    0.23124E-01        -0.12654E-01         0.00000E+00
    0.15751E-01        -0.83053E-02         0.00000E+00
    0.80989E-02        -0.40805E-02         0.00000E+00
    0.00000E+00         0.00000E+00         0.00000E+00
    0.11086E+00        -0.12323E-01         0.00000E+00
    0.11628E+00        -0.13718E-01         0.00000E+00
    0.12217E+00        -0.15970E-01         0.00000E+00
    0.12719E+00        -0.18993E-01         0.00000E+00
    0.13036E+00        -0.22438E-01         0.00000E+00
    0.13123E+00        -0.25831E-01         0.00000E+00
    0.12989E+00        -0.29016E-01         0.00000E+00
    0.12670E+00        -0.32023E-01         0.00000E+00
    0.12193E+00        -0.34724E-01         0.00000E+00
    0.11583E+00        -0.36861E-01         0.00000E+00
    0.10888E+00        -0.38168E-01         0.00000E+00
    0.10131E+00        -0.38616E-01         0.00000E+00
    0.93412E-01        -0.38225E-01         0.00000E+00
    0.85344E-01        -0.37113E-01         0.00000E+00
    0.77128E-01        -0.35418E-01         0.00000E+00
    0.68922E-01        -0.33162E-01         0.00000E+00
    0.60913E-01        -0.30294E-01         0.00000E+00
    0.53125E-01        -0.26963E-01         0.00000E+00
    0.45581E-01        -0.23324E-01         0.00000E+00
    0.38208E-01        -0.19489E-01         0.00000E+00
    0.30911E-01        -0.15557E-01         0.00000E+00
    0.23573E-01        -0.11600E-01         0.00000E+00
    0.16068E-01        -0.76686E-02         0.00000E+00
    0.82593E-02        -0.37969E-02         0.00000E+00
    0.00000E+00         0.00000E+00         0.00000E+00
    0.10818E+00        -0.82833E-02         0.00000E+00
    0.11224E+00        -0.98425E-02         0.00000E+00
    0.11664E+00        -0.12024E-01         0.00000E+00
    0.12042E+00        -0.14820E-01         0.00000E+00
    0.12288E+00        -0.18015E-01         0.00000E+00
    0.12359E+00        -0.21318E-01         0.00000E+00
    0.12246E+00        -0.24423E-01         0.00000E+00
    0.11971E+00        -0.27135E-01         0.00000E+00
    0.11554E+00        -0.29470E-01         0.00000E+00
    0.11026E+00        -0.31321E-01         0.00000E+00
    0.10416E+00        -0.32600E-01         0.00000E+00
    0.97444E-01        -0.33254E-01         0.00000E+00
    0.90309E-01        -0.33251E-01         0.00000E+00
    0.82948E-01        -0.32555E-01         0.00000E+00
    0.75411E-01        -0.31214E-01         0.00000E+00
    0.67835E-01        -0.29291E-01         0.00000E+00
    0.60328E-01        -0.26879E-01         0.00000E+00
    0.52916E-01        -0.24063E-01         0.00000E+00
    0.45609E-01        -0.20940E-01         0.00000E+00
    0.38366E-01        -0.17610E-01         0.00000E+00
    0.31115E-01        -0.14151E-01         0.00000E+00
    0.23764E-01        -0.10624E-01         0.00000E+00
    0.16206E-01        -0.70740E-02         0.00000E+00
    0.83271E-02        -0.35291E-02         0.00000E+00
    0.00000E+00         0.00000E+00         0.00000E+00
    0.10496E+00        -0.51293E-02         0.00000E+00
    0.10810E+00        -0.67893E-02         0.00000E+00
    0.11141E+00        -0.88980E-02         0.00000E+00
    0.11425E+00        -0.11479E-01         0.00000E+00
    0.11608E+00        -0.14403E-01         0.00000E+00
    0.11657E+00        -0.17452E-01         0.00000E+00
    0.11560E+00        -0.20398E-01         0.00000E+00
    0.11321E+00        -0.23067E-01         0.00000E+00
    0.10958E+00        -0.25321E-01         0.00000E+00
    0.10495E+00        -0.27083E-01         0.00000E+00
    0.99536E-01        -0.28305E-01         0.00000E+00
    0.93529E-01        -0.28954E-01         0.00000E+00
    0.87102E-01        -0.29012E-01         0.00000E+00
    0.80391E-01        -0.28497E-01         0.00000E+00
    0.73475E-01        -0.27435E-01         0.00000E+00
    0.66448E-01        -0.25864E-01         0.00000E+00
    0.59387E-01        -0.23848E-01         0.00000E+00
    0.52328E-01        -0.21467E-01         0.00000E+00
    0.45273E-01        -0.18794E-01         0.00000E+00
    0.38195E-01        -0.15906E-01         0.00000E+00
    0.31040E-01        -0.12866E-01         0.00000E+00
    0.23735E-01        -0.97252E-02         0.00000E+00
    0.16194E-01        -0.65217E-02         0.00000E+00
    0.83169E-02        -0.32776E-02         0.00000E+00
    0.00000E+00         0.00000E+00         0.00000E+00
    0.10140E+00        -0.25634E-02         0.00000E+00
    0.10390E+00        -0.42745E-02         0.00000E+00
    0.10643E+00        -0.63088E-02         0.00000E+00
    0.10856E+00        -0.86973E-02         0.00000E+00
    0.10989E+00        -0.11357E-01         0.00000E+00
    0.11016E+00        -0.14134E-01         0.00000E+00
    0.10924E+00        -0.16852E-01         0.00000E+00
    0.10715E+00        -0.19345E-01         0.00000E+00
    0.10398E+00        -0.21483E-01         0.00000E+00
    0.99901E-01        -0.23179E-01         0.00000E+00
    0.95087E-01        -0.24383E-01         0.00000E+00
    0.89699E-01        -0.25071E-01         0.00000E+00
    0.83878E-01        -0.25238E-01         0.00000E+00
    0.77735E-01        -0.24899E-01         0.00000E+00
    0.71356E-01        -0.24079E-01         0.00000E+00
    0.64813E-01        -0.22812E-01         0.00000E+00
    0.58163E-01        -0.21148E-01         0.00000E+00
    0.51437E-01        -0.19144E-01         0.00000E+00
    0.44641E-01        -0.16863E-01         0.00000E+00
    0.37753E-01        -0.14362E-01         0.00000E+00
    0.30734E-01        -0.11694E-01         0.00000E+00
    0.23524E-01        -0.88999E-02         0.00000E+00
    0.16054E-01        -0.60103E-02         0.00000E+00
    0.82418E-02        -0.30423E-02         0.00000E+00
    0.00000E+00         0.00000E+00         0.00000E+00
    0.97650E-01        -0.40413E-03         0.00000E+00
    0.99702E-01        -0.21300E-02         0.00000E+00
    0.10167E+00        -0.40897E-02         0.00000E+00
    0.10326E+00        -0.63098E-02         0.00000E+00
    0.10420E+00        -0.87359E-02         0.00000E+00
    0.10427E+00        -0.11257E-01         0.00000E+00
    0.10338E+00        -0.13734E-01         0.00000E+00
    0.10151E+00        -0.16032E-01         0.00000E+00
    0.98705E-01        -0.18036E-01         0.00000E+00
    0.95090E-01        -0.19660E-01         0.00000E+00
    0.90791E-01        -0.20854E-01         0.00000E+00
    0.85936E-01        -0.21592E-01         0.00000E+00
    0.80642E-01        -0.21870E-01         0.00000E+00
    0.75003E-01        -0.21698E-01         0.00000E+00
    0.69098E-01        -0.21098E-01         0.00000E+00
    0.62986E-01        -0.20098E-01         0.00000E+00
    0.56713E-01        -0.18739E-01         0.00000E+00
    0.50306E-01        -0.17066E-01         0.00000E+00
    0.43770E-01        -0.15126E-01         0.00000E+00
    0.37091E-01        -0.12966E-01         0.00000E+00
    0.30237E-01        -0.10628E-01         0.00000E+00
    0.23163E-01        -0.81438E-02         0.00000E+00
    0.15810E-01        -0.55379E-02         0.00000E+00
    0.81131E-02        -0.28229E-02         0.00000E+00
    0.00000E+00         0.00000E+00         0.00000E+00
    0.93829E-01         0.14576E-02         0.00000E+00
    0.95547E-01        -0.25785E-03         0.00000E+00
    0.97100E-01        -0.21443E-02         0.00000E+00
    0.98291E-01        -0.42202E-02         0.00000E+00
    0.98924E-01        -0.64469E-02         0.00000E+00
    0.98845E-01        -0.87425E-02         0.00000E+00
    0.97962E-01        -0.11001E-01         0.00000E+00
    0.96249E-01        -0.13114E-01         0.00000E+00
    0.93739E-01        -0.14983E-01         0.00000E+00
    0.90504E-01        -0.16533E-01         0.00000E+00
    0.86639E-01        -0.17714E-01         0.00000E+00
    0.82242E-01        -0.18498E-01         0.00000E+00
    0.77408E-01        -0.18876E-01         0.00000E+00
    0.72216E-01        -0.18855E-01         0.00000E+00
    0.66732E-01        -0.18450E-01         0.00000E+00
    0.61010E-01        -0.17685E-01         0.00000E+00
    0.55086E-01        -0.16593E-01         0.00000E+00
    0.48984E-01        -0.15207E-01         0.00000E+00
    0.42709E-01        -0.13566E-01         0.00000E+00
    0.36251E-01        -0.11706E-01         0.00000E+00
    0.29586E-01        -0.96597E-02         0.00000E+00
    0.22678E-01        -0.74524E-02         0.00000E+00
    0.15481E-01        -0.51025E-02         0.00000E+00
    0.79407E-02        -0.26189E-02         0.00000E+00
    0.00000E+00         0.00000E+00         0.00000E+00
    0.90003E-01         0.30874E-02         0.00000E+00
    0.91464E-01         0.13987E-02         0.00000E+00
    0.92709E-01        -0.41719E-03         0.00000E+00
    0.93601E-01        -0.23700E-02         0.00000E+00
    0.94003E-01        -0.44302E-02         0.00000E+00
    0.93801E-01        -0.65361E-02         0.00000E+00
    0.92920E-01        -0.86067E-02         0.00000E+00
    0.91333E-01        -0.10555E-01         0.00000E+00
    0.89053E-01        -0.12301E-01         0.00000E+00
    0.86130E-01        -0.13779E-01         0.00000E+00
    0.82629E-01        -0.14942E-01         0.00000E+00
    0.78624E-01        -0.15762E-01         0.00000E+00
    0.74191E-01        -0.16226E-01         0.00000E+00
    0.69394E-01        -0.16336E-01         0.00000E+00
    0.64289E-01        -0.16102E-01         0.00000E+00
    0.58921E-01        -0.15542E-01         0.00000E+00
    0.53322E-01        -0.14681E-01         0.00000E+00
    0.47512E-01        -0.13547E-01         0.00000E+00
    0.41497E-01        -0.12167E-01         0.00000E+00
    0.35269E-01        -0.10570E-01         0.00000E+00
    0.28811E-01        -0.87819E-02         0.00000E+00
    0.22094E-01        -0.68215E-02         0.00000E+00
    0.15082E-01        -0.47023E-02         0.00000E+00
    0.77330E-02        -0.24296E-02         0.00000E+00
    0.00000E+00         0.00000E+00         0.00000E+00
    0.86221E-01         0.45251E-02         0.00000E+00
    0.87475E-01         0.28731E-02         0.00000E+00
    0.88483E-01         0.11242E-02         0.00000E+00
    0.89149E-01        -0.72367E-03         0.00000E+00
    0.89377E-01        -0.26460E-02         0.00000E+00
    0.89080E-01        -0.45951E-02         0.00000E+00
    0.88201E-01        -0.65081E-02         0.00000E+00
    0.86713E-01        -0.83163E-02         0.00000E+00
    0.84621E-01        -0.99541E-02         0.00000E+00
    0.81953E-01        -0.11366E-01         0.00000E+00
    0.78757E-01        -0.12509E-01         0.00000E+00
    0.75089E-01        -0.13355E-01         0.00000E+00
    0.71004E-01        -0.13891E-01         0.00000E+00
    0.66557E-01        -0.14112E-01         0.00000E+00
    0.61794E-01        -0.14026E-01         0.00000E+00
    0.56751E-01        -0.13643E-01         0.00000E+00
    0.51456E-01        -0.12983E-01         0.00000E+00
    0.45926E-01        -0.12066E-01         0.00000E+00
    0.40168E-01        -0.10914E-01         0.00000E+00
    0.34176E-01        -0.95481E-02         0.00000E+00
    0.27938E-01        -0.79876E-02         0.00000E+00
    0.21432E-01        -0.62469E-02         0.00000E+00
    0.14630E-01        -0.43350E-02         0.00000E+00
    0.74977E-02        -0.22544E-02         0.00000E+00
    0.00000E+00         0.00000E+00         0.00000E+00
    0.82508E-01         0.57958E-02         0.00000E+00
    0.83591E-01         0.41857E-02         0.00000E+00
    0.84412E-01         0.24999E-02         0.00000E+00
    0.84905E-01         0.74204E-03         0.00000E+00
    0.85000E-01        -0.10660E-02         0.00000E+00
    0.84634E-01        -0.28864E-02         0.00000E+00
    0.83759E-01        -0.46694E-02         0.00000E+00
    0.82352E-01        -0.63604E-02         0.00000E+00
    0.80412E-01        -0.79058E-02         0.00000E+00
    0.77957E-01        -0.92587E-02         0.00000E+00
    0.75019E-01        -0.10381E-01         0.00000E+00
    0.71640E-01        -0.11247E-01         0.00000E+00
    0.67861E-01        -0.11841E-01         0.00000E+00
    0.63725E-01        -0.12156E-01         0.00000E+00
    0.59270E-01        -0.12194E-01         0.00000E+00
    0.54526E-01        -0.11964E-01         0.00000E+00
    0.49516E-01        -0.11477E-01         0.00000E+00
    0.44256E-01        -0.10748E-01         0.00000E+00
    0.38751E-01        -0.97937E-02         0.00000E+00
    0.32999E-01        -0.86300E-02         0.00000E+00
    0.26991E-01        -0.72703E-02         0.00000E+00
    0.20710E-01        -0.57247E-02         0.00000E+00
    0.14135E-01        -0.39989E-02         0.00000E+00
    0.72408E-02        -0.20927E-02         0.00000E+00
    0.00000E+00         0.00000E+00         0.00000E+00
    0.78882E-01         0.69167E-02         0.00000E+00
    0.79815E-01         0.53506E-02         0.00000E+00
    0.80486E-01         0.37235E-02         0.00000E+00
    0.80844E-01         0.20435E-02         0.00000E+00
    0.80838E-01         0.33060E-03         0.00000E+00
    0.80419E-01        -0.13839E-02         0.00000E+00
    0.79552E-01        -0.30601E-02         0.00000E+00
    0.78214E-01        -0.46540E-02         0.00000E+00
    0.76402E-01        -0.61218E-02         0.00000E+00
    0.74127E-01        -0.74237E-02         0.00000E+00
    0.71410E-01        -0.85270E-02         0.00000E+00
    0.68279E-01        -0.94069E-02         0.00000E+00
    0.64769E-01        -0.10048E-01         0.00000E+00
    0.60911E-01        -0.10440E-01         0.00000E+00
    0.56736E-01        -0.10584E-01         0.00000E+00
    0.52268E-01        -0.10483E-01         0.00000E+00
    0.47526E-01        -0.10144E-01         0.00000E+00
    0.42525E-01        -0.95771E-02         0.00000E+00
    0.37269E-01        -0.87946E-02         0.00000E+00
    0.31759E-01        -0.78071E-02         0.00000E+00
    0.25987E-01        -0.66237E-02         0.00000E+00
    0.19942E-01        -0.52511E-02         0.00000E+00
    0.13609E-01        -0.36918E-02         0.00000E+00
    0.69680E-02        -0.19439E-02         0.00000E+00
    0.00000E+00         0.00000E+00         0.00000E+00
    0.75346E-01         0.79006E-02         0.00000E+00
    0.76149E-01         0.63784E-02         0.00000E+00
    0.76694E-01         0.48058E-02         0.00000E+00
    0.76945E-01         0.31937E-02         0.00000E+00
    0.76861E-01         0.15609E-02         0.00000E+00
    0.76405E-01        -0.66105E-04         0.00000E+00
    0.75547E-01        -0.16545E-02         0.00000E+00
    0.74271E-01        -0.31682E-02         0.00000E+00
    0.72569E-01        -0.45710E-02         0.00000E+00
    0.70447E-01        -0.58294E-02         0.00000E+00
    0.67920E-01        -0.69147E-02         0.00000E+00
    0.65008E-01        -0.78045E-02         0.00000E+00
    0.61736E-01        -0.84827E-02         0.00000E+00
    0.58127E-01        -0.89399E-02         0.00000E+00
    0.54207E-01        -0.91720E-02         0.00000E+00
    0.49995E-01        -0.91796E-02         0.00000E+00
    0.45507E-01        -0.89668E-02         0.00000E+00
    0.40754E-01        -0.85396E-02         0.00000E+00
    0.35743E-01        -0.79054E-02         0.00000E+00
    0.30474E-01        -0.70710E-02         0.00000E+00
    0.24943E-01        -0.60422E-02         0.00000E+00
    0.19142E-01        -0.48225E-02         0.00000E+00
    0.13060E-01        -0.34121E-02         0.00000E+00
    0.66837E-02        -0.18073E-02         0.00000E+00
    0.00000E+00         0.00000E+00         0.00000E+00
    0.71904E-01         0.87584E-02         0.00000E+00
    0.72589E-01         0.72786E-02         0.00000E+00
    0.73029E-01         0.57562E-02         0.00000E+00
    0.73192E-01         0.42038E-02         0.00000E+00
    0.73047E-01         0.26391E-02         0.00000E+00
    0.72564E-01         0.10853E-02         0.00000E+00
    0.71720E-01        -0.43021E-03         0.00000E+00
    0.70498E-01        -0.18774E-02         0.00000E+00
    0.68893E-01        -0.32259E-02         0.00000E+00
    0.66905E-01        -0.44472E-02         0.00000E+00
    0.64544E-01        -0.55163E-02         0.00000E+00
    0.61825E-01        -0.64127E-02         0.00000E+00
    0.58765E-01        -0.71211E-02         0.00000E+00
    0.55382E-01        -0.76310E-02         0.00000E+00
    0.51696E-01        -0.79366E-02         0.00000E+00
    0.47722E-01        -0.80361E-02         0.00000E+00
    0.43474E-01        -0.79303E-02         0.00000E+00
    0.38962E-01        -0.76221E-02         0.00000E+00
    0.34190E-01        -0.71154E-02         0.00000E+00
    0.29161E-01        -0.64139E-02         0.00000E+00
    0.23872E-01        -0.55203E-02         0.00000E+00
    0.18320E-01        -0.44354E-02         0.00000E+00
    0.12496E-01        -0.31577E-02         0.00000E+00
    0.63919E-02        -0.16821E-02         0.00000E+00
    0.00000E+00         0.00000E+00         0.00000E+00
    0.68551E-01         0.94998E-02         0.00000E+00
    0.69131E-01         0.80602E-02         0.00000E+00
    0.69479E-01         0.65839E-02         0.00000E+00
    0.69570E-01         0.50844E-02         0.00000E+00
    0.69377E-01         0.35784E-02         0.00000E+00
    0.68876E-01         0.20864E-02         0.00000E+00
    0.68047E-01         0.63194E-03         0.00000E+00
    0.66876E-01        -0.75955E-03         0.00000E+00
    0.65357E-01        -0.20624E-02         0.00000E+00
    0.63488E-01        -0.32520E-02         0.00000E+00
    0.61275E-01        -0.43064E-02         0.00000E+00
    0.58728E-01        -0.52070E-02         0.00000E+00
    0.55859E-01        -0.59391E-02         0.00000E+00
    0.52682E-01        -0.64920E-02         0.00000E+00
    0.49212E-01        -0.68585E-02         0.00000E+00
    0.45462E-01        -0.70348E-02         0.00000E+00
    0.41442E-01        -0.70194E-02         0.00000E+00
    0.37160E-01        -0.68125E-02         0.00000E+00
    0.32623E-01        -0.64152E-02         0.00000E+00
    0.27831E-01        -0.58285E-02         0.00000E+00
    0.22786E-01        -0.50526E-02         0.00000E+00
    0.17484E-01        -0.40865E-02         0.00000E+00
    0.11923E-01        -0.29268E-02         0.00000E+00
    0.60958E-02        -0.15677E-02         0.00000E+00
    0.00000E+00         0.00000E+00         0.00000E+00
    0.65283E-01         0.10134E-01         0.00000E+00
    0.65768E-01         0.87319E-02         0.00000E+00
    0.66037E-01         0.72980E-02         0.00000E+00
    0.66067E-01         0.58456E-02         0.00000E+00
    0.65836E-01         0.43908E-02         0.00000E+00
    0.65323E-01         0.29517E-02         0.00000E+00
    0.64512E-01         0.15491E-02         0.00000E+00
    0.63389E-01         0.20476E-03         0.00000E+00
    0.61947E-01        -0.10592E-02         0.00000E+00
    0.60185E-01        -0.22213E-02         0.00000E+00
    0.58105E-01        -0.32623E-02         0.00000E+00
    0.55713E-01        -0.41650E-02         0.00000E+00
    0.53019E-01        -0.49156E-02         0.00000E+00
    0.50032E-01        -0.55032E-02         0.00000E+00
    0.46763E-01        -0.59198E-02         0.00000E+00
    0.43223E-01        -0.61600E-02         0.00000E+00
    0.39420E-01        -0.62206E-02         0.00000E+00
    0.35362E-01        -0.60995E-02         0.00000E+00
    0.31053E-01        -0.57956E-02         0.00000E+00
    0.26497E-01        -0.53078E-02         0.00000E+00
    0.21694E-01        -0.46345E-02         0.00000E+00
    0.16644E-01        -0.37726E-02         0.00000E+00
    0.11346E-01        -0.27178E-02         0.00000E+00
    0.57980E-02        -0.14633E-02         0.00000E+00
    0.00000E+00         0.00000E+00         0.00000E+00
    0.62095E-01         0.10670E-01         0.00000E+00
    0.62494E-01         0.93029E-02         0.00000E+00
    0.62693E-01         0.79076E-02         0.00000E+00
    0.62672E-01         0.64975E-02         0.00000E+00
    0.62411E-01         0.50877E-02         0.00000E+00
    0.61891E-01         0.36947E-02         0.00000E+00
    0.61099E-01         0.23367E-02         0.00000E+00
    0.60021E-01         0.10328E-02         0.00000E+00
    0.58652E-01        -0.19752E-03         0.00000E+00
    0.56988E-01        -0.13356E-02         0.00000E+00
    0.55029E-01        -0.23639E-02         0.00000E+00
    0.52779E-01        -0.32670E-02         0.00000E+00
    0.50245E-01        -0.40316E-02         0.00000E+00
    0.47434E-01        -0.46469E-02         0.00000E+00
    0.44354E-01        -0.51043E-02         0.00000E+00
    0.41013E-01        -0.53975E-02         0.00000E+00
    0.37418E-01        -0.55215E-02         0.00000E+00
    0.33576E-01        -0.54728E-02         0.00000E+00
    0.29490E-01        -0.52485E-02         0.00000E+00
    0.25165E-01        -0.48457E-02         0.00000E+00
    0.20602E-01        -0.42612E-02         0.00000E+00
    0.15803E-01        -0.34907E-02         0.00000E+00
    0.10769E-01        -0.25288E-02         0.00000E+00
    0.55007E-02        -0.13683E-02         0.00000E+00
    0.00000E+00         0.00000E+00         0.00000E+00
    0.58980E-01         0.11118E-01         0.00000E+00
    0.59302E-01         0.97820E-02         0.00000E+00
    0.59440E-01         0.84219E-02         0.00000E+00
    0.59376E-01         0.70500E-02         0.00000E+00
    0.59091E-01         0.56802E-02         0.00000E+00
    0.58569E-01         0.43276E-02         0.00000E+00
    0.57796E-01         0.30086E-02         0.00000E+00
    0.56763E-01         0.17401E-02         0.00000E+00
    0.55461E-01         0.53920E-03         0.00000E+00
    0.53887E-01        -0.57724E-03         0.00000E+00
    0.52041E-01        -0.15935E-02         0.00000E+00
    0.49923E-01        -0.24954E-02         0.00000E+00
    0.47538E-01        -0.32701E-02         0.00000E+00
    0.44892E-01        -0.39072E-02         0.00000E+00
    0.41989E-01        -0.43976E-02         0.00000E+00
    0.38838E-01        -0.47341E-02         0.00000E+00
    0.35442E-01        -0.49109E-02         0.00000E+00
    0.31808E-01        -0.49230E-02         0.00000E+00
    0.27941E-01        -0.47662E-02         0.00000E+00
    0.23843E-01        -0.44362E-02         0.00000E+00
    0.19518E-01        -0.39285E-02         0.00000E+00
    0.14968E-01        -0.32380E-02         0.00000E+00
    0.10196E-01        -0.23583E-02         0.00000E+00
    0.52056E-02        -0.12820E-02         0.00000E+00
    0.00000E+00         0.00000E+00         0.00000E+00
    0.55932E-01         0.11484E-01         0.00000E+00
    0.56185E-01         0.10178E-01         0.00000E+00
    0.56270E-01         0.88501E-02         0.00000E+00
    0.56169E-01         0.75127E-02         0.00000E+00
    0.55865E-01         0.61788E-02         0.00000E+00
    0.55345E-01         0.48622E-02         0.00000E+00
    0.54594E-01         0.35776E-02         0.00000E+00
    0.53603E-01         0.23404E-02         0.00000E+00
    0.52365E-01         0.11658E-02         0.00000E+00
    0.50877E-01         0.69131E-04         0.00000E+00
    0.49135E-01        -0.93540E-03         0.00000E+00
    0.47140E-01        -0.18345E-02         0.00000E+00
    0.44896E-01        -0.26161E-02         0.00000E+00
    0.42404E-01        -0.32698E-02         0.00000E+00
    0.39671E-01        -0.37865E-02         0.00000E+00
    0.36700E-01        -0.41583E-02         0.00000E+00
    0.33497E-01        -0.43786E-02         0.00000E+00
    0.30065E-01        -0.44416E-02         0.00000E+00
    0.26411E-01        -0.43417E-02         0.00000E+00
    0.22536E-01        -0.40738E-02         0.00000E+00
    0.18445E-01        -0.36325E-02         0.00000E+00
    0.14142E-01        -0.30117E-02         0.00000E+00
    0.96301E-02        -0.22047E-02         0.00000E+00
    0.49141E-02        -0.12038E-02         0.00000E+00
    0.00000E+00         0.00000E+00         0.00000E+00
    0.52945E-01         0.11780E-01         0.00000E+00
    0.53137E-01         0.10500E-01         0.00000E+00
    0.53176E-01         0.92011E-02         0.00000E+00
    0.53045E-01         0.78951E-02         0.00000E+00
    0.52727E-01         0.65935E-02         0.00000E+00
    0.52210E-01         0.53091E-02         0.00000E+00
    0.51482E-01         0.40555E-02         0.00000E+00
    0.50534E-01         0.28463E-02         0.00000E+00
    0.49358E-01         0.16957E-02         0.00000E+00
    0.47950E-01         0.61730E-03         0.00000E+00
    0.46307E-01        -0.37559E-03         0.00000E+00
    0.44429E-01        -0.12706E-02         0.00000E+00
    0.42317E-01        -0.20562E-02         0.00000E+00
    0.39973E-01        -0.27222E-02         0.00000E+00
    0.37400E-01        -0.32594E-02         0.00000E+00
    0.34603E-01        -0.36596E-02         0.00000E+00
    0.31585E-01        -0.39156E-02         0.00000E+00
    0.28351E-01        -0.40207E-02         0.00000E+00
    0.24904E-01        -0.39688E-02         0.00000E+00
    0.21248E-01        -0.37538E-02         0.00000E+00
    0.17388E-01        -0.33695E-02         0.00000E+00
    0.13328E-01        -0.28095E-02         0.00000E+00
    0.90722E-02        -0.20666E-02         0.00000E+00
    0.46272E-02        -0.11330E-02         0.00000E+00
    0.00000E+00         0.00000E+00         0.00000E+00
    0.50014E-01         0.12011E-01         0.00000E+00
    0.50153E-01         0.10755E-01         0.00000E+00
    0.50152E-01         0.94836E-02         0.00000E+00
    0.49995E-01         0.82060E-02         0.00000E+00
    0.49668E-01         0.69337E-02         0.00000E+00
    0.49158E-01         0.56786E-02         0.00000E+00
    0.48454E-01         0.44529E-02         0.00000E+00
    0.47548E-01         0.32693E-02         0.00000E+00
    0.46431E-01         0.21406E-02         0.00000E+00
    0.45100E-01         0.10795E-02         0.00000E+00
    0.43552E-01         0.98313E-04         0.00000E+00
    0.41785E-01        -0.79135E-03         0.00000E+00
    0.39799E-01        -0.15785E-02         0.00000E+00
    0.37596E-01        -0.22532E-02         0.00000E+00
    0.35178E-01        -0.28060E-02         0.00000E+00
    0.32548E-01        -0.32287E-02         0.00000E+00
    0.29710E-01        -0.35136E-02         0.00000E+00
    0.26667E-01        -0.36535E-02         0.00000E+00
    0.23423E-01        -0.36417E-02         0.00000E+00
    0.19982E-01        -0.34715E-02         0.00000E+00
    0.16348E-01        -0.31362E-02         0.00000E+00
    0.12527E-01        -0.26290E-02         0.00000E+00
    0.85241E-02        -0.19426E-02         0.00000E+00
    0.43457E-02        -0.10691E-02         0.00000E+00
    0.00000E+00         0.00000E+00         0.00000E+00
    0.47133E-01         0.12187E-01         0.00000E+00
    0.47226E-01         0.10953E-01         0.00000E+00
    0.47191E-01         0.97057E-02         0.00000E+00
    0.47015E-01         0.84541E-02         0.00000E+00
    0.46682E-01         0.72086E-02         0.00000E+00
    0.46181E-01         0.59800E-02         0.00000E+00
    0.45503E-01         0.47799E-02         0.00000E+00
    0.44638E-01         0.36197E-02         0.00000E+00
    0.43580E-01         0.25114E-02         0.00000E+00
    0.42324E-01         0.14668E-02         0.00000E+00
    0.40866E-01         0.49731E-03         0.00000E+00
    0.39205E-01        -0.38599E-03         0.00000E+00
    0.37341E-01        -0.11726E-02         0.00000E+00
    0.35273E-01        -0.18527E-02         0.00000E+00
    0.33005E-01        -0.24171E-02         0.00000E+00
    0.30537E-01        -0.28573E-02         0.00000E+00
    0.27873E-01        -0.31654E-02         0.00000E+00
    0.25016E-01        -0.33337E-02         0.00000E+00
    0.21970E-01        -0.33552E-02         0.00000E+00
    0.18740E-01        -0.32229E-02         0.00000E+00
    0.15329E-01        -0.29296E-02         0.00000E+00
    0.11742E-01        -0.24682E-02         0.00000E+00
    0.79870E-02        -0.18314E-02         0.00000E+00
    0.40700E-02        -0.10114E-02         0.00000E+00
    0.00000E+00         0.00000E+00         0.00000E+00
    0.44297E-01         0.12315E-01         0.00000E+00
    0.44351E-01         0.11101E-01         0.00000E+00
    0.44289E-01         0.98755E-02         0.00000E+00
    0.44097E-01         0.86475E-02         0.00000E+00
    0.43762E-01         0.74264E-02         0.00000E+00
    0.43274E-01         0.62221E-02         0.00000E+00
    0.42622E-01         0.50454E-02         0.00000E+00
    0.41799E-01         0.39069E-02         0.00000E+00
    0.40798E-01         0.28178E-02         0.00000E+00
    0.39615E-01         0.17889E-02         0.00000E+00
    0.38245E-01         0.83121E-03         0.00000E+00
    0.36687E-01        -0.44832E-04         0.00000E+00
    0.34939E-01        -0.82912E-03         0.00000E+00
    0.33003E-01        -0.15121E-02         0.00000E+00
    0.30879E-01        -0.20845E-02         0.00000E+00
    0.28568E-01        -0.25380E-02         0.00000E+00
    0.26074E-01        -0.28643E-02         0.00000E+00
    0.23399E-01        -0.30558E-02         0.00000E+00
    0.20547E-01        -0.31049E-02         0.00000E+00
    0.17523E-01        -0.30043E-02         0.00000E+00
    0.14329E-01        -0.27468E-02         0.00000E+00
    0.10974E-01        -0.23252E-02         0.00000E+00
    0.74614E-02        -0.17319E-02         0.00000E+00
    0.38005E-02        -0.95944E-03         0.00000E+00
    0.00000E+00         0.00000E+00         0.00000E+00
    0.41503E-01         0.12401E-01         0.00000E+00
    0.41524E-01         0.11205E-01         0.00000E+00
    0.41439E-01         0.10000E-01         0.00000E+00
    0.41236E-01         0.87937E-02         0.00000E+00
    0.40903E-01         0.75949E-02         0.00000E+00
    0.40429E-01         0.64130E-02         0.00000E+00
    0.39805E-01         0.52578E-02         0.00000E+00
    0.39025E-01         0.41394E-02         0.00000E+00
    0.38081E-01         0.30683E-02         0.00000E+00
    0.36969E-01         0.20546E-02         0.00000E+00
    0.35685E-01         0.11088E-02         0.00000E+00
    0.34226E-01         0.24069E-03         0.00000E+00
    0.32593E-01        -0.53982E-03         0.00000E+00
    0.30784E-01        -0.12234E-02         0.00000E+00
    0.28800E-01        -0.18011E-02         0.00000E+00
    0.26642E-01        -0.22643E-02         0.00000E+00
    0.24314E-01        -0.26048E-02         0.00000E+00
    0.21817E-01        -0.28147E-02         0.00000E+00
    0.19154E-01        -0.28864E-02         0.00000E+00
    0.16331E-01        -0.28125E-02         0.00000E+00
    0.13352E-01        -0.25855E-02         0.00000E+00
    0.10222E-01        -0.21981E-02         0.00000E+00
    0.69478E-02        -0.16430E-02         0.00000E+00
    0.35374E-02        -0.91279E-03         0.00000E+00
    0.00000E+00         0.00000E+00         0.00000E+00
    0.38747E-01         0.12452E-01         0.00000E+00
    0.38740E-01         0.11273E-01         0.00000E+00
    0.38638E-01         0.10086E-01         0.00000E+00
    0.38428E-01         0.88996E-02         0.00000E+00
    0.38099E-01         0.77213E-02         0.00000E+00
    0.37642E-01         0.65598E-02         0.00000E+00
    0.37048E-01         0.54246E-02         0.00000E+00
    0.36311E-01         0.43250E-02         0.00000E+00
    0.35423E-01         0.32708E-02         0.00000E+00
    0.34381E-01         0.22718E-02         0.00000E+00
    0.33181E-01         0.13377E-02         0.00000E+00
    0.31821E-01         0.47816E-03         0.00000E+00
    0.30298E-01        -0.29740E-03         0.00000E+00
    0.28613E-01        -0.97983E-03         0.00000E+00
    0.26766E-01        -0.15603E-02         0.00000E+00
    0.24758E-01        -0.20303E-02         0.00000E+00
    0.22591E-01        -0.23815E-02         0.00000E+00
    0.20268E-01        -0.26061E-02         0.00000E+00
    0.17791E-01        -0.26962E-02         0.00000E+00
    0.15166E-01        -0.26444E-02         0.00000E+00
    0.12396E-01        -0.24433E-02         0.00000E+00
    0.94871E-02        -0.20855E-02         0.00000E+00
    0.64461E-02        -0.15638E-02         0.00000E+00
    0.32807E-02        -0.87097E-03         0.00000E+00
    0.00000E+00         0.00000E+00         0.00000E+00
    0.36024E-01         0.12475E-01         0.00000E+00
    0.35995E-01         0.11311E-01         0.00000E+00
    0.35880E-01         0.10141E-01         0.00000E+00
    0.35667E-01         0.89718E-02         0.00000E+00
    0.35346E-01         0.78121E-02         0.00000E+00
    0.34908E-01         0.66696E-02         0.00000E+00
    0.34346E-01         0.55527E-02         0.00000E+00
    0.33652E-01         0.44706E-02         0.00000E+00
    0.32821E-01         0.34324E-02         0.00000E+00
    0.31849E-01         0.24474E-02         0.00000E+00
    0.30731E-01         0.15250E-02         0.00000E+00
    0.29466E-01         0.67434E-03         0.00000E+00
    0.28052E-01        -0.95395E-04         0.00000E+00
    0.26488E-01        -0.77527E-03         0.00000E+00
    0.24775E-01        -0.13566E-02         0.00000E+00
    0.22913E-01        -0.18309E-02         0.00000E+00
    0.20905E-01        -0.21900E-02         0.00000E+00
    0.18752E-01        -0.24260E-02         0.00000E+00
    0.16458E-01        -0.25310E-02         0.00000E+00
    0.14026E-01        -0.24976E-02         0.00000E+00
    0.11461E-01        -0.23183E-02         0.00000E+00
    0.87692E-02        -0.19859E-02         0.00000E+00
    0.59563E-02        -0.14933E-02         0.00000E+00
    0.30303E-02        -0.83359E-03         0.00000E+00
    0.00000E+00         0.00000E+00         0.00000E+00
    0.33332E-01         0.12474E-01         0.00000E+00
    0.33287E-01         0.11323E-01         0.00000E+00
    0.33162E-01         0.10168E-01         0.00000E+00
    0.32950E-01         0.90161E-02         0.00000E+00
    0.32640E-01         0.78735E-02         0.00000E+00
    0.32223E-01         0.67482E-02         0.00000E+00
    0.31694E-01         0.56484E-02         0.00000E+00
    0.31044E-01         0.45825E-02         0.00000E+00
    0.30270E-01         0.35594E-02         0.00000E+00
    0.29367E-01         0.25878E-02         0.00000E+00
    0.28331E-01         0.16768E-02         0.00000E+00
    0.27160E-01         0.83517E-03         0.00000E+00
    0.25852E-01         0.71908E-04         0.00000E+00
    0.24408E-01        -0.60432E-03         0.00000E+00
    0.22826E-01        -0.11850E-02         0.00000E+00
    0.21107E-01        -0.16617E-02         0.00000E+00
    0.19254E-01        -0.20263E-02         0.00000E+00
    0.17268E-01        -0.22709E-02         0.00000E+00
    0.15152E-01        -0.23878E-02         0.00000E+00
    0.12911E-01        -0.23695E-02         0.00000E+00
    0.10547E-01        -0.22086E-02         0.00000E+00
    0.80676E-02        -0.18980E-02         0.00000E+00
    0.54781E-02        -0.14308E-02         0.00000E+00
    0.27860E-02        -0.80025E-03         0.00000E+00
    0.00000E+00         0.00000E+00         0.00000E+00
    0.30668E-01         0.12455E-01         0.00000E+00
    0.30610E-01         0.11317E-01         0.00000E+00
    0.30481E-01         0.10175E-01         0.00000E+00
    0.30272E-01         0.90378E-02         0.00000E+00
    0.29975E-01         0.79107E-02         0.00000E+00
    0.29582E-01         0.68012E-02         0.00000E+00
    0.29087E-01         0.57171E-02         0.00000E+00
    0.28483E-01         0.46663E-02         0.00000E+00
    0.27766E-01         0.36572E-02         0.00000E+00
    0.26931E-01         0.26984E-02         0.00000E+00
    0.25976E-01         0.17984E-02         0.00000E+00
    0.24898E-01         0.96595E-03         0.00000E+00
    0.23696E-01         0.20955E-03         0.00000E+00
    0.22368E-01        -0.46223E-03         0.00000E+00
    0.20915E-01        -0.10410E-02         0.00000E+00
    0.19338E-01        -0.15185E-02         0.00000E+00
    0.17637E-01        -0.18868E-02         0.00000E+00
    0.15815E-01        -0.21379E-02         0.00000E+00
    0.13875E-01        -0.22641E-02         0.00000E+00
    0.11819E-01        -0.22582E-02         0.00000E+00
    0.96534E-02        -0.21127E-02         0.00000E+00
    0.73819E-02        -0.18207E-02         0.00000E+00
    0.50109E-02        -0.13755E-02         0.00000E+00
    0.25475E-02        -0.77064E-03         0.00000E+00
    0.00000E+00         0.00000E+00         0.00000E+00
    0.28029E-01         0.12423E-01         0.00000E+00
    0.27962E-01         0.11295E-01         0.00000E+00
    0.27832E-01         0.10166E-01         0.00000E+00
    0.27630E-01         0.90417E-02         0.00000E+00
    0.27349E-01         0.79287E-02         0.00000E+00
    0.26982E-01         0.68336E-02         0.00000E+00
    0.26522E-01         0.57638E-02         0.00000E+00
    0.25964E-01         0.47269E-02         0.00000E+00
    0.25304E-01         0.37310E-02         0.00000E+00
    0.24539E-01         0.27842E-02         0.00000E+00
    0.23664E-01         0.18949E-02         0.00000E+00
    0.22678E-01         0.10713E-02         0.00000E+00
    0.21579E-01         0.32199E-03         0.00000E+00
    0.20367E-01        -0.34482E-03         0.00000E+00
    0.19041E-01        -0.92086E-03         0.00000E+00
    0.17602E-01        -0.13980E-02         0.00000E+00
    0.16051E-01        -0.17684E-02         0.00000E+00
    0.14391E-01        -0.20241E-02         0.00000E+00
    0.12623E-01        -0.21577E-02         0.00000E+00
    0.10751E-01        -0.21617E-02         0.00000E+00
    0.87784E-02        -0.20291E-02         0.00000E+00
    0.67111E-02        -0.17530E-02         0.00000E+00
    0.45543E-02        -0.13268E-02         0.00000E+00
    0.23147E-02        -0.74444E-03         0.00000E+00
    0.00000E+00         0.00000E+00         0.00000E+00
    0.25412E-01         0.12380E-01         0.00000E+00
    0.25341E-01         0.11262E-01         0.00000E+00
    0.25213E-01         0.10144E-01         0.00000E+00
    0.25020E-01         0.90321E-02         0.00000E+00
    0.24757E-01         0.79318E-02         0.00000E+00
    0.24417E-01         0.68498E-02         0.00000E+00
    0.23994E-01         0.57930E-02         0.00000E+00
    0.23484E-01         0.47689E-02         0.00000E+00
    0.22882E-01         0.37851E-02         0.00000E+00
    0.22185E-01         0.28496E-02         0.00000E+00
    0.21390E-01         0.19703E-02         0.00000E+00
    0.20495E-01         0.11554E-02         0.00000E+00
    0.19499E-01         0.41310E-03         0.00000E+00
    0.18401E-01        -0.24845E-03         0.00000E+00
    0.17200E-01        -0.82117E-03         0.00000E+00
    0.15898E-01        -0.12971E-02         0.00000E+00
    0.14495E-01        -0.16683E-02         0.00000E+00
    0.12993E-01        -0.19273E-02         0.00000E+00
    0.11395E-01        -0.20664E-02         0.00000E+00
    0.97030E-02        -0.20785E-02         0.00000E+00
    0.79213E-02        -0.19566E-02         0.00000E+00
    0.60544E-02        -0.16939E-02         0.00000E+00
    0.41075E-02        -0.12842E-02         0.00000E+00
    0.20870E-02        -0.72137E-03         0.00000E+00
    0.00000E+00         0.00000E+00         0.00000E+00
    0.22816E-01         0.12331E-01         0.00000E+00
    0.22743E-01         0.11222E-01         0.00000E+00
    0.22619E-01         0.10114E-01         0.00000E+00
    0.22439E-01         0.90128E-02         0.00000E+00
    0.22196E-01         0.79239E-02         0.00000E+00
    0.21885E-01         0.68536E-02         0.00000E+00
    0.21500E-01         0.58086E-02         0.00000E+00
    0.21038E-01         0.47961E-02         0.00000E+00
    0.20495E-01         0.38234E-02         0.00000E+00
    0.19867E-01         0.28982E-02         0.00000E+00
    0.19151E-01         0.20283E-02         0.00000E+00
    0.18347E-01         0.12217E-02         0.00000E+00
    0.17453E-01         0.48629E-03         0.00000E+00
    0.16467E-01        -0.16991E-03         0.00000E+00
    0.15391E-01        -0.73895E-03         0.00000E+00
    0.14223E-01        -0.12130E-02         0.00000E+00
    0.12966E-01        -0.15843E-02         0.00000E+00
    0.11621E-01        -0.18453E-02         0.00000E+00
    0.10190E-01        -0.19886E-02         0.00000E+00
    0.86750E-02        -0.20072E-02         0.00000E+00
    0.70806E-02        -0.18940E-02         0.00000E+00
    0.54106E-02        -0.16427E-02         0.00000E+00
    0.36699E-02        -0.12470E-02         0.00000E+00
    0.18642E-02        -0.70120E-03         0.00000E+00
    0.00000E+00         0.00000E+00         0.00000E+00
    0.20237E-01         0.12280E-01         0.00000E+00
    0.20165E-01         0.11178E-01         0.00000E+00
    0.20049E-01         0.10079E-01         0.00000E+00
    0.19884E-01         0.89871E-02         0.00000E+00
    0.19663E-01         0.79083E-02         0.00000E+00
    0.19382E-01         0.68485E-02         0.00000E+00
    0.19037E-01         0.58141E-02         0.00000E+00
    0.18624E-01         0.48119E-02         0.00000E+00
    0.18139E-01         0.38493E-02         0.00000E+00
    0.17580E-01         0.29336E-02         0.00000E+00
    0.16944E-01         0.20723E-02         0.00000E+00
    0.16230E-01         0.12734E-02         0.00000E+00
    0.15437E-01         0.54452E-03         0.00000E+00
    0.14563E-01        -0.10644E-03         0.00000E+00
    0.13609E-01        -0.67167E-03         0.00000E+00
    0.12575E-01        -0.11435E-02         0.00000E+00
    0.11462E-01        -0.15142E-02         0.00000E+00
    0.10271E-01        -0.17764E-02         0.00000E+00
    0.90047E-02        -0.19228E-02         0.00000E+00
    0.76649E-02        -0.19464E-02         0.00000E+00
    0.62550E-02        -0.18405E-02         0.00000E+00
    0.47788E-02        -0.15987E-02         0.00000E+00
    0.32407E-02        -0.12149E-02         0.00000E+00
    0.16458E-02        -0.68371E-03         0.00000E+00
    0.00000E+00         0.00000E+00         0.00000E+00
    0.17674E-01         0.12228E-01         0.00000E+00
    0.17606E-01         0.11133E-01         0.00000E+00
    0.17499E-01         0.10041E-01         0.00000E+00
    0.17350E-01         0.89580E-02         0.00000E+00
    0.17153E-01         0.78881E-02         0.00000E+00
    0.16905E-01         0.68374E-02         0.00000E+00
    0.16600E-01         0.58123E-02         0.00000E+00
    0.16237E-01         0.48194E-02         0.00000E+00
    0.15811E-01         0.38657E-02         0.00000E+00
    0.15321E-01         0.29584E-02         0.00000E+00
    0.14765E-01         0.21051E-02         0.00000E+00
    0.14141E-01         0.13131E-02         0.00000E+00
    0.13448E-01         0.59033E-03         0.00000E+00
    0.12685E-01        -0.55642E-04         0.00000E+00
    0.11853E-01        -0.61712E-03         0.00000E+00
    0.10951E-01        -0.10865E-02         0.00000E+00
    0.99801E-02        -0.14562E-02         0.00000E+00
    0.89420E-02        -0.17189E-02         0.00000E+00
    0.78382E-02        -0.18676E-02         0.00000E+00
    0.66709E-02        -0.18952E-02         0.00000E+00
    0.54430E-02        -0.17951E-02         0.00000E+00
    0.41576E-02        -0.15612E-02         0.00000E+00
    0.28189E-02        -0.11875E-02         0.00000E+00
    0.14313E-02        -0.66870E-03         0.00000E+00
    0.00000E+00         0.00000E+00         0.00000E+00
    0.15124E-01         0.12178E-01         0.00000E+00
    0.15062E-01         0.11089E-01         0.00000E+00
    0.14967E-01         0.10004E-01         0.00000E+00
    0.14836E-01         0.89280E-02         0.00000E+00
    0.14665E-01         0.78656E-02         0.00000E+00
    0.14449E-01         0.68229E-02         0.00000E+00
    0.14186E-01         0.58058E-02         0.00000E+00
    0.13873E-01         0.48210E-02         0.00000E+00
    0.13508E-01         0.38751E-02         0.00000E+00
    0.13087E-01         0.29753E-02         0.00000E+00
    0.12611E-01         0.21289E-02         0.00000E+00
    0.12076E-01         0.13432E-02         0.00000E+00
    0.11483E-01         0.62590E-03         0.00000E+00
    0.10830E-01        -0.15493E-04         0.00000E+00
    0.10118E-01        -0.57341E-03         0.00000E+00
    0.93472E-02        -0.10403E-02         0.00000E+00
    0.85177E-02        -0.14088E-02         0.00000E+00
    0.76307E-02        -0.16717E-02         0.00000E+00
    0.66879E-02        -0.18219E-02         0.00000E+00
    0.56912E-02        -0.18525E-02         0.00000E+00
    0.46429E-02        -0.17571E-02         0.00000E+00
    0.35459E-02        -0.15297E-02         0.00000E+00
    0.24037E-02        -0.11644E-02         0.00000E+00
    0.12203E-02        -0.65602E-03         0.00000E+00
    0.00000E+00         0.00000E+00         0.00000E+00
    0.12586E-01         0.12133E-01         0.00000E+00
    0.12531E-01         0.11049E-01         0.00000E+00
    0.12450E-01         0.99693E-02         0.00000E+00
    0.12339E-01         0.88991E-02         0.00000E+00
    0.12194E-01         0.78432E-02         0.00000E+00
    0.12012E-01         0.68071E-02         0.00000E+00
    0.11792E-01         0.57969E-02         0.00000E+00
    0.11530E-01         0.48188E-02         0.00000E+00
    0.11225E-01         0.38796E-02         0.00000E+00
    0.10874E-01         0.29862E-02         0.00000E+00
    0.10477E-01         0.21457E-02         0.00000E+00
    0.10032E-01         0.13656E-02         0.00000E+00
    0.95379E-02         0.65305E-03         0.00000E+00
    0.89949E-02         0.15719E-04         0.00000E+00
    0.84028E-02        -0.53897E-03         0.00000E+00
    0.77617E-02        -0.10036E-02         0.00000E+00
    0.70721E-02        -0.13708E-02         0.00000E+00
    0.63350E-02        -0.16335E-02         0.00000E+00
    0.55517E-02        -0.17847E-02         0.00000E+00
    0.47237E-02        -0.18177E-02         0.00000E+00
    0.38531E-02        -0.17260E-02         0.00000E+00
    0.29423E-02        -0.15038E-02         0.00000E+00
    0.19943E-02        -0.11453E-02         0.00000E+00
    0.10122E-02        -0.64552E-03         0.00000E+00
    0.00000E+00         0.00000E+00         0.00000E+00
    0.10057E-01         0.12094E-01         0.00000E+00
    0.10012E-01         0.11014E-01         0.00000E+00
    0.99454E-02         0.99385E-02         0.00000E+00
    0.98548E-02         0.88731E-02         0.00000E+00
    0.97375E-02         0.78225E-02         0.00000E+00
    0.95914E-02         0.67919E-02         0.00000E+00
    0.94142E-02         0.57872E-02         0.00000E+00
    0.92041E-02         0.48147E-02         0.00000E+00
    0.89594E-02         0.38810E-02         0.00000E+00
    0.86786E-02         0.29929E-02         0.00000E+00
    0.83607E-02         0.21574E-02         0.00000E+00
    0.80046E-02         0.13817E-02         0.00000E+00
    0.76099E-02         0.67328E-03         0.00000E+00
    0.71761E-02         0.39403E-04         0.00000E+00
    0.67031E-02        -0.51251E-03         0.00000E+00
    0.61912E-02        -0.97510E-03         0.00000E+00
    0.56406E-02        -0.13411E-02         0.00000E+00
    0.50523E-02        -0.16035E-02         0.00000E+00
    0.44271E-02        -0.17554E-02         0.00000E+00
    0.37665E-02        -0.17900E-02         0.00000E+00
    0.30720E-02        -0.17012E-02         0.00000E+00
    0.23456E-02        -0.14830E-02         0.00000E+00
    0.15896E-02        -0.11300E-02         0.00000E+00
    0.80676E-03        -0.63709E-03         0.00000E+00
    0.00000E+00         0.00000E+00         0.00000E+00
    0.75365E-02         0.12062E-01         0.00000E+00
    0.75014E-02         0.10985E-01         0.00000E+00
    0.74505E-02         0.99131E-02         0.00000E+00
    0.73817E-02         0.88515E-02         0.00000E+00
    0.72930E-02         0.78049E-02         0.00000E+00
    0.71828E-02         0.67785E-02         0.00000E+00
    0.70494E-02         0.57782E-02         0.00000E+00
    0.68914E-02         0.48101E-02         0.00000E+00
    0.67075E-02         0.38807E-02         0.00000E+00
    0.64968E-02         0.29967E-02         0.00000E+00
    0.62583E-02         0.21651E-02         0.00000E+00
    0.59914E-02         0.13930E-02         0.00000E+00
    0.56955E-02         0.68780E-03         0.00000E+00
    0.53705E-02         0.56686E-04         0.00000E+00
    0.50162E-02        -0.49297E-03         0.00000E+00
    0.46328E-02        -0.95389E-03         0.00000E+00
    0.42205E-02        -0.13189E-02         0.00000E+00
    0.37800E-02        -0.15809E-02         0.00000E+00
    0.33121E-02        -0.17332E-02         0.00000E+00
    0.28176E-02        -0.17690E-02         0.00000E+00
    0.22979E-02        -0.16824E-02         0.00000E+00
    0.17544E-02        -0.14672E-02         0.00000E+00
    0.11889E-02        -0.11183E-02         0.00000E+00
    0.60329E-03        -0.63062E-03         0.00000E+00
    0.00000E+00         0.00000E+00         0.00000E+00
    0.50212E-02         0.12038E-01         0.00000E+00
    0.49973E-02         0.10963E-01         0.00000E+00
    0.49629E-02         0.98942E-02         0.00000E+00
    0.49166E-02         0.88353E-02         0.00000E+00
    0.48572E-02         0.77916E-02         0.00000E+00
    0.47834E-02         0.67683E-02         0.00000E+00
    0.46942E-02         0.57711E-02         0.00000E+00
    0.45887E-02         0.48061E-02         0.00000E+00
    0.44660E-02         0.38797E-02         0.00000E+00
    0.43254E-02         0.29987E-02         0.00000E+00
    0.41664E-02         0.21699E-02         0.00000E+00
    0.39885E-02         0.14004E-02         0.00000E+00
    0.37914E-02         0.69753E-03         0.00000E+00
    0.35748E-02         0.68426E-04         0.00000E+00
    0.33388E-02        -0.47958E-03         0.00000E+00
    0.30835E-02        -0.93925E-03         0.00000E+00
    0.28089E-02        -0.13034E-02         0.00000E+00
    0.25156E-02        -0.15652E-02         0.00000E+00
    0.22041E-02        -0.17176E-02         0.00000E+00
    0.18749E-02        -0.17543E-02         0.00000E+00
    0.15290E-02        -0.16691E-02         0.00000E+00
    0.11673E-02        -0.14561E-02         0.00000E+00
    0.79096E-03        -0.11100E-02         0.00000E+00
    0.40135E-03        -0.62606E-03         0.00000E+00
    0.00000E+00         0.00000E+00         0.00000E+00
    0.25096E-02         0.12024E-01         0.00000E+00
    0.24976E-02         0.10950E-01         0.00000E+00
    0.24802E-02         0.98825E-02         0.00000E+00
    0.24570E-02         0.88253E-02         0.00000E+00
    0.24271E-02         0.77833E-02         0.00000E+00
    0.23901E-02         0.67618E-02         0.00000E+00
    0.23455E-02         0.57665E-02         0.00000E+00
    0.22927E-02         0.48033E-02         0.00000E+00
    0.22313E-02         0.38788E-02         0.00000E+00
    0.21610E-02         0.29996E-02         0.00000E+00
    0.20815E-02         0.21725E-02         0.00000E+00
    0.19925E-02         0.14046E-02         0.00000E+00
    0.18940E-02         0.70311E-03         0.00000E+00
    0.17858E-02         0.75230E-04         0.00000E+00
    0.16678E-02        -0.47176E-03         0.00000E+00
    0.15402E-02        -0.93067E-03         0.00000E+00
    0.14030E-02        -0.12944E-02         0.00000E+00
    0.12565E-02        -0.15559E-02         0.00000E+00
    0.11009E-02        -0.17085E-02         0.00000E+00
    0.93642E-03        -0.17456E-02         0.00000E+00
    0.76362E-03        -0.16612E-02         0.00000E+00
    0.58295E-03        -0.14495E-02         0.00000E+00
    0.39499E-03        -0.11051E-02         0.00000E+00
    0.20042E-03        -0.62334E-03         0.00000E+00
    0.00000E+00         0.00000E+00         0.00000E+00
    0.00000E+00         0.12019E-01         0.00000E+00
    0.00000E+00         0.10946E-01         0.00000E+00
    0.00000E+00         0.98786E-02         0.00000E+00
    0.00000E+00         0.88219E-02         0.00000E+00
    0.00000E+00         0.77805E-02         0.00000E+00
    0.00000E+00         0.67596E-02         0.00000E+00
    0.00000E+00         0.57649E-02         0.00000E+00
    0.00000E+00         0.48024E-02         0.00000E+00
    0.00000E+00         0.38785E-02         0.00000E+00
    0.00000E+00         0.29998E-02         0.00000E+00
    0.00000E+00         0.21733E-02         0.00000E+00
    0.00000E+00         0.14060E-02         0.00000E+00
    0.00000E+00         0.70492E-03         0.00000E+00
    0.00000E+00         0.77458E-04         0.00000E+00
    0.00000E+00        -0.46920E-03         0.00000E+00
    0.00000E+00        -0.92784E-03         0.00000E+00
    0.00000E+00        -0.12914E-02         0.00000E+00
    0.00000E+00        -0.15528E-02         0.00000E+00
    0.00000E+00        -0.17054E-02         0.00000E+00
    0.00000E+00        -0.17427E-02         0.00000E+00
    0.00000E+00        -0.16586E-02         0.00000E+00
    0.00000E+00        -0.14473E-02         0.00000E+00
    0.00000E+00        -0.11035E-02         0.00000E+00
    0.00000E+00        -0.62244E-03         0.00000E+00
    0.00000E+00         0.00000E+00         0.00000E+00
CELL_DATA       1152
VECTORS vDarcy double 
    0.92248E-05         0.92706E-05         0.00000E+00
    0.70474E-05         0.24926E-04         0.00000E+00
    0.43514E-05         0.35313E-04         0.00000E+00
    0.23941E-05         0.40468E-04         0.00000E+00
    0.14475E-05         0.42878E-04         0.00000E+00
    0.92873E-06         0.43757E-04         0.00000E+00
    0.62881E-06         0.43700E-04         0.00000E+00
    0.44369E-06         0.43016E-04         0.00000E+00
    0.32239E-06         0.41874E-04         0.00000E+00
    0.23822E-06         0.40378E-04         0.00000E+00
    0.17678E-06         0.38597E-04         0.00000E+00
    0.13087E-06         0.36580E-04         0.00000E+00
    0.94706E-07         0.34369E-04         0.00000E+00
    0.62716E-07         0.31988E-04         0.00000E+00
    0.37506E-07         0.29446E-04         0.00000E+00
    0.17517E-07         0.26790E-04         0.00000E+00
    0.32024E-08         0.24004E-04         0.00000E+00
    0.24397E-08         0.21083E-04         0.00000E+00
    0.11643E-07         0.18016E-04         0.00000E+00
    0.20764E-07         0.14834E-04         0.00000E+00
    0.25532E-07         0.11605E-04         0.00000E+00
    0.28552E-07         0.83375E-05         0.00000E+00
    0.31025E-07         0.50202E-05         0.00000E+00
    0.32293E-07         0.16754E-05         0.00000E+00
    0.30652E-04         0.11795E-04         0.00000E+00
    0.21547E-04         0.33684E-04         0.00000E+00
    0.11096E-04         0.39702E-04         0.00000E+00
    0.64416E-05         0.42692E-04         0.00000E+00
    0.39656E-05         0.44077E-04         0.00000E+00
    0.25951E-05         0.44447E-04         0.00000E+00
    0.17829E-05         0.44122E-04         0.00000E+00
    0.12729E-05         0.43289E-04         0.00000E+00
    0.93395E-06         0.42061E-04         0.00000E+00
    0.69548E-06         0.40514E-04         0.00000E+00
    0.51865E-06         0.38700E-04         0.00000E+00
    0.38337E-06         0.36658E-04         0.00000E+00
    0.28232E-06         0.34427E-04         0.00000E+00
    0.20302E-06         0.32041E-04         0.00000E+00
    0.11771E-06         0.29504E-04         0.00000E+00
    0.44172E-07         0.26826E-04         0.00000E+00
    0.12385E-07         0.24015E-04         0.00000E+00
    0.14717E-07         0.21071E-04         0.00000E+00
    0.41253E-07         0.17992E-04         0.00000E+00
    0.66866E-07         0.14823E-04         0.00000E+00
    0.80460E-07         0.11598E-04         0.00000E+00
    0.90893E-07         0.83313E-05         0.00000E+00
    0.98725E-07         0.50161E-05         0.00000E+00
    0.10280E-06         0.16741E-05         0.00000E+00
    0.71386E-04         0.54268E-04         0.00000E+00
    0.24160E-04         0.47543E-04         0.00000E+00
    0.14076E-04         0.46376E-04         0.00000E+00
    0.85458E-05         0.46202E-04         0.00000E+00
    0.55395E-05         0.46049E-04         0.00000E+00
    0.37634E-05         0.45622E-04         0.00000E+00
    0.26622E-05         0.44861E-04         0.00000E+00
    0.19450E-05         0.43777E-04         0.00000E+00
    0.14549E-05         0.42402E-04         0.00000E+00
    0.11022E-05         0.40765E-04         0.00000E+00
    0.83266E-06         0.38895E-04         0.00000E+00
    0.61188E-06         0.36819E-04         0.00000E+00
    0.42253E-06         0.34557E-04         0.00000E+00
    0.26626E-06         0.32147E-04         0.00000E+00
    0.14677E-06         0.29603E-04         0.00000E+00
    0.69845E-07         0.26877E-04         0.00000E+00
    0.44231E-07         0.24021E-04         0.00000E+00
    0.55576E-07         0.21051E-04         0.00000E+00
    0.79457E-07         0.17962E-04         0.00000E+00
    0.11504E-06         0.14792E-04         0.00000E+00
    0.14906E-06         0.11581E-04         0.00000E+00
    0.16963E-06         0.83174E-05         0.00000E+00
    0.18416E-06         0.50077E-05         0.00000E+00
    0.19096E-06         0.16717E-05         0.00000E+00
    0.12059E-04         0.82982E-04         0.00000E+00
    0.19478E-04         0.58637E-04         0.00000E+00
    0.12499E-04         0.52344E-04         0.00000E+00
    0.85897E-05         0.49675E-04         0.00000E+00
    0.60036E-05         0.48169E-04         0.00000E+00
    0.43144E-05         0.46967E-04         0.00000E+00
    0.31832E-05         0.45748E-04         0.00000E+00
    0.24046E-05         0.44386E-04         0.00000E+00
    0.18504E-05         0.42837E-04         0.00000E+00
    0.14403E-05         0.41092E-04         0.00000E+00
    0.11222E-05         0.39155E-04         0.00000E+00
    0.86247E-06         0.37039E-04         0.00000E+00
    0.63619E-06         0.34753E-04         0.00000E+00
    0.43738E-06         0.32306E-04         0.00000E+00
    0.29560E-06         0.29705E-04         0.00000E+00
    0.21135E-06         0.26937E-04         0.00000E+00
    0.16684E-06         0.24031E-04         0.00000E+00
    0.17036E-06         0.21025E-04         0.00000E+00
    0.19963E-06         0.17934E-04         0.00000E+00
    0.22879E-06         0.14755E-04         0.00000E+00
    0.25766E-06         0.11555E-04         0.00000E+00
    0.28271E-06         0.82977E-05         0.00000E+00
    0.29916E-06         0.49964E-05         0.00000E+00
    0.30667E-06         0.16686E-05         0.00000E+00
    0.36370E-05         0.67285E-04         0.00000E+00
    0.86177E-05         0.61934E-04         0.00000E+00
    0.90493E-05         0.55595E-04         0.00000E+00
    0.72385E-05         0.52144E-04         0.00000E+00
    0.56077E-05         0.49917E-04         0.00000E+00
    0.43234E-05         0.48193E-04         0.00000E+00
    0.33619E-05         0.46615E-04         0.00000E+00
    0.26472E-05         0.45012E-04         0.00000E+00
    0.21108E-05         0.43302E-04         0.00000E+00
    0.17004E-05         0.41448E-04         0.00000E+00
    0.13790E-05         0.39439E-04         0.00000E+00
    0.11223E-05         0.37272E-04         0.00000E+00
    0.91747E-06         0.34951E-04         0.00000E+00
    0.75865E-06         0.32466E-04         0.00000E+00
    0.63303E-06         0.29812E-04         0.00000E+00
    0.53217E-06         0.27014E-04         0.00000E+00
    0.45387E-06         0.24076E-04         0.00000E+00
    0.40431E-06         0.21026E-04         0.00000E+00
    0.40239E-06         0.17906E-04         0.00000E+00
    0.41848E-06         0.14738E-04         0.00000E+00
    0.42706E-06         0.11535E-04         0.00000E+00
    0.43881E-06         0.82811E-05         0.00000E+00
    0.44888E-06         0.49865E-05         0.00000E+00
    0.45395E-06         0.16660E-05         0.00000E+00
    0.17743E-05         0.61874E-04         0.00000E+00
    0.45555E-05         0.59583E-04         0.00000E+00
    0.57145E-05         0.56355E-04         0.00000E+00
    0.55301E-05         0.53379E-04         0.00000E+00
    0.47788E-05         0.51064E-04         0.00000E+00
    0.39828E-05         0.49126E-04         0.00000E+00
    0.32833E-05         0.47343E-04         0.00000E+00
    0.27087E-05         0.45574E-04         0.00000E+00
    0.22478E-05         0.43737E-04         0.00000E+00
    0.18801E-05         0.41790E-04         0.00000E+00
    0.15868E-05         0.39711E-04         0.00000E+00
    0.13538E-05         0.37490E-04         0.00000E+00
    0.11722E-05         0.35120E-04         0.00000E+00
    0.10330E-05         0.32595E-04         0.00000E+00
    0.92591E-06         0.29916E-04         0.00000E+00
    0.84258E-06         0.27094E-04         0.00000E+00
    0.77687E-06         0.24140E-04         0.00000E+00
    0.71793E-06         0.21071E-04         0.00000E+00
    0.66600E-06         0.17915E-04         0.00000E+00
    0.63698E-06         0.14742E-04         0.00000E+00
    0.62812E-06         0.11531E-04         0.00000E+00
    0.62647E-06         0.82746E-05         0.00000E+00
    0.62769E-06         0.49817E-05         0.00000E+00
    0.62882E-06         0.16646E-05         0.00000E+00
    0.10183E-05         0.59082E-04         0.00000E+00
    0.27547E-05         0.57858E-04         0.00000E+00
    0.37802E-05         0.55896E-04         0.00000E+00
    0.40764E-05         0.53726E-04         0.00000E+00
    0.38906E-05         0.51653E-04         0.00000E+00
    0.34941E-05         0.49729E-04         0.00000E+00
    0.30551E-05         0.47878E-04         0.00000E+00
    0.26445E-05         0.46023E-04         0.00000E+00
    0.22870E-05         0.44106E-04         0.00000E+00
    0.19865E-05         0.42090E-04         0.00000E+00
    0.17395E-05         0.39952E-04         0.00000E+00
    0.15407E-05         0.37680E-04         0.00000E+00
    0.13844E-05         0.35267E-04         0.00000E+00
    0.12638E-05         0.32707E-04         0.00000E+00
    0.11710E-05         0.30004E-04         0.00000E+00
    0.10986E-05         0.27163E-04         0.00000E+00
    0.10387E-05         0.24197E-04         0.00000E+00
    0.98622E-06         0.21125E-04         0.00000E+00
    0.93275E-06         0.17966E-04         0.00000E+00
    0.88243E-06         0.14770E-04         0.00000E+00
    0.84944E-06         0.11544E-04         0.00000E+00
    0.83229E-06         0.82799E-05         0.00000E+00
    0.82423E-06         0.49832E-05         0.00000E+00
    0.82141E-06         0.16647E-05         0.00000E+00
    0.65608E-06         0.57407E-04         0.00000E+00
    0.18274E-05         0.56625E-04         0.00000E+00
    0.26469E-05         0.55284E-04         0.00000E+00
    0.30573E-05         0.53631E-04         0.00000E+00
    0.31329E-05         0.51858E-04         0.00000E+00
    0.30001E-05         0.50053E-04         0.00000E+00
    0.27690E-05         0.48225E-04         0.00000E+00
    0.25096E-05         0.46347E-04         0.00000E+00
    0.22590E-05         0.44391E-04         0.00000E+00
    0.20340E-05         0.42331E-04         0.00000E+00
    0.18410E-05         0.40151E-04         0.00000E+00
    0.16813E-05         0.37840E-04         0.00000E+00
    0.15530E-05         0.35392E-04         0.00000E+00
    0.14520E-05         0.32804E-04         0.00000E+00
    0.13727E-05         0.30079E-04         0.00000E+00
    0.13089E-05         0.27224E-04         0.00000E+00
    0.12545E-05         0.24251E-04         0.00000E+00
    0.12037E-05         0.21175E-04         0.00000E+00
    0.11523E-05         0.18021E-04         0.00000E+00
    0.11033E-05         0.14815E-04         0.00000E+00
    0.10647E-05         0.11572E-04         0.00000E+00
    0.10395E-05         0.82950E-05         0.00000E+00
    0.10256E-05         0.49901E-05         0.00000E+00
    0.10199E-05         0.16663E-05         0.00000E+00
    0.45884E-06         0.56292E-04         0.00000E+00
    0.13023E-05         0.55725E-04         0.00000E+00
    0.19538E-05         0.54713E-04         0.00000E+00
    0.23643E-05         0.53382E-04         0.00000E+00
    0.25509E-05         0.51846E-04         0.00000E+00
    0.25698E-05         0.50179E-04         0.00000E+00
    0.24847E-05         0.48414E-04         0.00000E+00
    0.23471E-05         0.46554E-04         0.00000E+00
    0.21918E-05         0.44590E-04         0.00000E+00
    0.20392E-05         0.42509E-04         0.00000E+00
    0.19007E-05         0.40304E-04         0.00000E+00
    0.17813E-05         0.37966E-04         0.00000E+00
    0.16821E-05         0.35493E-04         0.00000E+00
    0.16017E-05         0.32884E-04         0.00000E+00
    0.15365E-05         0.30143E-04         0.00000E+00
    0.14821E-05         0.27278E-04         0.00000E+00
    0.14339E-05         0.24299E-04         0.00000E+00
    0.13879E-05         0.21223E-04         0.00000E+00
    0.13422E-05         0.18070E-04         0.00000E+00
    0.12990E-05         0.14858E-04         0.00000E+00
    0.12626E-05         0.11603E-04         0.00000E+00
    0.12364E-05         0.83148E-05         0.00000E+00
    0.12205E-05         0.50002E-05         0.00000E+00
    0.12136E-05         0.16689E-05         0.00000E+00
    0.34212E-06         0.55491E-04         0.00000E+00
    0.98352E-06         0.55041E-04         0.00000E+00
    0.15119E-05         0.54217E-04         0.00000E+00
    0.18909E-05         0.53088E-04         0.00000E+00
    0.21194E-05         0.51724E-04         0.00000E+00
    0.22214E-05         0.50180E-04         0.00000E+00
    0.22317E-05         0.48489E-04         0.00000E+00
    0.21845E-05         0.46665E-04         0.00000E+00
    0.21068E-05         0.44712E-04         0.00000E+00
    0.20177E-05         0.42629E-04         0.00000E+00
    0.19292E-05         0.40412E-04         0.00000E+00
    0.18483E-05         0.38059E-04         0.00000E+00
    0.17780E-05         0.35570E-04         0.00000E+00
    0.17185E-05         0.32947E-04         0.00000E+00
    0.16683E-05         0.30196E-04         0.00000E+00
    0.16248E-05         0.27323E-04         0.00000E+00
    0.15848E-05         0.24342E-04         0.00000E+00
    0.15461E-05         0.21266E-04         0.00000E+00
    0.15079E-05         0.18111E-04         0.00000E+00
    0.14718E-05         0.14896E-04         0.00000E+00
    0.14408E-05         0.11633E-04         0.00000E+00
    0.14172E-05         0.83348E-05         0.00000E+00
    0.14021E-05         0.50110E-05         0.00000E+00
    0.13953E-05         0.16718E-05         0.00000E+00
    0.26873E-06         0.54880E-04         0.00000E+00
    0.77960E-06         0.54500E-04         0.00000E+00
    0.12195E-05         0.53790E-04         0.00000E+00
    0.15627E-05         0.52793E-04         0.00000E+00
    0.18026E-05         0.51551E-04         0.00000E+00
    0.19485E-05         0.50105E-04         0.00000E+00
    0.20192E-05         0.48483E-04         0.00000E+00
    0.20359E-05         0.46701E-04         0.00000E+00
    0.20182E-05         0.44771E-04         0.00000E+00
    0.19813E-05         0.42696E-04         0.00000E+00
    0.19362E-05         0.40478E-04         0.00000E+00
    0.18902E-05         0.38119E-04         0.00000E+00
    0.18470E-05         0.35623E-04         0.00000E+00
    0.18082E-05         0.32993E-04         0.00000E+00
    0.17737E-05         0.30235E-04         0.00000E+00
    0.17420E-05         0.27359E-04         0.00000E+00
    0.17117E-05         0.24376E-04         0.00000E+00
    0.16817E-05         0.21300E-04         0.00000E+00
    0.16519E-05         0.18145E-04         0.00000E+00
    0.16236E-05         0.14926E-04         0.00000E+00
    0.15988E-05         0.11658E-04         0.00000E+00
    0.15794E-05         0.83527E-05         0.00000E+00
    0.15665E-05         0.50211E-05         0.00000E+00
    0.15605E-05         0.16746E-05         0.00000E+00
    0.22042E-06         0.54391E-04         0.00000E+00
    0.64372E-06         0.54055E-04         0.00000E+00
    0.10201E-05         0.53419E-04         0.00000E+00
    0.13311E-05         0.52510E-04         0.00000E+00
    0.15695E-05         0.51356E-04         0.00000E+00
    0.17379E-05         0.49986E-04         0.00000E+00
    0.18460E-05         0.48423E-04         0.00000E+00
    0.19069E-05         0.46683E-04         0.00000E+00
    0.19338E-05         0.44780E-04         0.00000E+00
    0.19383E-05         0.42719E-04         0.00000E+00
    0.19295E-05         0.40508E-04         0.00000E+00
    0.19137E-05         0.38151E-04         0.00000E+00
    0.18952E-05         0.35653E-04         0.00000E+00
    0.18761E-05         0.33020E-04         0.00000E+00
    0.18570E-05         0.30261E-04         0.00000E+00
    0.18378E-05         0.27384E-04         0.00000E+00
    0.18180E-05         0.24401E-04         0.00000E+00
    0.17974E-05         0.21325E-04         0.00000E+00
    0.17762E-05         0.18170E-04         0.00000E+00
    0.17556E-05         0.14950E-04         0.00000E+00
    0.17372E-05         0.11678E-04         0.00000E+00
    0.17224E-05         0.83671E-05         0.00000E+00
    0.17123E-05         0.50295E-05         0.00000E+00
    0.17074E-05         0.16772E-05         0.00000E+00
    0.18744E-06         0.53983E-04         0.00000E+00
    0.55017E-06         0.53676E-04         0.00000E+00
    0.88036E-06         0.53091E-04         0.00000E+00
    0.11647E-05         0.52243E-04         0.00000E+00
    0.13966E-05         0.51153E-04         0.00000E+00
    0.15757E-05         0.49842E-04         0.00000E+00
    0.17069E-05         0.48328E-04         0.00000E+00
    0.17979E-05         0.46627E-04         0.00000E+00
    0.18574E-05         0.44750E-04         0.00000E+00
    0.18939E-05         0.42708E-04         0.00000E+00
    0.19144E-05         0.40508E-04         0.00000E+00
    0.19243E-05         0.38157E-04         0.00000E+00
    0.19275E-05         0.35662E-04         0.00000E+00
    0.19264E-05         0.33031E-04         0.00000E+00
    0.19221E-05         0.30273E-04         0.00000E+00
    0.19153E-05         0.27398E-04         0.00000E+00
    0.19061E-05         0.24417E-04         0.00000E+00
    0.18949E-05         0.21342E-04         0.00000E+00
    0.18822E-05         0.18187E-04         0.00000E+00
    0.18691E-05         0.14966E-04         0.00000E+00
    0.18568E-05         0.11692E-04         0.00000E+00
    0.18465E-05         0.83779E-05         0.00000E+00
    0.18394E-05         0.50360E-05         0.00000E+00
    0.18358E-05         0.16792E-05         0.00000E+00
    0.16426E-06         0.53632E-04         0.00000E+00
    0.48395E-06         0.53346E-04         0.00000E+00
    0.78014E-06         0.52795E-04         0.00000E+00
    0.10430E-05         0.51991E-04         0.00000E+00
    0.12670E-05         0.50949E-04         0.00000E+00
    0.14505E-05         0.49683E-04         0.00000E+00
    0.15956E-05         0.48210E-04         0.00000E+00
    0.17069E-05         0.46542E-04         0.00000E+00
    0.17900E-05         0.44692E-04         0.00000E+00
    0.18508E-05         0.42669E-04         0.00000E+00
    0.18946E-05         0.40483E-04         0.00000E+00
    0.19258E-05         0.38141E-04         0.00000E+00
    0.19477E-05         0.35653E-04         0.00000E+00
    0.19626E-05         0.33027E-04         0.00000E+00
    0.19721E-05         0.30273E-04         0.00000E+00
    0.19770E-05         0.27400E-04         0.00000E+00
    0.19781E-05         0.24422E-04         0.00000E+00
    0.19759E-05         0.21350E-04         0.00000E+00
    0.19712E-05         0.18197E-04         0.00000E+00
    0.19651E-05         0.14976E-04         0.00000E+00
    0.19585E-05         0.11701E-04         0.00000E+00
    0.19526E-05         0.83850E-05         0.00000E+00
    0.19483E-05         0.50405E-05         0.00000E+00
    0.19459E-05         0.16807E-05         0.00000E+00
    0.14753E-06         0.53320E-04         0.00000E+00
    0.43593E-06         0.53049E-04         0.00000E+00
    0.70668E-06         0.52524E-04         0.00000E+00
    0.95244E-06         0.51753E-04         0.00000E+00
    0.11685E-05         0.50747E-04         0.00000E+00
    0.13529E-05         0.49517E-04         0.00000E+00
    0.15064E-05         0.48077E-04         0.00000E+00
    0.16313E-05         0.46439E-04         0.00000E+00
    0.17313E-05         0.44612E-04         0.00000E+00
    0.18104E-05         0.42609E-04         0.00000E+00
    0.18724E-05         0.40437E-04         0.00000E+00
    0.19209E-05         0.38107E-04         0.00000E+00
    0.19585E-05         0.35628E-04         0.00000E+00
    0.19875E-05         0.33008E-04         0.00000E+00
    0.20092E-05         0.30260E-04         0.00000E+00
    0.20250E-05         0.27393E-04         0.00000E+00
    0.20356E-05         0.24418E-04         0.00000E+00
    0.20419E-05         0.21350E-04         0.00000E+00
    0.20447E-05         0.18199E-04         0.00000E+00
    0.20450E-05         0.14980E-04         0.00000E+00
    0.20437E-05         0.11705E-04         0.00000E+00
    0.20417E-05         0.83887E-05         0.00000E+00
    0.20399E-05         0.50430E-05         0.00000E+00
    0.20388E-05         0.16816E-05         0.00000E+00
    0.13519E-06         0.53037E-04         0.00000E+00
    0.40031E-06         0.52779E-04         0.00000E+00
    0.65170E-06         0.52273E-04         0.00000E+00
    0.88372E-06         0.51527E-04         0.00000E+00
    0.10925E-05         0.50548E-04         0.00000E+00
    0.12760E-05         0.49348E-04         0.00000E+00
    0.14341E-05         0.47935E-04         0.00000E+00
    0.15681E-05         0.46322E-04         0.00000E+00
    0.16800E-05         0.44517E-04         0.00000E+00
    0.17727E-05         0.42532E-04         0.00000E+00
    0.18489E-05         0.40376E-04         0.00000E+00
    0.19113E-05         0.38058E-04         0.00000E+00
    0.19620E-05         0.35588E-04         0.00000E+00
    0.20029E-05         0.32978E-04         0.00000E+00
    0.20355E-05         0.30236E-04         0.00000E+00
    0.20609E-05         0.27375E-04         0.00000E+00
    0.20802E-05         0.24406E-04         0.00000E+00
    0.20942E-05         0.21342E-04         0.00000E+00
    0.21037E-05         0.18195E-04         0.00000E+00
    0.21098E-05         0.14978E-04         0.00000E+00
    0.21132E-05         0.11705E-04         0.00000E+00
    0.21149E-05         0.83892E-05         0.00000E+00
    0.21154E-05         0.50437E-05         0.00000E+00
    0.21155E-05         0.16820E-05         0.00000E+00
    0.12586E-06         0.52776E-04         0.00000E+00
    0.37329E-06         0.52527E-04         0.00000E+00
    0.60965E-06         0.52037E-04         0.00000E+00
    0.83054E-06         0.51310E-04         0.00000E+00
    0.10327E-05         0.50354E-04         0.00000E+00
    0.12143E-05         0.49177E-04         0.00000E+00
    0.13748E-05         0.47788E-04         0.00000E+00
    0.15146E-05         0.46196E-04         0.00000E+00
    0.16349E-05         0.44411E-04         0.00000E+00
    0.17377E-05         0.42443E-04         0.00000E+00
    0.18247E-05         0.40301E-04         0.00000E+00
    0.18980E-05         0.37996E-04         0.00000E+00
    0.19594E-05         0.35538E-04         0.00000E+00
    0.20104E-05         0.32936E-04         0.00000E+00
    0.20523E-05         0.30203E-04         0.00000E+00
    0.20862E-05         0.27349E-04         0.00000E+00
    0.21131E-05         0.24386E-04         0.00000E+00
    0.21339E-05         0.21327E-04         0.00000E+00
    0.21495E-05         0.18184E-04         0.00000E+00
    0.21608E-05         0.14971E-04         0.00000E+00
    0.21684E-05         0.11701E-04         0.00000E+00
    0.21732E-05         0.83869E-05         0.00000E+00
    0.21759E-05         0.50427E-05         0.00000E+00
    0.21770E-05         0.16818E-05         0.00000E+00
    0.11865E-06         0.52532E-04         0.00000E+00
    0.35231E-06         0.52290E-04         0.00000E+00
    0.57674E-06         0.51812E-04         0.00000E+00
    0.78845E-06         0.51102E-04         0.00000E+00
    0.98475E-06         0.50164E-04         0.00000E+00
    0.11639E-05         0.49006E-04         0.00000E+00
    0.13252E-05         0.47637E-04         0.00000E+00
    0.14685E-05         0.46064E-04         0.00000E+00
    0.15946E-05         0.44297E-04         0.00000E+00
    0.17046E-05         0.42345E-04         0.00000E+00
    0.17999E-05         0.40217E-04         0.00000E+00
    0.18818E-05         0.37925E-04         0.00000E+00
    0.19517E-05         0.35478E-04         0.00000E+00
    0.20110E-05         0.32886E-04         0.00000E+00
    0.20607E-05         0.30162E-04         0.00000E+00
    0.21018E-05         0.27315E-04         0.00000E+00
    0.21354E-05         0.24359E-04         0.00000E+00
    0.21622E-05         0.21306E-04         0.00000E+00
    0.21831E-05         0.18169E-04         0.00000E+00
    0.21988E-05         0.14960E-04         0.00000E+00
    0.22102E-05         0.11693E-04         0.00000E+00
    0.22178E-05         0.83822E-05         0.00000E+00
    0.22224E-05         0.50402E-05         0.00000E+00
    0.22244E-05         0.16811E-05         0.00000E+00
    0.11292E-06         0.52300E-04         0.00000E+00
    0.33558E-06         0.52066E-04         0.00000E+00
    0.55031E-06         0.51598E-04         0.00000E+00
    0.75428E-06         0.50900E-04         0.00000E+00
    0.94525E-06         0.49978E-04         0.00000E+00
    0.11217E-05         0.48837E-04         0.00000E+00
    0.12826E-05         0.47484E-04         0.00000E+00
    0.14279E-05         0.45928E-04         0.00000E+00
    0.15578E-05         0.44176E-04         0.00000E+00
    0.16730E-05         0.42239E-04         0.00000E+00
    0.17743E-05         0.40126E-04         0.00000E+00
    0.18627E-05         0.37846E-04         0.00000E+00
    0.19394E-05         0.35410E-04         0.00000E+00
    0.20054E-05         0.32829E-04         0.00000E+00
    0.20615E-05         0.30113E-04         0.00000E+00
    0.21088E-05         0.27275E-04         0.00000E+00
    0.21480E-05         0.24327E-04         0.00000E+00
    0.21800E-05         0.21280E-04         0.00000E+00
    0.22054E-05         0.18148E-04         0.00000E+00
    0.22250E-05         0.14945E-04         0.00000E+00
    0.22396E-05         0.11683E-04         0.00000E+00
    0.22497E-05         0.83752E-05         0.00000E+00
    0.22559E-05         0.50364E-05         0.00000E+00
    0.22587E-05         0.16800E-05         0.00000E+00
    0.10824E-06         0.52079E-04         0.00000E+00
    0.32185E-06         0.51851E-04         0.00000E+00
    0.52845E-06         0.51392E-04         0.00000E+00
    0.72574E-06         0.50705E-04         0.00000E+00
    0.91180E-06         0.49796E-04         0.00000E+00
    0.10852E-05         0.48669E-04         0.00000E+00
    0.12452E-05         0.47331E-04         0.00000E+00
    0.13912E-05         0.45789E-04         0.00000E+00
    0.15234E-05         0.44053E-04         0.00000E+00
    0.16420E-05         0.42129E-04         0.00000E+00
    0.17476E-05         0.40029E-04         0.00000E+00
    0.18410E-05         0.37761E-04         0.00000E+00
    0.19229E-05         0.35336E-04         0.00000E+00
    0.19942E-05         0.32765E-04         0.00000E+00
    0.20555E-05         0.30059E-04         0.00000E+00
    0.21078E-05         0.27230E-04         0.00000E+00
    0.21517E-05         0.24289E-04         0.00000E+00
    0.21879E-05         0.21249E-04         0.00000E+00
    0.22172E-05         0.18124E-04         0.00000E+00
    0.22402E-05         0.14926E-04         0.00000E+00
    0.22575E-05         0.11669E-04         0.00000E+00
    0.22697E-05         0.83663E-05         0.00000E+00
    0.22773E-05         0.50315E-05         0.00000E+00
    0.22809E-05         0.16785E-05         0.00000E+00
    0.10429E-06         0.51866E-04         0.00000E+00
    0.31022E-06         0.51644E-04         0.00000E+00
    0.50981E-06         0.51193E-04         0.00000E+00
    0.70114E-06         0.50516E-04         0.00000E+00
    0.88258E-06         0.49618E-04         0.00000E+00
    0.10529E-05         0.48503E-04         0.00000E+00
    0.12112E-05         0.47178E-04         0.00000E+00
    0.13571E-05         0.45650E-04         0.00000E+00
    0.14903E-05         0.43927E-04         0.00000E+00
    0.16111E-05         0.42016E-04         0.00000E+00
    0.17196E-05         0.39928E-04         0.00000E+00
    0.18165E-05         0.37672E-04         0.00000E+00
    0.19023E-05         0.35258E-04         0.00000E+00
    0.19776E-05         0.32697E-04         0.00000E+00
    0.20431E-05         0.30000E-04         0.00000E+00
    0.20994E-05         0.27180E-04         0.00000E+00
    0.21471E-05         0.24247E-04         0.00000E+00
    0.21869E-05         0.21215E-04         0.00000E+00
    0.22193E-05         0.18097E-04         0.00000E+00
    0.22451E-05         0.14905E-04         0.00000E+00
    0.22647E-05         0.11654E-04         0.00000E+00
    0.22786E-05         0.83558E-05         0.00000E+00
    0.22875E-05         0.50255E-05         0.00000E+00
    0.22917E-05         0.16767E-05         0.00000E+00
    0.10084E-06         0.51661E-04         0.00000E+00
    0.30003E-06         0.51444E-04         0.00000E+00
    0.49337E-06         0.51000E-04         0.00000E+00
    0.67924E-06         0.50332E-04         0.00000E+00
    0.85624E-06         0.49444E-04         0.00000E+00
    0.10233E-05         0.48340E-04         0.00000E+00
    0.11795E-05         0.47027E-04         0.00000E+00
    0.13245E-05         0.45511E-04         0.00000E+00
    0.14578E-05         0.43799E-04         0.00000E+00
    0.15796E-05         0.41901E-04         0.00000E+00
    0.16900E-05         0.39824E-04         0.00000E+00
    0.17892E-05         0.37579E-04         0.00000E+00
    0.18778E-05         0.35176E-04         0.00000E+00
    0.19561E-05         0.32625E-04         0.00000E+00
    0.20246E-05         0.29938E-04         0.00000E+00
    0.20840E-05         0.27126E-04         0.00000E+00
    0.21347E-05         0.24202E-04         0.00000E+00
    0.21774E-05         0.21178E-04         0.00000E+00
    0.22124E-05         0.18067E-04         0.00000E+00
    0.22404E-05         0.14882E-04         0.00000E+00
    0.22618E-05         0.11636E-04         0.00000E+00
    0.22773E-05         0.83439E-05         0.00000E+00
    0.22871E-05         0.50187E-05         0.00000E+00
    0.22918E-05         0.16746E-05         0.00000E+00
    0.97729E-07         0.51463E-04         0.00000E+00
    0.29080E-06         0.51250E-04         0.00000E+00
    0.47838E-06         0.50812E-04         0.00000E+00
    0.65909E-06         0.50152E-04         0.00000E+00
    0.83174E-06         0.49273E-04         0.00000E+00
    0.99533E-06         0.48180E-04         0.00000E+00
    0.11491E-05         0.46877E-04         0.00000E+00
    0.12925E-05         0.45372E-04         0.00000E+00
    0.14252E-05         0.43672E-04         0.00000E+00
    0.15472E-05         0.41785E-04         0.00000E+00
    0.16584E-05         0.39719E-04         0.00000E+00
    0.17590E-05         0.37485E-04         0.00000E+00
    0.18493E-05         0.35092E-04         0.00000E+00
    0.19296E-05         0.32551E-04         0.00000E+00
    0.20004E-05         0.29873E-04         0.00000E+00
    0.20621E-05         0.27070E-04         0.00000E+00
    0.21151E-05         0.24154E-04         0.00000E+00
    0.21599E-05         0.21138E-04         0.00000E+00
    0.21969E-05         0.18034E-04         0.00000E+00
    0.22267E-05         0.14856E-04         0.00000E+00
    0.22497E-05         0.11617E-04         0.00000E+00
    0.22663E-05         0.83308E-05         0.00000E+00
    0.22769E-05         0.50113E-05         0.00000E+00
    0.22821E-05         0.16722E-05         0.00000E+00
    0.94821E-07         0.51270E-04         0.00000E+00
    0.28216E-06         0.51062E-04         0.00000E+00
    0.46428E-06         0.50631E-04         0.00000E+00
    0.64000E-06         0.49978E-04         0.00000E+00
    0.80829E-06         0.49107E-04         0.00000E+00
    0.96824E-06         0.48022E-04         0.00000E+00
    0.11192E-05         0.46730E-04         0.00000E+00
    0.12605E-05         0.45235E-04         0.00000E+00
    0.13920E-05         0.43545E-04         0.00000E+00
    0.15133E-05         0.41668E-04         0.00000E+00
    0.16245E-05         0.39613E-04         0.00000E+00
    0.17256E-05         0.37389E-04         0.00000E+00
    0.18169E-05         0.35006E-04         0.00000E+00
    0.18985E-05         0.32475E-04         0.00000E+00
    0.19707E-05         0.29806E-04         0.00000E+00
    0.20339E-05         0.27012E-04         0.00000E+00
    0.20885E-05         0.24105E-04         0.00000E+00
    0.21349E-05         0.21097E-04         0.00000E+00
    0.21735E-05         0.18000E-04         0.00000E+00
    0.22046E-05         0.14829E-04         0.00000E+00
    0.22287E-05         0.11597E-04         0.00000E+00
    0.22462E-05         0.83169E-05         0.00000E+00
    0.22575E-05         0.50032E-05         0.00000E+00
    0.22630E-05         0.16697E-05         0.00000E+00
    0.92025E-07         0.51083E-04         0.00000E+00
    0.27383E-06         0.50880E-04         0.00000E+00
    0.45064E-06         0.50454E-04         0.00000E+00
    0.62143E-06         0.49808E-04         0.00000E+00
    0.78528E-06         0.48945E-04         0.00000E+00
    0.94141E-06         0.47869E-04         0.00000E+00
    0.10891E-05         0.46585E-04         0.00000E+00
    0.12280E-05         0.45099E-04         0.00000E+00
    0.13576E-05         0.43419E-04         0.00000E+00
    0.14777E-05         0.41552E-04         0.00000E+00
    0.15882E-05         0.39507E-04         0.00000E+00
    0.16891E-05         0.37293E-04         0.00000E+00
    0.17805E-05         0.34920E-04         0.00000E+00
    0.18626E-05         0.32398E-04         0.00000E+00
    0.19356E-05         0.29738E-04         0.00000E+00
    0.19998E-05         0.26953E-04         0.00000E+00
    0.20554E-05         0.24054E-04         0.00000E+00
    0.21029E-05         0.21054E-04         0.00000E+00
    0.21424E-05         0.17965E-04         0.00000E+00
    0.21745E-05         0.14801E-04         0.00000E+00
    0.21995E-05         0.11576E-04         0.00000E+00
    0.22177E-05         0.83023E-05         0.00000E+00
    0.22294E-05         0.49947E-05         0.00000E+00
    0.22352E-05         0.16670E-05         0.00000E+00
    0.89268E-07         0.50902E-04         0.00000E+00
    0.26562E-06         0.50703E-04         0.00000E+00
    0.43714E-06         0.50282E-04         0.00000E+00
    0.60296E-06         0.49643E-04         0.00000E+00
    0.76226E-06         0.48787E-04         0.00000E+00
    0.91433E-06         0.47718E-04         0.00000E+00
    0.10586E-05         0.46443E-04         0.00000E+00
    0.11945E-05         0.44966E-04         0.00000E+00
    0.13217E-05         0.43296E-04         0.00000E+00
    0.14400E-05         0.41438E-04         0.00000E+00
    0.15492E-05         0.39402E-04         0.00000E+00
    0.16493E-05         0.37197E-04         0.00000E+00
    0.17403E-05         0.34833E-04         0.00000E+00
    0.18223E-05         0.32320E-04         0.00000E+00
    0.18954E-05         0.29670E-04         0.00000E+00
    0.19599E-05         0.26893E-04         0.00000E+00
    0.20160E-05         0.24002E-04         0.00000E+00
    0.20641E-05         0.21010E-04         0.00000E+00
    0.21042E-05         0.17929E-04         0.00000E+00
    0.21369E-05         0.14772E-04         0.00000E+00
    0.21624E-05         0.11554E-04         0.00000E+00
    0.21811E-05         0.82872E-05         0.00000E+00
    0.21932E-05         0.49860E-05         0.00000E+00
    0.21991E-05         0.16641E-05         0.00000E+00
    0.86497E-07         0.50726E-04         0.00000E+00
    0.25735E-06         0.50531E-04         0.00000E+00
    0.42354E-06         0.50116E-04         0.00000E+00
    0.58428E-06         0.49482E-04         0.00000E+00
    0.73886E-06         0.48633E-04         0.00000E+00
    0.88664E-06         0.47572E-04         0.00000E+00
    0.10271E-05         0.46305E-04         0.00000E+00
    0.11597E-05         0.44836E-04         0.00000E+00
    0.12841E-05         0.43174E-04         0.00000E+00
    0.14001E-05         0.41325E-04         0.00000E+00
    0.15075E-05         0.39298E-04         0.00000E+00
    0.16062E-05         0.37102E-04         0.00000E+00
    0.16962E-05         0.34747E-04         0.00000E+00
    0.17775E-05         0.32243E-04         0.00000E+00
    0.18502E-05         0.29601E-04         0.00000E+00
    0.19145E-05         0.26833E-04         0.00000E+00
    0.19707E-05         0.23950E-04         0.00000E+00
    0.20188E-05         0.20966E-04         0.00000E+00
    0.20592E-05         0.17892E-04         0.00000E+00
    0.20922E-05         0.14743E-04         0.00000E+00
    0.21180E-05         0.11532E-04         0.00000E+00
    0.21369E-05         0.82718E-05         0.00000E+00
    0.21492E-05         0.49770E-05         0.00000E+00
    0.21552E-05         0.16613E-05         0.00000E+00
    0.83671E-07         0.50556E-04         0.00000E+00
    0.24892E-06         0.50366E-04         0.00000E+00
    0.40964E-06         0.49955E-04         0.00000E+00
    0.56515E-06         0.49327E-04         0.00000E+00
    0.71482E-06         0.48484E-04         0.00000E+00
    0.85807E-06         0.47430E-04         0.00000E+00
    0.99438E-06         0.46170E-04         0.00000E+00
    0.11233E-05         0.44709E-04         0.00000E+00
    0.12446E-05         0.43055E-04         0.00000E+00
    0.13578E-05         0.41215E-04         0.00000E+00
    0.14629E-05         0.39196E-04         0.00000E+00
    0.15597E-05         0.37009E-04         0.00000E+00
    0.16481E-05         0.34662E-04         0.00000E+00
    0.17282E-05         0.32166E-04         0.00000E+00
    0.18001E-05         0.29533E-04         0.00000E+00
    0.18638E-05         0.26773E-04         0.00000E+00
    0.19196E-05         0.23898E-04         0.00000E+00
    0.19675E-05         0.20922E-04         0.00000E+00
    0.20078E-05         0.17856E-04         0.00000E+00
    0.20407E-05         0.14714E-04         0.00000E+00
    0.20665E-05         0.11510E-04         0.00000E+00
    0.20855E-05         0.82563E-05         0.00000E+00
    0.20979E-05         0.49678E-05         0.00000E+00
    0.21039E-05         0.16583E-05         0.00000E+00
    0.80760E-07         0.50392E-04         0.00000E+00
    0.24023E-06         0.50205E-04         0.00000E+00
    0.39531E-06         0.49800E-04         0.00000E+00
    0.54540E-06         0.49177E-04         0.00000E+00
    0.68994E-06         0.48340E-04         0.00000E+00
    0.82838E-06         0.47293E-04         0.00000E+00
    0.96028E-06         0.46039E-04         0.00000E+00
    0.10852E-05         0.44586E-04         0.00000E+00
    0.12029E-05         0.42940E-04         0.00000E+00
    0.13130E-05         0.41107E-04         0.00000E+00
    0.14153E-05         0.39097E-04         0.00000E+00
    0.15098E-05         0.36917E-04         0.00000E+00
    0.15963E-05         0.34579E-04         0.00000E+00
    0.16748E-05         0.32091E-04         0.00000E+00
    0.17453E-05         0.29466E-04         0.00000E+00
    0.18080E-05         0.26714E-04         0.00000E+00
    0.18629E-05         0.23847E-04         0.00000E+00
    0.19102E-05         0.20878E-04         0.00000E+00
    0.19501E-05         0.17819E-04         0.00000E+00
    0.19828E-05         0.14685E-04         0.00000E+00
    0.20085E-05         0.11487E-04         0.00000E+00
    0.20273E-05         0.82407E-05         0.00000E+00
    0.20397E-05         0.49587E-05         0.00000E+00
    0.20457E-05         0.16554E-05         0.00000E+00
    0.77740E-07         0.50233E-04         0.00000E+00
    0.23123E-06         0.50051E-04         0.00000E+00
    0.38046E-06         0.49650E-04         0.00000E+00
    0.52491E-06         0.49032E-04         0.00000E+00
    0.66406E-06         0.48201E-04         0.00000E+00
    0.79745E-06         0.47160E-04         0.00000E+00
    0.92464E-06         0.45913E-04         0.00000E+00
    0.10453E-05         0.44467E-04         0.00000E+00
    0.11590E-05         0.42827E-04         0.00000E+00
    0.12655E-05         0.41002E-04         0.00000E+00
    0.13648E-05         0.39000E-04         0.00000E+00
    0.14565E-05         0.36828E-04         0.00000E+00
    0.15406E-05         0.34497E-04         0.00000E+00
    0.16171E-05         0.32018E-04         0.00000E+00
    0.16859E-05         0.29400E-04         0.00000E+00
    0.17472E-05         0.26655E-04         0.00000E+00
    0.18010E-05         0.23796E-04         0.00000E+00
    0.18474E-05         0.20835E-04         0.00000E+00
    0.18866E-05         0.17784E-04         0.00000E+00
    0.19188E-05         0.14656E-04         0.00000E+00
    0.19441E-05         0.11465E-04         0.00000E+00
    0.19627E-05         0.82252E-05         0.00000E+00
    0.19749E-05         0.49496E-05         0.00000E+00
    0.19809E-05         0.16524E-05         0.00000E+00
    0.74597E-07         0.50081E-04         0.00000E+00
    0.22186E-06         0.49902E-04         0.00000E+00
    0.36500E-06         0.49506E-04         0.00000E+00
    0.50357E-06         0.48893E-04         0.00000E+00
    0.63709E-06         0.48067E-04         0.00000E+00
    0.76514E-06         0.47032E-04         0.00000E+00
    0.88734E-06         0.45792E-04         0.00000E+00
    0.10033E-05         0.44352E-04         0.00000E+00
    0.11128E-05         0.42719E-04         0.00000E+00
    0.12155E-05         0.40901E-04         0.00000E+00
    0.13112E-05         0.38906E-04         0.00000E+00
    0.13998E-05         0.36742E-04         0.00000E+00
    0.14812E-05         0.34418E-04         0.00000E+00
    0.15553E-05         0.31946E-04         0.00000E+00
    0.16221E-05         0.29336E-04         0.00000E+00
    0.16817E-05         0.26599E-04         0.00000E+00
    0.17340E-05         0.23747E-04         0.00000E+00
    0.17793E-05         0.20792E-04         0.00000E+00
    0.18175E-05         0.17748E-04         0.00000E+00
    0.18490E-05         0.14628E-04         0.00000E+00
    0.18737E-05         0.11444E-04         0.00000E+00
    0.18920E-05         0.82100E-05         0.00000E+00
    0.19039E-05         0.49407E-05         0.00000E+00
    0.19098E-05         0.16495E-05         0.00000E+00
    0.71320E-07         0.49935E-04         0.00000E+00
    0.21209E-06         0.49760E-04         0.00000E+00
    0.34890E-06         0.49368E-04         0.00000E+00
    0.48132E-06         0.48760E-04         0.00000E+00
    0.60896E-06         0.47939E-04         0.00000E+00
    0.73141E-06         0.46909E-04         0.00000E+00
    0.84832E-06         0.45675E-04         0.00000E+00
    0.95937E-06         0.44241E-04         0.00000E+00
    0.10643E-05         0.42615E-04         0.00000E+00
    0.11628E-05         0.40804E-04         0.00000E+00
    0.12547E-05         0.38815E-04         0.00000E+00
    0.13399E-05         0.36658E-04         0.00000E+00
    0.14182E-05         0.34342E-04         0.00000E+00
    0.14896E-05         0.31877E-04         0.00000E+00
    0.15541E-05         0.29274E-04         0.00000E+00
    0.16116E-05         0.26544E-04         0.00000E+00
    0.16622E-05         0.23699E-04         0.00000E+00
    0.17060E-05         0.20751E-04         0.00000E+00
    0.17431E-05         0.17714E-04         0.00000E+00
    0.17736E-05         0.14600E-04         0.00000E+00
    0.17977E-05         0.11422E-04         0.00000E+00
    0.18154E-05         0.81952E-05         0.00000E+00
    0.18271E-05         0.49320E-05         0.00000E+00
    0.18328E-05         0.16467E-05         0.00000E+00
    0.67902E-07         0.49796E-04         0.00000E+00
    0.20190E-06         0.49625E-04         0.00000E+00
    0.33211E-06         0.49237E-04         0.00000E+00
    0.45814E-06         0.48633E-04         0.00000E+00
    0.57962E-06         0.47817E-04         0.00000E+00
    0.69620E-06         0.46792E-04         0.00000E+00
    0.80756E-06         0.45564E-04         0.00000E+00
    0.91339E-06         0.44136E-04         0.00000E+00
    0.10134E-05         0.42516E-04         0.00000E+00
    0.11075E-05         0.40711E-04         0.00000E+00
    0.11953E-05         0.38729E-04         0.00000E+00
    0.12767E-05         0.36578E-04         0.00000E+00
    0.13517E-05         0.34269E-04         0.00000E+00
    0.14201E-05         0.31810E-04         0.00000E+00
    0.14819E-05         0.29214E-04         0.00000E+00
    0.15371E-05         0.26491E-04         0.00000E+00
    0.15858E-05         0.23652E-04         0.00000E+00
    0.16280E-05         0.20712E-04         0.00000E+00
    0.16637E-05         0.17681E-04         0.00000E+00
    0.16931E-05         0.14573E-04         0.00000E+00
    0.17163E-05         0.11402E-04         0.00000E+00
    0.17334E-05         0.81808E-05         0.00000E+00
    0.17447E-05         0.49235E-05         0.00000E+00
    0.17502E-05         0.16439E-05         0.00000E+00
    0.64341E-07         0.49663E-04         0.00000E+00
    0.19130E-06         0.49496E-04         0.00000E+00
    0.31463E-06         0.49112E-04         0.00000E+00
    0.43399E-06         0.48513E-04         0.00000E+00
    0.54907E-06         0.47701E-04         0.00000E+00
    0.65952E-06         0.46681E-04         0.00000E+00
    0.76506E-06         0.45458E-04         0.00000E+00
    0.86541E-06         0.44036E-04         0.00000E+00
    0.96031E-06         0.42421E-04         0.00000E+00
    0.10496E-05         0.40622E-04         0.00000E+00
    0.11330E-05         0.38646E-04         0.00000E+00
    0.12104E-05         0.36502E-04         0.00000E+00
    0.12817E-05         0.34199E-04         0.00000E+00
    0.13469E-05         0.31747E-04         0.00000E+00
    0.14058E-05         0.29157E-04         0.00000E+00
    0.14585E-05         0.26440E-04         0.00000E+00
    0.15050E-05         0.23608E-04         0.00000E+00
    0.15453E-05         0.20674E-04         0.00000E+00
    0.15795E-05         0.17649E-04         0.00000E+00
    0.16076E-05         0.14547E-04         0.00000E+00
    0.16298E-05         0.11382E-04         0.00000E+00
    0.16463E-05         0.81669E-05         0.00000E+00
    0.16571E-05         0.49153E-05         0.00000E+00
    0.16624E-05         0.16413E-05         0.00000E+00
    0.60636E-07         0.49538E-04         0.00000E+00
    0.18026E-06         0.49374E-04         0.00000E+00
    0.29645E-06         0.48994E-04         0.00000E+00
    0.40890E-06         0.48399E-04         0.00000E+00
    0.51730E-06         0.47592E-04         0.00000E+00
    0.62137E-06         0.46576E-04         0.00000E+00
    0.72084E-06         0.45358E-04         0.00000E+00
    0.81544E-06         0.43941E-04         0.00000E+00
    0.90496E-06         0.42332E-04         0.00000E+00
    0.98919E-06         0.40538E-04         0.00000E+00
    0.10680E-05         0.38568E-04         0.00000E+00
    0.11411E-05         0.36429E-04         0.00000E+00
    0.12086E-05         0.34132E-04         0.00000E+00
    0.12702E-05         0.31686E-04         0.00000E+00
    0.13260E-05         0.29102E-04         0.00000E+00
    0.13760E-05         0.26392E-04         0.00000E+00
    0.14200E-05         0.23566E-04         0.00000E+00
    0.14583E-05         0.20637E-04         0.00000E+00
    0.14907E-05         0.17619E-04         0.00000E+00
    0.15175E-05         0.14523E-04         0.00000E+00
    0.15386E-05         0.11363E-04         0.00000E+00
    0.15543E-05         0.81537E-05         0.00000E+00
    0.15646E-05         0.49075E-05         0.00000E+00
    0.15696E-05         0.16387E-05         0.00000E+00
    0.56789E-07         0.49421E-04         0.00000E+00
    0.16882E-06         0.49260E-04         0.00000E+00
    0.27760E-06         0.48883E-04         0.00000E+00
    0.38287E-06         0.48292E-04         0.00000E+00
    0.48436E-06         0.47489E-04         0.00000E+00
    0.58180E-06         0.46478E-04         0.00000E+00
    0.67494E-06         0.45264E-04         0.00000E+00
    0.76356E-06         0.43851E-04         0.00000E+00
    0.84745E-06         0.42248E-04         0.00000E+00
    0.92641E-06         0.40459E-04         0.00000E+00
    0.10003E-05         0.38494E-04         0.00000E+00
    0.10690E-05         0.36361E-04         0.00000E+00
    0.11323E-05         0.34070E-04         0.00000E+00
    0.11902E-05         0.31629E-04         0.00000E+00
    0.12427E-05         0.29051E-04         0.00000E+00
    0.12897E-05         0.26346E-04         0.00000E+00
    0.13312E-05         0.23526E-04         0.00000E+00
    0.13672E-05         0.20603E-04         0.00000E+00
    0.13978E-05         0.17590E-04         0.00000E+00
    0.14230E-05         0.14500E-04         0.00000E+00
    0.14430E-05         0.11346E-04         0.00000E+00
    0.14578E-05         0.81411E-05         0.00000E+00
    0.14675E-05         0.49000E-05         0.00000E+00
    0.14723E-05         0.16363E-05         0.00000E+00
    0.52806E-07         0.49311E-04         0.00000E+00
    0.15696E-06         0.49154E-04         0.00000E+00
    0.25809E-06         0.48780E-04         0.00000E+00
    0.35593E-06         0.48192E-04         0.00000E+00
    0.45026E-06         0.47393E-04         0.00000E+00
    0.54084E-06         0.46386E-04         0.00000E+00
    0.62743E-06         0.45176E-04         0.00000E+00
    0.70984E-06         0.43768E-04         0.00000E+00
    0.78787E-06         0.42169E-04         0.00000E+00
    0.86135E-06         0.40385E-04         0.00000E+00
    0.93012E-06         0.38425E-04         0.00000E+00
    0.99407E-06         0.36297E-04         0.00000E+00
    0.10531E-05         0.34011E-04         0.00000E+00
    0.11071E-05         0.31576E-04         0.00000E+00
    0.11560E-05         0.29003E-04         0.00000E+00
    0.11999E-05         0.26303E-04         0.00000E+00
    0.12386E-05         0.23488E-04         0.00000E+00
    0.12723E-05         0.20571E-04         0.00000E+00
    0.13009E-05         0.17563E-04         0.00000E+00
    0.13245E-05         0.14478E-04         0.00000E+00
    0.13432E-05         0.11329E-04         0.00000E+00
    0.13570E-05         0.81292E-05         0.00000E+00
    0.13661E-05         0.48930E-05         0.00000E+00
    0.13706E-05         0.16340E-05         0.00000E+00
    0.48691E-07         0.49210E-04         0.00000E+00
    0.14472E-06         0.49055E-04         0.00000E+00
    0.23794E-06         0.48684E-04         0.00000E+00
    0.32813E-06         0.48100E-04         0.00000E+00
    0.41507E-06         0.47304E-04         0.00000E+00
    0.49856E-06         0.46301E-04         0.00000E+00
    0.57840E-06         0.45095E-04         0.00000E+00
    0.65438E-06         0.43691E-04         0.00000E+00
    0.72634E-06         0.42096E-04         0.00000E+00
    0.79413E-06         0.40317E-04         0.00000E+00
    0.85760E-06         0.38362E-04         0.00000E+00
    0.91663E-06         0.36238E-04         0.00000E+00
    0.97113E-06         0.33957E-04         0.00000E+00
    0.10210E-05         0.31526E-04         0.00000E+00
    0.10663E-05         0.28958E-04         0.00000E+00
    0.11068E-05         0.26263E-04         0.00000E+00
    0.11427E-05         0.23454E-04         0.00000E+00
    0.11738E-05         0.20541E-04         0.00000E+00
    0.12003E-05         0.17538E-04         0.00000E+00
    0.12222E-05         0.14457E-04         0.00000E+00
    0.12395E-05         0.11313E-04         0.00000E+00
    0.12523E-05         0.81182E-05         0.00000E+00
    0.12608E-05         0.48865E-05         0.00000E+00
    0.12649E-05         0.16319E-05         0.00000E+00
    0.44453E-07         0.49117E-04         0.00000E+00
    0.13212E-06         0.48964E-04         0.00000E+00
    0.21720E-06         0.48596E-04         0.00000E+00
    0.29951E-06         0.48015E-04         0.00000E+00
    0.37886E-06         0.47222E-04         0.00000E+00
    0.45505E-06         0.46223E-04         0.00000E+00
    0.52792E-06         0.45020E-04         0.00000E+00
    0.59728E-06         0.43620E-04         0.00000E+00
    0.66298E-06         0.42029E-04         0.00000E+00
    0.72489E-06         0.40254E-04         0.00000E+00
    0.78287E-06         0.38303E-04         0.00000E+00
    0.83681E-06         0.36184E-04         0.00000E+00
    0.88663E-06         0.33907E-04         0.00000E+00
    0.93226E-06         0.31481E-04         0.00000E+00
    0.97365E-06         0.28917E-04         0.00000E+00
    0.10108E-05         0.26227E-04         0.00000E+00
    0.10436E-05         0.23422E-04         0.00000E+00
    0.10721E-05         0.20513E-04         0.00000E+00
    0.10964E-05         0.17515E-04         0.00000E+00
    0.11164E-05         0.14439E-04         0.00000E+00
    0.11323E-05         0.11299E-04         0.00000E+00
    0.11441E-05         0.81080E-05         0.00000E+00
    0.11518E-05         0.48805E-05         0.00000E+00
    0.11556E-05         0.16299E-05         0.00000E+00
    0.40099E-07         0.49032E-04         0.00000E+00
    0.11917E-06         0.48882E-04         0.00000E+00
    0.19591E-06         0.48517E-04         0.00000E+00
    0.27013E-06         0.47938E-04         0.00000E+00
    0.34168E-06         0.47148E-04         0.00000E+00
    0.41039E-06         0.46152E-04         0.00000E+00
    0.47610E-06         0.44952E-04         0.00000E+00
    0.53866E-06         0.43556E-04         0.00000E+00
    0.59793E-06         0.41969E-04         0.00000E+00
    0.65379E-06         0.40197E-04         0.00000E+00
    0.70611E-06         0.38250E-04         0.00000E+00
    0.75480E-06         0.36135E-04         0.00000E+00
    0.79979E-06         0.33861E-04         0.00000E+00
    0.84100E-06         0.31439E-04         0.00000E+00
    0.87839E-06         0.28880E-04         0.00000E+00
    0.91193E-06         0.26194E-04         0.00000E+00
    0.94161E-06         0.23392E-04         0.00000E+00
    0.96741E-06         0.20488E-04         0.00000E+00
    0.98937E-06         0.17494E-04         0.00000E+00
    0.10075E-05         0.14422E-04         0.00000E+00
    0.10219E-05         0.11286E-04         0.00000E+00
    0.10325E-05         0.80988E-05         0.00000E+00
    0.10396E-05         0.48750E-05         0.00000E+00
    0.10430E-05         0.16281E-05         0.00000E+00
    0.35640E-07         0.48957E-04         0.00000E+00
    0.10591E-06         0.48809E-04         0.00000E+00
    0.17410E-06         0.48445E-04         0.00000E+00
    0.24006E-06         0.47869E-04         0.00000E+00
    0.30363E-06         0.47082E-04         0.00000E+00
    0.36468E-06         0.46088E-04         0.00000E+00
    0.42307E-06         0.44892E-04         0.00000E+00
    0.47867E-06         0.43498E-04         0.00000E+00
    0.53134E-06         0.41914E-04         0.00000E+00
    0.58099E-06         0.40146E-04         0.00000E+00
    0.62751E-06         0.38202E-04         0.00000E+00
    0.67081E-06         0.36090E-04         0.00000E+00
    0.71082E-06         0.33821E-04         0.00000E+00
    0.74749E-06         0.31402E-04         0.00000E+00
    0.78077E-06         0.28846E-04         0.00000E+00
    0.81062E-06         0.26164E-04         0.00000E+00
    0.83704E-06         0.23366E-04         0.00000E+00
    0.86003E-06         0.20466E-04         0.00000E+00
    0.87959E-06         0.17475E-04         0.00000E+00
    0.89576E-06         0.14406E-04         0.00000E+00
    0.90857E-06         0.11274E-04         0.00000E+00
    0.91808E-06         0.80904E-05         0.00000E+00
    0.92434E-06         0.48701E-05         0.00000E+00
    0.92743E-06         0.16265E-05         0.00000E+00
    0.31087E-07         0.48890E-04         0.00000E+00
    0.92378E-07         0.48744E-04         0.00000E+00
    0.15184E-06         0.48383E-04         0.00000E+00
    0.20936E-06         0.47808E-04         0.00000E+00
    0.26479E-06         0.47024E-04         0.00000E+00
    0.31803E-06         0.46032E-04         0.00000E+00
    0.36894E-06         0.44838E-04         0.00000E+00
    0.41743E-06         0.43448E-04         0.00000E+00
    0.46337E-06         0.41866E-04         0.00000E+00
    0.50667E-06         0.40101E-04         0.00000E+00
    0.54726E-06         0.38160E-04         0.00000E+00
    0.58504E-06         0.36051E-04         0.00000E+00
    0.61996E-06         0.33785E-04         0.00000E+00
    0.65197E-06         0.31370E-04         0.00000E+00
    0.68102E-06         0.28817E-04         0.00000E+00
    0.70709E-06         0.26137E-04         0.00000E+00
    0.73017E-06         0.23343E-04         0.00000E+00
    0.75025E-06         0.20446E-04         0.00000E+00
    0.76735E-06         0.17458E-04         0.00000E+00
    0.78149E-06         0.14393E-04         0.00000E+00
    0.79269E-06         0.11263E-04         0.00000E+00
    0.80100E-06         0.80830E-05         0.00000E+00
    0.80648E-06         0.48657E-05         0.00000E+00
    0.80918E-06         0.16251E-05         0.00000E+00
    0.26449E-07         0.48832E-04         0.00000E+00
    0.78594E-07         0.48688E-04         0.00000E+00
    0.12918E-06         0.48328E-04         0.00000E+00
    0.17810E-06         0.47756E-04         0.00000E+00
    0.22526E-06         0.46973E-04         0.00000E+00
    0.27054E-06         0.45984E-04         0.00000E+00
    0.31385E-06         0.44792E-04         0.00000E+00
    0.35509E-06         0.43404E-04         0.00000E+00
    0.39418E-06         0.41825E-04         0.00000E+00
    0.43102E-06         0.40062E-04         0.00000E+00
    0.46556E-06         0.38124E-04         0.00000E+00
    0.49771E-06         0.36018E-04         0.00000E+00
    0.52744E-06         0.33754E-04         0.00000E+00
    0.55468E-06         0.31341E-04         0.00000E+00
    0.57942E-06         0.28791E-04         0.00000E+00
    0.60163E-06         0.26115E-04         0.00000E+00
    0.62129E-06         0.23323E-04         0.00000E+00
    0.63840E-06         0.20428E-04         0.00000E+00
    0.65296E-06         0.17443E-04         0.00000E+00
    0.66501E-06         0.14381E-04         0.00000E+00
    0.67456E-06         0.11254E-04         0.00000E+00
    0.68165E-06         0.80767E-05         0.00000E+00
    0.68632E-06         0.48619E-05         0.00000E+00
    0.68862E-06         0.16239E-05         0.00000E+00
    0.21740E-07         0.48784E-04         0.00000E+00
    0.64598E-07         0.48641E-04         0.00000E+00
    0.10617E-06         0.48283E-04         0.00000E+00
    0.14638E-06         0.47712E-04         0.00000E+00
    0.18513E-06         0.46931E-04         0.00000E+00
    0.22234E-06         0.45944E-04         0.00000E+00
    0.25793E-06         0.44754E-04         0.00000E+00
    0.29183E-06         0.43367E-04         0.00000E+00
    0.32395E-06         0.41790E-04         0.00000E+00
    0.35423E-06         0.40030E-04         0.00000E+00
    0.38262E-06         0.38093E-04         0.00000E+00
    0.40906E-06         0.35989E-04         0.00000E+00
    0.43349E-06         0.33728E-04         0.00000E+00
    0.45590E-06         0.31318E-04         0.00000E+00
    0.47625E-06         0.28770E-04         0.00000E+00
    0.49451E-06         0.26096E-04         0.00000E+00
    0.51068E-06         0.23306E-04         0.00000E+00
    0.52476E-06         0.20414E-04         0.00000E+00
    0.53675E-06         0.17431E-04         0.00000E+00
    0.54667E-06         0.14371E-04         0.00000E+00
    0.55453E-06         0.11247E-04         0.00000E+00
    0.56036E-06         0.80713E-05         0.00000E+00
    0.56421E-06         0.48588E-05         0.00000E+00
    0.56610E-06         0.16228E-05         0.00000E+00
    0.16971E-07         0.48745E-04         0.00000E+00
    0.50427E-07         0.48603E-04         0.00000E+00
    0.82879E-07         0.48247E-04         0.00000E+00
    0.11426E-06         0.47677E-04         0.00000E+00
    0.14451E-06         0.46897E-04         0.00000E+00
    0.17355E-06         0.45911E-04         0.00000E+00
    0.20133E-06         0.44723E-04         0.00000E+00
    0.22779E-06         0.43338E-04         0.00000E+00
    0.25286E-06         0.41763E-04         0.00000E+00
    0.27650E-06         0.40004E-04         0.00000E+00
    0.29866E-06         0.38069E-04         0.00000E+00
    0.31930E-06         0.35967E-04         0.00000E+00
    0.33838E-06         0.33707E-04         0.00000E+00
    0.35588E-06         0.31299E-04         0.00000E+00
    0.37177E-06         0.28753E-04         0.00000E+00
    0.38604E-06         0.26080E-04         0.00000E+00
    0.39867E-06         0.23293E-04         0.00000E+00
    0.40967E-06         0.20402E-04         0.00000E+00
    0.41904E-06         0.17422E-04         0.00000E+00
    0.42679E-06         0.14363E-04         0.00000E+00
    0.43293E-06         0.11241E-04         0.00000E+00
    0.43749E-06         0.80670E-05         0.00000E+00
    0.44050E-06         0.48562E-05         0.00000E+00
    0.44198E-06         0.16220E-05         0.00000E+00
    0.12156E-07         0.48716E-04         0.00000E+00
    0.36118E-07         0.48575E-04         0.00000E+00
    0.59361E-07         0.48219E-04         0.00000E+00
    0.81836E-07         0.47651E-04         0.00000E+00
    0.10350E-06         0.46872E-04         0.00000E+00
    0.12430E-06         0.45887E-04         0.00000E+00
    0.14419E-06         0.44700E-04         0.00000E+00
    0.16314E-06         0.43316E-04         0.00000E+00
    0.18110E-06         0.41742E-04         0.00000E+00
    0.19803E-06         0.39984E-04         0.00000E+00
    0.21390E-06         0.38050E-04         0.00000E+00
    0.22869E-06         0.35950E-04         0.00000E+00
    0.24236E-06         0.33691E-04         0.00000E+00
    0.25489E-06         0.31284E-04         0.00000E+00
    0.26628E-06         0.28740E-04         0.00000E+00
    0.27650E-06         0.26069E-04         0.00000E+00
    0.28556E-06         0.23283E-04         0.00000E+00
    0.29344E-06         0.20394E-04         0.00000E+00
    0.30015E-06         0.17414E-04         0.00000E+00
    0.30571E-06         0.14357E-04         0.00000E+00
    0.31011E-06         0.11236E-04         0.00000E+00
    0.31338E-06         0.80638E-05         0.00000E+00
    0.31553E-06         0.48543E-05         0.00000E+00
    0.31660E-06         0.16214E-05         0.00000E+00
    0.73068E-08         0.48697E-04         0.00000E+00
    0.21711E-07         0.48556E-04         0.00000E+00
    0.35681E-07         0.48201E-04         0.00000E+00
    0.49191E-07         0.47633E-04         0.00000E+00
    0.62210E-07         0.46855E-04         0.00000E+00
    0.74713E-07         0.45871E-04         0.00000E+00
    0.86671E-07         0.44684E-04         0.00000E+00
    0.98059E-07         0.43301E-04         0.00000E+00
    0.10885E-06         0.41728E-04         0.00000E+00
    0.11903E-06         0.39971E-04         0.00000E+00
    0.12857E-06         0.38038E-04         0.00000E+00
    0.13746E-06         0.35938E-04         0.00000E+00
    0.14568E-06         0.33681E-04         0.00000E+00
    0.15322E-06         0.31275E-04         0.00000E+00
    0.16006E-06         0.28731E-04         0.00000E+00
    0.16621E-06         0.26061E-04         0.00000E+00
    0.17165E-06         0.23276E-04         0.00000E+00
    0.17639E-06         0.20388E-04         0.00000E+00
    0.18043E-06         0.17409E-04         0.00000E+00
    0.18377E-06         0.14353E-04         0.00000E+00
    0.18642E-06         0.11233E-04         0.00000E+00
    0.18838E-06         0.80616E-05         0.00000E+00
    0.18968E-06         0.48530E-05         0.00000E+00
    0.19032E-06         0.16210E-05         0.00000E+00
    0.24379E-08         0.48687E-04         0.00000E+00
    0.72436E-08         0.48547E-04         0.00000E+00
    0.11905E-07         0.48192E-04         0.00000E+00
    0.16412E-07         0.47624E-04         0.00000E+00
    0.20755E-07         0.46846E-04         0.00000E+00
    0.24927E-07         0.45862E-04         0.00000E+00
    0.28916E-07         0.44676E-04         0.00000E+00
    0.32716E-07         0.43294E-04         0.00000E+00
    0.36317E-07         0.41721E-04         0.00000E+00
    0.39713E-07         0.39964E-04         0.00000E+00
    0.42896E-07         0.38032E-04         0.00000E+00
    0.45862E-07         0.35933E-04         0.00000E+00
    0.48604E-07         0.33675E-04         0.00000E+00
    0.51118E-07         0.31270E-04         0.00000E+00
    0.53402E-07         0.28727E-04         0.00000E+00
    0.55453E-07         0.26057E-04         0.00000E+00
    0.57269E-07         0.23272E-04         0.00000E+00
    0.58851E-07         0.20385E-04         0.00000E+00
    0.60199E-07         0.17407E-04         0.00000E+00
    0.61313E-07         0.14351E-04         0.00000E+00
    0.62197E-07         0.11231E-04         0.00000E+00
    0.62854E-07         0.80605E-05         0.00000E+00
    0.63286E-07         0.48524E-05         0.00000E+00
    0.63500E-07         0.16207E-05         0.00000E+00
POINT_DATA       1225
VECTORS vDarcyNodal double 
    0.10049E-04         0.84468E-05         0.00000E+00
    0.84009E-05         0.16010E-04         0.00000E+00
    0.56938E-05         0.28771E-04         0.00000E+00
    0.30091E-05         0.36912E-04         0.00000E+00
    0.17792E-05         0.41200E-04         0.00000E+00
    0.11158E-05         0.43058E-04         0.00000E+00
    0.74167E-06         0.43579E-04         0.00000E+00
    0.51595E-06         0.43265E-04         0.00000E+00
    0.37143E-06         0.42384E-04         0.00000E+00
    0.27334E-06         0.41084E-04         0.00000E+00
    0.20309E-06         0.39457E-04         0.00000E+00
    0.15046E-06         0.37565E-04         0.00000E+00
    0.11127E-06         0.35456E-04         0.00000E+00
    0.78141E-07         0.33163E-04         0.00000E+00
    0.47290E-07         0.30705E-04         0.00000E+00
    0.27723E-07         0.28108E-04         0.00000E+00
    0.73098E-08         0.25390E-04         0.00000E+00
   -0.90500E-09         0.22543E-04         0.00000E+00
    0.57844E-08         0.19554E-04         0.00000E+00
    0.17501E-07         0.16429E-04         0.00000E+00
    0.24028E-07         0.13222E-04         0.00000E+00
    0.27037E-07         0.99728E-05         0.00000E+00
    0.30067E-07         0.66801E-05         0.00000E+00
    0.31983E-07         0.33484E-05         0.00000E+00
    0.32604E-07         0.16757E-05         0.00000E+00
    0.21201E-04         0.10095E-04         0.00000E+00
    0.18676E-04         0.18187E-04         0.00000E+00
    0.99182E-05         0.31467E-04         0.00000E+00
    0.55296E-05         0.38869E-04         0.00000E+00
    0.33062E-05         0.42146E-04         0.00000E+00
    0.21069E-05         0.43577E-04         0.00000E+00
    0.14168E-05         0.43879E-04         0.00000E+00
    0.99491E-06         0.43451E-04         0.00000E+00
    0.72173E-06         0.42505E-04         0.00000E+00
    0.53461E-06         0.41168E-04         0.00000E+00
    0.39909E-06         0.39518E-04         0.00000E+00
    0.29634E-06         0.37611E-04         0.00000E+00
    0.21790E-06         0.35492E-04         0.00000E+00
    0.15913E-06         0.33195E-04         0.00000E+00
    0.10660E-06         0.30730E-04         0.00000E+00
    0.48615E-07         0.28128E-04         0.00000E+00
    0.13074E-07         0.25404E-04         0.00000E+00
    0.25132E-08         0.22544E-04         0.00000E+00
    0.14644E-07         0.19545E-04         0.00000E+00
    0.38252E-07         0.16420E-04         0.00000E+00
    0.49378E-07         0.13217E-04         0.00000E+00
    0.56614E-07         0.99698E-05         0.00000E+00
    0.62832E-07         0.66776E-05         0.00000E+00
    0.66919E-07         0.33472E-05         0.00000E+00
    0.68173E-07         0.16751E-05         0.00000E+00
    0.72256E-04         0.13496E-04         0.00000E+00
    0.29783E-04         0.27292E-04         0.00000E+00
    0.15924E-04         0.41918E-04         0.00000E+00
    0.92489E-05         0.43524E-04         0.00000E+00
    0.57385E-05         0.44622E-04         0.00000E+00
    0.37667E-05         0.44947E-04         0.00000E+00
    0.25918E-05         0.44691E-04         0.00000E+00
    0.18533E-05         0.43961E-04         0.00000E+00
    0.13647E-05         0.42844E-04         0.00000E+00
    0.10242E-05         0.41407E-04         0.00000E+00
    0.77344E-06         0.39695E-04         0.00000E+00
    0.57787E-06         0.37747E-04         0.00000E+00
    0.41737E-06         0.35593E-04         0.00000E+00
    0.28748E-06         0.33274E-04         0.00000E+00
    0.18181E-06         0.30815E-04         0.00000E+00
    0.82679E-07         0.28202E-04         0.00000E+00
    0.31338E-07         0.25436E-04         0.00000E+00
    0.25278E-07         0.22541E-04         0.00000E+00
    0.45016E-07         0.19518E-04         0.00000E+00
    0.75694E-07         0.16395E-04         0.00000E+00
    0.10621E-06         0.13203E-04         0.00000E+00
    0.12331E-06         0.99593E-05         0.00000E+00
    0.13721E-06         0.66698E-05         0.00000E+00
    0.14567E-06         0.33431E-05         0.00000E+00
    0.14809E-06         0.16732E-05         0.00000E+00
    0.56079E-04         0.95041E-04         0.00000E+00
    0.27366E-04         0.74519E-04         0.00000E+00
    0.16272E-04         0.52001E-04         0.00000E+00
    0.10304E-04         0.49055E-04         0.00000E+00
    0.68315E-05         0.47629E-04         0.00000E+00
    0.47116E-05         0.46723E-04         0.00000E+00
    0.33663E-05         0.45792E-04         0.00000E+00
    0.24791E-05         0.44678E-04         0.00000E+00
    0.18705E-05         0.43334E-04         0.00000E+00
    0.14349E-05         0.41760E-04         0.00000E+00
    0.11076E-05         0.39965E-04         0.00000E+00
    0.84729E-06         0.37967E-04         0.00000E+00
    0.62706E-06         0.35783E-04         0.00000E+00
    0.43166E-06         0.33430E-04         0.00000E+00
    0.27198E-06         0.30935E-04         0.00000E+00
    0.17039E-06         0.28279E-04         0.00000E+00
    0.11080E-06         0.25462E-04         0.00000E+00
    0.10027E-06         0.22530E-04         0.00000E+00
    0.12566E-06         0.19494E-04         0.00000E+00
    0.15343E-06         0.16359E-04         0.00000E+00
    0.19040E-06         0.13169E-04         0.00000E+00
    0.21632E-06         0.99388E-05         0.00000E+00
    0.23602E-06         0.66553E-05         0.00000E+00
    0.24729E-06         0.33363E-05         0.00000E+00
    0.25034E-06         0.16702E-05         0.00000E+00
    0.00000E+00         0.70922E-04         0.00000E+00
    0.15696E-04         0.67100E-04         0.00000E+00
    0.12400E-04         0.58980E-04         0.00000E+00
    0.91486E-05         0.52964E-04         0.00000E+00
    0.66796E-05         0.50215E-04         0.00000E+00
    0.49316E-05         0.48413E-04         0.00000E+00
    0.37062E-05         0.46923E-04         0.00000E+00
    0.28390E-05         0.45456E-04         0.00000E+00
    0.22128E-05         0.43889E-04         0.00000E+00
    0.17484E-05         0.42170E-04         0.00000E+00
    0.13923E-05         0.40283E-04         0.00000E+00
    0.11090E-05         0.38227E-04         0.00000E+00
    0.87578E-06         0.36009E-04         0.00000E+00
    0.67788E-06         0.33629E-04         0.00000E+00
    0.51814E-06         0.31076E-04         0.00000E+00
    0.41048E-06         0.28363E-04         0.00000E+00
    0.33304E-06         0.25506E-04         0.00000E+00
    0.28767E-06         0.22526E-04         0.00000E+00
    0.28700E-06         0.19465E-04         0.00000E+00
    0.31502E-06         0.16330E-04         0.00000E+00
    0.33226E-06         0.13141E-04         0.00000E+00
    0.35246E-06         0.99137E-05         0.00000E+00
    0.36906E-06         0.66388E-05         0.00000E+00
    0.37897E-06         0.33288E-05         0.00000E+00
    0.38165E-06         0.16671E-05         0.00000E+00
    0.00000E+00         0.63648E-04         0.00000E+00
    0.54113E-05         0.62119E-04         0.00000E+00
    0.77619E-05         0.58549E-04         0.00000E+00
    0.70018E-05         0.54775E-04         0.00000E+00
    0.57668E-05         0.51846E-04         0.00000E+00
    0.46197E-05         0.49697E-04         0.00000E+00
    0.36865E-05         0.47885E-04         0.00000E+00
    0.29588E-05         0.46171E-04         0.00000E+00
    0.23971E-05         0.44425E-04         0.00000E+00
    0.19614E-05         0.42580E-04         0.00000E+00
    0.16191E-05         0.40604E-04         0.00000E+00
    0.13468E-05         0.38484E-04         0.00000E+00
    0.11294E-05         0.36214E-04         0.00000E+00
    0.96029E-06         0.33788E-04         0.00000E+00
    0.83140E-06         0.31202E-04         0.00000E+00
    0.72754E-06         0.28464E-04         0.00000E+00
    0.64721E-06         0.25584E-04         0.00000E+00
    0.58353E-06         0.22576E-04         0.00000E+00
    0.53871E-06         0.19467E-04         0.00000E+00
    0.52968E-06         0.16314E-04         0.00000E+00
    0.52579E-06         0.13132E-04         0.00000E+00
    0.52939E-06         0.99020E-05         0.00000E+00
    0.53589E-06         0.66287E-05         0.00000E+00
    0.54068E-06         0.33237E-05         0.00000E+00
    0.54209E-06         0.16649E-05         0.00000E+00
    0.10676E-18         0.60100E-04         0.00000E+00
    0.27926E-05         0.59338E-04         0.00000E+00
    0.45176E-05         0.57390E-04         0.00000E+00
    0.49771E-05         0.54959E-04         0.00000E+00
    0.46294E-05         0.52597E-04         0.00000E+00
    0.40400E-05         0.50493E-04         0.00000E+00
    0.34370E-05         0.48584E-04         0.00000E+00
    0.29014E-05         0.46746E-04         0.00000E+00
    0.24518E-05         0.44886E-04         0.00000E+00
    0.20830E-05         0.42948E-04         0.00000E+00
    0.17836E-05         0.40897E-04         0.00000E+00
    0.15427E-05         0.38717E-04         0.00000E+00
    0.13518E-05         0.36395E-04         0.00000E+00
    0.12047E-05         0.33927E-04         0.00000E+00
    0.10921E-05         0.31309E-04         0.00000E+00
    0.10048E-05         0.28547E-04         0.00000E+00
    0.93633E-06         0.25650E-04         0.00000E+00
    0.87928E-06         0.22635E-04         0.00000E+00
    0.82486E-06         0.19519E-04         0.00000E+00
    0.77389E-06         0.16343E-04         0.00000E+00
    0.74553E-06         0.13141E-04         0.00000E+00
    0.73204E-06         0.99036E-05         0.00000E+00
    0.72672E-06         0.66275E-05         0.00000E+00
    0.72521E-06         0.33226E-05         0.00000E+00
    0.72502E-06         0.16642E-05         0.00000E+00
    0.00000E+00         0.58063E-04         0.00000E+00
    0.16744E-05         0.57602E-04         0.00000E+00
    0.29077E-05         0.56364E-04         0.00000E+00
    0.35193E-05         0.54663E-04         0.00000E+00
    0.36143E-05         0.52783E-04         0.00000E+00
    0.34092E-05         0.50889E-04         0.00000E+00
    0.30851E-05         0.49023E-04         0.00000E+00
    0.27389E-05         0.47156E-04         0.00000E+00
    0.24152E-05         0.45244E-04         0.00000E+00
    0.21308E-05         0.43248E-04         0.00000E+00
    0.18897E-05         0.41144E-04         0.00000E+00
    0.16908E-05         0.38916E-04         0.00000E+00
    0.15312E-05         0.36552E-04         0.00000E+00
    0.14062E-05         0.34047E-04         0.00000E+00
    0.13096E-05         0.31402E-04         0.00000E+00
    0.12342E-05         0.28620E-04         0.00000E+00
    0.11733E-05         0.25710E-04         0.00000E+00
    0.11199E-05         0.22688E-04         0.00000E+00
    0.10700E-05         0.19572E-04         0.00000E+00
    0.10151E-05         0.16393E-04         0.00000E+00
    0.97067E-06         0.13174E-04         0.00000E+00
    0.94344E-06         0.99208E-05         0.00000E+00
    0.92835E-06         0.66356E-05         0.00000E+00
    0.92144E-06         0.33254E-05         0.00000E+00
    0.91984E-06         0.16652E-05         0.00000E+00
   -0.20162E-18         0.56751E-04         0.00000E+00
    0.11149E-05         0.56430E-04         0.00000E+00
    0.20147E-05         0.55545E-04         0.00000E+00
    0.25859E-05         0.54253E-04         0.00000E+00
    0.28356E-05         0.52707E-04         0.00000E+00
    0.28482E-05         0.51022E-04         0.00000E+00
    0.27218E-05         0.49254E-04         0.00000E+00
    0.25319E-05         0.47416E-04         0.00000E+00
    0.23249E-05         0.45494E-04         0.00000E+00
    0.21259E-05         0.43473E-04         0.00000E+00
    0.19473E-05         0.41337E-04         0.00000E+00
    0.17944E-05         0.39075E-04         0.00000E+00
    0.16682E-05         0.36680E-04         0.00000E+00
    0.15669E-05         0.34148E-04         0.00000E+00
    0.14867E-05         0.31481E-04         0.00000E+00
    0.14225E-05         0.28683E-04         0.00000E+00
    0.13685E-05         0.25764E-04         0.00000E+00
    0.13199E-05         0.22738E-04         0.00000E+00
    0.12717E-05         0.19624E-04         0.00000E+00
    0.12228E-05         0.16442E-04         0.00000E+00
    0.11795E-05         0.13212E-04         0.00000E+00
    0.11478E-05         0.99459E-05         0.00000E+00
    0.11281E-05         0.66495E-05         0.00000E+00
    0.11180E-05         0.33311E-05         0.00000E+00
    0.11155E-05         0.16674E-05         0.00000E+00
    0.16852E-33         0.55833E-04         0.00000E+00
    0.80096E-06         0.55587E-04         0.00000E+00
    0.14848E-05         0.54893E-04         0.00000E+00
    0.19808E-05         0.53842E-04         0.00000E+00
    0.22744E-05         0.52520E-04         0.00000E+00
    0.23959E-05         0.51003E-04         0.00000E+00
    0.23953E-05         0.49340E-04         0.00000E+00
    0.23211E-05         0.47553E-04         0.00000E+00
    0.22105E-05         0.45650E-04         0.00000E+00
    0.20881E-05         0.43626E-04         0.00000E+00
    0.19688E-05         0.41476E-04         0.00000E+00
    0.18611E-05         0.39195E-04         0.00000E+00
    0.17685E-05         0.36779E-04         0.00000E+00
    0.16916E-05         0.34229E-04         0.00000E+00
    0.16286E-05         0.31546E-04         0.00000E+00
    0.15762E-05         0.28738E-04         0.00000E+00
    0.15306E-05         0.25813E-04         0.00000E+00
    0.14881E-05         0.22784E-04         0.00000E+00
    0.14459E-05         0.19669E-04         0.00000E+00
    0.14042E-05         0.16485E-04         0.00000E+00
    0.13666E-05         0.13249E-04         0.00000E+00
    0.13368E-05         0.99722E-05         0.00000E+00
    0.13168E-05         0.66654E-05         0.00000E+00
    0.13059E-05         0.33380E-05         0.00000E+00
    0.13030E-05         0.16703E-05         0.00000E+00
    0.97965E-19         0.55149E-04         0.00000E+00
    0.61086E-06         0.54945E-04         0.00000E+00
    0.11523E-05         0.54365E-04         0.00000E+00
    0.15791E-05         0.53463E-04         0.00000E+00
    0.18746E-05         0.52292E-04         0.00000E+00
    0.20475E-05         0.50901E-04         0.00000E+00
    0.21224E-05         0.49329E-04         0.00000E+00
    0.21285E-05         0.47600E-04         0.00000E+00
    0.20919E-05         0.45727E-04         0.00000E+00
    0.20330E-05         0.43715E-04         0.00000E+00
    0.19659E-05         0.41564E-04         0.00000E+00
    0.18995E-05         0.39276E-04         0.00000E+00
    0.18389E-05         0.36850E-04         0.00000E+00
    0.17860E-05         0.34288E-04         0.00000E+00
    0.17407E-05         0.31597E-04         0.00000E+00
    0.17013E-05         0.28781E-04         0.00000E+00
    0.16655E-05         0.25853E-04         0.00000E+00
    0.16310E-05         0.22823E-04         0.00000E+00
    0.15967E-05         0.19707E-04         0.00000E+00
    0.15631E-05         0.16521E-04         0.00000E+00
    0.15324E-05         0.13280E-04         0.00000E+00
    0.15072E-05         0.99957E-05         0.00000E+00
    0.14894E-05         0.66805E-05         0.00000E+00
    0.14793E-05         0.33448E-05         0.00000E+00
    0.14765E-05         0.16733E-05         0.00000E+00
    0.00000E+00         0.54612E-04         0.00000E+00
    0.48915E-06         0.54435E-04         0.00000E+00
    0.93417E-06         0.53925E-04         0.00000E+00
    0.13055E-05         0.53120E-04         0.00000E+00
    0.15884E-05         0.52052E-04         0.00000E+00
    0.17837E-05         0.50755E-04         0.00000E+00
    0.19027E-05         0.49259E-04         0.00000E+00
    0.19625E-05         0.47584E-04         0.00000E+00
    0.19804E-05         0.45745E-04         0.00000E+00
    0.19716E-05         0.43752E-04         0.00000E+00
    0.19480E-05         0.41609E-04         0.00000E+00
    0.19177E-05         0.39322E-04         0.00000E+00
    0.18862E-05         0.36893E-04         0.00000E+00
    0.18561E-05         0.34327E-04         0.00000E+00
    0.18283E-05         0.31631E-04         0.00000E+00
    0.18024E-05         0.28813E-04         0.00000E+00
    0.17774E-05         0.25883E-04         0.00000E+00
    0.17523E-05         0.22853E-04         0.00000E+00
    0.17268E-05         0.19737E-04         0.00000E+00
    0.17014E-05         0.16550E-04         0.00000E+00
    0.16779E-05         0.13305E-04         0.00000E+00
    0.16581E-05         0.10015E-04         0.00000E+00
    0.16437E-05         0.66933E-05         0.00000E+00
    0.16352E-05         0.33509E-05         0.00000E+00
    0.16327E-05         0.16760E-05         0.00000E+00
    0.00000E+00         0.54171E-04         0.00000E+00
    0.40786E-06         0.54011E-04         0.00000E+00
    0.78603E-06         0.53549E-04         0.00000E+00
    0.11144E-05         0.52809E-04         0.00000E+00
    0.13815E-05         0.51814E-04         0.00000E+00
    0.15846E-05         0.50587E-04         0.00000E+00
    0.17290E-05         0.49150E-04         0.00000E+00
    0.18240E-05         0.47523E-04         0.00000E+00
    0.18808E-05         0.45718E-04         0.00000E+00
    0.19104E-05         0.43747E-04         0.00000E+00
    0.19218E-05         0.41618E-04         0.00000E+00
    0.19220E-05         0.39337E-04         0.00000E+00
    0.19160E-05         0.36911E-04         0.00000E+00
    0.19068E-05         0.34346E-04         0.00000E+00
    0.18957E-05         0.31650E-04         0.00000E+00
    0.18834E-05         0.28832E-04         0.00000E+00
    0.18697E-05         0.25903E-04         0.00000E+00
    0.18544E-05         0.22874E-04         0.00000E+00
    0.18378E-05         0.19758E-04         0.00000E+00
    0.18206E-05         0.16570E-04         0.00000E+00
    0.18041E-05         0.13323E-04         0.00000E+00
    0.17898E-05         0.10030E-04         0.00000E+00
    0.17791E-05         0.67033E-05         0.00000E+00
    0.17726E-05         0.33558E-05         0.00000E+00
    0.17706E-05         0.16783E-05         0.00000E+00
    0.00000E+00         0.53796E-04         0.00000E+00
    0.35170E-06         0.53649E-04         0.00000E+00
    0.68242E-06         0.53218E-04         0.00000E+00
    0.97809E-06         0.52524E-04         0.00000E+00
    0.12297E-05         0.51582E-04         0.00000E+00
    0.14339E-05         0.50408E-04         0.00000E+00
    0.15923E-05         0.49019E-04         0.00000E+00
    0.17102E-05         0.47432E-04         0.00000E+00
    0.17946E-05         0.45659E-04         0.00000E+00
    0.18529E-05         0.43711E-04         0.00000E+00
    0.18918E-05         0.41598E-04         0.00000E+00
    0.19171E-05         0.39327E-04         0.00000E+00
    0.19330E-05         0.36908E-04         0.00000E+00
    0.19423E-05         0.34347E-04         0.00000E+00
    0.19468E-05         0.31654E-04         0.00000E+00
    0.19475E-05         0.28839E-04         0.00000E+00
    0.19449E-05         0.25912E-04         0.00000E+00
    0.19393E-05         0.22885E-04         0.00000E+00
    0.19314E-05         0.19771E-04         0.00000E+00
    0.19220E-05         0.16584E-04         0.00000E+00
    0.19122E-05         0.13335E-04         0.00000E+00
    0.19031E-05         0.10040E-04         0.00000E+00
    0.18960E-05         0.67105E-05         0.00000E+00
    0.18916E-05         0.33594E-05         0.00000E+00
    0.18901E-05         0.16801E-05         0.00000E+00
    0.00000E+00         0.53468E-04         0.00000E+00
    0.31179E-06         0.53329E-04         0.00000E+00
    0.60808E-06         0.52922E-04         0.00000E+00
    0.87874E-06         0.52262E-04         0.00000E+00
    0.11167E-05         0.51358E-04         0.00000E+00
    0.13187E-05         0.50224E-04         0.00000E+00
    0.14847E-05         0.48874E-04         0.00000E+00
    0.16173E-05         0.47320E-04         0.00000E+00
    0.17209E-05         0.45575E-04         0.00000E+00
    0.18004E-05         0.43650E-04         0.00000E+00
    0.18608E-05         0.41554E-04         0.00000E+00
    0.19063E-05         0.39296E-04         0.00000E+00
    0.19404E-05         0.36886E-04         0.00000E+00
    0.19658E-05         0.34332E-04         0.00000E+00
    0.19843E-05         0.31645E-04         0.00000E+00
    0.19971E-05         0.28834E-04         0.00000E+00
    0.20050E-05         0.25911E-04         0.00000E+00
    0.20087E-05         0.22887E-04         0.00000E+00
    0.20091E-05         0.19776E-04         0.00000E+00
    0.20069E-05         0.16590E-04         0.00000E+00
    0.20032E-05         0.13342E-04         0.00000E+00
    0.19990E-05         0.10046E-04         0.00000E+00
    0.19953E-05         0.67149E-05         0.00000E+00
    0.19928E-05         0.33617E-05         0.00000E+00
    0.19919E-05         0.16813E-05         0.00000E+00
    0.00000E+00         0.53172E-04         0.00000E+00
    0.28272E-06         0.53040E-04         0.00000E+00
    0.55352E-06         0.52651E-04         0.00000E+00
    0.80487E-06         0.52016E-04         0.00000E+00
    0.10313E-05         0.51142E-04         0.00000E+00
    0.12297E-05         0.50040E-04         0.00000E+00
    0.13993E-05         0.48721E-04         0.00000E+00
    0.15412E-05         0.47196E-04         0.00000E+00
    0.16581E-05         0.45475E-04         0.00000E+00
    0.17532E-05         0.43571E-04         0.00000E+00
    0.18299E-05         0.41492E-04         0.00000E+00
    0.18915E-05         0.39248E-04         0.00000E+00
    0.19407E-05         0.36848E-04         0.00000E+00
    0.19798E-05         0.34304E-04         0.00000E+00
    0.20105E-05         0.31623E-04         0.00000E+00
    0.20342E-05         0.28818E-04         0.00000E+00
    0.20517E-05         0.25900E-04         0.00000E+00
    0.20641E-05         0.22881E-04         0.00000E+00
    0.20720E-05         0.19773E-04         0.00000E+00
    0.20764E-05         0.16589E-04         0.00000E+00
    0.20783E-05         0.13343E-04         0.00000E+00
    0.20786E-05         0.10048E-04         0.00000E+00
    0.20780E-05         0.67167E-05         0.00000E+00
    0.20773E-05         0.33628E-05         0.00000E+00
    0.20770E-05         0.16819E-05         0.00000E+00
    0.00000E+00         0.52902E-04         0.00000E+00
    0.26105E-06         0.52775E-04         0.00000E+00
    0.51255E-06         0.52400E-04         0.00000E+00
    0.74880E-06         0.51784E-04         0.00000E+00
    0.96545E-06         0.50933E-04         0.00000E+00
    0.11597E-05         0.49856E-04         0.00000E+00
    0.13306E-05         0.48562E-04         0.00000E+00
    0.14783E-05         0.47062E-04         0.00000E+00
    0.16043E-05         0.45364E-04         0.00000E+00
    0.17107E-05         0.43478E-04         0.00000E+00
    0.17997E-05         0.41416E-04         0.00000E+00
    0.18739E-05         0.39186E-04         0.00000E+00
    0.19354E-05         0.36798E-04         0.00000E+00
    0.19860E-05         0.34263E-04         0.00000E+00
    0.20273E-05         0.31591E-04         0.00000E+00
    0.20605E-05         0.28793E-04         0.00000E+00
    0.20866E-05         0.25881E-04         0.00000E+00
    0.21067E-05         0.22867E-04         0.00000E+00
    0.21214E-05         0.19763E-04         0.00000E+00
    0.21318E-05         0.16583E-04         0.00000E+00
    0.21387E-05         0.13340E-04         0.00000E+00
    0.21429E-05         0.10046E-04         0.00000E+00
    0.21452E-05         0.67162E-05         0.00000E+00
    0.21461E-05         0.33628E-05         0.00000E+00
    0.21463E-05         0.16820E-05         0.00000E+00
    0.00000E+00         0.52650E-04         0.00000E+00
    0.24451E-06         0.52528E-04         0.00000E+00
    0.48109E-06         0.52164E-04         0.00000E+00
    0.70531E-06         0.51563E-04         0.00000E+00
    0.91367E-06         0.50731E-04         0.00000E+00
    0.11038E-05         0.49675E-04         0.00000E+00
    0.12745E-05         0.48402E-04         0.00000E+00
    0.14255E-05         0.46922E-04         0.00000E+00
    0.15576E-05         0.45243E-04         0.00000E+00
    0.16720E-05         0.43376E-04         0.00000E+00
    0.17703E-05         0.41329E-04         0.00000E+00
    0.18543E-05         0.39112E-04         0.00000E+00
    0.19255E-05         0.36736E-04         0.00000E+00
    0.19856E-05         0.34212E-04         0.00000E+00
    0.20358E-05         0.31549E-04         0.00000E+00
    0.20772E-05         0.28759E-04         0.00000E+00
    0.21108E-05         0.25854E-04         0.00000E+00
    0.21377E-05         0.22846E-04         0.00000E+00
    0.21585E-05         0.19748E-04         0.00000E+00
    0.21742E-05         0.16572E-04         0.00000E+00
    0.21854E-05         0.13332E-04         0.00000E+00
    0.21931E-05         0.10042E-04         0.00000E+00
    0.21979E-05         0.67135E-05         0.00000E+00
    0.22004E-05         0.33617E-05         0.00000E+00
    0.22010E-05         0.16816E-05         0.00000E+00
    0.00000E+00         0.52413E-04         0.00000E+00
    0.23157E-06         0.52294E-04         0.00000E+00
    0.45631E-06         0.51939E-04         0.00000E+00
    0.67074E-06         0.51351E-04         0.00000E+00
    0.87199E-06         0.50535E-04         0.00000E+00
    0.10580E-05         0.49495E-04         0.00000E+00
    0.12276E-05         0.48241E-04         0.00000E+00
    0.13802E-05         0.46778E-04         0.00000E+00
    0.15162E-05         0.45117E-04         0.00000E+00
    0.16362E-05         0.43266E-04         0.00000E+00
    0.17414E-05         0.41233E-04         0.00000E+00
    0.18328E-05         0.39030E-04         0.00000E+00
    0.19117E-05         0.36666E-04         0.00000E+00
    0.19794E-05         0.34152E-04         0.00000E+00
    0.20369E-05         0.31499E-04         0.00000E+00
    0.20853E-05         0.28718E-04         0.00000E+00
    0.21254E-05         0.25820E-04         0.00000E+00
    0.21581E-05         0.22819E-04         0.00000E+00
    0.21841E-05         0.19727E-04         0.00000E+00
    0.22044E-05         0.16556E-04         0.00000E+00
    0.22195E-05         0.13321E-04         0.00000E+00
    0.22303E-05         0.10034E-04         0.00000E+00
    0.22372E-05         0.67089E-05         0.00000E+00
    0.22410E-05         0.33597E-05         0.00000E+00
    0.22421E-05         0.16807E-05         0.00000E+00
    0.00000E+00         0.52187E-04         0.00000E+00
    0.22116E-06         0.52072E-04         0.00000E+00
    0.43626E-06         0.51724E-04         0.00000E+00
    0.64250E-06         0.51147E-04         0.00000E+00
    0.83752E-06         0.50344E-04         0.00000E+00
    0.10195E-05         0.49319E-04         0.00000E+00
    0.11874E-05         0.48080E-04         0.00000E+00
    0.13404E-05         0.46633E-04         0.00000E+00
    0.14787E-05         0.44987E-04         0.00000E+00
    0.16025E-05         0.43150E-04         0.00000E+00
    0.17125E-05         0.41132E-04         0.00000E+00
    0.18094E-05         0.38942E-04         0.00000E+00
    0.18943E-05         0.36590E-04         0.00000E+00
    0.19680E-05         0.34086E-04         0.00000E+00
    0.20315E-05         0.31443E-04         0.00000E+00
    0.20856E-05         0.28670E-04         0.00000E+00
    0.21310E-05         0.25781E-04         0.00000E+00
    0.21687E-05         0.22787E-04         0.00000E+00
    0.21992E-05         0.19701E-04         0.00000E+00
    0.22234E-05         0.16537E-04         0.00000E+00
    0.22418E-05         0.13306E-04         0.00000E+00
    0.22552E-05         0.10024E-04         0.00000E+00
    0.22641E-05         0.67027E-05         0.00000E+00
    0.22691E-05         0.33568E-05         0.00000E+00
    0.22706E-05         0.16794E-05         0.00000E+00
    0.00000E+00         0.51971E-04         0.00000E+00
    0.21253E-06         0.51858E-04         0.00000E+00
    0.41954E-06         0.51518E-04         0.00000E+00
    0.61873E-06         0.50950E-04         0.00000E+00
    0.80814E-06         0.50158E-04         0.00000E+00
    0.98623E-06         0.49146E-04         0.00000E+00
    0.11519E-05         0.47920E-04         0.00000E+00
    0.13045E-05         0.46487E-04         0.00000E+00
    0.14438E-05         0.44855E-04         0.00000E+00
    0.15699E-05         0.43032E-04         0.00000E+00
    0.16831E-05         0.41026E-04         0.00000E+00
    0.17841E-05         0.38848E-04         0.00000E+00
    0.18734E-05         0.36508E-04         0.00000E+00
    0.19518E-05         0.34015E-04         0.00000E+00
    0.20200E-05         0.31381E-04         0.00000E+00
    0.20786E-05         0.28618E-04         0.00000E+00
    0.21285E-05         0.25737E-04         0.00000E+00
    0.21703E-05         0.22751E-04         0.00000E+00
    0.22046E-05         0.19672E-04         0.00000E+00
    0.22320E-05         0.16514E-04         0.00000E+00
    0.22533E-05         0.13289E-04         0.00000E+00
    0.22689E-05         0.10012E-04         0.00000E+00
    0.22794E-05         0.66951E-05         0.00000E+00
    0.22854E-05         0.33532E-05         0.00000E+00
    0.22872E-05         0.16777E-05         0.00000E+00
    0.00000E+00         0.51762E-04         0.00000E+00
    0.20513E-06         0.51652E-04         0.00000E+00
    0.40512E-06         0.51318E-04         0.00000E+00
    0.59806E-06         0.50759E-04         0.00000E+00
    0.78231E-06         0.49976E-04         0.00000E+00
    0.95651E-06         0.48975E-04         0.00000E+00
    0.11197E-05         0.47762E-04         0.00000E+00
    0.12711E-05         0.46341E-04         0.00000E+00
    0.14104E-05         0.44722E-04         0.00000E+00
    0.15377E-05         0.42911E-04         0.00000E+00
    0.16530E-05         0.40918E-04         0.00000E+00
    0.17566E-05         0.38752E-04         0.00000E+00
    0.18491E-05         0.36422E-04         0.00000E+00
    0.19310E-05         0.33940E-04         0.00000E+00
    0.20027E-05         0.31316E-04         0.00000E+00
    0.20650E-05         0.28562E-04         0.00000E+00
    0.21184E-05         0.25690E-04         0.00000E+00
    0.21634E-05         0.22711E-04         0.00000E+00
    0.22008E-05         0.19640E-04         0.00000E+00
    0.22310E-05         0.16488E-04         0.00000E+00
    0.22545E-05         0.13270E-04         0.00000E+00
    0.22720E-05         0.99977E-05         0.00000E+00
    0.22839E-05         0.66862E-05         0.00000E+00
    0.22907E-05         0.33490E-05         0.00000E+00
    0.22928E-05         0.16757E-05         0.00000E+00
    0.00000E+00         0.51560E-04         0.00000E+00
    0.19857E-06         0.51453E-04         0.00000E+00
    0.39226E-06         0.51125E-04         0.00000E+00
    0.57949E-06         0.50573E-04         0.00000E+00
    0.75884E-06         0.49799E-04         0.00000E+00
    0.92914E-06         0.48808E-04         0.00000E+00
    0.10895E-05         0.47605E-04         0.00000E+00
    0.12391E-05         0.46196E-04         0.00000E+00
    0.13778E-05         0.44588E-04         0.00000E+00
    0.15052E-05         0.42789E-04         0.00000E+00
    0.16215E-05         0.40807E-04         0.00000E+00
    0.17268E-05         0.38652E-04         0.00000E+00
    0.18214E-05         0.36334E-04         0.00000E+00
    0.19057E-05         0.33862E-04         0.00000E+00
    0.19800E-05         0.31247E-04         0.00000E+00
    0.20450E-05         0.28503E-04         0.00000E+00
    0.21011E-05         0.25639E-04         0.00000E+00
    0.21487E-05         0.22669E-04         0.00000E+00
    0.21885E-05         0.19605E-04         0.00000E+00
    0.22208E-05         0.16460E-04         0.00000E+00
    0.22463E-05         0.13248E-04         0.00000E+00
    0.22653E-05         0.99822E-05         0.00000E+00
    0.22783E-05         0.66764E-05         0.00000E+00
    0.22858E-05         0.33443E-05         0.00000E+00
    0.22881E-05         0.16734E-05         0.00000E+00
    0.00000E+00         0.51365E-04         0.00000E+00
    0.19255E-06         0.51260E-04         0.00000E+00
    0.38041E-06         0.50937E-04         0.00000E+00
    0.56225E-06         0.50392E-04         0.00000E+00
    0.73685E-06         0.49626E-04         0.00000E+00
    0.90318E-06         0.48645E-04         0.00000E+00
    0.10604E-05         0.47452E-04         0.00000E+00
    0.12079E-05         0.46053E-04         0.00000E+00
    0.13451E-05         0.44456E-04         0.00000E+00
    0.14720E-05         0.42667E-04         0.00000E+00
    0.15884E-05         0.40696E-04         0.00000E+00
    0.16944E-05         0.38552E-04         0.00000E+00
    0.17902E-05         0.36243E-04         0.00000E+00
    0.18760E-05         0.33781E-04         0.00000E+00
    0.19521E-05         0.31177E-04         0.00000E+00
    0.20190E-05         0.28441E-04         0.00000E+00
    0.20770E-05         0.25586E-04         0.00000E+00
    0.21266E-05         0.22624E-04         0.00000E+00
    0.21682E-05         0.19568E-04         0.00000E+00
    0.22022E-05         0.16430E-04         0.00000E+00
    0.22291E-05         0.13225E-04         0.00000E+00
    0.22493E-05         0.99656E-05         0.00000E+00
    0.22632E-05         0.66657E-05         0.00000E+00
    0.22713E-05         0.33392E-05         0.00000E+00
    0.22738E-05         0.16710E-05         0.00000E+00
    0.00000E+00         0.51175E-04         0.00000E+00
    0.18685E-06         0.51072E-04         0.00000E+00
    0.36915E-06         0.50755E-04         0.00000E+00
    0.54577E-06         0.50216E-04         0.00000E+00
    0.71566E-06         0.49458E-04         0.00000E+00
    0.87791E-06         0.48485E-04         0.00000E+00
    0.10317E-05         0.47301E-04         0.00000E+00
    0.11766E-05         0.45912E-04         0.00000E+00
    0.13119E-05         0.44324E-04         0.00000E+00
    0.14376E-05         0.42546E-04         0.00000E+00
    0.15534E-05         0.40585E-04         0.00000E+00
    0.16593E-05         0.38451E-04         0.00000E+00
    0.17554E-05         0.36152E-04         0.00000E+00
    0.18420E-05         0.33700E-04         0.00000E+00
    0.19191E-05         0.31104E-04         0.00000E+00
    0.19872E-05         0.28378E-04         0.00000E+00
    0.20465E-05         0.25531E-04         0.00000E+00
    0.20974E-05         0.22577E-04         0.00000E+00
    0.21403E-05         0.19529E-04         0.00000E+00
    0.21756E-05         0.16399E-04         0.00000E+00
    0.22035E-05         0.13201E-04         0.00000E+00
    0.22246E-05         0.99481E-05         0.00000E+00
    0.22392E-05         0.66544E-05         0.00000E+00
    0.22477E-05         0.33337E-05         0.00000E+00
    0.22504E-05         0.16683E-05         0.00000E+00
    0.00000E+00         0.50991E-04         0.00000E+00
    0.18129E-06         0.50891E-04         0.00000E+00
    0.35816E-06         0.50578E-04         0.00000E+00
    0.52962E-06         0.50046E-04         0.00000E+00
    0.69476E-06         0.49294E-04         0.00000E+00
    0.85277E-06         0.48329E-04         0.00000E+00
    0.10030E-05         0.47153E-04         0.00000E+00
    0.11448E-05         0.45773E-04         0.00000E+00
    0.12777E-05         0.44195E-04         0.00000E+00
    0.14016E-05         0.42426E-04         0.00000E+00
    0.15161E-05         0.40475E-04         0.00000E+00
    0.16213E-05         0.38350E-04         0.00000E+00
    0.17171E-05         0.36061E-04         0.00000E+00
    0.18037E-05         0.33618E-04         0.00000E+00
    0.18812E-05         0.31031E-04         0.00000E+00
    0.19498E-05         0.28313E-04         0.00000E+00
    0.20099E-05         0.25476E-04         0.00000E+00
    0.20616E-05         0.22530E-04         0.00000E+00
    0.21053E-05         0.19490E-04         0.00000E+00
    0.21414E-05         0.16367E-04         0.00000E+00
    0.21701E-05         0.13176E-04         0.00000E+00
    0.21918E-05         0.99299E-05         0.00000E+00
    0.22069E-05         0.66426E-05         0.00000E+00
    0.22157E-05         0.33280E-05         0.00000E+00
    0.22185E-05         0.16656E-05         0.00000E+00
    0.00000E+00         0.50813E-04         0.00000E+00
    0.17577E-06         0.50714E-04         0.00000E+00
    0.34721E-06         0.50407E-04         0.00000E+00
    0.51347E-06         0.49880E-04         0.00000E+00
    0.67376E-06         0.49135E-04         0.00000E+00
    0.82735E-06         0.48177E-04         0.00000E+00
    0.97362E-06         0.47009E-04         0.00000E+00
    0.11120E-05         0.45637E-04         0.00000E+00
    0.12422E-05         0.44067E-04         0.00000E+00
    0.13637E-05         0.42308E-04         0.00000E+00
    0.14765E-05         0.40365E-04         0.00000E+00
    0.15803E-05         0.38250E-04         0.00000E+00
    0.16752E-05         0.35970E-04         0.00000E+00
    0.17612E-05         0.33536E-04         0.00000E+00
    0.18385E-05         0.30958E-04         0.00000E+00
    0.19071E-05         0.28249E-04         0.00000E+00
    0.19673E-05         0.25419E-04         0.00000E+00
    0.20194E-05         0.22482E-04         0.00000E+00
    0.20635E-05         0.19449E-04         0.00000E+00
    0.21000E-05         0.16334E-04         0.00000E+00
    0.21291E-05         0.13151E-04         0.00000E+00
    0.21513E-05         0.99113E-05         0.00000E+00
    0.21667E-05         0.66305E-05         0.00000E+00
    0.21757E-05         0.33221E-05         0.00000E+00
    0.21786E-05         0.16627E-05         0.00000E+00
    0.00000E+00         0.50640E-04         0.00000E+00
    0.17017E-06         0.50543E-04         0.00000E+00
    0.33611E-06         0.50241E-04         0.00000E+00
    0.49707E-06         0.49719E-04         0.00000E+00
    0.65236E-06         0.48980E-04         0.00000E+00
    0.80132E-06         0.48029E-04         0.00000E+00
    0.94339E-06         0.46868E-04         0.00000E+00
    0.10781E-05         0.45504E-04         0.00000E+00
    0.12050E-05         0.43943E-04         0.00000E+00
    0.13237E-05         0.42192E-04         0.00000E+00
    0.14342E-05         0.40258E-04         0.00000E+00
    0.15362E-05         0.38151E-04         0.00000E+00
    0.16297E-05         0.35880E-04         0.00000E+00
    0.17146E-05         0.33454E-04         0.00000E+00
    0.17911E-05         0.30886E-04         0.00000E+00
    0.18592E-05         0.28185E-04         0.00000E+00
    0.19191E-05         0.25363E-04         0.00000E+00
    0.19711E-05         0.22434E-04         0.00000E+00
    0.20152E-05         0.19409E-04         0.00000E+00
    0.20518E-05         0.16301E-04         0.00000E+00
    0.20811E-05         0.13125E-04         0.00000E+00
    0.21034E-05         0.98924E-05         0.00000E+00
    0.21190E-05         0.66182E-05         0.00000E+00
    0.21281E-05         0.33161E-05         0.00000E+00
    0.21310E-05         0.16598E-05         0.00000E+00
    0.00000E+00         0.50472E-04         0.00000E+00
    0.16443E-06         0.50378E-04         0.00000E+00
    0.32472E-06         0.50080E-04         0.00000E+00
    0.48023E-06         0.49563E-04         0.00000E+00
    0.63033E-06         0.48831E-04         0.00000E+00
    0.77443E-06         0.47886E-04         0.00000E+00
    0.91202E-06         0.46732E-04         0.00000E+00
    0.10426E-05         0.45375E-04         0.00000E+00
    0.11659E-05         0.43822E-04         0.00000E+00
    0.12815E-05         0.42078E-04         0.00000E+00
    0.13893E-05         0.40153E-04         0.00000E+00
    0.14889E-05         0.38054E-04         0.00000E+00
    0.15805E-05         0.35791E-04         0.00000E+00
    0.16639E-05         0.33374E-04         0.00000E+00
    0.17391E-05         0.30814E-04         0.00000E+00
    0.18063E-05         0.28121E-04         0.00000E+00
    0.18655E-05         0.25308E-04         0.00000E+00
    0.19170E-05         0.22386E-04         0.00000E+00
    0.19608E-05         0.19369E-04         0.00000E+00
    0.19972E-05         0.16268E-04         0.00000E+00
    0.20264E-05         0.13099E-04         0.00000E+00
    0.20486E-05         0.98734E-05         0.00000E+00
    0.20642E-05         0.66059E-05         0.00000E+00
    0.20733E-05         0.33101E-05         0.00000E+00
    0.20763E-05         0.16568E-05         0.00000E+00
    0.00000E+00         0.50311E-04         0.00000E+00
    0.15850E-06         0.50219E-04         0.00000E+00
    0.31296E-06         0.49925E-04         0.00000E+00
    0.46281E-06         0.49413E-04         0.00000E+00
    0.60750E-06         0.48686E-04         0.00000E+00
    0.74650E-06         0.47747E-04         0.00000E+00
    0.87933E-06         0.46600E-04         0.00000E+00
    0.10056E-05         0.45250E-04         0.00000E+00
    0.11249E-05         0.43704E-04         0.00000E+00
    0.12370E-05         0.41968E-04         0.00000E+00
    0.13416E-05         0.40051E-04         0.00000E+00
    0.14385E-05         0.37960E-04         0.00000E+00
    0.15277E-05         0.35705E-04         0.00000E+00
    0.16091E-05         0.33296E-04         0.00000E+00
    0.16827E-05         0.30743E-04         0.00000E+00
    0.17485E-05         0.28058E-04         0.00000E+00
    0.18067E-05         0.25253E-04         0.00000E+00
    0.18573E-05         0.22339E-04         0.00000E+00
    0.19004E-05         0.19329E-04         0.00000E+00
    0.19364E-05         0.16236E-04         0.00000E+00
    0.19652E-05         0.13073E-04         0.00000E+00
    0.19873E-05         0.98546E-05         0.00000E+00
    0.20027E-05         0.65935E-05         0.00000E+00
    0.20118E-05         0.33040E-05         0.00000E+00
    0.20147E-05         0.16539E-05         0.00000E+00
    0.00000E+00         0.50155E-04         0.00000E+00
    0.15234E-06         0.50065E-04         0.00000E+00
    0.30075E-06         0.49776E-04         0.00000E+00
    0.44472E-06         0.49269E-04         0.00000E+00
    0.58376E-06         0.48547E-04         0.00000E+00
    0.71739E-06         0.47614E-04         0.00000E+00
    0.84520E-06         0.46473E-04         0.00000E+00
    0.96678E-06         0.45130E-04         0.00000E+00
    0.10818E-05         0.43590E-04         0.00000E+00
    0.11900E-05         0.41862E-04         0.00000E+00
    0.12911E-05         0.39951E-04         0.00000E+00
    0.13849E-05         0.37868E-04         0.00000E+00
    0.14714E-05         0.35621E-04         0.00000E+00
    0.15504E-05         0.33219E-04         0.00000E+00
    0.16220E-05         0.30674E-04         0.00000E+00
    0.16861E-05         0.27997E-04         0.00000E+00
    0.17428E-05         0.25199E-04         0.00000E+00
    0.17922E-05         0.22292E-04         0.00000E+00
    0.18345E-05         0.19289E-04         0.00000E+00
    0.18697E-05         0.16204E-04         0.00000E+00
    0.18980E-05         0.13048E-04         0.00000E+00
    0.19197E-05         0.98359E-05         0.00000E+00
    0.19349E-05         0.65814E-05         0.00000E+00
    0.19439E-05         0.32981E-05         0.00000E+00
    0.19468E-05         0.16510E-05         0.00000E+00
    0.00000E+00         0.50006E-04         0.00000E+00
    0.14592E-06         0.49918E-04         0.00000E+00
    0.28803E-06         0.49633E-04         0.00000E+00
    0.42587E-06         0.49130E-04         0.00000E+00
    0.55902E-06         0.48414E-04         0.00000E+00
    0.68703E-06         0.47486E-04         0.00000E+00
    0.80952E-06         0.46351E-04         0.00000E+00
    0.92614E-06         0.45014E-04         0.00000E+00
    0.10366E-05         0.43481E-04         0.00000E+00
    0.11405E-05         0.41759E-04         0.00000E+00
    0.12378E-05         0.39856E-04         0.00000E+00
    0.13281E-05         0.37779E-04         0.00000E+00
    0.14115E-05         0.35539E-04         0.00000E+00
    0.14879E-05         0.33145E-04         0.00000E+00
    0.15571E-05         0.30607E-04         0.00000E+00
    0.16191E-05         0.27937E-04         0.00000E+00
    0.16741E-05         0.25147E-04         0.00000E+00
    0.17221E-05         0.22247E-04         0.00000E+00
    0.17632E-05         0.19251E-04         0.00000E+00
    0.17975E-05         0.16172E-04         0.00000E+00
    0.18251E-05         0.13023E-04         0.00000E+00
    0.18463E-05         0.98177E-05         0.00000E+00
    0.18611E-05         0.65694E-05         0.00000E+00
    0.18699E-05         0.32922E-05         0.00000E+00
    0.18727E-05         0.16481E-05         0.00000E+00
    0.00000E+00         0.49864E-04         0.00000E+00
    0.13922E-06         0.49777E-04         0.00000E+00
    0.27477E-06         0.49496E-04         0.00000E+00
    0.40623E-06         0.48998E-04         0.00000E+00
    0.53322E-06         0.48286E-04         0.00000E+00
    0.65535E-06         0.47363E-04         0.00000E+00
    0.77226E-06         0.46234E-04         0.00000E+00
    0.88362E-06         0.44903E-04         0.00000E+00
    0.98914E-06         0.43376E-04         0.00000E+00
    0.10886E-05         0.41660E-04         0.00000E+00
    0.11817E-05         0.39764E-04         0.00000E+00
    0.12683E-05         0.37694E-04         0.00000E+00
    0.13483E-05         0.35461E-04         0.00000E+00
    0.14216E-05         0.33074E-04         0.00000E+00
    0.14881E-05         0.30543E-04         0.00000E+00
    0.15479E-05         0.27880E-04         0.00000E+00
    0.16009E-05         0.25096E-04         0.00000E+00
    0.16472E-05         0.22203E-04         0.00000E+00
    0.16868E-05         0.19214E-04         0.00000E+00
    0.17200E-05         0.16142E-04         0.00000E+00
    0.17467E-05         0.12999E-04         0.00000E+00
    0.17672E-05         0.97999E-05         0.00000E+00
    0.17816E-05         0.65578E-05         0.00000E+00
    0.17901E-05         0.32865E-05         0.00000E+00
    0.17929E-05         0.16453E-05         0.00000E+00
    0.00000E+00         0.49728E-04         0.00000E+00
    0.13224E-06         0.49643E-04         0.00000E+00
    0.26096E-06         0.49366E-04         0.00000E+00
    0.38578E-06         0.48872E-04         0.00000E+00
    0.50635E-06         0.48164E-04         0.00000E+00
    0.62233E-06         0.47247E-04         0.00000E+00
    0.73339E-06         0.46122E-04         0.00000E+00
    0.83923E-06         0.44797E-04         0.00000E+00
    0.93957E-06         0.43276E-04         0.00000E+00
    0.10342E-05         0.41566E-04         0.00000E+00
    0.11228E-05         0.39676E-04         0.00000E+00
    0.12054E-05         0.37613E-04         0.00000E+00
    0.12817E-05         0.35386E-04         0.00000E+00
    0.13517E-05         0.33005E-04         0.00000E+00
    0.14153E-05         0.30481E-04         0.00000E+00
    0.14725E-05         0.27825E-04         0.00000E+00
    0.15232E-05         0.25047E-04         0.00000E+00
    0.15676E-05         0.22161E-04         0.00000E+00
    0.16057E-05         0.19178E-04         0.00000E+00
    0.16375E-05         0.16112E-04         0.00000E+00
    0.16632E-05         0.12976E-04         0.00000E+00
    0.16829E-05         0.97828E-05         0.00000E+00
    0.16968E-05         0.65465E-05         0.00000E+00
    0.17050E-05         0.32809E-05         0.00000E+00
    0.17076E-05         0.16426E-05         0.00000E+00
    0.00000E+00         0.49599E-04         0.00000E+00
    0.12498E-06         0.49516E-04         0.00000E+00
    0.24658E-06         0.49242E-04         0.00000E+00
    0.36450E-06         0.48753E-04         0.00000E+00
    0.47840E-06         0.48049E-04         0.00000E+00
    0.58797E-06         0.47136E-04         0.00000E+00
    0.69292E-06         0.46017E-04         0.00000E+00
    0.79297E-06         0.44696E-04         0.00000E+00
    0.88788E-06         0.43181E-04         0.00000E+00
    0.97740E-06         0.41477E-04         0.00000E+00
    0.10614E-05         0.39592E-04         0.00000E+00
    0.11396E-05         0.37535E-04         0.00000E+00
    0.12119E-05         0.35315E-04         0.00000E+00
    0.12784E-05         0.32940E-04         0.00000E+00
    0.13388E-05         0.30422E-04         0.00000E+00
    0.13931E-05         0.27772E-04         0.00000E+00
    0.14414E-05         0.25001E-04         0.00000E+00
    0.14836E-05         0.22121E-04         0.00000E+00
    0.15199E-05         0.19144E-04         0.00000E+00
    0.15503E-05         0.16084E-04         0.00000E+00
    0.15748E-05         0.12954E-04         0.00000E+00
    0.15937E-05         0.97664E-05         0.00000E+00
    0.16069E-05         0.65357E-05         0.00000E+00
    0.16147E-05         0.32756E-05         0.00000E+00
    0.16173E-05         0.16400E-05         0.00000E+00
    0.87890E-19         0.49478E-04         0.00000E+00
    0.11743E-06         0.49397E-04         0.00000E+00
    0.23165E-06         0.49126E-04         0.00000E+00
    0.34240E-06         0.48640E-04         0.00000E+00
    0.44937E-06         0.47941E-04         0.00000E+00
    0.55229E-06         0.47032E-04         0.00000E+00
    0.65088E-06         0.45917E-04         0.00000E+00
    0.74490E-06         0.44602E-04         0.00000E+00
    0.83411E-06         0.43091E-04         0.00000E+00
    0.91830E-06         0.41393E-04         0.00000E+00
    0.99730E-06         0.39514E-04         0.00000E+00
    0.10709E-05         0.37462E-04         0.00000E+00
    0.11391E-05         0.35247E-04         0.00000E+00
    0.12017E-05         0.32878E-04         0.00000E+00
    0.12587E-05         0.30366E-04         0.00000E+00
    0.13100E-05         0.27722E-04         0.00000E+00
    0.13556E-05         0.24957E-04         0.00000E+00
    0.13956E-05         0.22082E-04         0.00000E+00
    0.14299E-05         0.19112E-04         0.00000E+00
    0.14586E-05         0.16057E-04         0.00000E+00
    0.14819E-05         0.12933E-04         0.00000E+00
    0.14997E-05         0.97507E-05         0.00000E+00
    0.15123E-05         0.65254E-05         0.00000E+00
    0.15197E-05         0.32706E-05         0.00000E+00
    0.15222E-05         0.16375E-05         0.00000E+00
    0.12278E-32         0.49364E-04         0.00000E+00
    0.10960E-06         0.49285E-04         0.00000E+00
    0.21618E-06         0.49017E-04         0.00000E+00
    0.31950E-06         0.48535E-04         0.00000E+00
    0.41930E-06         0.47840E-04         0.00000E+00
    0.51532E-06         0.46935E-04         0.00000E+00
    0.60731E-06         0.45824E-04         0.00000E+00
    0.69506E-06         0.44513E-04         0.00000E+00
    0.77835E-06         0.43008E-04         0.00000E+00
    0.85698E-06         0.41314E-04         0.00000E+00
    0.93079E-06         0.39440E-04         0.00000E+00
    0.99963E-06         0.37393E-04         0.00000E+00
    0.10634E-05         0.35184E-04         0.00000E+00
    0.11220E-05         0.32820E-04         0.00000E+00
    0.11753E-05         0.30314E-04         0.00000E+00
    0.12234E-05         0.27675E-04         0.00000E+00
    0.12662E-05         0.24915E-04         0.00000E+00
    0.13036E-05         0.22046E-04         0.00000E+00
    0.13358E-05         0.19081E-04         0.00000E+00
    0.13628E-05         0.16032E-04         0.00000E+00
    0.13847E-05         0.12913E-04         0.00000E+00
    0.14015E-05         0.97359E-05         0.00000E+00
    0.14133E-05         0.65157E-05         0.00000E+00
    0.14203E-05         0.32658E-05         0.00000E+00
    0.14226E-05         0.16351E-05         0.00000E+00
   -0.87501E-19         0.49259E-04         0.00000E+00
    0.10150E-06         0.49180E-04         0.00000E+00
    0.20019E-06         0.48916E-04         0.00000E+00
    0.29584E-06         0.48437E-04         0.00000E+00
    0.38822E-06         0.47745E-04         0.00000E+00
    0.47711E-06         0.46844E-04         0.00000E+00
    0.56229E-06         0.45738E-04         0.00000E+00
    0.64354E-06         0.44431E-04         0.00000E+00
    0.72068E-06         0.42930E-04         0.00000E+00
    0.79353E-06         0.41240E-04         0.00000E+00
    0.86194E-06         0.39371E-04         0.00000E+00
    0.92578E-06         0.37329E-04         0.00000E+00
    0.98492E-06         0.35125E-04         0.00000E+00
    0.10393E-05         0.32766E-04         0.00000E+00
    0.10888E-05         0.30265E-04         0.00000E+00
    0.11335E-05         0.27631E-04         0.00000E+00
    0.11732E-05         0.24876E-04         0.00000E+00
    0.12081E-05         0.22013E-04         0.00000E+00
    0.12380E-05         0.19053E-04         0.00000E+00
    0.12632E-05         0.16009E-04         0.00000E+00
    0.12835E-05         0.12894E-04         0.00000E+00
    0.12991E-05         0.97221E-05         0.00000E+00
    0.13102E-05         0.65066E-05         0.00000E+00
    0.13167E-05         0.32613E-05         0.00000E+00
    0.13188E-05         0.16329E-05         0.00000E+00
    0.00000E+00         0.49161E-04         0.00000E+00
    0.93144E-07         0.49084E-04         0.00000E+00
    0.18369E-06         0.48823E-04         0.00000E+00
    0.27145E-06         0.48347E-04         0.00000E+00
    0.35619E-06         0.47658E-04         0.00000E+00
    0.43774E-06         0.46761E-04         0.00000E+00
    0.51588E-06         0.45658E-04         0.00000E+00
    0.59043E-06         0.44355E-04         0.00000E+00
    0.66123E-06         0.42858E-04         0.00000E+00
    0.72810E-06         0.41173E-04         0.00000E+00
    0.79091E-06         0.39308E-04         0.00000E+00
    0.84955E-06         0.37270E-04         0.00000E+00
    0.90389E-06         0.35070E-04         0.00000E+00
    0.95387E-06         0.32717E-04         0.00000E+00
    0.99942E-06         0.30220E-04         0.00000E+00
    0.10405E-05         0.27591E-04         0.00000E+00
    0.10771E-05         0.24841E-04         0.00000E+00
    0.11092E-05         0.21982E-04         0.00000E+00
    0.11368E-05         0.19026E-04         0.00000E+00
    0.11599E-05         0.15987E-04         0.00000E+00
    0.11787E-05         0.12877E-04         0.00000E+00
    0.11931E-05         0.97092E-05         0.00000E+00
    0.12033E-05         0.64981E-05         0.00000E+00
    0.12093E-05         0.32571E-05         0.00000E+00
    0.12113E-05         0.16309E-05         0.00000E+00
    0.00000E+00         0.49072E-04         0.00000E+00
    0.84552E-07         0.48997E-04         0.00000E+00
    0.16674E-06         0.48738E-04         0.00000E+00
    0.24637E-06         0.48264E-04         0.00000E+00
    0.32327E-06         0.47579E-04         0.00000E+00
    0.39727E-06         0.46684E-04         0.00000E+00
    0.46818E-06         0.45585E-04         0.00000E+00
    0.53584E-06         0.44285E-04         0.00000E+00
    0.60010E-06         0.42792E-04         0.00000E+00
    0.66082E-06         0.41111E-04         0.00000E+00
    0.71786E-06         0.39250E-04         0.00000E+00
    0.77112E-06         0.37217E-04         0.00000E+00
    0.82050E-06         0.35020E-04         0.00000E+00
    0.86593E-06         0.32671E-04         0.00000E+00
    0.90734E-06         0.30178E-04         0.00000E+00
    0.94470E-06         0.27554E-04         0.00000E+00
    0.97799E-06         0.24808E-04         0.00000E+00
    0.10072E-05         0.21953E-04         0.00000E+00
    0.10323E-05         0.19002E-04         0.00000E+00
    0.10534E-05         0.15967E-04         0.00000E+00
    0.10705E-05         0.12861E-04         0.00000E+00
    0.10837E-05         0.96975E-05         0.00000E+00
    0.10930E-05         0.64904E-05         0.00000E+00
    0.10984E-05         0.32533E-05         0.00000E+00
    0.11002E-05         0.16290E-05         0.00000E+00
    0.00000E+00         0.48992E-04         0.00000E+00
    0.75740E-07         0.48918E-04         0.00000E+00
    0.14935E-06         0.48661E-04         0.00000E+00
    0.22066E-06         0.48190E-04         0.00000E+00
    0.28953E-06         0.47507E-04         0.00000E+00
    0.35579E-06         0.46616E-04         0.00000E+00
    0.41929E-06         0.45519E-04         0.00000E+00
    0.47989E-06         0.44223E-04         0.00000E+00
    0.53744E-06         0.42733E-04         0.00000E+00
    0.59183E-06         0.41055E-04         0.00000E+00
    0.64294E-06         0.39197E-04         0.00000E+00
    0.69067E-06         0.37168E-04         0.00000E+00
    0.73494E-06         0.34975E-04         0.00000E+00
    0.77567E-06         0.32630E-04         0.00000E+00
    0.81282E-06         0.30141E-04         0.00000E+00
    0.84634E-06         0.27520E-04         0.00000E+00
    0.87621E-06         0.24778E-04         0.00000E+00
    0.90243E-06         0.21927E-04         0.00000E+00
    0.92501E-06         0.18980E-04         0.00000E+00
    0.94396E-06         0.15949E-04         0.00000E+00
    0.95932E-06         0.12846E-04         0.00000E+00
    0.97114E-06         0.96868E-05         0.00000E+00
    0.97948E-06         0.64834E-05         0.00000E+00
    0.98442E-06         0.32498E-05         0.00000E+00
    0.98603E-06         0.16273E-05         0.00000E+00
    0.00000E+00         0.48921E-04         0.00000E+00
    0.66727E-07         0.48847E-04         0.00000E+00
    0.13157E-06         0.48593E-04         0.00000E+00
    0.19438E-06         0.48124E-04         0.00000E+00
    0.25503E-06         0.47444E-04         0.00000E+00
    0.31339E-06         0.46555E-04         0.00000E+00
    0.36932E-06         0.45461E-04         0.00000E+00
    0.42270E-06         0.44167E-04         0.00000E+00
    0.47340E-06         0.42680E-04         0.00000E+00
    0.52131E-06         0.41005E-04         0.00000E+00
    0.56635E-06         0.39151E-04         0.00000E+00
    0.60841E-06         0.37125E-04         0.00000E+00
    0.64744E-06         0.34935E-04         0.00000E+00
    0.68335E-06         0.32593E-04         0.00000E+00
    0.71611E-06         0.30108E-04         0.00000E+00
    0.74568E-06         0.27490E-04         0.00000E+00
    0.77204E-06         0.24752E-04         0.00000E+00
    0.79518E-06         0.21904E-04         0.00000E+00
    0.81511E-06         0.18960E-04         0.00000E+00
    0.83184E-06         0.15932E-04         0.00000E+00
    0.84541E-06         0.12834E-04         0.00000E+00
    0.85585E-06         0.96773E-05         0.00000E+00
    0.86323E-06         0.64771E-05         0.00000E+00
    0.86759E-06         0.32468E-05         0.00000E+00
    0.86902E-06         0.16258E-05         0.00000E+00
    0.00000E+00         0.48859E-04         0.00000E+00
    0.57536E-07         0.48786E-04         0.00000E+00
    0.11344E-06         0.48533E-04         0.00000E+00
    0.16759E-06         0.48067E-04         0.00000E+00
    0.21987E-06         0.47388E-04         0.00000E+00
    0.27018E-06         0.46501E-04         0.00000E+00
    0.31839E-06         0.45410E-04         0.00000E+00
    0.36440E-06         0.44119E-04         0.00000E+00
    0.40812E-06         0.42634E-04         0.00000E+00
    0.44943E-06         0.40962E-04         0.00000E+00
    0.48827E-06         0.39110E-04         0.00000E+00
    0.52455E-06         0.37087E-04         0.00000E+00
    0.55821E-06         0.34901E-04         0.00000E+00
    0.58919E-06         0.32561E-04         0.00000E+00
    0.61746E-06         0.30079E-04         0.00000E+00
    0.64298E-06         0.27464E-04         0.00000E+00
    0.66574E-06         0.24729E-04         0.00000E+00
    0.68572E-06         0.21884E-04         0.00000E+00
    0.70293E-06         0.18943E-04         0.00000E+00
    0.71739E-06         0.15918E-04         0.00000E+00
    0.72911E-06         0.12822E-04         0.00000E+00
    0.73814E-06         0.96690E-05         0.00000E+00
    0.74451E-06         0.64716E-05         0.00000E+00
    0.74828E-06         0.32441E-05         0.00000E+00
    0.74952E-06         0.16244E-05         0.00000E+00
    0.00000E+00         0.48806E-04         0.00000E+00
    0.48189E-07         0.48734E-04         0.00000E+00
    0.95004E-07         0.48483E-04         0.00000E+00
    0.14035E-06         0.48018E-04         0.00000E+00
    0.18413E-06         0.47341E-04         0.00000E+00
    0.22626E-06         0.46456E-04         0.00000E+00
    0.26663E-06         0.45367E-04         0.00000E+00
    0.30516E-06         0.44078E-04         0.00000E+00
    0.34176E-06         0.42595E-04         0.00000E+00
    0.37637E-06         0.40925E-04         0.00000E+00
    0.40889E-06         0.39076E-04         0.00000E+00
    0.43928E-06         0.37055E-04         0.00000E+00
    0.46748E-06         0.34871E-04         0.00000E+00
    0.49345E-06         0.32534E-04         0.00000E+00
    0.51714E-06         0.30054E-04         0.00000E+00
    0.53853E-06         0.27442E-04         0.00000E+00
    0.55761E-06         0.24709E-04         0.00000E+00
    0.57436E-06         0.21867E-04         0.00000E+00
    0.58880E-06         0.18929E-04         0.00000E+00
    0.60092E-06         0.15906E-04         0.00000E+00
    0.61076E-06         0.12813E-04         0.00000E+00
    0.61833E-06         0.96619E-05         0.00000E+00
    0.62368E-06         0.64670E-05         0.00000E+00
    0.62685E-06         0.32418E-05         0.00000E+00
    0.62788E-06         0.16233E-05         0.00000E+00
    0.00000E+00         0.48762E-04         0.00000E+00
    0.38711E-07         0.48691E-04         0.00000E+00
    0.76315E-07         0.48441E-04         0.00000E+00
    0.11274E-06         0.47978E-04         0.00000E+00
    0.14790E-06         0.47302E-04         0.00000E+00
    0.18173E-06         0.46419E-04         0.00000E+00
    0.21416E-06         0.45331E-04         0.00000E+00
    0.24511E-06         0.44044E-04         0.00000E+00
    0.27451E-06         0.42563E-04         0.00000E+00
    0.30230E-06         0.40895E-04         0.00000E+00
    0.32843E-06         0.39047E-04         0.00000E+00
    0.35285E-06         0.37028E-04         0.00000E+00
    0.37551E-06         0.34846E-04         0.00000E+00
    0.39637E-06         0.32511E-04         0.00000E+00
    0.41541E-06         0.30034E-04         0.00000E+00
    0.43261E-06         0.27424E-04         0.00000E+00
    0.44794E-06         0.24693E-04         0.00000E+00
    0.46141E-06         0.21853E-04         0.00000E+00
    0.47302E-06         0.18917E-04         0.00000E+00
    0.48277E-06         0.15896E-04         0.00000E+00
    0.49068E-06         0.12805E-04         0.00000E+00
    0.49677E-06         0.96561E-05         0.00000E+00
    0.50108E-06         0.64631E-05         0.00000E+00
    0.50363E-06         0.32399E-05         0.00000E+00
    0.50446E-06         0.16224E-05         0.00000E+00
    0.00000E+00         0.48728E-04         0.00000E+00
    0.29127E-07         0.48658E-04         0.00000E+00
    0.57419E-07         0.48409E-04         0.00000E+00
    0.84821E-07         0.47946E-04         0.00000E+00
    0.11128E-06         0.47272E-04         0.00000E+00
    0.13673E-06         0.46390E-04         0.00000E+00
    0.16112E-06         0.45303E-04         0.00000E+00
    0.18440E-06         0.44017E-04         0.00000E+00
    0.20652E-06         0.42538E-04         0.00000E+00
    0.22744E-06         0.40871E-04         0.00000E+00
    0.24710E-06         0.39025E-04         0.00000E+00
    0.26547E-06         0.37007E-04         0.00000E+00
    0.28252E-06         0.34827E-04         0.00000E+00
    0.29822E-06         0.32494E-04         0.00000E+00
    0.31255E-06         0.30018E-04         0.00000E+00
    0.32550E-06         0.27409E-04         0.00000E+00
    0.33704E-06         0.24680E-04         0.00000E+00
    0.34718E-06         0.21842E-04         0.00000E+00
    0.35592E-06         0.18907E-04         0.00000E+00
    0.36327E-06         0.15889E-04         0.00000E+00
    0.36922E-06         0.12799E-04         0.00000E+00
    0.37381E-06         0.96515E-05         0.00000E+00
    0.37706E-06         0.64601E-05         0.00000E+00
    0.37898E-06         0.32384E-05         0.00000E+00
    0.37960E-06         0.16216E-05         0.00000E+00
    0.00000E+00         0.48704E-04         0.00000E+00
    0.19462E-07         0.48634E-04         0.00000E+00
    0.38367E-07         0.48386E-04         0.00000E+00
    0.56676E-07         0.47924E-04         0.00000E+00
    0.74351E-07         0.47251E-04         0.00000E+00
    0.91357E-07         0.46369E-04         0.00000E+00
    0.10765E-06         0.45283E-04         0.00000E+00
    0.12321E-06         0.43998E-04         0.00000E+00
    0.13799E-06         0.42520E-04         0.00000E+00
    0.15196E-06         0.40854E-04         0.00000E+00
    0.16510E-06         0.39009E-04         0.00000E+00
    0.17738E-06         0.36993E-04         0.00000E+00
    0.18877E-06         0.34814E-04         0.00000E+00
    0.19927E-06         0.32481E-04         0.00000E+00
    0.20884E-06         0.30006E-04         0.00000E+00
    0.21750E-06         0.27399E-04         0.00000E+00
    0.22521E-06         0.24671E-04         0.00000E+00
    0.23199E-06         0.21834E-04         0.00000E+00
    0.23784E-06         0.18901E-04         0.00000E+00
    0.24274E-06         0.15883E-04         0.00000E+00
    0.24673E-06         0.12794E-04         0.00000E+00
    0.24980E-06         0.96482E-05         0.00000E+00
    0.25197E-06         0.64580E-05         0.00000E+00
    0.25325E-06         0.32373E-05         0.00000E+00
    0.25367E-06         0.16211E-05         0.00000E+00
    0.00000E+00         0.48689E-04         0.00000E+00
    0.97447E-08         0.48619E-04         0.00000E+00
    0.19210E-07         0.48372E-04         0.00000E+00
    0.28376E-07         0.47910E-04         0.00000E+00
    0.37226E-07         0.47238E-04         0.00000E+00
    0.45740E-07         0.46357E-04         0.00000E+00
    0.53900E-07         0.45271E-04         0.00000E+00
    0.61688E-07         0.43987E-04         0.00000E+00
    0.69087E-07         0.42509E-04         0.00000E+00
    0.76083E-07         0.40844E-04         0.00000E+00
    0.82661E-07         0.39000E-04         0.00000E+00
    0.88808E-07         0.36984E-04         0.00000E+00
    0.94514E-07         0.34805E-04         0.00000E+00
    0.99768E-07         0.32474E-04         0.00000E+00
    0.10456E-06         0.29999E-04         0.00000E+00
    0.10890E-06         0.27393E-04         0.00000E+00
    0.11276E-06         0.24666E-04         0.00000E+00
    0.11616E-06         0.21829E-04         0.00000E+00
    0.11908E-06         0.18897E-04         0.00000E+00
    0.12154E-06         0.15880E-04         0.00000E+00
    0.12354E-06         0.12792E-04         0.00000E+00
    0.12508E-06         0.96463E-05         0.00000E+00
    0.12616E-06         0.64567E-05         0.00000E+00
    0.12680E-06         0.32367E-05         0.00000E+00
    0.12701E-06         0.16208E-05         0.00000E+00
    0.00000E+00         0.48685E-04         0.00000E+00
    0.48757E-08         0.48614E-04         0.00000E+00
    0.96114E-08         0.48367E-04         0.00000E+00
    0.14198E-07         0.47906E-04         0.00000E+00
    0.18626E-07         0.47233E-04         0.00000E+00
    0.22885E-07         0.46352E-04         0.00000E+00
    0.26968E-07         0.45267E-04         0.00000E+00
    0.30864E-07         0.43983E-04         0.00000E+00
    0.34567E-07         0.42505E-04         0.00000E+00
    0.38067E-07         0.40841E-04         0.00000E+00
    0.41358E-07         0.38997E-04         0.00000E+00
    0.44434E-07         0.36981E-04         0.00000E+00
    0.47289E-07         0.34803E-04         0.00000E+00
    0.49918E-07         0.32471E-04         0.00000E+00
    0.52318E-07         0.29997E-04         0.00000E+00
    0.54486E-07         0.27391E-04         0.00000E+00
    0.56420E-07         0.24664E-04         0.00000E+00
    0.58119E-07         0.21828E-04         0.00000E+00
    0.59583E-07         0.18895E-04         0.00000E+00
    0.60814E-07         0.15879E-04         0.00000E+00
    0.61813E-07         0.12791E-04         0.00000E+00
    0.62582E-07         0.96456E-05         0.00000E+00
    0.63125E-07         0.64562E-05         0.00000E+00
    0.63447E-07         0.32365E-05         0.00000E+00
    0.63552E-07         0.16207E-05         0.00000E+00
CELL_DATA       1152
TENSORS stressef double 
   -0.50375E+05         0.36729E+03         0.00000E+00
    0.36729E+03        -0.10021E+06         0.00000E+00
    0.00000E+00         0.00000E+00        -0.56216E+05
 
   -0.40532E+05         0.26486E+04         0.00000E+00
    0.26486E+04        -0.96883E+05         0.00000E+00
    0.00000E+00         0.00000E+00        -0.65772E+05
 
   -0.34871E+05         0.38063E+04         0.00000E+00
    0.38063E+04        -0.88932E+05         0.00000E+00
    0.00000E+00         0.00000E+00        -0.63199E+05
 
   -0.29631E+05         0.40508E+04         0.00000E+00
    0.40508E+04        -0.80486E+05         0.00000E+00
    0.00000E+00         0.00000E+00        -0.57485E+05
 
   -0.24746E+05         0.38934E+04         0.00000E+00
    0.38934E+04        -0.72665E+05         0.00000E+00
    0.00000E+00         0.00000E+00        -0.51269E+05
 
   -0.20313E+05         0.35933E+04         0.00000E+00
    0.35933E+04        -0.65536E+05         0.00000E+00
    0.00000E+00         0.00000E+00        -0.45205E+05
 
   -0.16330E+05         0.32079E+04         0.00000E+00
    0.32079E+04        -0.59115E+05         0.00000E+00
    0.00000E+00         0.00000E+00        -0.39545E+05
 
   -0.13240E+05         0.27879E+04         0.00000E+00
    0.27879E+04        -0.53372E+05         0.00000E+00
    0.00000E+00         0.00000E+00        -0.34587E+05
 
   -0.10632E+05         0.24211E+04         0.00000E+00
    0.24211E+04        -0.48313E+05         0.00000E+00
    0.00000E+00         0.00000E+00        -0.30273E+05
 
   -0.83545E+04         0.20927E+04         0.00000E+00
    0.20927E+04        -0.43907E+05         0.00000E+00
    0.00000E+00         0.00000E+00        -0.26552E+05
 
   -0.64711E+04         0.18172E+04         0.00000E+00
    0.18172E+04        -0.40025E+05         0.00000E+00
    0.00000E+00         0.00000E+00        -0.23376E+05
 
   -0.48148E+04         0.16289E+04         0.00000E+00
    0.16289E+04        -0.36606E+05         0.00000E+00
    0.00000E+00         0.00000E+00        -0.20572E+05
 
   -0.32949E+04         0.14651E+04         0.00000E+00
    0.14651E+04        -0.33572E+05         0.00000E+00
    0.00000E+00         0.00000E+00        -0.18020E+05
 
   -0.18858E+04         0.13213E+04         0.00000E+00
    0.13213E+04        -0.30831E+05         0.00000E+00
    0.00000E+00         0.00000E+00        -0.15650E+05
 
   -0.59719E+03         0.11698E+04         0.00000E+00
    0.11698E+04        -0.28372E+05         0.00000E+00
    0.00000E+00         0.00000E+00        -0.13438E+05
 
    0.42586E+03         0.10438E+04         0.00000E+00
    0.10438E+04        -0.26186E+05         0.00000E+00
    0.00000E+00         0.00000E+00        -0.11433E+05
 
    0.12707E+04         0.89600E+03         0.00000E+00
    0.89600E+03        -0.24287E+05         0.00000E+00
    0.00000E+00         0.00000E+00        -0.95736E+04
 
    0.19813E+04         0.79584E+03         0.00000E+00
    0.79584E+03        -0.22629E+05         0.00000E+00
    0.00000E+00         0.00000E+00        -0.79216E+04
 
    0.25772E+04         0.70711E+03         0.00000E+00
    0.70711E+03        -0.21150E+05         0.00000E+00
    0.00000E+00         0.00000E+00        -0.63732E+04
 
    0.27408E+04         0.63200E+03         0.00000E+00
    0.63200E+03        -0.19824E+05         0.00000E+00
    0.00000E+00         0.00000E+00        -0.52153E+04
 
    0.81979E+03         0.53997E+03         0.00000E+00
    0.53997E+03        -0.18659E+05         0.00000E+00
    0.00000E+00         0.00000E+00        -0.53518E+04
 
   -0.12724E+04         0.48374E+03         0.00000E+00
    0.48374E+03        -0.17642E+05         0.00000E+00
    0.00000E+00         0.00000E+00        -0.56742E+04
 
   -0.33375E+04         0.46001E+03         0.00000E+00
    0.46001E+03        -0.16702E+05         0.00000E+00
    0.00000E+00         0.00000E+00        -0.60119E+04
 
   -0.54731E+04         0.46044E+03         0.00000E+00
    0.46044E+03        -0.15786E+05         0.00000E+00
    0.00000E+00         0.00000E+00        -0.63776E+04
 
   -0.46891E+05         0.27391E+04         0.00000E+00
    0.27391E+04        -0.99601E+05         0.00000E+00
    0.00000E+00         0.00000E+00        -0.59021E+05
 
   -0.37169E+05         0.97164E+04         0.00000E+00
    0.97164E+04        -0.88847E+05         0.00000E+00
    0.00000E+00         0.00000E+00        -0.63729E+05
 
   -0.33471E+05         0.11695E+05         0.00000E+00
    0.11695E+05        -0.80341E+05         0.00000E+00
    0.00000E+00         0.00000E+00        -0.59421E+05
 
   -0.29636E+05         0.11870E+05         0.00000E+00
    0.11870E+05        -0.73302E+05         0.00000E+00
    0.00000E+00         0.00000E+00        -0.54309E+05
 
   -0.25331E+05         0.11185E+05         0.00000E+00
    0.11185E+05        -0.66624E+05         0.00000E+00
    0.00000E+00         0.00000E+00        -0.48701E+05
 
   -0.21086E+05         0.10180E+05         0.00000E+00
    0.10180E+05        -0.60574E+05         0.00000E+00
    0.00000E+00         0.00000E+00        -0.43203E+05
 
   -0.17275E+05         0.90432E+04         0.00000E+00
    0.90432E+04        -0.55177E+05         0.00000E+00
    0.00000E+00         0.00000E+00        -0.38118E+05
 
   -0.14028E+05         0.79388E+04         0.00000E+00
    0.79388E+04        -0.50414E+05         0.00000E+00
    0.00000E+00         0.00000E+00        -0.33580E+05
 
   -0.11338E+05         0.69284E+04         0.00000E+00
    0.69284E+04        -0.46101E+05         0.00000E+00
    0.00000E+00         0.00000E+00        -0.29573E+05
 
   -0.89569E+04         0.60574E+04         0.00000E+00
    0.60574E+04        -0.42161E+05         0.00000E+00
    0.00000E+00         0.00000E+00        -0.25994E+05
 
   -0.68981E+04         0.53482E+04         0.00000E+00
    0.53482E+04        -0.38674E+05         0.00000E+00
    0.00000E+00         0.00000E+00        -0.22854E+05
 
   -0.51453E+04         0.47845E+04         0.00000E+00
    0.47845E+04        -0.35496E+05         0.00000E+00
    0.00000E+00         0.00000E+00        -0.20094E+05
 
   -0.36081E+04         0.42978E+04         0.00000E+00
    0.42978E+04        -0.32600E+05         0.00000E+00
    0.00000E+00         0.00000E+00        -0.17601E+05
 
   -0.21693E+04         0.38768E+04         0.00000E+00
    0.38768E+04        -0.30039E+05         0.00000E+00
    0.00000E+00         0.00000E+00        -0.15282E+05
 
   -0.89286E+03         0.34501E+04         0.00000E+00
    0.34501E+04        -0.27762E+05         0.00000E+00
    0.00000E+00         0.00000E+00        -0.13154E+05
 
    0.15619E+03         0.30249E+04         0.00000E+00
    0.30249E+04        -0.25749E+05         0.00000E+00
    0.00000E+00         0.00000E+00        -0.11230E+05
 
    0.10327E+04         0.26579E+04         0.00000E+00
    0.26579E+04        -0.23958E+05         0.00000E+00
    0.00000E+00         0.00000E+00        -0.94084E+04
 
    0.17915E+04         0.23527E+04         0.00000E+00
    0.23527E+04        -0.22351E+05         0.00000E+00
    0.00000E+00         0.00000E+00        -0.77791E+04
 
    0.24193E+04         0.20997E+04         0.00000E+00
    0.20997E+04        -0.20928E+05         0.00000E+00
    0.00000E+00         0.00000E+00        -0.62723E+04
 
    0.25611E+04         0.18760E+04         0.00000E+00
    0.18760E+04        -0.19633E+05         0.00000E+00
    0.00000E+00         0.00000E+00        -0.51880E+04
 
    0.66783E+03         0.16061E+04         0.00000E+00
    0.16061E+04        -0.18507E+05         0.00000E+00
    0.00000E+00         0.00000E+00        -0.53519E+04
 
   -0.13482E+04         0.14439E+04         0.00000E+00
    0.14439E+04        -0.17509E+05         0.00000E+00
    0.00000E+00         0.00000E+00        -0.56570E+04
 
   -0.33596E+04         0.13732E+04         0.00000E+00
    0.13732E+04        -0.16583E+05         0.00000E+00
    0.00000E+00         0.00000E+00        -0.59827E+04
 
   -0.54516E+04         0.13738E+04         0.00000E+00
    0.13738E+04        -0.15681E+05         0.00000E+00
    0.00000E+00         0.00000E+00        -0.63398E+04
 
   -0.34299E+05         0.16166E+05         0.00000E+00
    0.16166E+05        -0.75376E+05         0.00000E+00
    0.00000E+00         0.00000E+00        -0.55708E+05
 
   -0.33378E+05         0.18376E+05         0.00000E+00
    0.18376E+05        -0.64357E+05         0.00000E+00
    0.00000E+00         0.00000E+00        -0.52835E+05
 
   -0.33525E+05         0.18913E+05         0.00000E+00
    0.18913E+05        -0.61948E+05         0.00000E+00
    0.00000E+00         0.00000E+00        -0.51515E+05
 
   -0.30566E+05         0.17941E+05         0.00000E+00
    0.17941E+05        -0.58409E+05         0.00000E+00
    0.00000E+00         0.00000E+00        -0.47908E+05
 
   -0.26745E+05         0.16565E+05         0.00000E+00
    0.16565E+05        -0.54990E+05         0.00000E+00
    0.00000E+00         0.00000E+00        -0.43883E+05
 
   -0.22624E+05         0.14972E+05         0.00000E+00
    0.14972E+05        -0.51468E+05         0.00000E+00
    0.00000E+00         0.00000E+00        -0.39614E+05
 
   -0.18774E+05         0.13368E+05         0.00000E+00
    0.13368E+05        -0.48019E+05         0.00000E+00
    0.00000E+00         0.00000E+00        -0.35465E+05
 
   -0.15416E+05         0.11879E+05         0.00000E+00
    0.11879E+05        -0.44697E+05         0.00000E+00
    0.00000E+00         0.00000E+00        -0.31576E+05
 
   -0.12502E+05         0.10621E+05         0.00000E+00
    0.10621E+05        -0.41568E+05         0.00000E+00
    0.00000E+00         0.00000E+00        -0.28001E+05
 
   -0.99346E+04         0.94643E+04         0.00000E+00
    0.94643E+04        -0.38564E+05         0.00000E+00
    0.00000E+00         0.00000E+00        -0.24747E+05
 
   -0.77221E+04         0.84408E+04         0.00000E+00
    0.84408E+04        -0.35666E+05         0.00000E+00
    0.00000E+00         0.00000E+00        -0.21772E+05
 
   -0.58200E+04         0.75683E+04         0.00000E+00
    0.75683E+04        -0.33084E+05         0.00000E+00
    0.00000E+00         0.00000E+00        -0.19114E+05
 
   -0.41796E+04         0.68294E+04         0.00000E+00
    0.68294E+04        -0.30771E+05         0.00000E+00
    0.00000E+00         0.00000E+00        -0.16743E+05
 
   -0.27228E+04         0.61374E+04         0.00000E+00
    0.61374E+04        -0.28623E+05         0.00000E+00
    0.00000E+00         0.00000E+00        -0.14584E+05
 
   -0.14613E+04         0.54834E+04         0.00000E+00
    0.54834E+04        -0.26656E+05         0.00000E+00
    0.00000E+00         0.00000E+00        -0.12591E+05
 
   -0.35353E+03         0.48467E+04         0.00000E+00
    0.48467E+04        -0.24884E+05         0.00000E+00
    0.00000E+00         0.00000E+00        -0.10712E+05
 
    0.61141E+03         0.42783E+04         0.00000E+00
    0.42783E+04        -0.23275E+05         0.00000E+00
    0.00000E+00         0.00000E+00        -0.90102E+04
 
    0.14290E+04         0.38062E+04         0.00000E+00
    0.38062E+04        -0.21820E+05         0.00000E+00
    0.00000E+00         0.00000E+00        -0.74817E+04
 
    0.21196E+04         0.34276E+04         0.00000E+00
    0.34276E+04        -0.20490E+05         0.00000E+00
    0.00000E+00         0.00000E+00        -0.60764E+04
 
    0.22084E+04         0.30616E+04         0.00000E+00
    0.30616E+04        -0.19275E+05         0.00000E+00
    0.00000E+00         0.00000E+00        -0.51379E+04
 
    0.38107E+03         0.26395E+04         0.00000E+00
    0.26395E+04        -0.18194E+05         0.00000E+00
    0.00000E+00         0.00000E+00        -0.53438E+04
 
   -0.14961E+04         0.23827E+04         0.00000E+00
    0.23827E+04        -0.17229E+05         0.00000E+00
    0.00000E+00         0.00000E+00        -0.56176E+04
 
   -0.34053E+04         0.22643E+04         0.00000E+00
    0.22643E+04        -0.16334E+05         0.00000E+00
    0.00000E+00         0.00000E+00        -0.59218E+04
 
   -0.54083E+04         0.22635E+04         0.00000E+00
    0.22635E+04        -0.15465E+05         0.00000E+00
    0.00000E+00         0.00000E+00        -0.62620E+04
 
   -0.13662E+05         0.14261E+05         0.00000E+00
    0.14261E+05        -0.27514E+05         0.00000E+00
    0.00000E+00         0.00000E+00        -0.24694E+05
 
   -0.33307E+05         0.19992E+05         0.00000E+00
    0.19992E+05        -0.37868E+05         0.00000E+00
    0.00000E+00         0.00000E+00        -0.41088E+05
 
   -0.33824E+05         0.19630E+05         0.00000E+00
    0.19630E+05        -0.37781E+05         0.00000E+00
    0.00000E+00         0.00000E+00        -0.40557E+05
 
   -0.31831E+05         0.19156E+05         0.00000E+00
    0.19156E+05        -0.38787E+05         0.00000E+00
    0.00000E+00         0.00000E+00        -0.39536E+05
 
   -0.28253E+05         0.18221E+05         0.00000E+00
    0.18221E+05        -0.38942E+05         0.00000E+00
    0.00000E+00         0.00000E+00        -0.37270E+05
 
   -0.24289E+05         0.17045E+05         0.00000E+00
    0.17045E+05        -0.38562E+05         0.00000E+00
    0.00000E+00         0.00000E+00        -0.34519E+05
 
   -0.20418E+05         0.15705E+05         0.00000E+00
    0.15705E+05        -0.37622E+05         0.00000E+00
    0.00000E+00         0.00000E+00        -0.31506E+05
 
   -0.16907E+05         0.14337E+05         0.00000E+00
    0.14337E+05        -0.36292E+05         0.00000E+00
    0.00000E+00         0.00000E+00        -0.28455E+05
 
   -0.13868E+05         0.13036E+05         0.00000E+00
    0.13036E+05        -0.34769E+05         0.00000E+00
    0.00000E+00         0.00000E+00        -0.25494E+05
 
   -0.11124E+05         0.11874E+05         0.00000E+00
    0.11874E+05        -0.33199E+05         0.00000E+00
    0.00000E+00         0.00000E+00        -0.22653E+05
 
   -0.87702E+04         0.10765E+05         0.00000E+00
    0.10765E+05        -0.31554E+05         0.00000E+00
    0.00000E+00         0.00000E+00        -0.20043E+05
 
   -0.67488E+04         0.96966E+04         0.00000E+00
    0.96966E+04        -0.29813E+05         0.00000E+00
    0.00000E+00         0.00000E+00        -0.17664E+05
 
   -0.49900E+04         0.87618E+04         0.00000E+00
    0.87618E+04        -0.28130E+05         0.00000E+00
    0.00000E+00         0.00000E+00        -0.15511E+05
 
   -0.34820E+04         0.79200E+04         0.00000E+00
    0.79200E+04        -0.26573E+05         0.00000E+00
    0.00000E+00         0.00000E+00        -0.13574E+05
 
   -0.21744E+04         0.71257E+04         0.00000E+00
    0.71257E+04        -0.25130E+05         0.00000E+00
    0.00000E+00         0.00000E+00        -0.11773E+05
 
   -0.10300E+04         0.63884E+04         0.00000E+00
    0.63884E+04        -0.23761E+05         0.00000E+00
    0.00000E+00         0.00000E+00        -0.10095E+05
 
    0.11562E+02         0.57360E+04         0.00000E+00
    0.57360E+04        -0.22380E+05         0.00000E+00
    0.00000E+00         0.00000E+00        -0.85399E+04
 
    0.95662E+03         0.51309E+04         0.00000E+00
    0.51309E+04        -0.21044E+05         0.00000E+00
    0.00000E+00         0.00000E+00        -0.71000E+04
 
    0.17425E+04         0.46603E+04         0.00000E+00
    0.46603E+04        -0.19808E+05         0.00000E+00
    0.00000E+00         0.00000E+00        -0.58108E+04
 
    0.16593E+04         0.41596E+04         0.00000E+00
    0.41596E+04        -0.18685E+05         0.00000E+00
    0.00000E+00         0.00000E+00        -0.51076E+04
 
   -0.11147E+02         0.36207E+04         0.00000E+00
    0.36207E+04        -0.17686E+05         0.00000E+00
    0.00000E+00         0.00000E+00        -0.53093E+04
 
   -0.17138E+04         0.32794E+04         0.00000E+00
    0.32794E+04        -0.16783E+05         0.00000E+00
    0.00000E+00         0.00000E+00        -0.55491E+04
 
   -0.34764E+04         0.31133E+04         0.00000E+00
    0.31133E+04        -0.15943E+05         0.00000E+00
    0.00000E+00         0.00000E+00        -0.58259E+04
 
   -0.53429E+04         0.31096E+04         0.00000E+00
    0.31096E+04        -0.15128E+05         0.00000E+00
    0.00000E+00         0.00000E+00        -0.61414E+04
 
   -0.53436E+04         0.32348E+04         0.00000E+00
    0.32348E+04         0.36757E+04         0.00000E+00
    0.00000E+00         0.00000E+00         0.23411E+03
 
   -0.27097E+05         0.11085E+05         0.00000E+00
    0.11085E+05        -0.96961E+04         0.00000E+00
    0.00000E+00         0.00000E+00        -0.19802E+05
 
   -0.32115E+05         0.14176E+05         0.00000E+00
    0.14176E+05        -0.17679E+05         0.00000E+00
    0.00000E+00         0.00000E+00        -0.27667E+05
 
   -0.30952E+05         0.15561E+05         0.00000E+00
    0.15561E+05        -0.21966E+05         0.00000E+00
    0.00000E+00         0.00000E+00        -0.29197E+05
 
   -0.28329E+05         0.16162E+05         0.00000E+00
    0.16162E+05        -0.24946E+05         0.00000E+00
    0.00000E+00         0.00000E+00        -0.29101E+05
 
   -0.24946E+05         0.16102E+05         0.00000E+00
    0.16102E+05        -0.26790E+05         0.00000E+00
    0.00000E+00         0.00000E+00        -0.27919E+05
 
   -0.21413E+05         0.15589E+05         0.00000E+00
    0.15589E+05        -0.27825E+05         0.00000E+00
    0.00000E+00         0.00000E+00        -0.26182E+05
 
   -0.18039E+05         0.14788E+05         0.00000E+00
    0.14788E+05        -0.28222E+05         0.00000E+00
    0.00000E+00         0.00000E+00        -0.24160E+05
 
   -0.14989E+05         0.13852E+05         0.00000E+00
    0.13852E+05        -0.28126E+05         0.00000E+00
    0.00000E+00         0.00000E+00        -0.22031E+05
 
   -0.12251E+05         0.12870E+05         0.00000E+00
    0.12870E+05        -0.27694E+05         0.00000E+00
    0.00000E+00         0.00000E+00        -0.19888E+05
 
   -0.98390E+04         0.11907E+05         0.00000E+00
    0.11907E+05        -0.27088E+05         0.00000E+00
    0.00000E+00         0.00000E+00        -0.17818E+05
 
   -0.77292E+04         0.10978E+05         0.00000E+00
    0.10978E+05        -0.26310E+05         0.00000E+00
    0.00000E+00         0.00000E+00        -0.15867E+05
 
   -0.58880E+04         0.10068E+05         0.00000E+00
    0.10068E+05        -0.25329E+05         0.00000E+00
    0.00000E+00         0.00000E+00        -0.14050E+05
 
   -0.43402E+04         0.91829E+04         0.00000E+00
    0.91829E+04        -0.24288E+05         0.00000E+00
    0.00000E+00         0.00000E+00        -0.12389E+05
 
   -0.29530E+04         0.83407E+04         0.00000E+00
    0.83407E+04        -0.23245E+05         0.00000E+00
    0.00000E+00         0.00000E+00        -0.10840E+05
 
   -0.17424E+04         0.76123E+04         0.00000E+00
    0.76123E+04        -0.22133E+05         0.00000E+00
    0.00000E+00         0.00000E+00        -0.94063E+04
 
   -0.65298E+03         0.69423E+04         0.00000E+00
    0.69423E+04        -0.21054E+05         0.00000E+00
    0.00000E+00         0.00000E+00        -0.80434E+04
 
    0.38122E+03         0.63229E+04         0.00000E+00
    0.63229E+04        -0.19993E+05         0.00000E+00
    0.00000E+00         0.00000E+00        -0.66888E+04
 
    0.13183E+04         0.57853E+04         0.00000E+00
    0.57853E+04        -0.18878E+05         0.00000E+00
    0.00000E+00         0.00000E+00        -0.54763E+04
 
    0.94647E+03         0.51573E+04         0.00000E+00
    0.51573E+04        -0.17842E+05         0.00000E+00
    0.00000E+00         0.00000E+00        -0.50687E+04
 
   -0.49224E+03         0.45166E+04         0.00000E+00
    0.45166E+04        -0.16963E+05         0.00000E+00
    0.00000E+00         0.00000E+00        -0.52367E+04
 
   -0.19951E+04         0.41028E+04         0.00000E+00
    0.41028E+04        -0.16158E+05         0.00000E+00
    0.00000E+00         0.00000E+00        -0.54461E+04
 
   -0.35724E+04         0.38949E+04         0.00000E+00
    0.38949E+04        -0.15405E+05         0.00000E+00
    0.00000E+00         0.00000E+00        -0.56931E+04
 
   -0.52554E+04         0.38895E+04         0.00000E+00
    0.38895E+04        -0.14669E+05         0.00000E+00
    0.00000E+00         0.00000E+00        -0.59773E+04
 
    0.33922E+03        -0.11883E+04         0.00000E+00
   -0.11883E+04        -0.16807E+04         0.00000E+00
    0.00000E+00         0.00000E+00        -0.16243E+03
 
   -0.24256E+05         0.58096E+04         0.00000E+00
    0.58096E+04        -0.31026E+04         0.00000E+00
    0.00000E+00         0.00000E+00        -0.10021E+05
 
   -0.28855E+05         0.95680E+04         0.00000E+00
    0.95680E+04        -0.91948E+04         0.00000E+00
    0.00000E+00         0.00000E+00        -0.18309E+05
 
   -0.29142E+05         0.11880E+05         0.00000E+00
    0.11880E+05        -0.13458E+05         0.00000E+00
    0.00000E+00         0.00000E+00        -0.21758E+05
 
   -0.27260E+05         0.13319E+05         0.00000E+00
    0.13319E+05        -0.16561E+05         0.00000E+00
    0.00000E+00         0.00000E+00        -0.22780E+05
 
   -0.24622E+05         0.14067E+05         0.00000E+00
    0.14067E+05        -0.18881E+05         0.00000E+00
    0.00000E+00         0.00000E+00        -0.22578E+05
 
   -0.21616E+05         0.14281E+05         0.00000E+00
    0.14281E+05        -0.20551E+05         0.00000E+00
    0.00000E+00         0.00000E+00        -0.21695E+05
 
   -0.18587E+05         0.14090E+05         0.00000E+00
    0.14090E+05        -0.21659E+05         0.00000E+00
    0.00000E+00         0.00000E+00        -0.20409E+05
 
   -0.15727E+05         0.13633E+05         0.00000E+00
    0.13633E+05        -0.22308E+05         0.00000E+00
    0.00000E+00         0.00000E+00        -0.18918E+05
 
   -0.13095E+05         0.13005E+05         0.00000E+00
    0.13005E+05        -0.22583E+05         0.00000E+00
    0.00000E+00         0.00000E+00        -0.17324E+05
 
   -0.10715E+05         0.12268E+05         0.00000E+00
    0.12268E+05        -0.22561E+05         0.00000E+00
    0.00000E+00         0.00000E+00        -0.15709E+05
 
   -0.85795E+04         0.11541E+05         0.00000E+00
    0.11541E+05        -0.22324E+05         0.00000E+00
    0.00000E+00         0.00000E+00        -0.14108E+05
 
   -0.67460E+04         0.10767E+05         0.00000E+00
    0.10767E+05        -0.21976E+05         0.00000E+00
    0.00000E+00         0.00000E+00        -0.12620E+05
 
   -0.51523E+04         0.99924E+04         0.00000E+00
    0.99924E+04        -0.21457E+05         0.00000E+00
    0.00000E+00         0.00000E+00        -0.11228E+05
 
   -0.37384E+04         0.92565E+04         0.00000E+00
    0.92565E+04        -0.20736E+05         0.00000E+00
    0.00000E+00         0.00000E+00        -0.99227E+04
 
   -0.24420E+04         0.85368E+04         0.00000E+00
    0.85368E+04        -0.19953E+05         0.00000E+00
    0.00000E+00         0.00000E+00        -0.86547E+04
 
   -0.13071E+04         0.78595E+04         0.00000E+00
    0.78595E+04        -0.19156E+05         0.00000E+00
    0.00000E+00         0.00000E+00        -0.74336E+04
 
   -0.19053E+03         0.72838E+04         0.00000E+00
    0.72838E+04        -0.18343E+05         0.00000E+00
    0.00000E+00         0.00000E+00        -0.61895E+04
 
    0.79923E+03         0.67683E+04         0.00000E+00
    0.67683E+04        -0.17508E+05         0.00000E+00
    0.00000E+00         0.00000E+00        -0.51093E+04
 
    0.12914E+03         0.59888E+04         0.00000E+00
    0.59888E+04        -0.16734E+05         0.00000E+00
    0.00000E+00         0.00000E+00        -0.49815E+04
 
   -0.10459E+04         0.52828E+04         0.00000E+00
    0.52828E+04        -0.16030E+05         0.00000E+00
    0.00000E+00         0.00000E+00        -0.51229E+04
 
   -0.23267E+04         0.48165E+04         0.00000E+00
    0.48165E+04        -0.15369E+05         0.00000E+00
    0.00000E+00         0.00000E+00        -0.53086E+04
 
   -0.36862E+04         0.45824E+04         0.00000E+00
    0.45824E+04        -0.14730E+05         0.00000E+00
    0.00000E+00         0.00000E+00        -0.55249E+04
 
   -0.51461E+04         0.45804E+04         0.00000E+00
    0.45804E+04        -0.14096E+05         0.00000E+00
    0.00000E+00         0.00000E+00        -0.57726E+04
 
    0.95134E+03        -0.17041E+04         0.00000E+00
   -0.17041E+04         0.51956E+02         0.00000E+00
    0.00000E+00         0.00000E+00         0.35224E+03
 
   -0.18628E+05         0.80484E+03         0.00000E+00
    0.80484E+03        -0.13650E+04         0.00000E+00
    0.00000E+00         0.00000E+00        -0.59979E+04
 
   -0.26644E+05         0.61346E+04         0.00000E+00
    0.61346E+04        -0.49734E+04         0.00000E+00
    0.00000E+00         0.00000E+00        -0.12156E+05
 
   -0.26856E+05         0.88903E+04         0.00000E+00
    0.88903E+04        -0.82877E+04         0.00000E+00
    0.00000E+00         0.00000E+00        -0.15713E+05
 
   -0.25807E+05         0.10755E+05         0.00000E+00
    0.10755E+05        -0.11175E+05         0.00000E+00
    0.00000E+00         0.00000E+00        -0.17420E+05
 
   -0.23729E+05         0.12011E+05         0.00000E+00
    0.12011E+05        -0.13502E+05         0.00000E+00
    0.00000E+00         0.00000E+00        -0.17912E+05
 
   -0.21258E+05         0.12690E+05         0.00000E+00
    0.12690E+05        -0.15276E+05         0.00000E+00
    0.00000E+00         0.00000E+00        -0.17662E+05
 
   -0.18621E+05         0.12947E+05         0.00000E+00
    0.12947E+05        -0.16631E+05         0.00000E+00
    0.00000E+00         0.00000E+00        -0.16942E+05
 
   -0.16042E+05         0.12880E+05         0.00000E+00
    0.12880E+05        -0.17611E+05         0.00000E+00
    0.00000E+00         0.00000E+00        -0.15957E+05
 
   -0.13607E+05         0.12588E+05         0.00000E+00
    0.12588E+05        -0.18280E+05         0.00000E+00
    0.00000E+00         0.00000E+00        -0.14808E+05
 
   -0.11319E+05         0.12166E+05         0.00000E+00
    0.12166E+05        -0.18670E+05         0.00000E+00
    0.00000E+00         0.00000E+00        -0.13550E+05
 
   -0.92506E+04         0.11624E+05         0.00000E+00
    0.11624E+05        -0.18834E+05         0.00000E+00
    0.00000E+00         0.00000E+00        -0.12279E+05
 
   -0.74476E+04         0.11038E+05         0.00000E+00
    0.11038E+05        -0.18767E+05         0.00000E+00
    0.00000E+00         0.00000E+00        -0.11071E+05
 
   -0.58451E+04         0.10420E+05         0.00000E+00
    0.10420E+05        -0.18520E+05         0.00000E+00
    0.00000E+00         0.00000E+00        -0.99216E+04
 
   -0.44151E+04         0.97943E+04         0.00000E+00
    0.97943E+04        -0.18187E+05         0.00000E+00
    0.00000E+00         0.00000E+00        -0.88339E+04
 
   -0.31066E+04         0.91726E+04         0.00000E+00
    0.91726E+04        -0.17754E+05         0.00000E+00
    0.00000E+00         0.00000E+00        -0.77382E+04
 
   -0.18966E+04         0.85747E+04         0.00000E+00
    0.85747E+04        -0.17198E+05         0.00000E+00
    0.00000E+00         0.00000E+00        -0.66462E+04
 
   -0.73775E+03         0.80326E+04         0.00000E+00
    0.80326E+04        -0.16542E+05         0.00000E+00
    0.00000E+00         0.00000E+00        -0.56343E+04
 
    0.86364E+02         0.74549E+04         0.00000E+00
    0.74549E+04        -0.15894E+05         0.00000E+00
    0.00000E+00         0.00000E+00        -0.47800E+04
 
   -0.67773E+03         0.65780E+04         0.00000E+00
    0.65780E+04        -0.15418E+05         0.00000E+00
    0.00000E+00         0.00000E+00        -0.48287E+04
 
   -0.16439E+04         0.58650E+04         0.00000E+00
    0.58650E+04        -0.14949E+05         0.00000E+00
    0.00000E+00         0.00000E+00        -0.49779E+04
 
   -0.26805E+04         0.53898E+04         0.00000E+00
    0.53898E+04        -0.14457E+05         0.00000E+00
    0.00000E+00         0.00000E+00        -0.51413E+04
 
   -0.38041E+04         0.51547E+04         0.00000E+00
    0.51547E+04        -0.13952E+05         0.00000E+00
    0.00000E+00         0.00000E+00        -0.53269E+04
 
   -0.50156E+04         0.51647E+04         0.00000E+00
    0.51647E+04        -0.13433E+05         0.00000E+00
    0.00000E+00         0.00000E+00        -0.55347E+04
 
   -0.85660E+03        -0.17691E+04         0.00000E+00
   -0.17691E+04        -0.25208E+02         0.00000E+00
    0.00000E+00         0.00000E+00        -0.26454E+03
 
   -0.14030E+05        -0.11458E+04         0.00000E+00
   -0.11458E+04        -0.32005E+03         0.00000E+00
    0.00000E+00         0.00000E+00        -0.43051E+04
 
   -0.23200E+05         0.29831E+04         0.00000E+00
    0.29831E+04        -0.14663E+04         0.00000E+00
    0.00000E+00         0.00000E+00        -0.76305E+04
 
   -0.24769E+05         0.62782E+04         0.00000E+00
    0.62782E+04        -0.46774E+04         0.00000E+00
    0.00000E+00         0.00000E+00        -0.11361E+05
 
   -0.24077E+05         0.84502E+04         0.00000E+00
    0.84502E+04        -0.70811E+04         0.00000E+00
    0.00000E+00         0.00000E+00        -0.13199E+05
 
   -0.22509E+05         0.10024E+05         0.00000E+00
    0.10024E+05        -0.92563E+04         0.00000E+00
    0.00000E+00         0.00000E+00        -0.13921E+05
 
   -0.20545E+05         0.11078E+05         0.00000E+00
    0.11078E+05        -0.11144E+05         0.00000E+00
    0.00000E+00         0.00000E+00        -0.14094E+05
 
   -0.18300E+05         0.11675E+05         0.00000E+00
    0.11675E+05        -0.12625E+05         0.00000E+00
    0.00000E+00         0.00000E+00        -0.13771E+05
 
   -0.16029E+05         0.11923E+05         0.00000E+00
    0.11923E+05        -0.13764E+05         0.00000E+00
    0.00000E+00         0.00000E+00        -0.13175E+05
 
   -0.13797E+05         0.11917E+05         0.00000E+00
    0.11917E+05        -0.14601E+05         0.00000E+00
    0.00000E+00         0.00000E+00        -0.12374E+05
 
   -0.11668E+05         0.11738E+05         0.00000E+00
    0.11738E+05        -0.15182E+05         0.00000E+00
    0.00000E+00         0.00000E+00        -0.11443E+05
 
   -0.97126E+04         0.11433E+05         0.00000E+00
    0.11433E+05        -0.15531E+05         0.00000E+00
    0.00000E+00         0.00000E+00        -0.10457E+05
 
   -0.79692E+04         0.11022E+05         0.00000E+00
    0.11022E+05        -0.15722E+05         0.00000E+00
    0.00000E+00         0.00000E+00        -0.95032E+04
 
   -0.64000E+04         0.10559E+05         0.00000E+00
    0.10559E+05        -0.15769E+05         0.00000E+00
    0.00000E+00         0.00000E+00        -0.85765E+04
 
   -0.49718E+04         0.10065E+05         0.00000E+00
    0.10065E+05        -0.15647E+05         0.00000E+00
    0.00000E+00         0.00000E+00        -0.76663E+04
 
   -0.36700E+04         0.95626E+04         0.00000E+00
    0.95626E+04        -0.15389E+05         0.00000E+00
    0.00000E+00         0.00000E+00        -0.67938E+04
 
   -0.24235E+04         0.90654E+04         0.00000E+00
    0.90654E+04        -0.15042E+05         0.00000E+00
    0.00000E+00         0.00000E+00        -0.59071E+04
 
   -0.12492E+04         0.85748E+04         0.00000E+00
    0.85748E+04        -0.14613E+05         0.00000E+00
    0.00000E+00         0.00000E+00        -0.50262E+04
 
   -0.79728E+03         0.78514E+04         0.00000E+00
    0.78514E+04        -0.14276E+05         0.00000E+00
    0.00000E+00         0.00000E+00        -0.45219E+04
 
   -0.14945E+04         0.69164E+04         0.00000E+00
    0.69164E+04        -0.14083E+05         0.00000E+00
    0.00000E+00         0.00000E+00        -0.46734E+04
 
   -0.22178E+04         0.62501E+04         0.00000E+00
    0.62501E+04        -0.13816E+05         0.00000E+00
    0.00000E+00         0.00000E+00        -0.48100E+04
 
   -0.30223E+04         0.58130E+04         0.00000E+00
    0.58130E+04        -0.13487E+05         0.00000E+00
    0.00000E+00         0.00000E+00        -0.49529E+04
 
   -0.39080E+04         0.56035E+04         0.00000E+00
    0.56035E+04        -0.13115E+05         0.00000E+00
    0.00000E+00         0.00000E+00        -0.51069E+04
 
   -0.48654E+04         0.56338E+04         0.00000E+00
    0.56338E+04        -0.12714E+05         0.00000E+00
    0.00000E+00         0.00000E+00        -0.52738E+04
 
   -0.28913E+04        -0.15203E+04         0.00000E+00
   -0.15203E+04         0.16128E+03         0.00000E+00
    0.00000E+00         0.00000E+00        -0.81901E+03
 
   -0.11931E+05        -0.16429E+04         0.00000E+00
   -0.16429E+04         0.29632E+03         0.00000E+00
    0.00000E+00         0.00000E+00        -0.34904E+04
 
   -0.19229E+05         0.78330E+03         0.00000E+00
    0.78330E+03        -0.65384E+03         0.00000E+00
    0.00000E+00         0.00000E+00        -0.59647E+04
 
   -0.22442E+05         0.41340E+04         0.00000E+00
    0.41340E+04        -0.20097E+04         0.00000E+00
    0.00000E+00         0.00000E+00        -0.80180E+04
 
   -0.22260E+05         0.65004E+04         0.00000E+00
    0.65004E+04        -0.40891E+04         0.00000E+00
    0.00000E+00         0.00000E+00        -0.98955E+04
 
   -0.21118E+05         0.81999E+04         0.00000E+00
    0.81999E+04        -0.58707E+04         0.00000E+00
    0.00000E+00         0.00000E+00        -0.10834E+05
 
   -0.19567E+05         0.94564E+04         0.00000E+00
    0.94564E+04        -0.75268E+04         0.00000E+00
    0.00000E+00         0.00000E+00        -0.11143E+05
 
   -0.17700E+05         0.10347E+05         0.00000E+00
    0.10347E+05        -0.90136E+04         0.00000E+00
    0.00000E+00         0.00000E+00        -0.11078E+05
 
   -0.15759E+05         0.10863E+05         0.00000E+00
    0.10863E+05        -0.10249E+05         0.00000E+00
    0.00000E+00         0.00000E+00        -0.10743E+05
 
   -0.13742E+05         0.11108E+05         0.00000E+00
    0.11108E+05        -0.11216E+05         0.00000E+00
    0.00000E+00         0.00000E+00        -0.10200E+05
 
   -0.11787E+05         0.11158E+05         0.00000E+00
    0.11158E+05        -0.11957E+05         0.00000E+00
    0.00000E+00         0.00000E+00        -0.95182E+04
 
   -0.99729E+04         0.11044E+05         0.00000E+00
    0.11044E+05        -0.12504E+05         0.00000E+00
    0.00000E+00         0.00000E+00        -0.87770E+04
 
   -0.83258E+04         0.10809E+05         0.00000E+00
    0.10809E+05        -0.12860E+05         0.00000E+00
    0.00000E+00         0.00000E+00        -0.80405E+04
 
   -0.68060E+04         0.10503E+05         0.00000E+00
    0.10503E+05        -0.13040E+05         0.00000E+00
    0.00000E+00         0.00000E+00        -0.73055E+04
 
   -0.54037E+04         0.10143E+05         0.00000E+00
    0.10143E+05        -0.13110E+05         0.00000E+00
    0.00000E+00         0.00000E+00        -0.65687E+04
 
   -0.41210E+04         0.97449E+04         0.00000E+00
    0.97449E+04        -0.13082E+05         0.00000E+00
    0.00000E+00         0.00000E+00        -0.58544E+04
 
   -0.28775E+04         0.93334E+04         0.00000E+00
    0.93334E+04        -0.12911E+05         0.00000E+00
    0.00000E+00         0.00000E+00        -0.51010E+04
 
   -0.17991E+04         0.88769E+04         0.00000E+00
    0.88769E+04        -0.12743E+05         0.00000E+00
    0.00000E+00         0.00000E+00        -0.44056E+04
 
   -0.18546E+04         0.78607E+04         0.00000E+00
    0.78607E+04        -0.12837E+05         0.00000E+00
    0.00000E+00         0.00000E+00        -0.44074E+04
 
   -0.22320E+04         0.70537E+04         0.00000E+00
    0.70537E+04        -0.12833E+05         0.00000E+00
    0.00000E+00         0.00000E+00        -0.45196E+04
 
   -0.27323E+04         0.64751E+04         0.00000E+00
    0.64751E+04        -0.12716E+05         0.00000E+00
    0.00000E+00         0.00000E+00        -0.46346E+04
 
   -0.33207E+04         0.61011E+04         0.00000E+00
    0.61011E+04        -0.12518E+05         0.00000E+00
    0.00000E+00         0.00000E+00        -0.47515E+04
 
   -0.39835E+04         0.59345E+04         0.00000E+00
    0.59345E+04        -0.12262E+05         0.00000E+00
    0.00000E+00         0.00000E+00        -0.48737E+04
 
   -0.46982E+04         0.59895E+04         0.00000E+00
    0.59895E+04        -0.11971E+05         0.00000E+00
    0.00000E+00         0.00000E+00        -0.50007E+04
 
   -0.47252E+04        -0.11863E+04         0.00000E+00
   -0.11863E+04         0.14523E+03         0.00000E+00
    0.00000E+00         0.00000E+00        -0.13740E+04
 
   -0.11043E+05        -0.16570E+04         0.00000E+00
   -0.16570E+04         0.44006E+03         0.00000E+00
    0.00000E+00         0.00000E+00        -0.31809E+04
 
   -0.16285E+05        -0.96170E+02         0.00000E+00
   -0.96170E+02         0.35520E+03         0.00000E+00
    0.00000E+00         0.00000E+00        -0.47790E+04
 
   -0.19708E+05         0.24485E+04         0.00000E+00
    0.24485E+04        -0.38815E+03         0.00000E+00
    0.00000E+00         0.00000E+00        -0.60289E+04
 
   -0.20405E+05         0.48758E+04         0.00000E+00
    0.48758E+04        -0.18110E+04         0.00000E+00
    0.00000E+00         0.00000E+00        -0.72724E+04
 
   -0.19670E+05         0.66861E+04         0.00000E+00
    0.66861E+04        -0.33719E+04         0.00000E+00
    0.00000E+00         0.00000E+00        -0.82533E+04
 
   -0.18440E+05         0.80357E+04         0.00000E+00
    0.80357E+04        -0.47634E+04         0.00000E+00
    0.00000E+00         0.00000E+00        -0.87193E+04
 
   -0.16901E+05         0.90455E+04         0.00000E+00
    0.90455E+04        -0.60518E+04         0.00000E+00
    0.00000E+00         0.00000E+00        -0.88164E+04
 
   -0.15255E+05         0.97702E+04         0.00000E+00
    0.97702E+04        -0.72184E+04         0.00000E+00
    0.00000E+00         0.00000E+00        -0.86548E+04
 
   -0.13480E+05         0.10223E+05         0.00000E+00
    0.10223E+05        -0.82305E+04         0.00000E+00
    0.00000E+00         0.00000E+00        -0.83161E+04
 
   -0.11719E+05         0.10460E+05         0.00000E+00
    0.10460E+05        -0.90389E+04         0.00000E+00
    0.00000E+00         0.00000E+00        -0.78322E+04
 
   -0.10061E+05         0.10516E+05         0.00000E+00
    0.10516E+05        -0.96760E+04         0.00000E+00
    0.00000E+00         0.00000E+00        -0.72775E+04
 
   -0.85143E+04         0.10445E+05         0.00000E+00
    0.10445E+05        -0.10174E+05         0.00000E+00
    0.00000E+00         0.00000E+00        -0.66799E+04
 
   -0.70689E+04         0.10281E+05         0.00000E+00
    0.10281E+05        -0.10562E+05         0.00000E+00
    0.00000E+00         0.00000E+00        -0.61043E+04
 
   -0.57159E+04         0.10049E+05         0.00000E+00
    0.10049E+05        -0.10768E+05         0.00000E+00
    0.00000E+00         0.00000E+00        -0.55042E+04
 
   -0.44834E+04         0.97449E+04         0.00000E+00
    0.97449E+04        -0.10840E+05         0.00000E+00
    0.00000E+00         0.00000E+00        -0.49171E+04
 
   -0.32465E+04         0.94362E+04         0.00000E+00
    0.94362E+04        -0.10931E+05         0.00000E+00
    0.00000E+00         0.00000E+00        -0.42961E+04
 
   -0.27656E+04         0.85708E+04         0.00000E+00
    0.85708E+04        -0.11296E+05         0.00000E+00
    0.00000E+00         0.00000E+00        -0.42186E+04
 
   -0.26950E+04         0.77254E+04         0.00000E+00
    0.77254E+04        -0.11598E+05         0.00000E+00
    0.00000E+00         0.00000E+00        -0.42878E+04
 
   -0.28632E+04         0.70639E+04         0.00000E+00
    0.70639E+04        -0.11702E+05         0.00000E+00
    0.00000E+00         0.00000E+00        -0.43694E+04
 
   -0.31659E+04         0.65829E+04         0.00000E+00
    0.65829E+04        -0.11685E+05         0.00000E+00
    0.00000E+00         0.00000E+00        -0.44553E+04
 
   -0.35627E+04         0.62802E+04         0.00000E+00
    0.62802E+04        -0.11585E+05         0.00000E+00
    0.00000E+00         0.00000E+00        -0.45442E+04
 
   -0.40235E+04         0.61614E+04         0.00000E+00
    0.61614E+04        -0.11425E+05         0.00000E+00
    0.00000E+00         0.00000E+00        -0.46347E+04
 
   -0.45178E+04         0.62409E+04         0.00000E+00
    0.62409E+04        -0.11231E+05         0.00000E+00
    0.00000E+00         0.00000E+00        -0.47246E+04
 
   -0.62280E+04        -0.87767E+03         0.00000E+00
   -0.87767E+03         0.12573E+03         0.00000E+00
    0.00000E+00         0.00000E+00        -0.18307E+04
 
   -0.10569E+05        -0.13325E+04         0.00000E+00
   -0.13325E+04         0.50335E+03         0.00000E+00
    0.00000E+00         0.00000E+00        -0.30197E+04
 
   -0.14485E+05        -0.34070E+03         0.00000E+00
   -0.34070E+03         0.67731E+03         0.00000E+00
    0.00000E+00         0.00000E+00        -0.41424E+04
 
   -0.17166E+05         0.15168E+04         0.00000E+00
    0.15168E+04         0.33568E+03         0.00000E+00
    0.00000E+00         0.00000E+00        -0.50490E+04
 
   -0.18444E+05         0.36119E+04         0.00000E+00
    0.36119E+04        -0.24790E+03         0.00000E+00
    0.00000E+00         0.00000E+00        -0.56076E+04
 
   -0.18186E+05         0.53903E+04         0.00000E+00
    0.53903E+04        -0.13637E+04         0.00000E+00
    0.00000E+00         0.00000E+00        -0.62240E+04
 
   -0.17264E+05         0.68189E+04         0.00000E+00
    0.68189E+04        -0.26199E+04         0.00000E+00
    0.00000E+00         0.00000E+00        -0.66901E+04
 
   -0.16006E+05         0.79155E+04         0.00000E+00
    0.79155E+04        -0.37536E+04         0.00000E+00
    0.00000E+00         0.00000E+00        -0.68777E+04
 
   -0.14590E+05         0.87132E+04         0.00000E+00
    0.87132E+04        -0.48150E+04         0.00000E+00
    0.00000E+00         0.00000E+00        -0.68676E+04
 
   -0.13057E+05         0.93270E+04         0.00000E+00
    0.93270E+04        -0.57409E+04         0.00000E+00
    0.00000E+00         0.00000E+00        -0.66249E+04
 
   -0.11491E+05         0.97071E+04         0.00000E+00
    0.97071E+04        -0.65745E+04         0.00000E+00
    0.00000E+00         0.00000E+00        -0.62890E+04
 
   -0.99911E+04         0.99222E+04         0.00000E+00
    0.99222E+04        -0.72869E+04         0.00000E+00
    0.00000E+00         0.00000E+00        -0.58800E+04
 
   -0.85688E+04         0.99740E+04         0.00000E+00
    0.99740E+04        -0.78316E+04         0.00000E+00
    0.00000E+00         0.00000E+00        -0.54358E+04
 
   -0.71957E+04         0.99320E+04         0.00000E+00
    0.99320E+04        -0.82081E+04         0.00000E+00
    0.00000E+00         0.00000E+00        -0.49595E+04
 
   -0.59525E+04         0.98142E+04         0.00000E+00
    0.98142E+04        -0.85776E+04         0.00000E+00
    0.00000E+00         0.00000E+00        -0.44987E+04
 
   -0.47766E+04         0.95439E+04         0.00000E+00
    0.95439E+04        -0.90037E+04         0.00000E+00
    0.00000E+00         0.00000E+00        -0.41341E+04
 
   -0.39886E+04         0.88591E+04         0.00000E+00
    0.88591E+04        -0.96437E+04         0.00000E+00
    0.00000E+00         0.00000E+00        -0.40897E+04
 
   -0.35534E+04         0.81562E+04         0.00000E+00
    0.81562E+04        -0.10189E+05         0.00000E+00
    0.00000E+00         0.00000E+00        -0.41228E+04
 
   -0.33662E+04         0.75128E+04         0.00000E+00
    0.75128E+04        -0.10508E+05         0.00000E+00
    0.00000E+00         0.00000E+00        -0.41623E+04
 
   -0.33754E+04         0.69891E+04         0.00000E+00
    0.69891E+04        -0.10675E+05         0.00000E+00
    0.00000E+00         0.00000E+00        -0.42150E+04
 
   -0.35166E+04         0.66061E+04         0.00000E+00
    0.66061E+04        -0.10730E+05         0.00000E+00
    0.00000E+00         0.00000E+00        -0.42738E+04
 
   -0.37457E+04         0.63731E+04         0.00000E+00
    0.63731E+04        -0.10704E+05         0.00000E+00
    0.00000E+00         0.00000E+00        -0.43349E+04
 
   -0.40282E+04         0.63004E+04         0.00000E+00
    0.63004E+04        -0.10623E+05         0.00000E+00
    0.00000E+00         0.00000E+00        -0.43955E+04
 
   -0.43288E+04         0.64007E+04         0.00000E+00
    0.64007E+04        -0.10512E+05         0.00000E+00
    0.00000E+00         0.00000E+00        -0.44522E+04
 
   -0.73267E+04        -0.60334E+03         0.00000E+00
   -0.60334E+03         0.10634E+03         0.00000E+00
    0.00000E+00         0.00000E+00        -0.21661E+04
 
   -0.10321E+05        -0.94959E+03         0.00000E+00
   -0.94959E+03         0.44810E+03         0.00000E+00
    0.00000E+00         0.00000E+00        -0.29620E+04
 
   -0.13202E+05        -0.26291E+03         0.00000E+00
   -0.26291E+03         0.73732E+03         0.00000E+00
    0.00000E+00         0.00000E+00        -0.37395E+04
 
   -0.15347E+05         0.11434E+04         0.00000E+00
    0.11434E+04         0.71860E+03         0.00000E+00
    0.00000E+00         0.00000E+00        -0.43886E+04
 
   -0.16498E+05         0.28276E+04         0.00000E+00
    0.28276E+04         0.28786E+03         0.00000E+00
    0.00000E+00         0.00000E+00        -0.48629E+04
 
   -0.16662E+05         0.44507E+04         0.00000E+00
    0.44507E+04        -0.22813E+03         0.00000E+00
    0.00000E+00         0.00000E+00        -0.50670E+04
 
   -0.16086E+05         0.58297E+04         0.00000E+00
    0.58297E+04        -0.90430E+03         0.00000E+00
    0.00000E+00         0.00000E+00        -0.51718E+04
 
   -0.15076E+05         0.69049E+04         0.00000E+00
    0.69049E+04        -0.18697E+04         0.00000E+00
    0.00000E+00         0.00000E+00        -0.53311E+04
 
   -0.13851E+05         0.78024E+04         0.00000E+00
    0.78024E+04        -0.27909E+04         0.00000E+00
    0.00000E+00         0.00000E+00        -0.53363E+04
 
   -0.12512E+05         0.84782E+04         0.00000E+00
    0.84782E+04        -0.36547E+04         0.00000E+00
    0.00000E+00         0.00000E+00        -0.51924E+04
 
   -0.11139E+05         0.89548E+04         0.00000E+00
    0.89548E+04        -0.44173E+04         0.00000E+00
    0.00000E+00         0.00000E+00        -0.49567E+04
 
   -0.97964E+04         0.92664E+04         0.00000E+00
    0.92664E+04        -0.50948E+04         0.00000E+00
    0.00000E+00         0.00000E+00        -0.46490E+04
 
   -0.85074E+04         0.94676E+04         0.00000E+00
    0.94676E+04        -0.57357E+04         0.00000E+00
    0.00000E+00         0.00000E+00        -0.43209E+04
 
   -0.72889E+04         0.94254E+04         0.00000E+00
    0.94254E+04        -0.64617E+04         0.00000E+00
    0.00000E+00         0.00000E+00        -0.41262E+04
 
   -0.61861E+04         0.91763E+04         0.00000E+00
    0.91763E+04        -0.72446E+04         0.00000E+00
    0.00000E+00         0.00000E+00        -0.40292E+04
 
   -0.52972E+04         0.87700E+04         0.00000E+00
    0.87700E+04        -0.80729E+04         0.00000E+00
    0.00000E+00         0.00000E+00        -0.40110E+04
 
   -0.46139E+04         0.82746E+04         0.00000E+00
    0.82746E+04        -0.87319E+04         0.00000E+00
    0.00000E+00         0.00000E+00        -0.40038E+04
 
   -0.41433E+04         0.77442E+04         0.00000E+00
    0.77442E+04        -0.92059E+04         0.00000E+00
    0.00000E+00         0.00000E+00        -0.40048E+04
 
   -0.38830E+04         0.72607E+04         0.00000E+00
    0.72607E+04        -0.95377E+04         0.00000E+00
    0.00000E+00         0.00000E+00        -0.40262E+04
 
   -0.37772E+04         0.68589E+04         0.00000E+00
    0.68589E+04        -0.97416E+04         0.00000E+00
    0.00000E+00         0.00000E+00        -0.40557E+04
 
   -0.37871E+04         0.65657E+04         0.00000E+00
    0.65657E+04        -0.98474E+04         0.00000E+00
    0.00000E+00         0.00000E+00        -0.40903E+04
 
   -0.38734E+04         0.63971E+04         0.00000E+00
    0.63971E+04        -0.98807E+04         0.00000E+00
    0.00000E+00         0.00000E+00        -0.41262E+04
 
   -0.40013E+04         0.63656E+04         0.00000E+00
    0.63656E+04        -0.98649E+04         0.00000E+00
    0.00000E+00         0.00000E+00        -0.41598E+04
 
   -0.41353E+04         0.64824E+04         0.00000E+00
    0.64824E+04        -0.98229E+04         0.00000E+00
    0.00000E+00         0.00000E+00        -0.41875E+04
 
   -0.80634E+04        -0.38418E+03         0.00000E+00
   -0.38418E+03         0.81835E+02         0.00000E+00
    0.00000E+00         0.00000E+00        -0.23945E+04
 
   -0.10143E+05        -0.58726E+03         0.00000E+00
   -0.58726E+03         0.36749E+03         0.00000E+00
    0.00000E+00         0.00000E+00        -0.29326E+04
 
   -0.12245E+05        -0.60720E+02         0.00000E+00
   -0.60720E+02         0.66162E+03         0.00000E+00
    0.00000E+00         0.00000E+00        -0.34749E+04
 
   -0.13927E+05         0.10246E+04         0.00000E+00
    0.10246E+04         0.75554E+03         0.00000E+00
    0.00000E+00         0.00000E+00        -0.39513E+04
 
   -0.14926E+05         0.24157E+04         0.00000E+00
    0.24157E+04         0.58298E+03         0.00000E+00
    0.00000E+00         0.00000E+00        -0.43029E+04
 
   -0.15194E+05         0.38418E+04         0.00000E+00
    0.38418E+04         0.13782E+03         0.00000E+00
    0.00000E+00         0.00000E+00        -0.45167E+04
 
   -0.14878E+05         0.50910E+04         0.00000E+00
    0.50910E+04        -0.46309E+03         0.00000E+00
    0.00000E+00         0.00000E+00        -0.46023E+04
 
   -0.14110E+05         0.61595E+04         0.00000E+00
    0.61595E+04        -0.10043E+04         0.00000E+00
    0.00000E+00         0.00000E+00        -0.45343E+04
 
   -0.13083E+05         0.70369E+04         0.00000E+00
    0.70369E+04        -0.16359E+04         0.00000E+00
    0.00000E+00         0.00000E+00        -0.44158E+04
 
   -0.11939E+05         0.77096E+04         0.00000E+00
    0.77096E+04        -0.23688E+04         0.00000E+00
    0.00000E+00         0.00000E+00        -0.42924E+04
 
   -0.10749E+05         0.82010E+04         0.00000E+00
    0.82010E+04        -0.31749E+04         0.00000E+00
    0.00000E+00         0.00000E+00        -0.41771E+04
 
   -0.95549E+04         0.85003E+04         0.00000E+00
    0.85003E+04        -0.40346E+04         0.00000E+00
    0.00000E+00         0.00000E+00        -0.40769E+04
 
   -0.84581E+04         0.86038E+04         0.00000E+00
    0.86038E+04        -0.49553E+04         0.00000E+00
    0.00000E+00         0.00000E+00        -0.40240E+04
 
   -0.74360E+04         0.85729E+04         0.00000E+00
    0.85729E+04        -0.58279E+04         0.00000E+00
    0.00000E+00         0.00000E+00        -0.39792E+04
 
   -0.64895E+04         0.83887E+04         0.00000E+00
    0.83887E+04        -0.66212E+04         0.00000E+00
    0.00000E+00         0.00000E+00        -0.39332E+04
 
   -0.56880E+04         0.80869E+04         0.00000E+00
    0.80869E+04        -0.73031E+04         0.00000E+00
    0.00000E+00         0.00000E+00        -0.38973E+04
 
   -0.50579E+04         0.77295E+04         0.00000E+00
    0.77295E+04        -0.78795E+04         0.00000E+00
    0.00000E+00         0.00000E+00        -0.38812E+04
 
   -0.45879E+04         0.73481E+04         0.00000E+00
    0.73481E+04        -0.83339E+04         0.00000E+00
    0.00000E+00         0.00000E+00        -0.38766E+04
 
   -0.42707E+04         0.69890E+04         0.00000E+00
    0.69890E+04        -0.86642E+04         0.00000E+00
    0.00000E+00         0.00000E+00        -0.38805E+04
 
   -0.40810E+04         0.66906E+04         0.00000E+00
    0.66906E+04        -0.88915E+04         0.00000E+00
    0.00000E+00         0.00000E+00        -0.38917E+04
 
   -0.39852E+04         0.64768E+04         0.00000E+00
    0.64768E+04        -0.90347E+04         0.00000E+00
    0.00000E+00         0.00000E+00        -0.39060E+04
 
   -0.39515E+04         0.63654E+04         0.00000E+00
    0.63654E+04        -0.91147E+04         0.00000E+00
    0.00000E+00         0.00000E+00        -0.39199E+04
 
   -0.39478E+04         0.63691E+04         0.00000E+00
    0.63691E+04        -0.91523E+04         0.00000E+00
    0.00000E+00         0.00000E+00        -0.39300E+04
 
   -0.39406E+04         0.64983E+04         0.00000E+00
    0.64983E+04        -0.91687E+04         0.00000E+00
    0.00000E+00         0.00000E+00        -0.39328E+04
 
   -0.85016E+04        -0.21789E+03         0.00000E+00
   -0.21789E+03         0.61070E+02         0.00000E+00
    0.00000E+00         0.00000E+00        -0.25322E+04
 
   -0.99634E+04        -0.28471E+03         0.00000E+00
   -0.28471E+03         0.28273E+03         0.00000E+00
    0.00000E+00         0.00000E+00        -0.29042E+04
 
   -0.11498E+05         0.15661E+03         0.00000E+00
    0.15661E+03         0.53322E+03         0.00000E+00
    0.00000E+00         0.00000E+00        -0.32896E+04
 
   -0.12784E+05         0.10246E+04         0.00000E+00
    0.10246E+04         0.65761E+03         0.00000E+00
    0.00000E+00         0.00000E+00        -0.36378E+04
 
   -0.13614E+05         0.21558E+04         0.00000E+00
    0.21558E+04         0.56718E+03         0.00000E+00
    0.00000E+00         0.00000E+00        -0.39142E+04
 
   -0.13923E+05         0.33663E+04         0.00000E+00
    0.33663E+04         0.25678E+03         0.00000E+00
    0.00000E+00         0.00000E+00        -0.40997E+04
 
   -0.13741E+05         0.45188E+04         0.00000E+00
    0.45188E+04        -0.21706E+03         0.00000E+00
    0.00000E+00         0.00000E+00        -0.41875E+04
 
   -0.13172E+05         0.55225E+04         0.00000E+00
    0.55225E+04        -0.81824E+03         0.00000E+00
    0.00000E+00         0.00000E+00        -0.41972E+04
 
   -0.12345E+05         0.63284E+04         0.00000E+00
    0.63284E+04        -0.14903E+04         0.00000E+00
    0.00000E+00         0.00000E+00        -0.41506E+04
 
   -0.11387E+05         0.69439E+04         0.00000E+00
    0.69439E+04        -0.22139E+04         0.00000E+00
    0.00000E+00         0.00000E+00        -0.40803E+04
 
   -0.10374E+05         0.73850E+04         0.00000E+00
    0.73850E+04        -0.29777E+04         0.00000E+00
    0.00000E+00         0.00000E+00        -0.40054E+04
 
   -0.93658E+04         0.76557E+04         0.00000E+00
    0.76557E+04        -0.37669E+04         0.00000E+00
    0.00000E+00         0.00000E+00        -0.39398E+04
 
   -0.84072E+04         0.77792E+04         0.00000E+00
    0.77792E+04        -0.45409E+04         0.00000E+00
    0.00000E+00         0.00000E+00        -0.38844E+04
 
   -0.75128E+04         0.77877E+04         0.00000E+00
    0.77877E+04        -0.52884E+04         0.00000E+00
    0.00000E+00         0.00000E+00        -0.38403E+04
 
   -0.66897E+04         0.76837E+04         0.00000E+00
    0.76837E+04        -0.59855E+04         0.00000E+00
    0.00000E+00         0.00000E+00        -0.38026E+04
 
   -0.59705E+04         0.74860E+04         0.00000E+00
    0.74860E+04        -0.66026E+04         0.00000E+00
    0.00000E+00         0.00000E+00        -0.37719E+04
 
   -0.53761E+04         0.72338E+04         0.00000E+00
    0.72338E+04        -0.71233E+04         0.00000E+00
    0.00000E+00         0.00000E+00        -0.37498E+04
 
   -0.49075E+04         0.69637E+04         0.00000E+00
    0.69637E+04        -0.75466E+04         0.00000E+00
    0.00000E+00         0.00000E+00        -0.37362E+04
 
   -0.45548E+04         0.67079E+04         0.00000E+00
    0.67079E+04        -0.78743E+04         0.00000E+00
    0.00000E+00         0.00000E+00        -0.37287E+04
 
   -0.43002E+04         0.64958E+04         0.00000E+00
    0.64958E+04        -0.81159E+04         0.00000E+00
    0.00000E+00         0.00000E+00        -0.37248E+04
 
   -0.41199E+04         0.63503E+04         0.00000E+00
    0.63503E+04        -0.82870E+04         0.00000E+00
    0.00000E+00         0.00000E+00        -0.37221E+04
 
   -0.39868E+04         0.62880E+04         0.00000E+00
    0.62880E+04        -0.84044E+04         0.00000E+00
    0.00000E+00         0.00000E+00        -0.37174E+04
 
   -0.38726E+04         0.63214E+04         0.00000E+00
    0.63214E+04        -0.84861E+04         0.00000E+00
    0.00000E+00         0.00000E+00        -0.37076E+04
 
   -0.37472E+04         0.64592E+04         0.00000E+00
    0.64592E+04        -0.85510E+04         0.00000E+00
    0.00000E+00         0.00000E+00        -0.36895E+04
 
   -0.87105E+04        -0.97310E+02         0.00000E+00
   -0.97310E+02         0.43887E+02         0.00000E+00
    0.00000E+00         0.00000E+00        -0.26000E+04
 
   -0.97593E+04        -0.52608E+02         0.00000E+00
   -0.52608E+02         0.20647E+03         0.00000E+00
    0.00000E+00         0.00000E+00        -0.28658E+04
 
   -0.10885E+05         0.34341E+03         0.00000E+00
    0.34341E+03         0.39951E+03         0.00000E+00
    0.00000E+00         0.00000E+00        -0.31456E+04
 
   -0.11860E+05         0.10545E+04         0.00000E+00
    0.10545E+04         0.50597E+03         0.00000E+00
    0.00000E+00         0.00000E+00        -0.34063E+04
 
   -0.12528E+05         0.19809E+04         0.00000E+00
    0.19809E+04         0.45279E+03         0.00000E+00
    0.00000E+00         0.00000E+00        -0.36226E+04
 
   -0.12814E+05         0.30005E+04         0.00000E+00
    0.30005E+04         0.21734E+03         0.00000E+00
    0.00000E+00         0.00000E+00        -0.37789E+04
 
   -0.12720E+05         0.40003E+04         0.00000E+00
    0.40003E+04        -0.18710E+03         0.00000E+00
    0.00000E+00         0.00000E+00        -0.38723E+04
 
   -0.12306E+05         0.48960E+04         0.00000E+00
    0.48960E+04        -0.72258E+03         0.00000E+00
    0.00000E+00         0.00000E+00        -0.39086E+04
 
   -0.11661E+05         0.56389E+04         0.00000E+00
    0.56389E+04        -0.13486E+04         0.00000E+00
    0.00000E+00         0.00000E+00        -0.39029E+04
 
   -0.10876E+05         0.62159E+04         0.00000E+00
    0.62159E+04        -0.20260E+04         0.00000E+00
    0.00000E+00         0.00000E+00        -0.38707E+04
 
   -0.10026E+05         0.66344E+04         0.00000E+00
    0.66344E+04        -0.27302E+04         0.00000E+00
    0.00000E+00         0.00000E+00        -0.38269E+04
 
   -0.91645E+04         0.69083E+04         0.00000E+00
    0.69083E+04        -0.34382E+04         0.00000E+00
    0.00000E+00         0.00000E+00        -0.37808E+04
 
   -0.83283E+04         0.70575E+04         0.00000E+00
    0.70575E+04        -0.41308E+04         0.00000E+00
    0.00000E+00         0.00000E+00        -0.37377E+04
 
   -0.75377E+04         0.71025E+04         0.00000E+00
    0.71025E+04        -0.47918E+04         0.00000E+00
    0.00000E+00         0.00000E+00        -0.36988E+04
 
   -0.68079E+04         0.70578E+04         0.00000E+00
    0.70578E+04        -0.54078E+04         0.00000E+00
    0.00000E+00         0.00000E+00        -0.36647E+04
 
   -0.61562E+04         0.69406E+04         0.00000E+00
    0.69406E+04        -0.59611E+04         0.00000E+00
    0.00000E+00         0.00000E+00        -0.36352E+04
 
   -0.55959E+04         0.67769E+04         0.00000E+00
    0.67769E+04        -0.64390E+04         0.00000E+00
    0.00000E+00         0.00000E+00        -0.36105E+04
 
   -0.51300E+04         0.65953E+04         0.00000E+00
    0.65953E+04        -0.68370E+04         0.00000E+00
    0.00000E+00         0.00000E+00        -0.35901E+04
 
   -0.47521E+04         0.64227E+04         0.00000E+00
    0.64227E+04        -0.71577E+04         0.00000E+00
    0.00000E+00         0.00000E+00        -0.35729E+04
 
   -0.44484E+04         0.62826E+04         0.00000E+00
    0.62826E+04        -0.74084E+04         0.00000E+00
    0.00000E+00         0.00000E+00        -0.35571E+04
 
   -0.42004E+04         0.61945E+04         0.00000E+00
    0.61945E+04        -0.76003E+04         0.00000E+00
    0.00000E+00         0.00000E+00        -0.35402E+04
 
   -0.39859E+04         0.61737E+04         0.00000E+00
    0.61737E+04        -0.77474E+04         0.00000E+00
    0.00000E+00         0.00000E+00        -0.35200E+04
 
   -0.37803E+04         0.62312E+04         0.00000E+00
    0.62312E+04        -0.78650E+04         0.00000E+00
    0.00000E+00         0.00000E+00        -0.34936E+04
 
   -0.35571E+04         0.63747E+04         0.00000E+00
    0.63747E+04        -0.79698E+04         0.00000E+00
    0.00000E+00         0.00000E+00        -0.34581E+04
 
   -0.87529E+04        -0.13758E+02         0.00000E+00
   -0.13758E+02         0.30478E+02         0.00000E+00
    0.00000E+00         0.00000E+00        -0.26167E+04
 
   -0.95265E+04         0.11389E+03         0.00000E+00
    0.11389E+03         0.14383E+03         0.00000E+00
    0.00000E+00         0.00000E+00        -0.28148E+04
 
   -0.10361E+05         0.48267E+03         0.00000E+00
    0.48267E+03         0.28022E+03         0.00000E+00
    0.00000E+00         0.00000E+00        -0.30243E+04
 
   -0.11101E+05         0.10806E+04         0.00000E+00
    0.10806E+04         0.35549E+03         0.00000E+00
    0.00000E+00         0.00000E+00        -0.32236E+04
 
   -0.11626E+05         0.18478E+04         0.00000E+00
    0.18478E+04         0.31008E+03         0.00000E+00
    0.00000E+00         0.00000E+00        -0.33949E+04
 
   -0.11873E+05         0.27004E+04         0.00000E+00
    0.27004E+04         0.11645E+03         0.00000E+00
    0.00000E+00         0.00000E+00        -0.35270E+04
 
   -0.11830E+05         0.35539E+04         0.00000E+00
    0.35539E+04        -0.22301E+03         0.00000E+00
    0.00000E+00         0.00000E+00        -0.36159E+04
 
   -0.11529E+05         0.43393E+04         0.00000E+00
    0.43393E+04        -0.68564E+03         0.00000E+00
    0.00000E+00         0.00000E+00        -0.36643E+04
 
   -0.11027E+05         0.50113E+04         0.00000E+00
    0.50113E+04        -0.12374E+04         0.00000E+00
    0.00000E+00         0.00000E+00        -0.36795E+04
 
   -0.10392E+05         0.55505E+04         0.00000E+00
    0.55505E+04        -0.18444E+04         0.00000E+00
    0.00000E+00         0.00000E+00        -0.36711E+04
 
   -0.96834E+04         0.59559E+04         0.00000E+00
    0.59559E+04        -0.24773E+04         0.00000E+00
    0.00000E+00         0.00000E+00        -0.36482E+04
 
   -0.89474E+04         0.62375E+04         0.00000E+00
    0.62375E+04        -0.31133E+04         0.00000E+00
    0.00000E+00         0.00000E+00        -0.36182E+04
 
   -0.82180E+04         0.64109E+04         0.00000E+00
    0.64109E+04        -0.37345E+04         0.00000E+00
    0.00000E+00         0.00000E+00        -0.35857E+04
 
   -0.75176E+04         0.64926E+04         0.00000E+00
    0.64926E+04        -0.43271E+04         0.00000E+00
    0.00000E+00         0.00000E+00        -0.35534E+04
 
   -0.68624E+04         0.64982E+04         0.00000E+00
    0.64982E+04        -0.48792E+04         0.00000E+00
    0.00000E+00         0.00000E+00        -0.35225E+04
 
   -0.62653E+04         0.64446E+04         0.00000E+00
    0.64446E+04        -0.53796E+04         0.00000E+00
    0.00000E+00         0.00000E+00        -0.34934E+04
 
   -0.57351E+04         0.63519E+04         0.00000E+00
    0.63519E+04        -0.58194E+04         0.00000E+00
    0.00000E+00         0.00000E+00        -0.34664E+04
 
   -0.52743E+04         0.62423E+04         0.00000E+00
    0.62423E+04        -0.61950E+04         0.00000E+00
    0.00000E+00         0.00000E+00        -0.34408E+04
 
   -0.48785E+04         0.61373E+04         0.00000E+00
    0.61373E+04        -0.65078E+04         0.00000E+00
    0.00000E+00         0.00000E+00        -0.34159E+04
 
   -0.45373E+04         0.60565E+04         0.00000E+00
    0.60565E+04        -0.67634E+04         0.00000E+00
    0.00000E+00         0.00000E+00        -0.33902E+04
 
   -0.42356E+04         0.60161E+04         0.00000E+00
    0.60161E+04        -0.69706E+04         0.00000E+00
    0.00000E+00         0.00000E+00        -0.33619E+04
 
   -0.39551E+04         0.60295E+04         0.00000E+00
    0.60295E+04        -0.71410E+04         0.00000E+00
    0.00000E+00         0.00000E+00        -0.33288E+04
 
   -0.36748E+04         0.61063E+04         0.00000E+00
    0.61063E+04        -0.72876E+04         0.00000E+00
    0.00000E+00         0.00000E+00        -0.32887E+04
 
   -0.33716E+04         0.62530E+04         0.00000E+00
    0.62530E+04        -0.74250E+04         0.00000E+00
    0.00000E+00         0.00000E+00        -0.32390E+04
 
   -0.86808E+04         0.41364E+02         0.00000E+00
    0.41364E+02         0.20470E+02         0.00000E+00
    0.00000E+00         0.00000E+00        -0.25981E+04
 
   -0.92711E+04         0.22537E+03         0.00000E+00
    0.22537E+03         0.95285E+02         0.00000E+00
    0.00000E+00         0.00000E+00        -0.27527E+04
 
   -0.99012E+04         0.57477E+03         0.00000E+00
    0.57477E+03         0.18368E+03         0.00000E+00
    0.00000E+00         0.00000E+00        -0.29153E+04
 
   -0.10465E+05         0.10892E+04         0.00000E+00
    0.10892E+04         0.22607E+03         0.00000E+00
    0.00000E+00         0.00000E+00        -0.30715E+04
 
   -0.10875E+05         0.17324E+04         0.00000E+00
    0.17324E+04         0.17631E+03         0.00000E+00
    0.00000E+00         0.00000E+00        -0.32095E+04
 
   -0.11079E+05         0.24481E+04         0.00000E+00
    0.24481E+04         0.93275E+01         0.00000E+00
    0.00000E+00         0.00000E+00        -0.33210E+04
 
   -0.11063E+05         0.31745E+04         0.00000E+00
    0.31745E+04        -0.27846E+03         0.00000E+00
    0.00000E+00         0.00000E+00        -0.34023E+04
 
   -0.10840E+05         0.38579E+04         0.00000E+00
    0.38579E+04        -0.67312E+03         0.00000E+00
    0.00000E+00         0.00000E+00        -0.34539E+04
 
   -0.10448E+05         0.44596E+04         0.00000E+00
    0.44596E+04        -0.11503E+04         0.00000E+00
    0.00000E+00         0.00000E+00        -0.34796E+04
 
   -0.99343E+04         0.49587E+04         0.00000E+00
    0.49587E+04        -0.16820E+04         0.00000E+00
    0.00000E+00         0.00000E+00        -0.34849E+04
 
   -0.93435E+04         0.53493E+04         0.00000E+00
    0.53493E+04        -0.22421E+04         0.00000E+00
    0.00000E+00         0.00000E+00        -0.34757E+04
 
   -0.87151E+04         0.56362E+04         0.00000E+00
    0.56362E+04        -0.28089E+04         0.00000E+00
    0.00000E+00         0.00000E+00        -0.34572E+04
 
   -0.80789E+04         0.58301E+04         0.00000E+00
    0.58301E+04        -0.33653E+04         0.00000E+00
    0.00000E+00         0.00000E+00        -0.34333E+04
 
   -0.74568E+04         0.59442E+04         0.00000E+00
    0.59442E+04        -0.38982E+04         0.00000E+00
    0.00000E+00         0.00000E+00        -0.34065E+04
 
   -0.68645E+04         0.59927E+04         0.00000E+00
    0.59927E+04        -0.43968E+04         0.00000E+00
    0.00000E+00         0.00000E+00        -0.33784E+04
 
   -0.63130E+04         0.59908E+04         0.00000E+00
    0.59908E+04        -0.48526E+04         0.00000E+00
    0.00000E+00         0.00000E+00        -0.33497E+04
 
   -0.58092E+04         0.59554E+04         0.00000E+00
    0.59554E+04        -0.52594E+04         0.00000E+00
    0.00000E+00         0.00000E+00        -0.33206E+04
 
   -0.53551E+04         0.59040E+04         0.00000E+00
    0.59040E+04        -0.56143E+04         0.00000E+00
    0.00000E+00         0.00000E+00        -0.32908E+04
 
   -0.49472E+04         0.58541E+04         0.00000E+00
    0.58541E+04        -0.59184E+04         0.00000E+00
    0.00000E+00         0.00000E+00        -0.32597E+04
 
   -0.45773E+04         0.58217E+04         0.00000E+00
    0.58217E+04        -0.61760E+04         0.00000E+00
    0.00000E+00         0.00000E+00        -0.32260E+04
 
   -0.42334E+04         0.58205E+04         0.00000E+00
    0.58205E+04        -0.63942E+04         0.00000E+00
    0.00000E+00         0.00000E+00        -0.31883E+04
 
   -0.39001E+04         0.58617E+04         0.00000E+00
    0.58617E+04        -0.65826E+04         0.00000E+00
    0.00000E+00         0.00000E+00        -0.31448E+04
 
   -0.35596E+04         0.59535E+04         0.00000E+00
    0.59535E+04        -0.67523E+04         0.00000E+00
    0.00000E+00         0.00000E+00        -0.30936E+04
 
   -0.31920E+04         0.61012E+04         0.00000E+00
    0.61012E+04        -0.69158E+04         0.00000E+00
    0.00000E+00         0.00000E+00        -0.30323E+04
 
   -0.85347E+04         0.75529E+02         0.00000E+00
    0.75529E+02         0.13258E+02         0.00000E+00
    0.00000E+00         0.00000E+00        -0.25564E+04
 
   -0.90020E+04         0.29394E+03         0.00000E+00
    0.29394E+03         0.59419E+02         0.00000E+00
    0.00000E+00         0.00000E+00        -0.26828E+04
 
   -0.94883E+04         0.62648E+03         0.00000E+00
    0.62648E+03         0.11014E+03         0.00000E+00
    0.00000E+00         0.00000E+00        -0.28135E+04
 
   -0.99222E+04         0.10773E+04         0.00000E+00
    0.10773E+04         0.12399E+03         0.00000E+00
    0.00000E+00         0.00000E+00        -0.29395E+04
 
   -0.10242E+05         0.16246E+04         0.00000E+00
    0.16246E+04         0.66607E+02         0.00000E+00
    0.00000E+00         0.00000E+00        -0.30527E+04
 
   -0.10408E+05         0.22306E+04         0.00000E+00
    0.22306E+04        -0.82916E+02         0.00000E+00
    0.00000E+00         0.00000E+00        -0.31472E+04
 
   -0.10403E+05         0.28511E+04         0.00000E+00
    0.28511E+04        -0.33017E+03         0.00000E+00
    0.00000E+00         0.00000E+00        -0.32199E+04
 
   -0.10233E+05         0.34453E+04         0.00000E+00
    0.34453E+04        -0.66736E+03         0.00000E+00
    0.00000E+00         0.00000E+00        -0.32703E+04
 
   -0.99232E+04         0.39814E+04         0.00000E+00
    0.39814E+04        -0.10774E+04         0.00000E+00
    0.00000E+00         0.00000E+00        -0.33002E+04
 
   -0.95040E+04         0.44398E+04         0.00000E+00
    0.44398E+04        -0.15389E+04         0.00000E+00
    0.00000E+00         0.00000E+00        -0.33128E+04
 
   -0.90098E+04         0.48124E+04         0.00000E+00
    0.48124E+04        -0.20301E+04         0.00000E+00
    0.00000E+00         0.00000E+00        -0.33120E+04
 
   -0.84719E+04         0.50998E+04         0.00000E+00
    0.50998E+04        -0.25320E+04         0.00000E+00
    0.00000E+00         0.00000E+00        -0.33012E+04
 
   -0.79159E+04         0.53088E+04         0.00000E+00
    0.53088E+04        -0.30286E+04         0.00000E+00
    0.00000E+00         0.00000E+00        -0.32834E+04
 
   -0.73615E+04         0.54493E+04         0.00000E+00
    0.54493E+04        -0.35076E+04         0.00000E+00
    0.00000E+00         0.00000E+00        -0.32607E+04
 
   -0.68232E+04         0.55332E+04         0.00000E+00
    0.55332E+04        -0.39593E+04         0.00000E+00
    0.00000E+00         0.00000E+00        -0.32348E+04
 
   -0.63111E+04         0.55736E+04         0.00000E+00
    0.55736E+04        -0.43764E+04         0.00000E+00
    0.00000E+00         0.00000E+00        -0.32062E+04
 
   -0.58309E+04         0.55843E+04         0.00000E+00
    0.55843E+04        -0.47539E+04         0.00000E+00
    0.00000E+00         0.00000E+00        -0.31754E+04
 
   -0.53843E+04         0.55800E+04         0.00000E+00
    0.55800E+04        -0.50897E+04         0.00000E+00
    0.00000E+00         0.00000E+00        -0.31422E+04
 
   -0.49687E+04         0.55748E+04         0.00000E+00
    0.55748E+04        -0.53845E+04         0.00000E+00
    0.00000E+00         0.00000E+00        -0.31060E+04
 
   -0.45775E+04         0.55817E+04         0.00000E+00
    0.55817E+04        -0.56419E+04         0.00000E+00
    0.00000E+00         0.00000E+00        -0.30658E+04
 
   -0.42009E+04         0.56122E+04         0.00000E+00
    0.56122E+04        -0.58676E+04         0.00000E+00
    0.00000E+00         0.00000E+00        -0.30205E+04
 
   -0.38260E+04         0.56755E+04         0.00000E+00
    0.56755E+04        -0.60695E+04         0.00000E+00
    0.00000E+00         0.00000E+00        -0.29687E+04
 
   -0.34377E+04         0.57785E+04         0.00000E+00
    0.57785E+04        -0.62572E+04         0.00000E+00
    0.00000E+00         0.00000E+00        -0.29085E+04
 
   -0.30192E+04         0.59253E+04         0.00000E+00
    0.59253E+04        -0.64411E+04         0.00000E+00
    0.00000E+00         0.00000E+00        -0.28381E+04
 
   -0.83448E+04         0.94801E+02         0.00000E+00
    0.94801E+02         0.82355E+01         0.00000E+00
    0.00000E+00         0.00000E+00        -0.25010E+04
 
   -0.87279E+04         0.33073E+03         0.00000E+00
    0.33073E+03         0.33926E+02         0.00000E+00
    0.00000E+00         0.00000E+00        -0.26082E+04
 
   -0.91129E+04         0.64656E+03         0.00000E+00
    0.64656E+03         0.56752E+02         0.00000E+00
    0.00000E+00         0.00000E+00        -0.27169E+04
 
   -0.94522E+04         0.10473E+04         0.00000E+00
    0.10473E+04         0.48374E+02         0.00000E+00
    0.00000E+00         0.00000E+00        -0.28212E+04
 
   -0.97029E+04         0.15200E+04         0.00000E+00
    0.15200E+04        -0.16160E+02         0.00000E+00
    0.00000E+00         0.00000E+00        -0.29157E+04
 
   -0.98346E+04         0.20390E+04         0.00000E+00
    0.20390E+04        -0.15331E+03         0.00000E+00
    0.00000E+00         0.00000E+00        -0.29964E+04
 
   -0.98331E+04         0.25729E+04         0.00000E+00
    0.25729E+04        -0.36896E+03         0.00000E+00
    0.00000E+00         0.00000E+00        -0.30606E+04
 
   -0.97000E+04         0.30911E+04         0.00000E+00
    0.30911E+04        -0.65900E+03         0.00000E+00
    0.00000E+00         0.00000E+00        -0.31077E+04
 
   -0.94493E+04         0.35684E+04         0.00000E+00
    0.35684E+04        -0.10118E+04         0.00000E+00
    0.00000E+00         0.00000E+00        -0.31383E+04
 
   -0.91030E+04         0.39877E+04         0.00000E+00
    0.39877E+04        -0.14114E+04         0.00000E+00
    0.00000E+00         0.00000E+00        -0.31543E+04
 
   -0.86862E+04         0.43399E+04         0.00000E+00
    0.43399E+04        -0.18406E+04         0.00000E+00
    0.00000E+00         0.00000E+00        -0.31580E+04
 
   -0.82231E+04         0.46234E+04         0.00000E+00
    0.46234E+04        -0.22832E+04         0.00000E+00
    0.00000E+00         0.00000E+00        -0.31519E+04
 
   -0.77348E+04         0.48419E+04         0.00000E+00
    0.48419E+04        -0.27253E+04         0.00000E+00
    0.00000E+00         0.00000E+00        -0.31380E+04
 
   -0.72384E+04         0.50024E+04         0.00000E+00
    0.50024E+04        -0.31556E+04         0.00000E+00
    0.00000E+00         0.00000E+00        -0.31182E+04
 
   -0.67469E+04         0.51144E+04         0.00000E+00
    0.51144E+04        -0.35653E+04         0.00000E+00
    0.00000E+00         0.00000E+00        -0.30936E+04
 
   -0.62691E+04         0.51886E+04         0.00000E+00
    0.51886E+04        -0.39477E+04         0.00000E+00
    0.00000E+00         0.00000E+00        -0.30650E+04
 
   -0.58102E+04         0.52364E+04         0.00000E+00
    0.52364E+04        -0.42988E+04         0.00000E+00
    0.00000E+00         0.00000E+00        -0.30327E+04
 
   -0.53719E+04         0.52699E+04         0.00000E+00
    0.52699E+04        -0.46166E+04         0.00000E+00
    0.00000E+00         0.00000E+00        -0.29966E+04
 
   -0.49521E+04         0.53005E+04         0.00000E+00
    0.53005E+04        -0.49018E+04         0.00000E+00
    0.00000E+00         0.00000E+00        -0.29562E+04
 
   -0.45456E+04         0.53390E+04         0.00000E+00
    0.53390E+04        -0.51571E+04         0.00000E+00
    0.00000E+00         0.00000E+00        -0.29108E+04
 
   -0.41442E+04         0.53947E+04         0.00000E+00
    0.53947E+04        -0.53874E+04         0.00000E+00
    0.00000E+00         0.00000E+00        -0.28595E+04
 
   -0.37371E+04         0.54753E+04         0.00000E+00
    0.54753E+04        -0.55991E+04         0.00000E+00
    0.00000E+00         0.00000E+00        -0.28009E+04
 
   -0.33117E+04         0.55863E+04         0.00000E+00
    0.55863E+04        -0.58004E+04         0.00000E+00
    0.00000E+00         0.00000E+00        -0.27336E+04
 
   -0.28537E+04         0.57308E+04         0.00000E+00
    0.57308E+04        -0.60001E+04         0.00000E+00
    0.00000E+00         0.00000E+00        -0.26561E+04
 
   -0.81325E+04         0.10383E+03         0.00000E+00
    0.10383E+03         0.48456E+01         0.00000E+00
    0.00000E+00         0.00000E+00        -0.24383E+04
 
   -0.84564E+04         0.34496E+03         0.00000E+00
    0.34496E+03         0.16460E+02         0.00000E+00
    0.00000E+00         0.00000E+00        -0.25320E+04
 
   -0.87690E+04         0.64343E+03         0.00000E+00
    0.64343E+03         0.19666E+02         0.00000E+00
    0.00000E+00         0.00000E+00        -0.26248E+04
 
   -0.90391E+04         0.10036E+04         0.00000E+00
    0.10036E+04        -0.46851E+01         0.00000E+00
    0.00000E+00         0.00000E+00        -0.27131E+04
 
   -0.92371E+04         0.14173E+04         0.00000E+00
    0.14173E+04        -0.74353E+02         0.00000E+00
    0.00000E+00         0.00000E+00        -0.27934E+04
 
   -0.93408E+04         0.18671E+04         0.00000E+00
    0.18671E+04        -0.20183E+03         0.00000E+00
    0.00000E+00         0.00000E+00        -0.28628E+04
 
   -0.93385E+04         0.23307E+04         0.00000E+00
    0.23307E+04        -0.39243E+03         0.00000E+00
    0.00000E+00         0.00000E+00        -0.29193E+04
 
   -0.92293E+04         0.27853E+04         0.00000E+00
    0.27853E+04        -0.64419E+03         0.00000E+00
    0.00000E+00         0.00000E+00        -0.29620E+04
 
   -0.90219E+04         0.32113E+04         0.00000E+00
    0.32113E+04        -0.94924E+03         0.00000E+00
    0.00000E+00         0.00000E+00        -0.29914E+04
 
   -0.87313E+04         0.35940E+04         0.00000E+00
    0.35940E+04        -0.12959E+04         0.00000E+00
    0.00000E+00         0.00000E+00        -0.30082E+04
 
   -0.83756E+04         0.39250E+04         0.00000E+00
    0.39250E+04        -0.16708E+04         0.00000E+00
    0.00000E+00         0.00000E+00        -0.30139E+04
 
   -0.79733E+04         0.42012E+04         0.00000E+00
    0.42012E+04        -0.20608E+04         0.00000E+00
    0.00000E+00         0.00000E+00        -0.30102E+04
 
   -0.75414E+04         0.44242E+04         0.00000E+00
    0.44242E+04        -0.24540E+04         0.00000E+00
    0.00000E+00         0.00000E+00        -0.29986E+04
 
   -0.70943E+04         0.45988E+04         0.00000E+00
    0.45988E+04        -0.28404E+04         0.00000E+00
    0.00000E+00         0.00000E+00        -0.29804E+04
 
   -0.66429E+04         0.47321E+04         0.00000E+00
    0.47321E+04        -0.32120E+04         0.00000E+00
    0.00000E+00         0.00000E+00        -0.29565E+04
 
   -0.61952E+04         0.48327E+04         0.00000E+00
    0.48327E+04        -0.35632E+04         0.00000E+00
    0.00000E+00         0.00000E+00        -0.29275E+04
 
   -0.57558E+04         0.49099E+04         0.00000E+00
    0.49099E+04        -0.38901E+04         0.00000E+00
    0.00000E+00         0.00000E+00        -0.28938E+04
 
   -0.53263E+04         0.49733E+04         0.00000E+00
    0.49733E+04        -0.41910E+04         0.00000E+00
    0.00000E+00         0.00000E+00        -0.28552E+04
 
   -0.49051E+04         0.50324E+04         0.00000E+00
    0.50324E+04        -0.44662E+04         0.00000E+00
    0.00000E+00         0.00000E+00        -0.28114E+04
 
   -0.44881E+04         0.50958E+04         0.00000E+00
    0.50958E+04        -0.47181E+04         0.00000E+00
    0.00000E+00         0.00000E+00        -0.27619E+04
 
   -0.40685E+04         0.51713E+04         0.00000E+00
    0.51713E+04        -0.49505E+04         0.00000E+00
    0.00000E+00         0.00000E+00        -0.27057E+04
 
   -0.36373E+04         0.52650E+04         0.00000E+00
    0.52650E+04        -0.51689E+04         0.00000E+00
    0.00000E+00         0.00000E+00        -0.26419E+04
 
   -0.31839E+04         0.53811E+04         0.00000E+00
    0.53811E+04        -0.53800E+04         0.00000E+00
    0.00000E+00         0.00000E+00        -0.25692E+04
 
   -0.26961E+04         0.55222E+04         0.00000E+00
    0.55222E+04        -0.55914E+04         0.00000E+00
    0.00000E+00         0.00000E+00        -0.24862E+04
 
   -0.79125E+04         0.10606E+03         0.00000E+00
    0.10606E+03         0.26376E+01         0.00000E+00
    0.00000E+00         0.00000E+00        -0.23730E+04
 
   -0.81929E+04         0.34388E+03         0.00000E+00
    0.34388E+03         0.49618E+01         0.00000E+00
    0.00000E+00         0.00000E+00        -0.24564E+04
 
   -0.84527E+04         0.62427E+03         0.00000E+00
    0.62427E+03        -0.49261E+01         0.00000E+00
    0.00000E+00         0.00000E+00        -0.25373E+04
 
   -0.86718E+04         0.95030E+03         0.00000E+00
    0.95030E+03        -0.39847E+02         0.00000E+00
    0.00000E+00         0.00000E+00        -0.26135E+04
 
   -0.88297E+04         0.13166E+04         0.00000E+00
    0.13166E+04        -0.11225E+03         0.00000E+00
    0.00000E+00         0.00000E+00        -0.26826E+04
 
   -0.89106E+04         0.17110E+04         0.00000E+00
    0.17110E+04        -0.23137E+03         0.00000E+00
    0.00000E+00         0.00000E+00        -0.27426E+04
 
   -0.89053E+04         0.21175E+04         0.00000E+00
    0.21175E+04        -0.40160E+03         0.00000E+00
    0.00000E+00         0.00000E+00        -0.27921E+04
 
   -0.88121E+04         0.25193E+04         0.00000E+00
    0.25193E+04        -0.62214E+03         0.00000E+00
    0.00000E+00         0.00000E+00        -0.28303E+04
 
   -0.86361E+04         0.29009E+04         0.00000E+00
    0.29009E+04        -0.88767E+03         0.00000E+00
    0.00000E+00         0.00000E+00        -0.28571E+04
 
   -0.83876E+04         0.32505E+04         0.00000E+00
    0.32505E+04        -0.11897E+04         0.00000E+00
    0.00000E+00         0.00000E+00        -0.28732E+04
 
   -0.80797E+04         0.35603E+04         0.00000E+00
    0.35603E+04        -0.15180E+04         0.00000E+00
    0.00000E+00         0.00000E+00        -0.28793E+04
 
   -0.77263E+04         0.38270E+04         0.00000E+00
    0.38270E+04        -0.18620E+04         0.00000E+00
    0.00000E+00         0.00000E+00        -0.28765E+04
 
   -0.73408E+04         0.40505E+04         0.00000E+00
    0.40505E+04        -0.22119E+04         0.00000E+00
    0.00000E+00         0.00000E+00        -0.28658E+04
 
   -0.69349E+04         0.42341E+04         0.00000E+00
    0.42341E+04        -0.25590E+04         0.00000E+00
    0.00000E+00         0.00000E+00        -0.28482E+04
 
   -0.65179E+04         0.43829E+04         0.00000E+00
    0.43829E+04        -0.28966E+04         0.00000E+00
    0.00000E+00         0.00000E+00        -0.28244E+04
 
   -0.60965E+04         0.45035E+04         0.00000E+00
    0.45035E+04        -0.32194E+04         0.00000E+00
    0.00000E+00         0.00000E+00        -0.27948E+04
 
   -0.56749E+04         0.46032E+04         0.00000E+00
    0.46032E+04        -0.35240E+04         0.00000E+00
    0.00000E+00         0.00000E+00        -0.27597E+04
 
   -0.52545E+04         0.46899E+04         0.00000E+00
    0.46899E+04        -0.38088E+04         0.00000E+00
    0.00000E+00         0.00000E+00        -0.27190E+04
 
   -0.48343E+04         0.47712E+04         0.00000E+00
    0.47712E+04        -0.40739E+04         0.00000E+00
    0.00000E+00         0.00000E+00        -0.26725E+04
 
   -0.44107E+04         0.48540E+04         0.00000E+00
    0.48540E+04        -0.43212E+04         0.00000E+00
    0.00000E+00         0.00000E+00        -0.26196E+04
 
   -0.39784E+04         0.49445E+04         0.00000E+00
    0.49445E+04        -0.45538E+04         0.00000E+00
    0.00000E+00         0.00000E+00        -0.25596E+04
 
   -0.35298E+04         0.50476E+04         0.00000E+00
    0.50476E+04        -0.47762E+04         0.00000E+00
    0.00000E+00         0.00000E+00        -0.24918E+04
 
   -0.30560E+04         0.51667E+04         0.00000E+00
    0.51667E+04        -0.49940E+04         0.00000E+00
    0.00000E+00         0.00000E+00        -0.24150E+04
 
   -0.25468E+04         0.53032E+04         0.00000E+00
    0.53032E+04        -0.52137E+04         0.00000E+00
    0.00000E+00         0.00000E+00        -0.23281E+04
 
   -0.76945E+04         0.10395E+03         0.00000E+00
    0.10395E+03         0.12626E+01         0.00000E+00
    0.00000E+00         0.00000E+00        -0.23080E+04
 
   -0.79412E+04         0.33287E+03         0.00000E+00
    0.33287E+03        -0.22375E+01         0.00000E+00
    0.00000E+00         0.00000E+00        -0.23830E+04
 
   -0.81615E+04         0.59478E+03         0.00000E+00
    0.59478E+03        -0.20305E+02         0.00000E+00
    0.00000E+00         0.00000E+00        -0.24545E+04
 
   -0.83422E+04         0.89138E+03         0.00000E+00
    0.89138E+03        -0.61479E+02         0.00000E+00
    0.00000E+00         0.00000E+00        -0.25211E+04
 
   -0.84695E+04         0.12187E+04         0.00000E+00
    0.12187E+04        -0.13439E+03         0.00000E+00
    0.00000E+00         0.00000E+00        -0.25812E+04
 
   -0.85320E+04         0.15682E+04         0.00000E+00
    0.15682E+04        -0.24572E+03         0.00000E+00
    0.00000E+00         0.00000E+00        -0.26333E+04
 
   -0.85227E+04         0.19281E+04         0.00000E+00
    0.19281E+04        -0.39890E+03         0.00000E+00
    0.00000E+00         0.00000E+00        -0.26765E+04
 
   -0.84400E+04         0.22858E+04         0.00000E+00
    0.22858E+04        -0.59370E+03         0.00000E+00
    0.00000E+00         0.00000E+00        -0.27101E+04
 
   -0.82868E+04         0.26295E+04         0.00000E+00
    0.26295E+04        -0.82649E+03         0.00000E+00
    0.00000E+00         0.00000E+00        -0.27340E+04
 
   -0.80700E+04         0.29495E+04         0.00000E+00
    0.29495E+04        -0.10911E+04         0.00000E+00
    0.00000E+00         0.00000E+00        -0.27483E+04
 
   -0.77992E+04         0.32391E+04         0.00000E+00
    0.32391E+04        -0.13797E+04         0.00000E+00
    0.00000E+00         0.00000E+00        -0.27537E+04
 
   -0.74847E+04         0.34948E+04         0.00000E+00
    0.34948E+04        -0.16840E+04         0.00000E+00
    0.00000E+00         0.00000E+00        -0.27506E+04
 
   -0.71371E+04         0.37159E+04         0.00000E+00
    0.37159E+04        -0.19960E+04         0.00000E+00
    0.00000E+00         0.00000E+00        -0.27399E+04
 
   -0.67655E+04         0.39042E+04         0.00000E+00
    0.39042E+04        -0.23085E+04         0.00000E+00
    0.00000E+00         0.00000E+00        -0.27222E+04
 
   -0.63777E+04         0.40634E+04         0.00000E+00
    0.40634E+04        -0.26156E+04         0.00000E+00
    0.00000E+00         0.00000E+00        -0.26980E+04
 
   -0.59793E+04         0.41984E+04         0.00000E+00
    0.41984E+04        -0.29127E+04         0.00000E+00
    0.00000E+00         0.00000E+00        -0.26676E+04
 
   -0.55738E+04         0.43150E+04         0.00000E+00
    0.43150E+04        -0.31968E+04         0.00000E+00
    0.00000E+00         0.00000E+00        -0.26312E+04
 
   -0.51627E+04         0.44194E+04         0.00000E+00
    0.44194E+04        -0.34664E+04         0.00000E+00
    0.00000E+00         0.00000E+00        -0.25887E+04
 
   -0.47450E+04         0.45174E+04         0.00000E+00
    0.45174E+04        -0.37214E+04         0.00000E+00
    0.00000E+00         0.00000E+00        -0.25399E+04
 
   -0.43182E+04         0.46149E+04         0.00000E+00
    0.46149E+04        -0.39632E+04         0.00000E+00
    0.00000E+00         0.00000E+00        -0.24844E+04
 
   -0.38776E+04         0.47164E+04         0.00000E+00
    0.47164E+04        -0.41943E+04         0.00000E+00
    0.00000E+00         0.00000E+00        -0.24216E+04
 
   -0.34172E+04         0.48260E+04         0.00000E+00
    0.48260E+04        -0.44186E+04         0.00000E+00
    0.00000E+00         0.00000E+00        -0.23507E+04
 
   -0.29294E+04         0.49459E+04         0.00000E+00
    0.49459E+04        -0.46405E+04         0.00000E+00
    0.00000E+00         0.00000E+00        -0.22710E+04
 
   -0.24059E+04         0.50773E+04         0.00000E+00
    0.50773E+04        -0.48655E+04         0.00000E+00
    0.00000E+00         0.00000E+00        -0.21814E+04
 
   -0.74846E+04         0.99225E+02         0.00000E+00
    0.99225E+02         0.46142E+00         0.00000E+00
    0.00000E+00         0.00000E+00        -0.22452E+04
 
   -0.77038E+04         0.31586E+03         0.00000E+00
    0.31586E+03        -0.64221E+01         0.00000E+00
    0.00000E+00         0.00000E+00        -0.23131E+04
 
   -0.78934E+04         0.55925E+03         0.00000E+00
    0.55925E+03        -0.29101E+02         0.00000E+00
    0.00000E+00         0.00000E+00        -0.23767E+04
 
   -0.80445E+04         0.82992E+03         0.00000E+00
    0.82992E+03        -0.73265E+02         0.00000E+00
    0.00000E+00         0.00000E+00        -0.24353E+04
 
   -0.81478E+04         0.11247E+04         0.00000E+00
    0.11247E+04        -0.14485E+03         0.00000E+00
    0.00000E+00         0.00000E+00        -0.24878E+04
 
   -0.81954E+04         0.14371E+04         0.00000E+00
    0.14371E+04        -0.24862E+03         0.00000E+00
    0.00000E+00         0.00000E+00        -0.25332E+04
 
   -0.81820E+04         0.17585E+04         0.00000E+00
    0.17585E+04        -0.38715E+03         0.00000E+00
    0.00000E+00         0.00000E+00        -0.25707E+04
 
   -0.81060E+04         0.20794E+04         0.00000E+00
    0.20794E+04        -0.56043E+03         0.00000E+00
    0.00000E+00         0.00000E+00        -0.25999E+04
 
   -0.79691E+04         0.23905E+04         0.00000E+00
    0.23905E+04        -0.76595E+03         0.00000E+00
    0.00000E+00         0.00000E+00        -0.26205E+04
 
   -0.77762E+04         0.26842E+04         0.00000E+00
    0.26842E+04        -0.99915E+03         0.00000E+00
    0.00000E+00         0.00000E+00        -0.26326E+04
 
   -0.75341E+04         0.29548E+04         0.00000E+00
    0.29548E+04        -0.12542E+04         0.00000E+00
    0.00000E+00         0.00000E+00        -0.26365E+04
 
   -0.72505E+04         0.31989E+04         0.00000E+00
    0.31989E+04        -0.15245E+04         0.00000E+00
    0.00000E+00         0.00000E+00        -0.26325E+04
 
   -0.69335E+04         0.34153E+04         0.00000E+00
    0.34153E+04        -0.18036E+04         0.00000E+00
    0.00000E+00         0.00000E+00        -0.26211E+04
 
   -0.65903E+04         0.36051E+04         0.00000E+00
    0.36051E+04        -0.20857E+04         0.00000E+00
    0.00000E+00         0.00000E+00        -0.26028E+04
 
   -0.62271E+04         0.37706E+04         0.00000E+00
    0.37706E+04        -0.23657E+04         0.00000E+00
    0.00000E+00         0.00000E+00        -0.25778E+04
 
   -0.58486E+04         0.39154E+04         0.00000E+00
    0.39154E+04        -0.26397E+04         0.00000E+00
    0.00000E+00         0.00000E+00        -0.25465E+04
 
   -0.54577E+04         0.40441E+04         0.00000E+00
    0.40441E+04        -0.29050E+04         0.00000E+00
    0.00000E+00         0.00000E+00        -0.25088E+04
 
   -0.50558E+04         0.41612E+04         0.00000E+00
    0.41612E+04        -0.31602E+04         0.00000E+00
    0.00000E+00         0.00000E+00        -0.24648E+04
 
   -0.46421E+04         0.42716E+04         0.00000E+00
    0.42716E+04        -0.34052E+04         0.00000E+00
    0.00000E+00         0.00000E+00        -0.24142E+04
 
   -0.42147E+04         0.43795E+04         0.00000E+00
    0.43795E+04        -0.36408E+04         0.00000E+00
    0.00000E+00         0.00000E+00        -0.23566E+04
 
   -0.37696E+04         0.44888E+04         0.00000E+00
    0.44888E+04        -0.38693E+04         0.00000E+00
    0.00000E+00         0.00000E+00        -0.22917E+04
 
   -0.33020E+04         0.46022E+04         0.00000E+00
    0.46022E+04        -0.40936E+04         0.00000E+00
    0.00000E+00         0.00000E+00        -0.22187E+04
 
   -0.28056E+04         0.47214E+04         0.00000E+00
    0.47214E+04        -0.43176E+04         0.00000E+00
    0.00000E+00         0.00000E+00        -0.21369E+04
 
   -0.22735E+04         0.48470E+04         0.00000E+00
    0.48470E+04        -0.45455E+04         0.00000E+00
    0.00000E+00         0.00000E+00        -0.20457E+04
 
   -0.72864E+04         0.93061E+02         0.00000E+00
    0.93061E+02         0.46329E-01         0.00000E+00
    0.00000E+00         0.00000E+00        -0.21859E+04
 
   -0.74821E+04         0.29559E+03         0.00000E+00
    0.29559E+03        -0.85464E+01         0.00000E+00
    0.00000E+00         0.00000E+00        -0.22472E+04
 
   -0.76466E+04         0.52080E+03         0.00000E+00
    0.52080E+03        -0.33332E+02         0.00000E+00
    0.00000E+00         0.00000E+00        -0.23040E+04
 
   -0.77743E+04         0.76826E+03         0.00000E+00
    0.76826E+03        -0.78134E+02         0.00000E+00
    0.00000E+00         0.00000E+00        -0.23557E+04
 
   -0.78585E+04         0.10352E+04         0.00000E+00
    0.10352E+04        -0.14703E+03         0.00000E+00
    0.00000E+00         0.00000E+00        -0.24017E+04
 
   -0.78937E+04         0.13166E+04         0.00000E+00
    0.13166E+04        -0.24337E+03         0.00000E+00
    0.00000E+00         0.00000E+00        -0.24411E+04
 
   -0.78761E+04         0.16058E+04         0.00000E+00
    0.16058E+04        -0.36903E+03         0.00000E+00
    0.00000E+00         0.00000E+00        -0.24735E+04
 
   -0.78042E+04         0.18956E+04         0.00000E+00
    0.18956E+04        -0.52406E+03         0.00000E+00
    0.00000E+00         0.00000E+00        -0.24985E+04
 
   -0.76791E+04         0.21788E+04         0.00000E+00
    0.21788E+04        -0.70667E+03         0.00000E+00
    0.00000E+00         0.00000E+00        -0.25157E+04
 
   -0.75041E+04         0.24492E+04         0.00000E+00
    0.24492E+04        -0.91349E+03         0.00000E+00
    0.00000E+00         0.00000E+00        -0.25253E+04
 
   -0.72841E+04         0.27020E+04         0.00000E+00
    0.27020E+04        -0.11401E+04         0.00000E+00
    0.00000E+00         0.00000E+00        -0.25273E+04
 
   -0.70249E+04         0.29342E+04         0.00000E+00
    0.29342E+04        -0.13813E+04         0.00000E+00
    0.00000E+00         0.00000E+00        -0.25219E+04
 
   -0.67325E+04         0.31445E+04         0.00000E+00
    0.31445E+04        -0.16321E+04         0.00000E+00
    0.00000E+00         0.00000E+00        -0.25094E+04
 
   -0.64126E+04         0.33330E+04         0.00000E+00
    0.33330E+04        -0.18876E+04         0.00000E+00
    0.00000E+00         0.00000E+00        -0.24901E+04
 
   -0.60701E+04         0.35015E+04         0.00000E+00
    0.35015E+04        -0.21437E+04         0.00000E+00
    0.00000E+00         0.00000E+00        -0.24641E+04
 
   -0.57088E+04         0.36524E+04         0.00000E+00
    0.36524E+04        -0.23970E+04         0.00000E+00
    0.00000E+00         0.00000E+00        -0.24317E+04
 
   -0.53311E+04         0.37891E+04         0.00000E+00
    0.37891E+04        -0.26452E+04         0.00000E+00
    0.00000E+00         0.00000E+00        -0.23929E+04
 
   -0.49382E+04         0.39150E+04         0.00000E+00
    0.39150E+04        -0.28869E+04         0.00000E+00
    0.00000E+00         0.00000E+00        -0.23475E+04
 
   -0.45296E+04         0.40339E+04         0.00000E+00
    0.40339E+04        -0.31220E+04         0.00000E+00
    0.00000E+00         0.00000E+00        -0.22955E+04
 
   -0.41035E+04         0.41489E+04         0.00000E+00
    0.41489E+04        -0.33512E+04         0.00000E+00
    0.00000E+00         0.00000E+00        -0.22364E+04
 
   -0.36570E+04         0.42630E+04         0.00000E+00
    0.42630E+04        -0.35760E+04         0.00000E+00
    0.00000E+00         0.00000E+00        -0.21699E+04
 
   -0.31860E+04         0.43781E+04         0.00000E+00
    0.43781E+04        -0.37989E+04         0.00000E+00
    0.00000E+00         0.00000E+00        -0.20955E+04
 
   -0.26854E+04         0.44953E+04         0.00000E+00
    0.44953E+04        -0.40231E+04         0.00000E+00
    0.00000E+00         0.00000E+00        -0.20125E+04
 
   -0.21495E+04         0.46147E+04         0.00000E+00
    0.46147E+04        -0.42519E+04         0.00000E+00
    0.00000E+00         0.00000E+00        -0.19204E+04
 
   -0.71016E+04         0.86244E+02         0.00000E+00
    0.86244E+02        -0.11569E+00         0.00000E+00
    0.00000E+00         0.00000E+00        -0.21305E+04
 
   -0.72763E+04         0.27395E+03         0.00000E+00
    0.27395E+03        -0.93027E+01         0.00000E+00
    0.00000E+00         0.00000E+00        -0.21857E+04
 
   -0.74199E+04         0.48160E+03         0.00000E+00
    0.48160E+03        -0.34498E+02         0.00000E+00
    0.00000E+00         0.00000E+00        -0.22363E+04
 
   -0.75281E+04         0.70808E+03         0.00000E+00
    0.70808E+03        -0.78322E+02         0.00000E+00
    0.00000E+00         0.00000E+00        -0.22819E+04
 
   -0.75967E+04         0.95080E+03         0.00000E+00
    0.95080E+03        -0.14359E+03         0.00000E+00
    0.00000E+00         0.00000E+00        -0.23221E+04
 
   -0.76214E+04         0.12057E+04         0.00000E+00
    0.12057E+04        -0.23266E+03         0.00000E+00
    0.00000E+00         0.00000E+00        -0.23562E+04
 
   -0.75996E+04         0.14677E+04         0.00000E+00
    0.14677E+04        -0.34684E+03         0.00000E+00
    0.00000E+00         0.00000E+00        -0.23839E+04
 
   -0.75300E+04         0.17309E+04         0.00000E+00
    0.17309E+04        -0.48619E+03         0.00000E+00
    0.00000E+00         0.00000E+00        -0.24049E+04
 
   -0.74133E+04         0.19899E+04         0.00000E+00
    0.19899E+04        -0.64939E+03         0.00000E+00
    0.00000E+00         0.00000E+00        -0.24188E+04
 
   -0.72516E+04         0.22396E+04         0.00000E+00
    0.22396E+04        -0.83392E+03         0.00000E+00
    0.00000E+00         0.00000E+00        -0.24257E+04
 
   -0.70486E+04         0.24760E+04         0.00000E+00
    0.24760E+04        -0.10364E+04         0.00000E+00
    0.00000E+00         0.00000E+00        -0.24255E+04
 
   -0.68085E+04         0.26964E+04         0.00000E+00
    0.26964E+04        -0.12529E+04         0.00000E+00
    0.00000E+00         0.00000E+00        -0.24184E+04
 
   -0.65358E+04         0.28994E+04         0.00000E+00
    0.28994E+04        -0.14793E+04         0.00000E+00
    0.00000E+00         0.00000E+00        -0.24045E+04
 
   -0.62350E+04         0.30848E+04         0.00000E+00
    0.30848E+04        -0.17117E+04         0.00000E+00
    0.00000E+00         0.00000E+00        -0.23840E+04
 
   -0.59099E+04         0.32535E+04         0.00000E+00
    0.32535E+04        -0.19467E+04         0.00000E+00
    0.00000E+00         0.00000E+00        -0.23570E+04
 
   -0.55635E+04         0.34074E+04         0.00000E+00
    0.34074E+04        -0.21815E+04         0.00000E+00
    0.00000E+00         0.00000E+00        -0.23235E+04
 
   -0.51977E+04         0.35487E+04         0.00000E+00
    0.35487E+04        -0.24141E+04         0.00000E+00
    0.00000E+00         0.00000E+00        -0.22836E+04
 
   -0.48135E+04         0.36801E+04         0.00000E+00
    0.36801E+04        -0.26434E+04         0.00000E+00
    0.00000E+00         0.00000E+00        -0.22371E+04
 
   -0.44106E+04         0.38042E+04         0.00000E+00
    0.38042E+04        -0.28689E+04         0.00000E+00
    0.00000E+00         0.00000E+00        -0.21839E+04
 
   -0.39876E+04         0.39235E+04         0.00000E+00
    0.39235E+04        -0.30913E+04         0.00000E+00
    0.00000E+00         0.00000E+00        -0.21237E+04
 
   -0.35421E+04         0.40400E+04         0.00000E+00
    0.40400E+04        -0.33118E+04         0.00000E+00
    0.00000E+00         0.00000E+00        -0.20561E+04
 
   -0.30707E+04         0.41551E+04         0.00000E+00
    0.41551E+04        -0.35322E+04         0.00000E+00
    0.00000E+00         0.00000E+00        -0.19809E+04
 
   -0.25695E+04         0.42693E+04         0.00000E+00
    0.42693E+04        -0.37551E+04         0.00000E+00
    0.00000E+00         0.00000E+00        -0.18974E+04
 
   -0.20338E+04         0.43822E+04         0.00000E+00
    0.43822E+04        -0.39833E+04         0.00000E+00
    0.00000E+00         0.00000E+00        -0.18051E+04
 
   -0.69310E+04         0.79279E+02         0.00000E+00
    0.79279E+02        -0.11746E+00         0.00000E+00
    0.00000E+00         0.00000E+00        -0.20793E+04
 
   -0.70865E+04         0.25218E+03         0.00000E+00
    0.25218E+03        -0.91832E+01         0.00000E+00
    0.00000E+00         0.00000E+00        -0.21287E+04
 
   -0.72117E+04         0.44309E+03         0.00000E+00
    0.44309E+03        -0.33687E+02         0.00000E+00
    0.00000E+00         0.00000E+00        -0.21736E+04
 
   -0.73035E+04         0.65047E+03         0.00000E+00
    0.65047E+03        -0.75492E+02         0.00000E+00
    0.00000E+00         0.00000E+00        -0.22137E+04
 
   -0.73587E+04         0.87187E+03         0.00000E+00
    0.87187E+03        -0.13658E+03         0.00000E+00
    0.00000E+00         0.00000E+00        -0.22486E+04
 
   -0.73743E+04         0.11039E+04         0.00000E+00
    0.11039E+04        -0.21858E+03         0.00000E+00
    0.00000E+00         0.00000E+00        -0.22779E+04
 
   -0.73483E+04         0.13423E+04         0.00000E+00
    0.13423E+04        -0.32245E+03         0.00000E+00
    0.00000E+00         0.00000E+00        -0.23012E+04
 
   -0.72796E+04         0.15827E+04         0.00000E+00
    0.15827E+04        -0.44819E+03         0.00000E+00
    0.00000E+00         0.00000E+00        -0.23183E+04
 
   -0.71686E+04         0.18204E+04         0.00000E+00
    0.18204E+04        -0.59481E+03         0.00000E+00
    0.00000E+00         0.00000E+00        -0.23290E+04
 
   -0.70169E+04         0.20516E+04         0.00000E+00
    0.20516E+04        -0.76041E+03         0.00000E+00
    0.00000E+00         0.00000E+00        -0.23332E+04
 
   -0.68269E+04         0.22727E+04         0.00000E+00
    0.22727E+04        -0.94239E+03         0.00000E+00
    0.00000E+00         0.00000E+00        -0.23308E+04
 
   -0.66018E+04         0.24815E+04         0.00000E+00
    0.24815E+04        -0.11377E+04         0.00000E+00
    0.00000E+00         0.00000E+00        -0.23218E+04
 
   -0.63450E+04         0.26765E+04         0.00000E+00
    0.26765E+04        -0.13431E+04         0.00000E+00
    0.00000E+00         0.00000E+00        -0.23064E+04
 
   -0.60598E+04         0.28572E+04         0.00000E+00
    0.28572E+04        -0.15555E+04         0.00000E+00
    0.00000E+00         0.00000E+00        -0.22846E+04
 
   -0.57492E+04         0.30242E+04         0.00000E+00
    0.30242E+04        -0.17720E+04         0.00000E+00
    0.00000E+00         0.00000E+00        -0.22564E+04
 
   -0.54156E+04         0.31786E+04         0.00000E+00
    0.31786E+04        -0.19904E+04         0.00000E+00
    0.00000E+00         0.00000E+00        -0.22218E+04
 
   -0.50605E+04         0.33218E+04         0.00000E+00
    0.33218E+04        -0.22090E+04         0.00000E+00
    0.00000E+00         0.00000E+00        -0.21809E+04
 
   -0.46848E+04         0.34559E+04         0.00000E+00
    0.34559E+04        -0.24266E+04         0.00000E+00
    0.00000E+00         0.00000E+00        -0.21334E+04
 
   -0.42881E+04         0.35826E+04         0.00000E+00
    0.35826E+04        -0.26430E+04         0.00000E+00
    0.00000E+00         0.00000E+00        -0.20793E+04
 
   -0.38694E+04         0.37038E+04         0.00000E+00
    0.37038E+04        -0.28585E+04         0.00000E+00
    0.00000E+00         0.00000E+00        -0.20184E+04
 
   -0.34268E+04         0.38208E+04         0.00000E+00
    0.38208E+04        -0.30741E+04         0.00000E+00
    0.00000E+00         0.00000E+00        -0.19503E+04
 
   -0.29576E+04         0.39343E+04         0.00000E+00
    0.39343E+04        -0.32912E+04         0.00000E+00
    0.00000E+00         0.00000E+00        -0.18746E+04
 
   -0.24587E+04         0.40446E+04         0.00000E+00
    0.40446E+04        -0.35117E+04         0.00000E+00
    0.00000E+00         0.00000E+00        -0.17911E+04
 
   -0.19263E+04         0.41510E+04         0.00000E+00
    0.41510E+04        -0.37380E+04         0.00000E+00
    0.00000E+00         0.00000E+00        -0.16993E+04
 
   -0.67744E+04         0.72481E+02         0.00000E+00
    0.72481E+02        -0.22801E-01         0.00000E+00
    0.00000E+00         0.00000E+00        -0.20323E+04
 
   -0.69120E+04         0.23104E+03         0.00000E+00
    0.23104E+03        -0.85324E+01         0.00000E+00
    0.00000E+00         0.00000E+00        -0.20762E+04
 
   -0.70207E+04         0.40619E+03         0.00000E+00
    0.40619E+03        -0.31675E+02         0.00000E+00
    0.00000E+00         0.00000E+00        -0.21157E+04
 
   -0.70980E+04         0.59612E+03         0.00000E+00
    0.59612E+03        -0.70847E+02         0.00000E+00
    0.00000E+00         0.00000E+00        -0.21507E+04
 
   -0.71415E+04         0.79849E+03         0.00000E+00
    0.79849E+03        -0.12748E+03         0.00000E+00
    0.00000E+00         0.00000E+00        -0.21807E+04
 
   -0.71490E+04         0.10103E+04         0.00000E+00
    0.10103E+04        -0.20275E+03         0.00000E+00
    0.00000E+00         0.00000E+00        -0.22055E+04
 
   -0.71188E+04         0.12282E+04         0.00000E+00
    0.12282E+04        -0.29731E+03         0.00000E+00
    0.00000E+00         0.00000E+00        -0.22248E+04
 
   -0.70500E+04         0.14485E+04         0.00000E+00
    0.14485E+04        -0.41114E+03         0.00000E+00
    0.00000E+00         0.00000E+00        -0.22384E+04
 
   -0.69429E+04         0.16675E+04         0.00000E+00
    0.16675E+04        -0.54350E+03         0.00000E+00
    0.00000E+00         0.00000E+00        -0.22459E+04
 
   -0.67984E+04         0.18819E+04         0.00000E+00
    0.18819E+04        -0.69292E+03         0.00000E+00
    0.00000E+00         0.00000E+00        -0.22474E+04
 
   -0.66183E+04         0.20889E+04         0.00000E+00
    0.20889E+04        -0.85741E+03         0.00000E+00
    0.00000E+00         0.00000E+00        -0.22427E+04
 
   -0.64049E+04         0.22863E+04         0.00000E+00
    0.22863E+04        -0.10346E+04         0.00000E+00
    0.00000E+00         0.00000E+00        -0.22319E+04
 
   -0.61608E+04         0.24728E+04         0.00000E+00
    0.24728E+04        -0.12219E+04         0.00000E+00
    0.00000E+00         0.00000E+00        -0.22148E+04
 
   -0.58884E+04         0.26478E+04         0.00000E+00
    0.26478E+04        -0.14169E+04         0.00000E+00
    0.00000E+00         0.00000E+00        -0.21916E+04
 
   -0.55900E+04         0.28114E+04         0.00000E+00
    0.28114E+04        -0.16173E+04         0.00000E+00
    0.00000E+00         0.00000E+00        -0.21622E+04
 
   -0.52675E+04         0.29642E+04         0.00000E+00
    0.29642E+04        -0.18211E+04         0.00000E+00
    0.00000E+00         0.00000E+00        -0.21266E+04
 
   -0.49221E+04         0.31072E+04         0.00000E+00
    0.31072E+04        -0.20270E+04         0.00000E+00
    0.00000E+00         0.00000E+00        -0.20847E+04
 
   -0.45544E+04         0.32417E+04         0.00000E+00
    0.32417E+04        -0.22340E+04         0.00000E+00
    0.00000E+00         0.00000E+00        -0.20365E+04
 
   -0.41643E+04         0.33689E+04         0.00000E+00
    0.33689E+04        -0.24417E+04         0.00000E+00
    0.00000E+00         0.00000E+00        -0.19818E+04
 
   -0.37509E+04         0.34900E+04         0.00000E+00
    0.34900E+04        -0.26504E+04         0.00000E+00
    0.00000E+00         0.00000E+00        -0.19204E+04
 
   -0.33126E+04         0.36059E+04         0.00000E+00
    0.36059E+04        -0.28607E+04         0.00000E+00
    0.00000E+00         0.00000E+00        -0.18520E+04
 
   -0.28476E+04         0.37168E+04         0.00000E+00
    0.37168E+04        -0.30738E+04         0.00000E+00
    0.00000E+00         0.00000E+00        -0.17764E+04
 
   -0.23532E+04         0.38226E+04         0.00000E+00
    0.38226E+04        -0.32912E+04         0.00000E+00
    0.00000E+00         0.00000E+00        -0.16933E+04
 
   -0.18266E+04         0.39223E+04         0.00000E+00
    0.39223E+04        -0.35145E+04         0.00000E+00
    0.00000E+00         0.00000E+00        -0.16023E+04
 
   -0.66314E+04         0.66032E+02         0.00000E+00
    0.66032E+02         0.12505E+00         0.00000E+00
    0.00000E+00         0.00000E+00        -0.19894E+04
 
   -0.67521E+04         0.21100E+03         0.00000E+00
    0.21100E+03        -0.75868E+01         0.00000E+00
    0.00000E+00         0.00000E+00        -0.20279E+04
 
   -0.68457E+04         0.37142E+03         0.00000E+00
    0.37142E+03        -0.29003E+02         0.00000E+00
    0.00000E+00         0.00000E+00        -0.20624E+04
 
   -0.69100E+04         0.54536E+03         0.00000E+00
    0.54536E+03        -0.65239E+02         0.00000E+00
    0.00000E+00         0.00000E+00        -0.20926E+04
 
   -0.69430E+04         0.73059E+03         0.00000E+00
    0.73059E+03        -0.11738E+03         0.00000E+00
    0.00000E+00         0.00000E+00        -0.21181E+04
 
   -0.69430E+04         0.92451E+03         0.00000E+00
    0.92451E+03        -0.18629E+03         0.00000E+00
    0.00000E+00         0.00000E+00        -0.21388E+04
 
   -0.69085E+04         0.11242E+04         0.00000E+00
    0.11242E+04        -0.27245E+03         0.00000E+00
    0.00000E+00         0.00000E+00        -0.21543E+04
 
   -0.68389E+04         0.13267E+04         0.00000E+00
    0.13267E+04        -0.37583E+03         0.00000E+00
    0.00000E+00         0.00000E+00        -0.21644E+04
 
   -0.67341E+04         0.15288E+04         0.00000E+00
    0.15288E+04        -0.49585E+03         0.00000E+00
    0.00000E+00         0.00000E+00        -0.21690E+04
 
   -0.65948E+04         0.17280E+04         0.00000E+00
    0.17280E+04        -0.63138E+03         0.00000E+00
    0.00000E+00         0.00000E+00        -0.21679E+04
 
   -0.64222E+04         0.19216E+04         0.00000E+00
    0.19216E+04        -0.78090E+03         0.00000E+00
    0.00000E+00         0.00000E+00        -0.21609E+04
 
   -0.62180E+04         0.21079E+04         0.00000E+00
    0.21079E+04        -0.94254E+03         0.00000E+00
    0.00000E+00         0.00000E+00        -0.21482E+04
 
   -0.59840E+04         0.22857E+04         0.00000E+00
    0.22857E+04        -0.11143E+04         0.00000E+00
    0.00000E+00         0.00000E+00        -0.21295E+04
 
   -0.57220E+04         0.24541E+04         0.00000E+00
    0.24541E+04        -0.12942E+04         0.00000E+00
    0.00000E+00         0.00000E+00        -0.21049E+04
 
   -0.54339E+04         0.26130E+04         0.00000E+00
    0.26130E+04        -0.14804E+04         0.00000E+00
    0.00000E+00         0.00000E+00        -0.20743E+04
 
   -0.51211E+04         0.27627E+04         0.00000E+00
    0.27627E+04        -0.16714E+04         0.00000E+00
    0.00000E+00         0.00000E+00        -0.20377E+04
 
   -0.47844E+04         0.29037E+04         0.00000E+00
    0.29037E+04        -0.18658E+04         0.00000E+00
    0.00000E+00         0.00000E+00        -0.19951E+04
 
   -0.44244E+04         0.30368E+04         0.00000E+00
    0.30368E+04        -0.20630E+04         0.00000E+00
    0.00000E+00         0.00000E+00        -0.19462E+04
 
   -0.40410E+04         0.31628E+04         0.00000E+00
    0.31628E+04        -0.22625E+04         0.00000E+00
    0.00000E+00         0.00000E+00        -0.18911E+04
 
   -0.36336E+04         0.32822E+04         0.00000E+00
    0.32822E+04        -0.24645E+04         0.00000E+00
    0.00000E+00         0.00000E+00        -0.18294E+04
 
   -0.32009E+04         0.33957E+04         0.00000E+00
    0.33957E+04        -0.26694E+04         0.00000E+00
    0.00000E+00         0.00000E+00        -0.17611E+04
 
   -0.27415E+04         0.35030E+04         0.00000E+00
    0.35030E+04        -0.28781E+04         0.00000E+00
    0.00000E+00         0.00000E+00        -0.16859E+04
 
   -0.22533E+04         0.36038E+04         0.00000E+00
    0.36038E+04        -0.30916E+04         0.00000E+00
    0.00000E+00         0.00000E+00        -0.16035E+04
 
   -0.17344E+04         0.36970E+04         0.00000E+00
    0.36970E+04        -0.33113E+04         0.00000E+00
    0.00000E+00         0.00000E+00        -0.15137E+04
 
   -0.65010E+04         0.60026E+02         0.00000E+00
    0.60026E+02         0.29737E+00         0.00000E+00
    0.00000E+00         0.00000E+00        -0.19502E+04
 
   -0.66059E+04         0.19230E+03         0.00000E+00
    0.19230E+03        -0.65059E+01         0.00000E+00
    0.00000E+00         0.00000E+00        -0.19837E+04
 
   -0.66855E+04         0.33903E+03         0.00000E+00
    0.33903E+03        -0.26040E+02         0.00000E+00
    0.00000E+00         0.00000E+00        -0.20135E+04
 
   -0.67378E+04         0.49828E+03         0.00000E+00
    0.49828E+03        -0.59258E+02         0.00000E+00
    0.00000E+00         0.00000E+00        -0.20391E+04
 
   -0.67612E+04         0.66795E+03         0.00000E+00
    0.66795E+03        -0.10703E+03         0.00000E+00
    0.00000E+00         0.00000E+00        -0.20605E+04
 
   -0.67541E+04         0.84573E+03         0.00000E+00
    0.84573E+03        -0.17004E+03         0.00000E+00
    0.00000E+00         0.00000E+00        -0.20772E+04
 
   -0.67154E+04         0.10291E+04         0.00000E+00
    0.10291E+04        -0.24864E+03         0.00000E+00
    0.00000E+00         0.00000E+00        -0.20892E+04
 
   -0.66443E+04         0.12155E+04         0.00000E+00
    0.12155E+04        -0.34280E+03         0.00000E+00
    0.00000E+00         0.00000E+00        -0.20961E+04
 
   -0.65407E+04         0.14024E+04         0.00000E+00
    0.14024E+04        -0.45210E+03         0.00000E+00
    0.00000E+00         0.00000E+00        -0.20978E+04
 
   -0.64050E+04         0.15875E+04         0.00000E+00
    0.15875E+04        -0.57566E+03         0.00000E+00
    0.00000E+00         0.00000E+00        -0.20942E+04
 
   -0.62380E+04         0.17686E+04         0.00000E+00
    0.17686E+04        -0.71230E+03         0.00000E+00
    0.00000E+00         0.00000E+00        -0.20851E+04
 
   -0.60409E+04         0.19442E+04         0.00000E+00
    0.19442E+04        -0.86057E+03         0.00000E+00
    0.00000E+00         0.00000E+00        -0.20704E+04
 
   -0.58150E+04         0.21129E+04         0.00000E+00
    0.21129E+04        -0.10189E+04         0.00000E+00
    0.00000E+00         0.00000E+00        -0.20502E+04
 
   -0.55617E+04         0.22741E+04         0.00000E+00
    0.22741E+04        -0.11857E+04         0.00000E+00
    0.00000E+00         0.00000E+00        -0.20242E+04
 
   -0.52823E+04         0.24274E+04         0.00000E+00
    0.24274E+04        -0.13595E+04         0.00000E+00
    0.00000E+00         0.00000E+00        -0.19925E+04
 
   -0.49778E+04         0.25727E+04         0.00000E+00
    0.25727E+04        -0.15390E+04         0.00000E+00
    0.00000E+00         0.00000E+00        -0.19551E+04
 
   -0.46491E+04         0.27103E+04         0.00000E+00
    0.27103E+04        -0.17232E+04         0.00000E+00
    0.00000E+00         0.00000E+00        -0.19117E+04
 
   -0.42965E+04         0.28406E+04         0.00000E+00
    0.28406E+04        -0.19114E+04         0.00000E+00
    0.00000E+00         0.00000E+00        -0.18624E+04
 
   -0.39199E+04         0.29639E+04         0.00000E+00
    0.29639E+04        -0.21033E+04         0.00000E+00
    0.00000E+00         0.00000E+00        -0.18069E+04
 
   -0.35189E+04         0.30805E+04         0.00000E+00
    0.30805E+04        -0.22987E+04         0.00000E+00
    0.00000E+00         0.00000E+00        -0.17453E+04
 
   -0.30926E+04         0.31904E+04         0.00000E+00
    0.31904E+04        -0.24981E+04         0.00000E+00
    0.00000E+00         0.00000E+00        -0.16772E+04
 
   -0.26399E+04         0.32935E+04         0.00000E+00
    0.32935E+04        -0.27021E+04         0.00000E+00
    0.00000E+00         0.00000E+00        -0.16026E+04
 
   -0.21593E+04         0.33890E+04         0.00000E+00
    0.33890E+04        -0.29113E+04         0.00000E+00
    0.00000E+00         0.00000E+00        -0.15212E+04
 
   -0.16494E+04         0.34757E+04         0.00000E+00
    0.34757E+04        -0.31268E+04         0.00000E+00
    0.00000E+00         0.00000E+00        -0.14329E+04
 
   -0.63823E+04         0.54497E+02         0.00000E+00
    0.54497E+02         0.47552E+00         0.00000E+00
    0.00000E+00         0.00000E+00        -0.19146E+04
 
   -0.64724E+04         0.17501E+03         0.00000E+00
    0.17501E+03        -0.53946E+01         0.00000E+00
    0.00000E+00         0.00000E+00        -0.19433E+04
 
   -0.65389E+04         0.30907E+03         0.00000E+00
    0.30907E+03        -0.23031E+02         0.00000E+00
    0.00000E+00         0.00000E+00        -0.19686E+04
 
   -0.65802E+04         0.45481E+03         0.00000E+00
    0.45481E+03        -0.53297E+02         0.00000E+00
    0.00000E+00         0.00000E+00        -0.19900E+04
 
   -0.65946E+04         0.61027E+03         0.00000E+00
    0.61027E+03        -0.96939E+02         0.00000E+00
    0.00000E+00         0.00000E+00        -0.20075E+04
 
   -0.65808E+04         0.77337E+03         0.00000E+00
    0.77337E+03        -0.15452E+03         0.00000E+00
    0.00000E+00         0.00000E+00        -0.20206E+04
 
   -0.65377E+04         0.94193E+03         0.00000E+00
    0.94193E+03        -0.22634E+03         0.00000E+00
    0.00000E+00         0.00000E+00        -0.20292E+04
 
   -0.64647E+04         0.11137E+04         0.00000E+00
    0.11137E+04        -0.31239E+03         0.00000E+00
    0.00000E+00         0.00000E+00        -0.20331E+04
 
   -0.63614E+04         0.12866E+04         0.00000E+00
    0.12866E+04        -0.41235E+03         0.00000E+00
    0.00000E+00         0.00000E+00        -0.20321E+04
 
   -0.62281E+04         0.14586E+04         0.00000E+00
    0.14586E+04        -0.52555E+03         0.00000E+00
    0.00000E+00         0.00000E+00        -0.20261E+04
 
   -0.60653E+04         0.16279E+04         0.00000E+00
    0.16279E+04        -0.65109E+03         0.00000E+00
    0.00000E+00         0.00000E+00        -0.20149E+04
 
   -0.58737E+04         0.17929E+04         0.00000E+00
    0.17929E+04        -0.78784E+03         0.00000E+00
    0.00000E+00         0.00000E+00        -0.19985E+04
 
   -0.56543E+04         0.19526E+04         0.00000E+00
    0.19526E+04        -0.93455E+03         0.00000E+00
    0.00000E+00         0.00000E+00        -0.19767E+04
 
   -0.54081E+04         0.21061E+04         0.00000E+00
    0.21061E+04        -0.10900E+04         0.00000E+00
    0.00000E+00         0.00000E+00        -0.19494E+04
 
   -0.51361E+04         0.22530E+04         0.00000E+00
    0.22530E+04        -0.12529E+04         0.00000E+00
    0.00000E+00         0.00000E+00        -0.19167E+04
 
   -0.48390E+04         0.23930E+04         0.00000E+00
    0.23930E+04        -0.14223E+04         0.00000E+00
    0.00000E+00         0.00000E+00        -0.18784E+04
 
   -0.45175E+04         0.25261E+04         0.00000E+00
    0.25261E+04        -0.15973E+04         0.00000E+00
    0.00000E+00         0.00000E+00        -0.18344E+04
 
   -0.41718E+04         0.26524E+04         0.00000E+00
    0.26524E+04        -0.17773E+04         0.00000E+00
    0.00000E+00         0.00000E+00        -0.17847E+04
 
   -0.38020E+04         0.27719E+04         0.00000E+00
    0.27719E+04        -0.19619E+04         0.00000E+00
    0.00000E+00         0.00000E+00        -0.17292E+04
 
   -0.34077E+04         0.28846E+04         0.00000E+00
    0.28846E+04        -0.21511E+04         0.00000E+00
    0.00000E+00         0.00000E+00        -0.16677E+04
 
   -0.29884E+04         0.29903E+04         0.00000E+00
    0.29903E+04        -0.23451E+04         0.00000E+00
    0.00000E+00         0.00000E+00        -0.16000E+04
 
   -0.25432E+04         0.30886E+04         0.00000E+00
    0.30886E+04        -0.25441E+04         0.00000E+00
    0.00000E+00         0.00000E+00        -0.15262E+04
 
   -0.20712E+04         0.31786E+04         0.00000E+00
    0.31786E+04        -0.27487E+04         0.00000E+00
    0.00000E+00         0.00000E+00        -0.14460E+04
 
   -0.15713E+04         0.32590E+04         0.00000E+00
    0.32590E+04        -0.29596E+04         0.00000E+00
    0.00000E+00         0.00000E+00        -0.13593E+04
 
   -0.62745E+04         0.49442E+02         0.00000E+00
    0.49442E+02         0.64787E+00         0.00000E+00
    0.00000E+00         0.00000E+00        -0.18822E+04
 
   -0.63506E+04         0.15912E+03         0.00000E+00
    0.15912E+03        -0.43191E+01         0.00000E+00
    0.00000E+00         0.00000E+00        -0.19065E+04
 
   -0.64049E+04         0.28149E+03         0.00000E+00
    0.28149E+03        -0.20132E+02         0.00000E+00
    0.00000E+00         0.00000E+00        -0.19275E+04
 
   -0.64358E+04         0.41477E+03         0.00000E+00
    0.41477E+03        -0.47608E+02         0.00000E+00
    0.00000E+00         0.00000E+00        -0.19450E+04
 
   -0.64418E+04         0.55717E+03         0.00000E+00
    0.55717E+03        -0.87424E+02         0.00000E+00
    0.00000E+00         0.00000E+00        -0.19588E+04
 
   -0.64216E+04         0.70682E+03         0.00000E+00
    0.70682E+03        -0.14008E+03         0.00000E+00
    0.00000E+00         0.00000E+00        -0.19685E+04
 
   -0.63742E+04         0.86179E+03         0.00000E+00
    0.86179E+03        -0.20585E+03         0.00000E+00
    0.00000E+00         0.00000E+00        -0.19740E+04
 
   -0.62989E+04         0.10202E+04         0.00000E+00
    0.10202E+04        -0.28476E+03         0.00000E+00
    0.00000E+00         0.00000E+00        -0.19751E+04
 
   -0.61953E+04         0.11801E+04         0.00000E+00
    0.11801E+04        -0.37657E+03         0.00000E+00
    0.00000E+00         0.00000E+00        -0.19716E+04
 
   -0.60634E+04         0.13398E+04         0.00000E+00
    0.13398E+04        -0.48080E+03         0.00000E+00
    0.00000E+00         0.00000E+00        -0.19633E+04
 
   -0.59036E+04         0.14977E+04         0.00000E+00
    0.14977E+04        -0.59675E+03         0.00000E+00
    0.00000E+00         0.00000E+00        -0.19501E+04
 
   -0.57162E+04         0.16525E+04         0.00000E+00
    0.16525E+04        -0.72352E+03         0.00000E+00
    0.00000E+00         0.00000E+00        -0.19319E+04
 
   -0.55020E+04         0.18030E+04         0.00000E+00
    0.18030E+04        -0.86017E+03         0.00000E+00
    0.00000E+00         0.00000E+00        -0.19087E+04
 
   -0.52617E+04         0.19486E+04         0.00000E+00
    0.19486E+04        -0.10057E+04         0.00000E+00
    0.00000E+00         0.00000E+00        -0.18802E+04
 
   -0.49960E+04         0.20885E+04         0.00000E+00
    0.20885E+04        -0.11591E+04         0.00000E+00
    0.00000E+00         0.00000E+00        -0.18465E+04
 
   -0.47054E+04         0.22225E+04         0.00000E+00
    0.22225E+04        -0.13195E+04         0.00000E+00
    0.00000E+00         0.00000E+00        -0.18075E+04
 
   -0.43905E+04         0.23502E+04         0.00000E+00
    0.23502E+04        -0.14862E+04         0.00000E+00
    0.00000E+00         0.00000E+00        -0.17630E+04
 
   -0.40514E+04         0.24715E+04         0.00000E+00
    0.24715E+04        -0.16588E+04         0.00000E+00
    0.00000E+00         0.00000E+00        -0.17131E+04
 
   -0.36883E+04         0.25864E+04         0.00000E+00
    0.25864E+04        -0.18367E+04         0.00000E+00
    0.00000E+00         0.00000E+00        -0.16575E+04
 
   -0.33010E+04         0.26945E+04         0.00000E+00
    0.26945E+04        -0.20199E+04         0.00000E+00
    0.00000E+00         0.00000E+00        -0.15963E+04
 
   -0.28890E+04         0.27954E+04         0.00000E+00
    0.27954E+04        -0.22085E+04         0.00000E+00
    0.00000E+00         0.00000E+00        -0.15292E+04
 
   -0.24519E+04         0.28885E+04         0.00000E+00
    0.28885E+04        -0.24025E+04         0.00000E+00
    0.00000E+00         0.00000E+00        -0.14563E+04
 
   -0.19890E+04         0.29728E+04         0.00000E+00
    0.29728E+04        -0.26024E+04         0.00000E+00
    0.00000E+00         0.00000E+00        -0.13774E+04
 
   -0.14997E+04         0.30471E+04         0.00000E+00
    0.30471E+04        -0.28085E+04         0.00000E+00
    0.00000E+00         0.00000E+00        -0.12925E+04
 
   -0.61767E+04         0.44836E+02         0.00000E+00
    0.44836E+02         0.80758E+00         0.00000E+00
    0.00000E+00         0.00000E+00        -0.18528E+04
 
   -0.62396E+04         0.14457E+03         0.00000E+00
    0.14457E+03        -0.33189E+01         0.00000E+00
    0.00000E+00         0.00000E+00        -0.18729E+04
 
   -0.62825E+04         0.25614E+03         0.00000E+00
    0.25614E+03        -0.17438E+02         0.00000E+00
    0.00000E+00         0.00000E+00        -0.18900E+04
 
   -0.63038E+04         0.37791E+03         0.00000E+00
    0.37791E+03        -0.42344E+02         0.00000E+00
    0.00000E+00         0.00000E+00        -0.19038E+04
 
   -0.63018E+04         0.50824E+03         0.00000E+00
    0.50824E+03        -0.78677E+02         0.00000E+00
    0.00000E+00         0.00000E+00        -0.19142E+04
 
   -0.62755E+04         0.64546E+03         0.00000E+00
    0.64546E+03        -0.12691E+03         0.00000E+00
    0.00000E+00         0.00000E+00        -0.19207E+04
 
   -0.62237E+04         0.78787E+03         0.00000E+00
    0.78787E+03        -0.18731E+03         0.00000E+00
    0.00000E+00         0.00000E+00        -0.19233E+04
 
   -0.61458E+04         0.93378E+03         0.00000E+00
    0.93378E+03        -0.25994E+03         0.00000E+00
    0.00000E+00         0.00000E+00        -0.19217E+04
 
   -0.60414E+04         0.10815E+04         0.00000E+00
    0.10815E+04        -0.34466E+03         0.00000E+00
    0.00000E+00         0.00000E+00        -0.19158E+04
 
   -0.59102E+04         0.12296E+04         0.00000E+00
    0.12296E+04        -0.44110E+03         0.00000E+00
    0.00000E+00         0.00000E+00        -0.19054E+04
 
   -0.57524E+04         0.13767E+04         0.00000E+00
    0.13767E+04        -0.54873E+03         0.00000E+00
    0.00000E+00         0.00000E+00        -0.18904E+04
 
   -0.55684E+04         0.15214E+04         0.00000E+00
    0.15214E+04        -0.66688E+03         0.00000E+00
    0.00000E+00         0.00000E+00        -0.18706E+04
 
   -0.53584E+04         0.16629E+04         0.00000E+00
    0.16629E+04        -0.79478E+03         0.00000E+00
    0.00000E+00         0.00000E+00        -0.18459E+04
 
   -0.51229E+04         0.18002E+04         0.00000E+00
    0.18002E+04        -0.93164E+03         0.00000E+00
    0.00000E+00         0.00000E+00        -0.18164E+04
 
   -0.48626E+04         0.19327E+04         0.00000E+00
    0.19327E+04        -0.10767E+04         0.00000E+00
    0.00000E+00         0.00000E+00        -0.17818E+04
 
   -0.45778E+04         0.20601E+04         0.00000E+00
    0.20601E+04        -0.12292E+04         0.00000E+00
    0.00000E+00         0.00000E+00        -0.17421E+04
 
   -0.42690E+04         0.21818E+04         0.00000E+00
    0.21818E+04        -0.13885E+04         0.00000E+00
    0.00000E+00         0.00000E+00        -0.16972E+04
 
   -0.39362E+04         0.22975E+04         0.00000E+00
    0.22975E+04        -0.15542E+04         0.00000E+00
    0.00000E+00         0.00000E+00        -0.16471E+04
 
   -0.35796E+04         0.24070E+04         0.00000E+00
    0.24070E+04        -0.17259E+04         0.00000E+00
    0.00000E+00         0.00000E+00        -0.15917E+04
 
   -0.31992E+04         0.25099E+04         0.00000E+00
    0.25099E+04        -0.19035E+04         0.00000E+00
    0.00000E+00         0.00000E+00        -0.15308E+04
 
   -0.27947E+04         0.26055E+04         0.00000E+00
    0.26055E+04        -0.20868E+04         0.00000E+00
    0.00000E+00         0.00000E+00        -0.14645E+04
 
   -0.23660E+04         0.26932E+04         0.00000E+00
    0.26932E+04        -0.22759E+04         0.00000E+00
    0.00000E+00         0.00000E+00        -0.13926E+04
 
   -0.19126E+04         0.27718E+04         0.00000E+00
    0.27718E+04        -0.24710E+04         0.00000E+00
    0.00000E+00         0.00000E+00        -0.13151E+04
 
   -0.14343E+04         0.28402E+04         0.00000E+00
    0.28402E+04        -0.26721E+04         0.00000E+00
    0.00000E+00         0.00000E+00        -0.12319E+04
 
   -0.60878E+04         0.40639E+02         0.00000E+00
    0.40639E+02         0.95107E+00         0.00000E+00
    0.00000E+00         0.00000E+00        -0.18261E+04
 
   -0.61386E+04         0.13124E+03         0.00000E+00
    0.13124E+03        -0.24153E+01         0.00000E+00
    0.00000E+00         0.00000E+00        -0.18423E+04
 
   -0.61709E+04         0.23282E+03         0.00000E+00
    0.23282E+03        -0.15000E+02         0.00000E+00
    0.00000E+00         0.00000E+00        -0.18558E+04
 
   -0.61831E+04         0.34393E+03         0.00000E+00
    0.34393E+03        -0.37584E+02         0.00000E+00
    0.00000E+00         0.00000E+00        -0.18662E+04
 
   -0.61737E+04         0.46307E+03         0.00000E+00
    0.46307E+03        -0.70792E+02         0.00000E+00
    0.00000E+00         0.00000E+00        -0.18733E+04
 
   -0.61414E+04         0.58874E+03         0.00000E+00
    0.58874E+03        -0.11508E+03         0.00000E+00
    0.00000E+00         0.00000E+00        -0.18769E+04
 
   -0.60853E+04         0.71944E+03         0.00000E+00
    0.71944E+03        -0.17075E+03         0.00000E+00
    0.00000E+00         0.00000E+00        -0.18768E+04
 
   -0.60047E+04         0.85367E+03         0.00000E+00
    0.85367E+03        -0.23788E+03         0.00000E+00
    0.00000E+00         0.00000E+00        -0.18728E+04
 
   -0.58990E+04         0.98999E+03         0.00000E+00
    0.98999E+03        -0.31641E+03         0.00000E+00
    0.00000E+00         0.00000E+00        -0.18646E+04
 
   -0.57680E+04         0.11271E+04         0.00000E+00
    0.11271E+04        -0.40609E+03         0.00000E+00
    0.00000E+00         0.00000E+00        -0.18522E+04
 
   -0.56116E+04         0.12636E+04         0.00000E+00
    0.12636E+04        -0.50652E+03         0.00000E+00
    0.00000E+00         0.00000E+00        -0.18355E+04
 
   -0.54300E+04         0.13985E+04         0.00000E+00
    0.13985E+04        -0.61719E+03         0.00000E+00
    0.00000E+00         0.00000E+00        -0.18142E+04
 
   -0.52234E+04         0.15308E+04         0.00000E+00
    0.15308E+04        -0.73749E+03         0.00000E+00
    0.00000E+00         0.00000E+00        -0.17883E+04
 
   -0.49921E+04         0.16598E+04         0.00000E+00
    0.16598E+04        -0.86679E+03         0.00000E+00
    0.00000E+00         0.00000E+00        -0.17577E+04
 
   -0.47364E+04         0.17846E+04         0.00000E+00
    0.17846E+04        -0.10045E+04         0.00000E+00
    0.00000E+00         0.00000E+00        -0.17223E+04
 
   -0.44568E+04         0.19049E+04         0.00000E+00
    0.19049E+04        -0.11499E+04         0.00000E+00
    0.00000E+00         0.00000E+00        -0.16820E+04
 
   -0.41535E+04         0.20201E+04         0.00000E+00
    0.20201E+04        -0.13026E+04         0.00000E+00
    0.00000E+00         0.00000E+00        -0.16368E+04
 
   -0.38266E+04         0.21298E+04         0.00000E+00
    0.21298E+04        -0.14621E+04         0.00000E+00
    0.00000E+00         0.00000E+00        -0.15866E+04
 
   -0.34764E+04         0.22334E+04         0.00000E+00
    0.22334E+04        -0.16281E+04         0.00000E+00
    0.00000E+00         0.00000E+00        -0.15313E+04
 
   -0.31029E+04         0.23306E+04         0.00000E+00
    0.23306E+04        -0.18003E+04         0.00000E+00
    0.00000E+00         0.00000E+00        -0.14709E+04
 
   -0.27060E+04         0.24206E+04         0.00000E+00
    0.24206E+04        -0.19786E+04         0.00000E+00
    0.00000E+00         0.00000E+00        -0.14054E+04
 
   -0.22856E+04         0.25027E+04         0.00000E+00
    0.25027E+04        -0.21629E+04         0.00000E+00
    0.00000E+00         0.00000E+00        -0.13346E+04
 
   -0.18419E+04         0.25757E+04         0.00000E+00
    0.25757E+04        -0.23531E+04         0.00000E+00
    0.00000E+00         0.00000E+00        -0.12585E+04
 
   -0.13747E+04         0.26384E+04         0.00000E+00
    0.26384E+04        -0.25493E+04         0.00000E+00
    0.00000E+00         0.00000E+00        -0.11772E+04
 
   -0.60073E+04         0.36808E+02         0.00000E+00
    0.36808E+02         0.10769E+01         0.00000E+00
    0.00000E+00         0.00000E+00        -0.18019E+04
 
   -0.60468E+04         0.11900E+03         0.00000E+00
    0.11900E+03        -0.16171E+01         0.00000E+00
    0.00000E+00         0.00000E+00        -0.18145E+04
 
   -0.60693E+04         0.21134E+03         0.00000E+00
    0.21134E+03        -0.12838E+02         0.00000E+00
    0.00000E+00         0.00000E+00        -0.18246E+04
 
   -0.60730E+04         0.31253E+03         0.00000E+00
    0.31253E+03        -0.33358E+02         0.00000E+00
    0.00000E+00         0.00000E+00        -0.18319E+04
 
   -0.60565E+04         0.42123E+03         0.00000E+00
    0.42123E+03        -0.63798E+02         0.00000E+00
    0.00000E+00         0.00000E+00        -0.18361E+04
 
   -0.60186E+04         0.53611E+03         0.00000E+00
    0.53611E+03        -0.10462E+03         0.00000E+00
    0.00000E+00         0.00000E+00        -0.18370E+04
 
   -0.59583E+04         0.65582E+03         0.00000E+00
    0.65582E+03        -0.15612E+03         0.00000E+00
    0.00000E+00         0.00000E+00        -0.18343E+04
 
   -0.58749E+04         0.77904E+03         0.00000E+00
    0.77904E+03        -0.21846E+03         0.00000E+00
    0.00000E+00         0.00000E+00        -0.18280E+04
 
   -0.57677E+04         0.90450E+03         0.00000E+00
    0.90450E+03        -0.29161E+03         0.00000E+00
    0.00000E+00         0.00000E+00        -0.18178E+04
 
   -0.56364E+04         0.10310E+04         0.00000E+00
    0.10310E+04        -0.37542E+03         0.00000E+00
    0.00000E+00         0.00000E+00        -0.18035E+04
 
   -0.54809E+04         0.11574E+04         0.00000E+00
    0.11574E+04        -0.46961E+03         0.00000E+00
    0.00000E+00         0.00000E+00        -0.17851E+04
 
   -0.53011E+04         0.12827E+04         0.00000E+00
    0.12827E+04        -0.57378E+03         0.00000E+00
    0.00000E+00         0.00000E+00        -0.17625E+04
 
   -0.50972E+04         0.14059E+04         0.00000E+00
    0.14059E+04        -0.68747E+03         0.00000E+00
    0.00000E+00         0.00000E+00        -0.17354E+04
 
   -0.48693E+04         0.15264E+04         0.00000E+00
    0.15264E+04        -0.81017E+03         0.00000E+00
    0.00000E+00         0.00000E+00        -0.17039E+04
 
   -0.46178E+04         0.16434E+04         0.00000E+00
    0.16434E+04        -0.94137E+03         0.00000E+00
    0.00000E+00         0.00000E+00        -0.16677E+04
 
   -0.43427E+04         0.17563E+04         0.00000E+00
    0.17563E+04        -0.10806E+04         0.00000E+00
    0.00000E+00         0.00000E+00        -0.16270E+04
 
   -0.40445E+04         0.18645E+04         0.00000E+00
    0.18645E+04        -0.12273E+04         0.00000E+00
    0.00000E+00         0.00000E+00        -0.15815E+04
 
   -0.37232E+04         0.19677E+04         0.00000E+00
    0.19677E+04        -0.13812E+04         0.00000E+00
    0.00000E+00         0.00000E+00        -0.15313E+04
 
   -0.33791E+04         0.20652E+04         0.00000E+00
    0.20652E+04        -0.15418E+04         0.00000E+00
    0.00000E+00         0.00000E+00        -0.14763E+04
 
   -0.30123E+04         0.21563E+04         0.00000E+00
    0.21563E+04        -0.17090E+04         0.00000E+00
    0.00000E+00         0.00000E+00        -0.14164E+04
 
   -0.26229E+04         0.22405E+04         0.00000E+00
    0.22405E+04        -0.18825E+04         0.00000E+00
    0.00000E+00         0.00000E+00        -0.13516E+04
 
   -0.22110E+04         0.23169E+04         0.00000E+00
    0.23169E+04        -0.20622E+04         0.00000E+00
    0.00000E+00         0.00000E+00        -0.12819E+04
 
   -0.17768E+04         0.23843E+04         0.00000E+00
    0.23843E+04        -0.22478E+04         0.00000E+00
    0.00000E+00         0.00000E+00        -0.12074E+04
 
   -0.13205E+04         0.24417E+04         0.00000E+00
    0.24417E+04        -0.24391E+04         0.00000E+00
    0.00000E+00         0.00000E+00        -0.11279E+04
 
   -0.59344E+04         0.33296E+02         0.00000E+00
    0.33296E+02         0.11851E+01         0.00000E+00
    0.00000E+00         0.00000E+00        -0.17800E+04
 
   -0.59635E+04         0.10773E+03         0.00000E+00
    0.10773E+03        -0.92484E+00         0.00000E+00
    0.00000E+00         0.00000E+00        -0.17893E+04
 
   -0.59769E+04         0.19148E+03         0.00000E+00
    0.19148E+03        -0.10953E+02         0.00000E+00
    0.00000E+00         0.00000E+00        -0.17964E+04
 
   -0.59727E+04         0.28341E+03         0.00000E+00
    0.28341E+03        -0.29665E+02         0.00000E+00
    0.00000E+00         0.00000E+00        -0.18007E+04
 
   -0.59496E+04         0.38233E+03         0.00000E+00
    0.38233E+03        -0.57678E+02         0.00000E+00
    0.00000E+00         0.00000E+00        -0.18022E+04
 
   -0.59064E+04         0.48705E+03         0.00000E+00
    0.48705E+03        -0.95463E+02         0.00000E+00
    0.00000E+00         0.00000E+00        -0.18006E+04
 
   -0.58420E+04         0.59640E+03         0.00000E+00
    0.59640E+03        -0.14334E+03         0.00000E+00
    0.00000E+00         0.00000E+00        -0.17956E+04
 
   -0.57557E+04         0.70918E+03         0.00000E+00
    0.70918E+03        -0.20150E+03         0.00000E+00
    0.00000E+00         0.00000E+00        -0.17872E+04
 
   -0.56468E+04         0.82428E+03         0.00000E+00
    0.82428E+03        -0.26999E+03         0.00000E+00
    0.00000E+00         0.00000E+00        -0.17750E+04
 
   -0.55150E+04         0.94060E+03         0.00000E+00
    0.94060E+03        -0.34872E+03         0.00000E+00
    0.00000E+00         0.00000E+00        -0.17591E+04
 
   -0.53599E+04         0.10571E+04         0.00000E+00
    0.10571E+04        -0.43749E+03         0.00000E+00
    0.00000E+00         0.00000E+00        -0.17392E+04
 
   -0.51815E+04         0.11729E+04         0.00000E+00
    0.11729E+04        -0.53603E+03         0.00000E+00
    0.00000E+00         0.00000E+00        -0.17153E+04
 
   -0.49798E+04         0.12872E+04         0.00000E+00
    0.12872E+04        -0.64397E+03         0.00000E+00
    0.00000E+00         0.00000E+00        -0.16871E+04
 
   -0.47548E+04         0.13991E+04         0.00000E+00
    0.13991E+04        -0.76090E+03         0.00000E+00
    0.00000E+00         0.00000E+00        -0.16547E+04
 
   -0.45068E+04         0.15081E+04         0.00000E+00
    0.15081E+04        -0.88641E+03         0.00000E+00
    0.00000E+00         0.00000E+00        -0.16180E+04
 
   -0.42359E+04         0.16134E+04         0.00000E+00
    0.16134E+04        -0.10201E+04         0.00000E+00
    0.00000E+00         0.00000E+00        -0.15768E+04
 
   -0.39423E+04         0.17145E+04         0.00000E+00
    0.17145E+04        -0.11615E+04         0.00000E+00
    0.00000E+00         0.00000E+00        -0.15311E+04
 
   -0.36263E+04         0.18109E+04         0.00000E+00
    0.18109E+04        -0.13102E+04         0.00000E+00
    0.00000E+00         0.00000E+00        -0.14810E+04
 
   -0.32880E+04         0.19019E+04         0.00000E+00
    0.19019E+04        -0.14660E+04         0.00000E+00
    0.00000E+00         0.00000E+00        -0.14262E+04
 
   -0.29277E+04         0.19868E+04         0.00000E+00
    0.19868E+04        -0.16285E+04         0.00000E+00
    0.00000E+00         0.00000E+00        -0.13669E+04
 
   -0.25456E+04         0.20651E+04         0.00000E+00
    0.20651E+04        -0.17975E+04         0.00000E+00
    0.00000E+00         0.00000E+00        -0.13029E+04
 
   -0.21419E+04         0.21357E+04         0.00000E+00
    0.21357E+04        -0.19727E+04         0.00000E+00
    0.00000E+00         0.00000E+00        -0.12344E+04
 
   -0.17170E+04         0.21977E+04         0.00000E+00
    0.21977E+04        -0.21537E+04         0.00000E+00
    0.00000E+00         0.00000E+00        -0.11612E+04
 
   -0.12715E+04         0.22498E+04         0.00000E+00
    0.22498E+04        -0.23403E+04         0.00000E+00
    0.00000E+00         0.00000E+00        -0.10835E+04
 
   -0.58684E+04         0.30056E+02         0.00000E+00
    0.30056E+02         0.12764E+01         0.00000E+00
    0.00000E+00         0.00000E+00        -0.17601E+04
 
   -0.58882E+04         0.97285E+02         0.00000E+00
    0.97285E+02        -0.33406E+00         0.00000E+00
    0.00000E+00         0.00000E+00        -0.17666E+04
 
   -0.58931E+04         0.17303E+03         0.00000E+00
    0.17303E+03        -0.93342E+01         0.00000E+00
    0.00000E+00         0.00000E+00        -0.17707E+04
 
   -0.58817E+04         0.25627E+03         0.00000E+00
    0.25627E+03        -0.26481E+02         0.00000E+00
    0.00000E+00         0.00000E+00        -0.17725E+04
 
   -0.58524E+04         0.34599E+03         0.00000E+00
    0.34599E+03        -0.52389E+02         0.00000E+00
    0.00000E+00         0.00000E+00        -0.17715E+04
 
   -0.58042E+04         0.44112E+03         0.00000E+00
    0.44112E+03        -0.87540E+02         0.00000E+00
    0.00000E+00         0.00000E+00        -0.17675E+04
 
   -0.57359E+04         0.54063E+03         0.00000E+00
    0.54063E+03        -0.13228E+03         0.00000E+00
    0.00000E+00         0.00000E+00        -0.17604E+04
 
   -0.56467E+04         0.64346E+03         0.00000E+00
    0.64346E+03        -0.18682E+03         0.00000E+00
    0.00000E+00         0.00000E+00        -0.17501E+04
 
   -0.55360E+04         0.74862E+03         0.00000E+00
    0.74862E+03        -0.25127E+03         0.00000E+00
    0.00000E+00         0.00000E+00        -0.17362E+04
 
   -0.54034E+04         0.85512E+03         0.00000E+00
    0.85512E+03        -0.32560E+03         0.00000E+00
    0.00000E+00         0.00000E+00        -0.17187E+04
 
   -0.52485E+04         0.96206E+03         0.00000E+00
    0.96206E+03        -0.40970E+03         0.00000E+00
    0.00000E+00         0.00000E+00        -0.16974E+04
 
   -0.50710E+04         0.10686E+04         0.00000E+00
    0.10686E+04        -0.50335E+03         0.00000E+00
    0.00000E+00         0.00000E+00        -0.16723E+04
 
   -0.48711E+04         0.11739E+04         0.00000E+00
    0.11739E+04        -0.60628E+03         0.00000E+00
    0.00000E+00         0.00000E+00        -0.16432E+04
 
   -0.46486E+04         0.12773E+04         0.00000E+00
    0.12773E+04        -0.71818E+03         0.00000E+00
    0.00000E+00         0.00000E+00        -0.16100E+04
 
   -0.44037E+04         0.13781E+04         0.00000E+00
    0.13781E+04        -0.83868E+03         0.00000E+00
    0.00000E+00         0.00000E+00        -0.15727E+04
 
   -0.41365E+04         0.14756E+04         0.00000E+00
    0.14756E+04        -0.96743E+03         0.00000E+00
    0.00000E+00         0.00000E+00        -0.15312E+04
 
   -0.38472E+04         0.15694E+04         0.00000E+00
    0.15694E+04        -0.11041E+04         0.00000E+00
    0.00000E+00         0.00000E+00        -0.14854E+04
 
   -0.35361E+04         0.16588E+04         0.00000E+00
    0.16588E+04        -0.12482E+04         0.00000E+00
    0.00000E+00         0.00000E+00        -0.14353E+04
 
   -0.32033E+04         0.17431E+04         0.00000E+00
    0.17431E+04        -0.13996E+04         0.00000E+00
    0.00000E+00         0.00000E+00        -0.13809E+04
 
   -0.28492E+04         0.18218E+04         0.00000E+00
    0.18218E+04        -0.15578E+04         0.00000E+00
    0.00000E+00         0.00000E+00        -0.13221E+04
 
   -0.24741E+04         0.18940E+04         0.00000E+00
    0.18940E+04        -0.17225E+04         0.00000E+00
    0.00000E+00         0.00000E+00        -0.12590E+04
 
   -0.20784E+04         0.19589E+04         0.00000E+00
    0.19589E+04        -0.18934E+04         0.00000E+00
    0.00000E+00         0.00000E+00        -0.11915E+04
 
   -0.16625E+04         0.20155E+04         0.00000E+00
    0.20155E+04        -0.20701E+04         0.00000E+00
    0.00000E+00         0.00000E+00        -0.11198E+04
 
   -0.12272E+04         0.20627E+04         0.00000E+00
    0.20627E+04        -0.22522E+04         0.00000E+00
    0.00000E+00         0.00000E+00        -0.10438E+04
 
   -0.58090E+04         0.27048E+02         0.00000E+00
    0.27048E+02         0.13523E+01         0.00000E+00
    0.00000E+00         0.00000E+00        -0.17423E+04
 
   -0.58202E+04         0.87558E+02         0.00000E+00
    0.87558E+02         0.16290E+00         0.00000E+00
    0.00000E+00         0.00000E+00        -0.17460E+04
 
   -0.58175E+04         0.15578E+03         0.00000E+00
    0.15578E+03        -0.79623E+01         0.00000E+00
    0.00000E+00         0.00000E+00        -0.17476E+04
 
   -0.57994E+04         0.23085E+03         0.00000E+00
    0.23085E+03        -0.23768E+02         0.00000E+00
    0.00000E+00         0.00000E+00        -0.17469E+04
 
   -0.57644E+04         0.31186E+03         0.00000E+00
    0.31186E+03        -0.47868E+02         0.00000E+00
    0.00000E+00         0.00000E+00        -0.17437E+04
 
   -0.57114E+04         0.39789E+03         0.00000E+00
    0.39789E+03        -0.80752E+02         0.00000E+00
    0.00000E+00         0.00000E+00        -0.17377E+04
 
   -0.56394E+04         0.48801E+03         0.00000E+00
    0.48801E+03        -0.12278E+03         0.00000E+00
    0.00000E+00         0.00000E+00        -0.17287E+04
 
   -0.55475E+04         0.58131E+03         0.00000E+00
    0.58131E+03        -0.17422E+03         0.00000E+00
    0.00000E+00         0.00000E+00        -0.17165E+04
 
   -0.54350E+04         0.67689E+03         0.00000E+00
    0.67689E+03        -0.23518E+03         0.00000E+00
    0.00000E+00         0.00000E+00        -0.17010E+04
 
   -0.53014E+04         0.77387E+03         0.00000E+00
    0.77387E+03        -0.30572E+03         0.00000E+00
    0.00000E+00         0.00000E+00        -0.16821E+04
 
   -0.51464E+04         0.87144E+03         0.00000E+00
    0.87144E+03        -0.38577E+03         0.00000E+00
    0.00000E+00         0.00000E+00        -0.16596E+04
 
   -0.49696E+04         0.96882E+03         0.00000E+00
    0.96882E+03        -0.47520E+03         0.00000E+00
    0.00000E+00         0.00000E+00        -0.16335E+04
 
   -0.47711E+04         0.10653E+04         0.00000E+00
    0.10653E+04        -0.57379E+03         0.00000E+00
    0.00000E+00         0.00000E+00        -0.16035E+04
 
   -0.45507E+04         0.11601E+04         0.00000E+00
    0.11601E+04        -0.68129E+03         0.00000E+00
    0.00000E+00         0.00000E+00        -0.15696E+04
 
   -0.43086E+04         0.12527E+04         0.00000E+00
    0.12527E+04        -0.79740E+03         0.00000E+00
    0.00000E+00         0.00000E+00        -0.15318E+04
 
   -0.40447E+04         0.13425E+04         0.00000E+00
    0.13425E+04        -0.92182E+03         0.00000E+00
    0.00000E+00         0.00000E+00        -0.14900E+04
 
   -0.37594E+04         0.14288E+04         0.00000E+00
    0.14288E+04        -0.10542E+04         0.00000E+00
    0.00000E+00         0.00000E+00        -0.14441E+04
 
   -0.34527E+04         0.15110E+04         0.00000E+00
    0.15110E+04        -0.11942E+04         0.00000E+00
    0.00000E+00         0.00000E+00        -0.13941E+04
 
   -0.31252E+04         0.15886E+04         0.00000E+00
    0.15886E+04        -0.13415E+04         0.00000E+00
    0.00000E+00         0.00000E+00        -0.13400E+04
 
   -0.27769E+04         0.16608E+04         0.00000E+00
    0.16608E+04        -0.14957E+04         0.00000E+00
    0.00000E+00         0.00000E+00        -0.12818E+04
 
   -0.24085E+04         0.17270E+04         0.00000E+00
    0.17270E+04        -0.16565E+04         0.00000E+00
    0.00000E+00         0.00000E+00        -0.12195E+04
 
   -0.20204E+04         0.17862E+04         0.00000E+00
    0.17862E+04        -0.18234E+04         0.00000E+00
    0.00000E+00         0.00000E+00        -0.11531E+04
 
   -0.16131E+04         0.18376E+04         0.00000E+00
    0.18376E+04        -0.19960E+04         0.00000E+00
    0.00000E+00         0.00000E+00        -0.10827E+04
 
   -0.11875E+04         0.18802E+04         0.00000E+00
    0.18802E+04        -0.21739E+04         0.00000E+00
    0.00000E+00         0.00000E+00        -0.10084E+04
 
   -0.57556E+04         0.24232E+02         0.00000E+00
    0.24232E+02         0.14145E+01         0.00000E+00
    0.00000E+00         0.00000E+00        -0.17263E+04
 
   -0.57591E+04         0.78432E+02         0.00000E+00
    0.78432E+02         0.57531E+00         0.00000E+00
    0.00000E+00         0.00000E+00        -0.17276E+04
 
   -0.57495E+04         0.13956E+03         0.00000E+00
    0.13956E+03        -0.68140E+01         0.00000E+00
    0.00000E+00         0.00000E+00        -0.17269E+04
 
   -0.57253E+04         0.20689E+03         0.00000E+00
    0.20689E+03        -0.21484E+02         0.00000E+00
    0.00000E+00         0.00000E+00        -0.17240E+04
 
   -0.56851E+04         0.27962E+03         0.00000E+00
    0.27962E+03        -0.44044E+02         0.00000E+00
    0.00000E+00         0.00000E+00        -0.17187E+04
 
   -0.56277E+04         0.35696E+03         0.00000E+00
    0.35696E+03        -0.74991E+02         0.00000E+00
    0.00000E+00         0.00000E+00        -0.17108E+04
 
   -0.55522E+04         0.43810E+03         0.00000E+00
    0.43810E+03        -0.11471E+03         0.00000E+00
    0.00000E+00         0.00000E+00        -0.17001E+04
 
   -0.54576E+04         0.52223E+03         0.00000E+00
    0.52223E+03        -0.16347E+03         0.00000E+00
    0.00000E+00         0.00000E+00        -0.16863E+04
 
   -0.53433E+04         0.60855E+03         0.00000E+00
    0.60855E+03        -0.22146E+03         0.00000E+00
    0.00000E+00         0.00000E+00        -0.16694E+04
 
   -0.52087E+04         0.69628E+03         0.00000E+00
    0.69628E+03        -0.28874E+03         0.00000E+00
    0.00000E+00         0.00000E+00        -0.16492E+04
 
   -0.50534E+04         0.78469E+03         0.00000E+00
    0.78469E+03        -0.36531E+03         0.00000E+00
    0.00000E+00         0.00000E+00        -0.16256E+04
 
   -0.48772E+04         0.87307E+03         0.00000E+00
    0.87307E+03        -0.45108E+03         0.00000E+00
    0.00000E+00         0.00000E+00        -0.15985E+04
 
   -0.46798E+04         0.96075E+03         0.00000E+00
    0.96075E+03        -0.54591E+03         0.00000E+00
    0.00000E+00         0.00000E+00        -0.15677E+04
 
   -0.44612E+04         0.10471E+04         0.00000E+00
    0.10471E+04        -0.64958E+03         0.00000E+00
    0.00000E+00         0.00000E+00        -0.15332E+04
 
   -0.42214E+04         0.11315E+04         0.00000E+00
    0.11315E+04        -0.76186E+03         0.00000E+00
    0.00000E+00         0.00000E+00        -0.14950E+04
 
   -0.39606E+04         0.12133E+04         0.00000E+00
    0.12133E+04        -0.88245E+03         0.00000E+00
    0.00000E+00         0.00000E+00        -0.14529E+04
 
   -0.36788E+04         0.12921E+04         0.00000E+00
    0.12921E+04        -0.10111E+04         0.00000E+00
    0.00000E+00         0.00000E+00        -0.14070E+04
 
   -0.33764E+04         0.13671E+04         0.00000E+00
    0.13671E+04        -0.11473E+04         0.00000E+00
    0.00000E+00         0.00000E+00        -0.13571E+04
 
   -0.30536E+04         0.14379E+04         0.00000E+00
    0.14379E+04        -0.12910E+04         0.00000E+00
    0.00000E+00         0.00000E+00        -0.13034E+04
 
   -0.27109E+04         0.15037E+04         0.00000E+00
    0.15037E+04        -0.14415E+04         0.00000E+00
    0.00000E+00         0.00000E+00        -0.12457E+04
 
   -0.23487E+04         0.15638E+04         0.00000E+00
    0.15638E+04        -0.15987E+04         0.00000E+00
    0.00000E+00         0.00000E+00        -0.11842E+04
 
   -0.19677E+04         0.16174E+04         0.00000E+00
    0.16174E+04        -0.17619E+04         0.00000E+00
    0.00000E+00         0.00000E+00        -0.11189E+04
 
   -0.15685E+04         0.16638E+04         0.00000E+00
    0.16638E+04        -0.19307E+04         0.00000E+00
    0.00000E+00         0.00000E+00        -0.10498E+04
 
   -0.11521E+04         0.17018E+04         0.00000E+00
    0.17018E+04        -0.21045E+04         0.00000E+00
    0.00000E+00         0.00000E+00        -0.97700E+03
 
   -0.57079E+04         0.21575E+02         0.00000E+00
    0.21575E+02         0.14645E+01         0.00000E+00
    0.00000E+00         0.00000E+00        -0.17119E+04
 
   -0.57046E+04         0.69805E+02         0.00000E+00
    0.69805E+02         0.91307E+00         0.00000E+00
    0.00000E+00         0.00000E+00        -0.17111E+04
 
   -0.56888E+04         0.12421E+03         0.00000E+00
    0.12421E+03        -0.58643E+01         0.00000E+00
    0.00000E+00         0.00000E+00        -0.17084E+04
 
   -0.56591E+04         0.18416E+03         0.00000E+00
    0.18416E+03        -0.19581E+02         0.00000E+00
    0.00000E+00         0.00000E+00        -0.17036E+04
 
   -0.56141E+04         0.24900E+03         0.00000E+00
    0.24900E+03        -0.40843E+02         0.00000E+00
    0.00000E+00         0.00000E+00        -0.16965E+04
 
   -0.55527E+04         0.31801E+03         0.00000E+00
    0.31801E+03        -0.70150E+02         0.00000E+00
    0.00000E+00         0.00000E+00        -0.16869E+04
 
   -0.54739E+04         0.39051E+03         0.00000E+00
    0.39051E+03        -0.10790E+03         0.00000E+00
    0.00000E+00         0.00000E+00        -0.16745E+04
 
   -0.53768E+04         0.46578E+03         0.00000E+00
    0.46578E+03        -0.15439E+03         0.00000E+00
    0.00000E+00         0.00000E+00        -0.16594E+04
 
   -0.52608E+04         0.54311E+03         0.00000E+00
    0.54311E+03        -0.20983E+03         0.00000E+00
    0.00000E+00         0.00000E+00        -0.16412E+04
 
   -0.51251E+04         0.62183E+03         0.00000E+00
    0.62183E+03        -0.27432E+03         0.00000E+00
    0.00000E+00         0.00000E+00        -0.16198E+04
 
   -0.49695E+04         0.70126E+03         0.00000E+00
    0.70126E+03        -0.34791E+03         0.00000E+00
    0.00000E+00         0.00000E+00        -0.15952E+04
 
   -0.47936E+04         0.78078E+03         0.00000E+00
    0.78078E+03        -0.43055E+03         0.00000E+00
    0.00000E+00         0.00000E+00        -0.15672E+04
 
   -0.45971E+04         0.85977E+03         0.00000E+00
    0.85977E+03        -0.52212E+03         0.00000E+00
    0.00000E+00         0.00000E+00        -0.15358E+04
 
   -0.43801E+04         0.93764E+03         0.00000E+00
    0.93764E+03        -0.62248E+03         0.00000E+00
    0.00000E+00         0.00000E+00        -0.15008E+04
 
   -0.41424E+04         0.10138E+04         0.00000E+00
    0.10138E+04        -0.73141E+03         0.00000E+00
    0.00000E+00         0.00000E+00        -0.14621E+04
 
   -0.38842E+04         0.10878E+04         0.00000E+00
    0.10878E+04        -0.84865E+03         0.00000E+00
    0.00000E+00         0.00000E+00        -0.14199E+04
 
   -0.36057E+04         0.11589E+04         0.00000E+00
    0.11589E+04        -0.97392E+03         0.00000E+00
    0.00000E+00         0.00000E+00        -0.13739E+04
 
   -0.33070E+04         0.12268E+04         0.00000E+00
    0.12268E+04        -0.11069E+04         0.00000E+00
    0.00000E+00         0.00000E+00        -0.13242E+04
 
   -0.29887E+04         0.12906E+04         0.00000E+00
    0.12906E+04        -0.12472E+04         0.00000E+00
    0.00000E+00         0.00000E+00        -0.12708E+04
 
   -0.26511E+04         0.13500E+04         0.00000E+00
    0.13500E+04        -0.13945E+04         0.00000E+00
    0.00000E+00         0.00000E+00        -0.12137E+04
 
   -0.22947E+04         0.14041E+04         0.00000E+00
    0.14041E+04        -0.15483E+04         0.00000E+00
    0.00000E+00         0.00000E+00        -0.11529E+04
 
   -0.19203E+04         0.14523E+04         0.00000E+00
    0.14523E+04        -0.17081E+04         0.00000E+00
    0.00000E+00         0.00000E+00        -0.10885E+04
 
   -0.15287E+04         0.14937E+04         0.00000E+00
    0.14937E+04        -0.18734E+04         0.00000E+00
    0.00000E+00         0.00000E+00        -0.10206E+04
 
   -0.11207E+04         0.15275E+04         0.00000E+00
    0.15275E+04        -0.20436E+04         0.00000E+00
    0.00000E+00         0.00000E+00        -0.94928E+03
 
   -0.56657E+04         0.19045E+02         0.00000E+00
    0.19045E+02         0.15043E+01         0.00000E+00
    0.00000E+00         0.00000E+00        -0.16992E+04
 
   -0.56563E+04         0.61590E+02         0.00000E+00
    0.61590E+02         0.11861E+01         0.00000E+00
    0.00000E+00         0.00000E+00        -0.16965E+04
 
   -0.56349E+04         0.10958E+03         0.00000E+00
    0.10958E+03        -0.50881E+01         0.00000E+00
    0.00000E+00         0.00000E+00        -0.16920E+04
 
   -0.56003E+04         0.16248E+03         0.00000E+00
    0.16248E+03        -0.18014E+02         0.00000E+00
    0.00000E+00         0.00000E+00        -0.16855E+04
 
   -0.55511E+04         0.21973E+03         0.00000E+00
    0.21973E+03        -0.38190E+02         0.00000E+00
    0.00000E+00         0.00000E+00        -0.16768E+04
 
   -0.54860E+04         0.28073E+03         0.00000E+00
    0.28073E+03        -0.66120E+02         0.00000E+00
    0.00000E+00         0.00000E+00        -0.16656E+04
 
   -0.54043E+04         0.34488E+03         0.00000E+00
    0.34488E+03        -0.10221E+03         0.00000E+00
    0.00000E+00         0.00000E+00        -0.16519E+04
 
   -0.53049E+04         0.41155E+03         0.00000E+00
    0.41155E+03        -0.14678E+03         0.00000E+00
    0.00000E+00         0.00000E+00        -0.16355E+04
 
   -0.51871E+04         0.48014E+03         0.00000E+00
    0.48014E+03        -0.20006E+03         0.00000E+00
    0.00000E+00         0.00000E+00        -0.16162E+04
 
   -0.50505E+04         0.55005E+03         0.00000E+00
    0.55005E+03        -0.26219E+03         0.00000E+00
    0.00000E+00         0.00000E+00        -0.15938E+04
 
   -0.48944E+04         0.62068E+03         0.00000E+00
    0.62068E+03        -0.33323E+03         0.00000E+00
    0.00000E+00         0.00000E+00        -0.15683E+04
 
   -0.47187E+04         0.69146E+03         0.00000E+00
    0.69146E+03        -0.41319E+03         0.00000E+00
    0.00000E+00         0.00000E+00        -0.15396E+04
 
   -0.45230E+04         0.76185E+03         0.00000E+00
    0.76185E+03        -0.50198E+03         0.00000E+00
    0.00000E+00         0.00000E+00        -0.15075E+04
 
   -0.43072E+04         0.83130E+03         0.00000E+00
    0.83130E+03        -0.59948E+03         0.00000E+00
    0.00000E+00         0.00000E+00        -0.14720E+04
 
   -0.40714E+04         0.89931E+03         0.00000E+00
    0.89931E+03        -0.70551E+03         0.00000E+00
    0.00000E+00         0.00000E+00        -0.14331E+04
 
   -0.38155E+04         0.96536E+03         0.00000E+00
    0.96536E+03        -0.81983E+03         0.00000E+00
    0.00000E+00         0.00000E+00        -0.13906E+04
 
   -0.35399E+04         0.10289E+04         0.00000E+00
    0.10289E+04        -0.94216E+03         0.00000E+00
    0.00000E+00         0.00000E+00        -0.13446E+04
 
   -0.32448E+04         0.10895E+04         0.00000E+00
    0.10895E+04        -0.10722E+04         0.00000E+00
    0.00000E+00         0.00000E+00        -0.12951E+04
 
   -0.29305E+04         0.11465E+04         0.00000E+00
    0.11465E+04        -0.12096E+04         0.00000E+00
    0.00000E+00         0.00000E+00        -0.12420E+04
 
   -0.25975E+04         0.11995E+04         0.00000E+00
    0.11995E+04        -0.13539E+04         0.00000E+00
    0.00000E+00         0.00000E+00        -0.11854E+04
 
   -0.22465E+04         0.12476E+04         0.00000E+00
    0.12476E+04        -0.15047E+04         0.00000E+00
    0.00000E+00         0.00000E+00        -0.11253E+04
 
   -0.18781E+04         0.12904E+04         0.00000E+00
    0.12904E+04        -0.16614E+04         0.00000E+00
    0.00000E+00         0.00000E+00        -0.10619E+04
 
   -0.14933E+04         0.13270E+04         0.00000E+00
    0.13270E+04        -0.18235E+04         0.00000E+00
    0.00000E+00         0.00000E+00        -0.99505E+03
 
   -0.10930E+04         0.13567E+04         0.00000E+00
    0.13567E+04        -0.19903E+04         0.00000E+00
    0.00000E+00         0.00000E+00        -0.92501E+03
 
   -0.56286E+04         0.16618E+02         0.00000E+00
    0.16618E+02         0.15354E+01         0.00000E+00
    0.00000E+00         0.00000E+00        -0.16881E+04
 
   -0.56139E+04         0.53710E+02         0.00000E+00
    0.53710E+02         0.14038E+01         0.00000E+00
    0.00000E+00         0.00000E+00        -0.16837E+04
 
   -0.55877E+04         0.95532E+02         0.00000E+00
    0.95532E+02        -0.44618E+01         0.00000E+00
    0.00000E+00         0.00000E+00        -0.16777E+04
 
   -0.55487E+04         0.14165E+03         0.00000E+00
    0.14165E+03        -0.16739E+02         0.00000E+00
    0.00000E+00         0.00000E+00        -0.16696E+04
 
   -0.54957E+04         0.19159E+03         0.00000E+00
    0.19159E+03        -0.36018E+02         0.00000E+00
    0.00000E+00         0.00000E+00        -0.16595E+04
 
   -0.54274E+04         0.24484E+03         0.00000E+00
    0.24484E+03        -0.62802E+02         0.00000E+00
    0.00000E+00         0.00000E+00        -0.16471E+04
 
   -0.53430E+04         0.30090E+03         0.00000E+00
    0.30090E+03        -0.97510E+02         0.00000E+00
    0.00000E+00         0.00000E+00        -0.16321E+04
 
   -0.52415E+04         0.35921E+03         0.00000E+00
    0.35921E+03        -0.14047E+03         0.00000E+00
    0.00000E+00         0.00000E+00        -0.16146E+04
 
   -0.51222E+04         0.41927E+03         0.00000E+00
    0.41927E+03        -0.19193E+03         0.00000E+00
    0.00000E+00         0.00000E+00        -0.15942E+04
 
   -0.49845E+04         0.48054E+03         0.00000E+00
    0.48054E+03        -0.25207E+03         0.00000E+00
    0.00000E+00         0.00000E+00        -0.15710E+04
 
   -0.48281E+04         0.54250E+03         0.00000E+00
    0.54250E+03        -0.32096E+03         0.00000E+00
    0.00000E+00         0.00000E+00        -0.15447E+04
 
   -0.46524E+04         0.60467E+03         0.00000E+00
    0.60467E+03        -0.39864E+03         0.00000E+00
    0.00000E+00         0.00000E+00        -0.15153E+04
 
   -0.44573E+04         0.66654E+03         0.00000E+00
    0.66654E+03        -0.48506E+03         0.00000E+00
    0.00000E+00         0.00000E+00        -0.14827E+04
 
   -0.42426E+04         0.72765E+03         0.00000E+00
    0.72765E+03        -0.58012E+03         0.00000E+00
    0.00000E+00         0.00000E+00        -0.14468E+04
 
   -0.40084E+04         0.78751E+03         0.00000E+00
    0.78751E+03        -0.68365E+03         0.00000E+00
    0.00000E+00         0.00000E+00        -0.14076E+04
 
   -0.37546E+04         0.84568E+03         0.00000E+00
    0.84568E+03        -0.79545E+03         0.00000E+00
    0.00000E+00         0.00000E+00        -0.13650E+04
 
   -0.34816E+04         0.90167E+03         0.00000E+00
    0.90167E+03        -0.91524E+03         0.00000E+00
    0.00000E+00         0.00000E+00        -0.13190E+04
 
   -0.31895E+04         0.95501E+03         0.00000E+00
    0.95501E+03        -0.10427E+04         0.00000E+00
    0.00000E+00         0.00000E+00        -0.12697E+04
 
   -0.28788E+04         0.10052E+04         0.00000E+00
    0.10052E+04        -0.11775E+04         0.00000E+00
    0.00000E+00         0.00000E+00        -0.12169E+04
 
   -0.25500E+04         0.10517E+04         0.00000E+00
    0.10517E+04        -0.13192E+04         0.00000E+00
    0.00000E+00         0.00000E+00        -0.11608E+04
 
   -0.22038E+04         0.10940E+04         0.00000E+00
    0.10940E+04        -0.14673E+04         0.00000E+00
    0.00000E+00         0.00000E+00        -0.11013E+04
 
   -0.18409E+04         0.11315E+04         0.00000E+00
    0.11315E+04        -0.16213E+04         0.00000E+00
    0.00000E+00         0.00000E+00        -0.10387E+04
 
   -0.14623E+04         0.11634E+04         0.00000E+00
    0.11634E+04        -0.17805E+04         0.00000E+00
    0.00000E+00         0.00000E+00        -0.97284E+03
 
   -0.10690E+04         0.11892E+04         0.00000E+00
    0.11892E+04        -0.19443E+04         0.00000E+00
    0.00000E+00         0.00000E+00        -0.90399E+03
 
   -0.55964E+04         0.14272E+02         0.00000E+00
    0.14272E+02         0.15592E+01         0.00000E+00
    0.00000E+00         0.00000E+00        -0.16785E+04
 
   -0.55772E+04         0.46098E+02         0.00000E+00
    0.46098E+02         0.15748E+01         0.00000E+00
    0.00000E+00         0.00000E+00        -0.16727E+04
 
   -0.55468E+04         0.81968E+02         0.00000E+00
    0.81968E+02        -0.39633E+01         0.00000E+00
    0.00000E+00         0.00000E+00        -0.16652E+04
 
   -0.55041E+04         0.12153E+03         0.00000E+00
    0.12153E+03        -0.15714E+02         0.00000E+00
    0.00000E+00         0.00000E+00        -0.16559E+04
 
   -0.54477E+04         0.16438E+03         0.00000E+00
    0.16438E+03        -0.34261E+02         0.00000E+00
    0.00000E+00         0.00000E+00        -0.16446E+04
 
   -0.53766E+04         0.21011E+03         0.00000E+00
    0.21011E+03        -0.60105E+02         0.00000E+00
    0.00000E+00         0.00000E+00        -0.16310E+04
 
   -0.52898E+04         0.25828E+03         0.00000E+00
    0.25828E+03        -0.93670E+02         0.00000E+00
    0.00000E+00         0.00000E+00        -0.16150E+04
 
   -0.51864E+04         0.30844E+03         0.00000E+00
    0.30844E+03        -0.13530E+03         0.00000E+00
    0.00000E+00         0.00000E+00        -0.15965E+04
 
   -0.50657E+04         0.36014E+03         0.00000E+00
    0.36014E+03        -0.18525E+03         0.00000E+00
    0.00000E+00         0.00000E+00        -0.15753E+04
 
   -0.49272E+04         0.41293E+03         0.00000E+00
    0.41293E+03        -0.24372E+03         0.00000E+00
    0.00000E+00         0.00000E+00        -0.15513E+04
 
   -0.47703E+04         0.46637E+03         0.00000E+00
    0.46637E+03        -0.31082E+03         0.00000E+00
    0.00000E+00         0.00000E+00        -0.15243E+04
 
   -0.45946E+04         0.52002E+03         0.00000E+00
    0.52002E+03        -0.38659E+03         0.00000E+00
    0.00000E+00         0.00000E+00        -0.14944E+04
 
   -0.44000E+04         0.57346E+03         0.00000E+00
    0.57346E+03        -0.47102E+03         0.00000E+00
    0.00000E+00         0.00000E+00        -0.14613E+04
 
   -0.41862E+04         0.62627E+03         0.00000E+00
    0.62627E+03        -0.56401E+03         0.00000E+00
    0.00000E+00         0.00000E+00        -0.14251E+04
 
   -0.39534E+04         0.67804E+03         0.00000E+00
    0.67804E+03        -0.66542E+03         0.00000E+00
    0.00000E+00         0.00000E+00        -0.13856E+04
 
   -0.37014E+04         0.72835E+03         0.00000E+00
    0.72835E+03        -0.77506E+03         0.00000E+00
    0.00000E+00         0.00000E+00        -0.13429E+04
 
   -0.34306E+04         0.77678E+03         0.00000E+00
    0.77678E+03        -0.89267E+03         0.00000E+00
    0.00000E+00         0.00000E+00        -0.12970E+04
 
   -0.31413E+04         0.82292E+03         0.00000E+00
    0.82292E+03        -0.10179E+04         0.00000E+00
    0.00000E+00         0.00000E+00        -0.12478E+04
 
   -0.28338E+04         0.86631E+03         0.00000E+00
    0.86631E+03        -0.11505E+04         0.00000E+00
    0.00000E+00         0.00000E+00        -0.11953E+04
 
   -0.25087E+04         0.90649E+03         0.00000E+00
    0.90649E+03        -0.12899E+04         0.00000E+00
    0.00000E+00         0.00000E+00        -0.11396E+04
 
   -0.21667E+04         0.94297E+03         0.00000E+00
    0.94297E+03        -0.14357E+04         0.00000E+00
    0.00000E+00         0.00000E+00        -0.10807E+04
 
   -0.18087E+04         0.97521E+03         0.00000E+00
    0.97521E+03        -0.15872E+04         0.00000E+00
    0.00000E+00         0.00000E+00        -0.10188E+04
 
   -0.14355E+04         0.10027E+04         0.00000E+00
    0.10027E+04        -0.17439E+04         0.00000E+00
    0.00000E+00         0.00000E+00        -0.95382E+03
 
   -0.10483E+04         0.10247E+04         0.00000E+00
    0.10247E+04        -0.19050E+04         0.00000E+00
    0.00000E+00         0.00000E+00        -0.88600E+03
 
   -0.55691E+04         0.11989E+02         0.00000E+00
    0.11989E+02         0.15772E+01         0.00000E+00
    0.00000E+00         0.00000E+00        -0.16703E+04
 
   -0.55460E+04         0.38699E+02         0.00000E+00
    0.38699E+02         0.17069E+01         0.00000E+00
    0.00000E+00         0.00000E+00        -0.16633E+04
 
   -0.55122E+04         0.68788E+02         0.00000E+00
    0.68788E+02        -0.35731E+01         0.00000E+00
    0.00000E+00         0.00000E+00        -0.16547E+04
 
   -0.54662E+04         0.10197E+03         0.00000E+00
    0.10197E+03        -0.14905E+02         0.00000E+00
    0.00000E+00         0.00000E+00        -0.16443E+04
 
   -0.54070E+04         0.13794E+03         0.00000E+00
    0.13794E+03        -0.32863E+02         0.00000E+00
    0.00000E+00         0.00000E+00        -0.16319E+04
 
   -0.53334E+04         0.17633E+03         0.00000E+00
    0.17633E+03        -0.57947E+02         0.00000E+00
    0.00000E+00         0.00000E+00        -0.16174E+04
 
   -0.52445E+04         0.21680E+03         0.00000E+00
    0.21680E+03        -0.90583E+02         0.00000E+00
    0.00000E+00         0.00000E+00        -0.16005E+04
 
   -0.51395E+04         0.25897E+03         0.00000E+00
    0.25897E+03        -0.13112E+03         0.00000E+00
    0.00000E+00         0.00000E+00        -0.15812E+04
 
   -0.50176E+04         0.30246E+03         0.00000E+00
    0.30246E+03        -0.17984E+03         0.00000E+00
    0.00000E+00         0.00000E+00        -0.15592E+04
 
   -0.48783E+04         0.34691E+03         0.00000E+00
    0.34691E+03        -0.23695E+03         0.00000E+00
    0.00000E+00         0.00000E+00        -0.15346E+04
 
   -0.47209E+04         0.39193E+03         0.00000E+00
    0.39193E+03        -0.30257E+03         0.00000E+00
    0.00000E+00         0.00000E+00        -0.15071E+04
 
   -0.45453E+04         0.43716E+03         0.00000E+00
    0.43716E+03        -0.37676E+03         0.00000E+00
    0.00000E+00         0.00000E+00        -0.14766E+04
 
   -0.43510E+04         0.48224E+03         0.00000E+00
    0.48224E+03        -0.45953E+03         0.00000E+00
    0.00000E+00         0.00000E+00        -0.14432E+04
 
   -0.41381E+04         0.52682E+03         0.00000E+00
    0.52682E+03        -0.55081E+03         0.00000E+00
    0.00000E+00         0.00000E+00        -0.14067E+04
 
   -0.39063E+04         0.57053E+03         0.00000E+00
    0.57053E+03        -0.65045E+03         0.00000E+00
    0.00000E+00         0.00000E+00        -0.13670E+04
 
   -0.36559E+04         0.61301E+03         0.00000E+00
    0.61301E+03        -0.75829E+03         0.00000E+00
    0.00000E+00         0.00000E+00        -0.13243E+04
 
   -0.33870E+04         0.65392E+03         0.00000E+00
    0.65392E+03        -0.87405E+03         0.00000E+00
    0.00000E+00         0.00000E+00        -0.12783E+04
 
   -0.31000E+04         0.69288E+03         0.00000E+00
    0.69288E+03        -0.99744E+03         0.00000E+00
    0.00000E+00         0.00000E+00        -0.12292E+04
 
   -0.27953E+04         0.72951E+03         0.00000E+00
    0.72951E+03        -0.11281E+04         0.00000E+00
    0.00000E+00         0.00000E+00        -0.11770E+04
 
   -0.24734E+04         0.76340E+03         0.00000E+00
    0.76340E+03        -0.12655E+04         0.00000E+00
    0.00000E+00         0.00000E+00        -0.11217E+04
 
   -0.21351E+04         0.79413E+03         0.00000E+00
    0.79413E+03        -0.14093E+04         0.00000E+00
    0.00000E+00         0.00000E+00        -0.10633E+04
 
   -0.17812E+04         0.82125E+03         0.00000E+00
    0.82125E+03        -0.15587E+04         0.00000E+00
    0.00000E+00         0.00000E+00        -0.10020E+04
 
   -0.14128E+04         0.84427E+03         0.00000E+00
    0.84427E+03        -0.17133E+04         0.00000E+00
    0.00000E+00         0.00000E+00        -0.93781E+03
 
   -0.10309E+04         0.86269E+03         0.00000E+00
    0.86269E+03        -0.18721E+04         0.00000E+00
    0.00000E+00         0.00000E+00        -0.87089E+03
 
   -0.55466E+04         0.97532E+01         0.00000E+00
    0.97532E+01         0.15904E+01         0.00000E+00
    0.00000E+00         0.00000E+00        -0.16635E+04
 
   -0.55203E+04         0.31464E+02         0.00000E+00
    0.31464E+02         0.18067E+01         0.00000E+00
    0.00000E+00         0.00000E+00        -0.16555E+04
 
   -0.54835E+04         0.55910E+02         0.00000E+00
    0.55910E+02        -0.32740E+01         0.00000E+00
    0.00000E+00         0.00000E+00        -0.16460E+04
 
   -0.54348E+04         0.82870E+02         0.00000E+00
    0.82870E+02        -0.14279E+02         0.00000E+00
    0.00000E+00         0.00000E+00        -0.16347E+04
 
   -0.53732E+04         0.11209E+03         0.00000E+00
    0.11209E+03        -0.31774E+02         0.00000E+00
    0.00000E+00         0.00000E+00        -0.16215E+04
 
   -0.52976E+04         0.14331E+03         0.00000E+00
    0.14331E+03        -0.56256E+02         0.00000E+00
    0.00000E+00         0.00000E+00        -0.16062E+04
 
   -0.52071E+04         0.17622E+03         0.00000E+00
    0.17622E+03        -0.88155E+02         0.00000E+00
    0.00000E+00         0.00000E+00        -0.15886E+04
 
   -0.51007E+04         0.21054E+03         0.00000E+00
    0.21054E+03        -0.12783E+03         0.00000E+00
    0.00000E+00         0.00000E+00        -0.15685E+04
 
   -0.49777E+04         0.24596E+03         0.00000E+00
    0.24596E+03        -0.17556E+03         0.00000E+00
    0.00000E+00         0.00000E+00        -0.15460E+04
 
   -0.48377E+04         0.28217E+03         0.00000E+00
    0.28217E+03        -0.23157E+03         0.00000E+00
    0.00000E+00         0.00000E+00        -0.15208E+04
 
   -0.46800E+04         0.31887E+03         0.00000E+00
    0.31887E+03        -0.29600E+03         0.00000E+00
    0.00000E+00         0.00000E+00        -0.14928E+04
 
   -0.45043E+04         0.35577E+03         0.00000E+00
    0.35577E+03        -0.36892E+03         0.00000E+00
    0.00000E+00         0.00000E+00        -0.14620E+04
 
   -0.43103E+04         0.39256E+03         0.00000E+00
    0.39256E+03        -0.45035E+03         0.00000E+00
    0.00000E+00         0.00000E+00        -0.14282E+04
 
   -0.40980E+04         0.42894E+03         0.00000E+00
    0.42894E+03        -0.54023E+03         0.00000E+00
    0.00000E+00         0.00000E+00        -0.13915E+04
 
   -0.38672E+04         0.46464E+03         0.00000E+00
    0.46464E+03        -0.63844E+03         0.00000E+00
    0.00000E+00         0.00000E+00        -0.13517E+04
 
   -0.36180E+04         0.49934E+03         0.00000E+00
    0.49934E+03        -0.74479E+03         0.00000E+00
    0.00000E+00         0.00000E+00        -0.13088E+04
 
   -0.33508E+04         0.53275E+03         0.00000E+00
    0.53275E+03        -0.85904E+03         0.00000E+00
    0.00000E+00         0.00000E+00        -0.12629E+04
 
   -0.30657E+04         0.56457E+03         0.00000E+00
    0.56457E+03        -0.98088E+03         0.00000E+00
    0.00000E+00         0.00000E+00        -0.12140E+04
 
   -0.27633E+04         0.59447E+03         0.00000E+00
    0.59447E+03        -0.11099E+04         0.00000E+00
    0.00000E+00         0.00000E+00        -0.11620E+04
 
   -0.24441E+04         0.62212E+03         0.00000E+00
    0.62212E+03        -0.12458E+04         0.00000E+00
    0.00000E+00         0.00000E+00        -0.11070E+04
 
   -0.21089E+04         0.64717E+03         0.00000E+00
    0.64717E+03        -0.13878E+04         0.00000E+00
    0.00000E+00         0.00000E+00        -0.10490E+04
 
   -0.17585E+04         0.66925E+03         0.00000E+00
    0.66925E+03        -0.15356E+04         0.00000E+00
    0.00000E+00         0.00000E+00        -0.98822E+03
 
   -0.13940E+04         0.68795E+03         0.00000E+00
    0.68795E+03        -0.16882E+04         0.00000E+00
    0.00000E+00         0.00000E+00        -0.92468E+03
 
   -0.10166E+04         0.70286E+03         0.00000E+00
    0.70286E+03        -0.18451E+04         0.00000E+00
    0.00000E+00         0.00000E+00        -0.85852E+03
 
   -0.55286E+04         0.75531E+01         0.00000E+00
    0.75531E+01         0.15998E+01         0.00000E+00
    0.00000E+00         0.00000E+00        -0.16581E+04
 
   -0.54998E+04         0.24355E+02         0.00000E+00
    0.24355E+02         0.18799E+01         0.00000E+00
    0.00000E+00         0.00000E+00        -0.16494E+04
 
   -0.54607E+04         0.43264E+02         0.00000E+00
    0.43264E+02        -0.30519E+01         0.00000E+00
    0.00000E+00         0.00000E+00        -0.16391E+04
 
   -0.54099E+04         0.64117E+02         0.00000E+00
    0.64117E+02        -0.13810E+02         0.00000E+00
    0.00000E+00         0.00000E+00        -0.16271E+04
 
   -0.53464E+04         0.86724E+02         0.00000E+00
    0.86724E+02        -0.30952E+02         0.00000E+00
    0.00000E+00         0.00000E+00        -0.16132E+04
 
   -0.52692E+04         0.11088E+03         0.00000E+00
    0.11088E+03        -0.54975E+02         0.00000E+00
    0.00000E+00         0.00000E+00        -0.15972E+04
 
   -0.51772E+04         0.13636E+03         0.00000E+00
    0.13636E+03        -0.86308E+02         0.00000E+00
    0.00000E+00         0.00000E+00        -0.15791E+04
 
   -0.50697E+04         0.16294E+03         0.00000E+00
    0.16294E+03        -0.12531E+03         0.00000E+00
    0.00000E+00         0.00000E+00        -0.15585E+04
 
   -0.49460E+04         0.19038E+03         0.00000E+00
    0.19038E+03        -0.17228E+03         0.00000E+00
    0.00000E+00         0.00000E+00        -0.15355E+04
 
   -0.48053E+04         0.21845E+03         0.00000E+00
    0.21845E+03        -0.22744E+03         0.00000E+00
    0.00000E+00         0.00000E+00        -0.15098E+04
 
   -0.46473E+04         0.24691E+03         0.00000E+00
    0.24691E+03        -0.29095E+03         0.00000E+00
    0.00000E+00         0.00000E+00        -0.14815E+04
 
   -0.44716E+04         0.27554E+03         0.00000E+00
    0.27554E+03        -0.36288E+03         0.00000E+00
    0.00000E+00         0.00000E+00        -0.14503E+04
 
   -0.42779E+04         0.30409E+03         0.00000E+00
    0.30409E+03        -0.44326E+03         0.00000E+00
    0.00000E+00         0.00000E+00        -0.14163E+04
 
   -0.40660E+04         0.33234E+03         0.00000E+00
    0.33234E+03        -0.53204E+03         0.00000E+00
    0.00000E+00         0.00000E+00        -0.13794E+04
 
   -0.38359E+04         0.36006E+03         0.00000E+00
    0.36006E+03        -0.62912E+03         0.00000E+00
    0.00000E+00         0.00000E+00        -0.13395E+04
 
   -0.35878E+04         0.38701E+03         0.00000E+00
    0.38701E+03        -0.73430E+03         0.00000E+00
    0.00000E+00         0.00000E+00        -0.12966E+04
 
   -0.33218E+04         0.41296E+03         0.00000E+00
    0.41296E+03        -0.84736E+03         0.00000E+00
    0.00000E+00         0.00000E+00        -0.12508E+04
 
   -0.30383E+04         0.43767E+03         0.00000E+00
    0.43767E+03        -0.96797E+03         0.00000E+00
    0.00000E+00         0.00000E+00        -0.12019E+04
 
   -0.27377E+04         0.46088E+03         0.00000E+00
    0.46088E+03        -0.10958E+04         0.00000E+00
    0.00000E+00         0.00000E+00        -0.11500E+04
 
   -0.24207E+04         0.48233E+03         0.00000E+00
    0.48233E+03        -0.12303E+04         0.00000E+00
    0.00000E+00         0.00000E+00        -0.10953E+04
 
   -0.20880E+04         0.50176E+03         0.00000E+00
    0.50176E+03        -0.13710E+04         0.00000E+00
    0.00000E+00         0.00000E+00        -0.10377E+04
 
   -0.17404E+04         0.51885E+03         0.00000E+00
    0.51885E+03        -0.15173E+04         0.00000E+00
    0.00000E+00         0.00000E+00        -0.97733E+03
 
   -0.13791E+04         0.53331E+03         0.00000E+00
    0.53331E+03        -0.16686E+04         0.00000E+00
    0.00000E+00         0.00000E+00        -0.91431E+03
 
   -0.10053E+04         0.54481E+03         0.00000E+00
    0.54481E+03        -0.18239E+04         0.00000E+00
    0.00000E+00         0.00000E+00        -0.84876E+03
 
   -0.55151E+04         0.53784E+01         0.00000E+00
    0.53784E+01         0.16063E+01         0.00000E+00
    0.00000E+00         0.00000E+00        -0.16541E+04
 
   -0.54845E+04         0.17335E+02         0.00000E+00
    0.17335E+02         0.19309E+01         0.00000E+00
    0.00000E+00         0.00000E+00        -0.16448E+04
 
   -0.54436E+04         0.30788E+02         0.00000E+00
    0.30788E+02        -0.28953E+01         0.00000E+00
    0.00000E+00         0.00000E+00        -0.16340E+04
 
   -0.53913E+04         0.45621E+02         0.00000E+00
    0.45621E+02        -0.13477E+02         0.00000E+00
    0.00000E+00         0.00000E+00        -0.16214E+04
 
   -0.53264E+04         0.61705E+02         0.00000E+00
    0.61705E+02        -0.30365E+02         0.00000E+00
    0.00000E+00         0.00000E+00        -0.16070E+04
 
   -0.52479E+04         0.78893E+02         0.00000E+00
    0.78893E+02        -0.54055E+02         0.00000E+00
    0.00000E+00         0.00000E+00        -0.15906E+04
 
   -0.51549E+04         0.97029E+02         0.00000E+00
    0.97029E+02        -0.84977E+02         0.00000E+00
    0.00000E+00         0.00000E+00        -0.15720E+04
 
   -0.50466E+04         0.11595E+03         0.00000E+00
    0.11595E+03        -0.12350E+03         0.00000E+00
    0.00000E+00         0.00000E+00        -0.15510E+04
 
   -0.49222E+04         0.13550E+03         0.00000E+00
    0.13550E+03        -0.16991E+03         0.00000E+00
    0.00000E+00         0.00000E+00        -0.15276E+04
 
   -0.47811E+04         0.15550E+03         0.00000E+00
    0.15550E+03        -0.22445E+03         0.00000E+00
    0.00000E+00         0.00000E+00        -0.15017E+04
 
   -0.46229E+04         0.17578E+03         0.00000E+00
    0.17578E+03        -0.28727E+03         0.00000E+00
    0.00000E+00         0.00000E+00        -0.14730E+04
 
   -0.44471E+04         0.19619E+03         0.00000E+00
    0.19619E+03        -0.35848E+03         0.00000E+00
    0.00000E+00         0.00000E+00        -0.14417E+04
 
   -0.42535E+04         0.21655E+03         0.00000E+00
    0.21655E+03        -0.43809E+03         0.00000E+00
    0.00000E+00         0.00000E+00        -0.14075E+04
 
   -0.40420E+04         0.23670E+03         0.00000E+00
    0.23670E+03        -0.52607E+03         0.00000E+00
    0.00000E+00         0.00000E+00        -0.13704E+04
 
   -0.38125E+04         0.25648E+03         0.00000E+00
    0.25648E+03        -0.62230E+03         0.00000E+00
    0.00000E+00         0.00000E+00        -0.13304E+04
 
   -0.35651E+04         0.27571E+03         0.00000E+00
    0.27571E+03        -0.72662E+03         0.00000E+00
    0.00000E+00         0.00000E+00        -0.12875E+04
 
   -0.33001E+04         0.29422E+03         0.00000E+00
    0.29422E+03        -0.83879E+03         0.00000E+00
    0.00000E+00         0.00000E+00        -0.12417E+04
 
   -0.30178E+04         0.31185E+03         0.00000E+00
    0.31185E+03        -0.95849E+03         0.00000E+00
    0.00000E+00         0.00000E+00        -0.11929E+04
 
   -0.27186E+04         0.32840E+03         0.00000E+00
    0.32840E+03        -0.10853E+04         0.00000E+00
    0.00000E+00         0.00000E+00        -0.11412E+04
 
   -0.24032E+04         0.34370E+03         0.00000E+00
    0.34370E+03        -0.12189E+04         0.00000E+00
    0.00000E+00         0.00000E+00        -0.10866E+04
 
   -0.20723E+04         0.35754E+03         0.00000E+00
    0.35754E+03        -0.13586E+04         0.00000E+00
    0.00000E+00         0.00000E+00        -0.10293E+04
 
   -0.17269E+04         0.36971E+03         0.00000E+00
    0.36971E+03        -0.15039E+04         0.00000E+00
    0.00000E+00         0.00000E+00        -0.96925E+03
 
   -0.13680E+04         0.37999E+03         0.00000E+00
    0.37999E+03        -0.16540E+04         0.00000E+00
    0.00000E+00         0.00000E+00        -0.90661E+03
 
   -0.99686E+03         0.38816E+03         0.00000E+00
    0.38816E+03        -0.18082E+04         0.00000E+00
    0.00000E+00         0.00000E+00        -0.84152E+03
 
   -0.55062E+04         0.32206E+01         0.00000E+00
    0.32206E+01         0.16102E+01         0.00000E+00
    0.00000E+00         0.00000E+00        -0.16514E+04
 
   -0.54744E+04         0.10378E+02         0.00000E+00
    0.10378E+02         0.19630E+01         0.00000E+00
    0.00000E+00         0.00000E+00        -0.16417E+04
 
   -0.54323E+04         0.18427E+02         0.00000E+00
    0.18427E+02        -0.27956E+01         0.00000E+00
    0.00000E+00         0.00000E+00        -0.16305E+04
 
   -0.53790E+04         0.27304E+02         0.00000E+00
    0.27304E+02        -0.13263E+02         0.00000E+00
    0.00000E+00         0.00000E+00        -0.16177E+04
 
   -0.53131E+04         0.36928E+02         0.00000E+00
    0.36928E+02        -0.29988E+02         0.00000E+00
    0.00000E+00         0.00000E+00        -0.16029E+04
 
   -0.52338E+04         0.47215E+02         0.00000E+00
    0.47215E+02        -0.53462E+02         0.00000E+00
    0.00000E+00         0.00000E+00        -0.15862E+04
 
   -0.51401E+04         0.58072E+02         0.00000E+00
    0.58072E+02        -0.84116E+02         0.00000E+00
    0.00000E+00         0.00000E+00        -0.15673E+04
 
   -0.50312E+04         0.69402E+02         0.00000E+00
    0.69402E+02        -0.12232E+03         0.00000E+00
    0.00000E+00         0.00000E+00        -0.15461E+04
 
   -0.49064E+04         0.81107E+02         0.00000E+00
    0.81107E+02        -0.16837E+03         0.00000E+00
    0.00000E+00         0.00000E+00        -0.15224E+04
 
   -0.47650E+04         0.93086E+02         0.00000E+00
    0.93086E+02        -0.22250E+03         0.00000E+00
    0.00000E+00         0.00000E+00        -0.14963E+04
 
   -0.46066E+04         0.10524E+03         0.00000E+00
    0.10524E+03        -0.28488E+03         0.00000E+00
    0.00000E+00         0.00000E+00        -0.14674E+04
 
   -0.44308E+04         0.11747E+03         0.00000E+00
    0.11747E+03        -0.35561E+03         0.00000E+00
    0.00000E+00         0.00000E+00        -0.14359E+04
 
   -0.42373E+04         0.12967E+03         0.00000E+00
    0.12967E+03        -0.43471E+03         0.00000E+00
    0.00000E+00         0.00000E+00        -0.14016E+04
 
   -0.40261E+04         0.14175E+03         0.00000E+00
    0.14175E+03        -0.52215E+03         0.00000E+00
    0.00000E+00         0.00000E+00        -0.13645E+04
 
   -0.37969E+04         0.15361E+03         0.00000E+00
    0.15361E+03        -0.61784E+03         0.00000E+00
    0.00000E+00         0.00000E+00        -0.13244E+04
 
   -0.35501E+04         0.16513E+03         0.00000E+00
    0.16513E+03        -0.72159E+03         0.00000E+00
    0.00000E+00         0.00000E+00        -0.12815E+04
 
   -0.32857E+04         0.17623E+03         0.00000E+00
    0.17623E+03        -0.83316E+03         0.00000E+00
    0.00000E+00         0.00000E+00        -0.12357E+04
 
   -0.30041E+04         0.18680E+03         0.00000E+00
    0.18680E+03        -0.95225E+03         0.00000E+00
    0.00000E+00         0.00000E+00        -0.11869E+04
 
   -0.27059E+04         0.19672E+03         0.00000E+00
    0.19672E+03        -0.10785E+04         0.00000E+00
    0.00000E+00         0.00000E+00        -0.11353E+04
 
   -0.23916E+04         0.20589E+03         0.00000E+00
    0.20589E+03        -0.12114E+04         0.00000E+00
    0.00000E+00         0.00000E+00        -0.10809E+04
 
   -0.20620E+04         0.21418E+03         0.00000E+00
    0.21418E+03        -0.13504E+04         0.00000E+00
    0.00000E+00         0.00000E+00        -0.10237E+04
 
   -0.17180E+04         0.22147E+03         0.00000E+00
    0.22147E+03        -0.14950E+04         0.00000E+00
    0.00000E+00         0.00000E+00        -0.96389E+03
 
   -0.13607E+04         0.22762E+03         0.00000E+00
    0.22762E+03        -0.16444E+04         0.00000E+00
    0.00000E+00         0.00000E+00        -0.90152E+03
 
   -0.99129E+03         0.23250E+03         0.00000E+00
    0.23250E+03        -0.17978E+04         0.00000E+00
    0.00000E+00         0.00000E+00        -0.83673E+03
 
   -0.55018E+04         0.10725E+01         0.00000E+00
    0.10725E+01         0.16121E+01         0.00000E+00
    0.00000E+00         0.00000E+00        -0.16500E+04
 
   -0.54693E+04         0.34553E+01         0.00000E+00
    0.34553E+01         0.19785E+01         0.00000E+00
    0.00000E+00         0.00000E+00        -0.16402E+04
 
   -0.54267E+04         0.61351E+01         0.00000E+00
    0.61351E+01        -0.27472E+01         0.00000E+00
    0.00000E+00         0.00000E+00        -0.16288E+04
 
   -0.53728E+04         0.90898E+01         0.00000E+00
    0.90898E+01        -0.13159E+02         0.00000E+00
    0.00000E+00         0.00000E+00        -0.16158E+04
 
   -0.53065E+04         0.12294E+02         0.00000E+00
    0.12294E+02        -0.29803E+02         0.00000E+00
    0.00000E+00         0.00000E+00        -0.16009E+04
 
   -0.52268E+04         0.15718E+02         0.00000E+00
    0.15718E+02        -0.53171E+02         0.00000E+00
    0.00000E+00         0.00000E+00        -0.15840E+04
 
   -0.51327E+04         0.19333E+02         0.00000E+00
    0.19333E+02        -0.83693E+02         0.00000E+00
    0.00000E+00         0.00000E+00        -0.15649E+04
 
   -0.50235E+04         0.23106E+02         0.00000E+00
    0.23106E+02        -0.12174E+03         0.00000E+00
    0.00000E+00         0.00000E+00        -0.15436E+04
 
   -0.48985E+04         0.27004E+02         0.00000E+00
    0.27004E+02        -0.16761E+03         0.00000E+00
    0.00000E+00         0.00000E+00        -0.15198E+04
 
   -0.47570E+04         0.30994E+02         0.00000E+00
    0.30994E+02        -0.22154E+03         0.00000E+00
    0.00000E+00         0.00000E+00        -0.14936E+04
 
   -0.45985E+04         0.35042E+02         0.00000E+00
    0.35042E+02        -0.28370E+03         0.00000E+00
    0.00000E+00         0.00000E+00        -0.14647E+04
 
   -0.44227E+04         0.39116E+02         0.00000E+00
    0.39116E+02        -0.35419E+03         0.00000E+00
    0.00000E+00         0.00000E+00        -0.14331E+04
 
   -0.42292E+04         0.43181E+02         0.00000E+00
    0.43181E+02        -0.43304E+03         0.00000E+00
    0.00000E+00         0.00000E+00        -0.13987E+04
 
   -0.40181E+04         0.47206E+02         0.00000E+00
    0.47206E+02        -0.52022E+03         0.00000E+00
    0.00000E+00         0.00000E+00        -0.13615E+04
 
   -0.37891E+04         0.51155E+02         0.00000E+00
    0.51155E+02        -0.61563E+03         0.00000E+00
    0.00000E+00         0.00000E+00        -0.13214E+04
 
   -0.35425E+04         0.54996E+02         0.00000E+00
    0.54996E+02        -0.71909E+03         0.00000E+00
    0.00000E+00         0.00000E+00        -0.12785E+04
 
   -0.32785E+04         0.58695E+02         0.00000E+00
    0.58695E+02        -0.83037E+03         0.00000E+00
    0.00000E+00         0.00000E+00        -0.12326E+04
 
   -0.29973E+04         0.62216E+02         0.00000E+00
    0.62216E+02        -0.94916E+03         0.00000E+00
    0.00000E+00         0.00000E+00        -0.11839E+04
 
   -0.26995E+04         0.65522E+02         0.00000E+00
    0.65522E+02        -0.10751E+04         0.00000E+00
    0.00000E+00         0.00000E+00        -0.11324E+04
 
   -0.23858E+04         0.68575E+02         0.00000E+00
    0.68575E+02        -0.12077E+04         0.00000E+00
    0.00000E+00         0.00000E+00        -0.10780E+04
 
   -0.20568E+04         0.71336E+02         0.00000E+00
    0.71336E+02        -0.13464E+04         0.00000E+00
    0.00000E+00         0.00000E+00        -0.10209E+04
 
   -0.17135E+04         0.73762E+02         0.00000E+00
    0.73762E+02        -0.14906E+04         0.00000E+00
    0.00000E+00         0.00000E+00        -0.96123E+03
 
   -0.13570E+04         0.75810E+02         0.00000E+00
    0.75810E+02        -0.16396E+04         0.00000E+00
    0.00000E+00         0.00000E+00        -0.89898E+03
 
   -0.98851E+03         0.77432E+02         0.00000E+00
    0.77432E+02        -0.17926E+04         0.00000E+00
    0.00000E+00         0.00000E+00        -0.83434E+03
 
TENSORS stresstot double 
   -0.50390E+05         0.36729E+03         0.00000E+00
    0.36729E+03        -0.10022E+06         0.00000E+00
    0.00000E+00         0.00000E+00        -0.56232E+05
 
   -0.40549E+05         0.26486E+04         0.00000E+00
    0.26486E+04        -0.96900E+05         0.00000E+00
    0.00000E+00         0.00000E+00        -0.65789E+05
 
   -0.34891E+05         0.38063E+04         0.00000E+00
    0.38063E+04        -0.88952E+05         0.00000E+00
    0.00000E+00         0.00000E+00        -0.63219E+05
 
   -0.29655E+05         0.40508E+04         0.00000E+00
    0.40508E+04        -0.80509E+05         0.00000E+00
    0.00000E+00         0.00000E+00        -0.57509E+05
 
   -0.24774E+05         0.38934E+04         0.00000E+00
    0.38934E+04        -0.72693E+05         0.00000E+00
    0.00000E+00         0.00000E+00        -0.51297E+05
 
   -0.20345E+05         0.35933E+04         0.00000E+00
    0.35933E+04        -0.65569E+05         0.00000E+00
    0.00000E+00         0.00000E+00        -0.45237E+05
 
   -0.16366E+05         0.32079E+04         0.00000E+00
    0.32079E+04        -0.59152E+05         0.00000E+00
    0.00000E+00         0.00000E+00        -0.39582E+05
 
   -0.13281E+05         0.27879E+04         0.00000E+00
    0.27879E+04        -0.53414E+05         0.00000E+00
    0.00000E+00         0.00000E+00        -0.34628E+05
 
   -0.10678E+05         0.24211E+04         0.00000E+00
    0.24211E+04        -0.48359E+05         0.00000E+00
    0.00000E+00         0.00000E+00        -0.30319E+05
 
   -0.84040E+04         0.20927E+04         0.00000E+00
    0.20927E+04        -0.43957E+05         0.00000E+00
    0.00000E+00         0.00000E+00        -0.26601E+05
 
   -0.65245E+04         0.18172E+04         0.00000E+00
    0.18172E+04        -0.40078E+05         0.00000E+00
    0.00000E+00         0.00000E+00        -0.23429E+05
 
   -0.48720E+04         0.16289E+04         0.00000E+00
    0.16289E+04        -0.36663E+05         0.00000E+00
    0.00000E+00         0.00000E+00        -0.20629E+05
 
   -0.33557E+04         0.14651E+04         0.00000E+00
    0.14651E+04        -0.33633E+05         0.00000E+00
    0.00000E+00         0.00000E+00        -0.18080E+05
 
   -0.19499E+04         0.13213E+04         0.00000E+00
    0.13213E+04        -0.30895E+05         0.00000E+00
    0.00000E+00         0.00000E+00        -0.15714E+05
 
   -0.66432E+03         0.11698E+04         0.00000E+00
    0.11698E+04        -0.28439E+05         0.00000E+00
    0.00000E+00         0.00000E+00        -0.13505E+05
 
    0.35591E+03         0.10438E+04         0.00000E+00
    0.10438E+04        -0.26256E+05         0.00000E+00
    0.00000E+00         0.00000E+00        -0.11503E+05
 
    0.11982E+04         0.89600E+03         0.00000E+00
    0.89600E+03        -0.24359E+05         0.00000E+00
    0.00000E+00         0.00000E+00        -0.96461E+04
 
    0.19066E+04         0.79584E+03         0.00000E+00
    0.79584E+03        -0.22704E+05         0.00000E+00
    0.00000E+00         0.00000E+00        -0.79964E+04
 
    0.25005E+04         0.70711E+03         0.00000E+00
    0.70711E+03        -0.21227E+05         0.00000E+00
    0.00000E+00         0.00000E+00        -0.64499E+04
 
    0.26624E+04         0.63200E+03         0.00000E+00
    0.63200E+03        -0.19902E+05         0.00000E+00
    0.00000E+00         0.00000E+00        -0.52936E+04
 
    0.74013E+03         0.53997E+03         0.00000E+00
    0.53997E+03        -0.18739E+05         0.00000E+00
    0.00000E+00         0.00000E+00        -0.54314E+04
 
   -0.13530E+04         0.48374E+03         0.00000E+00
    0.48374E+03        -0.17722E+05         0.00000E+00
    0.00000E+00         0.00000E+00        -0.57549E+04
 
   -0.34189E+04         0.46001E+03         0.00000E+00
    0.46001E+03        -0.16783E+05         0.00000E+00
    0.00000E+00         0.00000E+00        -0.60932E+04
 
   -0.55547E+04         0.46044E+03         0.00000E+00
    0.46044E+03        -0.15867E+05         0.00000E+00
    0.00000E+00         0.00000E+00        -0.64593E+04
 
   -0.46904E+05         0.27391E+04         0.00000E+00
    0.27391E+04        -0.99614E+05         0.00000E+00
    0.00000E+00         0.00000E+00        -0.59034E+05
 
   -0.37185E+05         0.97164E+04         0.00000E+00
    0.97164E+04        -0.88863E+05         0.00000E+00
    0.00000E+00         0.00000E+00        -0.63745E+05
 
   -0.33490E+05         0.11695E+05         0.00000E+00
    0.11695E+05        -0.80361E+05         0.00000E+00
    0.00000E+00         0.00000E+00        -0.59440E+05
 
   -0.29659E+05         0.11870E+05         0.00000E+00
    0.11870E+05        -0.73326E+05         0.00000E+00
    0.00000E+00         0.00000E+00        -0.54332E+05
 
   -0.25358E+05         0.11185E+05         0.00000E+00
    0.11185E+05        -0.66652E+05         0.00000E+00
    0.00000E+00         0.00000E+00        -0.48729E+05
 
   -0.21119E+05         0.10180E+05         0.00000E+00
    0.10180E+05        -0.60607E+05         0.00000E+00
    0.00000E+00         0.00000E+00        -0.43235E+05
 
   -0.17312E+05         0.90432E+04         0.00000E+00
    0.90432E+04        -0.55213E+05         0.00000E+00
    0.00000E+00         0.00000E+00        -0.38155E+05
 
   -0.14069E+05         0.79388E+04         0.00000E+00
    0.79388E+04        -0.50455E+05         0.00000E+00
    0.00000E+00         0.00000E+00        -0.33621E+05
 
   -0.11383E+05         0.69284E+04         0.00000E+00
    0.69284E+04        -0.46146E+05         0.00000E+00
    0.00000E+00         0.00000E+00        -0.29619E+05
 
   -0.90064E+04         0.60574E+04         0.00000E+00
    0.60574E+04        -0.42210E+05         0.00000E+00
    0.00000E+00         0.00000E+00        -0.26044E+05
 
   -0.69516E+04         0.53482E+04         0.00000E+00
    0.53482E+04        -0.38727E+05         0.00000E+00
    0.00000E+00         0.00000E+00        -0.22907E+05
 
   -0.52025E+04         0.47845E+04         0.00000E+00
    0.47845E+04        -0.35554E+05         0.00000E+00
    0.00000E+00         0.00000E+00        -0.20151E+05
 
   -0.36688E+04         0.42978E+04         0.00000E+00
    0.42978E+04        -0.32661E+05         0.00000E+00
    0.00000E+00         0.00000E+00        -0.17662E+05
 
   -0.22333E+04         0.38768E+04         0.00000E+00
    0.38768E+04        -0.30103E+05         0.00000E+00
    0.00000E+00         0.00000E+00        -0.15346E+05
 
   -0.95999E+03         0.34501E+04         0.00000E+00
    0.34501E+04        -0.27829E+05         0.00000E+00
    0.00000E+00         0.00000E+00        -0.13221E+05
 
    0.86242E+02         0.30249E+04         0.00000E+00
    0.30249E+04        -0.25819E+05         0.00000E+00
    0.00000E+00         0.00000E+00        -0.11300E+05
 
    0.96023E+03         0.26579E+04         0.00000E+00
    0.26579E+04        -0.24031E+05         0.00000E+00
    0.00000E+00         0.00000E+00        -0.94809E+04
 
    0.17167E+04         0.23527E+04         0.00000E+00
    0.23527E+04        -0.22426E+05         0.00000E+00
    0.00000E+00         0.00000E+00        -0.78539E+04
 
    0.23426E+04         0.20997E+04         0.00000E+00
    0.20997E+04        -0.21005E+05         0.00000E+00
    0.00000E+00         0.00000E+00        -0.63490E+04
 
    0.24827E+04         0.18760E+04         0.00000E+00
    0.18760E+04        -0.19711E+05         0.00000E+00
    0.00000E+00         0.00000E+00        -0.52663E+04
 
    0.58817E+03         0.16061E+04         0.00000E+00
    0.16061E+04        -0.18587E+05         0.00000E+00
    0.00000E+00         0.00000E+00        -0.54316E+04
 
   -0.14289E+04         0.14439E+04         0.00000E+00
    0.14439E+04        -0.17589E+05         0.00000E+00
    0.00000E+00         0.00000E+00        -0.57377E+04
 
   -0.34409E+04         0.13732E+04         0.00000E+00
    0.13732E+04        -0.16664E+05         0.00000E+00
    0.00000E+00         0.00000E+00        -0.60640E+04
 
   -0.55333E+04         0.13738E+04         0.00000E+00
    0.13738E+04        -0.15763E+05         0.00000E+00
    0.00000E+00         0.00000E+00        -0.64215E+04
 
   -0.34307E+05         0.16166E+05         0.00000E+00
    0.16166E+05        -0.75384E+05         0.00000E+00
    0.00000E+00         0.00000E+00        -0.55716E+05
 
   -0.33392E+05         0.18376E+05         0.00000E+00
    0.18376E+05        -0.64371E+05         0.00000E+00
    0.00000E+00         0.00000E+00        -0.52848E+05
 
   -0.33543E+05         0.18913E+05         0.00000E+00
    0.18913E+05        -0.61966E+05         0.00000E+00
    0.00000E+00         0.00000E+00        -0.51533E+05
 
   -0.30589E+05         0.17941E+05         0.00000E+00
    0.17941E+05        -0.58432E+05         0.00000E+00
    0.00000E+00         0.00000E+00        -0.47931E+05
 
   -0.26773E+05         0.16565E+05         0.00000E+00
    0.16565E+05        -0.55017E+05         0.00000E+00
    0.00000E+00         0.00000E+00        -0.43910E+05
 
   -0.22656E+05         0.14972E+05         0.00000E+00
    0.14972E+05        -0.51500E+05         0.00000E+00
    0.00000E+00         0.00000E+00        -0.39646E+05
 
   -0.18811E+05         0.13368E+05         0.00000E+00
    0.13368E+05        -0.48056E+05         0.00000E+00
    0.00000E+00         0.00000E+00        -0.35502E+05
 
   -0.15457E+05         0.11879E+05         0.00000E+00
    0.11879E+05        -0.44738E+05         0.00000E+00
    0.00000E+00         0.00000E+00        -0.31617E+05
 
   -0.12547E+05         0.10621E+05         0.00000E+00
    0.10621E+05        -0.41613E+05         0.00000E+00
    0.00000E+00         0.00000E+00        -0.28046E+05
 
   -0.99840E+04         0.94643E+04         0.00000E+00
    0.94643E+04        -0.38613E+05         0.00000E+00
    0.00000E+00         0.00000E+00        -0.24797E+05
 
   -0.77755E+04         0.84408E+04         0.00000E+00
    0.84408E+04        -0.35719E+05         0.00000E+00
    0.00000E+00         0.00000E+00        -0.21825E+05
 
   -0.58771E+04         0.75683E+04         0.00000E+00
    0.75683E+04        -0.33141E+05         0.00000E+00
    0.00000E+00         0.00000E+00        -0.19171E+05
 
   -0.42403E+04         0.68294E+04         0.00000E+00
    0.68294E+04        -0.30832E+05         0.00000E+00
    0.00000E+00         0.00000E+00        -0.16803E+05
 
   -0.27868E+04         0.61374E+04         0.00000E+00
    0.61374E+04        -0.28687E+05         0.00000E+00
    0.00000E+00         0.00000E+00        -0.14648E+05
 
   -0.15284E+04         0.54834E+04         0.00000E+00
    0.54834E+04        -0.26723E+05         0.00000E+00
    0.00000E+00         0.00000E+00        -0.12658E+05
 
   -0.42347E+03         0.48467E+04         0.00000E+00
    0.48467E+04        -0.24954E+05         0.00000E+00
    0.00000E+00         0.00000E+00        -0.10782E+05
 
    0.53892E+03         0.42783E+04         0.00000E+00
    0.42783E+04        -0.23347E+05         0.00000E+00
    0.00000E+00         0.00000E+00        -0.90827E+04
 
    0.13543E+04         0.38062E+04         0.00000E+00
    0.38062E+04        -0.21895E+05         0.00000E+00
    0.00000E+00         0.00000E+00        -0.75564E+04
 
    0.20429E+04         0.34276E+04         0.00000E+00
    0.34276E+04        -0.20567E+05         0.00000E+00
    0.00000E+00         0.00000E+00        -0.61531E+04
 
    0.21301E+04         0.30616E+04         0.00000E+00
    0.30616E+04        -0.19354E+05         0.00000E+00
    0.00000E+00         0.00000E+00        -0.52162E+04
 
    0.30142E+03         0.26395E+04         0.00000E+00
    0.26395E+04        -0.18273E+05         0.00000E+00
    0.00000E+00         0.00000E+00        -0.54235E+04
 
   -0.15767E+04         0.23827E+04         0.00000E+00
    0.23827E+04        -0.17310E+05         0.00000E+00
    0.00000E+00         0.00000E+00        -0.56982E+04
 
   -0.34866E+04         0.22643E+04         0.00000E+00
    0.22643E+04        -0.16415E+05         0.00000E+00
    0.00000E+00         0.00000E+00        -0.60032E+04
 
   -0.54900E+04         0.22635E+04         0.00000E+00
    0.22635E+04        -0.15547E+05         0.00000E+00
    0.00000E+00         0.00000E+00        -0.63436E+04
 
   -0.13667E+05         0.14261E+05         0.00000E+00
    0.14261E+05        -0.27519E+05         0.00000E+00
    0.00000E+00         0.00000E+00        -0.24698E+05
 
   -0.33318E+05         0.19992E+05         0.00000E+00
    0.19992E+05        -0.37879E+05         0.00000E+00
    0.00000E+00         0.00000E+00        -0.41099E+05
 
   -0.33841E+05         0.19630E+05         0.00000E+00
    0.19630E+05        -0.37797E+05         0.00000E+00
    0.00000E+00         0.00000E+00        -0.40574E+05
 
   -0.31853E+05         0.19156E+05         0.00000E+00
    0.19156E+05        -0.38809E+05         0.00000E+00
    0.00000E+00         0.00000E+00        -0.39558E+05
 
   -0.28280E+05         0.18221E+05         0.00000E+00
    0.18221E+05        -0.38969E+05         0.00000E+00
    0.00000E+00         0.00000E+00        -0.37297E+05
 
   -0.24321E+05         0.17045E+05         0.00000E+00
    0.17045E+05        -0.38593E+05         0.00000E+00
    0.00000E+00         0.00000E+00        -0.34551E+05
 
   -0.20455E+05         0.15705E+05         0.00000E+00
    0.15705E+05        -0.37658E+05         0.00000E+00
    0.00000E+00         0.00000E+00        -0.31543E+05
 
   -0.16948E+05         0.14337E+05         0.00000E+00
    0.14337E+05        -0.36333E+05         0.00000E+00
    0.00000E+00         0.00000E+00        -0.28496E+05
 
   -0.13913E+05         0.13036E+05         0.00000E+00
    0.13036E+05        -0.34814E+05         0.00000E+00
    0.00000E+00         0.00000E+00        -0.25539E+05
 
   -0.11173E+05         0.11874E+05         0.00000E+00
    0.11874E+05        -0.33248E+05         0.00000E+00
    0.00000E+00         0.00000E+00        -0.22702E+05
 
   -0.88234E+04         0.10765E+05         0.00000E+00
    0.10765E+05        -0.31607E+05         0.00000E+00
    0.00000E+00         0.00000E+00        -0.20096E+05
 
   -0.68058E+04         0.96966E+04         0.00000E+00
    0.96966E+04        -0.29870E+05         0.00000E+00
    0.00000E+00         0.00000E+00        -0.17721E+05
 
   -0.50507E+04         0.87618E+04         0.00000E+00
    0.87618E+04        -0.28190E+05         0.00000E+00
    0.00000E+00         0.00000E+00        -0.15572E+05
 
   -0.35460E+04         0.79200E+04         0.00000E+00
    0.79200E+04        -0.26637E+05         0.00000E+00
    0.00000E+00         0.00000E+00        -0.13638E+05
 
   -0.22415E+04         0.71257E+04         0.00000E+00
    0.71257E+04        -0.25197E+05         0.00000E+00
    0.00000E+00         0.00000E+00        -0.11840E+05
 
   -0.10999E+04         0.63884E+04         0.00000E+00
    0.63884E+04        -0.23831E+05         0.00000E+00
    0.00000E+00         0.00000E+00        -0.10165E+05
 
   -0.60913E+02         0.57360E+04         0.00000E+00
    0.57360E+04        -0.22452E+05         0.00000E+00
    0.00000E+00         0.00000E+00        -0.86124E+04
 
    0.88189E+03         0.51309E+04         0.00000E+00
    0.51309E+04        -0.21118E+05         0.00000E+00
    0.00000E+00         0.00000E+00        -0.71747E+04
 
    0.16658E+04         0.46603E+04         0.00000E+00
    0.46603E+04        -0.19885E+05         0.00000E+00
    0.00000E+00         0.00000E+00        -0.58875E+04
 
    0.15810E+04         0.41596E+04         0.00000E+00
    0.41596E+04        -0.18763E+05         0.00000E+00
    0.00000E+00         0.00000E+00        -0.51859E+04
 
   -0.90773E+02         0.36207E+04         0.00000E+00
    0.36207E+04        -0.17766E+05         0.00000E+00
    0.00000E+00         0.00000E+00        -0.53889E+04
 
   -0.17945E+04         0.32794E+04         0.00000E+00
    0.32794E+04        -0.16864E+05         0.00000E+00
    0.00000E+00         0.00000E+00        -0.56297E+04
 
   -0.35577E+04         0.31133E+04         0.00000E+00
    0.31133E+04        -0.16025E+05         0.00000E+00
    0.00000E+00         0.00000E+00        -0.59072E+04
 
   -0.54246E+04         0.31096E+04         0.00000E+00
    0.31096E+04        -0.15210E+05         0.00000E+00
    0.00000E+00         0.00000E+00        -0.62230E+04
 
   -0.53470E+04         0.32348E+04         0.00000E+00
    0.32348E+04         0.36723E+04         0.00000E+00
    0.00000E+00         0.00000E+00         0.23075E+03
 
   -0.27107E+05         0.11085E+05         0.00000E+00
    0.11085E+05        -0.97059E+04         0.00000E+00
    0.00000E+00         0.00000E+00        -0.19812E+05
 
   -0.32131E+05         0.14176E+05         0.00000E+00
    0.14176E+05        -0.17695E+05         0.00000E+00
    0.00000E+00         0.00000E+00        -0.27683E+05
 
   -0.30973E+05         0.15561E+05         0.00000E+00
    0.15561E+05        -0.21987E+05         0.00000E+00
    0.00000E+00         0.00000E+00        -0.29218E+05
 
   -0.28355E+05         0.16162E+05         0.00000E+00
    0.16162E+05        -0.24972E+05         0.00000E+00
    0.00000E+00         0.00000E+00        -0.29127E+05
 
   -0.24978E+05         0.16102E+05         0.00000E+00
    0.16102E+05        -0.26821E+05         0.00000E+00
    0.00000E+00         0.00000E+00        -0.27950E+05
 
   -0.21449E+05         0.15589E+05         0.00000E+00
    0.15589E+05        -0.27861E+05         0.00000E+00
    0.00000E+00         0.00000E+00        -0.26218E+05
 
   -0.18080E+05         0.14788E+05         0.00000E+00
    0.14788E+05        -0.28263E+05         0.00000E+00
    0.00000E+00         0.00000E+00        -0.24200E+05
 
   -0.15034E+05         0.13852E+05         0.00000E+00
    0.13852E+05        -0.28171E+05         0.00000E+00
    0.00000E+00         0.00000E+00        -0.22075E+05
 
   -0.12300E+05         0.12870E+05         0.00000E+00
    0.12870E+05        -0.27743E+05         0.00000E+00
    0.00000E+00         0.00000E+00        -0.19937E+05
 
   -0.98921E+04         0.11907E+05         0.00000E+00
    0.11907E+05        -0.27142E+05         0.00000E+00
    0.00000E+00         0.00000E+00        -0.17871E+05
 
   -0.77862E+04         0.10978E+05         0.00000E+00
    0.10978E+05        -0.26367E+05         0.00000E+00
    0.00000E+00         0.00000E+00        -0.15924E+05
 
   -0.59485E+04         0.10068E+05         0.00000E+00
    0.10068E+05        -0.25389E+05         0.00000E+00
    0.00000E+00         0.00000E+00        -0.14111E+05
 
   -0.44041E+04         0.91829E+04         0.00000E+00
    0.91829E+04        -0.24352E+05         0.00000E+00
    0.00000E+00         0.00000E+00        -0.12453E+05
 
   -0.30200E+04         0.83407E+04         0.00000E+00
    0.83407E+04        -0.23312E+05         0.00000E+00
    0.00000E+00         0.00000E+00        -0.10907E+05
 
   -0.18123E+04         0.76123E+04         0.00000E+00
    0.76123E+04        -0.22203E+05         0.00000E+00
    0.00000E+00         0.00000E+00        -0.94762E+04
 
   -0.72542E+03         0.69423E+04         0.00000E+00
    0.69423E+04        -0.21127E+05         0.00000E+00
    0.00000E+00         0.00000E+00        -0.81159E+04
 
    0.30652E+03         0.63229E+04         0.00000E+00
    0.63229E+04        -0.20067E+05         0.00000E+00
    0.00000E+00         0.00000E+00        -0.67635E+04
 
    0.12417E+04         0.57853E+04         0.00000E+00
    0.57853E+04        -0.18954E+05         0.00000E+00
    0.00000E+00         0.00000E+00        -0.55529E+04
 
    0.86819E+03         0.51573E+04         0.00000E+00
    0.51573E+04        -0.17921E+05         0.00000E+00
    0.00000E+00         0.00000E+00        -0.51470E+04
 
   -0.57183E+03         0.45166E+04         0.00000E+00
    0.45166E+04        -0.17043E+05         0.00000E+00
    0.00000E+00         0.00000E+00        -0.53163E+04
 
   -0.20757E+04         0.41028E+04         0.00000E+00
    0.41028E+04        -0.16239E+05         0.00000E+00
    0.00000E+00         0.00000E+00        -0.55267E+04
 
   -0.36536E+04         0.38949E+04         0.00000E+00
    0.38949E+04        -0.15486E+05         0.00000E+00
    0.00000E+00         0.00000E+00        -0.57743E+04
 
   -0.53370E+04         0.38895E+04         0.00000E+00
    0.38895E+04        -0.14750E+05         0.00000E+00
    0.00000E+00         0.00000E+00        -0.60589E+04
 
    0.33612E+03        -0.11883E+04         0.00000E+00
   -0.11883E+04        -0.16838E+04         0.00000E+00
    0.00000E+00         0.00000E+00        -0.16552E+03
 
   -0.24265E+05         0.58096E+04         0.00000E+00
    0.58096E+04        -0.31118E+04         0.00000E+00
    0.00000E+00         0.00000E+00        -0.10030E+05
 
   -0.28870E+05         0.95680E+04         0.00000E+00
    0.95680E+04        -0.92097E+04         0.00000E+00
    0.00000E+00         0.00000E+00        -0.18324E+05
 
   -0.29163E+05         0.11880E+05         0.00000E+00
    0.11880E+05        -0.13479E+05         0.00000E+00
    0.00000E+00         0.00000E+00        -0.21779E+05
 
   -0.27286E+05         0.13319E+05         0.00000E+00
    0.13319E+05        -0.16587E+05         0.00000E+00
    0.00000E+00         0.00000E+00        -0.22806E+05
 
   -0.24652E+05         0.14067E+05         0.00000E+00
    0.14067E+05        -0.18911E+05         0.00000E+00
    0.00000E+00         0.00000E+00        -0.22608E+05
 
   -0.21651E+05         0.14281E+05         0.00000E+00
    0.14281E+05        -0.20587E+05         0.00000E+00
    0.00000E+00         0.00000E+00        -0.21731E+05
 
   -0.18627E+05         0.14090E+05         0.00000E+00
    0.14090E+05        -0.21700E+05         0.00000E+00
    0.00000E+00         0.00000E+00        -0.20450E+05
 
   -0.15772E+05         0.13633E+05         0.00000E+00
    0.13633E+05        -0.22353E+05         0.00000E+00
    0.00000E+00         0.00000E+00        -0.18963E+05
 
   -0.13144E+05         0.13005E+05         0.00000E+00
    0.13005E+05        -0.22632E+05         0.00000E+00
    0.00000E+00         0.00000E+00        -0.17373E+05
 
   -0.10768E+05         0.12268E+05         0.00000E+00
    0.12268E+05        -0.22614E+05         0.00000E+00
    0.00000E+00         0.00000E+00        -0.15762E+05
 
   -0.86363E+04         0.11541E+05         0.00000E+00
    0.11541E+05        -0.22380E+05         0.00000E+00
    0.00000E+00         0.00000E+00        -0.14164E+05
 
   -0.68064E+04         0.10767E+05         0.00000E+00
    0.10767E+05        -0.22037E+05         0.00000E+00
    0.00000E+00         0.00000E+00        -0.12681E+05
 
   -0.52161E+04         0.99924E+04         0.00000E+00
    0.99924E+04        -0.21521E+05         0.00000E+00
    0.00000E+00         0.00000E+00        -0.11292E+05
 
   -0.38053E+04         0.92565E+04         0.00000E+00
    0.92565E+04        -0.20803E+05         0.00000E+00
    0.00000E+00         0.00000E+00        -0.99897E+04
 
   -0.25119E+04         0.85368E+04         0.00000E+00
    0.85368E+04        -0.20023E+05         0.00000E+00
    0.00000E+00         0.00000E+00        -0.87245E+04
 
   -0.13794E+04         0.78595E+04         0.00000E+00
    0.78595E+04        -0.19229E+05         0.00000E+00
    0.00000E+00         0.00000E+00        -0.75060E+04
 
   -0.26518E+03         0.72838E+04         0.00000E+00
    0.72838E+04        -0.18418E+05         0.00000E+00
    0.00000E+00         0.00000E+00        -0.62641E+04
 
    0.72264E+03         0.67683E+04         0.00000E+00
    0.67683E+04        -0.17585E+05         0.00000E+00
    0.00000E+00         0.00000E+00        -0.51859E+04
 
    0.50916E+02         0.59888E+04         0.00000E+00
    0.59888E+04        -0.16812E+05         0.00000E+00
    0.00000E+00         0.00000E+00        -0.50597E+04
 
   -0.11254E+04         0.52828E+04         0.00000E+00
    0.52828E+04        -0.16110E+05         0.00000E+00
    0.00000E+00         0.00000E+00        -0.52024E+04
 
   -0.24072E+04         0.48165E+04         0.00000E+00
    0.48165E+04        -0.15449E+05         0.00000E+00
    0.00000E+00         0.00000E+00        -0.53892E+04
 
   -0.37674E+04         0.45824E+04         0.00000E+00
    0.45824E+04        -0.14811E+05         0.00000E+00
    0.00000E+00         0.00000E+00        -0.56061E+04
 
   -0.52276E+04         0.45804E+04         0.00000E+00
    0.45804E+04        -0.14177E+05         0.00000E+00
    0.00000E+00         0.00000E+00        -0.58541E+04
 
    0.94838E+03        -0.17041E+04         0.00000E+00
   -0.17041E+04         0.49002E+02         0.00000E+00
    0.00000E+00         0.00000E+00         0.34928E+03
 
   -0.18637E+05         0.80484E+03         0.00000E+00
    0.80484E+03        -0.13738E+04         0.00000E+00
    0.00000E+00         0.00000E+00        -0.60067E+04
 
   -0.26658E+05         0.61346E+04         0.00000E+00
    0.61346E+04        -0.49879E+04         0.00000E+00
    0.00000E+00         0.00000E+00        -0.12170E+05
 
   -0.26876E+05         0.88903E+04         0.00000E+00
    0.88903E+04        -0.83077E+04         0.00000E+00
    0.00000E+00         0.00000E+00        -0.15733E+05
 
   -0.25832E+05         0.10755E+05         0.00000E+00
    0.10755E+05        -0.11200E+05         0.00000E+00
    0.00000E+00         0.00000E+00        -0.17446E+05
 
   -0.23759E+05         0.12011E+05         0.00000E+00
    0.12011E+05        -0.13532E+05         0.00000E+00
    0.00000E+00         0.00000E+00        -0.17942E+05
 
   -0.21293E+05         0.12690E+05         0.00000E+00
    0.12690E+05        -0.15312E+05         0.00000E+00
    0.00000E+00         0.00000E+00        -0.17697E+05
 
   -0.18661E+05         0.12947E+05         0.00000E+00
    0.12947E+05        -0.16671E+05         0.00000E+00
    0.00000E+00         0.00000E+00        -0.16982E+05
 
   -0.16087E+05         0.12880E+05         0.00000E+00
    0.12880E+05        -0.17656E+05         0.00000E+00
    0.00000E+00         0.00000E+00        -0.16001E+05
 
   -0.13656E+05         0.12588E+05         0.00000E+00
    0.12588E+05        -0.18329E+05         0.00000E+00
    0.00000E+00         0.00000E+00        -0.14857E+05
 
   -0.11372E+05         0.12166E+05         0.00000E+00
    0.12166E+05        -0.18722E+05         0.00000E+00
    0.00000E+00         0.00000E+00        -0.13603E+05
 
   -0.93072E+04         0.11624E+05         0.00000E+00
    0.11624E+05        -0.18891E+05         0.00000E+00
    0.00000E+00         0.00000E+00        -0.12335E+05
 
   -0.75080E+04         0.11038E+05         0.00000E+00
    0.11038E+05        -0.18827E+05         0.00000E+00
    0.00000E+00         0.00000E+00        -0.11131E+05
 
   -0.59088E+04         0.10420E+05         0.00000E+00
    0.10420E+05        -0.18584E+05         0.00000E+00
    0.00000E+00         0.00000E+00        -0.99853E+04
 
   -0.44820E+04         0.97943E+04         0.00000E+00
    0.97943E+04        -0.18254E+05         0.00000E+00
    0.00000E+00         0.00000E+00        -0.89008E+04
 
   -0.31763E+04         0.91726E+04         0.00000E+00
    0.91726E+04        -0.17824E+05         0.00000E+00
    0.00000E+00         0.00000E+00        -0.78079E+04
 
   -0.19689E+04         0.85747E+04         0.00000E+00
    0.85747E+04        -0.17271E+05         0.00000E+00
    0.00000E+00         0.00000E+00        -0.67185E+04
 
   -0.81230E+03         0.80326E+04         0.00000E+00
    0.80326E+04        -0.16616E+05         0.00000E+00
    0.00000E+00         0.00000E+00        -0.57089E+04
 
    0.98524E+01         0.74549E+04         0.00000E+00
    0.74549E+04        -0.15971E+05         0.00000E+00
    0.00000E+00         0.00000E+00        -0.48565E+04
 
   -0.75588E+03         0.65780E+04         0.00000E+00
    0.65780E+04        -0.15496E+05         0.00000E+00
    0.00000E+00         0.00000E+00        -0.49069E+04
 
   -0.17234E+04         0.58650E+04         0.00000E+00
    0.58650E+04        -0.15028E+05         0.00000E+00
    0.00000E+00         0.00000E+00        -0.50573E+04
 
   -0.27610E+04         0.53898E+04         0.00000E+00
    0.53898E+04        -0.14537E+05         0.00000E+00
    0.00000E+00         0.00000E+00        -0.52217E+04
 
   -0.38852E+04         0.51547E+04         0.00000E+00
    0.51547E+04        -0.14033E+05         0.00000E+00
    0.00000E+00         0.00000E+00        -0.54080E+04
 
   -0.50970E+04         0.51647E+04         0.00000E+00
    0.51647E+04        -0.13515E+05         0.00000E+00
    0.00000E+00         0.00000E+00        -0.56161E+04
 
   -0.85947E+03        -0.17691E+04         0.00000E+00
   -0.17691E+04        -0.28079E+02         0.00000E+00
    0.00000E+00         0.00000E+00        -0.26741E+03
 
   -0.14039E+05        -0.11458E+04         0.00000E+00
   -0.11458E+04        -0.32862E+03         0.00000E+00
    0.00000E+00         0.00000E+00        -0.43136E+04
 
   -0.23215E+05         0.29831E+04         0.00000E+00
    0.29831E+04        -0.14805E+04         0.00000E+00
    0.00000E+00         0.00000E+00        -0.76447E+04
 
   -0.24788E+05         0.62782E+04         0.00000E+00
    0.62782E+04        -0.46970E+04         0.00000E+00
    0.00000E+00         0.00000E+00        -0.11381E+05
 
   -0.24102E+05         0.84502E+04         0.00000E+00
    0.84502E+04        -0.71060E+04         0.00000E+00
    0.00000E+00         0.00000E+00        -0.13224E+05
 
   -0.22539E+05         0.10024E+05         0.00000E+00
    0.10024E+05        -0.92863E+04         0.00000E+00
    0.00000E+00         0.00000E+00        -0.13951E+05
 
   -0.20580E+05         0.11078E+05         0.00000E+00
    0.11078E+05        -0.11178E+05         0.00000E+00
    0.00000E+00         0.00000E+00        -0.14129E+05
 
   -0.18339E+05         0.11675E+05         0.00000E+00
    0.11675E+05        -0.12664E+05         0.00000E+00
    0.00000E+00         0.00000E+00        -0.13811E+05
 
   -0.16074E+05         0.11923E+05         0.00000E+00
    0.11923E+05        -0.13808E+05         0.00000E+00
    0.00000E+00         0.00000E+00        -0.13219E+05
 
   -0.13846E+05         0.11917E+05         0.00000E+00
    0.11917E+05        -0.14650E+05         0.00000E+00
    0.00000E+00         0.00000E+00        -0.12423E+05
 
   -0.11721E+05         0.11738E+05         0.00000E+00
    0.11738E+05        -0.15234E+05         0.00000E+00
    0.00000E+00         0.00000E+00        -0.11496E+05
 
   -0.97691E+04         0.11433E+05         0.00000E+00
    0.11433E+05        -0.15588E+05         0.00000E+00
    0.00000E+00         0.00000E+00        -0.10514E+05
 
   -0.80294E+04         0.11022E+05         0.00000E+00
    0.11022E+05        -0.15782E+05         0.00000E+00
    0.00000E+00         0.00000E+00        -0.95634E+04
 
   -0.64636E+04         0.10559E+05         0.00000E+00
    0.10559E+05        -0.15833E+05         0.00000E+00
    0.00000E+00         0.00000E+00        -0.86401E+04
 
   -0.50386E+04         0.10065E+05         0.00000E+00
    0.10065E+05        -0.15713E+05         0.00000E+00
    0.00000E+00         0.00000E+00        -0.77331E+04
 
   -0.37396E+04         0.95626E+04         0.00000E+00
    0.95626E+04        -0.15459E+05         0.00000E+00
    0.00000E+00         0.00000E+00        -0.68634E+04
 
   -0.24957E+04         0.90654E+04         0.00000E+00
    0.90654E+04        -0.15114E+05         0.00000E+00
    0.00000E+00         0.00000E+00        -0.59792E+04
 
   -0.13237E+04         0.85748E+04         0.00000E+00
    0.85748E+04        -0.14687E+05         0.00000E+00
    0.00000E+00         0.00000E+00        -0.51007E+04
 
   -0.87369E+03         0.78514E+04         0.00000E+00
    0.78514E+04        -0.14352E+05         0.00000E+00
    0.00000E+00         0.00000E+00        -0.45983E+04
 
   -0.15726E+04         0.69164E+04         0.00000E+00
    0.69164E+04        -0.14162E+05         0.00000E+00
    0.00000E+00         0.00000E+00        -0.47515E+04
 
   -0.22971E+04         0.62501E+04         0.00000E+00
    0.62501E+04        -0.13895E+05         0.00000E+00
    0.00000E+00         0.00000E+00        -0.48894E+04
 
   -0.31026E+04         0.58130E+04         0.00000E+00
    0.58130E+04        -0.13568E+05         0.00000E+00
    0.00000E+00         0.00000E+00        -0.50333E+04
 
   -0.39890E+04         0.56035E+04         0.00000E+00
    0.56035E+04        -0.13196E+05         0.00000E+00
    0.00000E+00         0.00000E+00        -0.51879E+04
 
   -0.49468E+04         0.56338E+04         0.00000E+00
    0.56338E+04        -0.12795E+05         0.00000E+00
    0.00000E+00         0.00000E+00        -0.53551E+04
 
   -0.28941E+04        -0.15203E+04         0.00000E+00
   -0.15203E+04         0.15847E+03         0.00000E+00
    0.00000E+00         0.00000E+00        -0.82182E+03
 
   -0.11939E+05        -0.16429E+04         0.00000E+00
   -0.16429E+04         0.28790E+03         0.00000E+00
    0.00000E+00         0.00000E+00        -0.34988E+04
 
   -0.19243E+05         0.78330E+03         0.00000E+00
    0.78330E+03        -0.66778E+03         0.00000E+00
    0.00000E+00         0.00000E+00        -0.59787E+04
 
   -0.22462E+05         0.41340E+04         0.00000E+00
    0.41340E+04        -0.20290E+04         0.00000E+00
    0.00000E+00         0.00000E+00        -0.80373E+04
 
   -0.22285E+05         0.65004E+04         0.00000E+00
    0.65004E+04        -0.41137E+04         0.00000E+00
    0.00000E+00         0.00000E+00        -0.99201E+04
 
   -0.21148E+05         0.81999E+04         0.00000E+00
    0.81999E+04        -0.59004E+04         0.00000E+00
    0.00000E+00         0.00000E+00        -0.10864E+05
 
   -0.19601E+05         0.94564E+04         0.00000E+00
    0.94564E+04        -0.75614E+04         0.00000E+00
    0.00000E+00         0.00000E+00        -0.11177E+05
 
   -0.17739E+05         0.10347E+05         0.00000E+00
    0.10347E+05        -0.90530E+04         0.00000E+00
    0.00000E+00         0.00000E+00        -0.11117E+05
 
   -0.15803E+05         0.10863E+05         0.00000E+00
    0.10863E+05        -0.10293E+05         0.00000E+00
    0.00000E+00         0.00000E+00        -0.10787E+05
 
   -0.13790E+05         0.11108E+05         0.00000E+00
    0.11108E+05        -0.11264E+05         0.00000E+00
    0.00000E+00         0.00000E+00        -0.10248E+05
 
   -0.11839E+05         0.11158E+05         0.00000E+00
    0.11158E+05        -0.12010E+05         0.00000E+00
    0.00000E+00         0.00000E+00        -0.95707E+04
 
   -0.10029E+05         0.11044E+05         0.00000E+00
    0.11044E+05        -0.12560E+05         0.00000E+00
    0.00000E+00         0.00000E+00        -0.88334E+04
 
   -0.83859E+04         0.10809E+05         0.00000E+00
    0.10809E+05        -0.12920E+05         0.00000E+00
    0.00000E+00         0.00000E+00        -0.81006E+04
 
   -0.68694E+04         0.10503E+05         0.00000E+00
    0.10503E+05        -0.13103E+05         0.00000E+00
    0.00000E+00         0.00000E+00        -0.73689E+04
 
   -0.54702E+04         0.10143E+05         0.00000E+00
    0.10143E+05        -0.13176E+05         0.00000E+00
    0.00000E+00         0.00000E+00        -0.66353E+04
 
   -0.41905E+04         0.97449E+04         0.00000E+00
    0.97449E+04        -0.13151E+05         0.00000E+00
    0.00000E+00         0.00000E+00        -0.59238E+04
 
   -0.29495E+04         0.93334E+04         0.00000E+00
    0.93334E+04        -0.12983E+05         0.00000E+00
    0.00000E+00         0.00000E+00        -0.51730E+04
 
   -0.18734E+04         0.88769E+04         0.00000E+00
    0.88769E+04        -0.12817E+05         0.00000E+00
    0.00000E+00         0.00000E+00        -0.44799E+04
 
   -0.19309E+04         0.78607E+04         0.00000E+00
    0.78607E+04        -0.12913E+05         0.00000E+00
    0.00000E+00         0.00000E+00        -0.44837E+04
 
   -0.23099E+04         0.70537E+04         0.00000E+00
    0.70537E+04        -0.12911E+05         0.00000E+00
    0.00000E+00         0.00000E+00        -0.45975E+04
 
   -0.28116E+04         0.64751E+04         0.00000E+00
    0.64751E+04        -0.12796E+05         0.00000E+00
    0.00000E+00         0.00000E+00        -0.47139E+04
 
   -0.34009E+04         0.61011E+04         0.00000E+00
    0.61011E+04        -0.12598E+05         0.00000E+00
    0.00000E+00         0.00000E+00        -0.48318E+04
 
   -0.40644E+04         0.59345E+04         0.00000E+00
    0.59345E+04        -0.12343E+05         0.00000E+00
    0.00000E+00         0.00000E+00        -0.49546E+04
 
   -0.47794E+04         0.59895E+04         0.00000E+00
    0.59895E+04        -0.12052E+05         0.00000E+00
    0.00000E+00         0.00000E+00        -0.50819E+04
 
   -0.47280E+04        -0.11863E+04         0.00000E+00
   -0.11863E+04         0.14246E+03         0.00000E+00
    0.00000E+00         0.00000E+00        -0.13768E+04
 
   -0.11051E+05        -0.16570E+04         0.00000E+00
   -0.16570E+04         0.43176E+03         0.00000E+00
    0.00000E+00         0.00000E+00        -0.31892E+04
 
   -0.16299E+05        -0.96170E+02         0.00000E+00
   -0.96170E+02         0.34144E+03         0.00000E+00
    0.00000E+00         0.00000E+00        -0.47928E+04
 
   -0.19727E+05         0.24485E+04         0.00000E+00
    0.24485E+04        -0.40728E+03         0.00000E+00
    0.00000E+00         0.00000E+00        -0.60480E+04
 
   -0.20430E+05         0.48758E+04         0.00000E+00
    0.48758E+04        -0.18354E+04         0.00000E+00
    0.00000E+00         0.00000E+00        -0.72968E+04
 
   -0.19699E+05         0.66861E+04         0.00000E+00
    0.66861E+04        -0.34013E+04         0.00000E+00
    0.00000E+00         0.00000E+00        -0.82828E+04
 
   -0.18474E+05         0.80357E+04         0.00000E+00
    0.80357E+04        -0.47978E+04         0.00000E+00
    0.00000E+00         0.00000E+00        -0.87537E+04
 
   -0.16940E+05         0.90455E+04         0.00000E+00
    0.90455E+04        -0.60909E+04         0.00000E+00
    0.00000E+00         0.00000E+00        -0.88555E+04
 
   -0.15298E+05         0.97702E+04         0.00000E+00
    0.97702E+04        -0.72622E+04         0.00000E+00
    0.00000E+00         0.00000E+00        -0.86985E+04
 
   -0.13528E+05         0.10223E+05         0.00000E+00
    0.10223E+05        -0.82786E+04         0.00000E+00
    0.00000E+00         0.00000E+00        -0.83641E+04
 
   -0.11771E+05         0.10460E+05         0.00000E+00
    0.10460E+05        -0.90912E+04         0.00000E+00
    0.00000E+00         0.00000E+00        -0.78845E+04
 
   -0.10118E+05         0.10516E+05         0.00000E+00
    0.10516E+05        -0.97322E+04         0.00000E+00
    0.00000E+00         0.00000E+00        -0.73337E+04
 
   -0.85742E+04         0.10445E+05         0.00000E+00
    0.10445E+05        -0.10233E+05         0.00000E+00
    0.00000E+00         0.00000E+00        -0.67398E+04
 
   -0.71322E+04         0.10281E+05         0.00000E+00
    0.10281E+05        -0.10625E+05         0.00000E+00
    0.00000E+00         0.00000E+00        -0.61676E+04
 
   -0.57824E+04         0.10049E+05         0.00000E+00
    0.10049E+05        -0.10834E+05         0.00000E+00
    0.00000E+00         0.00000E+00        -0.55706E+04
 
   -0.45528E+04         0.97449E+04         0.00000E+00
    0.97449E+04        -0.10909E+05         0.00000E+00
    0.00000E+00         0.00000E+00        -0.49864E+04
 
   -0.33184E+04         0.94362E+04         0.00000E+00
    0.94362E+04        -0.11002E+05         0.00000E+00
    0.00000E+00         0.00000E+00        -0.43680E+04
 
   -0.28398E+04         0.85708E+04         0.00000E+00
    0.85708E+04        -0.11370E+05         0.00000E+00
    0.00000E+00         0.00000E+00        -0.42927E+04
 
   -0.27711E+04         0.77254E+04         0.00000E+00
    0.77254E+04        -0.11674E+05         0.00000E+00
    0.00000E+00         0.00000E+00        -0.43639E+04
 
   -0.29410E+04         0.70639E+04         0.00000E+00
    0.70639E+04        -0.11779E+05         0.00000E+00
    0.00000E+00         0.00000E+00        -0.44472E+04
 
   -0.32450E+04         0.65829E+04         0.00000E+00
    0.65829E+04        -0.11764E+05         0.00000E+00
    0.00000E+00         0.00000E+00        -0.45344E+04
 
   -0.36428E+04         0.62802E+04         0.00000E+00
    0.62802E+04        -0.11665E+05         0.00000E+00
    0.00000E+00         0.00000E+00        -0.46244E+04
 
   -0.41043E+04         0.61614E+04         0.00000E+00
    0.61614E+04        -0.11506E+05         0.00000E+00
    0.00000E+00         0.00000E+00        -0.47154E+04
 
   -0.45990E+04         0.62409E+04         0.00000E+00
    0.62409E+04        -0.11312E+05         0.00000E+00
    0.00000E+00         0.00000E+00        -0.48057E+04
 
   -0.62308E+04        -0.87767E+03         0.00000E+00
   -0.87767E+03         0.12299E+03         0.00000E+00
    0.00000E+00         0.00000E+00        -0.18334E+04
 
   -0.10577E+05        -0.13325E+04         0.00000E+00
   -0.13325E+04         0.49514E+03         0.00000E+00
    0.00000E+00         0.00000E+00        -0.30279E+04
 
   -0.14499E+05        -0.34070E+03         0.00000E+00
   -0.34070E+03         0.66368E+03         0.00000E+00
    0.00000E+00         0.00000E+00        -0.41561E+04
 
   -0.17185E+05         0.15168E+04         0.00000E+00
    0.15168E+04         0.31672E+03         0.00000E+00
    0.00000E+00         0.00000E+00        -0.50680E+04
 
   -0.18468E+05         0.36119E+04         0.00000E+00
    0.36119E+04        -0.27207E+03         0.00000E+00
    0.00000E+00         0.00000E+00        -0.56318E+04
 
   -0.18215E+05         0.53903E+04         0.00000E+00
    0.53903E+04        -0.13930E+04         0.00000E+00
    0.00000E+00         0.00000E+00        -0.62532E+04
 
   -0.17298E+05         0.68189E+04         0.00000E+00
    0.68189E+04        -0.26541E+04         0.00000E+00
    0.00000E+00         0.00000E+00        -0.67243E+04
 
   -0.16045E+05         0.79155E+04         0.00000E+00
    0.79155E+04        -0.37925E+04         0.00000E+00
    0.00000E+00         0.00000E+00        -0.69167E+04
 
   -0.14633E+05         0.87132E+04         0.00000E+00
    0.87132E+04        -0.48585E+04         0.00000E+00
    0.00000E+00         0.00000E+00        -0.69111E+04
 
   -0.13105E+05         0.93270E+04         0.00000E+00
    0.93270E+04        -0.57888E+04         0.00000E+00
    0.00000E+00         0.00000E+00        -0.66728E+04
 
   -0.11543E+05         0.97071E+04         0.00000E+00
    0.97071E+04        -0.66266E+04         0.00000E+00
    0.00000E+00         0.00000E+00        -0.63410E+04
 
   -0.10047E+05         0.99222E+04         0.00000E+00
    0.99222E+04        -0.73429E+04         0.00000E+00
    0.00000E+00         0.00000E+00        -0.59360E+04
 
   -0.86285E+04         0.99740E+04         0.00000E+00
    0.99740E+04        -0.78913E+04         0.00000E+00
    0.00000E+00         0.00000E+00        -0.54955E+04
 
   -0.72588E+04         0.99320E+04         0.00000E+00
    0.99320E+04        -0.82712E+04         0.00000E+00
    0.00000E+00         0.00000E+00        -0.50226E+04
 
   -0.60187E+04         0.98142E+04         0.00000E+00
    0.98142E+04        -0.86439E+04         0.00000E+00
    0.00000E+00         0.00000E+00        -0.45649E+04
 
   -0.48457E+04         0.95439E+04         0.00000E+00
    0.95439E+04        -0.90729E+04         0.00000E+00
    0.00000E+00         0.00000E+00        -0.42032E+04
 
   -0.40603E+04         0.88591E+04         0.00000E+00
    0.88591E+04        -0.97154E+04         0.00000E+00
    0.00000E+00         0.00000E+00        -0.41614E+04
 
   -0.36274E+04         0.81562E+04         0.00000E+00
    0.81562E+04        -0.10263E+05         0.00000E+00
    0.00000E+00         0.00000E+00        -0.41968E+04
 
   -0.34421E+04         0.75128E+04         0.00000E+00
    0.75128E+04        -0.10584E+05         0.00000E+00
    0.00000E+00         0.00000E+00        -0.42383E+04
 
   -0.34531E+04         0.69891E+04         0.00000E+00
    0.69891E+04        -0.10752E+05         0.00000E+00
    0.00000E+00         0.00000E+00        -0.42926E+04
 
   -0.35955E+04         0.66061E+04         0.00000E+00
    0.66061E+04        -0.10809E+05         0.00000E+00
    0.00000E+00         0.00000E+00        -0.43528E+04
 
   -0.38257E+04         0.63731E+04         0.00000E+00
    0.63731E+04        -0.10784E+05         0.00000E+00
    0.00000E+00         0.00000E+00        -0.44149E+04
 
   -0.41088E+04         0.63004E+04         0.00000E+00
    0.63004E+04        -0.10704E+05         0.00000E+00
    0.00000E+00         0.00000E+00        -0.44761E+04
 
   -0.44098E+04         0.64007E+04         0.00000E+00
    0.64007E+04        -0.10593E+05         0.00000E+00
    0.00000E+00         0.00000E+00        -0.45331E+04
 
   -0.73294E+04        -0.60334E+03         0.00000E+00
   -0.60334E+03         0.10362E+03         0.00000E+00
    0.00000E+00         0.00000E+00        -0.21688E+04
 
   -0.10329E+05        -0.94959E+03         0.00000E+00
   -0.94959E+03         0.43996E+03         0.00000E+00
    0.00000E+00         0.00000E+00        -0.29701E+04
 
   -0.13216E+05        -0.26291E+03         0.00000E+00
   -0.26291E+03         0.72380E+03         0.00000E+00
    0.00000E+00         0.00000E+00        -0.37530E+04
 
   -0.15366E+05         0.11434E+04         0.00000E+00
    0.11434E+04         0.69979E+03         0.00000E+00
    0.00000E+00         0.00000E+00        -0.44074E+04
 
   -0.16522E+05         0.28276E+04         0.00000E+00
    0.28276E+04         0.26386E+03         0.00000E+00
    0.00000E+00         0.00000E+00        -0.48869E+04
 
   -0.16691E+05         0.44507E+04         0.00000E+00
    0.44507E+04        -0.25720E+03         0.00000E+00
    0.00000E+00         0.00000E+00        -0.50961E+04
 
   -0.16120E+05         0.58297E+04         0.00000E+00
    0.58297E+04        -0.93829E+03         0.00000E+00
    0.00000E+00         0.00000E+00        -0.52058E+04
 
   -0.15115E+05         0.69049E+04         0.00000E+00
    0.69049E+04        -0.19085E+04         0.00000E+00
    0.00000E+00         0.00000E+00        -0.53698E+04
 
   -0.13894E+05         0.78024E+04         0.00000E+00
    0.78024E+04        -0.28342E+04         0.00000E+00
    0.00000E+00         0.00000E+00        -0.53796E+04
 
   -0.12560E+05         0.84782E+04         0.00000E+00
    0.84782E+04        -0.37024E+04         0.00000E+00
    0.00000E+00         0.00000E+00        -0.52401E+04
 
   -0.11191E+05         0.89548E+04         0.00000E+00
    0.89548E+04        -0.44692E+04         0.00000E+00
    0.00000E+00         0.00000E+00        -0.50086E+04
 
   -0.98522E+04         0.92664E+04         0.00000E+00
    0.92664E+04        -0.51506E+04         0.00000E+00
    0.00000E+00         0.00000E+00        -0.47048E+04
 
   -0.85669E+04         0.94676E+04         0.00000E+00
    0.94676E+04        -0.57952E+04         0.00000E+00
    0.00000E+00         0.00000E+00        -0.43803E+04
 
   -0.73518E+04         0.94254E+04         0.00000E+00
    0.94254E+04        -0.65246E+04         0.00000E+00
    0.00000E+00         0.00000E+00        -0.41891E+04
 
   -0.62522E+04         0.91763E+04         0.00000E+00
    0.91763E+04        -0.73107E+04         0.00000E+00
    0.00000E+00         0.00000E+00        -0.40953E+04
 
   -0.53661E+04         0.87700E+04         0.00000E+00
    0.87700E+04        -0.81418E+04         0.00000E+00
    0.00000E+00         0.00000E+00        -0.40800E+04
 
   -0.46855E+04         0.82746E+04         0.00000E+00
    0.82746E+04        -0.88035E+04         0.00000E+00
    0.00000E+00         0.00000E+00        -0.40753E+04
 
   -0.42172E+04         0.77442E+04         0.00000E+00
    0.77442E+04        -0.92797E+04         0.00000E+00
    0.00000E+00         0.00000E+00        -0.40786E+04
 
   -0.39588E+04         0.72607E+04         0.00000E+00
    0.72607E+04        -0.96135E+04         0.00000E+00
    0.00000E+00         0.00000E+00        -0.41020E+04
 
   -0.38547E+04         0.68589E+04         0.00000E+00
    0.68589E+04        -0.98191E+04         0.00000E+00
    0.00000E+00         0.00000E+00        -0.41331E+04
 
   -0.38659E+04         0.65657E+04         0.00000E+00
    0.65657E+04        -0.99262E+04         0.00000E+00
    0.00000E+00         0.00000E+00        -0.41691E+04
 
   -0.39532E+04         0.63971E+04         0.00000E+00
    0.63971E+04        -0.99605E+04         0.00000E+00
    0.00000E+00         0.00000E+00        -0.42060E+04
 
   -0.40817E+04         0.63656E+04         0.00000E+00
    0.63656E+04        -0.99453E+04         0.00000E+00
    0.00000E+00         0.00000E+00        -0.42403E+04
 
   -0.42161E+04         0.64824E+04         0.00000E+00
    0.64824E+04        -0.99037E+04         0.00000E+00
    0.00000E+00         0.00000E+00        -0.42683E+04
 
   -0.80661E+04        -0.38418E+03         0.00000E+00
   -0.38418E+03         0.79135E+02         0.00000E+00
    0.00000E+00         0.00000E+00        -0.23972E+04
 
   -0.10151E+05        -0.58726E+03         0.00000E+00
   -0.58726E+03         0.35941E+03         0.00000E+00
    0.00000E+00         0.00000E+00        -0.29406E+04
 
   -0.12258E+05        -0.60720E+02         0.00000E+00
   -0.60720E+02         0.64820E+03         0.00000E+00
    0.00000E+00         0.00000E+00        -0.34883E+04
 
   -0.13945E+05         0.10246E+04         0.00000E+00
    0.10246E+04         0.73685E+03         0.00000E+00
    0.00000E+00         0.00000E+00        -0.39700E+04
 
   -0.14950E+05         0.24157E+04         0.00000E+00
    0.24157E+04         0.55912E+03         0.00000E+00
    0.00000E+00         0.00000E+00        -0.43267E+04
 
   -0.15222E+05         0.38418E+04         0.00000E+00
    0.38418E+04         0.10892E+03         0.00000E+00
    0.00000E+00         0.00000E+00        -0.45456E+04
 
   -0.14912E+05         0.50910E+04         0.00000E+00
    0.50910E+04        -0.49690E+03         0.00000E+00
    0.00000E+00         0.00000E+00        -0.46361E+04
 
   -0.14149E+05         0.61595E+04         0.00000E+00
    0.61595E+04        -0.10429E+04         0.00000E+00
    0.00000E+00         0.00000E+00        -0.45729E+04
 
   -0.13127E+05         0.70369E+04         0.00000E+00
    0.70369E+04        -0.16790E+04         0.00000E+00
    0.00000E+00         0.00000E+00        -0.44589E+04
 
   -0.11987E+05         0.77096E+04         0.00000E+00
    0.77096E+04        -0.24163E+04         0.00000E+00
    0.00000E+00         0.00000E+00        -0.43399E+04
 
   -0.10800E+05         0.82010E+04         0.00000E+00
    0.82010E+04        -0.32266E+04         0.00000E+00
    0.00000E+00         0.00000E+00        -0.42287E+04
 
   -0.96105E+04         0.85003E+04         0.00000E+00
    0.85003E+04        -0.40902E+04         0.00000E+00
    0.00000E+00         0.00000E+00        -0.41325E+04
 
   -0.85174E+04         0.86038E+04         0.00000E+00
    0.86038E+04        -0.50146E+04         0.00000E+00
    0.00000E+00         0.00000E+00        -0.40833E+04
 
   -0.74988E+04         0.85729E+04         0.00000E+00
    0.85729E+04        -0.58907E+04         0.00000E+00
    0.00000E+00         0.00000E+00        -0.40419E+04
 
   -0.65553E+04         0.83887E+04         0.00000E+00
    0.83887E+04        -0.66871E+04         0.00000E+00
    0.00000E+00         0.00000E+00        -0.39991E+04
 
   -0.57568E+04         0.80869E+04         0.00000E+00
    0.80869E+04        -0.73719E+04         0.00000E+00
    0.00000E+00         0.00000E+00        -0.39661E+04
 
   -0.51293E+04         0.77295E+04         0.00000E+00
    0.77295E+04        -0.79509E+04         0.00000E+00
    0.00000E+00         0.00000E+00        -0.39526E+04
 
   -0.46616E+04         0.73481E+04         0.00000E+00
    0.73481E+04        -0.84076E+04         0.00000E+00
    0.00000E+00         0.00000E+00        -0.39502E+04
 
   -0.43463E+04         0.69890E+04         0.00000E+00
    0.69890E+04        -0.87398E+04         0.00000E+00
    0.00000E+00         0.00000E+00        -0.39561E+04
 
   -0.41583E+04         0.66906E+04         0.00000E+00
    0.66906E+04        -0.89687E+04         0.00000E+00
    0.00000E+00         0.00000E+00        -0.39690E+04
 
   -0.40638E+04         0.64768E+04         0.00000E+00
    0.64768E+04        -0.91133E+04         0.00000E+00
    0.00000E+00         0.00000E+00        -0.39846E+04
 
   -0.40311E+04         0.63654E+04         0.00000E+00
    0.63654E+04        -0.91944E+04         0.00000E+00
    0.00000E+00         0.00000E+00        -0.39995E+04
 
   -0.40281E+04         0.63691E+04         0.00000E+00
    0.63691E+04        -0.92326E+04         0.00000E+00
    0.00000E+00         0.00000E+00        -0.40103E+04
 
   -0.40212E+04         0.64983E+04         0.00000E+00
    0.64983E+04        -0.92493E+04         0.00000E+00
    0.00000E+00         0.00000E+00        -0.40134E+04
 
   -0.85043E+04        -0.21789E+03         0.00000E+00
   -0.21789E+03         0.58388E+02         0.00000E+00
    0.00000E+00         0.00000E+00        -0.25348E+04
 
   -0.99714E+04        -0.28471E+03         0.00000E+00
   -0.28471E+03         0.27469E+03         0.00000E+00
    0.00000E+00         0.00000E+00        -0.29122E+04
 
   -0.11512E+05         0.15661E+03         0.00000E+00
    0.15661E+03         0.51988E+03         0.00000E+00
    0.00000E+00         0.00000E+00        -0.33029E+04
 
   -0.12802E+05         0.10246E+04         0.00000E+00
    0.10246E+04         0.63903E+03         0.00000E+00
    0.00000E+00         0.00000E+00        -0.36564E+04
 
   -0.13638E+05         0.21558E+04         0.00000E+00
    0.21558E+04         0.54346E+03         0.00000E+00
    0.00000E+00         0.00000E+00        -0.39379E+04
 
   -0.13951E+05         0.33663E+04         0.00000E+00
    0.33663E+04         0.22803E+03         0.00000E+00
    0.00000E+00         0.00000E+00        -0.41285E+04
 
   -0.13775E+05         0.45188E+04         0.00000E+00
    0.45188E+04        -0.25071E+03         0.00000E+00
    0.00000E+00         0.00000E+00        -0.42212E+04
 
   -0.13211E+05         0.55225E+04         0.00000E+00
    0.55225E+04        -0.85663E+03         0.00000E+00
    0.00000E+00         0.00000E+00        -0.42356E+04
 
   -0.12388E+05         0.63284E+04         0.00000E+00
    0.63284E+04        -0.15332E+04         0.00000E+00
    0.00000E+00         0.00000E+00        -0.41936E+04
 
   -0.11434E+05         0.69439E+04         0.00000E+00
    0.69439E+04        -0.22613E+04         0.00000E+00
    0.00000E+00         0.00000E+00        -0.41276E+04
 
   -0.10425E+05         0.73850E+04         0.00000E+00
    0.73850E+04        -0.30291E+04         0.00000E+00
    0.00000E+00         0.00000E+00        -0.40569E+04
 
   -0.94212E+04         0.76557E+04         0.00000E+00
    0.76557E+04        -0.38223E+04         0.00000E+00
    0.00000E+00         0.00000E+00        -0.39952E+04
 
   -0.84663E+04         0.77792E+04         0.00000E+00
    0.77792E+04        -0.46000E+04         0.00000E+00
    0.00000E+00         0.00000E+00        -0.39435E+04
 
   -0.75753E+04         0.77877E+04         0.00000E+00
    0.77877E+04        -0.53509E+04         0.00000E+00
    0.00000E+00         0.00000E+00        -0.39029E+04
 
   -0.67554E+04         0.76837E+04         0.00000E+00
    0.76837E+04        -0.60512E+04         0.00000E+00
    0.00000E+00         0.00000E+00        -0.38683E+04
 
   -0.60391E+04         0.74860E+04         0.00000E+00
    0.74860E+04        -0.66712E+04         0.00000E+00
    0.00000E+00         0.00000E+00        -0.38405E+04
 
   -0.54472E+04         0.72338E+04         0.00000E+00
    0.72338E+04        -0.71944E+04         0.00000E+00
    0.00000E+00         0.00000E+00        -0.38210E+04
 
   -0.49810E+04         0.69637E+04         0.00000E+00
    0.69637E+04        -0.76200E+04         0.00000E+00
    0.00000E+00         0.00000E+00        -0.38097E+04
 
   -0.46302E+04         0.67079E+04         0.00000E+00
    0.67079E+04        -0.79497E+04         0.00000E+00
    0.00000E+00         0.00000E+00        -0.38042E+04
 
   -0.43773E+04         0.64958E+04         0.00000E+00
    0.64958E+04        -0.81930E+04         0.00000E+00
    0.00000E+00         0.00000E+00        -0.38019E+04
 
   -0.41983E+04         0.63503E+04         0.00000E+00
    0.63503E+04        -0.83655E+04         0.00000E+00
    0.00000E+00         0.00000E+00        -0.38005E+04
 
   -0.40662E+04         0.62880E+04         0.00000E+00
    0.62880E+04        -0.84839E+04         0.00000E+00
    0.00000E+00         0.00000E+00        -0.37968E+04
 
   -0.39527E+04         0.63214E+04         0.00000E+00
    0.63214E+04        -0.85662E+04         0.00000E+00
    0.00000E+00         0.00000E+00        -0.37877E+04
 
   -0.38277E+04         0.64592E+04         0.00000E+00
    0.64592E+04        -0.86314E+04         0.00000E+00
    0.00000E+00         0.00000E+00        -0.37699E+04
 
   -0.87132E+04        -0.97310E+02         0.00000E+00
   -0.97310E+02         0.41221E+02         0.00000E+00
    0.00000E+00         0.00000E+00        -0.26026E+04
 
   -0.97673E+04        -0.52608E+02         0.00000E+00
   -0.52608E+02         0.19848E+03         0.00000E+00
    0.00000E+00         0.00000E+00        -0.28738E+04
 
   -0.10898E+05         0.34341E+03         0.00000E+00
    0.34341E+03         0.38624E+03         0.00000E+00
    0.00000E+00         0.00000E+00        -0.31589E+04
 
   -0.11879E+05         0.10545E+04         0.00000E+00
    0.10545E+04         0.48749E+03         0.00000E+00
    0.00000E+00         0.00000E+00        -0.34248E+04
 
   -0.12552E+05         0.19809E+04         0.00000E+00
    0.19809E+04         0.42919E+03         0.00000E+00
    0.00000E+00         0.00000E+00        -0.36462E+04
 
   -0.12842E+05         0.30005E+04         0.00000E+00
    0.30005E+04         0.18872E+03         0.00000E+00
    0.00000E+00         0.00000E+00        -0.38075E+04
 
   -0.12754E+05         0.40003E+04         0.00000E+00
    0.40003E+04        -0.22060E+03         0.00000E+00
    0.00000E+00         0.00000E+00        -0.39058E+04
 
   -0.12344E+05         0.48960E+04         0.00000E+00
    0.48960E+04        -0.76080E+03         0.00000E+00
    0.00000E+00         0.00000E+00        -0.39468E+04
 
   -0.11704E+05         0.56389E+04         0.00000E+00
    0.56389E+04        -0.13914E+04         0.00000E+00
    0.00000E+00         0.00000E+00        -0.39457E+04
 
   -0.10923E+05         0.62159E+04         0.00000E+00
    0.62159E+04        -0.20732E+04         0.00000E+00
    0.00000E+00         0.00000E+00        -0.39178E+04
 
   -0.10078E+05         0.66344E+04         0.00000E+00
    0.66344E+04        -0.27815E+04         0.00000E+00
    0.00000E+00         0.00000E+00        -0.38782E+04
 
   -0.92197E+04         0.69083E+04         0.00000E+00
    0.69083E+04        -0.34934E+04         0.00000E+00
    0.00000E+00         0.00000E+00        -0.38360E+04
 
   -0.83872E+04         0.70575E+04         0.00000E+00
    0.70575E+04        -0.41897E+04         0.00000E+00
    0.00000E+00         0.00000E+00        -0.37966E+04
 
   -0.76000E+04         0.71025E+04         0.00000E+00
    0.71025E+04        -0.48541E+04         0.00000E+00
    0.00000E+00         0.00000E+00        -0.37612E+04
 
   -0.68734E+04         0.70578E+04         0.00000E+00
    0.70578E+04        -0.54733E+04         0.00000E+00
    0.00000E+00         0.00000E+00        -0.37302E+04
 
   -0.62246E+04         0.69406E+04         0.00000E+00
    0.69406E+04        -0.60295E+04         0.00000E+00
    0.00000E+00         0.00000E+00        -0.37036E+04
 
   -0.56669E+04         0.67769E+04         0.00000E+00
    0.67769E+04        -0.65100E+04         0.00000E+00
    0.00000E+00         0.00000E+00        -0.36814E+04
 
   -0.52033E+04         0.65953E+04         0.00000E+00
    0.65953E+04        -0.69103E+04         0.00000E+00
    0.00000E+00         0.00000E+00        -0.36634E+04
 
   -0.48273E+04         0.64227E+04         0.00000E+00
    0.64227E+04        -0.72330E+04         0.00000E+00
    0.00000E+00         0.00000E+00        -0.36482E+04
 
   -0.45253E+04         0.62826E+04         0.00000E+00
    0.62826E+04        -0.74853E+04         0.00000E+00
    0.00000E+00         0.00000E+00        -0.36339E+04
 
   -0.42787E+04         0.61945E+04         0.00000E+00
    0.61945E+04        -0.76786E+04         0.00000E+00
    0.00000E+00         0.00000E+00        -0.36185E+04
 
   -0.40651E+04         0.61737E+04         0.00000E+00
    0.61737E+04        -0.78266E+04         0.00000E+00
    0.00000E+00         0.00000E+00        -0.35992E+04
 
   -0.38602E+04         0.62312E+04         0.00000E+00
    0.62312E+04        -0.79449E+04         0.00000E+00
    0.00000E+00         0.00000E+00        -0.35735E+04
 
   -0.36373E+04         0.63747E+04         0.00000E+00
    0.63747E+04        -0.80501E+04         0.00000E+00
    0.00000E+00         0.00000E+00        -0.35383E+04
 
   -0.87555E+04        -0.13758E+02         0.00000E+00
   -0.13758E+02         0.27826E+02         0.00000E+00
    0.00000E+00         0.00000E+00        -0.26194E+04
 
   -0.95344E+04         0.11389E+03         0.00000E+00
    0.11389E+03         0.13589E+03         0.00000E+00
    0.00000E+00         0.00000E+00        -0.28227E+04
 
   -0.10375E+05         0.48267E+03         0.00000E+00
    0.48267E+03         0.26702E+03         0.00000E+00
    0.00000E+00         0.00000E+00        -0.30375E+04
 
   -0.11119E+05         0.10806E+04         0.00000E+00
    0.10806E+04         0.33710E+03         0.00000E+00
    0.00000E+00         0.00000E+00        -0.32420E+04
 
   -0.11650E+05         0.18478E+04         0.00000E+00
    0.18478E+04         0.28660E+03         0.00000E+00
    0.00000E+00         0.00000E+00        -0.34184E+04
 
   -0.11902E+05         0.27004E+04         0.00000E+00
    0.27004E+04         0.87966E+02         0.00000E+00
    0.00000E+00         0.00000E+00        -0.35555E+04
 
   -0.11863E+05         0.35539E+04         0.00000E+00
    0.35539E+04        -0.25636E+03         0.00000E+00
    0.00000E+00         0.00000E+00        -0.36492E+04
 
   -0.11567E+05         0.43393E+04         0.00000E+00
    0.43393E+04        -0.72370E+03         0.00000E+00
    0.00000E+00         0.00000E+00        -0.37024E+04
 
   -0.11070E+05         0.50113E+04         0.00000E+00
    0.50113E+04        -0.12800E+04         0.00000E+00
    0.00000E+00         0.00000E+00        -0.37221E+04
 
   -0.10439E+05         0.55505E+04         0.00000E+00
    0.55505E+04        -0.18914E+04         0.00000E+00
    0.00000E+00         0.00000E+00        -0.37180E+04
 
   -0.97345E+04         0.59559E+04         0.00000E+00
    0.59559E+04        -0.25284E+04         0.00000E+00
    0.00000E+00         0.00000E+00        -0.36993E+04
 
   -0.90024E+04         0.62375E+04         0.00000E+00
    0.62375E+04        -0.31684E+04         0.00000E+00
    0.00000E+00         0.00000E+00        -0.36732E+04
 
   -0.82767E+04         0.64109E+04         0.00000E+00
    0.64109E+04        -0.37932E+04         0.00000E+00
    0.00000E+00         0.00000E+00        -0.36444E+04
 
   -0.75798E+04         0.64926E+04         0.00000E+00
    0.64926E+04        -0.43893E+04         0.00000E+00
    0.00000E+00         0.00000E+00        -0.36156E+04
 
   -0.69277E+04         0.64982E+04         0.00000E+00
    0.64982E+04        -0.49445E+04         0.00000E+00
    0.00000E+00         0.00000E+00        -0.35878E+04
 
   -0.63334E+04         0.64446E+04         0.00000E+00
    0.64446E+04        -0.54477E+04         0.00000E+00
    0.00000E+00         0.00000E+00        -0.35616E+04
 
   -0.58059E+04         0.63519E+04         0.00000E+00
    0.63519E+04        -0.58902E+04         0.00000E+00
    0.00000E+00         0.00000E+00        -0.35371E+04
 
   -0.53474E+04         0.62423E+04         0.00000E+00
    0.62423E+04        -0.62681E+04         0.00000E+00
    0.00000E+00         0.00000E+00        -0.35139E+04
 
   -0.49536E+04         0.61373E+04         0.00000E+00
    0.61373E+04        -0.65828E+04         0.00000E+00
    0.00000E+00         0.00000E+00        -0.34909E+04
 
   -0.46140E+04         0.60565E+04         0.00000E+00
    0.60565E+04        -0.68400E+04         0.00000E+00
    0.00000E+00         0.00000E+00        -0.34669E+04
 
   -0.43136E+04         0.60161E+04         0.00000E+00
    0.60161E+04        -0.70486E+04         0.00000E+00
    0.00000E+00         0.00000E+00        -0.34399E+04
 
   -0.40341E+04         0.60295E+04         0.00000E+00
    0.60295E+04        -0.72200E+04         0.00000E+00
    0.00000E+00         0.00000E+00        -0.34079E+04
 
   -0.37545E+04         0.61063E+04         0.00000E+00
    0.61063E+04        -0.73673E+04         0.00000E+00
    0.00000E+00         0.00000E+00        -0.33684E+04
 
   -0.34517E+04         0.62530E+04         0.00000E+00
    0.62530E+04        -0.75050E+04         0.00000E+00
    0.00000E+00         0.00000E+00        -0.33190E+04
 
   -0.86834E+04         0.41364E+02         0.00000E+00
    0.41364E+02         0.17831E+02         0.00000E+00
    0.00000E+00         0.00000E+00        -0.26007E+04
 
   -0.92790E+04         0.22537E+03         0.00000E+00
    0.22537E+03         0.87381E+02         0.00000E+00
    0.00000E+00         0.00000E+00        -0.27606E+04
 
   -0.99144E+04         0.57477E+03         0.00000E+00
    0.57477E+03         0.17055E+03         0.00000E+00
    0.00000E+00         0.00000E+00        -0.29284E+04
 
   -0.10483E+05         0.10892E+04         0.00000E+00
    0.10892E+04         0.20777E+03         0.00000E+00
    0.00000E+00         0.00000E+00        -0.30898E+04
 
   -0.10898E+05         0.17324E+04         0.00000E+00
    0.17324E+04         0.15293E+03         0.00000E+00
    0.00000E+00         0.00000E+00        -0.32329E+04
 
   -0.11108E+05         0.24481E+04         0.00000E+00
    0.24481E+04        -0.19032E+02         0.00000E+00
    0.00000E+00         0.00000E+00        -0.33494E+04
 
   -0.11096E+05         0.31745E+04         0.00000E+00
    0.31745E+04        -0.31167E+03         0.00000E+00
    0.00000E+00         0.00000E+00        -0.34355E+04
 
   -0.10878E+05         0.38579E+04         0.00000E+00
    0.38579E+04        -0.71103E+03         0.00000E+00
    0.00000E+00         0.00000E+00        -0.34918E+04
 
   -0.10491E+05         0.44596E+04         0.00000E+00
    0.44596E+04        -0.11927E+04         0.00000E+00
    0.00000E+00         0.00000E+00        -0.35220E+04
 
   -0.99811E+04         0.49587E+04         0.00000E+00
    0.49587E+04        -0.17287E+04         0.00000E+00
    0.00000E+00         0.00000E+00        -0.35316E+04
 
   -0.93945E+04         0.53493E+04         0.00000E+00
    0.53493E+04        -0.22930E+04         0.00000E+00
    0.00000E+00         0.00000E+00        -0.35266E+04
 
   -0.87699E+04         0.56362E+04         0.00000E+00
    0.56362E+04        -0.28637E+04         0.00000E+00
    0.00000E+00         0.00000E+00        -0.35120E+04
 
   -0.81374E+04         0.58301E+04         0.00000E+00
    0.58301E+04        -0.34239E+04         0.00000E+00
    0.00000E+00         0.00000E+00        -0.34918E+04
 
   -0.75188E+04         0.59442E+04         0.00000E+00
    0.59442E+04        -0.39601E+04         0.00000E+00
    0.00000E+00         0.00000E+00        -0.34684E+04
 
   -0.69295E+04         0.59927E+04         0.00000E+00
    0.59927E+04        -0.44619E+04         0.00000E+00
    0.00000E+00         0.00000E+00        -0.34435E+04
 
   -0.63809E+04         0.59908E+04         0.00000E+00
    0.59908E+04        -0.49206E+04         0.00000E+00
    0.00000E+00         0.00000E+00        -0.34176E+04
 
   -0.58798E+04         0.59554E+04         0.00000E+00
    0.59554E+04        -0.53299E+04         0.00000E+00
    0.00000E+00         0.00000E+00        -0.33911E+04
 
   -0.54279E+04         0.59040E+04         0.00000E+00
    0.59040E+04        -0.56872E+04         0.00000E+00
    0.00000E+00         0.00000E+00        -0.33637E+04
 
   -0.50220E+04         0.58541E+04         0.00000E+00
    0.58541E+04        -0.59932E+04         0.00000E+00
    0.00000E+00         0.00000E+00        -0.33345E+04
 
   -0.46538E+04         0.58217E+04         0.00000E+00
    0.58217E+04        -0.62524E+04         0.00000E+00
    0.00000E+00         0.00000E+00        -0.33025E+04
 
   -0.43112E+04         0.58205E+04         0.00000E+00
    0.58205E+04        -0.64720E+04         0.00000E+00
    0.00000E+00         0.00000E+00        -0.32661E+04
 
   -0.39789E+04         0.58617E+04         0.00000E+00
    0.58617E+04        -0.66614E+04         0.00000E+00
    0.00000E+00         0.00000E+00        -0.32236E+04
 
   -0.36391E+04         0.59535E+04         0.00000E+00
    0.59535E+04        -0.68318E+04         0.00000E+00
    0.00000E+00         0.00000E+00        -0.31730E+04
 
   -0.32718E+04         0.61012E+04         0.00000E+00
    0.61012E+04        -0.69956E+04         0.00000E+00
    0.00000E+00         0.00000E+00        -0.31122E+04
 
   -0.85374E+04         0.75529E+02         0.00000E+00
    0.75529E+02         0.10632E+02         0.00000E+00
    0.00000E+00         0.00000E+00        -0.25591E+04
 
   -0.90098E+04         0.29394E+03         0.00000E+00
    0.29394E+03         0.51551E+02         0.00000E+00
    0.00000E+00         0.00000E+00        -0.26906E+04
 
   -0.95014E+04         0.62648E+03         0.00000E+00
    0.62648E+03         0.97063E+02         0.00000E+00
    0.00000E+00         0.00000E+00        -0.28265E+04
 
   -0.99404E+04         0.10773E+04         0.00000E+00
    0.10773E+04         0.10577E+03         0.00000E+00
    0.00000E+00         0.00000E+00        -0.29577E+04
 
   -0.10265E+05         0.16246E+04         0.00000E+00
    0.16246E+04         0.43325E+02         0.00000E+00
    0.00000E+00         0.00000E+00        -0.30760E+04
 
   -0.10436E+05         0.22306E+04         0.00000E+00
    0.22306E+04        -0.11116E+03         0.00000E+00
    0.00000E+00         0.00000E+00        -0.31754E+04
 
   -0.10436E+05         0.28511E+04         0.00000E+00
    0.28511E+04        -0.36325E+03         0.00000E+00
    0.00000E+00         0.00000E+00        -0.32529E+04
 
   -0.10271E+05         0.34453E+04         0.00000E+00
    0.34453E+04        -0.70512E+03         0.00000E+00
    0.00000E+00         0.00000E+00        -0.33080E+04
 
   -0.99655E+04         0.39814E+04         0.00000E+00
    0.39814E+04        -0.11197E+04         0.00000E+00
    0.00000E+00         0.00000E+00        -0.33425E+04
 
   -0.95506E+04         0.44398E+04         0.00000E+00
    0.44398E+04        -0.15855E+04         0.00000E+00
    0.00000E+00         0.00000E+00        -0.33595E+04
 
   -0.90606E+04         0.48124E+04         0.00000E+00
    0.48124E+04        -0.20809E+04         0.00000E+00
    0.00000E+00         0.00000E+00        -0.33627E+04
 
   -0.85266E+04         0.50998E+04         0.00000E+00
    0.50998E+04        -0.25866E+04         0.00000E+00
    0.00000E+00         0.00000E+00        -0.33558E+04
 
   -0.79742E+04         0.53088E+04         0.00000E+00
    0.53088E+04        -0.30869E+04         0.00000E+00
    0.00000E+00         0.00000E+00        -0.33417E+04
 
   -0.74232E+04         0.54493E+04         0.00000E+00
    0.54493E+04        -0.35694E+04         0.00000E+00
    0.00000E+00         0.00000E+00        -0.33225E+04
 
   -0.68881E+04         0.55332E+04         0.00000E+00
    0.55332E+04        -0.40242E+04         0.00000E+00
    0.00000E+00         0.00000E+00        -0.32997E+04
 
   -0.63788E+04         0.55736E+04         0.00000E+00
    0.55736E+04        -0.44442E+04         0.00000E+00
    0.00000E+00         0.00000E+00        -0.32740E+04
 
   -0.59012E+04         0.55843E+04         0.00000E+00
    0.55843E+04        -0.48243E+04         0.00000E+00
    0.00000E+00         0.00000E+00        -0.32458E+04
 
   -0.54569E+04         0.55800E+04         0.00000E+00
    0.55800E+04        -0.51624E+04         0.00000E+00
    0.00000E+00         0.00000E+00        -0.32148E+04
 
   -0.50432E+04         0.55748E+04         0.00000E+00
    0.55748E+04        -0.54591E+04         0.00000E+00
    0.00000E+00         0.00000E+00        -0.31806E+04
 
   -0.46538E+04         0.55817E+04         0.00000E+00
    0.55817E+04        -0.57181E+04         0.00000E+00
    0.00000E+00         0.00000E+00        -0.31421E+04
 
   -0.42785E+04         0.56122E+04         0.00000E+00
    0.56122E+04        -0.59451E+04         0.00000E+00
    0.00000E+00         0.00000E+00        -0.30981E+04
 
   -0.39046E+04         0.56755E+04         0.00000E+00
    0.56755E+04        -0.61481E+04         0.00000E+00
    0.00000E+00         0.00000E+00        -0.30472E+04
 
   -0.35170E+04         0.57785E+04         0.00000E+00
    0.57785E+04        -0.63364E+04         0.00000E+00
    0.00000E+00         0.00000E+00        -0.29877E+04
 
   -0.30987E+04         0.59253E+04         0.00000E+00
    0.59253E+04        -0.65207E+04         0.00000E+00
    0.00000E+00         0.00000E+00        -0.29177E+04
 
   -0.83475E+04         0.94801E+02         0.00000E+00
    0.94801E+02         0.56205E+01         0.00000E+00
    0.00000E+00         0.00000E+00        -0.25036E+04
 
   -0.87358E+04         0.33073E+03         0.00000E+00
    0.33073E+03         0.26092E+02         0.00000E+00
    0.00000E+00         0.00000E+00        -0.26160E+04
 
   -0.91259E+04         0.64656E+03         0.00000E+00
    0.64656E+03         0.43735E+02         0.00000E+00
    0.00000E+00         0.00000E+00        -0.27299E+04
 
   -0.94704E+04         0.10473E+04         0.00000E+00
    0.10473E+04         0.30232E+02         0.00000E+00
    0.00000E+00         0.00000E+00        -0.28393E+04
 
   -0.97261E+04         0.15200E+04         0.00000E+00
    0.15200E+04        -0.39345E+02         0.00000E+00
    0.00000E+00         0.00000E+00        -0.29389E+04
 
   -0.98628E+04         0.20390E+04         0.00000E+00
    0.20390E+04        -0.18143E+03         0.00000E+00
    0.00000E+00         0.00000E+00        -0.30245E+04
 
   -0.98661E+04         0.25729E+04         0.00000E+00
    0.25729E+04        -0.40190E+03         0.00000E+00
    0.00000E+00         0.00000E+00        -0.30936E+04
 
   -0.97376E+04         0.30911E+04         0.00000E+00
    0.30911E+04        -0.69661E+03         0.00000E+00
    0.00000E+00         0.00000E+00        -0.31453E+04
 
   -0.94914E+04         0.35684E+04         0.00000E+00
    0.35684E+04        -0.10539E+04         0.00000E+00
    0.00000E+00         0.00000E+00        -0.31804E+04
 
   -0.91494E+04         0.39877E+04         0.00000E+00
    0.39877E+04        -0.14578E+04         0.00000E+00
    0.00000E+00         0.00000E+00        -0.32008E+04
 
   -0.87368E+04         0.43399E+04         0.00000E+00
    0.43399E+04        -0.18911E+04         0.00000E+00
    0.00000E+00         0.00000E+00        -0.32086E+04
 
   -0.82775E+04         0.46234E+04         0.00000E+00
    0.46234E+04        -0.23377E+04         0.00000E+00
    0.00000E+00         0.00000E+00        -0.32063E+04
 
   -0.77929E+04         0.48419E+04         0.00000E+00
    0.48419E+04        -0.27835E+04         0.00000E+00
    0.00000E+00         0.00000E+00        -0.31962E+04
 
   -0.73000E+04         0.50024E+04         0.00000E+00
    0.50024E+04        -0.32172E+04         0.00000E+00
    0.00000E+00         0.00000E+00        -0.31798E+04
 
   -0.68115E+04         0.51144E+04         0.00000E+00
    0.51144E+04        -0.36299E+04         0.00000E+00
    0.00000E+00         0.00000E+00        -0.31583E+04
 
   -0.63366E+04         0.51886E+04         0.00000E+00
    0.51886E+04        -0.40152E+04         0.00000E+00
    0.00000E+00         0.00000E+00        -0.31326E+04
 
   -0.58803E+04         0.52364E+04         0.00000E+00
    0.52364E+04        -0.43689E+04         0.00000E+00
    0.00000E+00         0.00000E+00        -0.31028E+04
 
   -0.54443E+04         0.52699E+04         0.00000E+00
    0.52699E+04        -0.46891E+04         0.00000E+00
    0.00000E+00         0.00000E+00        -0.30690E+04
 
   -0.50265E+04         0.53005E+04         0.00000E+00
    0.53005E+04        -0.49762E+04         0.00000E+00
    0.00000E+00         0.00000E+00        -0.30306E+04
 
   -0.46216E+04         0.53390E+04         0.00000E+00
    0.53390E+04        -0.52332E+04         0.00000E+00
    0.00000E+00         0.00000E+00        -0.29868E+04
 
   -0.42215E+04         0.53947E+04         0.00000E+00
    0.53947E+04        -0.54647E+04         0.00000E+00
    0.00000E+00         0.00000E+00        -0.29368E+04
 
   -0.38155E+04         0.54753E+04         0.00000E+00
    0.54753E+04        -0.56775E+04         0.00000E+00
    0.00000E+00         0.00000E+00        -0.28792E+04
 
   -0.33908E+04         0.55863E+04         0.00000E+00
    0.55863E+04        -0.58794E+04         0.00000E+00
    0.00000E+00         0.00000E+00        -0.28127E+04
 
   -0.29331E+04         0.57308E+04         0.00000E+00
    0.57308E+04        -0.60795E+04         0.00000E+00
    0.00000E+00         0.00000E+00        -0.27355E+04
 
   -0.81351E+04         0.10383E+03         0.00000E+00
    0.10383E+03         0.22416E+01         0.00000E+00
    0.00000E+00         0.00000E+00        -0.24409E+04
 
   -0.84642E+04         0.34496E+03         0.00000E+00
    0.34496E+03         0.86594E+01         0.00000E+00
    0.00000E+00         0.00000E+00        -0.25398E+04
 
   -0.87820E+04         0.64343E+03         0.00000E+00
    0.64343E+03         0.67036E+01         0.00000E+00
    0.00000E+00         0.00000E+00        -0.26378E+04
 
   -0.90572E+04         0.10036E+04         0.00000E+00
    0.10036E+04        -0.22753E+02         0.00000E+00
    0.00000E+00         0.00000E+00        -0.27312E+04
 
   -0.92602E+04         0.14173E+04         0.00000E+00
    0.14173E+04        -0.97446E+02         0.00000E+00
    0.00000E+00         0.00000E+00        -0.28165E+04
 
   -0.93688E+04         0.18671E+04         0.00000E+00
    0.18671E+04        -0.22985E+03         0.00000E+00
    0.00000E+00         0.00000E+00        -0.28908E+04
 
   -0.93713E+04         0.23307E+04         0.00000E+00
    0.23307E+04        -0.42525E+03         0.00000E+00
    0.00000E+00         0.00000E+00        -0.29521E+04
 
   -0.92668E+04         0.27853E+04         0.00000E+00
    0.27853E+04        -0.68166E+03         0.00000E+00
    0.00000E+00         0.00000E+00        -0.29995E+04
 
   -0.90639E+04         0.32113E+04         0.00000E+00
    0.32113E+04        -0.99120E+03         0.00000E+00
    0.00000E+00         0.00000E+00        -0.30333E+04
 
   -0.87776E+04         0.35940E+04         0.00000E+00
    0.35940E+04        -0.13422E+04         0.00000E+00
    0.00000E+00         0.00000E+00        -0.30544E+04
 
   -0.84260E+04         0.39250E+04         0.00000E+00
    0.39250E+04        -0.17212E+04         0.00000E+00
    0.00000E+00         0.00000E+00        -0.30643E+04
 
   -0.80276E+04         0.42012E+04         0.00000E+00
    0.42012E+04        -0.21151E+04         0.00000E+00
    0.00000E+00         0.00000E+00        -0.30645E+04
 
   -0.75994E+04         0.44242E+04         0.00000E+00
    0.44242E+04        -0.25119E+04         0.00000E+00
    0.00000E+00         0.00000E+00        -0.30565E+04
 
   -0.71556E+04         0.45988E+04         0.00000E+00
    0.45988E+04        -0.29017E+04         0.00000E+00
    0.00000E+00         0.00000E+00        -0.30417E+04
 
   -0.67074E+04         0.47321E+04         0.00000E+00
    0.47321E+04        -0.32765E+04         0.00000E+00
    0.00000E+00         0.00000E+00        -0.30209E+04
 
   -0.62625E+04         0.48327E+04         0.00000E+00
    0.48327E+04        -0.36305E+04         0.00000E+00
    0.00000E+00         0.00000E+00        -0.29948E+04
 
   -0.58257E+04         0.49099E+04         0.00000E+00
    0.49099E+04        -0.39600E+04         0.00000E+00
    0.00000E+00         0.00000E+00        -0.29637E+04
 
   -0.53985E+04         0.49733E+04         0.00000E+00
    0.49733E+04        -0.42632E+04         0.00000E+00
    0.00000E+00         0.00000E+00        -0.29274E+04
 
   -0.49793E+04         0.50324E+04         0.00000E+00
    0.50324E+04        -0.45404E+04         0.00000E+00
    0.00000E+00         0.00000E+00        -0.28856E+04
 
   -0.45639E+04         0.50958E+04         0.00000E+00
    0.50958E+04        -0.47939E+04         0.00000E+00
    0.00000E+00         0.00000E+00        -0.28377E+04
 
   -0.41456E+04         0.51713E+04         0.00000E+00
    0.51713E+04        -0.50276E+04         0.00000E+00
    0.00000E+00         0.00000E+00        -0.27828E+04
 
   -0.37155E+04         0.52650E+04         0.00000E+00
    0.52650E+04        -0.52470E+04         0.00000E+00
    0.00000E+00         0.00000E+00        -0.27200E+04
 
   -0.32627E+04         0.53811E+04         0.00000E+00
    0.53811E+04        -0.54588E+04         0.00000E+00
    0.00000E+00         0.00000E+00        -0.26480E+04
 
   -0.27753E+04         0.55222E+04         0.00000E+00
    0.55222E+04        -0.56705E+04         0.00000E+00
    0.00000E+00         0.00000E+00        -0.25654E+04
 
   -0.79151E+04         0.10606E+03         0.00000E+00
    0.10606E+03         0.44236E-01         0.00000E+00
    0.00000E+00         0.00000E+00        -0.23755E+04
 
   -0.82006E+04         0.34388E+03         0.00000E+00
    0.34388E+03        -0.28071E+01         0.00000E+00
    0.00000E+00         0.00000E+00        -0.24641E+04
 
   -0.84657E+04         0.62427E+03         0.00000E+00
    0.62427E+03        -0.17837E+02         0.00000E+00
    0.00000E+00         0.00000E+00        -0.25502E+04
 
   -0.86898E+04         0.95030E+03         0.00000E+00
    0.95030E+03        -0.57843E+02         0.00000E+00
    0.00000E+00         0.00000E+00        -0.26315E+04
 
   -0.88528E+04         0.13166E+04         0.00000E+00
    0.13166E+04        -0.13525E+03         0.00000E+00
    0.00000E+00         0.00000E+00        -0.27056E+04
 
   -0.89386E+04         0.17110E+04         0.00000E+00
    0.17110E+04        -0.25928E+03         0.00000E+00
    0.00000E+00         0.00000E+00        -0.27705E+04
 
   -0.89380E+04         0.21175E+04         0.00000E+00
    0.21175E+04        -0.43429E+03         0.00000E+00
    0.00000E+00         0.00000E+00        -0.28248E+04
 
   -0.88494E+04         0.25193E+04         0.00000E+00
    0.25193E+04        -0.65947E+03         0.00000E+00
    0.00000E+00         0.00000E+00        -0.28676E+04
 
   -0.86779E+04         0.29009E+04         0.00000E+00
    0.29009E+04        -0.92948E+03         0.00000E+00
    0.00000E+00         0.00000E+00        -0.28990E+04
 
   -0.84337E+04         0.32505E+04         0.00000E+00
    0.32505E+04        -0.12358E+04         0.00000E+00
    0.00000E+00         0.00000E+00        -0.29193E+04
 
   -0.81299E+04         0.35603E+04         0.00000E+00
    0.35603E+04        -0.15682E+04         0.00000E+00
    0.00000E+00         0.00000E+00        -0.29295E+04
 
   -0.77804E+04         0.38270E+04         0.00000E+00
    0.38270E+04        -0.19161E+04         0.00000E+00
    0.00000E+00         0.00000E+00        -0.29306E+04
 
   -0.73985E+04         0.40505E+04         0.00000E+00
    0.40505E+04        -0.22696E+04         0.00000E+00
    0.00000E+00         0.00000E+00        -0.29235E+04
 
   -0.69960E+04         0.42341E+04         0.00000E+00
    0.42341E+04        -0.26202E+04         0.00000E+00
    0.00000E+00         0.00000E+00        -0.29093E+04
 
   -0.65822E+04         0.43829E+04         0.00000E+00
    0.43829E+04        -0.29609E+04         0.00000E+00
    0.00000E+00         0.00000E+00        -0.28886E+04
 
   -0.61637E+04         0.45035E+04         0.00000E+00
    0.45035E+04        -0.32865E+04         0.00000E+00
    0.00000E+00         0.00000E+00        -0.28619E+04
 
   -0.57446E+04         0.46032E+04         0.00000E+00
    0.46032E+04        -0.35937E+04         0.00000E+00
    0.00000E+00         0.00000E+00        -0.28294E+04
 
   -0.53265E+04         0.46899E+04         0.00000E+00
    0.46899E+04        -0.38808E+04         0.00000E+00
    0.00000E+00         0.00000E+00        -0.27910E+04
 
   -0.49082E+04         0.47712E+04         0.00000E+00
    0.47712E+04        -0.41479E+04         0.00000E+00
    0.00000E+00         0.00000E+00        -0.27464E+04
 
   -0.44863E+04         0.48540E+04         0.00000E+00
    0.48540E+04        -0.43968E+04         0.00000E+00
    0.00000E+00         0.00000E+00        -0.26952E+04
 
   -0.40553E+04         0.49445E+04         0.00000E+00
    0.49445E+04        -0.46307E+04         0.00000E+00
    0.00000E+00         0.00000E+00        -0.26365E+04
 
   -0.36077E+04         0.50476E+04         0.00000E+00
    0.50476E+04        -0.48541E+04         0.00000E+00
    0.00000E+00         0.00000E+00        -0.25697E+04
 
   -0.31345E+04         0.51667E+04         0.00000E+00
    0.51667E+04        -0.50726E+04         0.00000E+00
    0.00000E+00         0.00000E+00        -0.24936E+04
 
   -0.26257E+04         0.53032E+04         0.00000E+00
    0.53032E+04        -0.52926E+04         0.00000E+00
    0.00000E+00         0.00000E+00        -0.24071E+04
 
   -0.76971E+04         0.10395E+03         0.00000E+00
    0.10395E+03        -0.13204E+01         0.00000E+00
    0.00000E+00         0.00000E+00        -0.23105E+04
 
   -0.79489E+04         0.33287E+03         0.00000E+00
    0.33287E+03        -0.99758E+01         0.00000E+00
    0.00000E+00         0.00000E+00        -0.23908E+04
 
   -0.81744E+04         0.59478E+03         0.00000E+00
    0.59478E+03        -0.33165E+02         0.00000E+00
    0.00000E+00         0.00000E+00        -0.24674E+04
 
   -0.83601E+04         0.89138E+03         0.00000E+00
    0.89138E+03        -0.79406E+02         0.00000E+00
    0.00000E+00         0.00000E+00        -0.25390E+04
 
   -0.84924E+04         0.12187E+04         0.00000E+00
    0.12187E+04        -0.15731E+03         0.00000E+00
    0.00000E+00         0.00000E+00        -0.26041E+04
 
   -0.85598E+04         0.15682E+04         0.00000E+00
    0.15682E+04        -0.27352E+03         0.00000E+00
    0.00000E+00         0.00000E+00        -0.26611E+04
 
   -0.85553E+04         0.19281E+04         0.00000E+00
    0.19281E+04        -0.43148E+03         0.00000E+00
    0.00000E+00         0.00000E+00        -0.27091E+04
 
   -0.84772E+04         0.22858E+04         0.00000E+00
    0.22858E+04        -0.63090E+03         0.00000E+00
    0.00000E+00         0.00000E+00        -0.27473E+04
 
   -0.83284E+04         0.26295E+04         0.00000E+00
    0.26295E+04        -0.86816E+03         0.00000E+00
    0.00000E+00         0.00000E+00        -0.27756E+04
 
   -0.81160E+04         0.29495E+04         0.00000E+00
    0.29495E+04        -0.11370E+04         0.00000E+00
    0.00000E+00         0.00000E+00        -0.27943E+04
 
   -0.78492E+04         0.32391E+04         0.00000E+00
    0.32391E+04        -0.14297E+04         0.00000E+00
    0.00000E+00         0.00000E+00        -0.28037E+04
 
   -0.75386E+04         0.34948E+04         0.00000E+00
    0.34948E+04        -0.17379E+04         0.00000E+00
    0.00000E+00         0.00000E+00        -0.28045E+04
 
   -0.71946E+04         0.37159E+04         0.00000E+00
    0.37159E+04        -0.20536E+04         0.00000E+00
    0.00000E+00         0.00000E+00        -0.27975E+04
 
   -0.68264E+04         0.39042E+04         0.00000E+00
    0.39042E+04        -0.23695E+04         0.00000E+00
    0.00000E+00         0.00000E+00        -0.27831E+04
 
   -0.64418E+04         0.40634E+04         0.00000E+00
    0.40634E+04        -0.26797E+04         0.00000E+00
    0.00000E+00         0.00000E+00        -0.27621E+04
 
   -0.60462E+04         0.41984E+04         0.00000E+00
    0.41984E+04        -0.29796E+04         0.00000E+00
    0.00000E+00         0.00000E+00        -0.27345E+04
 
   -0.56433E+04         0.43150E+04         0.00000E+00
    0.43150E+04        -0.32663E+04         0.00000E+00
    0.00000E+00         0.00000E+00        -0.27007E+04
 
   -0.52344E+04         0.44194E+04         0.00000E+00
    0.44194E+04        -0.35381E+04         0.00000E+00
    0.00000E+00         0.00000E+00        -0.26605E+04
 
   -0.48187E+04         0.45174E+04         0.00000E+00
    0.45174E+04        -0.37951E+04         0.00000E+00
    0.00000E+00         0.00000E+00        -0.26136E+04
 
   -0.43936E+04         0.46149E+04         0.00000E+00
    0.46149E+04        -0.40385E+04         0.00000E+00
    0.00000E+00         0.00000E+00        -0.25598E+04
 
   -0.39543E+04         0.47164E+04         0.00000E+00
    0.47164E+04        -0.42710E+04         0.00000E+00
    0.00000E+00         0.00000E+00        -0.24983E+04
 
   -0.34949E+04         0.48260E+04         0.00000E+00
    0.48260E+04        -0.44963E+04         0.00000E+00
    0.00000E+00         0.00000E+00        -0.24284E+04
 
   -0.30078E+04         0.49459E+04         0.00000E+00
    0.49459E+04        -0.47189E+04         0.00000E+00
    0.00000E+00         0.00000E+00        -0.23494E+04
 
   -0.24846E+04         0.50773E+04         0.00000E+00
    0.50773E+04        -0.49442E+04         0.00000E+00
    0.00000E+00         0.00000E+00        -0.22601E+04
 
   -0.74872E+04         0.99225E+02         0.00000E+00
    0.99225E+02        -0.21117E+01         0.00000E+00
    0.00000E+00         0.00000E+00        -0.22478E+04
 
   -0.77115E+04         0.31586E+03         0.00000E+00
    0.31586E+03        -0.14131E+02         0.00000E+00
    0.00000E+00         0.00000E+00        -0.23208E+04
 
   -0.79062E+04         0.55925E+03         0.00000E+00
    0.55925E+03        -0.41913E+02         0.00000E+00
    0.00000E+00         0.00000E+00        -0.23896E+04
 
   -0.80624E+04         0.82992E+03         0.00000E+00
    0.82992E+03        -0.91125E+02         0.00000E+00
    0.00000E+00         0.00000E+00        -0.24532E+04
 
   -0.81707E+04         0.11247E+04         0.00000E+00
    0.11247E+04        -0.16769E+03         0.00000E+00
    0.00000E+00         0.00000E+00        -0.25106E+04
 
   -0.82231E+04         0.14371E+04         0.00000E+00
    0.14371E+04        -0.27633E+03         0.00000E+00
    0.00000E+00         0.00000E+00        -0.25609E+04
 
   -0.82144E+04         0.17585E+04         0.00000E+00
    0.17585E+04        -0.41961E+03         0.00000E+00
    0.00000E+00         0.00000E+00        -0.26032E+04
 
   -0.81430E+04         0.20794E+04         0.00000E+00
    0.20794E+04        -0.59750E+03         0.00000E+00
    0.00000E+00         0.00000E+00        -0.26370E+04
 
   -0.80106E+04         0.23905E+04         0.00000E+00
    0.23905E+04        -0.80747E+03         0.00000E+00
    0.00000E+00         0.00000E+00        -0.26620E+04
 
   -0.78220E+04         0.26842E+04         0.00000E+00
    0.26842E+04        -0.10449E+04         0.00000E+00
    0.00000E+00         0.00000E+00        -0.26784E+04
 
   -0.75840E+04         0.29548E+04         0.00000E+00
    0.29548E+04        -0.13040E+04         0.00000E+00
    0.00000E+00         0.00000E+00        -0.26864E+04
 
   -0.73043E+04         0.31989E+04         0.00000E+00
    0.31989E+04        -0.15782E+04         0.00000E+00
    0.00000E+00         0.00000E+00        -0.26862E+04
 
   -0.69908E+04         0.34153E+04         0.00000E+00
    0.34153E+04        -0.18610E+04         0.00000E+00
    0.00000E+00         0.00000E+00        -0.26785E+04
 
   -0.66510E+04         0.36051E+04         0.00000E+00
    0.36051E+04        -0.21465E+04         0.00000E+00
    0.00000E+00         0.00000E+00        -0.26635E+04
 
   -0.62909E+04         0.37706E+04         0.00000E+00
    0.37706E+04        -0.24296E+04         0.00000E+00
    0.00000E+00         0.00000E+00        -0.26417E+04
 
   -0.59153E+04         0.39154E+04         0.00000E+00
    0.39154E+04        -0.27064E+04         0.00000E+00
    0.00000E+00         0.00000E+00        -0.26132E+04
 
   -0.55270E+04         0.40441E+04         0.00000E+00
    0.40441E+04        -0.29743E+04         0.00000E+00
    0.00000E+00         0.00000E+00        -0.25781E+04
 
   -0.51273E+04         0.41612E+04         0.00000E+00
    0.41612E+04        -0.32318E+04         0.00000E+00
    0.00000E+00         0.00000E+00        -0.25363E+04
 
   -0.47156E+04         0.42716E+04         0.00000E+00
    0.42716E+04        -0.34787E+04         0.00000E+00
    0.00000E+00         0.00000E+00        -0.24877E+04
 
   -0.42898E+04         0.43795E+04         0.00000E+00
    0.43795E+04        -0.37160E+04         0.00000E+00
    0.00000E+00         0.00000E+00        -0.24318E+04
 
   -0.38461E+04         0.44888E+04         0.00000E+00
    0.44888E+04        -0.39458E+04         0.00000E+00
    0.00000E+00         0.00000E+00        -0.23681E+04
 
   -0.33794E+04         0.46022E+04         0.00000E+00
    0.46022E+04        -0.41711E+04         0.00000E+00
    0.00000E+00         0.00000E+00        -0.22961E+04
 
   -0.28837E+04         0.47214E+04         0.00000E+00
    0.47214E+04        -0.43957E+04         0.00000E+00
    0.00000E+00         0.00000E+00        -0.22151E+04
 
   -0.23519E+04         0.48470E+04         0.00000E+00
    0.48470E+04        -0.46239E+04         0.00000E+00
    0.00000E+00         0.00000E+00        -0.21242E+04
 
   -0.72889E+04         0.93061E+02         0.00000E+00
    0.93061E+02        -0.25172E+01         0.00000E+00
    0.00000E+00         0.00000E+00        -0.21885E+04
 
   -0.74897E+04         0.29559E+03         0.00000E+00
    0.29559E+03        -0.16227E+02         0.00000E+00
    0.00000E+00         0.00000E+00        -0.22549E+04
 
   -0.76594E+04         0.52080E+03         0.00000E+00
    0.52080E+03        -0.46097E+02         0.00000E+00
    0.00000E+00         0.00000E+00        -0.23168E+04
 
   -0.77921E+04         0.76826E+03         0.00000E+00
    0.76826E+03        -0.95929E+02         0.00000E+00
    0.00000E+00         0.00000E+00        -0.23735E+04
 
   -0.78813E+04         0.10352E+04         0.00000E+00
    0.10352E+04        -0.16978E+03         0.00000E+00
    0.00000E+00         0.00000E+00        -0.24244E+04
 
   -0.79213E+04         0.13166E+04         0.00000E+00
    0.13166E+04        -0.27098E+03         0.00000E+00
    0.00000E+00         0.00000E+00        -0.24687E+04
 
   -0.79084E+04         0.16058E+04         0.00000E+00
    0.16058E+04        -0.40137E+03         0.00000E+00
    0.00000E+00         0.00000E+00        -0.25059E+04
 
   -0.78411E+04         0.18956E+04         0.00000E+00
    0.18956E+04        -0.56100E+03         0.00000E+00
    0.00000E+00         0.00000E+00        -0.25354E+04
 
   -0.77205E+04         0.21788E+04         0.00000E+00
    0.21788E+04        -0.74805E+03         0.00000E+00
    0.00000E+00         0.00000E+00        -0.25571E+04
 
   -0.75498E+04         0.24492E+04         0.00000E+00
    0.24492E+04        -0.95913E+03         0.00000E+00
    0.00000E+00         0.00000E+00        -0.25709E+04
 
   -0.73338E+04         0.27020E+04         0.00000E+00
    0.27020E+04        -0.11898E+04         0.00000E+00
    0.00000E+00         0.00000E+00        -0.25770E+04
 
   -0.70784E+04         0.29342E+04         0.00000E+00
    0.29342E+04        -0.14349E+04         0.00000E+00
    0.00000E+00         0.00000E+00        -0.25754E+04
 
   -0.67896E+04         0.31445E+04         0.00000E+00
    0.31445E+04        -0.16893E+04         0.00000E+00
    0.00000E+00         0.00000E+00        -0.25666E+04
 
   -0.64731E+04         0.33330E+04         0.00000E+00
    0.33330E+04        -0.19482E+04         0.00000E+00
    0.00000E+00         0.00000E+00        -0.25506E+04
 
   -0.61337E+04         0.35015E+04         0.00000E+00
    0.35015E+04        -0.22074E+04         0.00000E+00
    0.00000E+00         0.00000E+00        -0.25278E+04
 
   -0.57753E+04         0.36524E+04         0.00000E+00
    0.36524E+04        -0.24635E+04         0.00000E+00
    0.00000E+00         0.00000E+00        -0.24982E+04
 
   -0.54002E+04         0.37891E+04         0.00000E+00
    0.37891E+04        -0.27142E+04         0.00000E+00
    0.00000E+00         0.00000E+00        -0.24620E+04
 
   -0.50095E+04         0.39150E+04         0.00000E+00
    0.39150E+04        -0.29583E+04         0.00000E+00
    0.00000E+00         0.00000E+00        -0.24189E+04
 
   -0.46028E+04         0.40339E+04         0.00000E+00
    0.40339E+04        -0.31953E+04         0.00000E+00
    0.00000E+00         0.00000E+00        -0.23687E+04
 
   -0.41784E+04         0.41489E+04         0.00000E+00
    0.41489E+04        -0.34261E+04         0.00000E+00
    0.00000E+00         0.00000E+00        -0.23113E+04
 
   -0.37332E+04         0.42630E+04         0.00000E+00
    0.42630E+04        -0.36522E+04         0.00000E+00
    0.00000E+00         0.00000E+00        -0.22461E+04
 
   -0.32632E+04         0.43781E+04         0.00000E+00
    0.43781E+04        -0.38762E+04         0.00000E+00
    0.00000E+00         0.00000E+00        -0.21727E+04
 
   -0.27633E+04         0.44953E+04         0.00000E+00
    0.44953E+04        -0.41010E+04         0.00000E+00
    0.00000E+00         0.00000E+00        -0.20904E+04
 
   -0.22277E+04         0.46147E+04         0.00000E+00
    0.46147E+04        -0.43302E+04         0.00000E+00
    0.00000E+00         0.00000E+00        -0.19987E+04
 
   -0.71042E+04         0.86244E+02         0.00000E+00
    0.86244E+02        -0.26699E+01         0.00000E+00
    0.00000E+00         0.00000E+00        -0.21331E+04
 
   -0.72840E+04         0.27395E+03         0.00000E+00
    0.27395E+03        -0.16955E+02         0.00000E+00
    0.00000E+00         0.00000E+00        -0.21933E+04
 
   -0.74326E+04         0.48160E+03         0.00000E+00
    0.48160E+03        -0.47217E+02         0.00000E+00
    0.00000E+00         0.00000E+00        -0.22490E+04
 
   -0.75459E+04         0.70808E+03         0.00000E+00
    0.70808E+03        -0.96054E+02         0.00000E+00
    0.00000E+00         0.00000E+00        -0.22997E+04
 
   -0.76194E+04         0.95080E+03         0.00000E+00
    0.95080E+03        -0.16626E+03         0.00000E+00
    0.00000E+00         0.00000E+00        -0.23448E+04
 
   -0.76489E+04         0.12057E+04         0.00000E+00
    0.12057E+04        -0.26017E+03         0.00000E+00
    0.00000E+00         0.00000E+00        -0.23837E+04
 
   -0.76318E+04         0.14677E+04         0.00000E+00
    0.14677E+04        -0.37907E+03         0.00000E+00
    0.00000E+00         0.00000E+00        -0.24162E+04
 
   -0.75668E+04         0.17309E+04         0.00000E+00
    0.17309E+04        -0.52301E+03         0.00000E+00
    0.00000E+00         0.00000E+00        -0.24417E+04
 
   -0.74545E+04         0.19899E+04         0.00000E+00
    0.19899E+04        -0.69063E+03         0.00000E+00
    0.00000E+00         0.00000E+00        -0.24600E+04
 
   -0.72971E+04         0.22396E+04         0.00000E+00
    0.22396E+04        -0.87942E+03         0.00000E+00
    0.00000E+00         0.00000E+00        -0.24712E+04
 
   -0.70982E+04         0.24760E+04         0.00000E+00
    0.24760E+04        -0.10859E+04         0.00000E+00
    0.00000E+00         0.00000E+00        -0.24751E+04
 
   -0.68619E+04         0.26964E+04         0.00000E+00
    0.26964E+04        -0.13062E+04         0.00000E+00
    0.00000E+00         0.00000E+00        -0.24718E+04
 
   -0.65928E+04         0.28994E+04         0.00000E+00
    0.28994E+04        -0.15362E+04         0.00000E+00
    0.00000E+00         0.00000E+00        -0.24615E+04
 
   -0.62954E+04         0.30848E+04         0.00000E+00
    0.30848E+04        -0.17720E+04         0.00000E+00
    0.00000E+00         0.00000E+00        -0.24444E+04
 
   -0.59734E+04         0.32535E+04         0.00000E+00
    0.32535E+04        -0.20102E+04         0.00000E+00
    0.00000E+00         0.00000E+00        -0.24204E+04
 
   -0.56298E+04         0.34074E+04         0.00000E+00
    0.34074E+04        -0.22478E+04         0.00000E+00
    0.00000E+00         0.00000E+00        -0.23898E+04
 
   -0.52666E+04         0.35487E+04         0.00000E+00
    0.35487E+04        -0.24830E+04         0.00000E+00
    0.00000E+00         0.00000E+00        -0.23524E+04
 
   -0.48846E+04         0.36801E+04         0.00000E+00
    0.36801E+04        -0.27145E+04         0.00000E+00
    0.00000E+00         0.00000E+00        -0.23082E+04
 
   -0.44837E+04         0.38042E+04         0.00000E+00
    0.38042E+04        -0.29420E+04         0.00000E+00
    0.00000E+00         0.00000E+00        -0.22569E+04
 
   -0.40623E+04         0.39235E+04         0.00000E+00
    0.39235E+04        -0.31660E+04         0.00000E+00
    0.00000E+00         0.00000E+00        -0.21984E+04
 
   -0.36181E+04         0.40400E+04         0.00000E+00
    0.40400E+04        -0.33878E+04         0.00000E+00
    0.00000E+00         0.00000E+00        -0.21322E+04
 
   -0.31478E+04         0.41551E+04         0.00000E+00
    0.41551E+04        -0.36092E+04         0.00000E+00
    0.00000E+00         0.00000E+00        -0.20579E+04
 
   -0.26472E+04         0.42693E+04         0.00000E+00
    0.42693E+04        -0.38328E+04         0.00000E+00
    0.00000E+00         0.00000E+00        -0.19751E+04
 
   -0.21119E+04         0.43822E+04         0.00000E+00
    0.43822E+04        -0.40613E+04         0.00000E+00
    0.00000E+00         0.00000E+00        -0.18832E+04
 
   -0.69336E+04         0.79279E+02         0.00000E+00
    0.79279E+02        -0.26626E+01         0.00000E+00
    0.00000E+00         0.00000E+00        -0.20819E+04
 
   -0.70941E+04         0.25218E+03         0.00000E+00
    0.25218E+03        -0.16809E+02         0.00000E+00
    0.00000E+00         0.00000E+00        -0.21363E+04
 
   -0.72243E+04         0.44309E+03         0.00000E+00
    0.44309E+03        -0.46362E+02         0.00000E+00
    0.00000E+00         0.00000E+00        -0.21863E+04
 
   -0.73211E+04         0.65047E+03         0.00000E+00
    0.65047E+03        -0.93163E+02         0.00000E+00
    0.00000E+00         0.00000E+00        -0.22314E+04
 
   -0.73813E+04         0.87187E+03         0.00000E+00
    0.87187E+03        -0.15917E+03         0.00000E+00
    0.00000E+00         0.00000E+00        -0.22712E+04
 
   -0.74017E+04         0.11039E+04         0.00000E+00
    0.11039E+04        -0.24600E+03         0.00000E+00
    0.00000E+00         0.00000E+00        -0.23053E+04
 
   -0.73804E+04         0.13423E+04         0.00000E+00
    0.13423E+04        -0.35458E+03         0.00000E+00
    0.00000E+00         0.00000E+00        -0.23333E+04
 
   -0.73163E+04         0.15827E+04         0.00000E+00
    0.15827E+04        -0.48489E+03         0.00000E+00
    0.00000E+00         0.00000E+00        -0.23550E+04
 
   -0.72097E+04         0.18204E+04         0.00000E+00
    0.18204E+04        -0.63592E+03         0.00000E+00
    0.00000E+00         0.00000E+00        -0.23701E+04
 
   -0.70623E+04         0.20516E+04         0.00000E+00
    0.20516E+04        -0.80576E+03         0.00000E+00
    0.00000E+00         0.00000E+00        -0.23785E+04
 
   -0.68763E+04         0.22727E+04         0.00000E+00
    0.22727E+04        -0.99178E+03         0.00000E+00
    0.00000E+00         0.00000E+00        -0.23802E+04
 
   -0.66550E+04         0.24815E+04         0.00000E+00
    0.24815E+04        -0.11909E+04         0.00000E+00
    0.00000E+00         0.00000E+00        -0.23751E+04
 
   -0.64018E+04         0.26765E+04         0.00000E+00
    0.26765E+04        -0.13999E+04         0.00000E+00
    0.00000E+00         0.00000E+00        -0.23632E+04
 
   -0.61199E+04         0.28572E+04         0.00000E+00
    0.28572E+04        -0.16156E+04         0.00000E+00
    0.00000E+00         0.00000E+00        -0.23447E+04
 
   -0.58125E+04         0.30242E+04         0.00000E+00
    0.30242E+04        -0.18353E+04         0.00000E+00
    0.00000E+00         0.00000E+00        -0.23196E+04
 
   -0.54817E+04         0.31786E+04         0.00000E+00
    0.31786E+04        -0.20565E+04         0.00000E+00
    0.00000E+00         0.00000E+00        -0.22879E+04
 
   -0.51292E+04         0.33218E+04         0.00000E+00
    0.33218E+04        -0.22776E+04         0.00000E+00
    0.00000E+00         0.00000E+00        -0.22495E+04
 
   -0.47557E+04         0.34559E+04         0.00000E+00
    0.34559E+04        -0.24975E+04         0.00000E+00
    0.00000E+00         0.00000E+00        -0.22043E+04
 
   -0.43609E+04         0.35826E+04         0.00000E+00
    0.35826E+04        -0.27159E+04         0.00000E+00
    0.00000E+00         0.00000E+00        -0.21522E+04
 
   -0.39439E+04         0.37038E+04         0.00000E+00
    0.37038E+04        -0.29330E+04         0.00000E+00
    0.00000E+00         0.00000E+00        -0.20929E+04
 
   -0.35026E+04         0.38208E+04         0.00000E+00
    0.38208E+04        -0.31499E+04         0.00000E+00
    0.00000E+00         0.00000E+00        -0.20261E+04
 
   -0.30344E+04         0.39343E+04         0.00000E+00
    0.39343E+04        -0.33680E+04         0.00000E+00
    0.00000E+00         0.00000E+00        -0.19514E+04
 
   -0.25361E+04         0.40446E+04         0.00000E+00
    0.40446E+04        -0.35892E+04         0.00000E+00
    0.00000E+00         0.00000E+00        -0.18686E+04
 
   -0.20041E+04         0.41510E+04         0.00000E+00
    0.41510E+04        -0.38158E+04         0.00000E+00
    0.00000E+00         0.00000E+00        -0.17771E+04
 
   -0.67770E+04         0.72481E+02         0.00000E+00
    0.72481E+02        -0.25591E+01         0.00000E+00
    0.00000E+00         0.00000E+00        -0.20349E+04
 
   -0.69196E+04         0.23104E+03         0.00000E+00
    0.23104E+03        -0.16132E+02         0.00000E+00
    0.00000E+00         0.00000E+00        -0.20838E+04
 
   -0.70333E+04         0.40619E+03         0.00000E+00
    0.40619E+03        -0.44307E+02         0.00000E+00
    0.00000E+00         0.00000E+00        -0.21283E+04
 
   -0.71156E+04         0.59612E+03         0.00000E+00
    0.59612E+03        -0.88458E+02         0.00000E+00
    0.00000E+00         0.00000E+00        -0.21683E+04
 
   -0.71641E+04         0.79849E+03         0.00000E+00
    0.79849E+03        -0.15000E+03         0.00000E+00
    0.00000E+00         0.00000E+00        -0.22032E+04
 
   -0.71763E+04         0.10103E+04         0.00000E+00
    0.10103E+04        -0.23007E+03         0.00000E+00
    0.00000E+00         0.00000E+00        -0.22329E+04
 
   -0.71508E+04         0.12282E+04         0.00000E+00
    0.12282E+04        -0.32933E+03         0.00000E+00
    0.00000E+00         0.00000E+00        -0.22568E+04
 
   -0.70866E+04         0.14485E+04         0.00000E+00
    0.14485E+04        -0.44772E+03         0.00000E+00
    0.00000E+00         0.00000E+00        -0.22749E+04
 
   -0.69839E+04         0.16675E+04         0.00000E+00
    0.16675E+04        -0.58448E+03         0.00000E+00
    0.00000E+00         0.00000E+00        -0.22869E+04
 
   -0.68436E+04         0.18819E+04         0.00000E+00
    0.18819E+04        -0.73813E+03         0.00000E+00
    0.00000E+00         0.00000E+00        -0.22926E+04
 
   -0.66676E+04         0.20889E+04         0.00000E+00
    0.20889E+04        -0.90665E+03         0.00000E+00
    0.00000E+00         0.00000E+00        -0.22920E+04
 
   -0.64580E+04         0.22863E+04         0.00000E+00
    0.22863E+04        -0.10876E+04         0.00000E+00
    0.00000E+00         0.00000E+00        -0.22849E+04
 
   -0.62174E+04         0.24728E+04         0.00000E+00
    0.24728E+04        -0.12786E+04         0.00000E+00
    0.00000E+00         0.00000E+00        -0.22715E+04
 
   -0.59484E+04         0.26478E+04         0.00000E+00
    0.26478E+04        -0.14769E+04         0.00000E+00
    0.00000E+00         0.00000E+00        -0.22516E+04
 
   -0.56531E+04         0.28114E+04         0.00000E+00
    0.28114E+04        -0.16804E+04         0.00000E+00
    0.00000E+00         0.00000E+00        -0.22253E+04
 
   -0.53334E+04         0.29642E+04         0.00000E+00
    0.29642E+04        -0.18870E+04         0.00000E+00
    0.00000E+00         0.00000E+00        -0.21925E+04
 
   -0.49906E+04         0.31072E+04         0.00000E+00
    0.31072E+04        -0.20954E+04         0.00000E+00
    0.00000E+00         0.00000E+00        -0.21532E+04
 
   -0.46251E+04         0.32417E+04         0.00000E+00
    0.32417E+04        -0.23047E+04         0.00000E+00
    0.00000E+00         0.00000E+00        -0.21072E+04
 
   -0.42369E+04         0.33689E+04         0.00000E+00
    0.33689E+04        -0.25143E+04         0.00000E+00
    0.00000E+00         0.00000E+00        -0.20544E+04
 
   -0.38251E+04         0.34900E+04         0.00000E+00
    0.34900E+04        -0.27247E+04         0.00000E+00
    0.00000E+00         0.00000E+00        -0.19946E+04
 
   -0.33882E+04         0.36059E+04         0.00000E+00
    0.36059E+04        -0.29363E+04         0.00000E+00
    0.00000E+00         0.00000E+00        -0.19276E+04
 
   -0.29242E+04         0.37168E+04         0.00000E+00
    0.37168E+04        -0.31504E+04         0.00000E+00
    0.00000E+00         0.00000E+00        -0.18530E+04
 
   -0.24304E+04         0.38226E+04         0.00000E+00
    0.38226E+04        -0.33684E+04         0.00000E+00
    0.00000E+00         0.00000E+00        -0.17705E+04
 
   -0.19041E+04         0.39223E+04         0.00000E+00
    0.39223E+04        -0.35921E+04         0.00000E+00
    0.00000E+00         0.00000E+00        -0.16799E+04
 
   -0.66339E+04         0.66032E+02         0.00000E+00
    0.66032E+02        -0.24028E+01         0.00000E+00
    0.00000E+00         0.00000E+00        -0.19919E+04
 
   -0.67597E+04         0.21100E+03         0.00000E+00
    0.21100E+03        -0.15161E+02         0.00000E+00
    0.00000E+00         0.00000E+00        -0.20355E+04
 
   -0.68583E+04         0.37142E+03         0.00000E+00
    0.37142E+03        -0.41593E+02         0.00000E+00
    0.00000E+00         0.00000E+00        -0.20750E+04
 
   -0.69276E+04         0.54536E+03         0.00000E+00
    0.54536E+03        -0.82793E+02         0.00000E+00
    0.00000E+00         0.00000E+00        -0.21101E+04
 
   -0.69655E+04         0.73059E+03         0.00000E+00
    0.73059E+03        -0.13982E+03         0.00000E+00
    0.00000E+00         0.00000E+00        -0.21406E+04
 
   -0.69702E+04         0.92451E+03         0.00000E+00
    0.92451E+03        -0.21353E+03         0.00000E+00
    0.00000E+00         0.00000E+00        -0.21660E+04
 
   -0.69404E+04         0.11242E+04         0.00000E+00
    0.11242E+04        -0.30437E+03         0.00000E+00
    0.00000E+00         0.00000E+00        -0.21862E+04
 
   -0.68754E+04         0.13267E+04         0.00000E+00
    0.13267E+04        -0.41230E+03         0.00000E+00
    0.00000E+00         0.00000E+00        -0.22009E+04
 
   -0.67750E+04         0.15288E+04         0.00000E+00
    0.15288E+04        -0.53670E+03         0.00000E+00
    0.00000E+00         0.00000E+00        -0.22098E+04
 
   -0.66399E+04         0.17280E+04         0.00000E+00
    0.17280E+04        -0.67645E+03         0.00000E+00
    0.00000E+00         0.00000E+00        -0.22129E+04
 
   -0.64713E+04         0.19216E+04         0.00000E+00
    0.19216E+04        -0.82998E+03         0.00000E+00
    0.00000E+00         0.00000E+00        -0.22100E+04
 
   -0.62709E+04         0.21079E+04         0.00000E+00
    0.21079E+04        -0.99543E+03         0.00000E+00
    0.00000E+00         0.00000E+00        -0.22011E+04
 
   -0.60404E+04         0.22857E+04         0.00000E+00
    0.22857E+04        -0.11708E+04         0.00000E+00
    0.00000E+00         0.00000E+00        -0.21860E+04
 
   -0.57819E+04         0.24541E+04         0.00000E+00
    0.24541E+04        -0.13540E+04         0.00000E+00
    0.00000E+00         0.00000E+00        -0.21647E+04
 
   -0.54968E+04         0.26130E+04         0.00000E+00
    0.26130E+04        -0.15433E+04         0.00000E+00
    0.00000E+00         0.00000E+00        -0.21372E+04
 
   -0.51868E+04         0.27627E+04         0.00000E+00
    0.27627E+04        -0.17371E+04         0.00000E+00
    0.00000E+00         0.00000E+00        -0.21035E+04
 
   -0.48527E+04         0.29037E+04         0.00000E+00
    0.29037E+04        -0.19341E+04         0.00000E+00
    0.00000E+00         0.00000E+00        -0.20633E+04
 
   -0.44949E+04         0.30368E+04         0.00000E+00
    0.30368E+04        -0.21335E+04         0.00000E+00
    0.00000E+00         0.00000E+00        -0.20167E+04
 
   -0.41135E+04         0.31628E+04         0.00000E+00
    0.31628E+04        -0.23350E+04         0.00000E+00
    0.00000E+00         0.00000E+00        -0.19635E+04
 
   -0.37076E+04         0.32822E+04         0.00000E+00
    0.32822E+04        -0.25386E+04         0.00000E+00
    0.00000E+00         0.00000E+00        -0.19035E+04
 
   -0.32763E+04         0.33957E+04         0.00000E+00
    0.33957E+04        -0.27448E+04         0.00000E+00
    0.00000E+00         0.00000E+00        -0.18365E+04
 
   -0.28178E+04         0.35030E+04         0.00000E+00
    0.35030E+04        -0.29544E+04         0.00000E+00
    0.00000E+00         0.00000E+00        -0.17622E+04
 
   -0.23304E+04         0.36038E+04         0.00000E+00
    0.36038E+04        -0.31686E+04         0.00000E+00
    0.00000E+00         0.00000E+00        -0.16805E+04
 
   -0.18117E+04         0.36970E+04         0.00000E+00
    0.36970E+04        -0.33886E+04         0.00000E+00
    0.00000E+00         0.00000E+00        -0.15910E+04
 
   -0.65035E+04         0.60026E+02         0.00000E+00
    0.60026E+02        -0.22222E+01         0.00000E+00
    0.00000E+00         0.00000E+00        -0.19527E+04
 
   -0.66134E+04         0.19230E+03         0.00000E+00
    0.19230E+03        -0.14055E+02         0.00000E+00
    0.00000E+00         0.00000E+00        -0.19913E+04
 
   -0.66980E+04         0.33903E+03         0.00000E+00
    0.33903E+03        -0.38590E+02         0.00000E+00
    0.00000E+00         0.00000E+00        -0.20260E+04
 
   -0.67553E+04         0.49828E+03         0.00000E+00
    0.49828E+03        -0.76756E+02         0.00000E+00
    0.00000E+00         0.00000E+00        -0.20566E+04
 
   -0.67836E+04         0.66795E+03         0.00000E+00
    0.66795E+03        -0.12941E+03         0.00000E+00
    0.00000E+00         0.00000E+00        -0.20829E+04
 
   -0.67813E+04         0.84573E+03         0.00000E+00
    0.84573E+03        -0.19719E+03         0.00000E+00
    0.00000E+00         0.00000E+00        -0.21044E+04
 
   -0.67472E+04         0.10291E+04         0.00000E+00
    0.10291E+04        -0.28046E+03         0.00000E+00
    0.00000E+00         0.00000E+00        -0.21210E+04
 
   -0.66806E+04         0.12155E+04         0.00000E+00
    0.12155E+04        -0.37916E+03         0.00000E+00
    0.00000E+00         0.00000E+00        -0.21325E+04
 
   -0.65814E+04         0.14024E+04         0.00000E+00
    0.14024E+04        -0.49283E+03         0.00000E+00
    0.00000E+00         0.00000E+00        -0.21386E+04
 
   -0.64500E+04         0.15875E+04         0.00000E+00
    0.15875E+04        -0.62059E+03         0.00000E+00
    0.00000E+00         0.00000E+00        -0.21391E+04
 
   -0.62870E+04         0.17686E+04         0.00000E+00
    0.17686E+04        -0.76124E+03         0.00000E+00
    0.00000E+00         0.00000E+00        -0.21340E+04
 
   -0.60937E+04         0.19442E+04         0.00000E+00
    0.19442E+04        -0.91332E+03         0.00000E+00
    0.00000E+00         0.00000E+00        -0.21232E+04
 
   -0.58713E+04         0.21129E+04         0.00000E+00
    0.21129E+04        -0.10752E+04         0.00000E+00
    0.00000E+00         0.00000E+00        -0.21065E+04
 
   -0.56214E+04         0.22741E+04         0.00000E+00
    0.22741E+04        -0.12454E+04         0.00000E+00
    0.00000E+00         0.00000E+00        -0.20839E+04
 
   -0.53450E+04         0.24274E+04         0.00000E+00
    0.24274E+04        -0.14223E+04         0.00000E+00
    0.00000E+00         0.00000E+00        -0.20553E+04
 
   -0.50434E+04         0.25727E+04         0.00000E+00
    0.25727E+04        -0.16046E+04         0.00000E+00
    0.00000E+00         0.00000E+00        -0.20206E+04
 
   -0.47172E+04         0.27103E+04         0.00000E+00
    0.27103E+04        -0.17913E+04         0.00000E+00
    0.00000E+00         0.00000E+00        -0.19798E+04
 
   -0.43668E+04         0.28406E+04         0.00000E+00
    0.28406E+04        -0.19817E+04         0.00000E+00
    0.00000E+00         0.00000E+00        -0.19327E+04
 
   -0.39921E+04         0.29639E+04         0.00000E+00
    0.29639E+04        -0.21755E+04         0.00000E+00
    0.00000E+00         0.00000E+00        -0.18792E+04
 
   -0.35927E+04         0.30805E+04         0.00000E+00
    0.30805E+04        -0.23726E+04         0.00000E+00
    0.00000E+00         0.00000E+00        -0.18191E+04
 
   -0.31678E+04         0.31904E+04         0.00000E+00
    0.31904E+04        -0.25733E+04         0.00000E+00
    0.00000E+00         0.00000E+00        -0.17524E+04
 
   -0.27160E+04         0.32935E+04         0.00000E+00
    0.32935E+04        -0.27782E+04         0.00000E+00
    0.00000E+00         0.00000E+00        -0.16787E+04
 
   -0.22362E+04         0.33890E+04         0.00000E+00
    0.33890E+04        -0.29881E+04         0.00000E+00
    0.00000E+00         0.00000E+00        -0.15980E+04
 
   -0.17266E+04         0.34757E+04         0.00000E+00
    0.34757E+04        -0.32039E+04         0.00000E+00
    0.00000E+00         0.00000E+00        -0.15100E+04
 
   -0.63848E+04         0.54497E+02         0.00000E+00
    0.54497E+02        -0.20361E+01         0.00000E+00
    0.00000E+00         0.00000E+00        -0.19171E+04
 
   -0.64799E+04         0.17501E+03         0.00000E+00
    0.17501E+03        -0.12920E+02         0.00000E+00
    0.00000E+00         0.00000E+00        -0.19509E+04
 
   -0.65514E+04         0.30907E+03         0.00000E+00
    0.30907E+03        -0.35542E+02         0.00000E+00
    0.00000E+00         0.00000E+00        -0.19811E+04
 
   -0.65976E+04         0.45481E+03         0.00000E+00
    0.45481E+03        -0.70742E+02         0.00000E+00
    0.00000E+00         0.00000E+00        -0.20075E+04
 
   -0.66169E+04         0.61027E+03         0.00000E+00
    0.61027E+03        -0.11925E+03         0.00000E+00
    0.00000E+00         0.00000E+00        -0.20298E+04
 
   -0.66079E+04         0.77337E+03         0.00000E+00
    0.77337E+03        -0.18159E+03         0.00000E+00
    0.00000E+00         0.00000E+00        -0.20477E+04
 
   -0.65694E+04         0.94193E+03         0.00000E+00
    0.94193E+03        -0.25806E+03         0.00000E+00
    0.00000E+00         0.00000E+00        -0.20609E+04
 
   -0.65009E+04         0.11137E+04         0.00000E+00
    0.11137E+04        -0.34864E+03         0.00000E+00
    0.00000E+00         0.00000E+00        -0.20694E+04
 
   -0.64020E+04         0.12866E+04         0.00000E+00
    0.12866E+04        -0.45296E+03         0.00000E+00
    0.00000E+00         0.00000E+00        -0.20727E+04
 
   -0.62729E+04         0.14586E+04         0.00000E+00
    0.14586E+04        -0.57036E+03         0.00000E+00
    0.00000E+00         0.00000E+00        -0.20709E+04
 
   -0.61141E+04         0.16279E+04         0.00000E+00
    0.16279E+04        -0.69990E+03         0.00000E+00
    0.00000E+00         0.00000E+00        -0.20637E+04
 
   -0.59263E+04         0.17929E+04         0.00000E+00
    0.17929E+04        -0.84043E+03         0.00000E+00
    0.00000E+00         0.00000E+00        -0.20511E+04
 
   -0.57105E+04         0.19526E+04         0.00000E+00
    0.19526E+04        -0.99071E+03         0.00000E+00
    0.00000E+00         0.00000E+00        -0.20328E+04
 
   -0.54676E+04         0.21061E+04         0.00000E+00
    0.21061E+04        -0.11495E+04         0.00000E+00
    0.00000E+00         0.00000E+00        -0.20089E+04
 
   -0.51986E+04         0.22530E+04         0.00000E+00
    0.22530E+04        -0.13155E+04         0.00000E+00
    0.00000E+00         0.00000E+00        -0.19792E+04
 
   -0.49043E+04         0.23930E+04         0.00000E+00
    0.23930E+04        -0.14877E+04         0.00000E+00
    0.00000E+00         0.00000E+00        -0.19437E+04
 
   -0.45854E+04         0.25261E+04         0.00000E+00
    0.25261E+04        -0.16652E+04         0.00000E+00
    0.00000E+00         0.00000E+00        -0.19023E+04
 
   -0.42419E+04         0.26524E+04         0.00000E+00
    0.26524E+04        -0.18474E+04         0.00000E+00
    0.00000E+00         0.00000E+00        -0.18548E+04
 
   -0.38740E+04         0.27719E+04         0.00000E+00
    0.27719E+04        -0.20340E+04         0.00000E+00
    0.00000E+00         0.00000E+00        -0.18012E+04
 
   -0.34814E+04         0.28846E+04         0.00000E+00
    0.28846E+04        -0.22248E+04         0.00000E+00
    0.00000E+00         0.00000E+00        -0.17413E+04
 
   -0.30634E+04         0.29903E+04         0.00000E+00
    0.29903E+04        -0.24200E+04         0.00000E+00
    0.00000E+00         0.00000E+00        -0.16750E+04
 
   -0.26192E+04         0.30886E+04         0.00000E+00
    0.30886E+04        -0.26201E+04         0.00000E+00
    0.00000E+00         0.00000E+00        -0.16022E+04
 
   -0.21478E+04         0.31786E+04         0.00000E+00
    0.31786E+04        -0.28253E+04         0.00000E+00
    0.00000E+00         0.00000E+00        -0.15226E+04
 
   -0.16483E+04         0.32590E+04         0.00000E+00
    0.32590E+04        -0.30365E+04         0.00000E+00
    0.00000E+00         0.00000E+00        -0.14362E+04
 
   -0.62770E+04         0.49442E+02         0.00000E+00
    0.49442E+02        -0.18562E+01         0.00000E+00
    0.00000E+00         0.00000E+00        -0.18847E+04
 
   -0.63581E+04         0.15912E+03         0.00000E+00
    0.15912E+03        -0.11822E+02         0.00000E+00
    0.00000E+00         0.00000E+00        -0.19140E+04
 
   -0.64174E+04         0.28149E+03         0.00000E+00
    0.28149E+03        -0.32606E+02         0.00000E+00
    0.00000E+00         0.00000E+00        -0.19400E+04
 
   -0.64532E+04         0.41477E+03         0.00000E+00
    0.41477E+03        -0.65002E+02         0.00000E+00
    0.00000E+00         0.00000E+00        -0.19624E+04
 
   -0.64641E+04         0.55717E+03         0.00000E+00
    0.55717E+03        -0.10967E+03         0.00000E+00
    0.00000E+00         0.00000E+00        -0.19810E+04
 
   -0.64486E+04         0.70682E+03         0.00000E+00
    0.70682E+03        -0.16707E+03         0.00000E+00
    0.00000E+00         0.00000E+00        -0.19955E+04
 
   -0.64058E+04         0.86179E+03         0.00000E+00
    0.86179E+03        -0.23748E+03         0.00000E+00
    0.00000E+00         0.00000E+00        -0.20056E+04
 
   -0.63350E+04         0.10202E+04         0.00000E+00
    0.10202E+04        -0.32090E+03         0.00000E+00
    0.00000E+00         0.00000E+00        -0.20112E+04
 
   -0.62358E+04         0.11801E+04         0.00000E+00
    0.11801E+04        -0.41707E+03         0.00000E+00
    0.00000E+00         0.00000E+00        -0.20120E+04
 
   -0.61081E+04         0.13398E+04         0.00000E+00
    0.13398E+04        -0.52548E+03         0.00000E+00
    0.00000E+00         0.00000E+00        -0.20079E+04
 
   -0.59522E+04         0.14977E+04         0.00000E+00
    0.14977E+04        -0.64542E+03         0.00000E+00
    0.00000E+00         0.00000E+00        -0.19988E+04
 
   -0.57687E+04         0.16525E+04         0.00000E+00
    0.16525E+04        -0.77598E+03         0.00000E+00
    0.00000E+00         0.00000E+00        -0.19844E+04
 
   -0.55580E+04         0.18030E+04         0.00000E+00
    0.18030E+04        -0.91618E+03         0.00000E+00
    0.00000E+00         0.00000E+00        -0.19647E+04
 
   -0.53210E+04         0.19486E+04         0.00000E+00
    0.19486E+04        -0.10650E+04         0.00000E+00
    0.00000E+00         0.00000E+00        -0.19395E+04
 
   -0.50584E+04         0.20885E+04         0.00000E+00
    0.20885E+04        -0.12215E+04         0.00000E+00
    0.00000E+00         0.00000E+00        -0.19089E+04
 
   -0.47706E+04         0.22225E+04         0.00000E+00
    0.22225E+04        -0.13847E+04         0.00000E+00
    0.00000E+00         0.00000E+00        -0.18727E+04
 
   -0.44582E+04         0.23502E+04         0.00000E+00
    0.23502E+04        -0.15540E+04         0.00000E+00
    0.00000E+00         0.00000E+00        -0.18307E+04
 
   -0.41214E+04         0.24715E+04         0.00000E+00
    0.24715E+04        -0.17287E+04         0.00000E+00
    0.00000E+00         0.00000E+00        -0.17830E+04
 
   -0.37602E+04         0.25864E+04         0.00000E+00
    0.25864E+04        -0.19086E+04         0.00000E+00
    0.00000E+00         0.00000E+00        -0.17294E+04
 
   -0.33744E+04         0.26945E+04         0.00000E+00
    0.26945E+04        -0.20934E+04         0.00000E+00
    0.00000E+00         0.00000E+00        -0.16697E+04
 
   -0.29638E+04         0.27954E+04         0.00000E+00
    0.27954E+04        -0.22833E+04         0.00000E+00
    0.00000E+00         0.00000E+00        -0.16040E+04
 
   -0.25276E+04         0.28885E+04         0.00000E+00
    0.28885E+04        -0.24783E+04         0.00000E+00
    0.00000E+00         0.00000E+00        -0.15321E+04
 
   -0.20654E+04         0.29728E+04         0.00000E+00
    0.29728E+04        -0.26788E+04         0.00000E+00
    0.00000E+00         0.00000E+00        -0.14538E+04
 
   -0.15765E+04         0.30471E+04         0.00000E+00
    0.30471E+04        -0.28852E+04         0.00000E+00
    0.00000E+00         0.00000E+00        -0.13692E+04
 
   -0.61792E+04         0.44836E+02         0.00000E+00
    0.44836E+02        -0.16892E+01         0.00000E+00
    0.00000E+00         0.00000E+00        -0.18553E+04
 
   -0.62471E+04         0.14457E+03         0.00000E+00
    0.14457E+03        -0.10800E+02         0.00000E+00
    0.00000E+00         0.00000E+00        -0.18804E+04
 
   -0.62950E+04         0.25614E+03         0.00000E+00
    0.25614E+03        -0.29876E+02         0.00000E+00
    0.00000E+00         0.00000E+00        -0.19024E+04
 
   -0.63211E+04         0.37791E+03         0.00000E+00
    0.37791E+03        -0.59689E+02         0.00000E+00
    0.00000E+00         0.00000E+00        -0.19212E+04
 
   -0.63240E+04         0.50824E+03         0.00000E+00
    0.50824E+03        -0.10086E+03         0.00000E+00
    0.00000E+00         0.00000E+00        -0.19363E+04
 
   -0.63024E+04         0.64546E+03         0.00000E+00
    0.64546E+03        -0.15383E+03         0.00000E+00
    0.00000E+00         0.00000E+00        -0.19476E+04
 
   -0.62553E+04         0.78787E+03         0.00000E+00
    0.78787E+03        -0.21886E+03         0.00000E+00
    0.00000E+00         0.00000E+00        -0.19549E+04
 
   -0.61819E+04         0.93378E+03         0.00000E+00
    0.93378E+03        -0.29599E+03         0.00000E+00
    0.00000E+00         0.00000E+00        -0.19578E+04
 
   -0.60817E+04         0.10815E+04         0.00000E+00
    0.10815E+04        -0.38504E+03         0.00000E+00
    0.00000E+00         0.00000E+00        -0.19562E+04
 
   -0.59548E+04         0.12296E+04         0.00000E+00
    0.12296E+04        -0.48566E+03         0.00000E+00
    0.00000E+00         0.00000E+00        -0.19500E+04
 
   -0.58010E+04         0.13767E+04         0.00000E+00
    0.13767E+04        -0.59727E+03         0.00000E+00
    0.00000E+00         0.00000E+00        -0.19389E+04
 
   -0.56207E+04         0.15214E+04         0.00000E+00
    0.15214E+04        -0.71919E+03         0.00000E+00
    0.00000E+00         0.00000E+00        -0.19229E+04
 
   -0.54142E+04         0.16629E+04         0.00000E+00
    0.16629E+04        -0.85065E+03         0.00000E+00
    0.00000E+00         0.00000E+00        -0.19018E+04
 
   -0.51821E+04         0.18002E+04         0.00000E+00
    0.18002E+04        -0.99081E+03         0.00000E+00
    0.00000E+00         0.00000E+00        -0.18756E+04
 
   -0.49249E+04         0.19327E+04         0.00000E+00
    0.19327E+04        -0.11389E+04         0.00000E+00
    0.00000E+00         0.00000E+00        -0.18440E+04
 
   -0.46429E+04         0.20601E+04         0.00000E+00
    0.20601E+04        -0.12942E+04         0.00000E+00
    0.00000E+00         0.00000E+00        -0.18071E+04
 
   -0.43365E+04         0.21818E+04         0.00000E+00
    0.21818E+04        -0.14560E+04         0.00000E+00
    0.00000E+00         0.00000E+00        -0.17648E+04
 
   -0.40059E+04         0.22975E+04         0.00000E+00
    0.22975E+04        -0.16239E+04         0.00000E+00
    0.00000E+00         0.00000E+00        -0.17169E+04
 
   -0.36513E+04         0.24070E+04         0.00000E+00
    0.24070E+04        -0.17976E+04         0.00000E+00
    0.00000E+00         0.00000E+00        -0.16633E+04
 
   -0.32725E+04         0.25099E+04         0.00000E+00
    0.25099E+04        -0.19768E+04         0.00000E+00
    0.00000E+00         0.00000E+00        -0.16041E+04
 
   -0.28693E+04         0.26055E+04         0.00000E+00
    0.26055E+04        -0.21614E+04         0.00000E+00
    0.00000E+00         0.00000E+00        -0.15391E+04
 
   -0.24415E+04         0.26932E+04         0.00000E+00
    0.26932E+04        -0.23515E+04         0.00000E+00
    0.00000E+00         0.00000E+00        -0.14681E+04
 
   -0.19888E+04         0.27718E+04         0.00000E+00
    0.27718E+04        -0.25472E+04         0.00000E+00
    0.00000E+00         0.00000E+00        -0.13913E+04
 
   -0.15109E+04         0.28402E+04         0.00000E+00
    0.28402E+04        -0.27487E+04         0.00000E+00
    0.00000E+00         0.00000E+00        -0.13085E+04
 
   -0.60903E+04         0.40639E+02         0.00000E+00
    0.40639E+02        -0.15387E+01         0.00000E+00
    0.00000E+00         0.00000E+00        -0.18286E+04
 
   -0.61461E+04         0.13124E+03         0.00000E+00
    0.13124E+03        -0.98761E+01         0.00000E+00
    0.00000E+00         0.00000E+00        -0.18498E+04
 
   -0.61833E+04         0.23282E+03         0.00000E+00
    0.23282E+03        -0.27404E+02         0.00000E+00
    0.00000E+00         0.00000E+00        -0.18682E+04
 
   -0.62004E+04         0.34393E+03         0.00000E+00
    0.34393E+03        -0.54881E+02         0.00000E+00
    0.00000E+00         0.00000E+00        -0.18835E+04
 
   -0.61958E+04         0.46307E+03         0.00000E+00
    0.46307E+03        -0.92912E+02         0.00000E+00
    0.00000E+00         0.00000E+00        -0.18955E+04
 
   -0.61683E+04         0.58874E+03         0.00000E+00
    0.58874E+03        -0.14193E+03         0.00000E+00
    0.00000E+00         0.00000E+00        -0.19038E+04
 
   -0.61168E+04         0.71944E+03         0.00000E+00
    0.71944E+03        -0.20221E+03         0.00000E+00
    0.00000E+00         0.00000E+00        -0.19083E+04
 
   -0.60407E+04         0.85367E+03         0.00000E+00
    0.85367E+03        -0.27383E+03         0.00000E+00
    0.00000E+00         0.00000E+00        -0.19087E+04
 
   -0.59393E+04         0.98999E+03         0.00000E+00
    0.98999E+03        -0.35670E+03         0.00000E+00
    0.00000E+00         0.00000E+00        -0.19049E+04
 
   -0.58125E+04         0.11271E+04         0.00000E+00
    0.11271E+04        -0.45054E+03         0.00000E+00
    0.00000E+00         0.00000E+00        -0.18967E+04
 
   -0.56601E+04         0.12636E+04         0.00000E+00
    0.12636E+04        -0.55494E+03         0.00000E+00
    0.00000E+00         0.00000E+00        -0.18839E+04
 
   -0.54822E+04         0.13985E+04         0.00000E+00
    0.13985E+04        -0.66937E+03         0.00000E+00
    0.00000E+00         0.00000E+00        -0.18663E+04
 
   -0.52791E+04         0.15308E+04         0.00000E+00
    0.15308E+04        -0.79322E+03         0.00000E+00
    0.00000E+00         0.00000E+00        -0.18440E+04
 
   -0.50511E+04         0.16598E+04         0.00000E+00
    0.16598E+04        -0.92582E+03         0.00000E+00
    0.00000E+00         0.00000E+00        -0.18167E+04
 
   -0.47985E+04         0.17846E+04         0.00000E+00
    0.17846E+04        -0.10665E+04         0.00000E+00
    0.00000E+00         0.00000E+00        -0.17844E+04
 
   -0.45217E+04         0.19049E+04         0.00000E+00
    0.19049E+04        -0.12148E+04         0.00000E+00
    0.00000E+00         0.00000E+00        -0.17469E+04
 
   -0.42208E+04         0.20201E+04         0.00000E+00
    0.20201E+04        -0.13700E+04         0.00000E+00
    0.00000E+00         0.00000E+00        -0.17042E+04
 
   -0.38962E+04         0.21298E+04         0.00000E+00
    0.21298E+04        -0.15317E+04         0.00000E+00
    0.00000E+00         0.00000E+00        -0.16562E+04
 
   -0.35479E+04         0.22334E+04         0.00000E+00
    0.22334E+04        -0.16996E+04         0.00000E+00
    0.00000E+00         0.00000E+00        -0.16029E+04
 
   -0.31760E+04         0.23306E+04         0.00000E+00
    0.23306E+04        -0.18734E+04         0.00000E+00
    0.00000E+00         0.00000E+00        -0.15441E+04
 
   -0.27804E+04         0.24206E+04         0.00000E+00
    0.24206E+04        -0.20530E+04         0.00000E+00
    0.00000E+00         0.00000E+00        -0.14798E+04
 
   -0.23610E+04         0.25027E+04         0.00000E+00
    0.25027E+04        -0.22383E+04         0.00000E+00
    0.00000E+00         0.00000E+00        -0.14100E+04
 
   -0.19179E+04         0.25757E+04         0.00000E+00
    0.25757E+04        -0.24292E+04         0.00000E+00
    0.00000E+00         0.00000E+00        -0.13346E+04
 
   -0.14511E+04         0.26384E+04         0.00000E+00
    0.26384E+04        -0.26257E+04         0.00000E+00
    0.00000E+00         0.00000E+00        -0.12536E+04
 
   -0.60098E+04         0.36808E+02         0.00000E+00
    0.36808E+02        -0.14063E+01         0.00000E+00
    0.00000E+00         0.00000E+00        -0.18043E+04
 
   -0.60543E+04         0.11900E+03         0.00000E+00
    0.11900E+03        -0.90582E+01         0.00000E+00
    0.00000E+00         0.00000E+00        -0.18220E+04
 
   -0.60816E+04         0.21134E+03         0.00000E+00
    0.21134E+03        -0.25209E+02         0.00000E+00
    0.00000E+00         0.00000E+00        -0.18370E+04
 
   -0.60902E+04         0.31253E+03         0.00000E+00
    0.31253E+03        -0.50611E+02         0.00000E+00
    0.00000E+00         0.00000E+00        -0.18492E+04
 
   -0.60786E+04         0.42123E+03         0.00000E+00
    0.42123E+03        -0.85861E+02         0.00000E+00
    0.00000E+00         0.00000E+00        -0.18582E+04
 
   -0.60454E+04         0.53611E+03         0.00000E+00
    0.53611E+03        -0.13140E+03         0.00000E+00
    0.00000E+00         0.00000E+00        -0.18637E+04
 
   -0.59897E+04         0.65582E+03         0.00000E+00
    0.65582E+03        -0.18751E+03         0.00000E+00
    0.00000E+00         0.00000E+00        -0.18657E+04
 
   -0.59107E+04         0.77904E+03         0.00000E+00
    0.77904E+03        -0.25432E+03         0.00000E+00
    0.00000E+00         0.00000E+00        -0.18639E+04
 
   -0.58078E+04         0.90450E+03         0.00000E+00
    0.90450E+03        -0.33180E+03         0.00000E+00
    0.00000E+00         0.00000E+00        -0.18580E+04
 
   -0.56807E+04         0.10310E+04         0.00000E+00
    0.10310E+04        -0.41976E+03         0.00000E+00
    0.00000E+00         0.00000E+00        -0.18479E+04
 
   -0.55292E+04         0.11574E+04         0.00000E+00
    0.11574E+04        -0.51791E+03         0.00000E+00
    0.00000E+00         0.00000E+00        -0.18334E+04
 
   -0.53532E+04         0.12827E+04         0.00000E+00
    0.12827E+04        -0.62584E+03         0.00000E+00
    0.00000E+00         0.00000E+00        -0.18145E+04
 
   -0.51528E+04         0.14059E+04         0.00000E+00
    0.14059E+04        -0.74306E+03         0.00000E+00
    0.00000E+00         0.00000E+00        -0.17910E+04
 
   -0.49282E+04         0.15264E+04         0.00000E+00
    0.15264E+04        -0.86907E+03         0.00000E+00
    0.00000E+00         0.00000E+00        -0.17627E+04
 
   -0.46797E+04         0.16434E+04         0.00000E+00
    0.16434E+04        -0.10033E+04         0.00000E+00
    0.00000E+00         0.00000E+00        -0.17297E+04
 
   -0.44074E+04         0.17563E+04         0.00000E+00
    0.17563E+04        -0.11453E+04         0.00000E+00
    0.00000E+00         0.00000E+00        -0.16917E+04
 
   -0.41117E+04         0.18645E+04         0.00000E+00
    0.18645E+04        -0.12945E+04         0.00000E+00
    0.00000E+00         0.00000E+00        -0.16488E+04
 
   -0.37926E+04         0.19677E+04         0.00000E+00
    0.19677E+04        -0.14506E+04         0.00000E+00
    0.00000E+00         0.00000E+00        -0.16007E+04
 
   -0.34505E+04         0.20652E+04         0.00000E+00
    0.20652E+04        -0.16132E+04         0.00000E+00
    0.00000E+00         0.00000E+00        -0.15476E+04
 
   -0.30852E+04         0.21563E+04         0.00000E+00
    0.21563E+04        -0.17820E+04         0.00000E+00
    0.00000E+00         0.00000E+00        -0.14894E+04
 
   -0.26971E+04         0.22405E+04         0.00000E+00
    0.22405E+04        -0.19568E+04         0.00000E+00
    0.00000E+00         0.00000E+00        -0.14259E+04
 
   -0.22862E+04         0.23169E+04         0.00000E+00
    0.23169E+04        -0.21374E+04         0.00000E+00
    0.00000E+00         0.00000E+00        -0.13572E+04
 
   -0.18526E+04         0.23843E+04         0.00000E+00
    0.23843E+04        -0.23236E+04         0.00000E+00
    0.00000E+00         0.00000E+00        -0.12832E+04
 
   -0.13967E+04         0.24417E+04         0.00000E+00
    0.24417E+04        -0.25153E+04         0.00000E+00
    0.00000E+00         0.00000E+00        -0.12041E+04
 
   -0.59368E+04         0.33296E+02         0.00000E+00
    0.33296E+02        -0.12919E+01         0.00000E+00
    0.00000E+00         0.00000E+00        -0.17824E+04
 
   -0.59710E+04         0.10773E+03         0.00000E+00
    0.10773E+03        -0.83474E+01         0.00000E+00
    0.00000E+00         0.00000E+00        -0.17968E+04
 
   -0.59892E+04         0.19148E+03         0.00000E+00
    0.19148E+03        -0.23294E+02         0.00000E+00
    0.00000E+00         0.00000E+00        -0.18087E+04
 
   -0.59899E+04         0.28341E+03         0.00000E+00
    0.28341E+03        -0.46876E+02         0.00000E+00
    0.00000E+00         0.00000E+00        -0.18179E+04
 
   -0.59716E+04         0.38233E+03         0.00000E+00
    0.38233E+03        -0.79689E+02         0.00000E+00
    0.00000E+00         0.00000E+00        -0.18242E+04
 
   -0.59331E+04         0.48705E+03         0.00000E+00
    0.48705E+03        -0.12218E+03         0.00000E+00
    0.00000E+00         0.00000E+00        -0.18273E+04
 
   -0.58733E+04         0.59640E+03         0.00000E+00
    0.59640E+03        -0.17466E+03         0.00000E+00
    0.00000E+00         0.00000E+00        -0.18269E+04
 
   -0.57915E+04         0.70918E+03         0.00000E+00
    0.70918E+03        -0.23728E+03         0.00000E+00
    0.00000E+00         0.00000E+00        -0.18229E+04
 
   -0.56869E+04         0.82428E+03         0.00000E+00
    0.82428E+03        -0.31008E+03         0.00000E+00
    0.00000E+00         0.00000E+00        -0.18151E+04
 
   -0.55592E+04         0.94060E+03         0.00000E+00
    0.94060E+03        -0.39295E+03         0.00000E+00
    0.00000E+00         0.00000E+00        -0.18033E+04
 
   -0.54081E+04         0.10571E+04         0.00000E+00
    0.10571E+04        -0.48568E+03         0.00000E+00
    0.00000E+00         0.00000E+00        -0.17874E+04
 
   -0.52334E+04         0.11729E+04         0.00000E+00
    0.11729E+04        -0.58797E+03         0.00000E+00
    0.00000E+00         0.00000E+00        -0.17672E+04
 
   -0.50352E+04         0.12872E+04         0.00000E+00
    0.12872E+04        -0.69944E+03         0.00000E+00
    0.00000E+00         0.00000E+00        -0.17426E+04
 
   -0.48136E+04         0.13991E+04         0.00000E+00
    0.13991E+04        -0.81966E+03         0.00000E+00
    0.00000E+00         0.00000E+00        -0.17135E+04
 
   -0.45686E+04         0.15081E+04         0.00000E+00
    0.15081E+04        -0.94821E+03         0.00000E+00
    0.00000E+00         0.00000E+00        -0.16798E+04
 
   -0.43005E+04         0.16134E+04         0.00000E+00
    0.16134E+04        -0.10846E+04         0.00000E+00
    0.00000E+00         0.00000E+00        -0.16414E+04
 
   -0.40094E+04         0.17145E+04         0.00000E+00
    0.17145E+04        -0.12285E+04         0.00000E+00
    0.00000E+00         0.00000E+00        -0.15982E+04
 
   -0.36956E+04         0.18109E+04         0.00000E+00
    0.18109E+04        -0.13795E+04         0.00000E+00
    0.00000E+00         0.00000E+00        -0.15502E+04
 
   -0.33592E+04         0.19019E+04         0.00000E+00
    0.19019E+04        -0.15372E+04         0.00000E+00
    0.00000E+00         0.00000E+00        -0.14974E+04
 
   -0.30005E+04         0.19868E+04         0.00000E+00
    0.19868E+04        -0.17014E+04         0.00000E+00
    0.00000E+00         0.00000E+00        -0.14397E+04
 
   -0.26196E+04         0.20651E+04         0.00000E+00
    0.20651E+04        -0.18716E+04         0.00000E+00
    0.00000E+00         0.00000E+00        -0.13770E+04
 
   -0.22170E+04         0.21357E+04         0.00000E+00
    0.21357E+04        -0.20478E+04         0.00000E+00
    0.00000E+00         0.00000E+00        -0.13094E+04
 
   -0.17928E+04         0.21977E+04         0.00000E+00
    0.21977E+04        -0.22295E+04         0.00000E+00
    0.00000E+00         0.00000E+00        -0.12370E+04
 
   -0.13475E+04         0.22498E+04         0.00000E+00
    0.22498E+04        -0.24164E+04         0.00000E+00
    0.00000E+00         0.00000E+00        -0.11596E+04
 
   -0.58709E+04         0.30056E+02         0.00000E+00
    0.30056E+02        -0.11946E+01         0.00000E+00
    0.00000E+00         0.00000E+00        -0.17626E+04
 
   -0.58956E+04         0.97285E+02         0.00000E+00
    0.97285E+02        -0.77392E+01         0.00000E+00
    0.00000E+00         0.00000E+00        -0.17740E+04
 
   -0.59055E+04         0.17303E+03         0.00000E+00
    0.17303E+03        -0.21647E+02         0.00000E+00
    0.00000E+00         0.00000E+00        -0.17831E+04
 
   -0.58989E+04         0.25627E+03         0.00000E+00
    0.25627E+03        -0.43652E+02         0.00000E+00
    0.00000E+00         0.00000E+00        -0.17896E+04
 
   -0.58744E+04         0.34599E+03         0.00000E+00
    0.34599E+03        -0.74349E+02         0.00000E+00
    0.00000E+00         0.00000E+00        -0.17934E+04
 
   -0.58308E+04         0.44112E+03         0.00000E+00
    0.44112E+03        -0.11420E+03         0.00000E+00
    0.00000E+00         0.00000E+00        -0.17942E+04
 
   -0.57671E+04         0.54063E+03         0.00000E+00
    0.54063E+03        -0.16352E+03         0.00000E+00
    0.00000E+00         0.00000E+00        -0.17917E+04
 
   -0.56824E+04         0.64346E+03         0.00000E+00
    0.64346E+03        -0.22253E+03         0.00000E+00
    0.00000E+00         0.00000E+00        -0.17858E+04
 
   -0.55760E+04         0.74862E+03         0.00000E+00
    0.74862E+03        -0.29128E+03         0.00000E+00
    0.00000E+00         0.00000E+00        -0.17762E+04
 
   -0.54475E+04         0.85512E+03         0.00000E+00
    0.85512E+03        -0.36974E+03         0.00000E+00
    0.00000E+00         0.00000E+00        -0.17628E+04
 
   -0.52965E+04         0.96206E+03         0.00000E+00
    0.96206E+03        -0.45779E+03         0.00000E+00
    0.00000E+00         0.00000E+00        -0.17455E+04
 
   -0.51229E+04         0.10686E+04         0.00000E+00
    0.10686E+04        -0.55518E+03         0.00000E+00
    0.00000E+00         0.00000E+00        -0.17241E+04
 
   -0.49264E+04         0.11739E+04         0.00000E+00
    0.11739E+04        -0.66164E+03         0.00000E+00
    0.00000E+00         0.00000E+00        -0.16986E+04
 
   -0.47072E+04         0.12773E+04         0.00000E+00
    0.12773E+04        -0.77682E+03         0.00000E+00
    0.00000E+00         0.00000E+00        -0.16687E+04
 
   -0.44654E+04         0.13781E+04         0.00000E+00
    0.13781E+04        -0.90035E+03         0.00000E+00
    0.00000E+00         0.00000E+00        -0.16344E+04
 
   -0.42009E+04         0.14756E+04         0.00000E+00
    0.14756E+04        -0.10319E+04         0.00000E+00
    0.00000E+00         0.00000E+00        -0.15956E+04
 
   -0.39142E+04         0.15694E+04         0.00000E+00
    0.15694E+04        -0.11710E+04         0.00000E+00
    0.00000E+00         0.00000E+00        -0.15523E+04
 
   -0.36052E+04         0.16588E+04         0.00000E+00
    0.16588E+04        -0.13174E+04         0.00000E+00
    0.00000E+00         0.00000E+00        -0.15044E+04
 
   -0.32744E+04         0.17431E+04         0.00000E+00
    0.17431E+04        -0.14706E+04         0.00000E+00
    0.00000E+00         0.00000E+00        -0.14519E+04
 
   -0.29219E+04         0.18218E+04         0.00000E+00
    0.18218E+04        -0.16304E+04         0.00000E+00
    0.00000E+00         0.00000E+00        -0.13947E+04
 
   -0.25480E+04         0.18940E+04         0.00000E+00
    0.18940E+04        -0.17964E+04         0.00000E+00
    0.00000E+00         0.00000E+00        -0.13329E+04
 
   -0.21533E+04         0.19589E+04         0.00000E+00
    0.19589E+04        -0.19683E+04         0.00000E+00
    0.00000E+00         0.00000E+00        -0.12665E+04
 
   -0.17381E+04         0.20155E+04         0.00000E+00
    0.20155E+04        -0.21457E+04         0.00000E+00
    0.00000E+00         0.00000E+00        -0.11954E+04
 
   -0.13031E+04         0.20627E+04         0.00000E+00
    0.20627E+04        -0.23281E+04         0.00000E+00
    0.00000E+00         0.00000E+00        -0.11197E+04
 
   -0.58114E+04         0.27048E+02         0.00000E+00
    0.27048E+02        -0.11132E+01         0.00000E+00
    0.00000E+00         0.00000E+00        -0.17448E+04
 
   -0.58276E+04         0.87558E+02         0.00000E+00
    0.87558E+02        -0.72259E+01         0.00000E+00
    0.00000E+00         0.00000E+00        -0.17534E+04
 
   -0.58298E+04         0.15578E+03         0.00000E+00
    0.15578E+03        -0.20248E+02         0.00000E+00
    0.00000E+00         0.00000E+00        -0.17599E+04
 
   -0.58165E+04         0.23085E+03         0.00000E+00
    0.23085E+03        -0.40902E+02         0.00000E+00
    0.00000E+00         0.00000E+00        -0.17641E+04
 
   -0.57863E+04         0.31186E+03         0.00000E+00
    0.31186E+03        -0.69782E+02         0.00000E+00
    0.00000E+00         0.00000E+00        -0.17656E+04
 
   -0.57380E+04         0.39789E+03         0.00000E+00
    0.39789E+03        -0.10735E+03         0.00000E+00
    0.00000E+00         0.00000E+00        -0.17643E+04
 
   -0.56706E+04         0.48801E+03         0.00000E+00
    0.48801E+03        -0.15396E+03         0.00000E+00
    0.00000E+00         0.00000E+00        -0.17598E+04
 
   -0.55831E+04         0.58131E+03         0.00000E+00
    0.58131E+03        -0.20984E+03         0.00000E+00
    0.00000E+00         0.00000E+00        -0.17521E+04
 
   -0.54749E+04         0.67689E+03         0.00000E+00
    0.67689E+03        -0.27511E+03         0.00000E+00
    0.00000E+00         0.00000E+00        -0.17410E+04
 
   -0.53454E+04         0.77387E+03         0.00000E+00
    0.77387E+03        -0.34978E+03         0.00000E+00
    0.00000E+00         0.00000E+00        -0.17262E+04
 
   -0.51944E+04         0.87144E+03         0.00000E+00
    0.87144E+03        -0.43377E+03         0.00000E+00
    0.00000E+00         0.00000E+00        -0.17076E+04
 
   -0.50214E+04         0.96882E+03         0.00000E+00
    0.96882E+03        -0.52693E+03         0.00000E+00
    0.00000E+00         0.00000E+00        -0.16852E+04
 
   -0.48264E+04         0.10653E+04         0.00000E+00
    0.10653E+04        -0.62903E+03         0.00000E+00
    0.00000E+00         0.00000E+00        -0.16587E+04
 
   -0.46093E+04         0.11601E+04         0.00000E+00
    0.11601E+04        -0.73981E+03         0.00000E+00
    0.00000E+00         0.00000E+00        -0.16281E+04
 
   -0.43701E+04         0.12527E+04         0.00000E+00
    0.12527E+04        -0.85895E+03         0.00000E+00
    0.00000E+00         0.00000E+00        -0.15933E+04
 
   -0.41090E+04         0.13425E+04         0.00000E+00
    0.13425E+04        -0.98613E+03         0.00000E+00
    0.00000E+00         0.00000E+00        -0.15543E+04
 
   -0.38262E+04         0.14288E+04         0.00000E+00
    0.14288E+04        -0.11210E+04         0.00000E+00
    0.00000E+00         0.00000E+00        -0.15109E+04
 
   -0.35218E+04         0.15110E+04         0.00000E+00
    0.15110E+04        -0.12632E+04         0.00000E+00
    0.00000E+00         0.00000E+00        -0.14631E+04
 
   -0.31961E+04         0.15886E+04         0.00000E+00
    0.15886E+04        -0.14124E+04         0.00000E+00
    0.00000E+00         0.00000E+00        -0.14109E+04
 
   -0.28495E+04         0.16608E+04         0.00000E+00
    0.16608E+04        -0.15682E+04         0.00000E+00
    0.00000E+00         0.00000E+00        -0.13543E+04
 
   -0.24823E+04         0.17270E+04         0.00000E+00
    0.17270E+04        -0.17303E+04         0.00000E+00
    0.00000E+00         0.00000E+00        -0.12933E+04
 
   -0.20951E+04         0.17862E+04         0.00000E+00
    0.17862E+04        -0.18982E+04         0.00000E+00
    0.00000E+00         0.00000E+00        -0.12279E+04
 
   -0.16885E+04         0.18376E+04         0.00000E+00
    0.18376E+04        -0.20715E+04         0.00000E+00
    0.00000E+00         0.00000E+00        -0.11582E+04
 
   -0.12633E+04         0.18802E+04         0.00000E+00
    0.18802E+04        -0.22496E+04         0.00000E+00
    0.00000E+00         0.00000E+00        -0.10842E+04
 
   -0.57581E+04         0.24232E+02         0.00000E+00
    0.24232E+02        -0.10460E+01         0.00000E+00
    0.00000E+00         0.00000E+00        -0.17287E+04
 
   -0.57665E+04         0.78432E+02         0.00000E+00
    0.78432E+02        -0.67984E+01         0.00000E+00
    0.00000E+00         0.00000E+00        -0.17349E+04
 
   -0.57618E+04         0.13956E+03         0.00000E+00
    0.13956E+03        -0.19075E+02         0.00000E+00
    0.00000E+00         0.00000E+00        -0.17392E+04
 
   -0.57424E+04         0.20689E+03         0.00000E+00
    0.20689E+03        -0.38583E+02         0.00000E+00
    0.00000E+00         0.00000E+00        -0.17411E+04
 
   -0.57070E+04         0.27962E+03         0.00000E+00
    0.27962E+03        -0.65914E+02         0.00000E+00
    0.00000E+00         0.00000E+00        -0.17406E+04
 
   -0.56543E+04         0.35696E+03         0.00000E+00
    0.35696E+03        -0.10154E+03         0.00000E+00
    0.00000E+00         0.00000E+00        -0.17374E+04
 
   -0.55833E+04         0.43810E+03         0.00000E+00
    0.43810E+03        -0.14583E+03         0.00000E+00
    0.00000E+00         0.00000E+00        -0.17312E+04
 
   -0.54932E+04         0.52223E+03         0.00000E+00
    0.52223E+03        -0.19903E+03         0.00000E+00
    0.00000E+00         0.00000E+00        -0.17219E+04
 
   -0.53832E+04         0.60855E+03         0.00000E+00
    0.60855E+03        -0.26130E+03         0.00000E+00
    0.00000E+00         0.00000E+00        -0.17093E+04
 
   -0.52527E+04         0.69628E+03         0.00000E+00
    0.69628E+03        -0.33271E+03         0.00000E+00
    0.00000E+00         0.00000E+00        -0.16932E+04
 
   -0.51013E+04         0.78469E+03         0.00000E+00
    0.78469E+03        -0.41321E+03         0.00000E+00
    0.00000E+00         0.00000E+00        -0.16735E+04
 
   -0.49288E+04         0.87307E+03         0.00000E+00
    0.87307E+03        -0.50271E+03         0.00000E+00
    0.00000E+00         0.00000E+00        -0.16501E+04
 
   -0.47350E+04         0.96075E+03         0.00000E+00
    0.96075E+03        -0.60105E+03         0.00000E+00
    0.00000E+00         0.00000E+00        -0.16229E+04
 
   -0.45196E+04         0.10471E+04         0.00000E+00
    0.10471E+04        -0.70800E+03         0.00000E+00
    0.00000E+00         0.00000E+00        -0.15917E+04
 
   -0.42829E+04         0.11315E+04         0.00000E+00
    0.11315E+04        -0.82330E+03         0.00000E+00
    0.00000E+00         0.00000E+00        -0.15564E+04
 
   -0.40248E+04         0.12133E+04         0.00000E+00
    0.12133E+04        -0.94665E+03         0.00000E+00
    0.00000E+00         0.00000E+00        -0.15171E+04
 
   -0.37455E+04         0.12921E+04         0.00000E+00
    0.12921E+04        -0.10777E+04         0.00000E+00
    0.00000E+00         0.00000E+00        -0.14736E+04
 
   -0.34453E+04         0.13671E+04         0.00000E+00
    0.13671E+04        -0.12162E+04         0.00000E+00
    0.00000E+00         0.00000E+00        -0.14260E+04
 
   -0.31244E+04         0.14379E+04         0.00000E+00
    0.14379E+04        -0.13617E+04         0.00000E+00
    0.00000E+00         0.00000E+00        -0.13742E+04
 
   -0.27833E+04         0.15037E+04         0.00000E+00
    0.15037E+04        -0.15139E+04         0.00000E+00
    0.00000E+00         0.00000E+00        -0.13181E+04
 
   -0.24224E+04         0.15638E+04         0.00000E+00
    0.15638E+04        -0.16723E+04         0.00000E+00
    0.00000E+00         0.00000E+00        -0.12579E+04
 
   -0.20424E+04         0.16174E+04         0.00000E+00
    0.16174E+04        -0.18365E+04         0.00000E+00
    0.00000E+00         0.00000E+00        -0.11935E+04
 
   -0.16438E+04         0.16638E+04         0.00000E+00
    0.16638E+04        -0.20060E+04         0.00000E+00
    0.00000E+00         0.00000E+00        -0.11251E+04
 
   -0.12277E+04         0.17018E+04         0.00000E+00
    0.17018E+04        -0.21802E+04         0.00000E+00
    0.00000E+00         0.00000E+00        -0.10526E+04
 
   -0.57104E+04         0.21575E+02         0.00000E+00
    0.21575E+02        -0.99129E+00         0.00000E+00
    0.00000E+00         0.00000E+00        -0.17144E+04
 
   -0.57119E+04         0.69805E+02         0.00000E+00
    0.69805E+02        -0.64468E+01         0.00000E+00
    0.00000E+00         0.00000E+00        -0.17185E+04
 
   -0.57010E+04         0.12421E+03         0.00000E+00
    0.12421E+03        -0.18102E+02         0.00000E+00
    0.00000E+00         0.00000E+00        -0.17206E+04
 
   -0.56761E+04         0.18416E+03         0.00000E+00
    0.18416E+03        -0.36649E+02         0.00000E+00
    0.00000E+00         0.00000E+00        -0.17207E+04
 
   -0.56359E+04         0.24900E+03         0.00000E+00
    0.24900E+03        -0.62673E+02         0.00000E+00
    0.00000E+00         0.00000E+00        -0.17183E+04
 
   -0.55792E+04         0.31801E+03         0.00000E+00
    0.31801E+03        -0.96652E+02         0.00000E+00
    0.00000E+00         0.00000E+00        -0.17134E+04
 
   -0.55050E+04         0.39051E+03         0.00000E+00
    0.39051E+03        -0.13896E+03         0.00000E+00
    0.00000E+00         0.00000E+00        -0.17056E+04
 
   -0.54123E+04         0.46578E+03         0.00000E+00
    0.46578E+03        -0.18989E+03         0.00000E+00
    0.00000E+00         0.00000E+00        -0.16949E+04
 
   -0.53006E+04         0.54311E+03         0.00000E+00
    0.54311E+03        -0.24961E+03         0.00000E+00
    0.00000E+00         0.00000E+00        -0.16810E+04
 
   -0.51690E+04         0.62183E+03         0.00000E+00
    0.62183E+03        -0.31822E+03         0.00000E+00
    0.00000E+00         0.00000E+00        -0.16637E+04
 
   -0.50173E+04         0.70126E+03         0.00000E+00
    0.70126E+03        -0.39573E+03         0.00000E+00
    0.00000E+00         0.00000E+00        -0.16431E+04
 
   -0.48451E+04         0.78078E+03         0.00000E+00
    0.78078E+03        -0.48209E+03         0.00000E+00
    0.00000E+00         0.00000E+00        -0.16188E+04
 
   -0.46522E+04         0.85977E+03         0.00000E+00
    0.85977E+03        -0.57718E+03         0.00000E+00
    0.00000E+00         0.00000E+00        -0.15908E+04
 
   -0.44384E+04         0.93764E+03         0.00000E+00
    0.93764E+03        -0.68080E+03         0.00000E+00
    0.00000E+00         0.00000E+00        -0.15591E+04
 
   -0.42037E+04         0.10138E+04         0.00000E+00
    0.10138E+04        -0.79275E+03         0.00000E+00
    0.00000E+00         0.00000E+00        -0.15235E+04
 
   -0.39483E+04         0.10878E+04         0.00000E+00
    0.10878E+04        -0.91275E+03         0.00000E+00
    0.00000E+00         0.00000E+00        -0.14839E+04
 
   -0.36722E+04         0.11589E+04         0.00000E+00
    0.11589E+04        -0.10405E+04         0.00000E+00
    0.00000E+00         0.00000E+00        -0.14405E+04
 
   -0.33758E+04         0.12268E+04         0.00000E+00
    0.12268E+04        -0.11757E+04         0.00000E+00
    0.00000E+00         0.00000E+00        -0.13930E+04
 
   -0.30594E+04         0.12906E+04         0.00000E+00
    0.12906E+04        -0.13179E+04         0.00000E+00
    0.00000E+00         0.00000E+00        -0.13415E+04
 
   -0.27234E+04         0.13500E+04         0.00000E+00
    0.13500E+04        -0.14668E+04         0.00000E+00
    0.00000E+00         0.00000E+00        -0.12859E+04
 
   -0.23683E+04         0.14041E+04         0.00000E+00
    0.14041E+04        -0.16218E+04         0.00000E+00
    0.00000E+00         0.00000E+00        -0.12265E+04
 
   -0.19949E+04         0.14523E+04         0.00000E+00
    0.14523E+04        -0.17826E+04         0.00000E+00
    0.00000E+00         0.00000E+00        -0.11631E+04
 
   -0.16038E+04         0.14937E+04         0.00000E+00
    0.14937E+04        -0.19486E+04         0.00000E+00
    0.00000E+00         0.00000E+00        -0.10958E+04
 
   -0.11962E+04         0.15275E+04         0.00000E+00
    0.15275E+04        -0.21191E+04         0.00000E+00
    0.00000E+00         0.00000E+00        -0.10248E+04
 
   -0.56681E+04         0.19045E+02         0.00000E+00
    0.19045E+02        -0.94731E+00         0.00000E+00
    0.00000E+00         0.00000E+00        -0.17017E+04
 
   -0.56636E+04         0.61590E+02         0.00000E+00
    0.61590E+02        -0.61612E+01         0.00000E+00
    0.00000E+00         0.00000E+00        -0.17039E+04
 
   -0.56472E+04         0.10958E+03         0.00000E+00
    0.10958E+03        -0.17305E+02         0.00000E+00
    0.00000E+00         0.00000E+00        -0.17042E+04
 
   -0.56173E+04         0.16248E+03         0.00000E+00
    0.16248E+03        -0.35054E+02         0.00000E+00
    0.00000E+00         0.00000E+00        -0.17025E+04
 
   -0.55728E+04         0.21973E+03         0.00000E+00
    0.21973E+03        -0.59985E+02         0.00000E+00
    0.00000E+00         0.00000E+00        -0.16986E+04
 
   -0.55125E+04         0.28073E+03         0.00000E+00
    0.28073E+03        -0.92579E+02         0.00000E+00
    0.00000E+00         0.00000E+00        -0.16921E+04
 
   -0.54353E+04         0.34488E+03         0.00000E+00
    0.34488E+03        -0.13323E+03         0.00000E+00
    0.00000E+00         0.00000E+00        -0.16830E+04
 
   -0.53403E+04         0.41155E+03         0.00000E+00
    0.41155E+03        -0.18222E+03         0.00000E+00
    0.00000E+00         0.00000E+00        -0.16709E+04
 
   -0.52269E+04         0.48014E+03         0.00000E+00
    0.48014E+03        -0.23978E+03         0.00000E+00
    0.00000E+00         0.00000E+00        -0.16559E+04
 
   -0.50943E+04         0.55005E+03         0.00000E+00
    0.55005E+03        -0.30601E+03         0.00000E+00
    0.00000E+00         0.00000E+00        -0.16376E+04
 
   -0.49422E+04         0.62068E+03         0.00000E+00
    0.62068E+03        -0.38098E+03         0.00000E+00
    0.00000E+00         0.00000E+00        -0.16160E+04
 
   -0.47701E+04         0.69146E+03         0.00000E+00
    0.69146E+03        -0.46465E+03         0.00000E+00
    0.00000E+00         0.00000E+00        -0.15910E+04
 
   -0.45779E+04         0.76185E+03         0.00000E+00
    0.76185E+03        -0.55695E+03         0.00000E+00
    0.00000E+00         0.00000E+00        -0.15625E+04
 
   -0.43654E+04         0.83130E+03         0.00000E+00
    0.83130E+03        -0.65771E+03         0.00000E+00
    0.00000E+00         0.00000E+00        -0.15302E+04
 
   -0.41326E+04         0.89931E+03         0.00000E+00
    0.89931E+03        -0.76675E+03         0.00000E+00
    0.00000E+00         0.00000E+00        -0.14943E+04
 
   -0.38795E+04         0.96536E+03         0.00000E+00
    0.96536E+03        -0.88383E+03         0.00000E+00
    0.00000E+00         0.00000E+00        -0.14546E+04
 
   -0.36064E+04         0.10289E+04         0.00000E+00
    0.10289E+04        -0.10086E+04         0.00000E+00
    0.00000E+00         0.00000E+00        -0.14111E+04
 
   -0.33134E+04         0.10895E+04         0.00000E+00
    0.10895E+04        -0.11409E+04         0.00000E+00
    0.00000E+00         0.00000E+00        -0.13638E+04
 
   -0.30010E+04         0.11465E+04         0.00000E+00
    0.11465E+04        -0.12802E+04         0.00000E+00
    0.00000E+00         0.00000E+00        -0.13126E+04
 
   -0.26697E+04         0.11995E+04         0.00000E+00
    0.11995E+04        -0.14261E+04         0.00000E+00
    0.00000E+00         0.00000E+00        -0.12576E+04
 
   -0.23199E+04         0.12476E+04         0.00000E+00
    0.12476E+04        -0.15781E+04         0.00000E+00
    0.00000E+00         0.00000E+00        -0.11988E+04
 
   -0.19525E+04         0.12904E+04         0.00000E+00
    0.12904E+04        -0.17359E+04         0.00000E+00
    0.00000E+00         0.00000E+00        -0.11363E+04
 
   -0.15684E+04         0.13270E+04         0.00000E+00
    0.13270E+04        -0.18986E+04         0.00000E+00
    0.00000E+00         0.00000E+00        -0.10701E+04
 
   -0.11684E+04         0.13567E+04         0.00000E+00
    0.13567E+04        -0.20657E+04         0.00000E+00
    0.00000E+00         0.00000E+00        -0.10004E+04
 
   -0.56310E+04         0.16618E+02         0.00000E+00
    0.16618E+02        -0.91247E+00         0.00000E+00
    0.00000E+00         0.00000E+00        -0.16906E+04
 
   -0.56212E+04         0.53710E+02         0.00000E+00
    0.53710E+02        -0.59323E+01         0.00000E+00
    0.00000E+00         0.00000E+00        -0.16911E+04
 
   -0.55999E+04         0.95532E+02         0.00000E+00
    0.95532E+02        -0.16661E+02         0.00000E+00
    0.00000E+00         0.00000E+00        -0.16898E+04
 
   -0.55657E+04         0.14165E+03         0.00000E+00
    0.14165E+03        -0.33753E+02         0.00000E+00
    0.00000E+00         0.00000E+00        -0.16867E+04
 
   -0.55174E+04         0.19159E+03         0.00000E+00
    0.19159E+03        -0.57780E+02         0.00000E+00
    0.00000E+00         0.00000E+00        -0.16813E+04
 
   -0.54538E+04         0.24484E+03         0.00000E+00
    0.24484E+03        -0.89223E+02         0.00000E+00
    0.00000E+00         0.00000E+00        -0.16735E+04
 
   -0.53739E+04         0.30090E+03         0.00000E+00
    0.30090E+03        -0.12848E+03         0.00000E+00
    0.00000E+00         0.00000E+00        -0.16631E+04
 
   -0.52768E+04         0.35921E+03         0.00000E+00
    0.35921E+03        -0.17586E+03         0.00000E+00
    0.00000E+00         0.00000E+00        -0.16500E+04
 
   -0.51618E+04         0.41927E+03         0.00000E+00
    0.41927E+03        -0.23159E+03         0.00000E+00
    0.00000E+00         0.00000E+00        -0.16339E+04
 
   -0.50283E+04         0.48054E+03         0.00000E+00
    0.48054E+03        -0.29583E+03         0.00000E+00
    0.00000E+00         0.00000E+00        -0.16147E+04
 
   -0.48757E+04         0.54250E+03         0.00000E+00
    0.54250E+03        -0.36864E+03         0.00000E+00
    0.00000E+00         0.00000E+00        -0.15924E+04
 
   -0.47038E+04         0.60467E+03         0.00000E+00
    0.60467E+03        -0.45004E+03         0.00000E+00
    0.00000E+00         0.00000E+00        -0.15667E+04
 
   -0.45122E+04         0.66654E+03         0.00000E+00
    0.66654E+03        -0.53995E+03         0.00000E+00
    0.00000E+00         0.00000E+00        -0.15376E+04
 
   -0.43008E+04         0.72765E+03         0.00000E+00
    0.72765E+03        -0.63827E+03         0.00000E+00
    0.00000E+00         0.00000E+00        -0.15050E+04
 
   -0.40695E+04         0.78751E+03         0.00000E+00
    0.78751E+03        -0.74482E+03         0.00000E+00
    0.00000E+00         0.00000E+00        -0.14688E+04
 
   -0.38185E+04         0.84568E+03         0.00000E+00
    0.84568E+03        -0.85936E+03         0.00000E+00
    0.00000E+00         0.00000E+00        -0.14289E+04
 
   -0.35480E+04         0.90167E+03         0.00000E+00
    0.90167E+03        -0.98163E+03         0.00000E+00
    0.00000E+00         0.00000E+00        -0.13854E+04
 
   -0.32581E+04         0.95501E+03         0.00000E+00
    0.95501E+03        -0.11113E+04         0.00000E+00
    0.00000E+00         0.00000E+00        -0.13382E+04
 
   -0.29493E+04         0.10052E+04         0.00000E+00
    0.10052E+04        -0.12480E+04         0.00000E+00
    0.00000E+00         0.00000E+00        -0.12874E+04
 
   -0.26221E+04         0.10517E+04         0.00000E+00
    0.10517E+04        -0.13913E+04         0.00000E+00
    0.00000E+00         0.00000E+00        -0.12328E+04
 
   -0.22772E+04         0.10940E+04         0.00000E+00
    0.10940E+04        -0.15407E+04         0.00000E+00
    0.00000E+00         0.00000E+00        -0.11747E+04
 
   -0.19153E+04         0.11315E+04         0.00000E+00
    0.11315E+04        -0.16956E+04         0.00000E+00
    0.00000E+00         0.00000E+00        -0.11130E+04
 
   -0.15373E+04         0.11634E+04         0.00000E+00
    0.11634E+04        -0.18555E+04         0.00000E+00
    0.00000E+00         0.00000E+00        -0.10478E+04
 
   -0.11443E+04         0.11892E+04         0.00000E+00
    0.11892E+04        -0.20196E+04         0.00000E+00
    0.00000E+00         0.00000E+00        -0.97928E+03
 
   -0.55989E+04         0.14272E+02         0.00000E+00
    0.14272E+02        -0.88528E+00         0.00000E+00
    0.00000E+00         0.00000E+00        -0.16809E+04
 
   -0.55845E+04         0.46098E+02         0.00000E+00
    0.46098E+02        -0.57514E+01         0.00000E+00
    0.00000E+00         0.00000E+00        -0.16800E+04
 
   -0.55590E+04         0.81968E+02         0.00000E+00
    0.81968E+02        -0.16146E+02         0.00000E+00
    0.00000E+00         0.00000E+00        -0.16774E+04
 
   -0.55211E+04         0.12153E+03         0.00000E+00
    0.12153E+03        -0.32707E+02         0.00000E+00
    0.00000E+00         0.00000E+00        -0.16729E+04
 
   -0.54694E+04         0.16438E+03         0.00000E+00
    0.16438E+03        -0.55994E+02         0.00000E+00
    0.00000E+00         0.00000E+00        -0.16663E+04
 
   -0.54030E+04         0.21011E+03         0.00000E+00
    0.21011E+03        -0.86492E+02         0.00000E+00
    0.00000E+00         0.00000E+00        -0.16574E+04
 
   -0.53207E+04         0.25828E+03         0.00000E+00
    0.25828E+03        -0.12460E+03         0.00000E+00
    0.00000E+00         0.00000E+00        -0.16460E+04
 
   -0.52217E+04         0.30844E+03         0.00000E+00
    0.30844E+03        -0.17064E+03         0.00000E+00
    0.00000E+00         0.00000E+00        -0.16319E+04
 
   -0.51053E+04         0.36014E+03         0.00000E+00
    0.36014E+03        -0.22486E+03         0.00000E+00
    0.00000E+00         0.00000E+00        -0.16149E+04
 
   -0.49709E+04         0.41293E+03         0.00000E+00
    0.41293E+03        -0.28743E+03         0.00000E+00
    0.00000E+00         0.00000E+00        -0.15950E+04
 
   -0.48179E+04         0.46637E+03         0.00000E+00
    0.46637E+03        -0.35844E+03         0.00000E+00
    0.00000E+00         0.00000E+00        -0.15719E+04
 
   -0.46460E+04         0.52002E+03         0.00000E+00
    0.52002E+03        -0.43792E+03         0.00000E+00
    0.00000E+00         0.00000E+00        -0.15457E+04
 
   -0.44548E+04         0.57346E+03         0.00000E+00
    0.57346E+03        -0.52584E+03         0.00000E+00
    0.00000E+00         0.00000E+00        -0.15161E+04
 
   -0.42443E+04         0.62627E+03         0.00000E+00
    0.62627E+03        -0.62209E+03         0.00000E+00
    0.00000E+00         0.00000E+00        -0.14832E+04
 
   -0.40145E+04         0.67804E+03         0.00000E+00
    0.67804E+03        -0.72651E+03         0.00000E+00
    0.00000E+00         0.00000E+00        -0.14467E+04
 
   -0.37653E+04         0.72835E+03         0.00000E+00
    0.72835E+03        -0.83890E+03         0.00000E+00
    0.00000E+00         0.00000E+00        -0.14068E+04
 
   -0.34969E+04         0.77678E+03         0.00000E+00
    0.77678E+03        -0.95898E+03         0.00000E+00
    0.00000E+00         0.00000E+00        -0.13633E+04
 
   -0.32098E+04         0.82292E+03         0.00000E+00
    0.82292E+03        -0.10864E+04         0.00000E+00
    0.00000E+00         0.00000E+00        -0.13163E+04
 
   -0.29042E+04         0.86631E+03         0.00000E+00
    0.86631E+03        -0.12209E+04         0.00000E+00
    0.00000E+00         0.00000E+00        -0.12657E+04
 
   -0.25807E+04         0.90649E+03         0.00000E+00
    0.90649E+03        -0.13619E+04         0.00000E+00
    0.00000E+00         0.00000E+00        -0.12116E+04
 
   -0.22400E+04         0.94297E+03         0.00000E+00
    0.94297E+03        -0.15089E+04         0.00000E+00
    0.00000E+00         0.00000E+00        -0.11540E+04
 
   -0.18829E+04         0.97521E+03         0.00000E+00
    0.97521E+03        -0.16614E+04         0.00000E+00
    0.00000E+00         0.00000E+00        -0.10930E+04
 
   -0.15104E+04         0.10027E+04         0.00000E+00
    0.10027E+04        -0.18188E+04         0.00000E+00
    0.00000E+00         0.00000E+00        -0.10287E+04
 
   -0.11235E+04         0.10247E+04         0.00000E+00
    0.10247E+04        -0.19802E+04         0.00000E+00
    0.00000E+00         0.00000E+00        -0.96121E+03
 
   -0.55716E+04         0.11989E+02         0.00000E+00
    0.11989E+02        -0.86444E+00         0.00000E+00
    0.00000E+00         0.00000E+00        -0.16727E+04
 
   -0.55534E+04         0.38699E+02         0.00000E+00
    0.38699E+02        -0.56107E+01         0.00000E+00
    0.00000E+00         0.00000E+00        -0.16706E+04
 
   -0.55243E+04         0.68788E+02         0.00000E+00
    0.68788E+02        -0.15741E+02         0.00000E+00
    0.00000E+00         0.00000E+00        -0.16669E+04
 
   -0.54832E+04         0.10197E+03         0.00000E+00
    0.10197E+03        -0.31878E+02         0.00000E+00
    0.00000E+00         0.00000E+00        -0.16613E+04
 
   -0.54287E+04         0.13794E+03         0.00000E+00
    0.13794E+03        -0.54572E+02         0.00000E+00
    0.00000E+00         0.00000E+00        -0.16537E+04
 
   -0.53597E+04         0.17633E+03         0.00000E+00
    0.17633E+03        -0.84304E+02         0.00000E+00
    0.00000E+00         0.00000E+00        -0.16438E+04
 
   -0.52754E+04         0.21680E+03         0.00000E+00
    0.21680E+03        -0.12148E+03         0.00000E+00
    0.00000E+00         0.00000E+00        -0.16314E+04
 
   -0.51748E+04         0.25897E+03         0.00000E+00
    0.25897E+03        -0.16643E+03         0.00000E+00
    0.00000E+00         0.00000E+00        -0.16165E+04
 
   -0.50572E+04         0.30246E+03         0.00000E+00
    0.30246E+03        -0.21941E+03         0.00000E+00
    0.00000E+00         0.00000E+00        -0.15988E+04
 
   -0.49219E+04         0.34691E+03         0.00000E+00
    0.34691E+03        -0.28061E+03         0.00000E+00
    0.00000E+00         0.00000E+00        -0.15782E+04
 
   -0.47685E+04         0.39193E+03         0.00000E+00
    0.39193E+03        -0.35014E+03         0.00000E+00
    0.00000E+00         0.00000E+00        -0.15546E+04
 
   -0.45966E+04         0.43716E+03         0.00000E+00
    0.43716E+03        -0.42804E+03         0.00000E+00
    0.00000E+00         0.00000E+00        -0.15279E+04
 
   -0.44058E+04         0.48224E+03         0.00000E+00
    0.48224E+03        -0.51430E+03         0.00000E+00
    0.00000E+00         0.00000E+00        -0.14979E+04
 
   -0.41961E+04         0.52682E+03         0.00000E+00
    0.52682E+03        -0.60883E+03         0.00000E+00
    0.00000E+00         0.00000E+00        -0.14647E+04
 
   -0.39673E+04         0.57053E+03         0.00000E+00
    0.57053E+03        -0.71148E+03         0.00000E+00
    0.00000E+00         0.00000E+00        -0.14281E+04
 
   -0.37197E+04         0.61301E+03         0.00000E+00
    0.61301E+03        -0.82206E+03         0.00000E+00
    0.00000E+00         0.00000E+00        -0.13880E+04
 
   -0.34533E+04         0.65392E+03         0.00000E+00
    0.65392E+03        -0.94030E+03         0.00000E+00
    0.00000E+00         0.00000E+00        -0.13446E+04
 
   -0.31684E+04         0.69288E+03         0.00000E+00
    0.69288E+03        -0.10659E+04         0.00000E+00
    0.00000E+00         0.00000E+00        -0.12977E+04
 
   -0.28656E+04         0.72951E+03         0.00000E+00
    0.72951E+03        -0.11984E+04         0.00000E+00
    0.00000E+00         0.00000E+00        -0.12473E+04
 
   -0.25453E+04         0.76340E+03         0.00000E+00
    0.76340E+03        -0.13374E+04         0.00000E+00
    0.00000E+00         0.00000E+00        -0.11936E+04
 
   -0.22083E+04         0.79413E+03         0.00000E+00
    0.79413E+03        -0.14825E+04         0.00000E+00
    0.00000E+00         0.00000E+00        -0.11365E+04
 
   -0.18554E+04         0.82125E+03         0.00000E+00
    0.82125E+03        -0.16329E+04         0.00000E+00
    0.00000E+00         0.00000E+00        -0.10762E+04
 
   -0.14876E+04         0.84427E+03         0.00000E+00
    0.84427E+03        -0.17881E+04         0.00000E+00
    0.00000E+00         0.00000E+00        -0.10126E+04
 
   -0.11060E+04         0.86269E+03         0.00000E+00
    0.86269E+03        -0.19472E+04         0.00000E+00
    0.00000E+00         0.00000E+00        -0.94603E+03
 
   -0.55490E+04         0.97532E+01         0.00000E+00
    0.97532E+01        -0.84880E+00         0.00000E+00
    0.00000E+00         0.00000E+00        -0.16659E+04
 
   -0.55276E+04         0.31464E+02         0.00000E+00
    0.31464E+02        -0.55037E+01         0.00000E+00
    0.00000E+00         0.00000E+00        -0.16629E+04
 
   -0.54956E+04         0.55910E+02         0.00000E+00
    0.55910E+02        -0.15431E+02         0.00000E+00
    0.00000E+00         0.00000E+00        -0.16582E+04
 
   -0.54518E+04         0.82870E+02         0.00000E+00
    0.82870E+02        -0.31235E+02         0.00000E+00
    0.00000E+00         0.00000E+00        -0.16517E+04
 
   -0.53949E+04         0.11209E+03         0.00000E+00
    0.11209E+03        -0.53462E+02         0.00000E+00
    0.00000E+00         0.00000E+00        -0.16432E+04
 
   -0.53240E+04         0.14331E+03         0.00000E+00
    0.14331E+03        -0.82588E+02         0.00000E+00
    0.00000E+00         0.00000E+00        -0.16325E+04
 
   -0.52379E+04         0.17622E+03         0.00000E+00
    0.17622E+03        -0.11902E+03         0.00000E+00
    0.00000E+00         0.00000E+00        -0.16194E+04
 
   -0.51359E+04         0.21054E+03         0.00000E+00
    0.21054E+03        -0.16310E+03         0.00000E+00
    0.00000E+00         0.00000E+00        -0.16038E+04
 
   -0.50173E+04         0.24596E+03         0.00000E+00
    0.24596E+03        -0.21509E+03         0.00000E+00
    0.00000E+00         0.00000E+00        -0.15855E+04
 
   -0.48813E+04         0.28217E+03         0.00000E+00
    0.28217E+03        -0.27519E+03         0.00000E+00
    0.00000E+00         0.00000E+00        -0.15644E+04
 
   -0.47275E+04         0.31887E+03         0.00000E+00
    0.31887E+03        -0.34353E+03         0.00000E+00
    0.00000E+00         0.00000E+00        -0.15403E+04
 
   -0.45555E+04         0.35577E+03         0.00000E+00
    0.35577E+03        -0.42016E+03         0.00000E+00
    0.00000E+00         0.00000E+00        -0.15132E+04
 
   -0.43651E+04         0.39256E+03         0.00000E+00
    0.39256E+03        -0.50507E+03         0.00000E+00
    0.00000E+00         0.00000E+00        -0.14829E+04
 
   -0.41559E+04         0.42894E+03         0.00000E+00
    0.42894E+03        -0.59820E+03         0.00000E+00
    0.00000E+00         0.00000E+00        -0.14494E+04
 
   -0.39282E+04         0.46464E+03         0.00000E+00
    0.46464E+03        -0.69941E+03         0.00000E+00
    0.00000E+00         0.00000E+00        -0.14127E+04
 
   -0.36818E+04         0.49934E+03         0.00000E+00
    0.49934E+03        -0.80851E+03         0.00000E+00
    0.00000E+00         0.00000E+00        -0.13726E+04
 
   -0.34170E+04         0.53275E+03         0.00000E+00
    0.53275E+03        -0.92523E+03         0.00000E+00
    0.00000E+00         0.00000E+00        -0.13291E+04
 
   -0.31341E+04         0.56457E+03         0.00000E+00
    0.56457E+03        -0.10493E+04         0.00000E+00
    0.00000E+00         0.00000E+00        -0.12823E+04
 
   -0.28335E+04         0.59447E+03         0.00000E+00
    0.59447E+03        -0.11802E+04         0.00000E+00
    0.00000E+00         0.00000E+00        -0.12322E+04
 
   -0.25159E+04         0.62212E+03         0.00000E+00
    0.62212E+03        -0.13176E+04         0.00000E+00
    0.00000E+00         0.00000E+00        -0.11788E+04
 
   -0.21820E+04         0.64717E+03         0.00000E+00
    0.64717E+03        -0.14610E+04         0.00000E+00
    0.00000E+00         0.00000E+00        -0.11221E+04
 
   -0.18326E+04         0.66925E+03         0.00000E+00
    0.66925E+03        -0.16097E+04         0.00000E+00
    0.00000E+00         0.00000E+00        -0.10623E+04
 
   -0.14688E+04         0.68795E+03         0.00000E+00
    0.68795E+03        -0.17630E+04         0.00000E+00
    0.00000E+00         0.00000E+00        -0.99943E+03
 
   -0.10917E+04         0.70286E+03         0.00000E+00
    0.70286E+03        -0.19202E+04         0.00000E+00
    0.00000E+00         0.00000E+00        -0.93359E+03
 
   -0.55310E+04         0.75531E+01         0.00000E+00
    0.75531E+01        -0.83743E+00         0.00000E+00
    0.00000E+00         0.00000E+00        -0.16605E+04
 
   -0.55071E+04         0.24355E+02         0.00000E+00
    0.24355E+02        -0.54248E+01         0.00000E+00
    0.00000E+00         0.00000E+00        -0.16567E+04
 
   -0.54728E+04         0.43264E+02         0.00000E+00
    0.43264E+02        -0.15199E+02         0.00000E+00
    0.00000E+00         0.00000E+00        -0.16513E+04
 
   -0.54269E+04         0.64117E+02         0.00000E+00
    0.64117E+02        -0.30753E+02         0.00000E+00
    0.00000E+00         0.00000E+00        -0.16441E+04
 
   -0.53681E+04         0.86724E+02         0.00000E+00
    0.86724E+02        -0.52624E+02         0.00000E+00
    0.00000E+00         0.00000E+00        -0.16349E+04
 
   -0.52955E+04         0.11088E+03         0.00000E+00
    0.11088E+03        -0.81287E+02         0.00000E+00
    0.00000E+00         0.00000E+00        -0.16236E+04
 
   -0.52081E+04         0.13636E+03         0.00000E+00
    0.13636E+03        -0.11715E+03         0.00000E+00
    0.00000E+00         0.00000E+00        -0.16099E+04
 
   -0.51050E+04         0.16294E+03         0.00000E+00
    0.16294E+03        -0.16056E+03         0.00000E+00
    0.00000E+00         0.00000E+00        -0.15938E+04
 
   -0.49855E+04         0.19038E+03         0.00000E+00
    0.19038E+03        -0.21179E+03         0.00000E+00
    0.00000E+00         0.00000E+00        -0.15750E+04
 
   -0.48489E+04         0.21845E+03         0.00000E+00
    0.21845E+03        -0.27103E+03         0.00000E+00
    0.00000E+00         0.00000E+00        -0.15534E+04
 
   -0.46948E+04         0.24691E+03         0.00000E+00
    0.24691E+03        -0.33844E+03         0.00000E+00
    0.00000E+00         0.00000E+00        -0.15290E+04
 
   -0.45228E+04         0.27554E+03         0.00000E+00
    0.27554E+03        -0.41408E+03         0.00000E+00
    0.00000E+00         0.00000E+00        -0.15015E+04
 
   -0.43325E+04         0.30409E+03         0.00000E+00
    0.30409E+03        -0.49794E+03         0.00000E+00
    0.00000E+00         0.00000E+00        -0.14710E+04
 
   -0.41239E+04         0.33234E+03         0.00000E+00
    0.33234E+03        -0.58997E+03         0.00000E+00
    0.00000E+00         0.00000E+00        -0.14373E+04
 
   -0.38969E+04         0.36006E+03         0.00000E+00
    0.36006E+03        -0.69005E+03         0.00000E+00
    0.00000E+00         0.00000E+00        -0.14004E+04
 
   -0.36515E+04         0.38701E+03         0.00000E+00
    0.38701E+03        -0.79798E+03         0.00000E+00
    0.00000E+00         0.00000E+00        -0.13603E+04
 
   -0.33880E+04         0.41296E+03         0.00000E+00
    0.41296E+03        -0.91350E+03         0.00000E+00
    0.00000E+00         0.00000E+00        -0.13169E+04
 
   -0.31066E+04         0.43767E+03         0.00000E+00
    0.43767E+03        -0.10363E+04         0.00000E+00
    0.00000E+00         0.00000E+00        -0.12702E+04
 
   -0.28079E+04         0.46088E+03         0.00000E+00
    0.46088E+03        -0.11660E+04         0.00000E+00
    0.00000E+00         0.00000E+00        -0.12203E+04
 
   -0.24925E+04         0.48233E+03         0.00000E+00
    0.48233E+03        -0.13021E+04         0.00000E+00
    0.00000E+00         0.00000E+00        -0.11671E+04
 
   -0.21611E+04         0.50176E+03         0.00000E+00
    0.50176E+03        -0.14441E+04         0.00000E+00
    0.00000E+00         0.00000E+00        -0.11108E+04
 
   -0.18145E+04         0.51885E+03         0.00000E+00
    0.51885E+03        -0.15914E+04         0.00000E+00
    0.00000E+00         0.00000E+00        -0.10514E+04
 
   -0.14538E+04         0.53331E+03         0.00000E+00
    0.53331E+03        -0.17433E+04         0.00000E+00
    0.00000E+00         0.00000E+00        -0.98901E+03
 
   -0.10803E+04         0.54481E+03         0.00000E+00
    0.54481E+03        -0.18989E+04         0.00000E+00
    0.00000E+00         0.00000E+00        -0.92378E+03
 
   -0.55176E+04         0.53784E+01         0.00000E+00
    0.53784E+01        -0.82955E+00         0.00000E+00
    0.00000E+00         0.00000E+00        -0.16565E+04
 
   -0.54918E+04         0.17335E+02         0.00000E+00
    0.17335E+02        -0.53695E+01         0.00000E+00
    0.00000E+00         0.00000E+00        -0.16521E+04
 
   -0.54558E+04         0.30788E+02         0.00000E+00
    0.30788E+02        -0.15035E+02         0.00000E+00
    0.00000E+00         0.00000E+00        -0.16461E+04
 
   -0.54083E+04         0.45621E+02         0.00000E+00
    0.45621E+02        -0.30410E+02         0.00000E+00
    0.00000E+00         0.00000E+00        -0.16384E+04
 
   -0.53481E+04         0.61705E+02         0.00000E+00
    0.61705E+02        -0.52025E+02         0.00000E+00
    0.00000E+00         0.00000E+00        -0.16287E+04
 
   -0.52742E+04         0.78893E+02         0.00000E+00
    0.78893E+02        -0.80353E+02         0.00000E+00
    0.00000E+00         0.00000E+00        -0.16169E+04
 
   -0.51858E+04         0.97029E+02         0.00000E+00
    0.97029E+02        -0.11580E+03         0.00000E+00
    0.00000E+00         0.00000E+00        -0.16028E+04
 
   -0.50818E+04         0.11595E+03         0.00000E+00
    0.11595E+03        -0.15872E+03         0.00000E+00
    0.00000E+00         0.00000E+00        -0.15863E+04
 
   -0.49617E+04         0.13550E+03         0.00000E+00
    0.13550E+03        -0.20939E+03         0.00000E+00
    0.00000E+00         0.00000E+00        -0.15671E+04
 
   -0.48247E+04         0.15550E+03         0.00000E+00
    0.15550E+03        -0.26802E+03         0.00000E+00
    0.00000E+00         0.00000E+00        -0.15452E+04
 
   -0.46704E+04         0.17578E+03         0.00000E+00
    0.17578E+03        -0.33474E+03         0.00000E+00
    0.00000E+00         0.00000E+00        -0.15205E+04
 
   -0.44983E+04         0.19619E+03         0.00000E+00
    0.19619E+03        -0.40965E+03         0.00000E+00
    0.00000E+00         0.00000E+00        -0.14928E+04
 
   -0.43082E+04         0.21655E+03         0.00000E+00
    0.21655E+03        -0.49274E+03         0.00000E+00
    0.00000E+00         0.00000E+00        -0.14621E+04
 
   -0.40999E+04         0.23670E+03         0.00000E+00
    0.23670E+03        -0.58396E+03         0.00000E+00
    0.00000E+00         0.00000E+00        -0.14283E+04
 
   -0.38734E+04         0.25648E+03         0.00000E+00
    0.25648E+03        -0.68320E+03         0.00000E+00
    0.00000E+00         0.00000E+00        -0.13913E+04
 
   -0.36288E+04         0.27571E+03         0.00000E+00
    0.27571E+03        -0.79026E+03         0.00000E+00
    0.00000E+00         0.00000E+00        -0.13512E+04
 
   -0.33662E+04         0.29422E+03         0.00000E+00
    0.29422E+03        -0.90489E+03         0.00000E+00
    0.00000E+00         0.00000E+00        -0.13078E+04
 
   -0.30861E+04         0.31185E+03         0.00000E+00
    0.31185E+03        -0.10268E+04         0.00000E+00
    0.00000E+00         0.00000E+00        -0.12612E+04
 
   -0.27888E+04         0.32840E+03         0.00000E+00
    0.32840E+03        -0.11555E+04         0.00000E+00
    0.00000E+00         0.00000E+00        -0.12114E+04
 
   -0.24750E+04         0.34370E+03         0.00000E+00
    0.34370E+03        -0.12907E+04         0.00000E+00
    0.00000E+00         0.00000E+00        -0.11584E+04
 
   -0.21454E+04         0.35754E+03         0.00000E+00
    0.35754E+03        -0.14317E+04         0.00000E+00
    0.00000E+00         0.00000E+00        -0.11023E+04
 
   -0.18010E+04         0.36971E+03         0.00000E+00
    0.36971E+03        -0.15779E+04         0.00000E+00
    0.00000E+00         0.00000E+00        -0.10433E+04
 
   -0.14427E+04         0.37999E+03         0.00000E+00
    0.37999E+03        -0.17287E+04         0.00000E+00
    0.00000E+00         0.00000E+00        -0.98127E+03
 
   -0.10718E+04         0.38816E+03         0.00000E+00
    0.38816E+03        -0.18832E+04         0.00000E+00
    0.00000E+00         0.00000E+00        -0.91650E+03
 
   -0.55087E+04         0.32206E+01         0.00000E+00
    0.32206E+01        -0.82462E+00         0.00000E+00
    0.00000E+00         0.00000E+00        -0.16538E+04
 
   -0.54817E+04         0.10378E+02         0.00000E+00
    0.10378E+02        -0.53345E+01         0.00000E+00
    0.00000E+00         0.00000E+00        -0.16490E+04
 
   -0.54445E+04         0.18427E+02         0.00000E+00
    0.18427E+02        -0.14931E+02         0.00000E+00
    0.00000E+00         0.00000E+00        -0.16427E+04
 
   -0.53959E+04         0.27304E+02         0.00000E+00
    0.27304E+02        -0.30190E+02         0.00000E+00
    0.00000E+00         0.00000E+00        -0.16346E+04
 
   -0.53348E+04         0.36928E+02         0.00000E+00
    0.36928E+02        -0.51639E+02         0.00000E+00
    0.00000E+00         0.00000E+00        -0.16246E+04
 
   -0.52601E+04         0.47215E+02         0.00000E+00
    0.47215E+02        -0.79750E+02         0.00000E+00
    0.00000E+00         0.00000E+00        -0.16125E+04
 
   -0.51709E+04         0.58072E+02         0.00000E+00
    0.58072E+02        -0.11493E+03         0.00000E+00
    0.00000E+00         0.00000E+00        -0.15981E+04
 
   -0.50664E+04         0.69402E+02         0.00000E+00
    0.69402E+02        -0.15753E+03         0.00000E+00
    0.00000E+00         0.00000E+00        -0.15813E+04
 
   -0.49459E+04         0.81107E+02         0.00000E+00
    0.81107E+02        -0.20783E+03         0.00000E+00
    0.00000E+00         0.00000E+00        -0.15619E+04
 
   -0.48086E+04         0.93086E+02         0.00000E+00
    0.93086E+02        -0.26605E+03         0.00000E+00
    0.00000E+00         0.00000E+00        -0.15398E+04
 
   -0.46541E+04         0.10524E+03         0.00000E+00
    0.10524E+03        -0.33233E+03         0.00000E+00
    0.00000E+00         0.00000E+00        -0.15149E+04
 
   -0.44820E+04         0.11747E+03         0.00000E+00
    0.11747E+03        -0.40676E+03         0.00000E+00
    0.00000E+00         0.00000E+00        -0.14871E+04
 
   -0.42920E+04         0.12967E+03         0.00000E+00
    0.12967E+03        -0.48934E+03         0.00000E+00
    0.00000E+00         0.00000E+00        -0.14562E+04
 
   -0.40839E+04         0.14175E+03         0.00000E+00
    0.14175E+03        -0.58003E+03         0.00000E+00
    0.00000E+00         0.00000E+00        -0.14223E+04
 
   -0.38578E+04         0.15361E+03         0.00000E+00
    0.15361E+03        -0.67872E+03         0.00000E+00
    0.00000E+00         0.00000E+00        -0.13853E+04
 
   -0.36137E+04         0.16513E+03         0.00000E+00
    0.16513E+03        -0.78520E+03         0.00000E+00
    0.00000E+00         0.00000E+00        -0.13451E+04
 
   -0.33518E+04         0.17623E+03         0.00000E+00
    0.17623E+03        -0.89925E+03         0.00000E+00
    0.00000E+00         0.00000E+00        -0.13017E+04
 
   -0.30724E+04         0.18680E+03         0.00000E+00
    0.18680E+03        -0.10205E+04         0.00000E+00
    0.00000E+00         0.00000E+00        -0.12552E+04
 
   -0.27760E+04         0.19672E+03         0.00000E+00
    0.19672E+03        -0.11486E+04         0.00000E+00
    0.00000E+00         0.00000E+00        -0.12055E+04
 
   -0.24633E+04         0.20589E+03         0.00000E+00
    0.20589E+03        -0.12831E+04         0.00000E+00
    0.00000E+00         0.00000E+00        -0.11526E+04
 
   -0.21350E+04         0.21418E+03         0.00000E+00
    0.21418E+03        -0.14235E+04         0.00000E+00
    0.00000E+00         0.00000E+00        -0.10967E+04
 
   -0.17920E+04         0.22147E+03         0.00000E+00
    0.22147E+03        -0.15690E+04         0.00000E+00
    0.00000E+00         0.00000E+00        -0.10379E+04
 
   -0.14353E+04         0.22762E+03         0.00000E+00
    0.22762E+03        -0.17190E+04         0.00000E+00
    0.00000E+00         0.00000E+00        -0.97615E+03
 
   -0.10662E+04         0.23250E+03         0.00000E+00
    0.23250E+03        -0.18728E+04         0.00000E+00
    0.00000E+00         0.00000E+00        -0.91169E+03
 
   -0.55042E+04         0.10725E+01         0.00000E+00
    0.10725E+01        -0.82224E+00         0.00000E+00
    0.00000E+00         0.00000E+00        -0.16525E+04
 
   -0.54766E+04         0.34553E+01         0.00000E+00
    0.34553E+01        -0.53176E+01         0.00000E+00
    0.00000E+00         0.00000E+00        -0.16475E+04
 
   -0.54388E+04         0.61351E+01         0.00000E+00
    0.61351E+01        -0.14880E+02         0.00000E+00
    0.00000E+00         0.00000E+00        -0.16410E+04
 
   -0.53897E+04         0.90898E+01         0.00000E+00
    0.90898E+01        -0.30083E+02         0.00000E+00
    0.00000E+00         0.00000E+00        -0.16327E+04
 
   -0.53281E+04         0.12294E+02         0.00000E+00
    0.12294E+02        -0.51451E+02         0.00000E+00
    0.00000E+00         0.00000E+00        -0.16225E+04
 
   -0.52531E+04         0.15718E+02         0.00000E+00
    0.15718E+02        -0.79454E+02         0.00000E+00
    0.00000E+00         0.00000E+00        -0.16103E+04
 
   -0.51635E+04         0.19333E+02         0.00000E+00
    0.19333E+02        -0.11450E+03         0.00000E+00
    0.00000E+00         0.00000E+00        -0.15957E+04
 
   -0.50588E+04         0.23106E+02         0.00000E+00
    0.23106E+02        -0.15695E+03         0.00000E+00
    0.00000E+00         0.00000E+00        -0.15788E+04
 
   -0.49380E+04         0.27004E+02         0.00000E+00
    0.27004E+02        -0.20707E+03         0.00000E+00
    0.00000E+00         0.00000E+00        -0.15593E+04
 
   -0.48005E+04         0.30994E+02         0.00000E+00
    0.30994E+02        -0.26508E+03         0.00000E+00
    0.00000E+00         0.00000E+00        -0.15371E+04
 
   -0.46459E+04         0.35042E+02         0.00000E+00
    0.35042E+02        -0.33114E+03         0.00000E+00
    0.00000E+00         0.00000E+00        -0.15121E+04
 
   -0.44738E+04         0.39116E+02         0.00000E+00
    0.39116E+02        -0.40533E+03         0.00000E+00
    0.00000E+00         0.00000E+00        -0.14842E+04
 
   -0.42839E+04         0.43181E+02         0.00000E+00
    0.43181E+02        -0.48766E+03         0.00000E+00
    0.00000E+00         0.00000E+00        -0.14533E+04
 
   -0.40759E+04         0.47206E+02         0.00000E+00
    0.47206E+02        -0.57809E+03         0.00000E+00
    0.00000E+00         0.00000E+00        -0.14194E+04
 
   -0.38500E+04         0.51155E+02         0.00000E+00
    0.51155E+02        -0.67650E+03         0.00000E+00
    0.00000E+00         0.00000E+00        -0.13823E+04
 
   -0.36061E+04         0.54996E+02         0.00000E+00
    0.54996E+02        -0.78270E+03         0.00000E+00
    0.00000E+00         0.00000E+00        -0.13421E+04
 
   -0.33445E+04         0.58695E+02         0.00000E+00
    0.58695E+02        -0.89645E+03         0.00000E+00
    0.00000E+00         0.00000E+00        -0.12987E+04
 
   -0.30655E+04         0.62216E+02         0.00000E+00
    0.62216E+02        -0.10174E+04         0.00000E+00
    0.00000E+00         0.00000E+00        -0.12522E+04
 
   -0.27697E+04         0.65522E+02         0.00000E+00
    0.65522E+02        -0.11452E+04         0.00000E+00
    0.00000E+00         0.00000E+00        -0.12025E+04
 
   -0.24575E+04         0.68575E+02         0.00000E+00
    0.68575E+02        -0.12794E+04         0.00000E+00
    0.00000E+00         0.00000E+00        -0.11498E+04
 
   -0.21298E+04         0.71336E+02         0.00000E+00
    0.71336E+02        -0.14194E+04         0.00000E+00
    0.00000E+00         0.00000E+00        -0.10940E+04
 
   -0.17875E+04         0.73762E+02         0.00000E+00
    0.73762E+02        -0.15646E+04         0.00000E+00
    0.00000E+00         0.00000E+00        -0.10352E+04
 
   -0.14316E+04         0.75810E+02         0.00000E+00
    0.75810E+02        -0.17142E+04         0.00000E+00
    0.00000E+00         0.00000E+00        -0.97361E+03
 
   -0.10635E+04         0.77432E+02         0.00000E+00
    0.77432E+02        -0.18676E+04         0.00000E+00
    0.00000E+00         0.00000E+00        -0.90929E+03
 
SCALARS stresss double 
LOOKUP_TABLE default
  -68948.1300956767     
  -67745.9726781527     
  -62354.0092982868     
  -55891.1256911879     
  -49587.9213444684     
  -43717.0386776079     
  -38366.7688286774     
  -33774.1525276247     
  -29784.9737602179     
  -26320.5463023144     
  -23344.0693511194     
  -20721.3921987296     
  -18356.2000266787     
  -16186.1572374338     
  -14202.9296649566     
  -12467.5132179510     
  -10935.7454531187     
  -9597.79022526208     
  -8392.16594826816     
  -7511.08277617361     
  -7809.97907553506     
  -8276.74087633898     
  -8765.19178969864     
  -9293.77573996552     
  -68517.5745320006     
  -63264.2275878019     
  -57763.5236364748     
  -52439.0753294179     
  -46913.1832232314     
  -41653.5691866229     
  -36893.2181208511     
  -32714.9129586828     
  -29049.2970626413     
  -25753.4468853472     
  -22862.0577341779     
  -20302.4046597968     
  -17997.1592993509     
  -15894.0637252081     
  -14003.2873255052     
  -12344.3729409103     
  -10850.5010519828     
  -9521.09663522235     
  -8337.05716820143     
  -7498.25500110462     
  -7810.17613017347     
  -8251.89659818639     
  -8723.01252835999     
  -9239.14088193364     
  -55135.8260856599     
  -50203.6376304521     
  -49013.7281144968     
  -45650.3884995851     
  -41899.9617204732     
  -37933.8939746176     
  -34122.8238913495     
  -30603.9649811661     
  -27401.9658783001     
  -24464.7194522284     
  -21773.1573804783     
  -19396.4619024556     
  -17291.8848890215     
  -15374.1046345427     
  -13636.6032806175     
  -12052.8407915165     
  -10630.3585312472     
  -9365.72145845282     
  -8225.76147236672     
  -7479.95493096109     
  -7798.51791405483     
  -8194.89121667763     
  -8635.08032356288     
  -9126.71615960149     
  -21961.1146020829     
  -37432.2836084378     
  -37403.8423773325     
  -36739.9839447879     
  -34848.5915479640     
  -32488.2461306514     
  -29885.1088800314     
  -27258.8057991631     
  -24755.5976522199     
  -22374.6617578725     
  -20175.4645789866     
  -18132.2201933168     
  -16270.8959250987     
  -14607.2047197345     
  -13093.0930684517     
  -11698.5929034905     
  -10375.1428437188     
  -9137.05410793339     
  -8035.46213610179     
  -7456.00878948315     
  -7748.55375288799     
  -8095.97559803774     
  -8496.45520488929     
  -8952.56523458049     
  -481.310433460298     
  -18874.8105031251     
  -25836.2308040578     
  -27392.6426750480     
  -27484.5108785883     
  -26582.7608361278     
  -25175.7807870929     
  -23514.1805360184     
  -21760.1552924450     
  -19993.4096779950     
  -18301.5497063299     
  -16692.4232060205     
  -15149.5412919441     
  -13736.3787698177     
  -12413.0432331861     
  -11163.8876342222     
  -9989.30557148866     
  -8841.44191463241     
  -7755.23190053648     
  -7399.79665516272     
  -7643.66596300697     
  -7947.14030540413     
  -8304.59537069950     
  -8715.43208189352     
  -504.400979365470     
  -12469.0905791860     
  -18801.2325807236     
  -21473.4007782044     
  -22225.9718266940     
  -22057.2829206546     
  -21322.9466972647     
  -20258.8268132172     
  -19029.2554433354     
  -17716.3801133982     
  -16381.3316258057     
  -15060.3738499568     
  -13841.3914508208     
  -12676.2609383796     
  -11532.6470668483     
  -10419.6904535748     
  -9371.32528557186     
  -8315.79364419585     
  -7349.33525918763     
  -7273.75279947605     
  -7479.27550244326     
  -7748.53954309926     
  -8061.64310932756     
  -8419.71557200893     
   448.889351153976     
  -8672.49815790123     
  -14605.5920102889     
  -16972.1899676115     
  -18159.4103372606     
  -18411.0105379295     
  -18100.7192964639     
  -17438.1364179666     
  -16581.1999949094     
  -15613.7545820167     
  -14565.7827570387     
  -13511.0939005614     
  -12488.7608300562     
  -11492.6008772018     
  -10545.5765544427     
  -9602.71110270703     
  -8652.66602928798     
  -7712.42316067533     
  -6939.06324066209     
  -7052.99588421852     
  -7269.69880770655     
  -7506.71385286770     
  -7775.52592099104     
  -8075.96328693985     
  -384.987905860028     
  -6227.00423864642     
  -10779.8864320897     
  -13622.1478171132     
  -14810.7369648175     
  -15258.7181279045     
  -15295.6601896227     
  -14938.1120085057     
  -14367.1305445207     
  -13639.4117680021     
  -12817.1205357743     
  -11956.8955880663     
  -11124.8886386398     
  -10312.0738054408     
  -9494.99666693098     
  -8687.15715944743     
  -7863.14265780508     
  -7037.18811797894     
  -6608.03781059674     
  -6828.51861599950     
  -7027.15369993359     
  -7234.55170526485     
  -7457.64808197463     
  -7699.03046965582     
  -1185.82877482663     
  -5050.07161247788     
  -8629.64491169945     
  -10842.6825447728     
  -12106.2194720660     
  -12637.3608811292     
  -12779.9934420296     
  -12636.4920182664     
  -12294.3348241232     
  -11767.2760798730     
  -11139.8980151809     
  -10474.2453211604     
  -9802.01677832663     
  -9113.79894214945     
  -8427.25116917239     
  -7755.12958535297     
  -7035.16108054027     
  -6390.17614881576     
  -6442.57832707008     
  -6606.18089288342     
  -6773.69784628055     
  -6943.55970737859     
  -7120.65359463360     
  -7304.46786321225     
  -1987.42084446650     
  -4602.98504647509     
  -6916.79151261533     
  -8727.50153939663     
  -9853.97247893592     
  -10461.1963632317     
  -10675.1723983571     
  -10628.8764880140     
  -10419.6515794474     
  -10056.9939502210     
  -9582.19647758758     
  -9061.17038173954     
  -8515.80753683202     
  -7974.97534230360     
  -7395.68117541661     
  -6816.17870709834     
  -6229.60742726497     
  -6167.65142626387     
  -6269.60212738420     
  -6389.20860805388     
  -6514.53695380060     
  -6644.00991364504     
  -6775.28484061225     
  -6905.58392865219     
  -2647.06695487787     
  -4370.02011211892     
  -5997.16174558416     
  -7311.96869302333     
  -8124.03840818662     
  -8620.44367924548     
  -8892.07093685846     
  -8918.07613072604     
  -8800.99381375124     
  -8522.04034057964     
  -8170.15093605976     
  -7775.33003315031     
  -7338.42538202702     
  -6850.84987402166     
  -6409.17683476781     
  -6040.60316124978     
  -5979.03801092504     
  -6029.19875743556     
  -6088.25650577682     
  -6165.95671231007     
  -6252.27622470742     
  -6341.54633638891     
  -6429.68082754644     
  -6511.88627401728     
  -3131.54105036454     
  -4286.55300734593     
  -5415.00564667860     
  -6357.83431101022     
  -7048.22115390495     
  -7348.06890532192     
  -7421.34236803578     
  -7464.47272101017     
  -7369.25327465069     
  -7167.51251747401     
  -6889.50152163958     
  -6569.21952564256     
  -6247.48886947134     
  -6021.83498472778     
  -5886.06338910911     
  -5862.63689017997     
  -5854.74953747316     
  -5858.47860236468     
  -5891.45223952023     
  -5935.62877280999     
  -5987.06555205279     
  -6039.92423911762     
  -6089.12193025045     
  -6129.34862022170     
  -3461.35836053986     
  -4243.99274628455     
  -5032.76211226083     
  -5726.18759548460     
  -6239.08622524742     
  -6553.07138681296     
  -6681.52445098680     
  -6588.14726469365     
  -6421.50074752457     
  -6247.61078255955     
  -6085.22209841883     
  -5944.40541987717     
  -5871.79920193398     
  -5810.44671995725     
  -5747.18295512452     
  -5698.27273565620     
  -5677.59771979391     
  -5673.11869342595     
  -5680.74350153957     
  -5698.68814964363     
  -5720.55902892605     
  -5741.67065550605     
  -5757.00519119433     
  -5761.33540135165     
  -3660.25595231678     
  -4202.97202675801     
  -4764.94613107162     
  -5273.22119178594     
  -5677.50387424307     
  -5950.58762630842     
  -6082.29002860252     
  -6101.01308439830     
  -6038.26417967521     
  -5941.11085409188     
  -5837.11350341158     
  -5746.22039210847     
  -5669.93966978212     
  -5609.70114389632     
  -5558.28654190596     
  -5516.93802825902     
  -5487.55648896904     
  -5470.23245368654     
  -5461.36360639920     
  -5457.41636759418     
  -5454.76705268885     
  -5448.96101384391     
  -5435.52144475966     
  -5409.65328796310     
  -3758.19353444180     
  -4147.54360228936     
  -4556.89307743305     
  -4938.69525834885     
  -5256.18281377317     
  -5487.01681705738     
  -5626.78102754013     
  -5684.01121082021     
  -5680.26872565150     
  -5638.10390002652     
  -5579.07968113987     
  -5516.38247967829     
  -5457.84150163982     
  -5405.10911832369     
  -5359.00219700608     
  -5319.21620548508     
  -5286.09131877080     
  -5258.97316032142     
  -5236.14356710704     
  -5214.85858485978     
  -5191.88945504956     
  -5163.65443380611     
  -5126.18374905983     
  -5075.24468800307     
  -3782.35360805464     
  -4073.74900087793     
  -4381.69310654953     
  -4674.67907142429     
  -4927.17993325338     
  -5123.05326858109     
  -5256.31535926238     
  -5330.95975029540     
  -5357.38963762210     
  -5349.61403742060     
  -5320.72723831488     
  -5281.33466268980     
  -5238.09181196510     
  -5194.86721118862     
  -5153.32417332479     
  -5114.26678865579     
  -5077.71937924195     
  -5043.12104458472     
  -5009.11189727382     
  -4973.63484139271     
  -4934.06094101639     
  -4887.33683559479     
  -4830.07201928352     
  -4758.58284791874     
  -3755.43467958776     
  -3984.07001432156     
  -4224.07817190357     
  -4454.97447962172     
  -4659.39707876432     
  -4825.42885399235     
  -4947.69855609871     
  -5026.90157952081     
  -5068.50570174447     
  -5080.47743347939     
  -5071.36359925078     
  -5048.55796590523     
  -5017.68425741839     
  -4982.42025388541     
  -4944.96585529696     
  -4906.38359770210     
  -4866.95335425906     
  -4826.25104845114     
  -4783.22419228535     
  -4736.22791400193     
  -4683.11468353795     
  -4621.32352854407     
  -4547.95910790229     
  -4459.85670764812     
  -3695.26712960782     
  -3882.96670709177     
  -4076.96066526706     
  -4264.10660695552     
  -4432.69815003276     
  -4574.18201015751     
  -4683.97616362138     
  -4761.46284427666     
  -4809.20949696677     
  -4831.83264201975     
  -4834.71123597602     
  -4822.99466142106     
  -4800.93824689740     
  -4771.69318455437     
  -4737.32439877199     
  -4698.98831613225     
  -4657.07886359930     
  -4611.35021497131     
  -4560.98394805684     
  -4504.65431870387     
  -4440.59095311934     
  -4366.64815403257     
  -4280.37079509486     
  -4179.05474684521     
  -3615.14308336806     
  -3775.24322718458     
  -3937.35547810649     
  -4093.13771796702     
  -4234.78592314381     
  -4356.23822258147     
  -4453.84829575141     
  -4526.49565066445     
  -4575.24197858676     
  -4602.67475778380     
  -4612.16514065852     
  -4607.18960757825     
  -4590.85478707195     
  -4565.62879230859     
  -4533.26181780181     
  -4494.80627595339     
  -4450.68627478942     
  -4400.76549714565     
  -4344.41005325595     
  -4280.54297128491     
  -4207.69939277382     
  -4124.08193623748     
  -4027.61614172701     
  -3916.00410671261     
  -3524.59366590982     
  -3665.10391469441     
  -3804.33904303658     
  -3937.04931117435     
  -4058.07025057104     
  -4163.16332622288     
  -4249.53111810876     
  -4315.98521360106     
  -4362.80600548468     
  -4391.39287654303     
  -4403.81511555734     
  -4402.37707108724     
  -4389.26720511205     
  -4366.32797605270     
  -4334.93517571540     
  -4295.96113122679     
  -4249.78450130946     
  -4196.32306871505     
  -4135.07338536292     
  -4065.15349954140     
  -3985.34701225543     
  -3894.14883130407     
  -3789.81166704419     
  -3670.39253675908     
  -3430.19600952019     
  -3555.85439264322     
  -3677.89914021167     
  -3793.03902615645     
  -3897.86976010891     
  -3989.44989510519     
  -4065.68605399830     
  -4125.49989134493     
  -4168.79523855745     
  -4196.27515148802     
  -4209.17728334862     
  -4208.99255194336     
  -4197.21876040060     
  -4175.17573765040     
  -4143.88837680639     
  -4104.02680231331     
  -4055.88790303947     
  -3999.40206856797     
  -3934.15437490500     
  -3859.41352571149     
  -3774.16558671222     
  -3677.15076904773     
  -3566.90224437892     
  -3441.78605341885     
  -3336.31214543287     
  -3449.89142502317     
  -3558.31948180942     
  -3659.52322888991     
  -3751.25208202748     
  -3831.46700718132     
  -3898.61993496261     
  -3951.79894022200     
  -3990.74300674621     
  -4015.75281026479     
  -4027.53599610566     
  -4027.02777653168     
  -4015.22031078631     
  -3993.02277626013     
  -3961.16085868012     
  -3920.11466847790     
  -3870.08804676934     
  -3811.00085574004     
  -3742.49670898063     
  -3663.96082584242     
  -3574.54450804711     
  -3473.19411265081     
  -3358.68307869808     
  -3229.64598143342     
  -3245.69687332428     
  -3348.82043389817     
  -3445.88392384751     
  -3535.55540405829     
  -3616.32678116272     
  -3686.77251557764     
  -3745.74750751389     
  -3792.50335047820     
  -3826.72060478351     
  -3848.46959906464     
  -3858.12162900269     
  -3856.23527428325     
  -3843.44009392941     
  -3820.33376823736     
  -3787.40155524531     
  -3744.96042617515     
  -3693.12592085105     
  -3631.79758443778     
  -3560.65852844428     
  -3479.18525392459     
  -3386.66483096325     
  -3282.21734739732     
  -3164.82215702693     
  -3033.34685440819     
  -3159.97118606939     
  -3253.61363438895     
  -3340.75508527774     
  -3420.50209753786     
  -3491.81434891930     
  -3553.67385485963     
  -3605.22191672863     
  -3645.84733956723     
  -3675.22111321804     
  -3693.28274023447     
  -3700.19014888233     
  -3696.24813539706     
  -3681.82978858381     
  -3657.30244253888     
  -3622.96561765860     
  -3579.00442449087     
  -3525.45877330556     
  -3462.20682159867     
  -3388.96025273796     
  -3305.26891396843     
  -3210.53265619632     
  -3104.01865722207     
  -2984.88291224673     
  -2852.19490471296     
  -3079.97717095868     
  -3164.76535178414     
  -3242.94408485132     
  -3313.86968480738     
  -3376.78909165068     
  -3430.94843114725     
  -3475.68565227842     
  -3510.49470684320     
  -3535.05606410944     
  -3549.23495898545     
  -3553.05362619995     
  -3546.64637570840     
  -3530.20679996456     
  -3503.93515636345     
  -3467.99177562232     
  -3422.45991623232     
  -3367.31937292798     
  -3302.43062793141     
  -3227.52845976217     
  -3142.22356969046     
  -3046.01077555805     
  -2938.28248584420     
  -2818.34639273774     
  -2685.44655106413     
  -3006.03690546511     
  -3082.42641250803     
  -3152.32310892147     
  -3215.21794564922     
  -3270.52871532564     
  -3317.66802595802     
  -3356.10442105682     
  -3385.40737784080     
  -3405.27146690675     
  -3415.51929758222     
  -3416.08628591483     
  -3406.99238402041     
  -3388.30665140562     
  -3360.11016415743     
  -3322.46163597822     
  -3275.36869544940     
  -3218.76637915316     
  -3152.50328696230     
  -3076.33508814496     
  -2989.92464623945     
  -2892.84786762226     
  -2784.60438314875     
  -2664.63226791762     
  -2532.32614269375     
  -2938.13742015595     
  -3006.51245771970     
  -3068.65472153484     
  -3124.12171380898     
  -3172.42872274099     
  -3213.09000382352     
  -3245.65792756770     
  -3269.75338748246     
  -3285.08356113659     
  -3291.44594151185     
  -3288.71992141133     
  -3276.84882581171     
  -3255.81605963314     
  -3225.61906165274     
  -3186.24423649160     
  -3137.64522439886     
  -3079.72599067070     
  -3012.32943626865     
  -2935.23163575025     
  -2848.14141729091     
  -2750.70478784378     
  -2642.51362971463     
  -2523.11810820164     
  -2392.04229843374     
  -2876.06050598563     
  -2936.78726710971     
  -2991.62453899155     
  -3040.15793788500     
  -3081.95541565057     
  -3116.59103168260     
  -3143.66907938602     
  -3162.84379924248     
  -3173.83161055274     
  -3176.41461516750     
  -3170.43574363221     
  -3155.78711032037     
  -3132.39382766790     
  -3100.19572288228     
  -3059.12920672241     
  -3009.11110589201     
  -2950.02573066769     
  -2881.71592186795     
  -2803.97837873911     
  -2716.56324359642     
  -2619.17771055176     
  -2511.49331672972     
  -2393.15654084438     
  -2263.80235329081     
  -2819.47224255516     
  -2872.92463675323     
  -2920.87106308773     
  -2962.90517686522     
  -2998.62137333391     
  -3027.62747237099     
  -3049.55879165418     
  -3064.09026912886     
  -3070.94431308493     
  -3069.89322098836     
  -3060.75610043533     
  -3043.39109106029     
  -3017.68424393046     
  -2983.53665615568     
  -2940.85143027310     
  -2889.52180969059     
  -2829.42152064414     
  -2760.39800469613     
  -2682.26890941548     
  -2594.82195005191     
  -2497.81807249425     
  -2390.99773392580     
  -2274.09006109440     
  -2146.82463342595     
  -2767.98354943191     
  -2814.55294098660     
  -2856.01030357466     
  -2891.94834801828     
  -2921.97360561459     
  -2945.71224539271     
  -2962.81758816131     
  -2972.97701200993     
  -2975.91654119957     
  -2971.40214474208     
  -2959.23750023136     
  -2939.25859248608     
  -2911.32594947861     
  -2875.31554961664     
  -2831.10948223139     
  -2778.58734931152     
  -2717.61921357322     
  -2648.06067634342     
  -2569.75044876645     
  -2482.51058818997     
  -2386.14942162882     
  -2280.46707284725     
  -2165.26344488246     
  -2040.34847822051     
  -2721.19013255610     
  -2761.28624223130     
  -2796.65476476557     
  -2826.88493007126     
  -2851.58852827713     
  -2870.40164653847     
  -2882.98804557181     
  -2889.04260806496     
  -2888.29363226024     
  -2880.50320171062     
  -2865.46534354780     
  -2843.00211600354     
  -2812.95809061738     
  -2775.19389316992     
  -2729.57954271926     
  -2675.98830112776     
  -2614.29164668592     
  -2544.35584710608     
  -2466.04045737005     
  -2379.19892740596     
  -2283.68138590849     
  -2179.33957511355     
  -2066.03384682950     
  -1943.64208873996     
  -2678.69792864402     
  -2712.74523272668     
  -2742.42726816591     
  -2767.33076092348     
  -2787.07034413542     
  -2801.28803129263     
  -2809.65410840782     
  -2811.86839729874     
  -2807.66102905510     
  -2796.79214726565     
  -2779.05027434076     
  -2754.24936869412     
  -2722.22483776427     
  -2682.82893148682     
  -2635.92601906831     
  -2581.38825788108     
  -2519.09211407357     
  -2448.91611012433     
  -2370.74007403373     
  -2284.44606342957     
  -2189.92104600741     
  -2087.06134106145     
  -1975.77876693613     
  -1856.00839449758     
  -2640.13845032627     
  -2668.57065566368     
  -2692.97042435725     
  -2712.92464458076     
  -2728.05089659860     
  -2737.99582624343     
  -2742.43466217018     
  -2741.07119184394     
  -2733.63760679476     
  -2719.89379570402     
  -2699.62586546117     
  -2672.64386969283     
  -2638.77889381949     
  -2597.87976849029     
  -2549.80975309888     
  -2494.44355081323     
  -2431.66499517017     
  -2361.36569788887     
  -2283.44488060107     
  -2197.81054051216     
  -2104.38202969491     
  -2003.09406478931     
  -1893.90213046500     
  -1776.78919580469     
  -2605.17718554070     
  -2628.43127169691     
  -2647.95262892572     
  -2663.33155508607     
  -2674.18995271542     
  -2680.17933022698     
  -2680.97967323200     
  -2676.29875153889     
  -2665.87147004023     
  -2649.45896908897     
  -2626.84730714222     
  -2597.84569130910     
  -2562.28434021708     
  -2520.01215493677     
  -2470.89443110253     
  -2414.81086852739     
  -2351.65412784128     
  -2281.32915400707     
  -2203.75344194282     
  -2118.85836733685     
  -2026.59165207784     
  -1926.92098262825     
  -1819.83875328393     
  -1705.36786495328     
  -2573.51729763105     
  -2592.02794812471     
  -2607.07138982576     
  -2618.24451066618     
  -2625.17539648253     
  -2627.52139780902     
  -2624.96782076799     
  -2617.22697877595     
  -2604.03735481629     
  -2585.16267764915     
  -2560.39079365928     
  -2529.53230295025     
  -2492.41900983022     
  -2448.90230379673     
  -2398.85163168715     
  -2342.15324313921     
  -2278.70939156616     
  -2208.43815536936     
  -2131.27401401176     
  -2047.16927582853     
  -1956.09641333975     
  -1858.05132053005     
  -1753.05746697389     
  -1641.17088649384     
  -2544.90021866570     
  -2559.09505593971     
  -2570.05467677305     
  -2577.38531615998     
  -2580.72311321477     
  -2579.73249132946     
  -2574.10495367519     
  -2563.55814615635     
  -2547.83503726290     
  -2526.70309125142     
  -2499.95335770410     
  -2467.39945605176     
  -2428.87648836416     
  -2384.23996001500     
  -2333.36482085563     
  -2276.14475717744     
  -2212.49186726677     
  -2142.33684272997     
  -2065.62975693674     
  -1982.34153413071     
  -1892.46614097637     
  -1796.02350892778     
  -1693.06316241720     
  -1583.66849526266     
  -2519.10425910433     
  -2529.40005417952     
  -2536.66085704122     
  -2540.50441017069     
  -2540.57651080413     
  -2536.54982913979     
  -2528.12297146232     
  -2515.01971681187     
  -2496.98834564337     
  -2473.80099011172     
  -2445.25296193170     
  -2411.16204813841     
  -2371.36780078656     
  -2325.73087812525     
  -2274.13251820068     
  -2216.47423910692     
  -2152.67786280919     
  -2082.68595246547     
  -2006.46273815795     
  -1923.99558497197     
  -1835.29703246601     
  -1740.40740751063     
  -1639.39798453384     
  -1532.37463919453     
  -2495.94202099669     
  -2502.74190697799     
  -2506.67766488089     
  -2507.38004785202     
  -2504.50570862426     
  -2497.73650233208     
  -2486.77889904024     
  -2471.36348425730     
  -2451.24451268138     
  -2426.19948260194     
  -2396.02871192060     
  -2360.55491704830     
  -2319.62281838281     
  -2273.09881667653     
  -2220.87080038871     
  -2162.84815326454     
  -2098.96203321002     
  -2029.16598828499     
  -1953.43696422528     
  -1871.77674160555     
  -1784.21382093853     
  -1690.80575194593     
  -1591.64187996460     
  -1486.84645872098     
  -2475.25716202305     
  -2478.94880195759     
  -2479.92055087486     
  -2477.81702471497     
  -2472.30646329650     
  -2463.08051612981     
  -2449.85403315799     
  -2432.36486994373     
  -2410.37370351521     
  -2383.66385242875     
  -2352.04110029703     
  -2315.33353310012     
  -2273.39141392382     
  -2226.08713152373     
  -2173.31526905319     
  -2114.99284492220     
  -2051.05977833602     
  -1981.47962753439     
  -1906.24063956064     
  -1825.35713730681     
  -1738.87125352490     
  -1646.85500338440     
  -1549.41266781239     
  -1446.68343995334     
  -2456.92088684865     
  -2457.87550645866     
  -2456.23067439626     
  -2451.64511436337     
  -2443.79891292235     
  -2432.39375829639     
  -2417.15310453987     
  -2397.82228941430     
  -2374.16862201728     
  -2345.98145125026     
  -2313.07222724048     
  -2275.27457297030     
  -2232.44439052907     
  -2184.46003360447     
  -2131.22258342421     
  -2072.65626815944     
  -2008.70906513471     
  -1939.35352085352     
  -1864.58781602995     
  -1784.43709197313     
  -1698.95504141632     
  -1608.22575188430     
  -1512.36577360337     
  -1411.52636737151     
  -2440.82842103051     
  -2439.40060017436     
  -2435.47273581747     
  -2428.71736039527     
  -2418.82621991305     
  -2405.51092017467     
  -2388.50343914004     
  -2367.55654431737     
  -2342.44414338874     
  -2312.96159047434     
  -2278.92596883742     
  -2240.17637225092     
  -2196.57421031666     
  -2148.00356638043     
  -2094.37163913159     
  -2035.60929960603     
  -1971.67179355779     
  -1902.53961478742     
  -1828.21956806225     
  -1748.74603100430     
  -1664.18241316979     
  -1574.62279799253     
  -1480.19373983147     
  -1381.05617456466     
  -2426.89563713798     
  -2423.42375081448     
  -2417.53279304942     
  -2408.90833305583     
  -2397.25318438189     
  -2382.28840562926     
  -2363.75412403574     
  -2341.41022607802     
  -2315.03695026266     
  -2284.43541146825     
  -2249.42808322614     
  -2209.85926348930     
  -2165.59554985148     
  -2116.52635091768     
  -2062.56446074696     
  -2003.64672231521     
  -1939.73480332445     
  -1870.81610318854     
  -1796.90480363862     
  -1718.04306727356     
  -1634.30237881824     
  -1545.78501321605     
  -1452.62560338995     
  -1354.99276899912     
  -2415.05594283202     
  -2409.86314706057     
  -2402.31616695485     
  -2392.11243584667     
  -2378.96488931312     
  -2362.60326506273     
  -2342.77519473364     
  -2319.24713372190     
  -2291.80516780275     
  -2260.25572989591     
  -2224.42625673966     
  -2184.16581308744     
  -2139.34570977470     
  -2089.86014100729     
  -2035.62686490923     
  -1976.58794925097     
  -1912.71060100636     
  -1843.98809377059     
  -1770.44080107248     
  -1692.11733633174     
  -1609.09579185366     
  -1521.48506010468     
  -1429.42621091521     
  -1333.09388858680     
  -2405.25749921402     
  -2398.65316540351     
  -2389.74550988775     
  -2378.24232639950     
  -2363.86542762420     
  -2346.35218940928     
  -2325.45686525253     
  -2300.95171727174     
  -2272.62800392469     
  -2240.29685988859     
  -2203.79009973950     
  -2162.96097420491     
  -2117.68490546793     
  -2067.86022588336     
  -2013.40894212624     
  -1954.27754388557     
  -1890.43787248272     
  -1821.88806008547     
  -1748.65354446762     
  -1670.78815759822     
  -1588.37527889223     
  -1501.52903594483     
  -1410.39552728843     
  -1315.15403347764     
  -2397.46080963390     
  -2389.74232074829     
  -2379.75908905570     
  -2367.22749919836     
  -2351.87675093657     
  -2333.45059473893     
  -2311.70882297325     
  -2286.42856207001     
  -2257.40540625486     
  -2224.45442914325     
  -2187.41110575758     
  -2146.13217430158     
  -2100.49646412713     
  -2050.40571350790     
  -1995.78539782857     
  -1936.58558536560     
  -1872.78183379180     
  -1804.37613576952     
  -1731.39791647976     
  -1653.90507971998     
  -1571.98509241976     
  -1485.75609026354     
  -1395.36797981353     
  -1301.00350537418     
  -2391.63670060822     
  -2383.09153210923     
  -2372.30931989001     
  -2359.01306465158     
  -2342.93767084838     
  -2323.83182309115     
  -2301.45960862808     
  -2275.60193018090     
  -2246.05774950864     
  -2212.64519824029     
  -2175.20258890386     
  -2133.58935569682     
  -2087.68695130534     
  -2037.39972283837     
  -1982.65578652370     
  -1923.40791704893     
  -1859.63446318899     
  -1791.34029656386     
  -1718.55779499811     
  -1641.34785605710     
  -1559.80093002392     
  -1474.03805502355     
  -1384.21187040765     
  -1290.50757813330     
  -2387.76470482747     
  -2378.67272216088     
  -2367.36157274304     
  -2353.55874896310     
  -2337.00303587871     
  -2317.44648008404     
  -2294.65609899807     
  -2268.41537391253     
  -2238.52556681394     
  -2204.80689749915     
  -2167.09961400897     
  -2125.26498596554     
  -2079.18624698817     
  -2028.76950888774     
  -1973.94466668560     
  -1914.66630954625     
  -1850.91464835848     
  -1782.69646588806     
  -1710.04609014805     
  -1633.02638594029     
  -1551.72975351235     
  -1466.27911710285     
  -1376.82888000591     
  -1283.56581690059     
  -2385.83184944326     
  -2376.46776122715     
  -2364.89326787111     
  -2350.83813162931     
  -2334.04310093379     
  -2314.26192505051     
  -2291.26310653039     
  -2264.83143426728     
  -2234.76933693775     
  -2200.89809327776     
  -2163.05893222555     
  -2121.11405250765     
  -2074.94758776142     
  -2024.46653971052     
  -1969.60169814879     
  -1910.30856244467     
  -1846.56827487200     
  -1778.38857125651     
  -1705.80474919901     
  -1628.88064854168     
  -1547.70963288344     
  -1462.41555496633     
  -1373.15368283348     
  -1280.11155801579     
SCALARS 2waySource double 
LOOKUP_TABLE default
 -1.751160135164125E-008
 -5.248921342678547E-008
 -9.130000202229593E-008
 -1.314322185663588E-007
 -1.723160452108341E-007
 -2.133248667486987E-007
 -2.541480008799442E-007
 -2.946765692555693E-007
 -3.349731292369330E-007
 -3.752734378190393E-007
 -4.160681889068296E-007
 -4.563118525255908E-007
 -4.964008363896486E-007
 -5.388897173951051E-007
 -5.372656335644904E-007
 -4.504676285476967E-007
 -4.589470451107693E-007
 -4.723579281508096E-007
 -4.850788098187448E-007
 -5.440749938407148E-007
 -6.634786939951428E-007
 -6.641928862082790E-007
 -6.639574661357908E-007
 -6.646007021797078E-007
 -7.972418485108389E-009
 -4.507696432536107E-008
 -8.647579251674034E-008
 -1.285547172915818E-007
 -1.703221175159087E-007
 -2.116651915342212E-007
 -2.524910871278580E-007
 -2.927678031121379E-007
 -3.325713958541916E-007
 -3.722175726241328E-007
 -4.124521551797054E-007
 -4.562955276527015E-007
 -4.976322342543555E-007
 -5.162333555999702E-007
 -5.032350111264317E-007
 -4.731259224220202E-007
 -4.803119540657688E-007
 -4.866774113852584E-007
 -4.892896742874746E-007
 -5.433198507262038E-007
 -6.641553327921078E-007
 -6.603389021686961E-007
 -6.600013195622135E-007
 -6.610254094867191E-007
  2.437679266562280E-008
 -3.435629382212053E-008
 -8.094739101105199E-008
 -1.250425938455836E-007
 -1.677175551779660E-007
 -2.093759654727730E-007
 -2.501155960485156E-007
 -2.899479665219159E-007
 -3.288758791453795E-007
 -3.669281314762206E-007
 -4.043356065030220E-007
 -4.412167460530035E-007
 -4.826656848711790E-007
 -5.218508539956520E-007
 -5.058368549664482E-007
 -5.018745893573461E-007
 -4.972853271473613E-007
 -4.881790397045892E-007
 -4.969507220800917E-007
 -5.643589924319563E-007
 -6.547634479379267E-007
 -6.511384369668095E-007
 -6.528927066484603E-007
 -6.548180445901859E-007
  2.108704802186067E-008
 -2.849883437970288E-008
 -7.708201241605805E-008
 -1.219536021801633E-007
 -1.651062456292375E-007
 -2.068777745067150E-007
 -2.474196933285686E-007
 -2.867185354423624E-007
 -3.246613894252965E-007
 -3.610281546330601E-007
 -3.952830087478304E-007
 -4.266972776002941E-007
 -4.507103834456188E-007
 -4.583924026444413E-007
 -4.671903968267693E-007
 -4.929074788399059E-007
 -4.862794431981851E-007
 -5.015278273378815E-007
 -4.977820120855162E-007
 -5.955948104603187E-007
 -6.327496223887645E-007
 -6.392332508916568E-007
 -6.441756035876990E-007
 -6.470303925172503E-007
  1.847512764911288E-008
 -2.900438032181807E-008
 -7.494296865527851E-008
 -1.197870084941765E-007
 -1.628693812399881E-007
 -2.045211996477225E-007
 -2.447744104588496E-007
 -2.835655343742531E-007
 -3.207194683921479E-007
 -3.559183307070121E-007
 -3.887028024172289E-007
 -4.181066687813547E-007
 -4.423035485436275E-007
 -4.589541296249294E-007
 -4.697206740464536E-007
 -4.810956044465274E-007
 -4.888904219411343E-007
 -5.083350445843646E-007
 -5.023586648406156E-007
 -6.093856563213475E-007
 -6.125850420229315E-007
 -6.283227106756692E-007
 -6.353341503087646E-007
 -6.390049077139884E-007
  1.613283789428612E-008
 -2.968227839610785E-008
 -7.460978103607285E-008
 -1.184677028505622E-007
 -1.611734567030726E-007
 -2.025118032295829E-007
 -2.424287595774507E-007
 -2.807967966141862E-007
 -3.174186369794070E-007
 -3.520142544285642E-007
 -3.841645641530832E-007
 -4.132219992244261E-007
 -4.381471719892959E-007
 -4.581080739725467E-007
 -4.745178146252756E-007
 -4.889098267079149E-007
 -5.028474233894634E-007
 -5.155519677112401E-007
 -5.298172724706278E-007
 -5.754024271900414E-007
 -6.041571541476791E-007
 -6.182158980425840E-007
 -6.276173622317715E-007
 -6.317877728869195E-007
  1.377123910950565E-008
 -3.071485645304240E-008
 -7.469289902499574E-008
 -1.178483785228335E-007
 -1.599822366453800E-007
 -2.009223185901863E-007
 -2.404887424764098E-007
 -2.785149326491119E-007
 -3.147982820032158E-007
 -3.490820814186562E-007
 -3.810279546179039E-007
 -4.101687879708795E-007
 -4.359794511012963E-007
 -4.583310009164943E-007
 -4.777403107631542E-007
 -4.952838491398213E-007
 -5.116558312633888E-007
 -5.284108554677091E-007
 -5.468313469281054E-007
 -5.723792403935939E-007
 -5.968428290521781E-007
 -6.121904641519623E-007
 -6.214672994679125E-007
 -6.260858945782801E-007
  1.153090800986834E-008
 -3.193122975008597E-008
 -7.508039721227242E-008
 -1.175857723123013E-007
 -1.592033070899450E-007
 -1.997245063343173E-007
 -2.389547136879115E-007
 -2.766987137761316E-007
 -3.127517464303991E-007
 -3.468808238249195E-007
 -3.788100426411853E-007
 -4.082298252765186E-007
 -4.348924290970916E-007
 -4.587680810750686E-007
 -4.801922642768023E-007
 -4.997081834696370E-007
 -5.180643406454985E-007
 -5.359352327810253E-007
 -5.545674824968595E-007
 -5.746929172949940E-007
 -5.934112033121901E-007
 -6.078609653615021E-007
 -6.172037257150423E-007
 -6.219856110710313E-007
  9.461978561267856E-009
 -3.319287159318612E-008
 -7.564304516197087E-008
 -1.175710078258298E-007
 -1.587154956081433E-007
 -1.988516265505464E-007
 -2.377718252287931E-007
 -2.752754643294929E-007
 -3.111599074820447E-007
 -3.452133520847093E-007
 -3.772138348297171E-007
 -4.069515486172255E-007
 -4.342834117401540E-007
 -4.592144069833523E-007
 -4.819313788749629E-007
 -5.027927680022118E-007
 -5.222254030385256E-007
 -5.407579958985367E-007
 -5.588669874142363E-007
 -5.764815898288122E-007
 -5.924495980591457E-007
 -6.053023353618706E-007
 -6.143011800335019E-007
 -6.192757745056140E-007
  7.595465530891243E-009
 -3.442043897556685E-008
 -7.629108625251023E-008
 -1.177177650796892E-007
 -1.584403466078275E-007
 -1.982282053409053E-007
 -2.368696790682061E-007
 -2.741636962035741E-007
 -3.099144530072855E-007
 -3.439292027130001E-007
 -3.760234535353998E-007
 -4.060387537606522E-007
 -4.338759458624061E-007
 -4.595300657784683E-007
 -4.831107746987565E-007
 -5.048227374622712E-007
 -5.249390214193360E-007
 -5.437380604825837E-007
 -5.613869356225453E-007
 -5.777235471828362E-007
 -5.921447325150478E-007
 -6.038995466199056E-007
 -6.124364559182347E-007
 -6.175179466488065E-007
  5.940024999374379E-009
 -3.557120759991296E-008
 -7.696486437356497E-008
 -1.179629022402737E-007
 -1.583140887024048E-007
 -1.977903014204773E-007
 -2.361809688543966E-007
 -2.732882104848339E-007
 -3.089239825214545E-007
 -3.429105752587075E-007
 -3.750862806343706E-007
 -4.053181728359854E-007
 -4.335203299977051E-007
 -4.596717159970802E-007
 -4.838223157008310E-007
 -5.060844605838981E-007
 -5.266038595435619E-007
 -5.455113360285520E-007
 -5.628422128672415E-007
 -5.784483956852705E-007
 -5.919834642851886E-007
 -6.030159537897797E-007
 -6.111915468883540E-007
 -6.163143142092699E-007
  4.485379049303821E-009
 -3.662683653410031E-008
 -7.762811388481264E-008
 -1.182611886605818E-007
 -1.582872298204613E-007
 -1.974850014137918E-007
 -2.356485853281939E-007
 -2.725851443741346E-007
 -3.081140152243572E-007
 -3.420681738499006E-007
 -3.742990303131918E-007
 -4.046847081564372E-007
 -4.331403651679231E-007
 -4.596265046909440E-007
 -4.841508203081041E-007
 -5.067590930236600E-007
 -5.275138884392827E-007
 -5.464590926233703E-007
 -5.635749821613512E-007
 -5.787412872073403E-007
 -5.917391591385651E-007
 -6.023070425904026E-007
 -6.102183206382502E-007
 -6.153402910930476E-007
  3.207751449316864E-009
 -3.758558518717794E-008
 -7.826144317837832E-008
 -1.185822963586740E-007
 -1.583227624522611E-007
 -1.972705525744940E-007
 -2.352262429117088E-007
 -2.720028541617994E-007
 -3.074261578955931E-007
 -3.413364484855050E-007
 -3.735921749370911E-007
 -4.040752154361890E-007
 -4.326965217400025E-007
 -4.593999159251560E-007
 -4.841612175317785E-007
 -5.069805737535223E-007
 -5.278667568856737E-007
 -5.468145770460828E-007
 -5.637802079810447E-007
 -5.786650885493938E-007
 -5.913209803711579E-007
 -6.015795270246584E-007
 -6.092946453376336E-007
 -6.143800873123202E-007
  2.075806825250331E-009
 -3.845634352743765E-008
 -7.885735769356064E-008
 -1.189074717979872E-007
 -1.583943797696291E-007
 -1.971152667967128E-007
 -2.348778458283488E-007
 -2.715010690912157E-007
 -3.068161429499708E-007
 -3.406683037304374E-007
 -3.729195153133558E-007
 -4.034517818466153E-007
 -4.321702051949419E-007
 -4.590043890542065E-007
 -4.839066614742209E-007
 -5.068459074039104E-007
 -5.277968210254403E-007
 -5.467259561649120E-007
 -5.635783016586629E-007
 -5.782701445884383E-007
 -5.906935827776754E-007
 -6.007336033480563E-007
 -6.082923407693252E-007
 -6.133126156200574E-007
  1.055763487225423E-009
 -3.925396127505371E-008
 -7.941624654611869E-008
 -1.192265450309409E-007
 -1.584844033424264E-007
 -1.969960681747613E-007
 -2.345762409015893E-007
 -2.710494410810604E-007
 -3.062513902684655E-007
 -3.400306926119107E-007
 -3.722508609582816E-007
 -4.027924334620018E-007
 -4.315545919520931E-007
 -4.584554534722258E-007
 -4.834301805232151E-007
 -5.064263843933397E-007
 -5.273969894671483E-007
 -5.462917927617966E-007
 -5.630501213169447E-007
 -5.775976863008059E-007
 -5.898500774030329E-007
 -5.997230334630667E-007
 -6.071468299729804E-007
 -6.120805831101888E-007
  1.151469931695729E-010
 -3.999570984924275E-008
 -7.994323654096532E-008
 -1.195353502568149E-007
 -1.585817863989600E-007
 -1.968969032739989E-007
 -2.343017778596667E-007
 -2.706258945669890E-007
 -3.057086883198852E-007
 -3.394011031877538E-007
 -3.715671716672344E-007
 -4.020854264194660E-007
 -4.308497714630952E-007
 -4.577693291840797E-007
 -4.827668246539317E-007
 -5.057753217293194E-007
 -5.267336019891744E-007
 -5.455810975116706E-007
 -5.622538619185284E-007
 -5.766832523221164E-007
 -5.887984742436181E-007
 -5.985329163738388E-007
 -6.058327795744215E-007
 -6.106656051802537E-007
 -7.748462141914374E-010
 -4.069879766039618E-008
 -8.044582061606079E-008
 -1.198336293707647E-007
 -1.586803386301345E-007
 -1.968072154578502E-007
 -2.340408642677039E-007
 -2.702150280692164E-007
 -3.051721633244407E-007
 -3.387648787091866E-007
 -3.708572269960348E-007
 -4.013257231825406E-007
 -4.300598621003172E-007
 -4.569618683259511E-007
 -4.819454713387176E-007
 -5.049336858306388E-007
 -5.258558778600949E-007
 -5.446447470898701E-007
 -5.612341219767362E-007
 -5.755584801650520E-007
 -5.875547483416515E-007
 -5.971662483210195E-007
 -6.043478889129347E-007
 -6.090711624664568E-007
 -1.638149831151230E-009
 -4.137879201518863E-008
 -8.093217381317969E-008
 -1.201234114960532E-007
 -1.587772440574105E-007
 -1.967205840970646E-007
 -2.337846354476944E-007
 -2.698066748921396E-007
 -3.046315842808142E-007
 -3.381131790556126E-007
 -3.701153185111691E-007
 -4.005127166483810E-007
 -4.291913228681111E-007
 -4.560481339036703E-007
 -4.809903549106321E-007
 -5.039339560596196E-007
 -5.248018548004768E-007
 -5.435221440672339E-007
 -5.600269052207476E-007
 -5.742521077125383E-007
 -5.861388601901829E-007
 -5.956358794953725E-007
 -6.027026105578316E-007
 -6.073121152931582E-007
 -2.493481859814584E-009
 -4.204875940164726E-008
 -8.141004449574824E-008
 -1.204078250058116E-007
 -1.588718832352242E-007
 -1.966335757497856E-007
 -2.335277973678962E-007
 -2.693946680022858E-007
 -3.040809813454768E-007
 -3.374414337802776E-007
 -3.693396186282281E-007
 -3.996487359894483E-007
 -4.282519466884751E-007
 -4.550423053540915E-007
 -4.799222530113850E-007
 -5.028027345433094E-007
 -5.236021154794113E-007
 -5.422451735591452E-007
 -5.586624886738753E-007
 -5.727905091101784E-007
 -5.845724170176616E-007
 -5.939596795624649E-007
 -6.009139231081105E-007
 -6.054085885445636E-007
 -3.354553258596599E-009
 -4.271892878277310E-008
 -8.188609798474348E-008
 -1.206902760645112E-007
 -1.589649390420992E-007
 -1.965448160929050E-007
 -2.332676625815585E-007
 -2.689758154618668E-007
 -3.035175397344402E-007
 -3.367481673577355E-007
 -3.685310143275337E-007
 -3.987380459273783E-007
 -4.272502535256593E-007
 -4.539577175960398E-007
 -4.787593656140485E-007
 -5.015624880769585E-007
 -5.222821394730732E-007
 -5.408406032714485E-007
 -5.571671158698130E-007
 -5.711980041404521E-007
 -5.828772905102738E-007
 -5.921576773990403E-007
 -5.990016787014573E-007
 -6.033825668039844E-007
 -4.230589642247762E-009
 -4.339670396840083E-008
 -8.236559386775150E-008
 -1.209739201692065E-007
 -1.590577482651690E-007
 -1.964542689802524E-007
 -2.330033751014865E-007
 -2.685490740662546E-007
 -3.029407274851980E-007
 -3.360341087248967E-007
 -3.676922648971354E-007
 -3.977861647648998E-007
 -4.261951152133881E-007
 -4.528069407123368E-007
 -4.775179446823002E-007
 -5.002327061975035E-007
 -5.208638019974076E-007
 -5.393315698820453E-007
 -5.555640315870786E-007
 -5.694970616712041E-007
 -5.810748238317818E-007
 -5.902504102129229E-007
 -5.969865359027895E-007
 -6.012560874118578E-007
 -5.126992144980383E-009
 -4.408688588545145E-008
 -8.285229360978228E-008
 -1.212613557251858E-007
 -1.591518546550602E-007
 -1.963626970222379E-007
 -2.327353067225267E-007
 -2.681148991691524E-007
 -3.023516178251152E-007
 -3.353015186782178E-007
 -3.668273894467787E-007
 -3.967993913354784E-007
 -4.250955157633107E-007
 -4.516018590921343E-007
 -4.762127357125164E-007
 -4.988306715451673E-007
 -5.193663407563760E-007
 -5.377385210172793E-007
 -5.538741394184667E-007
 -5.677084578504140E-007
 -5.791854049095811E-007
 -5.882580093314359E-007
 -5.948888420283830E-007
 -5.990503458019156E-007
 -6.046024035738526E-009
 -4.479200254176065E-008
 -8.334851549580131E-008
 -1.215544773391936E-007
 -1.592487196166758E-007
 -1.962712733536574E-007
 -2.324646010008250E-007
 -2.676747450915746E-007
 -3.017523706720422E-007
 -3.345536846872271E-007
 -3.659412195140426E-007
 -3.957844716370294E-007
 -4.239603922849182E-007
 -4.503537357473516E-007
 -4.748572833305248E-007
 -4.973719745554244E-007
 -5.178069889896002E-007
 -5.360798277130053E-007
 -5.521164388604156E-007
 -5.658514152662004E-007
 -5.772282654620392E-007
 -5.861997279040715E-007
 -5.927280707921175E-007
 -5.967853056948806E-007
 -6.987456779095818E-009
 -4.551267738225604E-008
 -8.385527456339444E-008
 -1.218544377105329E-007
 -1.593495509454254E-007
 -1.961813141374840E-007
 -2.321928392586630E-007
 -2.672306901566794E-007
 -3.011458421838720E-007
 -3.337945443765720E-007
 -3.650390718668858E-007
 -3.947483610319673E-007
 -4.227985256765293E-007
 -4.490732598459028E-007
 -4.734641415112775E-007
 -4.958708600645246E-007
 -5.162013973489322E-007
 -5.343721941623851E-007
 -5.503083299840402E-007
 -5.639437323654950E-007
 -5.752214154210153E-007
 -5.840937279585402E-007
 -5.905225761139237E-007
 -5.944795784915614E-007
 -7.949142247824919E-009
 -4.624799268815855E-008
 -8.437246360383178E-008
 -1.221616786777623E-007
 -1.594552163246777E-007
 -1.960941040159899E-007
 -2.319218040744276E-007
 -2.667851621048313E-007
 -3.005352958335464E-007
 -3.330284077328559E-007
 -3.641265097669577E-007
 -3.936980534451212E-007
 -4.216184635986644E-007
 -4.477705801444793E-007
 -4.720450183122576E-007
 -4.943404634949446E-007
 -5.145639208342429E-007
 -5.326309404332351E-007
 -5.484658357305777E-007
 -5.620019049467446E-007
 -5.731816548596427E-007
 -5.819570147641775E-007
 -5.882895196421137E-007
 -5.921504383898123E-007
 -8.927499360479138E-009
 -4.699582371087906E-008
 -8.489904617170359E-008
 -1.224760023344700E-007
 -1.595662148833574E-007
 -1.960107906258701E-007
 -2.316533183250960E-007
 -2.663407424315139E-007
 -2.999241927574892E-007
 -3.322597548077942E-007
 -3.632091699070215E-007
 -3.926404586487611E-007
 -4.204284656540018E-007
 -4.464553282724755E-007
 -4.706108763951733E-007
 -4.927929743863445E-007
 -5.129078185560381E-007
 -5.308702038135772E-007
 -5.466037706796400E-007
 -5.600412388617948E-007
 -5.711246269175878E-007
 -5.798054507365053E-007
 -5.860448886121866E-007
 -5.898138993338116E-007
 -9.917916046807838E-009
 -4.775313212760942E-008
 -8.543324366305247E-008
 -1.227966619228767E-007
 -1.596826864341213E-007
 -1.959323286350944E-007
 -2.313891410901128E-007
 -2.659000313511197E-007
 -2.993160430835117E-007
 -3.314930908248942E-007
 -3.622926383986840E-007
 -3.915823147494932E-007
 -4.192364646539862E-007
 -4.451366354139568E-007
 -4.691720040169701E-007
 -4.912397519450741E-007
 -5.112453963874693E-007
 -5.291030866972766E-007
 -5.447358732445816E-007
 -5.580759526472437E-007
 -5.690648892375318E-007
 -5.776538086019768E-007
 -5.838035562612141E-007
 -5.874848141080933E-007
 -1.091507412387590E-008
 -4.851621561429750E-008
 -8.597270654825783E-008
 -1.231224589501751E-007
 -1.598044433525613E-007
 -1.958594579558707E-007
 -2.311309051891163E-007
 -2.654655583342544E-007
 -2.987143034534488E-007
 -3.307328446139045E-007
 -3.613823634108355E-007
 -3.905301267650159E-007
 -4.180500400117618E-007
 -4.438231451322419E-007
 -4.677380665276057E-007
 -4.896914087277067E-007
 -5.095881115527344E-007
 -5.273417683093412E-007
 -5.428749115914279E-007
 -5.561192692411607E-007
 -5.670159905684570E-007
 -5.755158405432906E-007
 -5.815793581777950E-007
 -5.851769752262554E-007
 -1.191320752815496E-008
 -4.928091513886989E-008
 -8.651466517730494E-008
 -1.234518380744813E-007
 -1.599310144653738E-007
 -1.957927044492484E-007
 -2.308800842521087E-007
 -2.650397261152867E-007
 -2.981223089629268E-007
 -3.299832994288975E-007
 -3.604835951626123E-007
 -3.894901246828805E-007
 -4.168764004719450E-007
 -4.425230242051689E-007
 -4.663181449772399E-007
 -4.881578729119316E-007
 -5.079466513756720E-007
 -5.255975912186219E-007
 -5.410327698174585E-007
 -5.541834965727880E-007
 -5.649905450171109E-007
 -5.734043503440078E-007
 -5.793851703695210E-007
 -5.829032079984056E-007
 -1.290630486724598E-008
 -5.004278402141937E-008
 -8.705605895263947E-008
 -1.237829748924575E-007
 -1.600616937582809E-007
 -1.957323945337434E-007
 -2.306379800630592E-007
 -2.646247786949223E-007
 -2.975432302976128E-007
 -3.292485476839823E-007
 -3.596013461911439E-007
 -3.884682360568816E-007
 -4.157223740526841E-007
 -4.412439726126059E-007
 -4.649207662229262E-007
 -4.866484359898467E-007
 -5.063309940457424E-007
 -5.238811296705733E-007
 -5.392205187261223E-007
 -5.522800973588349E-007
 -5.630003000992568E-007
 -5.713312617437441E-007
 -5.772329819976304E-007
 -5.806754519811146E-007
 -1.388826660638184E-008
 -5.079722387744207E-008
 -8.759364469755370E-008
 -1.241138542436799E-007
 -1.601955892157740E-007
 -1.956786775773065E-007
 -2.304057232151165E-007
 -2.642227860722419E-007
 -2.969800489282605E-007
 -3.285324630818574E-007
 -3.587403664989835E-007
 -3.874700693696009E-007
 -4.145944034948124E-007
 -4.399932332745372E-007
 -4.635539272810277E-007
 -4.851717903225256E-007
 -5.047504565539463E-007
 -5.222022444331457E-007
 -5.374484742696894E-007
 -5.504197488167976E-007
 -5.610561969171227E-007
 -5.693076798362713E-007
 -5.751339597580085E-007
 -5.785048300250874E-007
 -1.485302591675683E-008
 -5.153959264348274E-008
 -8.812408610820134E-008
 -1.244423381935893E-007
 -1.603316689741057E-007
 -1.956315518557050E-007
 -2.301842820084525E-007
 -2.638356402519401E-007
 -2.964355449432789E-007
 -3.278386851648174E-007
 -3.579051294323368E-007
 -3.865009052331623E-007
 -4.134985458255899E-007
 -4.387776017807540E-007
 -4.622251157156897E-007
 -4.837360594321941E-007
 -5.032137332114263E-007
 -5.205701273328618E-007
 -5.357262459322112E-007
 -5.486123932507305E-007
 -5.591684221219519E-007
 -5.673439444145985E-007
 -5.730985030805618E-007
 -5.764017056081777E-007
 -1.579464084002102E-008
 -5.226528958827698E-008
 -8.864402660540712E-008
 -1.247662238851309E-007
 -1.604688032476294E-007
 -1.955908912861156E-007
 -2.299744759928142E-007
 -2.634650584853534E-007
 -2.959122934582300E-007
 -3.271706125109585E-007
 -3.570998251675815E-007
 -3.855656932177783E-007
 -4.124404748814883E-007
 -4.376034361089667E-007
 -4.609413271298054E-007
 -4.823488229542437E-007
 -5.017289270526793E-007
 -5.189933377205143E-007
 -5.340627768088511E-007
 -5.468672805253783E-007
 -5.573464519994025E-007
 -5.654496752785995E-007
 -5.711362904554224E-007
 -5.743757297555973E-007
 -1.670736404851415E-008
 -5.296982165101828E-008
 -8.915014804043150E-008
 -1.250832919719154E-007
 -1.606058013529231E-007
 -1.955564711780411E-007
 -2.297769916543431E-007
 -2.631125908836669E-007
 -2.954126665950700E-007
 -3.265314017609704E-007
 -3.563283594063841E-007
 -3.846690525479586E-007
 -4.114254858507027E-007
 -4.364766662537145E-007
 -4.597090804319765E-007
 -4.810171374906899E-007
 -5.003035757138247E-007
 -5.174798324917615E-007
 -5.324663767733201E-007
 -5.451930034758036E-007
 -5.555990893818421E-007
 -5.636338100931854E-007
 -5.692563177106307E-007
 -5.724358790213709E-007
 -1.758569523016891E-008
 -5.364885476940409E-008
 -8.963921753316136E-008
 -1.253913466370834E-007
 -1.607414436925682E-007
 -1.955279920017984E-007
 -2.295923986159822E-007
 -2.627796303397636E-007
 -2.949388388700683E-007
 -3.259239704110178E-007
 -3.555943555148994E-007
 -3.838152753481865E-007
 -4.104585010711072E-007
 -4.354028035723194E-007
 -4.585344312788372E-007
 -4.797475542235982E-007
 -4.989446729163550E-007
 -5.160369908750318E-007
 -5.309447498847459E-007
 -5.435975272256381E-007
 -5.539344942280155E-007
 -5.619046356206505E-007
 -5.674669292615332E-007
 -5.705904859573003E-007
 -1.842442013373813E-008
 -5.429825333326548E-008
 -9.010812453320277E-008
 -1.256882482811756E-007
 -1.608745089190102E-007
 -1.955051006438554E-007
 -2.294211652738319E-007
 -2.624674233813421E-007
 -2.944927944465747E-007
 -3.253510018514737E-007
 -3.549011587805230E-007
 -3.830083314504722E-007
 -4.095440764919020E-007
 -4.343869497212507E-007
 -4.574229839505136E-007
 -4.785461338695131E-007
 -4.976586863638883E-007
 -5.146716349154686E-007
 -5.295050169673031E-007
 -5.420882133117473E-007
 -5.523602087272477E-007
 -5.602698132196631E-007
 -5.657758433610373E-007
 -5.688472633545826E-007
 -1.921863939480254E-008
 -5.491411025362230E-008
 -9.055390990380231E-008
 -1.259719399605896E-007
 -1.610037966738194E-007
 -1.954874089809150E-007
 -2.292636732849608E-007
 -2.621770810386155E-007
 -2.940763351834540E-007
 -3.248149515868714E-007
 -3.542518418401734E-007
 -3.822518740196059E-007
 -4.086864083478793E-007
 -4.334338050210612E-007
 -4.563799018161743E-007
 -4.774184594150535E-007
 -4.964515726809977E-007
 -5.133900463904822E-007
 -5.281537341486583E-007
 -5.406718394143521E-007
 -5.508831777375389E-007
 -5.587363994642891E-007
 -5.641901723126230E-007
 -5.672133233679655E-007
 -1.996378962606733E-008
 -5.549276971109967E-008
 -9.097378857692684E-008
 -1.262404685763323E-007
 -1.611281463858685E-007
 -1.954745098161894E-007
 -2.291202305470470E-007
 -2.619095891550027E-007
 -2.936910887873138E-007
 -3.243180538955364E-007
 -3.536492106017442E-007
 -3.815492454719024E-007
 -4.078893397191260E-007
 -4.325476761619745E-007
 -4.554099165205870E-007
 -4.763696469366282E-007
 -4.953287898674667E-007
 -5.121979807442839E-007
 -5.268969080153939E-007
 -5.393546153926028E-007
 -5.495097652956712E-007
 -5.573108626709637E-007
 -5.627164384976232E-007
 -5.656951924628914E-007
 -2.065565865566082E-008
 -5.603084421783395E-008
 -9.136516705030242E-008
 -1.264920017075090E-007
 -1.612464526482504E-007
 -1.954659903339351E-007
 -2.289910825881106E-007
 -2.616658178064127E-007
 -2.933385165908476E-007
 -3.238623284353498E-007
 -3.530958102055474E-007
 -3.809034833175261E-007
 -4.071563667406018E-007
 -4.317324831718756E-007
 -4.545173359814026E-007
 -4.754043547730373E-007
 -4.942953076541544E-007
 -5.111006785280621E-007
 -5.257400079425905E-007
 -5.381421962285479E-007
 -5.482457678450526E-007
 -5.559990960226388E-007
 -5.613605869581449E-007
 -5.642988229721204E-007
 -2.129039639031870E-008
 -5.652522729998536E-008
 -9.172565681226048E-008
 -1.267248408795758E-007
 -1.613576776696319E-007
 -1.954614433085366E-007
 -2.288764223451826E-007
 -2.614465296800976E-007
 -2.930199207127565E-007
 -3.234495864852207E-007
 -3.525939307087803E-007
 -3.803173256851659E-007
 -4.064906443211139E-007
 -4.309917656260648E-007
 -4.537060513020468E-007
 -4.745267912555934E-007
 -4.933556160756419E-007
 -5.101028747469589E-007
 -5.246879760621448E-007
 -5.370396924046538E-007
 -5.470964247458221E-007
 -5.548064278909008E-007
 -5.601279951681995E-007
 -5.630296019168651E-007
 -2.186452242336804E-008
 -5.697310281540941E-008
 -9.205308453904750E-008
 -1.269374319293507E-007
 -1.614608612530461E-007
 -1.954604763307275E-007
 -2.287763984400962E-007
 -2.612523873610956E-007
 -2.927364504479813E-007
 -3.230814366303955E-007
 -3.521456123267149E-007
 -3.797932163810532E-007
 -4.058949912827595E-007
 -4.303286880886833E-007
 -4.529795426827510E-007
 -4.737407211843253E-007
 -4.925137325292459E-007
 -5.092088064494828E-007
 -5.237452352730690E-007
 -5.360516781567141E-007
 -5.460664265499200E-007
 -5.537376298683744E-007
 -5.590234805254177E-007
 -5.618923576358405E-007
 -2.237493125931674E-008
 -5.737195173872552E-008
 -9.234549978656558E-008
 -1.271283730430473E-007
 -1.615551287331129E-007
 -1.954627193203985E-007
 -2.286911220774228E-007
 -2.610839595453048E-007
 -2.924891078397880E-007
 -3.227592898091218E-007
 -3.517526501136237E-007
 -3.793333094004391E-007
 -4.053718948885033E-007
 -4.297460448211666E-007
 -4.523408844277626E-007
 -4.730494712077008E-007
 -4.917732075457978E-007
 -5.084222188538432E-007
 -5.229156956263744E-007
 -5.351821979826487E-007
 -5.451599214532879E-007
 -5.527969229484205E-007
 -5.580513060167676E-007
 -5.608913646760735E-007
 -2.281889580712549E-008
 -5.771955701536306E-008
 -9.260118072318526E-008
 -1.272964209266874E-007
 -1.616396972203170E-007
 -1.954678305678194E-007
 -2.286206727149827E-007
 -2.609417262622713E-007
 -2.922787524457738E-007
 -3.224843636873919E-007
 -3.514165980548416E-007
 -3.789394728608042E-007
 -4.049235147519656E-007
 -4.292462637857201E-007
 -4.517927491355204E-007
 -4.724559342522524E-007
 -4.911371294720728E-007
 -5.077463702492934E-007
 -5.222027593755969E-007
 -5.344347717280013E-007
 -5.443805202711243E-007
 -5.519879822186902E-007
 -5.572151844335932E-007
 -5.600303473204095E-007
 -2.319406963153214E-008
 -5.801400700205454E-008
 -9.281863837451978E-008
 -1.274404955086557E-007
 -1.617138804649422E-007
 -1.954755015480014E-007
 -2.285651026667591E-007
 -2.608260831816749E-007
 -2.921061053333011E-007
 -3.222576863697597E-007
 -3.511387725593986E-007
 -3.786132923643519E-007
 -4.045516861583567E-007
 -4.288314100057559E-007
 -4.513374111643564E-007
 -4.719625731325436E-007
 -4.906081282305657E-007
 -5.071840358815133E-007
 -5.216093249292658E-007
 -5.338123985180225E-007
 -5.437313002319771E-007
 -5.513139403758904E-007
 -5.565182814519976E-007
 -5.593124820662412E-007
 -2.349848835311906E-008
 -5.825369785378608E-008
 -9.299661971579884E-008
 -1.275596834734198E-007
 -1.617770926101161E-007
 -1.954854606972700E-007
 -2.285244407800658E-007
 -2.607373451125524E-007
 -2.919717523679117E-007
 -3.220800994856977E-007
 -3.509202553790635E-007
 -3.783560738066637E-007
 -4.042579228217873E-007
 -4.285031883338267E-007
 -4.509767494540555E-007
 -4.715714234517571E-007
 -4.901883783047607E-007
 -5.067375110006001E-007
 -5.211377899133374E-007
 -5.333175597618455E-007
 -5.432148078315129E-007
 -5.507773903188614E-007
 -5.559632178394663E-007
 -5.587403993130550E-007
 -2.373057046562807E-008
 -5.843733515354811E-008
 -9.313410990158095E-008
 -1.276532408917933E-007
 -1.618288510379693E-007
 -1.954974763353582E-007
 -2.284986953228416E-007
 -2.606757487859322E-007
 -2.918761468557617E-007
 -3.219522606904999E-007
 -3.507618959886553E-007
 -3.781688456667924E-007
 -4.040434191295605E-007
 -4.282629456843989E-007
 -4.507122497795145E-007
 -4.712840958955119E-007
 -4.898796010711785E-007
 -5.064086132128466E-007
 -5.207900535052644E-007
 -5.329522214133345E-007
 -5.428330609461131E-007
 -5.503803870275246E-007
 -5.555520710011144E-007
 -5.583161844711986E-007
 -2.388911777873337E-008
 -5.856393500152182E-008
 -9.323033384539811E-008
 -1.277205951333568E-007
 -1.618687784839438E-007
 -1.955113588691022E-007
 -2.284878561879785E-007
 -2.606414550027792E-007
 -2.918196116059828E-007
 -3.218746456297201E-007
 -3.506643134610314E-007
 -3.780523608144616E-007
 -4.039090519051465E-007
 -4.281116727808527E-007
 -4.505450065015151E-007
 -4.711017779957762E-007
 -4.896830665760701E-007
 -5.061986842557440E-007
 -5.205675181774261E-007
 -5.327178356381129E-007
 -5.425875503668908E-007
 -5.501244488955052E-007
 -5.552863760359498E-007
 -5.580413786614710E-007
 -2.397331563826496E-008
 -5.863282471979326E-008
 -9.328475729821428E-008
 -1.277613462160356E-007
 -1.618966045541058E-007
 -1.955269623907690E-007
 -2.284918965115681E-007
 -2.606345502241535E-007
 -2.918023404642832E-007
 -3.218475494079396E-007
 -3.506278978727501E-007
 -3.780070978656357E-007
 -4.038553817304670E-007
 -4.280500054605108E-007
 -4.504757238667325E-007
 -4.710252354330724E-007
 -4.895995948389516E-007
 -5.061085912883952E-007
 -5.204710909522631E-007
 -5.326153420001042E-007
 -5.424792408756165E-007
 -5.500105586458779E-007
 -5.551671264355714E-007
 -5.579169791368819E-007
SCALARS elementIsPlast double 
LOOKUP_TABLE default
  0.000000000000000E+000
  0.000000000000000E+000
  0.000000000000000E+000
  0.000000000000000E+000
  0.000000000000000E+000
  0.000000000000000E+000
  0.000000000000000E+000
  0.000000000000000E+000
  0.000000000000000E+000
  0.000000000000000E+000
  0.000000000000000E+000
  0.000000000000000E+000
  0.000000000000000E+000
  0.000000000000000E+000
   1.00000000000000     
   1.00000000000000     
   1.00000000000000     
   1.00000000000000     
   1.00000000000000     
   1.00000000000000     
  0.000000000000000E+000
  0.000000000000000E+000
  0.000000000000000E+000
  0.000000000000000E+000
  0.000000000000000E+000
  0.000000000000000E+000
  0.000000000000000E+000
  0.000000000000000E+000
  0.000000000000000E+000
  0.000000000000000E+000
  0.000000000000000E+000
  0.000000000000000E+000
  0.000000000000000E+000
  0.000000000000000E+000
  0.000000000000000E+000
  0.000000000000000E+000
  0.000000000000000E+000
  0.000000000000000E+000
   1.00000000000000     
   1.00000000000000     
   1.00000000000000     
   1.00000000000000     
   1.00000000000000     
   1.00000000000000     
  0.000000000000000E+000
  0.000000000000000E+000
  0.000000000000000E+000
  0.000000000000000E+000
  0.000000000000000E+000
  0.000000000000000E+000
  0.000000000000000E+000
  0.000000000000000E+000
  0.000000000000000E+000
  0.000000000000000E+000
  0.000000000000000E+000
  0.000000000000000E+000
  0.000000000000000E+000
  0.000000000000000E+000
  0.000000000000000E+000
  0.000000000000000E+000
   1.00000000000000     
   1.00000000000000     
   1.00000000000000     
   1.00000000000000     
   1.00000000000000     
   1.00000000000000     
   1.00000000000000     
   1.00000000000000     
  0.000000000000000E+000
  0.000000000000000E+000
  0.000000000000000E+000
  0.000000000000000E+000
  0.000000000000000E+000
  0.000000000000000E+000
  0.000000000000000E+000
  0.000000000000000E+000
  0.000000000000000E+000
  0.000000000000000E+000
  0.000000000000000E+000
  0.000000000000000E+000
  0.000000000000000E+000
  0.000000000000000E+000
  0.000000000000000E+000
  0.000000000000000E+000
  0.000000000000000E+000
  0.000000000000000E+000
   1.00000000000000     
   1.00000000000000     
   1.00000000000000     
   1.00000000000000     
   1.00000000000000     
  0.000000000000000E+000
  0.000000000000000E+000
  0.000000000000000E+000
  0.000000000000000E+000
  0.000000000000000E+000
  0.000000000000000E+000
  0.000000000000000E+000
  0.000000000000000E+000
  0.000000000000000E+000
  0.000000000000000E+000
  0.000000000000000E+000
  0.000000000000000E+000
  0.000000000000000E+000
  0.000000000000000E+000
  0.000000000000000E+000
  0.000000000000000E+000
  0.000000000000000E+000
  0.000000000000000E+000
  0.000000000000000E+000
  0.000000000000000E+000
  0.000000000000000E+000
  0.000000000000000E+000
   1.00000000000000     
   1.00000000000000     
  0.000000000000000E+000
  0.000000000000000E+000
  0.000000000000000E+000
  0.000000000000000E+000
  0.000000000000000E+000
  0.000000000000000E+000
  0.000000000000000E+000
  0.000000000000000E+000
  0.000000000000000E+000
  0.000000000000000E+000
  0.000000000000000E+000
  0.000000000000000E+000
  0.000000000000000E+000
  0.000000000000000E+000
  0.000000000000000E+000
  0.000000000000000E+000
  0.000000000000000E+000
  0.000000000000000E+000
  0.000000000000000E+000
  0.000000000000000E+000
  0.000000000000000E+000
  0.000000000000000E+000
  0.000000000000000E+000
  0.000000000000000E+000
  0.000000000000000E+000
  0.000000000000000E+000
  0.000000000000000E+000
  0.000000000000000E+000
  0.000000000000000E+000
  0.000000000000000E+000
  0.000000000000000E+000
  0.000000000000000E+000
  0.000000000000000E+000
  0.000000000000000E+000
  0.000000000000000E+000
  0.000000000000000E+000
  0.000000000000000E+000
  0.000000000000000E+000
  0.000000000000000E+000
  0.000000000000000E+000
  0.000000000000000E+000
  0.000000000000000E+000
  0.000000000000000E+000
  0.000000000000000E+000
  0.000000000000000E+000
  0.000000000000000E+000
  0.000000000000000E+000
  0.000000000000000E+000
  0.000000000000000E+000
  0.000000000000000E+000
  0.000000000000000E+000
  0.000000000000000E+000
  0.000000000000000E+000
  0.000000000000000E+000
  0.000000000000000E+000
  0.000000000000000E+000
  0.000000000000000E+000
  0.000000000000000E+000
  0.000000000000000E+000
  0.000000000000000E+000
  0.000000000000000E+000
  0.000000000000000E+000
  0.000000000000000E+000
  0.000000000000000E+000
  0.000000000000000E+000
  0.000000000000000E+000
  0.000000000000000E+000
  0.000000000000000E+000
  0.000000000000000E+000
  0.000000000000000E+000
  0.000000000000000E+000
  0.000000000000000E+000
  0.000000000000000E+000
  0.000000000000000E+000
  0.000000000000000E+000
  0.000000000000000E+000
  0.000000000000000E+000
  0.000000000000000E+000
  0.000000000000000E+000
  0.000000000000000E+000
  0.000000000000000E+000
  0.000000000000000E+000
  0.000000000000000E+000
  0.000000000000000E+000
  0.000000000000000E+000
  0.000000000000000E+000
  0.000000000000000E+000
  0.000000000000000E+000
  0.000000000000000E+000
  0.000000000000000E+000
  0.000000000000000E+000
  0.000000000000000E+000
  0.000000000000000E+000
  0.000000000000000E+000
  0.000000000000000E+000
  0.000000000000000E+000
  0.000000000000000E+000
  0.000000000000000E+000
  0.000000000000000E+000
  0.000000000000000E+000
  0.000000000000000E+000
  0.000000000000000E+000
  0.000000000000000E+000
  0.000000000000000E+000
  0.000000000000000E+000
  0.000000000000000E+000
  0.000000000000000E+000
  0.000000000000000E+000
  0.000000000000000E+000
  0.000000000000000E+000
  0.000000000000000E+000
  0.000000000000000E+000
  0.000000000000000E+000
  0.000000000000000E+000
  0.000000000000000E+000
  0.000000000000000E+000
  0.000000000000000E+000
  0.000000000000000E+000
  0.000000000000000E+000
  0.000000000000000E+000
  0.000000000000000E+000
  0.000000000000000E+000
  0.000000000000000E+000
  0.000000000000000E+000
  0.000000000000000E+000
  0.000000000000000E+000
  0.000000000000000E+000
  0.000000000000000E+000
  0.000000000000000E+000
  0.000000000000000E+000
  0.000000000000000E+000
  0.000000000000000E+000
  0.000000000000000E+000
  0.000000000000000E+000
  0.000000000000000E+000
  0.000000000000000E+000
  0.000000000000000E+000
  0.000000000000000E+000
  0.000000000000000E+000
  0.000000000000000E+000
  0.000000000000000E+000
  0.000000000000000E+000
  0.000000000000000E+000
  0.000000000000000E+000
  0.000000000000000E+000
  0.000000000000000E+000
  0.000000000000000E+000
  0.000000000000000E+000
  0.000000000000000E+000
  0.000000000000000E+000
  0.000000000000000E+000
  0.000000000000000E+000
  0.000000000000000E+000
  0.000000000000000E+000
  0.000000000000000E+000
  0.000000000000000E+000
  0.000000000000000E+000
  0.000000000000000E+000
  0.000000000000000E+000
  0.000000000000000E+000
  0.000000000000000E+000
  0.000000000000000E+000
  0.000000000000000E+000
  0.000000000000000E+000
  0.000000000000000E+000
  0.000000000000000E+000
  0.000000000000000E+000
  0.000000000000000E+000
  0.000000000000000E+000
  0.000000000000000E+000
  0.000000000000000E+000
  0.000000000000000E+000
  0.000000000000000E+000
  0.000000000000000E+000
  0.000000000000000E+000
  0.000000000000000E+000
  0.000000000000000E+000
  0.000000000000000E+000
  0.000000000000000E+000
  0.000000000000000E+000
  0.000000000000000E+000
  0.000000000000000E+000
  0.000000000000000E+000
  0.000000000000000E+000
  0.000000000000000E+000
  0.000000000000000E+000
  0.000000000000000E+000
  0.000000000000000E+000
  0.000000000000000E+000
  0.000000000000000E+000
  0.000000000000000E+000
  0.000000000000000E+000
  0.000000000000000E+000
  0.000000000000000E+000
  0.000000000000000E+000
  0.000000000000000E+000
  0.000000000000000E+000
  0.000000000000000E+000
  0.000000000000000E+000
  0.000000000000000E+000
  0.000000000000000E+000
  0.000000000000000E+000
  0.000000000000000E+000
  0.000000000000000E+000
  0.000000000000000E+000
  0.000000000000000E+000
  0.000000000000000E+000
  0.000000000000000E+000
  0.000000000000000E+000
  0.000000000000000E+000
  0.000000000000000E+000
  0.000000000000000E+000
  0.000000000000000E+000
  0.000000000000000E+000
  0.000000000000000E+000
  0.000000000000000E+000
  0.000000000000000E+000
  0.000000000000000E+000
  0.000000000000000E+000
  0.000000000000000E+000
  0.000000000000000E+000
  0.000000000000000E+000
  0.000000000000000E+000
  0.000000000000000E+000
  0.000000000000000E+000
  0.000000000000000E+000
  0.000000000000000E+000
  0.000000000000000E+000
  0.000000000000000E+000
  0.000000000000000E+000
  0.000000000000000E+000
  0.000000000000000E+000
  0.000000000000000E+000
  0.000000000000000E+000
  0.000000000000000E+000
  0.000000000000000E+000
  0.000000000000000E+000
  0.000000000000000E+000
  0.000000000000000E+000
  0.000000000000000E+000
  0.000000000000000E+000
  0.000000000000000E+000
  0.000000000000000E+000
  0.000000000000000E+000
  0.000000000000000E+000
  0.000000000000000E+000
  0.000000000000000E+000
  0.000000000000000E+000
  0.000000000000000E+000
  0.000000000000000E+000
  0.000000000000000E+000
  0.000000000000000E+000
  0.000000000000000E+000
  0.000000000000000E+000
  0.000000000000000E+000
  0.000000000000000E+000
  0.000000000000000E+000
  0.000000000000000E+000
  0.000000000000000E+000
  0.000000000000000E+000
  0.000000000000000E+000
  0.000000000000000E+000
  0.000000000000000E+000
  0.000000000000000E+000
  0.000000000000000E+000
  0.000000000000000E+000
  0.000000000000000E+000
  0.000000000000000E+000
  0.000000000000000E+000
  0.000000000000000E+000
  0.000000000000000E+000
  0.000000000000000E+000
  0.000000000000000E+000
  0.000000000000000E+000
  0.000000000000000E+000
  0.000000000000000E+000
  0.000000000000000E+000
  0.000000000000000E+000
  0.000000000000000E+000
  0.000000000000000E+000
  0.000000000000000E+000
  0.000000000000000E+000
  0.000000000000000E+000
  0.000000000000000E+000
  0.000000000000000E+000
  0.000000000000000E+000
  0.000000000000000E+000
  0.000000000000000E+000
  0.000000000000000E+000
  0.000000000000000E+000
  0.000000000000000E+000
  0.000000000000000E+000
  0.000000000000000E+000
  0.000000000000000E+000
  0.000000000000000E+000
  0.000000000000000E+000
  0.000000000000000E+000
  0.000000000000000E+000
  0.000000000000000E+000
  0.000000000000000E+000
  0.000000000000000E+000
  0.000000000000000E+000
  0.000000000000000E+000
  0.000000000000000E+000
  0.000000000000000E+000
  0.000000000000000E+000
  0.000000000000000E+000
  0.000000000000000E+000
  0.000000000000000E+000
  0.000000000000000E+000
  0.000000000000000E+000
  0.000000000000000E+000
  0.000000000000000E+000
  0.000000000000000E+000
  0.000000000000000E+000
  0.000000000000000E+000
  0.000000000000000E+000
  0.000000000000000E+000
  0.000000000000000E+000
  0.000000000000000E+000
  0.000000000000000E+000
  0.000000000000000E+000
  0.000000000000000E+000
  0.000000000000000E+000
  0.000000000000000E+000
  0.000000000000000E+000
  0.000000000000000E+000
  0.000000000000000E+000
  0.000000000000000E+000
  0.000000000000000E+000
  0.000000000000000E+000
  0.000000000000000E+000
  0.000000000000000E+000
  0.000000000000000E+000
  0.000000000000000E+000
  0.000000000000000E+000
  0.000000000000000E+000
  0.000000000000000E+000
  0.000000000000000E+000
  0.000000000000000E+000
  0.000000000000000E+000
  0.000000000000000E+000
  0.000000000000000E+000
  0.000000000000000E+000
  0.000000000000000E+000
  0.000000000000000E+000
  0.000000000000000E+000
  0.000000000000000E+000
  0.000000000000000E+000
  0.000000000000000E+000
  0.000000000000000E+000
  0.000000000000000E+000
  0.000000000000000E+000
  0.000000000000000E+000
  0.000000000000000E+000
  0.000000000000000E+000
  0.000000000000000E+000
  0.000000000000000E+000
  0.000000000000000E+000
  0.000000000000000E+000
  0.000000000000000E+000
  0.000000000000000E+000
  0.000000000000000E+000
  0.000000000000000E+000
  0.000000000000000E+000
  0.000000000000000E+000
  0.000000000000000E+000
  0.000000000000000E+000
  0.000000000000000E+000
  0.000000000000000E+000
  0.000000000000000E+000
  0.000000000000000E+000
  0.000000000000000E+000
  0.000000000000000E+000
  0.000000000000000E+000
  0.000000000000000E+000
  0.000000000000000E+000
  0.000000000000000E+000
  0.000000000000000E+000
  0.000000000000000E+000
  0.000000000000000E+000
  0.000000000000000E+000
  0.000000000000000E+000
  0.000000000000000E+000
  0.000000000000000E+000
  0.000000000000000E+000
  0.000000000000000E+000
  0.000000000000000E+000
  0.000000000000000E+000
  0.000000000000000E+000
  0.000000000000000E+000
  0.000000000000000E+000
  0.000000000000000E+000
  0.000000000000000E+000
  0.000000000000000E+000
  0.000000000000000E+000
  0.000000000000000E+000
  0.000000000000000E+000
  0.000000000000000E+000
  0.000000000000000E+000
  0.000000000000000E+000
  0.000000000000000E+000
  0.000000000000000E+000
  0.000000000000000E+000
  0.000000000000000E+000
  0.000000000000000E+000
  0.000000000000000E+000
  0.000000000000000E+000
  0.000000000000000E+000
  0.000000000000000E+000
  0.000000000000000E+000
  0.000000000000000E+000
  0.000000000000000E+000
  0.000000000000000E+000
  0.000000000000000E+000
  0.000000000000000E+000
  0.000000000000000E+000
  0.000000000000000E+000
  0.000000000000000E+000
  0.000000000000000E+000
  0.000000000000000E+000
  0.000000000000000E+000
  0.000000000000000E+000
  0.000000000000000E+000
  0.000000000000000E+000
  0.000000000000000E+000
  0.000000000000000E+000
  0.000000000000000E+000
  0.000000000000000E+000
  0.000000000000000E+000
  0.000000000000000E+000
  0.000000000000000E+000
  0.000000000000000E+000
  0.000000000000000E+000
  0.000000000000000E+000
  0.000000000000000E+000
  0.000000000000000E+000
  0.000000000000000E+000
  0.000000000000000E+000
  0.000000000000000E+000
  0.000000000000000E+000
  0.000000000000000E+000
  0.000000000000000E+000
  0.000000000000000E+000
  0.000000000000000E+000
  0.000000000000000E+000
  0.000000000000000E+000
  0.000000000000000E+000
  0.000000000000000E+000
  0.000000000000000E+000
  0.000000000000000E+000
  0.000000000000000E+000
  0.000000000000000E+000
  0.000000000000000E+000
  0.000000000000000E+000
  0.000000000000000E+000
  0.000000000000000E+000
  0.000000000000000E+000
  0.000000000000000E+000
  0.000000000000000E+000
  0.000000000000000E+000
  0.000000000000000E+000
  0.000000000000000E+000
  0.000000000000000E+000
  0.000000000000000E+000
  0.000000000000000E+000
  0.000000000000000E+000
  0.000000000000000E+000
  0.000000000000000E+000
  0.000000000000000E+000
  0.000000000000000E+000
  0.000000000000000E+000
  0.000000000000000E+000
  0.000000000000000E+000
  0.000000000000000E+000
  0.000000000000000E+000
  0.000000000000000E+000
  0.000000000000000E+000
  0.000000000000000E+000
  0.000000000000000E+000
  0.000000000000000E+000
  0.000000000000000E+000
  0.000000000000000E+000
  0.000000000000000E+000
  0.000000000000000E+000
  0.000000000000000E+000
  0.000000000000000E+000
  0.000000000000000E+000
  0.000000000000000E+000
  0.000000000000000E+000
  0.000000000000000E+000
  0.000000000000000E+000
  0.000000000000000E+000
  0.000000000000000E+000
  0.000000000000000E+000
  0.000000000000000E+000
  0.000000000000000E+000
  0.000000000000000E+000
  0.000000000000000E+000
  0.000000000000000E+000
  0.000000000000000E+000
  0.000000000000000E+000
  0.000000000000000E+000
  0.000000000000000E+000
  0.000000000000000E+000
  0.000000000000000E+000
  0.000000000000000E+000
  0.000000000000000E+000
  0.000000000000000E+000
  0.000000000000000E+000
  0.000000000000000E+000
  0.000000000000000E+000
  0.000000000000000E+000
  0.000000000000000E+000
  0.000000000000000E+000
  0.000000000000000E+000
  0.000000000000000E+000
  0.000000000000000E+000
  0.000000000000000E+000
  0.000000000000000E+000
  0.000000000000000E+000
  0.000000000000000E+000
  0.000000000000000E+000
  0.000000000000000E+000
  0.000000000000000E+000
  0.000000000000000E+000
  0.000000000000000E+000
  0.000000000000000E+000
  0.000000000000000E+000
  0.000000000000000E+000
  0.000000000000000E+000
  0.000000000000000E+000
  0.000000000000000E+000
  0.000000000000000E+000
  0.000000000000000E+000
  0.000000000000000E+000
  0.000000000000000E+000
  0.000000000000000E+000
  0.000000000000000E+000
  0.000000000000000E+000
  0.000000000000000E+000
  0.000000000000000E+000
  0.000000000000000E+000
  0.000000000000000E+000
  0.000000000000000E+000
  0.000000000000000E+000
  0.000000000000000E+000
  0.000000000000000E+000
  0.000000000000000E+000
  0.000000000000000E+000
  0.000000000000000E+000
  0.000000000000000E+000
  0.000000000000000E+000
  0.000000000000000E+000
  0.000000000000000E+000
  0.000000000000000E+000
  0.000000000000000E+000
  0.000000000000000E+000
  0.000000000000000E+000
  0.000000000000000E+000
  0.000000000000000E+000
  0.000000000000000E+000
  0.000000000000000E+000
  0.000000000000000E+000
  0.000000000000000E+000
  0.000000000000000E+000
  0.000000000000000E+000
  0.000000000000000E+000
  0.000000000000000E+000
  0.000000000000000E+000
  0.000000000000000E+000
  0.000000000000000E+000
  0.000000000000000E+000
  0.000000000000000E+000
  0.000000000000000E+000
  0.000000000000000E+000
  0.000000000000000E+000
  0.000000000000000E+000
  0.000000000000000E+000
  0.000000000000000E+000
  0.000000000000000E+000
  0.000000000000000E+000
  0.000000000000000E+000
  0.000000000000000E+000
  0.000000000000000E+000
  0.000000000000000E+000
  0.000000000000000E+000
  0.000000000000000E+000
  0.000000000000000E+000
  0.000000000000000E+000
  0.000000000000000E+000
  0.000000000000000E+000
  0.000000000000000E+000
  0.000000000000000E+000
  0.000000000000000E+000
  0.000000000000000E+000
  0.000000000000000E+000
  0.000000000000000E+000
  0.000000000000000E+000
  0.000000000000000E+000
  0.000000000000000E+000
  0.000000000000000E+000
  0.000000000000000E+000
  0.000000000000000E+000
  0.000000000000000E+000
  0.000000000000000E+000
  0.000000000000000E+000
  0.000000000000000E+000
  0.000000000000000E+000
  0.000000000000000E+000
  0.000000000000000E+000
  0.000000000000000E+000
  0.000000000000000E+000
  0.000000000000000E+000
  0.000000000000000E+000
  0.000000000000000E+000
  0.000000000000000E+000
  0.000000000000000E+000
  0.000000000000000E+000
  0.000000000000000E+000
  0.000000000000000E+000
  0.000000000000000E+000
  0.000000000000000E+000
  0.000000000000000E+000
  0.000000000000000E+000
  0.000000000000000E+000
  0.000000000000000E+000
  0.000000000000000E+000
  0.000000000000000E+000
  0.000000000000000E+000
  0.000000000000000E+000
  0.000000000000000E+000
  0.000000000000000E+000
  0.000000000000000E+000
  0.000000000000000E+000
  0.000000000000000E+000
  0.000000000000000E+000
  0.000000000000000E+000
  0.000000000000000E+000
  0.000000000000000E+000
  0.000000000000000E+000
  0.000000000000000E+000
  0.000000000000000E+000
  0.000000000000000E+000
  0.000000000000000E+000
  0.000000000000000E+000
  0.000000000000000E+000
  0.000000000000000E+000
  0.000000000000000E+000
  0.000000000000000E+000
  0.000000000000000E+000
  0.000000000000000E+000
  0.000000000000000E+000
  0.000000000000000E+000
  0.000000000000000E+000
  0.000000000000000E+000
  0.000000000000000E+000
  0.000000000000000E+000
  0.000000000000000E+000
  0.000000000000000E+000
  0.000000000000000E+000
  0.000000000000000E+000
  0.000000000000000E+000
  0.000000000000000E+000
  0.000000000000000E+000
  0.000000000000000E+000
  0.000000000000000E+000
  0.000000000000000E+000
  0.000000000000000E+000
  0.000000000000000E+000
  0.000000000000000E+000
  0.000000000000000E+000
  0.000000000000000E+000
  0.000000000000000E+000
  0.000000000000000E+000
  0.000000000000000E+000
  0.000000000000000E+000
  0.000000000000000E+000
  0.000000000000000E+000
  0.000000000000000E+000
  0.000000000000000E+000
  0.000000000000000E+000
  0.000000000000000E+000
  0.000000000000000E+000
  0.000000000000000E+000
  0.000000000000000E+000
  0.000000000000000E+000
  0.000000000000000E+000
  0.000000000000000E+000
  0.000000000000000E+000
  0.000000000000000E+000
  0.000000000000000E+000
  0.000000000000000E+000
  0.000000000000000E+000
  0.000000000000000E+000
  0.000000000000000E+000
  0.000000000000000E+000
  0.000000000000000E+000
  0.000000000000000E+000
  0.000000000000000E+000
  0.000000000000000E+000
  0.000000000000000E+000
  0.000000000000000E+000
  0.000000000000000E+000
  0.000000000000000E+000
  0.000000000000000E+000
  0.000000000000000E+000
  0.000000000000000E+000
  0.000000000000000E+000
  0.000000000000000E+000
  0.000000000000000E+000
  0.000000000000000E+000
  0.000000000000000E+000
  0.000000000000000E+000
  0.000000000000000E+000
  0.000000000000000E+000
  0.000000000000000E+000
  0.000000000000000E+000
  0.000000000000000E+000
  0.000000000000000E+000
  0.000000000000000E+000
  0.000000000000000E+000
  0.000000000000000E+000
  0.000000000000000E+000
  0.000000000000000E+000
  0.000000000000000E+000
  0.000000000000000E+000
  0.000000000000000E+000
  0.000000000000000E+000
  0.000000000000000E+000
  0.000000000000000E+000
  0.000000000000000E+000
  0.000000000000000E+000
  0.000000000000000E+000
  0.000000000000000E+000
  0.000000000000000E+000
  0.000000000000000E+000
  0.000000000000000E+000
  0.000000000000000E+000
  0.000000000000000E+000
  0.000000000000000E+000
  0.000000000000000E+000
  0.000000000000000E+000
  0.000000000000000E+000
  0.000000000000000E+000
  0.000000000000000E+000
  0.000000000000000E+000
  0.000000000000000E+000
  0.000000000000000E+000
  0.000000000000000E+000
  0.000000000000000E+000
  0.000000000000000E+000
  0.000000000000000E+000
  0.000000000000000E+000
  0.000000000000000E+000
  0.000000000000000E+000
  0.000000000000000E+000
  0.000000000000000E+000
  0.000000000000000E+000
  0.000000000000000E+000
  0.000000000000000E+000
  0.000000000000000E+000
  0.000000000000000E+000
  0.000000000000000E+000
  0.000000000000000E+000
  0.000000000000000E+000
  0.000000000000000E+000
  0.000000000000000E+000
  0.000000000000000E+000
  0.000000000000000E+000
  0.000000000000000E+000
  0.000000000000000E+000
  0.000000000000000E+000
  0.000000000000000E+000
  0.000000000000000E+000
  0.000000000000000E+000
  0.000000000000000E+000
  0.000000000000000E+000
  0.000000000000000E+000
  0.000000000000000E+000
  0.000000000000000E+000
  0.000000000000000E+000
  0.000000000000000E+000
  0.000000000000000E+000
  0.000000000000000E+000
  0.000000000000000E+000
  0.000000000000000E+000
  0.000000000000000E+000
  0.000000000000000E+000
  0.000000000000000E+000
  0.000000000000000E+000
  0.000000000000000E+000
  0.000000000000000E+000
  0.000000000000000E+000
  0.000000000000000E+000
  0.000000000000000E+000
  0.000000000000000E+000
  0.000000000000000E+000
  0.000000000000000E+000
  0.000000000000000E+000
  0.000000000000000E+000
  0.000000000000000E+000
  0.000000000000000E+000
  0.000000000000000E+000
  0.000000000000000E+000
  0.000000000000000E+000
  0.000000000000000E+000
  0.000000000000000E+000
  0.000000000000000E+000
  0.000000000000000E+000
  0.000000000000000E+000
  0.000000000000000E+000
  0.000000000000000E+000
  0.000000000000000E+000
  0.000000000000000E+000
  0.000000000000000E+000
  0.000000000000000E+000
  0.000000000000000E+000
  0.000000000000000E+000
  0.000000000000000E+000
  0.000000000000000E+000
  0.000000000000000E+000
  0.000000000000000E+000
  0.000000000000000E+000
  0.000000000000000E+000
  0.000000000000000E+000
  0.000000000000000E+000
  0.000000000000000E+000
  0.000000000000000E+000
  0.000000000000000E+000
  0.000000000000000E+000
  0.000000000000000E+000
  0.000000000000000E+000
  0.000000000000000E+000
  0.000000000000000E+000
  0.000000000000000E+000
  0.000000000000000E+000
  0.000000000000000E+000
  0.000000000000000E+000
  0.000000000000000E+000
  0.000000000000000E+000
  0.000000000000000E+000
  0.000000000000000E+000
  0.000000000000000E+000
  0.000000000000000E+000
  0.000000000000000E+000
  0.000000000000000E+000
  0.000000000000000E+000
  0.000000000000000E+000
  0.000000000000000E+000
  0.000000000000000E+000
  0.000000000000000E+000
  0.000000000000000E+000
  0.000000000000000E+000
  0.000000000000000E+000
  0.000000000000000E+000
  0.000000000000000E+000
  0.000000000000000E+000
  0.000000000000000E+000
  0.000000000000000E+000
  0.000000000000000E+000
  0.000000000000000E+000
  0.000000000000000E+000
  0.000000000000000E+000
  0.000000000000000E+000
  0.000000000000000E+000
  0.000000000000000E+000
  0.000000000000000E+000
  0.000000000000000E+000
  0.000000000000000E+000
  0.000000000000000E+000
  0.000000000000000E+000
  0.000000000000000E+000
  0.000000000000000E+000
  0.000000000000000E+000
  0.000000000000000E+000
  0.000000000000000E+000
  0.000000000000000E+000
  0.000000000000000E+000
  0.000000000000000E+000
  0.000000000000000E+000
  0.000000000000000E+000
  0.000000000000000E+000
  0.000000000000000E+000
  0.000000000000000E+000
  0.000000000000000E+000
  0.000000000000000E+000
  0.000000000000000E+000
  0.000000000000000E+000
  0.000000000000000E+000
  0.000000000000000E+000
  0.000000000000000E+000
  0.000000000000000E+000
  0.000000000000000E+000
  0.000000000000000E+000
  0.000000000000000E+000
  0.000000000000000E+000
  0.000000000000000E+000
  0.000000000000000E+000
  0.000000000000000E+000
  0.000000000000000E+000
  0.000000000000000E+000
  0.000000000000000E+000
  0.000000000000000E+000
  0.000000000000000E+000
  0.000000000000000E+000
  0.000000000000000E+000
  0.000000000000000E+000
  0.000000000000000E+000
  0.000000000000000E+000
  0.000000000000000E+000
  0.000000000000000E+000
  0.000000000000000E+000
  0.000000000000000E+000
  0.000000000000000E+000
  0.000000000000000E+000
  0.000000000000000E+000
  0.000000000000000E+000
  0.000000000000000E+000
  0.000000000000000E+000
  0.000000000000000E+000
  0.000000000000000E+000
  0.000000000000000E+000
  0.000000000000000E+000
  0.000000000000000E+000
  0.000000000000000E+000
  0.000000000000000E+000
  0.000000000000000E+000
  0.000000000000000E+000
  0.000000000000000E+000
  0.000000000000000E+000
  0.000000000000000E+000
  0.000000000000000E+000
  0.000000000000000E+000
  0.000000000000000E+000
  0.000000000000000E+000
  0.000000000000000E+000
  0.000000000000000E+000
  0.000000000000000E+000
  0.000000000000000E+000
  0.000000000000000E+000
  0.000000000000000E+000
  0.000000000000000E+000
  0.000000000000000E+000
  0.000000000000000E+000
  0.000000000000000E+000
  0.000000000000000E+000
  0.000000000000000E+000
  0.000000000000000E+000
  0.000000000000000E+000
  0.000000000000000E+000
  0.000000000000000E+000
  0.000000000000000E+000
  0.000000000000000E+000
  0.000000000000000E+000
  0.000000000000000E+000
  0.000000000000000E+000
  0.000000000000000E+000
  0.000000000000000E+000
  0.000000000000000E+000
  0.000000000000000E+000
  0.000000000000000E+000
  0.000000000000000E+000
  0.000000000000000E+000
  0.000000000000000E+000
  0.000000000000000E+000
  0.000000000000000E+000
  0.000000000000000E+000
  0.000000000000000E+000
  0.000000000000000E+000
  0.000000000000000E+000
  0.000000000000000E+000
  0.000000000000000E+000
  0.000000000000000E+000
  0.000000000000000E+000
  0.000000000000000E+000
  0.000000000000000E+000
  0.000000000000000E+000
  0.000000000000000E+000
  0.000000000000000E+000
  0.000000000000000E+000
  0.000000000000000E+000
  0.000000000000000E+000
  0.000000000000000E+000
  0.000000000000000E+000
  0.000000000000000E+000
  0.000000000000000E+000
  0.000000000000000E+000
  0.000000000000000E+000
  0.000000000000000E+000
  0.000000000000000E+000
  0.000000000000000E+000
  0.000000000000000E+000
  0.000000000000000E+000
  0.000000000000000E+000
  0.000000000000000E+000
  0.000000000000000E+000
  0.000000000000000E+000
  0.000000000000000E+000
  0.000000000000000E+000
  0.000000000000000E+000
  0.000000000000000E+000
  0.000000000000000E+000
  0.000000000000000E+000
  0.000000000000000E+000
  0.000000000000000E+000
  0.000000000000000E+000
  0.000000000000000E+000
  0.000000000000000E+000
  0.000000000000000E+000
  0.000000000000000E+000
  0.000000000000000E+000
  0.000000000000000E+000
  0.000000000000000E+000
  0.000000000000000E+000
  0.000000000000000E+000
  0.000000000000000E+000
  0.000000000000000E+000
  0.000000000000000E+000
  0.000000000000000E+000
  0.000000000000000E+000
  0.000000000000000E+000
  0.000000000000000E+000
  0.000000000000000E+000
  0.000000000000000E+000
  0.000000000000000E+000
  0.000000000000000E+000
  0.000000000000000E+000
  0.000000000000000E+000
  0.000000000000000E+000
  0.000000000000000E+000
  0.000000000000000E+000
  0.000000000000000E+000
  0.000000000000000E+000
  0.000000000000000E+000
  0.000000000000000E+000
  0.000000000000000E+000
