# vtk DataFile Version 3.0
vtk output
ASCII
DATASET UNSTRUCTURED_GRID
POINTS      1225 double 
  0.00000000E+00  2.40000000E+01  0.00000000E+00
  0.00000000E+00  2.30000000E+01  0.00000000E+00
  0.00000000E+00  2.20000000E+01  0.00000000E+00
  0.00000000E+00  2.10000000E+01  0.00000000E+00
  0.00000000E+00  2.00000000E+01  0.00000000E+00
  0.00000000E+00  1.90000000E+01  0.00000000E+00
  0.00000000E+00  1.80000000E+01  0.00000000E+00
  0.00000000E+00  1.70000000E+01  0.00000000E+00
  0.00000000E+00  1.60000000E+01  0.00000000E+00
  0.00000000E+00  1.50000000E+01  0.00000000E+00
  0.00000000E+00  1.40000000E+01  0.00000000E+00
  0.00000000E+00  1.30000000E+01  0.00000000E+00
  0.00000000E+00  1.20000000E+01  0.00000000E+00
  0.00000000E+00  1.10000000E+01  0.00000000E+00
  0.00000000E+00  1.00000000E+01  0.00000000E+00
  0.00000000E+00  9.00000000E+00  0.00000000E+00
  0.00000000E+00  8.00000000E+00  0.00000000E+00
  0.00000000E+00  7.00000000E+00  0.00000000E+00
  0.00000000E+00  6.00000000E+00  0.00000000E+00
  0.00000000E+00  5.00000000E+00  0.00000000E+00
  0.00000000E+00  4.00000000E+00  0.00000000E+00
  0.00000000E+00  3.00000000E+00  0.00000000E+00
  0.00000000E+00  2.00000000E+00  0.00000000E+00
  0.00000000E+00  1.00000000E+00  0.00000000E+00
  0.00000000E+00 -2.66453526E-15  0.00000000E+00
  1.00000000E+00  2.40000000E+01  0.00000000E+00
  1.00000000E+00  2.30000000E+01  0.00000000E+00
  1.00000000E+00  2.20000000E+01  0.00000000E+00
  1.00000000E+00  2.10000000E+01  0.00000000E+00
  1.00000000E+00  2.00000000E+01  0.00000000E+00
  1.00000000E+00  1.90000000E+01  0.00000000E+00
  1.00000000E+00  1.80000000E+01  0.00000000E+00
  1.00000000E+00  1.70000000E+01  0.00000000E+00
  1.00000000E+00  1.60000000E+01  0.00000000E+00
  1.00000000E+00  1.50000000E+01  0.00000000E+00
  1.00000000E+00  1.40000000E+01  0.00000000E+00
  1.00000000E+00  1.30000000E+01  0.00000000E+00
  1.00000000E+00  1.20000000E+01  0.00000000E+00
  1.00000000E+00  1.10000000E+01  0.00000000E+00
  1.00000000E+00  1.00000000E+01  0.00000000E+00
  1.00000000E+00  9.00000000E+00  0.00000000E+00
  1.00000000E+00  8.00000000E+00  0.00000000E+00
  1.00000000E+00  7.00000000E+00  0.00000000E+00
  1.00000000E+00  6.00000000E+00  0.00000000E+00
  1.00000000E+00  5.00000000E+00  0.00000000E+00
  1.00000000E+00  4.00000000E+00  0.00000000E+00
  1.00000000E+00  3.00000000E+00  0.00000000E+00
  1.00000000E+00  2.00000000E+00  0.00000000E+00
  1.00000000E+00  1.00000000E+00  0.00000000E+00
  1.00000000E+00 -2.66453526E-15  0.00000000E+00
  2.00000000E+00  2.40000000E+01  0.00000000E+00
  2.00000000E+00  2.30000000E+01  0.00000000E+00
  2.00000000E+00  2.20000000E+01  0.00000000E+00
  2.00000000E+00  2.10000000E+01  0.00000000E+00
  2.00000000E+00  2.00000000E+01  0.00000000E+00
  2.00000000E+00  1.90000000E+01  0.00000000E+00
  2.00000000E+00  1.80000000E+01  0.00000000E+00
  2.00000000E+00  1.70000000E+01  0.00000000E+00
  2.00000000E+00  1.60000000E+01  0.00000000E+00
  2.00000000E+00  1.50000000E+01  0.00000000E+00
  2.00000000E+00  1.40000000E+01  0.00000000E+00
  2.00000000E+00  1.30000000E+01  0.00000000E+00
  2.00000000E+00  1.20000000E+01  0.00000000E+00
  2.00000000E+00  1.10000000E+01  0.00000000E+00
  2.00000000E+00  1.00000000E+01  0.00000000E+00
  2.00000000E+00  9.00000000E+00  0.00000000E+00
  2.00000000E+00  8.00000000E+00  0.00000000E+00
  2.00000000E+00  7.00000000E+00  0.00000000E+00
  2.00000000E+00  6.00000000E+00  0.00000000E+00
  2.00000000E+00  5.00000000E+00  0.00000000E+00
  2.00000000E+00  4.00000000E+00  0.00000000E+00
  2.00000000E+00  3.00000000E+00  0.00000000E+00
  2.00000000E+00  2.00000000E+00  0.00000000E+00
  2.00000000E+00  1.00000000E+00  0.00000000E+00
  2.00000000E+00 -2.66453526E-15  0.00000000E+00
  3.00000000E+00  2.40000000E+01  0.00000000E+00
  3.00000000E+00  2.30000000E+01  0.00000000E+00
  3.00000000E+00  2.20000000E+01  0.00000000E+00
  3.00000000E+00  2.10000000E+01  0.00000000E+00
  3.00000000E+00  2.00000000E+01  0.00000000E+00
  3.00000000E+00  1.90000000E+01  0.00000000E+00
  3.00000000E+00  1.80000000E+01  0.00000000E+00
  3.00000000E+00  1.70000000E+01  0.00000000E+00
  3.00000000E+00  1.60000000E+01  0.00000000E+00
  3.00000000E+00  1.50000000E+01  0.00000000E+00
  3.00000000E+00  1.40000000E+01  0.00000000E+00
  3.00000000E+00  1.30000000E+01  0.00000000E+00
  3.00000000E+00  1.20000000E+01  0.00000000E+00
  3.00000000E+00  1.10000000E+01  0.00000000E+00
  3.00000000E+00  1.00000000E+01  0.00000000E+00
  3.00000000E+00  9.00000000E+00  0.00000000E+00
  3.00000000E+00  8.00000000E+00  0.00000000E+00
  3.00000000E+00  7.00000000E+00  0.00000000E+00
  3.00000000E+00  6.00000000E+00  0.00000000E+00
  3.00000000E+00  5.00000000E+00  0.00000000E+00
  3.00000000E+00  4.00000000E+00  0.00000000E+00
  3.00000000E+00  3.00000000E+00  0.00000000E+00
  3.00000000E+00  2.00000000E+00  0.00000000E+00
  3.00000000E+00  1.00000000E+00  0.00000000E+00
  3.00000000E+00 -2.66453526E-15  0.00000000E+00
  4.00000000E+00  2.40000000E+01  0.00000000E+00
  4.00000000E+00  2.30000000E+01  0.00000000E+00
  4.00000000E+00  2.20000000E+01  0.00000000E+00
  4.00000000E+00  2.10000000E+01  0.00000000E+00
  4.00000000E+00  2.00000000E+01  0.00000000E+00
  4.00000000E+00  1.90000000E+01  0.00000000E+00
  4.00000000E+00  1.80000000E+01  0.00000000E+00
  4.00000000E+00  1.70000000E+01  0.00000000E+00
  4.00000000E+00  1.60000000E+01  0.00000000E+00
  4.00000000E+00  1.50000000E+01  0.00000000E+00
  4.00000000E+00  1.40000000E+01  0.00000000E+00
  4.00000000E+00  1.30000000E+01  0.00000000E+00
  4.00000000E+00  1.20000000E+01  0.00000000E+00
  4.00000000E+00  1.10000000E+01  0.00000000E+00
  4.00000000E+00  1.00000000E+01  0.00000000E+00
  4.00000000E+00  9.00000000E+00  0.00000000E+00
  4.00000000E+00  8.00000000E+00  0.00000000E+00
  4.00000000E+00  7.00000000E+00  0.00000000E+00
  4.00000000E+00  6.00000000E+00  0.00000000E+00
  4.00000000E+00  5.00000000E+00  0.00000000E+00
  4.00000000E+00  4.00000000E+00  0.00000000E+00
  4.00000000E+00  3.00000000E+00  0.00000000E+00
  4.00000000E+00  2.00000000E+00  0.00000000E+00
  4.00000000E+00  1.00000000E+00  0.00000000E+00
  4.00000000E+00 -2.66453526E-15  0.00000000E+00
  5.00000000E+00  2.40000000E+01  0.00000000E+00
  5.00000000E+00  2.30000000E+01  0.00000000E+00
  5.00000000E+00  2.20000000E+01  0.00000000E+00
  5.00000000E+00  2.10000000E+01  0.00000000E+00
  5.00000000E+00  2.00000000E+01  0.00000000E+00
  5.00000000E+00  1.90000000E+01  0.00000000E+00
  5.00000000E+00  1.80000000E+01  0.00000000E+00
  5.00000000E+00  1.70000000E+01  0.00000000E+00
  5.00000000E+00  1.60000000E+01  0.00000000E+00
  5.00000000E+00  1.50000000E+01  0.00000000E+00
  5.00000000E+00  1.40000000E+01  0.00000000E+00
  5.00000000E+00  1.30000000E+01  0.00000000E+00
  5.00000000E+00  1.20000000E+01  0.00000000E+00
  5.00000000E+00  1.10000000E+01  0.00000000E+00
  5.00000000E+00  1.00000000E+01  0.00000000E+00
  5.00000000E+00  9.00000000E+00  0.00000000E+00
  5.00000000E+00  8.00000000E+00  0.00000000E+00
  5.00000000E+00  7.00000000E+00  0.00000000E+00
  5.00000000E+00  6.00000000E+00  0.00000000E+00
  5.00000000E+00  5.00000000E+00  0.00000000E+00
  5.00000000E+00  4.00000000E+00  0.00000000E+00
  5.00000000E+00  3.00000000E+00  0.00000000E+00
  5.00000000E+00  2.00000000E+00  0.00000000E+00
  5.00000000E+00  1.00000000E+00  0.00000000E+00
  5.00000000E+00 -2.66453526E-15  0.00000000E+00
  6.00000000E+00  2.40000000E+01  0.00000000E+00
  6.00000000E+00  2.30000000E+01  0.00000000E+00
  6.00000000E+00  2.20000000E+01  0.00000000E+00
  6.00000000E+00  2.10000000E+01  0.00000000E+00
  6.00000000E+00  2.00000000E+01  0.00000000E+00
  6.00000000E+00  1.90000000E+01  0.00000000E+00
  6.00000000E+00  1.80000000E+01  0.00000000E+00
  6.00000000E+00  1.70000000E+01  0.00000000E+00
  6.00000000E+00  1.60000000E+01  0.00000000E+00
  6.00000000E+00  1.50000000E+01  0.00000000E+00
  6.00000000E+00  1.40000000E+01  0.00000000E+00
  6.00000000E+00  1.30000000E+01  0.00000000E+00
  6.00000000E+00  1.20000000E+01  0.00000000E+00
  6.00000000E+00  1.10000000E+01  0.00000000E+00
  6.00000000E+00  1.00000000E+01  0.00000000E+00
  6.00000000E+00  9.00000000E+00  0.00000000E+00
  6.00000000E+00  8.00000000E+00  0.00000000E+00
  6.00000000E+00  7.00000000E+00  0.00000000E+00
  6.00000000E+00  6.00000000E+00  0.00000000E+00
  6.00000000E+00  5.00000000E+00  0.00000000E+00
  6.00000000E+00  4.00000000E+00  0.00000000E+00
  6.00000000E+00  3.00000000E+00  0.00000000E+00
  6.00000000E+00  2.00000000E+00  0.00000000E+00
  6.00000000E+00  1.00000000E+00  0.00000000E+00
  6.00000000E+00 -2.66453526E-15  0.00000000E+00
  7.00000000E+00  2.40000000E+01  0.00000000E+00
  7.00000000E+00  2.30000000E+01  0.00000000E+00
  7.00000000E+00  2.20000000E+01  0.00000000E+00
  7.00000000E+00  2.10000000E+01  0.00000000E+00
  7.00000000E+00  2.00000000E+01  0.00000000E+00
  7.00000000E+00  1.90000000E+01  0.00000000E+00
  7.00000000E+00  1.80000000E+01  0.00000000E+00
  7.00000000E+00  1.70000000E+01  0.00000000E+00
  7.00000000E+00  1.60000000E+01  0.00000000E+00
  7.00000000E+00  1.50000000E+01  0.00000000E+00
  7.00000000E+00  1.40000000E+01  0.00000000E+00
  7.00000000E+00  1.30000000E+01  0.00000000E+00
  7.00000000E+00  1.20000000E+01  0.00000000E+00
  7.00000000E+00  1.10000000E+01  0.00000000E+00
  7.00000000E+00  1.00000000E+01  0.00000000E+00
  7.00000000E+00  9.00000000E+00  0.00000000E+00
  7.00000000E+00  8.00000000E+00  0.00000000E+00
  7.00000000E+00  7.00000000E+00  0.00000000E+00
  7.00000000E+00  6.00000000E+00  0.00000000E+00
  7.00000000E+00  5.00000000E+00  0.00000000E+00
  7.00000000E+00  4.00000000E+00  0.00000000E+00
  7.00000000E+00  3.00000000E+00  0.00000000E+00
  7.00000000E+00  2.00000000E+00  0.00000000E+00
  7.00000000E+00  1.00000000E+00  0.00000000E+00
  7.00000000E+00 -2.66453526E-15  0.00000000E+00
  8.00000000E+00  2.40000000E+01  0.00000000E+00
  8.00000000E+00  2.30000000E+01  0.00000000E+00
  8.00000000E+00  2.20000000E+01  0.00000000E+00
  8.00000000E+00  2.10000000E+01  0.00000000E+00
  8.00000000E+00  2.00000000E+01  0.00000000E+00
  8.00000000E+00  1.90000000E+01  0.00000000E+00
  8.00000000E+00  1.80000000E+01  0.00000000E+00
  8.00000000E+00  1.70000000E+01  0.00000000E+00
  8.00000000E+00  1.60000000E+01  0.00000000E+00
  8.00000000E+00  1.50000000E+01  0.00000000E+00
  8.00000000E+00  1.40000000E+01  0.00000000E+00
  8.00000000E+00  1.30000000E+01  0.00000000E+00
  8.00000000E+00  1.20000000E+01  0.00000000E+00
  8.00000000E+00  1.10000000E+01  0.00000000E+00
  8.00000000E+00  1.00000000E+01  0.00000000E+00
  8.00000000E+00  9.00000000E+00  0.00000000E+00
  8.00000000E+00  8.00000000E+00  0.00000000E+00
  8.00000000E+00  7.00000000E+00  0.00000000E+00
  8.00000000E+00  6.00000000E+00  0.00000000E+00
  8.00000000E+00  5.00000000E+00  0.00000000E+00
  8.00000000E+00  4.00000000E+00  0.00000000E+00
  8.00000000E+00  3.00000000E+00  0.00000000E+00
  8.00000000E+00  2.00000000E+00  0.00000000E+00
  8.00000000E+00  1.00000000E+00  0.00000000E+00
  8.00000000E+00 -2.66453526E-15  0.00000000E+00
  9.00000000E+00  2.40000000E+01  0.00000000E+00
  9.00000000E+00  2.30000000E+01  0.00000000E+00
  9.00000000E+00  2.20000000E+01  0.00000000E+00
  9.00000000E+00  2.10000000E+01  0.00000000E+00
  9.00000000E+00  2.00000000E+01  0.00000000E+00
  9.00000000E+00  1.90000000E+01  0.00000000E+00
  9.00000000E+00  1.80000000E+01  0.00000000E+00
  9.00000000E+00  1.70000000E+01  0.00000000E+00
  9.00000000E+00  1.60000000E+01  0.00000000E+00
  9.00000000E+00  1.50000000E+01  0.00000000E+00
  9.00000000E+00  1.40000000E+01  0.00000000E+00
  9.00000000E+00  1.30000000E+01  0.00000000E+00
  9.00000000E+00  1.20000000E+01  0.00000000E+00
  9.00000000E+00  1.10000000E+01  0.00000000E+00
  9.00000000E+00  1.00000000E+01  0.00000000E+00
  9.00000000E+00  9.00000000E+00  0.00000000E+00
  9.00000000E+00  8.00000000E+00  0.00000000E+00
  9.00000000E+00  7.00000000E+00  0.00000000E+00
  9.00000000E+00  6.00000000E+00  0.00000000E+00
  9.00000000E+00  5.00000000E+00  0.00000000E+00
  9.00000000E+00  4.00000000E+00  0.00000000E+00
  9.00000000E+00  3.00000000E+00  0.00000000E+00
  9.00000000E+00  2.00000000E+00  0.00000000E+00
  9.00000000E+00  1.00000000E+00  0.00000000E+00
  9.00000000E+00 -2.66453526E-15  0.00000000E+00
  1.00000000E+01  2.40000000E+01  0.00000000E+00
  1.00000000E+01  2.30000000E+01  0.00000000E+00
  1.00000000E+01  2.20000000E+01  0.00000000E+00
  1.00000000E+01  2.10000000E+01  0.00000000E+00
  1.00000000E+01  2.00000000E+01  0.00000000E+00
  1.00000000E+01  1.90000000E+01  0.00000000E+00
  1.00000000E+01  1.80000000E+01  0.00000000E+00
  1.00000000E+01  1.70000000E+01  0.00000000E+00
  1.00000000E+01  1.60000000E+01  0.00000000E+00
  1.00000000E+01  1.50000000E+01  0.00000000E+00
  1.00000000E+01  1.40000000E+01  0.00000000E+00
  1.00000000E+01  1.30000000E+01  0.00000000E+00
  1.00000000E+01  1.20000000E+01  0.00000000E+00
  1.00000000E+01  1.10000000E+01  0.00000000E+00
  1.00000000E+01  1.00000000E+01  0.00000000E+00
  1.00000000E+01  9.00000000E+00  0.00000000E+00
  1.00000000E+01  8.00000000E+00  0.00000000E+00
  1.00000000E+01  7.00000000E+00  0.00000000E+00
  1.00000000E+01  6.00000000E+00  0.00000000E+00
  1.00000000E+01  5.00000000E+00  0.00000000E+00
  1.00000000E+01  4.00000000E+00  0.00000000E+00
  1.00000000E+01  3.00000000E+00  0.00000000E+00
  1.00000000E+01  2.00000000E+00  0.00000000E+00
  1.00000000E+01  1.00000000E+00  0.00000000E+00
  1.00000000E+01 -2.66453526E-15  0.00000000E+00
  1.10000000E+01  2.40000000E+01  0.00000000E+00
  1.10000000E+01  2.30000000E+01  0.00000000E+00
  1.10000000E+01  2.20000000E+01  0.00000000E+00
  1.10000000E+01  2.10000000E+01  0.00000000E+00
  1.10000000E+01  2.00000000E+01  0.00000000E+00
  1.10000000E+01  1.90000000E+01  0.00000000E+00
  1.10000000E+01  1.80000000E+01  0.00000000E+00
  1.10000000E+01  1.70000000E+01  0.00000000E+00
  1.10000000E+01  1.60000000E+01  0.00000000E+00
  1.10000000E+01  1.50000000E+01  0.00000000E+00
  1.10000000E+01  1.40000000E+01  0.00000000E+00
  1.10000000E+01  1.30000000E+01  0.00000000E+00
  1.10000000E+01  1.20000000E+01  0.00000000E+00
  1.10000000E+01  1.10000000E+01  0.00000000E+00
  1.10000000E+01  1.00000000E+01  0.00000000E+00
  1.10000000E+01  9.00000000E+00  0.00000000E+00
  1.10000000E+01  8.00000000E+00  0.00000000E+00
  1.10000000E+01  7.00000000E+00  0.00000000E+00
  1.10000000E+01  6.00000000E+00  0.00000000E+00
  1.10000000E+01  5.00000000E+00  0.00000000E+00
  1.10000000E+01  4.00000000E+00  0.00000000E+00
  1.10000000E+01  3.00000000E+00  0.00000000E+00
  1.10000000E+01  2.00000000E+00  0.00000000E+00
  1.10000000E+01  1.00000000E+00  0.00000000E+00
  1.10000000E+01 -2.66453526E-15  0.00000000E+00
  1.20000000E+01  2.40000000E+01  0.00000000E+00
  1.20000000E+01  2.30000000E+01  0.00000000E+00
  1.20000000E+01  2.20000000E+01  0.00000000E+00
  1.20000000E+01  2.10000000E+01  0.00000000E+00
  1.20000000E+01  2.00000000E+01  0.00000000E+00
  1.20000000E+01  1.90000000E+01  0.00000000E+00
  1.20000000E+01  1.80000000E+01  0.00000000E+00
  1.20000000E+01  1.70000000E+01  0.00000000E+00
  1.20000000E+01  1.60000000E+01  0.00000000E+00
  1.20000000E+01  1.50000000E+01  0.00000000E+00
  1.20000000E+01  1.40000000E+01  0.00000000E+00
  1.20000000E+01  1.30000000E+01  0.00000000E+00
  1.20000000E+01  1.20000000E+01  0.00000000E+00
  1.20000000E+01  1.10000000E+01  0.00000000E+00
  1.20000000E+01  1.00000000E+01  0.00000000E+00
  1.20000000E+01  9.00000000E+00  0.00000000E+00
  1.20000000E+01  8.00000000E+00  0.00000000E+00
  1.20000000E+01  7.00000000E+00  0.00000000E+00
  1.20000000E+01  6.00000000E+00  0.00000000E+00
  1.20000000E+01  5.00000000E+00  0.00000000E+00
  1.20000000E+01  4.00000000E+00  0.00000000E+00
  1.20000000E+01  3.00000000E+00  0.00000000E+00
  1.20000000E+01  2.00000000E+00  0.00000000E+00
  1.20000000E+01  1.00000000E+00  0.00000000E+00
  1.20000000E+01 -2.66453526E-15  0.00000000E+00
  1.30000000E+01  2.40000000E+01  0.00000000E+00
  1.30000000E+01  2.30000000E+01  0.00000000E+00
  1.30000000E+01  2.20000000E+01  0.00000000E+00
  1.30000000E+01  2.10000000E+01  0.00000000E+00
  1.30000000E+01  2.00000000E+01  0.00000000E+00
  1.30000000E+01  1.90000000E+01  0.00000000E+00
  1.30000000E+01  1.80000000E+01  0.00000000E+00
  1.30000000E+01  1.70000000E+01  0.00000000E+00
  1.30000000E+01  1.60000000E+01  0.00000000E+00
  1.30000000E+01  1.50000000E+01  0.00000000E+00
  1.30000000E+01  1.40000000E+01  0.00000000E+00
  1.30000000E+01  1.30000000E+01  0.00000000E+00
  1.30000000E+01  1.20000000E+01  0.00000000E+00
  1.30000000E+01  1.10000000E+01  0.00000000E+00
  1.30000000E+01  1.00000000E+01  0.00000000E+00
  1.30000000E+01  9.00000000E+00  0.00000000E+00
  1.30000000E+01  8.00000000E+00  0.00000000E+00
  1.30000000E+01  7.00000000E+00  0.00000000E+00
  1.30000000E+01  6.00000000E+00  0.00000000E+00
  1.30000000E+01  5.00000000E+00  0.00000000E+00
  1.30000000E+01  4.00000000E+00  0.00000000E+00
  1.30000000E+01  3.00000000E+00  0.00000000E+00
  1.30000000E+01  2.00000000E+00  0.00000000E+00
  1.30000000E+01  1.00000000E+00  0.00000000E+00
  1.30000000E+01 -2.66453526E-15  0.00000000E+00
  1.40000000E+01  2.40000000E+01  0.00000000E+00
  1.40000000E+01  2.30000000E+01  0.00000000E+00
  1.40000000E+01  2.20000000E+01  0.00000000E+00
  1.40000000E+01  2.10000000E+01  0.00000000E+00
  1.40000000E+01  2.00000000E+01  0.00000000E+00
  1.40000000E+01  1.90000000E+01  0.00000000E+00
  1.40000000E+01  1.80000000E+01  0.00000000E+00
  1.40000000E+01  1.70000000E+01  0.00000000E+00
  1.40000000E+01  1.60000000E+01  0.00000000E+00
  1.40000000E+01  1.50000000E+01  0.00000000E+00
  1.40000000E+01  1.40000000E+01  0.00000000E+00
  1.40000000E+01  1.30000000E+01  0.00000000E+00
  1.40000000E+01  1.20000000E+01  0.00000000E+00
  1.40000000E+01  1.10000000E+01  0.00000000E+00
  1.40000000E+01  1.00000000E+01  0.00000000E+00
  1.40000000E+01  9.00000000E+00  0.00000000E+00
  1.40000000E+01  8.00000000E+00  0.00000000E+00
  1.40000000E+01  7.00000000E+00  0.00000000E+00
  1.40000000E+01  6.00000000E+00  0.00000000E+00
  1.40000000E+01  5.00000000E+00  0.00000000E+00
  1.40000000E+01  4.00000000E+00  0.00000000E+00
  1.40000000E+01  3.00000000E+00  0.00000000E+00
  1.40000000E+01  2.00000000E+00  0.00000000E+00
  1.40000000E+01  1.00000000E+00  0.00000000E+00
  1.40000000E+01 -2.66453526E-15  0.00000000E+00
  1.50000000E+01  2.40000000E+01  0.00000000E+00
  1.50000000E+01  2.30000000E+01  0.00000000E+00
  1.50000000E+01  2.20000000E+01  0.00000000E+00
  1.50000000E+01  2.10000000E+01  0.00000000E+00
  1.50000000E+01  2.00000000E+01  0.00000000E+00
  1.50000000E+01  1.90000000E+01  0.00000000E+00
  1.50000000E+01  1.80000000E+01  0.00000000E+00
  1.50000000E+01  1.70000000E+01  0.00000000E+00
  1.50000000E+01  1.60000000E+01  0.00000000E+00
  1.50000000E+01  1.50000000E+01  0.00000000E+00
  1.50000000E+01  1.40000000E+01  0.00000000E+00
  1.50000000E+01  1.30000000E+01  0.00000000E+00
  1.50000000E+01  1.20000000E+01  0.00000000E+00
  1.50000000E+01  1.10000000E+01  0.00000000E+00
  1.50000000E+01  1.00000000E+01  0.00000000E+00
  1.50000000E+01  9.00000000E+00  0.00000000E+00
  1.50000000E+01  8.00000000E+00  0.00000000E+00
  1.50000000E+01  7.00000000E+00  0.00000000E+00
  1.50000000E+01  6.00000000E+00  0.00000000E+00
  1.50000000E+01  5.00000000E+00  0.00000000E+00
  1.50000000E+01  4.00000000E+00  0.00000000E+00
  1.50000000E+01  3.00000000E+00  0.00000000E+00
  1.50000000E+01  2.00000000E+00  0.00000000E+00
  1.50000000E+01  1.00000000E+00  0.00000000E+00
  1.50000000E+01 -2.66453526E-15  0.00000000E+00
  1.60000000E+01  2.40000000E+01  0.00000000E+00
  1.60000000E+01  2.30000000E+01  0.00000000E+00
  1.60000000E+01  2.20000000E+01  0.00000000E+00
  1.60000000E+01  2.10000000E+01  0.00000000E+00
  1.60000000E+01  2.00000000E+01  0.00000000E+00
  1.60000000E+01  1.90000000E+01  0.00000000E+00
  1.60000000E+01  1.80000000E+01  0.00000000E+00
  1.60000000E+01  1.70000000E+01  0.00000000E+00
  1.60000000E+01  1.60000000E+01  0.00000000E+00
  1.60000000E+01  1.50000000E+01  0.00000000E+00
  1.60000000E+01  1.40000000E+01  0.00000000E+00
  1.60000000E+01  1.30000000E+01  0.00000000E+00
  1.60000000E+01  1.20000000E+01  0.00000000E+00
  1.60000000E+01  1.10000000E+01  0.00000000E+00
  1.60000000E+01  1.00000000E+01  0.00000000E+00
  1.60000000E+01  9.00000000E+00  0.00000000E+00
  1.60000000E+01  8.00000000E+00  0.00000000E+00
  1.60000000E+01  7.00000000E+00  0.00000000E+00
  1.60000000E+01  6.00000000E+00  0.00000000E+00
  1.60000000E+01  5.00000000E+00  0.00000000E+00
  1.60000000E+01  4.00000000E+00  0.00000000E+00
  1.60000000E+01  3.00000000E+00  0.00000000E+00
  1.60000000E+01  2.00000000E+00  0.00000000E+00
  1.60000000E+01  1.00000000E+00  0.00000000E+00
  1.60000000E+01 -2.66453526E-15  0.00000000E+00
  1.70000000E+01  2.40000000E+01  0.00000000E+00
  1.70000000E+01  2.30000000E+01  0.00000000E+00
  1.70000000E+01  2.20000000E+01  0.00000000E+00
  1.70000000E+01  2.10000000E+01  0.00000000E+00
  1.70000000E+01  2.00000000E+01  0.00000000E+00
  1.70000000E+01  1.90000000E+01  0.00000000E+00
  1.70000000E+01  1.80000000E+01  0.00000000E+00
  1.70000000E+01  1.70000000E+01  0.00000000E+00
  1.70000000E+01  1.60000000E+01  0.00000000E+00
  1.70000000E+01  1.50000000E+01  0.00000000E+00
  1.70000000E+01  1.40000000E+01  0.00000000E+00
  1.70000000E+01  1.30000000E+01  0.00000000E+00
  1.70000000E+01  1.20000000E+01  0.00000000E+00
  1.70000000E+01  1.10000000E+01  0.00000000E+00
  1.70000000E+01  1.00000000E+01  0.00000000E+00
  1.70000000E+01  9.00000000E+00  0.00000000E+00
  1.70000000E+01  8.00000000E+00  0.00000000E+00
  1.70000000E+01  7.00000000E+00  0.00000000E+00
  1.70000000E+01  6.00000000E+00  0.00000000E+00
  1.70000000E+01  5.00000000E+00  0.00000000E+00
  1.70000000E+01  4.00000000E+00  0.00000000E+00
  1.70000000E+01  3.00000000E+00  0.00000000E+00
  1.70000000E+01  2.00000000E+00  0.00000000E+00
  1.70000000E+01  1.00000000E+00  0.00000000E+00
  1.70000000E+01 -2.66453526E-15  0.00000000E+00
  1.80000000E+01  2.40000000E+01  0.00000000E+00
  1.80000000E+01  2.30000000E+01  0.00000000E+00
  1.80000000E+01  2.20000000E+01  0.00000000E+00
  1.80000000E+01  2.10000000E+01  0.00000000E+00
  1.80000000E+01  2.00000000E+01  0.00000000E+00
  1.80000000E+01  1.90000000E+01  0.00000000E+00
  1.80000000E+01  1.80000000E+01  0.00000000E+00
  1.80000000E+01  1.70000000E+01  0.00000000E+00
  1.80000000E+01  1.60000000E+01  0.00000000E+00
  1.80000000E+01  1.50000000E+01  0.00000000E+00
  1.80000000E+01  1.40000000E+01  0.00000000E+00
  1.80000000E+01  1.30000000E+01  0.00000000E+00
  1.80000000E+01  1.20000000E+01  0.00000000E+00
  1.80000000E+01  1.10000000E+01  0.00000000E+00
  1.80000000E+01  1.00000000E+01  0.00000000E+00
  1.80000000E+01  9.00000000E+00  0.00000000E+00
  1.80000000E+01  8.00000000E+00  0.00000000E+00
  1.80000000E+01  7.00000000E+00  0.00000000E+00
  1.80000000E+01  6.00000000E+00  0.00000000E+00
  1.80000000E+01  5.00000000E+00  0.00000000E+00
  1.80000000E+01  4.00000000E+00  0.00000000E+00
  1.80000000E+01  3.00000000E+00  0.00000000E+00
  1.80000000E+01  2.00000000E+00  0.00000000E+00
  1.80000000E+01  1.00000000E+00  0.00000000E+00
  1.80000000E+01 -2.66453526E-15  0.00000000E+00
  1.90000000E+01  2.40000000E+01  0.00000000E+00
  1.90000000E+01  2.30000000E+01  0.00000000E+00
  1.90000000E+01  2.20000000E+01  0.00000000E+00
  1.90000000E+01  2.10000000E+01  0.00000000E+00
  1.90000000E+01  2.00000000E+01  0.00000000E+00
  1.90000000E+01  1.90000000E+01  0.00000000E+00
  1.90000000E+01  1.80000000E+01  0.00000000E+00
  1.90000000E+01  1.70000000E+01  0.00000000E+00
  1.90000000E+01  1.60000000E+01  0.00000000E+00
  1.90000000E+01  1.50000000E+01  0.00000000E+00
  1.90000000E+01  1.40000000E+01  0.00000000E+00
  1.90000000E+01  1.30000000E+01  0.00000000E+00
  1.90000000E+01  1.20000000E+01  0.00000000E+00
  1.90000000E+01  1.10000000E+01  0.00000000E+00
  1.90000000E+01  1.00000000E+01  0.00000000E+00
  1.90000000E+01  9.00000000E+00  0.00000000E+00
  1.90000000E+01  8.00000000E+00  0.00000000E+00
  1.90000000E+01  7.00000000E+00  0.00000000E+00
  1.90000000E+01  6.00000000E+00  0.00000000E+00
  1.90000000E+01  5.00000000E+00  0.00000000E+00
  1.90000000E+01  4.00000000E+00  0.00000000E+00
  1.90000000E+01  3.00000000E+00  0.00000000E+00
  1.90000000E+01  2.00000000E+00  0.00000000E+00
  1.90000000E+01  1.00000000E+00  0.00000000E+00
  1.90000000E+01 -2.66453526E-15  0.00000000E+00
  2.00000000E+01  2.40000000E+01  0.00000000E+00
  2.00000000E+01  2.30000000E+01  0.00000000E+00
  2.00000000E+01  2.20000000E+01  0.00000000E+00
  2.00000000E+01  2.10000000E+01  0.00000000E+00
  2.00000000E+01  2.00000000E+01  0.00000000E+00
  2.00000000E+01  1.90000000E+01  0.00000000E+00
  2.00000000E+01  1.80000000E+01  0.00000000E+00
  2.00000000E+01  1.70000000E+01  0.00000000E+00
  2.00000000E+01  1.60000000E+01  0.00000000E+00
  2.00000000E+01  1.50000000E+01  0.00000000E+00
  2.00000000E+01  1.40000000E+01  0.00000000E+00
  2.00000000E+01  1.30000000E+01  0.00000000E+00
  2.00000000E+01  1.20000000E+01  0.00000000E+00
  2.00000000E+01  1.10000000E+01  0.00000000E+00
  2.00000000E+01  1.00000000E+01  0.00000000E+00
  2.00000000E+01  9.00000000E+00  0.00000000E+00
  2.00000000E+01  8.00000000E+00  0.00000000E+00
  2.00000000E+01  7.00000000E+00  0.00000000E+00
  2.00000000E+01  6.00000000E+00  0.00000000E+00
  2.00000000E+01  5.00000000E+00  0.00000000E+00
  2.00000000E+01  4.00000000E+00  0.00000000E+00
  2.00000000E+01  3.00000000E+00  0.00000000E+00
  2.00000000E+01  2.00000000E+00  0.00000000E+00
  2.00000000E+01  1.00000000E+00  0.00000000E+00
  2.00000000E+01 -2.66453526E-15  0.00000000E+00
  2.10000000E+01  2.40000000E+01  0.00000000E+00
  2.10000000E+01  2.30000000E+01  0.00000000E+00
  2.10000000E+01  2.20000000E+01  0.00000000E+00
  2.10000000E+01  2.10000000E+01  0.00000000E+00
  2.10000000E+01  2.00000000E+01  0.00000000E+00
  2.10000000E+01  1.90000000E+01  0.00000000E+00
  2.10000000E+01  1.80000000E+01  0.00000000E+00
  2.10000000E+01  1.70000000E+01  0.00000000E+00
  2.10000000E+01  1.60000000E+01  0.00000000E+00
  2.10000000E+01  1.50000000E+01  0.00000000E+00
  2.10000000E+01  1.40000000E+01  0.00000000E+00
  2.10000000E+01  1.30000000E+01  0.00000000E+00
  2.10000000E+01  1.20000000E+01  0.00000000E+00
  2.10000000E+01  1.10000000E+01  0.00000000E+00
  2.10000000E+01  1.00000000E+01  0.00000000E+00
  2.10000000E+01  9.00000000E+00  0.00000000E+00
  2.10000000E+01  8.00000000E+00  0.00000000E+00
  2.10000000E+01  7.00000000E+00  0.00000000E+00
  2.10000000E+01  6.00000000E+00  0.00000000E+00
  2.10000000E+01  5.00000000E+00  0.00000000E+00
  2.10000000E+01  4.00000000E+00  0.00000000E+00
  2.10000000E+01  3.00000000E+00  0.00000000E+00
  2.10000000E+01  2.00000000E+00  0.00000000E+00
  2.10000000E+01  1.00000000E+00  0.00000000E+00
  2.10000000E+01 -2.66453526E-15  0.00000000E+00
  2.20000000E+01  2.40000000E+01  0.00000000E+00
  2.20000000E+01  2.30000000E+01  0.00000000E+00
  2.20000000E+01  2.20000000E+01  0.00000000E+00
  2.20000000E+01  2.10000000E+01  0.00000000E+00
  2.20000000E+01  2.00000000E+01  0.00000000E+00
  2.20000000E+01  1.90000000E+01  0.00000000E+00
  2.20000000E+01  1.80000000E+01  0.00000000E+00
  2.20000000E+01  1.70000000E+01  0.00000000E+00
  2.20000000E+01  1.60000000E+01  0.00000000E+00
  2.20000000E+01  1.50000000E+01  0.00000000E+00
  2.20000000E+01  1.40000000E+01  0.00000000E+00
  2.20000000E+01  1.30000000E+01  0.00000000E+00
  2.20000000E+01  1.20000000E+01  0.00000000E+00
  2.20000000E+01  1.10000000E+01  0.00000000E+00
  2.20000000E+01  1.00000000E+01  0.00000000E+00
  2.20000000E+01  9.00000000E+00  0.00000000E+00
  2.20000000E+01  8.00000000E+00  0.00000000E+00
  2.20000000E+01  7.00000000E+00  0.00000000E+00
  2.20000000E+01  6.00000000E+00  0.00000000E+00
  2.20000000E+01  5.00000000E+00  0.00000000E+00
  2.20000000E+01  4.00000000E+00  0.00000000E+00
  2.20000000E+01  3.00000000E+00  0.00000000E+00
  2.20000000E+01  2.00000000E+00  0.00000000E+00
  2.20000000E+01  1.00000000E+00  0.00000000E+00
  2.20000000E+01 -2.66453526E-15  0.00000000E+00
  2.30000000E+01  2.40000000E+01  0.00000000E+00
  2.30000000E+01  2.30000000E+01  0.00000000E+00
  2.30000000E+01  2.20000000E+01  0.00000000E+00
  2.30000000E+01  2.10000000E+01  0.00000000E+00
  2.30000000E+01  2.00000000E+01  0.00000000E+00
  2.30000000E+01  1.90000000E+01  0.00000000E+00
  2.30000000E+01  1.80000000E+01  0.00000000E+00
  2.30000000E+01  1.70000000E+01  0.00000000E+00
  2.30000000E+01  1.60000000E+01  0.00000000E+00
  2.30000000E+01  1.50000000E+01  0.00000000E+00
  2.30000000E+01  1.40000000E+01  0.00000000E+00
  2.30000000E+01  1.30000000E+01  0.00000000E+00
  2.30000000E+01  1.20000000E+01  0.00000000E+00
  2.30000000E+01  1.10000000E+01  0.00000000E+00
  2.30000000E+01  1.00000000E+01  0.00000000E+00
  2.30000000E+01  9.00000000E+00  0.00000000E+00
  2.30000000E+01  8.00000000E+00  0.00000000E+00
  2.30000000E+01  7.00000000E+00  0.00000000E+00
  2.30000000E+01  6.00000000E+00  0.00000000E+00
  2.30000000E+01  5.00000000E+00  0.00000000E+00
  2.30000000E+01  4.00000000E+00  0.00000000E+00
  2.30000000E+01  3.00000000E+00  0.00000000E+00
  2.30000000E+01  2.00000000E+00  0.00000000E+00
  2.30000000E+01  1.00000000E+00  0.00000000E+00
  2.30000000E+01 -2.66453526E-15  0.00000000E+00
  2.40000000E+01  2.40000000E+01  0.00000000E+00
  2.40000000E+01  2.30000000E+01  0.00000000E+00
  2.40000000E+01  2.20000000E+01  0.00000000E+00
  2.40000000E+01  2.10000000E+01  0.00000000E+00
  2.40000000E+01  2.00000000E+01  0.00000000E+00
  2.40000000E+01  1.90000000E+01  0.00000000E+00
  2.40000000E+01  1.80000000E+01  0.00000000E+00
  2.40000000E+01  1.70000000E+01  0.00000000E+00
  2.40000000E+01  1.60000000E+01  0.00000000E+00
  2.40000000E+01  1.50000000E+01  0.00000000E+00
  2.40000000E+01  1.40000000E+01  0.00000000E+00
  2.40000000E+01  1.30000000E+01  0.00000000E+00
  2.40000000E+01  1.20000000E+01  0.00000000E+00
  2.40000000E+01  1.10000000E+01  0.00000000E+00
  2.40000000E+01  1.00000000E+01  0.00000000E+00
  2.40000000E+01  9.00000000E+00  0.00000000E+00
  2.40000000E+01  8.00000000E+00  0.00000000E+00
  2.40000000E+01  7.00000000E+00  0.00000000E+00
  2.40000000E+01  6.00000000E+00  0.00000000E+00
  2.40000000E+01  5.00000000E+00  0.00000000E+00
  2.40000000E+01  4.00000000E+00  0.00000000E+00
  2.40000000E+01  3.00000000E+00  0.00000000E+00
  2.40000000E+01  2.00000000E+00  0.00000000E+00
  2.40000000E+01  1.00000000E+00  0.00000000E+00
  2.40000000E+01 -2.66453526E-15  0.00000000E+00
  2.50000000E+01  2.40000000E+01  0.00000000E+00
  2.50000000E+01  2.30000000E+01  0.00000000E+00
  2.50000000E+01  2.20000000E+01  0.00000000E+00
  2.50000000E+01  2.10000000E+01  0.00000000E+00
  2.50000000E+01  2.00000000E+01  0.00000000E+00
  2.50000000E+01  1.90000000E+01  0.00000000E+00
  2.50000000E+01  1.80000000E+01  0.00000000E+00
  2.50000000E+01  1.70000000E+01  0.00000000E+00
  2.50000000E+01  1.60000000E+01  0.00000000E+00
  2.50000000E+01  1.50000000E+01  0.00000000E+00
  2.50000000E+01  1.40000000E+01  0.00000000E+00
  2.50000000E+01  1.30000000E+01  0.00000000E+00
  2.50000000E+01  1.20000000E+01  0.00000000E+00
  2.50000000E+01  1.10000000E+01  0.00000000E+00
  2.50000000E+01  1.00000000E+01  0.00000000E+00
  2.50000000E+01  9.00000000E+00  0.00000000E+00
  2.50000000E+01  8.00000000E+00  0.00000000E+00
  2.50000000E+01  7.00000000E+00  0.00000000E+00
  2.50000000E+01  6.00000000E+00  0.00000000E+00
  2.50000000E+01  5.00000000E+00  0.00000000E+00
  2.50000000E+01  4.00000000E+00  0.00000000E+00
  2.50000000E+01  3.00000000E+00  0.00000000E+00
  2.50000000E+01  2.00000000E+00  0.00000000E+00
  2.50000000E+01  1.00000000E+00  0.00000000E+00
  2.50000000E+01 -2.66453526E-15  0.00000000E+00
  2.60000000E+01  2.40000000E+01  0.00000000E+00
  2.60000000E+01  2.30000000E+01  0.00000000E+00
  2.60000000E+01  2.20000000E+01  0.00000000E+00
  2.60000000E+01  2.10000000E+01  0.00000000E+00
  2.60000000E+01  2.00000000E+01  0.00000000E+00
  2.60000000E+01  1.90000000E+01  0.00000000E+00
  2.60000000E+01  1.80000000E+01  0.00000000E+00
  2.60000000E+01  1.70000000E+01  0.00000000E+00
  2.60000000E+01  1.60000000E+01  0.00000000E+00
  2.60000000E+01  1.50000000E+01  0.00000000E+00
  2.60000000E+01  1.40000000E+01  0.00000000E+00
  2.60000000E+01  1.30000000E+01  0.00000000E+00
  2.60000000E+01  1.20000000E+01  0.00000000E+00
  2.60000000E+01  1.10000000E+01  0.00000000E+00
  2.60000000E+01  1.00000000E+01  0.00000000E+00
  2.60000000E+01  9.00000000E+00  0.00000000E+00
  2.60000000E+01  8.00000000E+00  0.00000000E+00
  2.60000000E+01  7.00000000E+00  0.00000000E+00
  2.60000000E+01  6.00000000E+00  0.00000000E+00
  2.60000000E+01  5.00000000E+00  0.00000000E+00
  2.60000000E+01  4.00000000E+00  0.00000000E+00
  2.60000000E+01  3.00000000E+00  0.00000000E+00
  2.60000000E+01  2.00000000E+00  0.00000000E+00
  2.60000000E+01  1.00000000E+00  0.00000000E+00
  2.60000000E+01 -2.66453526E-15  0.00000000E+00
  2.70000000E+01  2.40000000E+01  0.00000000E+00
  2.70000000E+01  2.30000000E+01  0.00000000E+00
  2.70000000E+01  2.20000000E+01  0.00000000E+00
  2.70000000E+01  2.10000000E+01  0.00000000E+00
  2.70000000E+01  2.00000000E+01  0.00000000E+00
  2.70000000E+01  1.90000000E+01  0.00000000E+00
  2.70000000E+01  1.80000000E+01  0.00000000E+00
  2.70000000E+01  1.70000000E+01  0.00000000E+00
  2.70000000E+01  1.60000000E+01  0.00000000E+00
  2.70000000E+01  1.50000000E+01  0.00000000E+00
  2.70000000E+01  1.40000000E+01  0.00000000E+00
  2.70000000E+01  1.30000000E+01  0.00000000E+00
  2.70000000E+01  1.20000000E+01  0.00000000E+00
  2.70000000E+01  1.10000000E+01  0.00000000E+00
  2.70000000E+01  1.00000000E+01  0.00000000E+00
  2.70000000E+01  9.00000000E+00  0.00000000E+00
  2.70000000E+01  8.00000000E+00  0.00000000E+00
  2.70000000E+01  7.00000000E+00  0.00000000E+00
  2.70000000E+01  6.00000000E+00  0.00000000E+00
  2.70000000E+01  5.00000000E+00  0.00000000E+00
  2.70000000E+01  4.00000000E+00  0.00000000E+00
  2.70000000E+01  3.00000000E+00  0.00000000E+00
  2.70000000E+01  2.00000000E+00  0.00000000E+00
  2.70000000E+01  1.00000000E+00  0.00000000E+00
  2.70000000E+01 -2.66453526E-15  0.00000000E+00
  2.80000000E+01  2.40000000E+01  0.00000000E+00
  2.80000000E+01  2.30000000E+01  0.00000000E+00
  2.80000000E+01  2.20000000E+01  0.00000000E+00
  2.80000000E+01  2.10000000E+01  0.00000000E+00
  2.80000000E+01  2.00000000E+01  0.00000000E+00
  2.80000000E+01  1.90000000E+01  0.00000000E+00
  2.80000000E+01  1.80000000E+01  0.00000000E+00
  2.80000000E+01  1.70000000E+01  0.00000000E+00
  2.80000000E+01  1.60000000E+01  0.00000000E+00
  2.80000000E+01  1.50000000E+01  0.00000000E+00
  2.80000000E+01  1.40000000E+01  0.00000000E+00
  2.80000000E+01  1.30000000E+01  0.00000000E+00
  2.80000000E+01  1.20000000E+01  0.00000000E+00
  2.80000000E+01  1.10000000E+01  0.00000000E+00
  2.80000000E+01  1.00000000E+01  0.00000000E+00
  2.80000000E+01  9.00000000E+00  0.00000000E+00
  2.80000000E+01  8.00000000E+00  0.00000000E+00
  2.80000000E+01  7.00000000E+00  0.00000000E+00
  2.80000000E+01  6.00000000E+00  0.00000000E+00
  2.80000000E+01  5.00000000E+00  0.00000000E+00
  2.80000000E+01  4.00000000E+00  0.00000000E+00
  2.80000000E+01  3.00000000E+00  0.00000000E+00
  2.80000000E+01  2.00000000E+00  0.00000000E+00
  2.80000000E+01  1.00000000E+00  0.00000000E+00
  2.80000000E+01 -2.66453526E-15  0.00000000E+00
  2.90000000E+01  2.40000000E+01  0.00000000E+00
  2.90000000E+01  2.30000000E+01  0.00000000E+00
  2.90000000E+01  2.20000000E+01  0.00000000E+00
  2.90000000E+01  2.10000000E+01  0.00000000E+00
  2.90000000E+01  2.00000000E+01  0.00000000E+00
  2.90000000E+01  1.90000000E+01  0.00000000E+00
  2.90000000E+01  1.80000000E+01  0.00000000E+00
  2.90000000E+01  1.70000000E+01  0.00000000E+00
  2.90000000E+01  1.60000000E+01  0.00000000E+00
  2.90000000E+01  1.50000000E+01  0.00000000E+00
  2.90000000E+01  1.40000000E+01  0.00000000E+00
  2.90000000E+01  1.30000000E+01  0.00000000E+00
  2.90000000E+01  1.20000000E+01  0.00000000E+00
  2.90000000E+01  1.10000000E+01  0.00000000E+00
  2.90000000E+01  1.00000000E+01  0.00000000E+00
  2.90000000E+01  9.00000000E+00  0.00000000E+00
  2.90000000E+01  8.00000000E+00  0.00000000E+00
  2.90000000E+01  7.00000000E+00  0.00000000E+00
  2.90000000E+01  6.00000000E+00  0.00000000E+00
  2.90000000E+01  5.00000000E+00  0.00000000E+00
  2.90000000E+01  4.00000000E+00  0.00000000E+00
  2.90000000E+01  3.00000000E+00  0.00000000E+00
  2.90000000E+01  2.00000000E+00  0.00000000E+00
  2.90000000E+01  1.00000000E+00  0.00000000E+00
  2.90000000E+01 -2.66453526E-15  0.00000000E+00
  3.00000000E+01  2.40000000E+01  0.00000000E+00
  3.00000000E+01  2.30000000E+01  0.00000000E+00
  3.00000000E+01  2.20000000E+01  0.00000000E+00
  3.00000000E+01  2.10000000E+01  0.00000000E+00
  3.00000000E+01  2.00000000E+01  0.00000000E+00
  3.00000000E+01  1.90000000E+01  0.00000000E+00
  3.00000000E+01  1.80000000E+01  0.00000000E+00
  3.00000000E+01  1.70000000E+01  0.00000000E+00
  3.00000000E+01  1.60000000E+01  0.00000000E+00
  3.00000000E+01  1.50000000E+01  0.00000000E+00
  3.00000000E+01  1.40000000E+01  0.00000000E+00
  3.00000000E+01  1.30000000E+01  0.00000000E+00
  3.00000000E+01  1.20000000E+01  0.00000000E+00
  3.00000000E+01  1.10000000E+01  0.00000000E+00
  3.00000000E+01  1.00000000E+01  0.00000000E+00
  3.00000000E+01  9.00000000E+00  0.00000000E+00
  3.00000000E+01  8.00000000E+00  0.00000000E+00
  3.00000000E+01  7.00000000E+00  0.00000000E+00
  3.00000000E+01  6.00000000E+00  0.00000000E+00
  3.00000000E+01  5.00000000E+00  0.00000000E+00
  3.00000000E+01  4.00000000E+00  0.00000000E+00
  3.00000000E+01  3.00000000E+00  0.00000000E+00
  3.00000000E+01  2.00000000E+00  0.00000000E+00
  3.00000000E+01  1.00000000E+00  0.00000000E+00
  3.00000000E+01 -2.66453526E-15  0.00000000E+00
  3.10000000E+01  2.40000000E+01  0.00000000E+00
  3.10000000E+01  2.30000000E+01  0.00000000E+00
  3.10000000E+01  2.20000000E+01  0.00000000E+00
  3.10000000E+01  2.10000000E+01  0.00000000E+00
  3.10000000E+01  2.00000000E+01  0.00000000E+00
  3.10000000E+01  1.90000000E+01  0.00000000E+00
  3.10000000E+01  1.80000000E+01  0.00000000E+00
  3.10000000E+01  1.70000000E+01  0.00000000E+00
  3.10000000E+01  1.60000000E+01  0.00000000E+00
  3.10000000E+01  1.50000000E+01  0.00000000E+00
  3.10000000E+01  1.40000000E+01  0.00000000E+00
  3.10000000E+01  1.30000000E+01  0.00000000E+00
  3.10000000E+01  1.20000000E+01  0.00000000E+00
  3.10000000E+01  1.10000000E+01  0.00000000E+00
  3.10000000E+01  1.00000000E+01  0.00000000E+00
  3.10000000E+01  9.00000000E+00  0.00000000E+00
  3.10000000E+01  8.00000000E+00  0.00000000E+00
  3.10000000E+01  7.00000000E+00  0.00000000E+00
  3.10000000E+01  6.00000000E+00  0.00000000E+00
  3.10000000E+01  5.00000000E+00  0.00000000E+00
  3.10000000E+01  4.00000000E+00  0.00000000E+00
  3.10000000E+01  3.00000000E+00  0.00000000E+00
  3.10000000E+01  2.00000000E+00  0.00000000E+00
  3.10000000E+01  1.00000000E+00  0.00000000E+00
  3.10000000E+01 -2.66453526E-15  0.00000000E+00
  3.20000000E+01  2.40000000E+01  0.00000000E+00
  3.20000000E+01  2.30000000E+01  0.00000000E+00
  3.20000000E+01  2.20000000E+01  0.00000000E+00
  3.20000000E+01  2.10000000E+01  0.00000000E+00
  3.20000000E+01  2.00000000E+01  0.00000000E+00
  3.20000000E+01  1.90000000E+01  0.00000000E+00
  3.20000000E+01  1.80000000E+01  0.00000000E+00
  3.20000000E+01  1.70000000E+01  0.00000000E+00
  3.20000000E+01  1.60000000E+01  0.00000000E+00
  3.20000000E+01  1.50000000E+01  0.00000000E+00
  3.20000000E+01  1.40000000E+01  0.00000000E+00
  3.20000000E+01  1.30000000E+01  0.00000000E+00
  3.20000000E+01  1.20000000E+01  0.00000000E+00
  3.20000000E+01  1.10000000E+01  0.00000000E+00
  3.20000000E+01  1.00000000E+01  0.00000000E+00
  3.20000000E+01  9.00000000E+00  0.00000000E+00
  3.20000000E+01  8.00000000E+00  0.00000000E+00
  3.20000000E+01  7.00000000E+00  0.00000000E+00
  3.20000000E+01  6.00000000E+00  0.00000000E+00
  3.20000000E+01  5.00000000E+00  0.00000000E+00
  3.20000000E+01  4.00000000E+00  0.00000000E+00
  3.20000000E+01  3.00000000E+00  0.00000000E+00
  3.20000000E+01  2.00000000E+00  0.00000000E+00
  3.20000000E+01  1.00000000E+00  0.00000000E+00
  3.20000000E+01 -2.66453526E-15  0.00000000E+00
  3.30000000E+01  2.40000000E+01  0.00000000E+00
  3.30000000E+01  2.30000000E+01  0.00000000E+00
  3.30000000E+01  2.20000000E+01  0.00000000E+00
  3.30000000E+01  2.10000000E+01  0.00000000E+00
  3.30000000E+01  2.00000000E+01  0.00000000E+00
  3.30000000E+01  1.90000000E+01  0.00000000E+00
  3.30000000E+01  1.80000000E+01  0.00000000E+00
  3.30000000E+01  1.70000000E+01  0.00000000E+00
  3.30000000E+01  1.60000000E+01  0.00000000E+00
  3.30000000E+01  1.50000000E+01  0.00000000E+00
  3.30000000E+01  1.40000000E+01  0.00000000E+00
  3.30000000E+01  1.30000000E+01  0.00000000E+00
  3.30000000E+01  1.20000000E+01  0.00000000E+00
  3.30000000E+01  1.10000000E+01  0.00000000E+00
  3.30000000E+01  1.00000000E+01  0.00000000E+00
  3.30000000E+01  9.00000000E+00  0.00000000E+00
  3.30000000E+01  8.00000000E+00  0.00000000E+00
  3.30000000E+01  7.00000000E+00  0.00000000E+00
  3.30000000E+01  6.00000000E+00  0.00000000E+00
  3.30000000E+01  5.00000000E+00  0.00000000E+00
  3.30000000E+01  4.00000000E+00  0.00000000E+00
  3.30000000E+01  3.00000000E+00  0.00000000E+00
  3.30000000E+01  2.00000000E+00  0.00000000E+00
  3.30000000E+01  1.00000000E+00  0.00000000E+00
  3.30000000E+01 -2.66453526E-15  0.00000000E+00
  3.40000000E+01  2.40000000E+01  0.00000000E+00
  3.40000000E+01  2.30000000E+01  0.00000000E+00
  3.40000000E+01  2.20000000E+01  0.00000000E+00
  3.40000000E+01  2.10000000E+01  0.00000000E+00
  3.40000000E+01  2.00000000E+01  0.00000000E+00
  3.40000000E+01  1.90000000E+01  0.00000000E+00
  3.40000000E+01  1.80000000E+01  0.00000000E+00
  3.40000000E+01  1.70000000E+01  0.00000000E+00
  3.40000000E+01  1.60000000E+01  0.00000000E+00
  3.40000000E+01  1.50000000E+01  0.00000000E+00
  3.40000000E+01  1.40000000E+01  0.00000000E+00
  3.40000000E+01  1.30000000E+01  0.00000000E+00
  3.40000000E+01  1.20000000E+01  0.00000000E+00
  3.40000000E+01  1.10000000E+01  0.00000000E+00
  3.40000000E+01  1.00000000E+01  0.00000000E+00
  3.40000000E+01  9.00000000E+00  0.00000000E+00
  3.40000000E+01  8.00000000E+00  0.00000000E+00
  3.40000000E+01  7.00000000E+00  0.00000000E+00
  3.40000000E+01  6.00000000E+00  0.00000000E+00
  3.40000000E+01  5.00000000E+00  0.00000000E+00
  3.40000000E+01  4.00000000E+00  0.00000000E+00
  3.40000000E+01  3.00000000E+00  0.00000000E+00
  3.40000000E+01  2.00000000E+00  0.00000000E+00
  3.40000000E+01  1.00000000E+00  0.00000000E+00
  3.40000000E+01 -2.66453526E-15  0.00000000E+00
  3.50000000E+01  2.40000000E+01  0.00000000E+00
  3.50000000E+01  2.30000000E+01  0.00000000E+00
  3.50000000E+01  2.20000000E+01  0.00000000E+00
  3.50000000E+01  2.10000000E+01  0.00000000E+00
  3.50000000E+01  2.00000000E+01  0.00000000E+00
  3.50000000E+01  1.90000000E+01  0.00000000E+00
  3.50000000E+01  1.80000000E+01  0.00000000E+00
  3.50000000E+01  1.70000000E+01  0.00000000E+00
  3.50000000E+01  1.60000000E+01  0.00000000E+00
  3.50000000E+01  1.50000000E+01  0.00000000E+00
  3.50000000E+01  1.40000000E+01  0.00000000E+00
  3.50000000E+01  1.30000000E+01  0.00000000E+00
  3.50000000E+01  1.20000000E+01  0.00000000E+00
  3.50000000E+01  1.10000000E+01  0.00000000E+00
  3.50000000E+01  1.00000000E+01  0.00000000E+00
  3.50000000E+01  9.00000000E+00  0.00000000E+00
  3.50000000E+01  8.00000000E+00  0.00000000E+00
  3.50000000E+01  7.00000000E+00  0.00000000E+00
  3.50000000E+01  6.00000000E+00  0.00000000E+00
  3.50000000E+01  5.00000000E+00  0.00000000E+00
  3.50000000E+01  4.00000000E+00  0.00000000E+00
  3.50000000E+01  3.00000000E+00  0.00000000E+00
  3.50000000E+01  2.00000000E+00  0.00000000E+00
  3.50000000E+01  1.00000000E+00  0.00000000E+00
  3.50000000E+01 -2.66453526E-15  0.00000000E+00
  3.60000000E+01  2.40000000E+01  0.00000000E+00
  3.60000000E+01  2.30000000E+01  0.00000000E+00
  3.60000000E+01  2.20000000E+01  0.00000000E+00
  3.60000000E+01  2.10000000E+01  0.00000000E+00
  3.60000000E+01  2.00000000E+01  0.00000000E+00
  3.60000000E+01  1.90000000E+01  0.00000000E+00
  3.60000000E+01  1.80000000E+01  0.00000000E+00
  3.60000000E+01  1.70000000E+01  0.00000000E+00
  3.60000000E+01  1.60000000E+01  0.00000000E+00
  3.60000000E+01  1.50000000E+01  0.00000000E+00
  3.60000000E+01  1.40000000E+01  0.00000000E+00
  3.60000000E+01  1.30000000E+01  0.00000000E+00
  3.60000000E+01  1.20000000E+01  0.00000000E+00
  3.60000000E+01  1.10000000E+01  0.00000000E+00
  3.60000000E+01  1.00000000E+01  0.00000000E+00
  3.60000000E+01  9.00000000E+00  0.00000000E+00
  3.60000000E+01  8.00000000E+00  0.00000000E+00
  3.60000000E+01  7.00000000E+00  0.00000000E+00
  3.60000000E+01  6.00000000E+00  0.00000000E+00
  3.60000000E+01  5.00000000E+00  0.00000000E+00
  3.60000000E+01  4.00000000E+00  0.00000000E+00
  3.60000000E+01  3.00000000E+00  0.00000000E+00
  3.60000000E+01  2.00000000E+00  0.00000000E+00
  3.60000000E+01  1.00000000E+00  0.00000000E+00
  3.60000000E+01 -2.66453526E-15  0.00000000E+00
  3.70000000E+01  2.40000000E+01  0.00000000E+00
  3.70000000E+01  2.30000000E+01  0.00000000E+00
  3.70000000E+01  2.20000000E+01  0.00000000E+00
  3.70000000E+01  2.10000000E+01  0.00000000E+00
  3.70000000E+01  2.00000000E+01  0.00000000E+00
  3.70000000E+01  1.90000000E+01  0.00000000E+00
  3.70000000E+01  1.80000000E+01  0.00000000E+00
  3.70000000E+01  1.70000000E+01  0.00000000E+00
  3.70000000E+01  1.60000000E+01  0.00000000E+00
  3.70000000E+01  1.50000000E+01  0.00000000E+00
  3.70000000E+01  1.40000000E+01  0.00000000E+00
  3.70000000E+01  1.30000000E+01  0.00000000E+00
  3.70000000E+01  1.20000000E+01  0.00000000E+00
  3.70000000E+01  1.10000000E+01  0.00000000E+00
  3.70000000E+01  1.00000000E+01  0.00000000E+00
  3.70000000E+01  9.00000000E+00  0.00000000E+00
  3.70000000E+01  8.00000000E+00  0.00000000E+00
  3.70000000E+01  7.00000000E+00  0.00000000E+00
  3.70000000E+01  6.00000000E+00  0.00000000E+00
  3.70000000E+01  5.00000000E+00  0.00000000E+00
  3.70000000E+01  4.00000000E+00  0.00000000E+00
  3.70000000E+01  3.00000000E+00  0.00000000E+00
  3.70000000E+01  2.00000000E+00  0.00000000E+00
  3.70000000E+01  1.00000000E+00  0.00000000E+00
  3.70000000E+01 -2.66453526E-15  0.00000000E+00
  3.80000000E+01  2.40000000E+01  0.00000000E+00
  3.80000000E+01  2.30000000E+01  0.00000000E+00
  3.80000000E+01  2.20000000E+01  0.00000000E+00
  3.80000000E+01  2.10000000E+01  0.00000000E+00
  3.80000000E+01  2.00000000E+01  0.00000000E+00
  3.80000000E+01  1.90000000E+01  0.00000000E+00
  3.80000000E+01  1.80000000E+01  0.00000000E+00
  3.80000000E+01  1.70000000E+01  0.00000000E+00
  3.80000000E+01  1.60000000E+01  0.00000000E+00
  3.80000000E+01  1.50000000E+01  0.00000000E+00
  3.80000000E+01  1.40000000E+01  0.00000000E+00
  3.80000000E+01  1.30000000E+01  0.00000000E+00
  3.80000000E+01  1.20000000E+01  0.00000000E+00
  3.80000000E+01  1.10000000E+01  0.00000000E+00
  3.80000000E+01  1.00000000E+01  0.00000000E+00
  3.80000000E+01  9.00000000E+00  0.00000000E+00
  3.80000000E+01  8.00000000E+00  0.00000000E+00
  3.80000000E+01  7.00000000E+00  0.00000000E+00
  3.80000000E+01  6.00000000E+00  0.00000000E+00
  3.80000000E+01  5.00000000E+00  0.00000000E+00
  3.80000000E+01  4.00000000E+00  0.00000000E+00
  3.80000000E+01  3.00000000E+00  0.00000000E+00
  3.80000000E+01  2.00000000E+00  0.00000000E+00
  3.80000000E+01  1.00000000E+00  0.00000000E+00
  3.80000000E+01 -2.66453526E-15  0.00000000E+00
  3.90000000E+01  2.40000000E+01  0.00000000E+00
  3.90000000E+01  2.30000000E+01  0.00000000E+00
  3.90000000E+01  2.20000000E+01  0.00000000E+00
  3.90000000E+01  2.10000000E+01  0.00000000E+00
  3.90000000E+01  2.00000000E+01  0.00000000E+00
  3.90000000E+01  1.90000000E+01  0.00000000E+00
  3.90000000E+01  1.80000000E+01  0.00000000E+00
  3.90000000E+01  1.70000000E+01  0.00000000E+00
  3.90000000E+01  1.60000000E+01  0.00000000E+00
  3.90000000E+01  1.50000000E+01  0.00000000E+00
  3.90000000E+01  1.40000000E+01  0.00000000E+00
  3.90000000E+01  1.30000000E+01  0.00000000E+00
  3.90000000E+01  1.20000000E+01  0.00000000E+00
  3.90000000E+01  1.10000000E+01  0.00000000E+00
  3.90000000E+01  1.00000000E+01  0.00000000E+00
  3.90000000E+01  9.00000000E+00  0.00000000E+00
  3.90000000E+01  8.00000000E+00  0.00000000E+00
  3.90000000E+01  7.00000000E+00  0.00000000E+00
  3.90000000E+01  6.00000000E+00  0.00000000E+00
  3.90000000E+01  5.00000000E+00  0.00000000E+00
  3.90000000E+01  4.00000000E+00  0.00000000E+00
  3.90000000E+01  3.00000000E+00  0.00000000E+00
  3.90000000E+01  2.00000000E+00  0.00000000E+00
  3.90000000E+01  1.00000000E+00  0.00000000E+00
  3.90000000E+01 -2.66453526E-15  0.00000000E+00
  4.00000000E+01  2.40000000E+01  0.00000000E+00
  4.00000000E+01  2.30000000E+01  0.00000000E+00
  4.00000000E+01  2.20000000E+01  0.00000000E+00
  4.00000000E+01  2.10000000E+01  0.00000000E+00
  4.00000000E+01  2.00000000E+01  0.00000000E+00
  4.00000000E+01  1.90000000E+01  0.00000000E+00
  4.00000000E+01  1.80000000E+01  0.00000000E+00
  4.00000000E+01  1.70000000E+01  0.00000000E+00
  4.00000000E+01  1.60000000E+01  0.00000000E+00
  4.00000000E+01  1.50000000E+01  0.00000000E+00
  4.00000000E+01  1.40000000E+01  0.00000000E+00
  4.00000000E+01  1.30000000E+01  0.00000000E+00
  4.00000000E+01  1.20000000E+01  0.00000000E+00
  4.00000000E+01  1.10000000E+01  0.00000000E+00
  4.00000000E+01  1.00000000E+01  0.00000000E+00
  4.00000000E+01  9.00000000E+00  0.00000000E+00
  4.00000000E+01  8.00000000E+00  0.00000000E+00
  4.00000000E+01  7.00000000E+00  0.00000000E+00
  4.00000000E+01  6.00000000E+00  0.00000000E+00
  4.00000000E+01  5.00000000E+00  0.00000000E+00
  4.00000000E+01  4.00000000E+00  0.00000000E+00
  4.00000000E+01  3.00000000E+00  0.00000000E+00
  4.00000000E+01  2.00000000E+00  0.00000000E+00
  4.00000000E+01  1.00000000E+00  0.00000000E+00
  4.00000000E+01 -2.66453526E-15  0.00000000E+00
  4.10000000E+01  2.40000000E+01  0.00000000E+00
  4.10000000E+01  2.30000000E+01  0.00000000E+00
  4.10000000E+01  2.20000000E+01  0.00000000E+00
  4.10000000E+01  2.10000000E+01  0.00000000E+00
  4.10000000E+01  2.00000000E+01  0.00000000E+00
  4.10000000E+01  1.90000000E+01  0.00000000E+00
  4.10000000E+01  1.80000000E+01  0.00000000E+00
  4.10000000E+01  1.70000000E+01  0.00000000E+00
  4.10000000E+01  1.60000000E+01  0.00000000E+00
  4.10000000E+01  1.50000000E+01  0.00000000E+00
  4.10000000E+01  1.40000000E+01  0.00000000E+00
  4.10000000E+01  1.30000000E+01  0.00000000E+00
  4.10000000E+01  1.20000000E+01  0.00000000E+00
  4.10000000E+01  1.10000000E+01  0.00000000E+00
  4.10000000E+01  1.00000000E+01  0.00000000E+00
  4.10000000E+01  9.00000000E+00  0.00000000E+00
  4.10000000E+01  8.00000000E+00  0.00000000E+00
  4.10000000E+01  7.00000000E+00  0.00000000E+00
  4.10000000E+01  6.00000000E+00  0.00000000E+00
  4.10000000E+01  5.00000000E+00  0.00000000E+00
  4.10000000E+01  4.00000000E+00  0.00000000E+00
  4.10000000E+01  3.00000000E+00  0.00000000E+00
  4.10000000E+01  2.00000000E+00  0.00000000E+00
  4.10000000E+01  1.00000000E+00  0.00000000E+00
  4.10000000E+01 -2.66453526E-15  0.00000000E+00
  4.20000000E+01  2.40000000E+01  0.00000000E+00
  4.20000000E+01  2.30000000E+01  0.00000000E+00
  4.20000000E+01  2.20000000E+01  0.00000000E+00
  4.20000000E+01  2.10000000E+01  0.00000000E+00
  4.20000000E+01  2.00000000E+01  0.00000000E+00
  4.20000000E+01  1.90000000E+01  0.00000000E+00
  4.20000000E+01  1.80000000E+01  0.00000000E+00
  4.20000000E+01  1.70000000E+01  0.00000000E+00
  4.20000000E+01  1.60000000E+01  0.00000000E+00
  4.20000000E+01  1.50000000E+01  0.00000000E+00
  4.20000000E+01  1.40000000E+01  0.00000000E+00
  4.20000000E+01  1.30000000E+01  0.00000000E+00
  4.20000000E+01  1.20000000E+01  0.00000000E+00
  4.20000000E+01  1.10000000E+01  0.00000000E+00
  4.20000000E+01  1.00000000E+01  0.00000000E+00
  4.20000000E+01  9.00000000E+00  0.00000000E+00
  4.20000000E+01  8.00000000E+00  0.00000000E+00
  4.20000000E+01  7.00000000E+00  0.00000000E+00
  4.20000000E+01  6.00000000E+00  0.00000000E+00
  4.20000000E+01  5.00000000E+00  0.00000000E+00
  4.20000000E+01  4.00000000E+00  0.00000000E+00
  4.20000000E+01  3.00000000E+00  0.00000000E+00
  4.20000000E+01  2.00000000E+00  0.00000000E+00
  4.20000000E+01  1.00000000E+00  0.00000000E+00
  4.20000000E+01 -2.66453526E-15  0.00000000E+00
  4.30000000E+01  2.40000000E+01  0.00000000E+00
  4.30000000E+01  2.30000000E+01  0.00000000E+00
  4.30000000E+01  2.20000000E+01  0.00000000E+00
  4.30000000E+01  2.10000000E+01  0.00000000E+00
  4.30000000E+01  2.00000000E+01  0.00000000E+00
  4.30000000E+01  1.90000000E+01  0.00000000E+00
  4.30000000E+01  1.80000000E+01  0.00000000E+00
  4.30000000E+01  1.70000000E+01  0.00000000E+00
  4.30000000E+01  1.60000000E+01  0.00000000E+00
  4.30000000E+01  1.50000000E+01  0.00000000E+00
  4.30000000E+01  1.40000000E+01  0.00000000E+00
  4.30000000E+01  1.30000000E+01  0.00000000E+00
  4.30000000E+01  1.20000000E+01  0.00000000E+00
  4.30000000E+01  1.10000000E+01  0.00000000E+00
  4.30000000E+01  1.00000000E+01  0.00000000E+00
  4.30000000E+01  9.00000000E+00  0.00000000E+00
  4.30000000E+01  8.00000000E+00  0.00000000E+00
  4.30000000E+01  7.00000000E+00  0.00000000E+00
  4.30000000E+01  6.00000000E+00  0.00000000E+00
  4.30000000E+01  5.00000000E+00  0.00000000E+00
  4.30000000E+01  4.00000000E+00  0.00000000E+00
  4.30000000E+01  3.00000000E+00  0.00000000E+00
  4.30000000E+01  2.00000000E+00  0.00000000E+00
  4.30000000E+01  1.00000000E+00  0.00000000E+00
  4.30000000E+01 -2.66453526E-15  0.00000000E+00
  4.40000000E+01  2.40000000E+01  0.00000000E+00
  4.40000000E+01  2.30000000E+01  0.00000000E+00
  4.40000000E+01  2.20000000E+01  0.00000000E+00
  4.40000000E+01  2.10000000E+01  0.00000000E+00
  4.40000000E+01  2.00000000E+01  0.00000000E+00
  4.40000000E+01  1.90000000E+01  0.00000000E+00
  4.40000000E+01  1.80000000E+01  0.00000000E+00
  4.40000000E+01  1.70000000E+01  0.00000000E+00
  4.40000000E+01  1.60000000E+01  0.00000000E+00
  4.40000000E+01  1.50000000E+01  0.00000000E+00
  4.40000000E+01  1.40000000E+01  0.00000000E+00
  4.40000000E+01  1.30000000E+01  0.00000000E+00
  4.40000000E+01  1.20000000E+01  0.00000000E+00
  4.40000000E+01  1.10000000E+01  0.00000000E+00
  4.40000000E+01  1.00000000E+01  0.00000000E+00
  4.40000000E+01  9.00000000E+00  0.00000000E+00
  4.40000000E+01  8.00000000E+00  0.00000000E+00
  4.40000000E+01  7.00000000E+00  0.00000000E+00
  4.40000000E+01  6.00000000E+00  0.00000000E+00
  4.40000000E+01  5.00000000E+00  0.00000000E+00
  4.40000000E+01  4.00000000E+00  0.00000000E+00
  4.40000000E+01  3.00000000E+00  0.00000000E+00
  4.40000000E+01  2.00000000E+00  0.00000000E+00
  4.40000000E+01  1.00000000E+00  0.00000000E+00
  4.40000000E+01 -2.66453526E-15  0.00000000E+00
  4.50000000E+01  2.40000000E+01  0.00000000E+00
  4.50000000E+01  2.30000000E+01  0.00000000E+00
  4.50000000E+01  2.20000000E+01  0.00000000E+00
  4.50000000E+01  2.10000000E+01  0.00000000E+00
  4.50000000E+01  2.00000000E+01  0.00000000E+00
  4.50000000E+01  1.90000000E+01  0.00000000E+00
  4.50000000E+01  1.80000000E+01  0.00000000E+00
  4.50000000E+01  1.70000000E+01  0.00000000E+00
  4.50000000E+01  1.60000000E+01  0.00000000E+00
  4.50000000E+01  1.50000000E+01  0.00000000E+00
  4.50000000E+01  1.40000000E+01  0.00000000E+00
  4.50000000E+01  1.30000000E+01  0.00000000E+00
  4.50000000E+01  1.20000000E+01  0.00000000E+00
  4.50000000E+01  1.10000000E+01  0.00000000E+00
  4.50000000E+01  1.00000000E+01  0.00000000E+00
  4.50000000E+01  9.00000000E+00  0.00000000E+00
  4.50000000E+01  8.00000000E+00  0.00000000E+00
  4.50000000E+01  7.00000000E+00  0.00000000E+00
  4.50000000E+01  6.00000000E+00  0.00000000E+00
  4.50000000E+01  5.00000000E+00  0.00000000E+00
  4.50000000E+01  4.00000000E+00  0.00000000E+00
  4.50000000E+01  3.00000000E+00  0.00000000E+00
  4.50000000E+01  2.00000000E+00  0.00000000E+00
  4.50000000E+01  1.00000000E+00  0.00000000E+00
  4.50000000E+01 -2.66453526E-15  0.00000000E+00
  4.60000000E+01  2.40000000E+01  0.00000000E+00
  4.60000000E+01  2.30000000E+01  0.00000000E+00
  4.60000000E+01  2.20000000E+01  0.00000000E+00
  4.60000000E+01  2.10000000E+01  0.00000000E+00
  4.60000000E+01  2.00000000E+01  0.00000000E+00
  4.60000000E+01  1.90000000E+01  0.00000000E+00
  4.60000000E+01  1.80000000E+01  0.00000000E+00
  4.60000000E+01  1.70000000E+01  0.00000000E+00
  4.60000000E+01  1.60000000E+01  0.00000000E+00
  4.60000000E+01  1.50000000E+01  0.00000000E+00
  4.60000000E+01  1.40000000E+01  0.00000000E+00
  4.60000000E+01  1.30000000E+01  0.00000000E+00
  4.60000000E+01  1.20000000E+01  0.00000000E+00
  4.60000000E+01  1.10000000E+01  0.00000000E+00
  4.60000000E+01  1.00000000E+01  0.00000000E+00
  4.60000000E+01  9.00000000E+00  0.00000000E+00
  4.60000000E+01  8.00000000E+00  0.00000000E+00
  4.60000000E+01  7.00000000E+00  0.00000000E+00
  4.60000000E+01  6.00000000E+00  0.00000000E+00
  4.60000000E+01  5.00000000E+00  0.00000000E+00
  4.60000000E+01  4.00000000E+00  0.00000000E+00
  4.60000000E+01  3.00000000E+00  0.00000000E+00
  4.60000000E+01  2.00000000E+00  0.00000000E+00
  4.60000000E+01  1.00000000E+00  0.00000000E+00
  4.60000000E+01 -2.66453526E-15  0.00000000E+00
  4.70000000E+01  2.40000000E+01  0.00000000E+00
  4.70000000E+01  2.30000000E+01  0.00000000E+00
  4.70000000E+01  2.20000000E+01  0.00000000E+00
  4.70000000E+01  2.10000000E+01  0.00000000E+00
  4.70000000E+01  2.00000000E+01  0.00000000E+00
  4.70000000E+01  1.90000000E+01  0.00000000E+00
  4.70000000E+01  1.80000000E+01  0.00000000E+00
  4.70000000E+01  1.70000000E+01  0.00000000E+00
  4.70000000E+01  1.60000000E+01  0.00000000E+00
  4.70000000E+01  1.50000000E+01  0.00000000E+00
  4.70000000E+01  1.40000000E+01  0.00000000E+00
  4.70000000E+01  1.30000000E+01  0.00000000E+00
  4.70000000E+01  1.20000000E+01  0.00000000E+00
  4.70000000E+01  1.10000000E+01  0.00000000E+00
  4.70000000E+01  1.00000000E+01  0.00000000E+00
  4.70000000E+01  9.00000000E+00  0.00000000E+00
  4.70000000E+01  8.00000000E+00  0.00000000E+00
  4.70000000E+01  7.00000000E+00  0.00000000E+00
  4.70000000E+01  6.00000000E+00  0.00000000E+00
  4.70000000E+01  5.00000000E+00  0.00000000E+00
  4.70000000E+01  4.00000000E+00  0.00000000E+00
  4.70000000E+01  3.00000000E+00  0.00000000E+00
  4.70000000E+01  2.00000000E+00  0.00000000E+00
  4.70000000E+01  1.00000000E+00  0.00000000E+00
  4.70000000E+01 -2.66453526E-15  0.00000000E+00
  4.80000000E+01  2.40000000E+01  0.00000000E+00
  4.80000000E+01  2.30000000E+01  0.00000000E+00
  4.80000000E+01  2.20000000E+01  0.00000000E+00
  4.80000000E+01  2.10000000E+01  0.00000000E+00
  4.80000000E+01  2.00000000E+01  0.00000000E+00
  4.80000000E+01  1.90000000E+01  0.00000000E+00
  4.80000000E+01  1.80000000E+01  0.00000000E+00
  4.80000000E+01  1.70000000E+01  0.00000000E+00
  4.80000000E+01  1.60000000E+01  0.00000000E+00
  4.80000000E+01  1.50000000E+01  0.00000000E+00
  4.80000000E+01  1.40000000E+01  0.00000000E+00
  4.80000000E+01  1.30000000E+01  0.00000000E+00
  4.80000000E+01  1.20000000E+01  0.00000000E+00
  4.80000000E+01  1.10000000E+01  0.00000000E+00
  4.80000000E+01  1.00000000E+01  0.00000000E+00
  4.80000000E+01  9.00000000E+00  0.00000000E+00
  4.80000000E+01  8.00000000E+00  0.00000000E+00
  4.80000000E+01  7.00000000E+00  0.00000000E+00
  4.80000000E+01  6.00000000E+00  0.00000000E+00
  4.80000000E+01  5.00000000E+00  0.00000000E+00
  4.80000000E+01  4.00000000E+00  0.00000000E+00
  4.80000000E+01  3.00000000E+00  0.00000000E+00
  4.80000000E+01  2.00000000E+00  0.00000000E+00
  4.80000000E+01  1.00000000E+00  0.00000000E+00
  4.80000000E+01 -2.66453526E-15  0.00000000E+00
CELLS      1152      5760
         4           0           1          26          25
         4           1           2          27          26
         4           2           3          28          27
         4           3           4          29          28
         4           4           5          30          29
         4           5           6          31          30
         4           6           7          32          31
         4           7           8          33          32
         4           8           9          34          33
         4           9          10          35          34
         4          10          11          36          35
         4          11          12          37          36
         4          12          13          38          37
         4          13          14          39          38
         4          14          15          40          39
         4          15          16          41          40
         4          16          17          42          41
         4          17          18          43          42
         4          18          19          44          43
         4          19          20          45          44
         4          20          21          46          45
         4          21          22          47          46
         4          22          23          48          47
         4          23          24          49          48
         4          25          26          51          50
         4          26          27          52          51
         4          27          28          53          52
         4          28          29          54          53
         4          29          30          55          54
         4          30          31          56          55
         4          31          32          57          56
         4          32          33          58          57
         4          33          34          59          58
         4          34          35          60          59
         4          35          36          61          60
         4          36          37          62          61
         4          37          38          63          62
         4          38          39          64          63
         4          39          40          65          64
         4          40          41          66          65
         4          41          42          67          66
         4          42          43          68          67
         4          43          44          69          68
         4          44          45          70          69
         4          45          46          71          70
         4          46          47          72          71
         4          47          48          73          72
         4          48          49          74          73
         4          50          51          76          75
         4          51          52          77          76
         4          52          53          78          77
         4          53          54          79          78
         4          54          55          80          79
         4          55          56          81          80
         4          56          57          82          81
         4          57          58          83          82
         4          58          59          84          83
         4          59          60          85          84
         4          60          61          86          85
         4          61          62          87          86
         4          62          63          88          87
         4          63          64          89          88
         4          64          65          90          89
         4          65          66          91          90
         4          66          67          92          91
         4          67          68          93          92
         4          68          69          94          93
         4          69          70          95          94
         4          70          71          96          95
         4          71          72          97          96
         4          72          73          98          97
         4          73          74          99          98
         4          75          76         101         100
         4          76          77         102         101
         4          77          78         103         102
         4          78          79         104         103
         4          79          80         105         104
         4          80          81         106         105
         4          81          82         107         106
         4          82          83         108         107
         4          83          84         109         108
         4          84          85         110         109
         4          85          86         111         110
         4          86          87         112         111
         4          87          88         113         112
         4          88          89         114         113
         4          89          90         115         114
         4          90          91         116         115
         4          91          92         117         116
         4          92          93         118         117
         4          93          94         119         118
         4          94          95         120         119
         4          95          96         121         120
         4          96          97         122         121
         4          97          98         123         122
         4          98          99         124         123
         4         100         101         126         125
         4         101         102         127         126
         4         102         103         128         127
         4         103         104         129         128
         4         104         105         130         129
         4         105         106         131         130
         4         106         107         132         131
         4         107         108         133         132
         4         108         109         134         133
         4         109         110         135         134
         4         110         111         136         135
         4         111         112         137         136
         4         112         113         138         137
         4         113         114         139         138
         4         114         115         140         139
         4         115         116         141         140
         4         116         117         142         141
         4         117         118         143         142
         4         118         119         144         143
         4         119         120         145         144
         4         120         121         146         145
         4         121         122         147         146
         4         122         123         148         147
         4         123         124         149         148
         4         125         126         151         150
         4         126         127         152         151
         4         127         128         153         152
         4         128         129         154         153
         4         129         130         155         154
         4         130         131         156         155
         4         131         132         157         156
         4         132         133         158         157
         4         133         134         159         158
         4         134         135         160         159
         4         135         136         161         160
         4         136         137         162         161
         4         137         138         163         162
         4         138         139         164         163
         4         139         140         165         164
         4         140         141         166         165
         4         141         142         167         166
         4         142         143         168         167
         4         143         144         169         168
         4         144         145         170         169
         4         145         146         171         170
         4         146         147         172         171
         4         147         148         173         172
         4         148         149         174         173
         4         150         151         176         175
         4         151         152         177         176
         4         152         153         178         177
         4         153         154         179         178
         4         154         155         180         179
         4         155         156         181         180
         4         156         157         182         181
         4         157         158         183         182
         4         158         159         184         183
         4         159         160         185         184
         4         160         161         186         185
         4         161         162         187         186
         4         162         163         188         187
         4         163         164         189         188
         4         164         165         190         189
         4         165         166         191         190
         4         166         167         192         191
         4         167         168         193         192
         4         168         169         194         193
         4         169         170         195         194
         4         170         171         196         195
         4         171         172         197         196
         4         172         173         198         197
         4         173         174         199         198
         4         175         176         201         200
         4         176         177         202         201
         4         177         178         203         202
         4         178         179         204         203
         4         179         180         205         204
         4         180         181         206         205
         4         181         182         207         206
         4         182         183         208         207
         4         183         184         209         208
         4         184         185         210         209
         4         185         186         211         210
         4         186         187         212         211
         4         187         188         213         212
         4         188         189         214         213
         4         189         190         215         214
         4         190         191         216         215
         4         191         192         217         216
         4         192         193         218         217
         4         193         194         219         218
         4         194         195         220         219
         4         195         196         221         220
         4         196         197         222         221
         4         197         198         223         222
         4         198         199         224         223
         4         200         201         226         225
         4         201         202         227         226
         4         202         203         228         227
         4         203         204         229         228
         4         204         205         230         229
         4         205         206         231         230
         4         206         207         232         231
         4         207         208         233         232
         4         208         209         234         233
         4         209         210         235         234
         4         210         211         236         235
         4         211         212         237         236
         4         212         213         238         237
         4         213         214         239         238
         4         214         215         240         239
         4         215         216         241         240
         4         216         217         242         241
         4         217         218         243         242
         4         218         219         244         243
         4         219         220         245         244
         4         220         221         246         245
         4         221         222         247         246
         4         222         223         248         247
         4         223         224         249         248
         4         225         226         251         250
         4         226         227         252         251
         4         227         228         253         252
         4         228         229         254         253
         4         229         230         255         254
         4         230         231         256         255
         4         231         232         257         256
         4         232         233         258         257
         4         233         234         259         258
         4         234         235         260         259
         4         235         236         261         260
         4         236         237         262         261
         4         237         238         263         262
         4         238         239         264         263
         4         239         240         265         264
         4         240         241         266         265
         4         241         242         267         266
         4         242         243         268         267
         4         243         244         269         268
         4         244         245         270         269
         4         245         246         271         270
         4         246         247         272         271
         4         247         248         273         272
         4         248         249         274         273
         4         250         251         276         275
         4         251         252         277         276
         4         252         253         278         277
         4         253         254         279         278
         4         254         255         280         279
         4         255         256         281         280
         4         256         257         282         281
         4         257         258         283         282
         4         258         259         284         283
         4         259         260         285         284
         4         260         261         286         285
         4         261         262         287         286
         4         262         263         288         287
         4         263         264         289         288
         4         264         265         290         289
         4         265         266         291         290
         4         266         267         292         291
         4         267         268         293         292
         4         268         269         294         293
         4         269         270         295         294
         4         270         271         296         295
         4         271         272         297         296
         4         272         273         298         297
         4         273         274         299         298
         4         275         276         301         300
         4         276         277         302         301
         4         277         278         303         302
         4         278         279         304         303
         4         279         280         305         304
         4         280         281         306         305
         4         281         282         307         306
         4         282         283         308         307
         4         283         284         309         308
         4         284         285         310         309
         4         285         286         311         310
         4         286         287         312         311
         4         287         288         313         312
         4         288         289         314         313
         4         289         290         315         314
         4         290         291         316         315
         4         291         292         317         316
         4         292         293         318         317
         4         293         294         319         318
         4         294         295         320         319
         4         295         296         321         320
         4         296         297         322         321
         4         297         298         323         322
         4         298         299         324         323
         4         300         301         326         325
         4         301         302         327         326
         4         302         303         328         327
         4         303         304         329         328
         4         304         305         330         329
         4         305         306         331         330
         4         306         307         332         331
         4         307         308         333         332
         4         308         309         334         333
         4         309         310         335         334
         4         310         311         336         335
         4         311         312         337         336
         4         312         313         338         337
         4         313         314         339         338
         4         314         315         340         339
         4         315         316         341         340
         4         316         317         342         341
         4         317         318         343         342
         4         318         319         344         343
         4         319         320         345         344
         4         320         321         346         345
         4         321         322         347         346
         4         322         323         348         347
         4         323         324         349         348
         4         325         326         351         350
         4         326         327         352         351
         4         327         328         353         352
         4         328         329         354         353
         4         329         330         355         354
         4         330         331         356         355
         4         331         332         357         356
         4         332         333         358         357
         4         333         334         359         358
         4         334         335         360         359
         4         335         336         361         360
         4         336         337         362         361
         4         337         338         363         362
         4         338         339         364         363
         4         339         340         365         364
         4         340         341         366         365
         4         341         342         367         366
         4         342         343         368         367
         4         343         344         369         368
         4         344         345         370         369
         4         345         346         371         370
         4         346         347         372         371
         4         347         348         373         372
         4         348         349         374         373
         4         350         351         376         375
         4         351         352         377         376
         4         352         353         378         377
         4         353         354         379         378
         4         354         355         380         379
         4         355         356         381         380
         4         356         357         382         381
         4         357         358         383         382
         4         358         359         384         383
         4         359         360         385         384
         4         360         361         386         385
         4         361         362         387         386
         4         362         363         388         387
         4         363         364         389         388
         4         364         365         390         389
         4         365         366         391         390
         4         366         367         392         391
         4         367         368         393         392
         4         368         369         394         393
         4         369         370         395         394
         4         370         371         396         395
         4         371         372         397         396
         4         372         373         398         397
         4         373         374         399         398
         4         375         376         401         400
         4         376         377         402         401
         4         377         378         403         402
         4         378         379         404         403
         4         379         380         405         404
         4         380         381         406         405
         4         381         382         407         406
         4         382         383         408         407
         4         383         384         409         408
         4         384         385         410         409
         4         385         386         411         410
         4         386         387         412         411
         4         387         388         413         412
         4         388         389         414         413
         4         389         390         415         414
         4         390         391         416         415
         4         391         392         417         416
         4         392         393         418         417
         4         393         394         419         418
         4         394         395         420         419
         4         395         396         421         420
         4         396         397         422         421
         4         397         398         423         422
         4         398         399         424         423
         4         400         401         426         425
         4         401         402         427         426
         4         402         403         428         427
         4         403         404         429         428
         4         404         405         430         429
         4         405         406         431         430
         4         406         407         432         431
         4         407         408         433         432
         4         408         409         434         433
         4         409         410         435         434
         4         410         411         436         435
         4         411         412         437         436
         4         412         413         438         437
         4         413         414         439         438
         4         414         415         440         439
         4         415         416         441         440
         4         416         417         442         441
         4         417         418         443         442
         4         418         419         444         443
         4         419         420         445         444
         4         420         421         446         445
         4         421         422         447         446
         4         422         423         448         447
         4         423         424         449         448
         4         425         426         451         450
         4         426         427         452         451
         4         427         428         453         452
         4         428         429         454         453
         4         429         430         455         454
         4         430         431         456         455
         4         431         432         457         456
         4         432         433         458         457
         4         433         434         459         458
         4         434         435         460         459
         4         435         436         461         460
         4         436         437         462         461
         4         437         438         463         462
         4         438         439         464         463
         4         439         440         465         464
         4         440         441         466         465
         4         441         442         467         466
         4         442         443         468         467
         4         443         444         469         468
         4         444         445         470         469
         4         445         446         471         470
         4         446         447         472         471
         4         447         448         473         472
         4         448         449         474         473
         4         450         451         476         475
         4         451         452         477         476
         4         452         453         478         477
         4         453         454         479         478
         4         454         455         480         479
         4         455         456         481         480
         4         456         457         482         481
         4         457         458         483         482
         4         458         459         484         483
         4         459         460         485         484
         4         460         461         486         485
         4         461         462         487         486
         4         462         463         488         487
         4         463         464         489         488
         4         464         465         490         489
         4         465         466         491         490
         4         466         467         492         491
         4         467         468         493         492
         4         468         469         494         493
         4         469         470         495         494
         4         470         471         496         495
         4         471         472         497         496
         4         472         473         498         497
         4         473         474         499         498
         4         475         476         501         500
         4         476         477         502         501
         4         477         478         503         502
         4         478         479         504         503
         4         479         480         505         504
         4         480         481         506         505
         4         481         482         507         506
         4         482         483         508         507
         4         483         484         509         508
         4         484         485         510         509
         4         485         486         511         510
         4         486         487         512         511
         4         487         488         513         512
         4         488         489         514         513
         4         489         490         515         514
         4         490         491         516         515
         4         491         492         517         516
         4         492         493         518         517
         4         493         494         519         518
         4         494         495         520         519
         4         495         496         521         520
         4         496         497         522         521
         4         497         498         523         522
         4         498         499         524         523
         4         500         501         526         525
         4         501         502         527         526
         4         502         503         528         527
         4         503         504         529         528
         4         504         505         530         529
         4         505         506         531         530
         4         506         507         532         531
         4         507         508         533         532
         4         508         509         534         533
         4         509         510         535         534
         4         510         511         536         535
         4         511         512         537         536
         4         512         513         538         537
         4         513         514         539         538
         4         514         515         540         539
         4         515         516         541         540
         4         516         517         542         541
         4         517         518         543         542
         4         518         519         544         543
         4         519         520         545         544
         4         520         521         546         545
         4         521         522         547         546
         4         522         523         548         547
         4         523         524         549         548
         4         525         526         551         550
         4         526         527         552         551
         4         527         528         553         552
         4         528         529         554         553
         4         529         530         555         554
         4         530         531         556         555
         4         531         532         557         556
         4         532         533         558         557
         4         533         534         559         558
         4         534         535         560         559
         4         535         536         561         560
         4         536         537         562         561
         4         537         538         563         562
         4         538         539         564         563
         4         539         540         565         564
         4         540         541         566         565
         4         541         542         567         566
         4         542         543         568         567
         4         543         544         569         568
         4         544         545         570         569
         4         545         546         571         570
         4         546         547         572         571
         4         547         548         573         572
         4         548         549         574         573
         4         550         551         576         575
         4         551         552         577         576
         4         552         553         578         577
         4         553         554         579         578
         4         554         555         580         579
         4         555         556         581         580
         4         556         557         582         581
         4         557         558         583         582
         4         558         559         584         583
         4         559         560         585         584
         4         560         561         586         585
         4         561         562         587         586
         4         562         563         588         587
         4         563         564         589         588
         4         564         565         590         589
         4         565         566         591         590
         4         566         567         592         591
         4         567         568         593         592
         4         568         569         594         593
         4         569         570         595         594
         4         570         571         596         595
         4         571         572         597         596
         4         572         573         598         597
         4         573         574         599         598
         4         575         576         601         600
         4         576         577         602         601
         4         577         578         603         602
         4         578         579         604         603
         4         579         580         605         604
         4         580         581         606         605
         4         581         582         607         606
         4         582         583         608         607
         4         583         584         609         608
         4         584         585         610         609
         4         585         586         611         610
         4         586         587         612         611
         4         587         588         613         612
         4         588         589         614         613
         4         589         590         615         614
         4         590         591         616         615
         4         591         592         617         616
         4         592         593         618         617
         4         593         594         619         618
         4         594         595         620         619
         4         595         596         621         620
         4         596         597         622         621
         4         597         598         623         622
         4         598         599         624         623
         4         600         601         626         625
         4         601         602         627         626
         4         602         603         628         627
         4         603         604         629         628
         4         604         605         630         629
         4         605         606         631         630
         4         606         607         632         631
         4         607         608         633         632
         4         608         609         634         633
         4         609         610         635         634
         4         610         611         636         635
         4         611         612         637         636
         4         612         613         638         637
         4         613         614         639         638
         4         614         615         640         639
         4         615         616         641         640
         4         616         617         642         641
         4         617         618         643         642
         4         618         619         644         643
         4         619         620         645         644
         4         620         621         646         645
         4         621         622         647         646
         4         622         623         648         647
         4         623         624         649         648
         4         625         626         651         650
         4         626         627         652         651
         4         627         628         653         652
         4         628         629         654         653
         4         629         630         655         654
         4         630         631         656         655
         4         631         632         657         656
         4         632         633         658         657
         4         633         634         659         658
         4         634         635         660         659
         4         635         636         661         660
         4         636         637         662         661
         4         637         638         663         662
         4         638         639         664         663
         4         639         640         665         664
         4         640         641         666         665
         4         641         642         667         666
         4         642         643         668         667
         4         643         644         669         668
         4         644         645         670         669
         4         645         646         671         670
         4         646         647         672         671
         4         647         648         673         672
         4         648         649         674         673
         4         650         651         676         675
         4         651         652         677         676
         4         652         653         678         677
         4         653         654         679         678
         4         654         655         680         679
         4         655         656         681         680
         4         656         657         682         681
         4         657         658         683         682
         4         658         659         684         683
         4         659         660         685         684
         4         660         661         686         685
         4         661         662         687         686
         4         662         663         688         687
         4         663         664         689         688
         4         664         665         690         689
         4         665         666         691         690
         4         666         667         692         691
         4         667         668         693         692
         4         668         669         694         693
         4         669         670         695         694
         4         670         671         696         695
         4         671         672         697         696
         4         672         673         698         697
         4         673         674         699         698
         4         675         676         701         700
         4         676         677         702         701
         4         677         678         703         702
         4         678         679         704         703
         4         679         680         705         704
         4         680         681         706         705
         4         681         682         707         706
         4         682         683         708         707
         4         683         684         709         708
         4         684         685         710         709
         4         685         686         711         710
         4         686         687         712         711
         4         687         688         713         712
         4         688         689         714         713
         4         689         690         715         714
         4         690         691         716         715
         4         691         692         717         716
         4         692         693         718         717
         4         693         694         719         718
         4         694         695         720         719
         4         695         696         721         720
         4         696         697         722         721
         4         697         698         723         722
         4         698         699         724         723
         4         700         701         726         725
         4         701         702         727         726
         4         702         703         728         727
         4         703         704         729         728
         4         704         705         730         729
         4         705         706         731         730
         4         706         707         732         731
         4         707         708         733         732
         4         708         709         734         733
         4         709         710         735         734
         4         710         711         736         735
         4         711         712         737         736
         4         712         713         738         737
         4         713         714         739         738
         4         714         715         740         739
         4         715         716         741         740
         4         716         717         742         741
         4         717         718         743         742
         4         718         719         744         743
         4         719         720         745         744
         4         720         721         746         745
         4         721         722         747         746
         4         722         723         748         747
         4         723         724         749         748
         4         725         726         751         750
         4         726         727         752         751
         4         727         728         753         752
         4         728         729         754         753
         4         729         730         755         754
         4         730         731         756         755
         4         731         732         757         756
         4         732         733         758         757
         4         733         734         759         758
         4         734         735         760         759
         4         735         736         761         760
         4         736         737         762         761
         4         737         738         763         762
         4         738         739         764         763
         4         739         740         765         764
         4         740         741         766         765
         4         741         742         767         766
         4         742         743         768         767
         4         743         744         769         768
         4         744         745         770         769
         4         745         746         771         770
         4         746         747         772         771
         4         747         748         773         772
         4         748         749         774         773
         4         750         751         776         775
         4         751         752         777         776
         4         752         753         778         777
         4         753         754         779         778
         4         754         755         780         779
         4         755         756         781         780
         4         756         757         782         781
         4         757         758         783         782
         4         758         759         784         783
         4         759         760         785         784
         4         760         761         786         785
         4         761         762         787         786
         4         762         763         788         787
         4         763         764         789         788
         4         764         765         790         789
         4         765         766         791         790
         4         766         767         792         791
         4         767         768         793         792
         4         768         769         794         793
         4         769         770         795         794
         4         770         771         796         795
         4         771         772         797         796
         4         772         773         798         797
         4         773         774         799         798
         4         775         776         801         800
         4         776         777         802         801
         4         777         778         803         802
         4         778         779         804         803
         4         779         780         805         804
         4         780         781         806         805
         4         781         782         807         806
         4         782         783         808         807
         4         783         784         809         808
         4         784         785         810         809
         4         785         786         811         810
         4         786         787         812         811
         4         787         788         813         812
         4         788         789         814         813
         4         789         790         815         814
         4         790         791         816         815
         4         791         792         817         816
         4         792         793         818         817
         4         793         794         819         818
         4         794         795         820         819
         4         795         796         821         820
         4         796         797         822         821
         4         797         798         823         822
         4         798         799         824         823
         4         800         801         826         825
         4         801         802         827         826
         4         802         803         828         827
         4         803         804         829         828
         4         804         805         830         829
         4         805         806         831         830
         4         806         807         832         831
         4         807         808         833         832
         4         808         809         834         833
         4         809         810         835         834
         4         810         811         836         835
         4         811         812         837         836
         4         812         813         838         837
         4         813         814         839         838
         4         814         815         840         839
         4         815         816         841         840
         4         816         817         842         841
         4         817         818         843         842
         4         818         819         844         843
         4         819         820         845         844
         4         820         821         846         845
         4         821         822         847         846
         4         822         823         848         847
         4         823         824         849         848
         4         825         826         851         850
         4         826         827         852         851
         4         827         828         853         852
         4         828         829         854         853
         4         829         830         855         854
         4         830         831         856         855
         4         831         832         857         856
         4         832         833         858         857
         4         833         834         859         858
         4         834         835         860         859
         4         835         836         861         860
         4         836         837         862         861
         4         837         838         863         862
         4         838         839         864         863
         4         839         840         865         864
         4         840         841         866         865
         4         841         842         867         866
         4         842         843         868         867
         4         843         844         869         868
         4         844         845         870         869
         4         845         846         871         870
         4         846         847         872         871
         4         847         848         873         872
         4         848         849         874         873
         4         850         851         876         875
         4         851         852         877         876
         4         852         853         878         877
         4         853         854         879         878
         4         854         855         880         879
         4         855         856         881         880
         4         856         857         882         881
         4         857         858         883         882
         4         858         859         884         883
         4         859         860         885         884
         4         860         861         886         885
         4         861         862         887         886
         4         862         863         888         887
         4         863         864         889         888
         4         864         865         890         889
         4         865         866         891         890
         4         866         867         892         891
         4         867         868         893         892
         4         868         869         894         893
         4         869         870         895         894
         4         870         871         896         895
         4         871         872         897         896
         4         872         873         898         897
         4         873         874         899         898
         4         875         876         901         900
         4         876         877         902         901
         4         877         878         903         902
         4         878         879         904         903
         4         879         880         905         904
         4         880         881         906         905
         4         881         882         907         906
         4         882         883         908         907
         4         883         884         909         908
         4         884         885         910         909
         4         885         886         911         910
         4         886         887         912         911
         4         887         888         913         912
         4         888         889         914         913
         4         889         890         915         914
         4         890         891         916         915
         4         891         892         917         916
         4         892         893         918         917
         4         893         894         919         918
         4         894         895         920         919
         4         895         896         921         920
         4         896         897         922         921
         4         897         898         923         922
         4         898         899         924         923
         4         900         901         926         925
         4         901         902         927         926
         4         902         903         928         927
         4         903         904         929         928
         4         904         905         930         929
         4         905         906         931         930
         4         906         907         932         931
         4         907         908         933         932
         4         908         909         934         933
         4         909         910         935         934
         4         910         911         936         935
         4         911         912         937         936
         4         912         913         938         937
         4         913         914         939         938
         4         914         915         940         939
         4         915         916         941         940
         4         916         917         942         941
         4         917         918         943         942
         4         918         919         944         943
         4         919         920         945         944
         4         920         921         946         945
         4         921         922         947         946
         4         922         923         948         947
         4         923         924         949         948
         4         925         926         951         950
         4         926         927         952         951
         4         927         928         953         952
         4         928         929         954         953
         4         929         930         955         954
         4         930         931         956         955
         4         931         932         957         956
         4         932         933         958         957
         4         933         934         959         958
         4         934         935         960         959
         4         935         936         961         960
         4         936         937         962         961
         4         937         938         963         962
         4         938         939         964         963
         4         939         940         965         964
         4         940         941         966         965
         4         941         942         967         966
         4         942         943         968         967
         4         943         944         969         968
         4         944         945         970         969
         4         945         946         971         970
         4         946         947         972         971
         4         947         948         973         972
         4         948         949         974         973
         4         950         951         976         975
         4         951         952         977         976
         4         952         953         978         977
         4         953         954         979         978
         4         954         955         980         979
         4         955         956         981         980
         4         956         957         982         981
         4         957         958         983         982
         4         958         959         984         983
         4         959         960         985         984
         4         960         961         986         985
         4         961         962         987         986
         4         962         963         988         987
         4         963         964         989         988
         4         964         965         990         989
         4         965         966         991         990
         4         966         967         992         991
         4         967         968         993         992
         4         968         969         994         993
         4         969         970         995         994
         4         970         971         996         995
         4         971         972         997         996
         4         972         973         998         997
         4         973         974         999         998
         4         975         976        1001        1000
         4         976         977        1002        1001
         4         977         978        1003        1002
         4         978         979        1004        1003
         4         979         980        1005        1004
         4         980         981        1006        1005
         4         981         982        1007        1006
         4         982         983        1008        1007
         4         983         984        1009        1008
         4         984         985        1010        1009
         4         985         986        1011        1010
         4         986         987        1012        1011
         4         987         988        1013        1012
         4         988         989        1014        1013
         4         989         990        1015        1014
         4         990         991        1016        1015
         4         991         992        1017        1016
         4         992         993        1018        1017
         4         993         994        1019        1018
         4         994         995        1020        1019
         4         995         996        1021        1020
         4         996         997        1022        1021
         4         997         998        1023        1022
         4         998         999        1024        1023
         4        1000        1001        1026        1025
         4        1001        1002        1027        1026
         4        1002        1003        1028        1027
         4        1003        1004        1029        1028
         4        1004        1005        1030        1029
         4        1005        1006        1031        1030
         4        1006        1007        1032        1031
         4        1007        1008        1033        1032
         4        1008        1009        1034        1033
         4        1009        1010        1035        1034
         4        1010        1011        1036        1035
         4        1011        1012        1037        1036
         4        1012        1013        1038        1037
         4        1013        1014        1039        1038
         4        1014        1015        1040        1039
         4        1015        1016        1041        1040
         4        1016        1017        1042        1041
         4        1017        1018        1043        1042
         4        1018        1019        1044        1043
         4        1019        1020        1045        1044
         4        1020        1021        1046        1045
         4        1021        1022        1047        1046
         4        1022        1023        1048        1047
         4        1023        1024        1049        1048
         4        1025        1026        1051        1050
         4        1026        1027        1052        1051
         4        1027        1028        1053        1052
         4        1028        1029        1054        1053
         4        1029        1030        1055        1054
         4        1030        1031        1056        1055
         4        1031        1032        1057        1056
         4        1032        1033        1058        1057
         4        1033        1034        1059        1058
         4        1034        1035        1060        1059
         4        1035        1036        1061        1060
         4        1036        1037        1062        1061
         4        1037        1038        1063        1062
         4        1038        1039        1064        1063
         4        1039        1040        1065        1064
         4        1040        1041        1066        1065
         4        1041        1042        1067        1066
         4        1042        1043        1068        1067
         4        1043        1044        1069        1068
         4        1044        1045        1070        1069
         4        1045        1046        1071        1070
         4        1046        1047        1072        1071
         4        1047        1048        1073        1072
         4        1048        1049        1074        1073
         4        1050        1051        1076        1075
         4        1051        1052        1077        1076
         4        1052        1053        1078        1077
         4        1053        1054        1079        1078
         4        1054        1055        1080        1079
         4        1055        1056        1081        1080
         4        1056        1057        1082        1081
         4        1057        1058        1083        1082
         4        1058        1059        1084        1083
         4        1059        1060        1085        1084
         4        1060        1061        1086        1085
         4        1061        1062        1087        1086
         4        1062        1063        1088        1087
         4        1063        1064        1089        1088
         4        1064        1065        1090        1089
         4        1065        1066        1091        1090
         4        1066        1067        1092        1091
         4        1067        1068        1093        1092
         4        1068        1069        1094        1093
         4        1069        1070        1095        1094
         4        1070        1071        1096        1095
         4        1071        1072        1097        1096
         4        1072        1073        1098        1097
         4        1073        1074        1099        1098
         4        1075        1076        1101        1100
         4        1076        1077        1102        1101
         4        1077        1078        1103        1102
         4        1078        1079        1104        1103
         4        1079        1080        1105        1104
         4        1080        1081        1106        1105
         4        1081        1082        1107        1106
         4        1082        1083        1108        1107
         4        1083        1084        1109        1108
         4        1084        1085        1110        1109
         4        1085        1086        1111        1110
         4        1086        1087        1112        1111
         4        1087        1088        1113        1112
         4        1088        1089        1114        1113
         4        1089        1090        1115        1114
         4        1090        1091        1116        1115
         4        1091        1092        1117        1116
         4        1092        1093        1118        1117
         4        1093        1094        1119        1118
         4        1094        1095        1120        1119
         4        1095        1096        1121        1120
         4        1096        1097        1122        1121
         4        1097        1098        1123        1122
         4        1098        1099        1124        1123
         4        1100        1101        1126        1125
         4        1101        1102        1127        1126
         4        1102        1103        1128        1127
         4        1103        1104        1129        1128
         4        1104        1105        1130        1129
         4        1105        1106        1131        1130
         4        1106        1107        1132        1131
         4        1107        1108        1133        1132
         4        1108        1109        1134        1133
         4        1109        1110        1135        1134
         4        1110        1111        1136        1135
         4        1111        1112        1137        1136
         4        1112        1113        1138        1137
         4        1113        1114        1139        1138
         4        1114        1115        1140        1139
         4        1115        1116        1141        1140
         4        1116        1117        1142        1141
         4        1117        1118        1143        1142
         4        1118        1119        1144        1143
         4        1119        1120        1145        1144
         4        1120        1121        1146        1145
         4        1121        1122        1147        1146
         4        1122        1123        1148        1147
         4        1123        1124        1149        1148
         4        1125        1126        1151        1150
         4        1126        1127        1152        1151
         4        1127        1128        1153        1152
         4        1128        1129        1154        1153
         4        1129        1130        1155        1154
         4        1130        1131        1156        1155
         4        1131        1132        1157        1156
         4        1132        1133        1158        1157
         4        1133        1134        1159        1158
         4        1134        1135        1160        1159
         4        1135        1136        1161        1160
         4        1136        1137        1162        1161
         4        1137        1138        1163        1162
         4        1138        1139        1164        1163
         4        1139        1140        1165        1164
         4        1140        1141        1166        1165
         4        1141        1142        1167        1166
         4        1142        1143        1168        1167
         4        1143        1144        1169        1168
         4        1144        1145        1170        1169
         4        1145        1146        1171        1170
         4        1146        1147        1172        1171
         4        1147        1148        1173        1172
         4        1148        1149        1174        1173
         4        1150        1151        1176        1175
         4        1151        1152        1177        1176
         4        1152        1153        1178        1177
         4        1153        1154        1179        1178
         4        1154        1155        1180        1179
         4        1155        1156        1181        1180
         4        1156        1157        1182        1181
         4        1157        1158        1183        1182
         4        1158        1159        1184        1183
         4        1159        1160        1185        1184
         4        1160        1161        1186        1185
         4        1161        1162        1187        1186
         4        1162        1163        1188        1187
         4        1163        1164        1189        1188
         4        1164        1165        1190        1189
         4        1165        1166        1191        1190
         4        1166        1167        1192        1191
         4        1167        1168        1193        1192
         4        1168        1169        1194        1193
         4        1169        1170        1195        1194
         4        1170        1171        1196        1195
         4        1171        1172        1197        1196
         4        1172        1173        1198        1197
         4        1173        1174        1199        1198
         4        1175        1176        1201        1200
         4        1176        1177        1202        1201
         4        1177        1178        1203        1202
         4        1178        1179        1204        1203
         4        1179        1180        1205        1204
         4        1180        1181        1206        1205
         4        1181        1182        1207        1206
         4        1182        1183        1208        1207
         4        1183        1184        1209        1208
         4        1184        1185        1210        1209
         4        1185        1186        1211        1210
         4        1186        1187        1212        1211
         4        1187        1188        1213        1212
         4        1188        1189        1214        1213
         4        1189        1190        1215        1214
         4        1190        1191        1216        1215
         4        1191        1192        1217        1216
         4        1192        1193        1218        1217
         4        1193        1194        1219        1218
         4        1194        1195        1220        1219
         4        1195        1196        1221        1220
         4        1196        1197        1222        1221
         4        1197        1198        1223        1222
         4        1198        1199        1224        1223
CELL_TYPES       1152
9
9
9
9
9
9
9
9
9
9
9
9
9
9
9
9
9
9
9
9
9
9
9
9
9
9
9
9
9
9
9
9
9
9
9
9
9
9
9
9
9
9
9
9
9
9
9
9
9
9
9
9
9
9
9
9
9
9
9
9
9
9
9
9
9
9
9
9
9
9
9
9
9
9
9
9
9
9
9
9
9
9
9
9
9
9
9
9
9
9
9
9
9
9
9
9
9
9
9
9
9
9
9
9
9
9
9
9
9
9
9
9
9
9
9
9
9
9
9
9
9
9
9
9
9
9
9
9
9
9
9
9
9
9
9
9
9
9
9
9
9
9
9
9
9
9
9
9
9
9
9
9
9
9
9
9
9
9
9
9
9
9
9
9
9
9
9
9
9
9
9
9
9
9
9
9
9
9
9
9
9
9
9
9
9
9
9
9
9
9
9
9
9
9
9
9
9
9
9
9
9
9
9
9
9
9
9
9
9
9
9
9
9
9
9
9
9
9
9
9
9
9
9
9
9
9
9
9
9
9
9
9
9
9
9
9
9
9
9
9
9
9
9
9
9
9
9
9
9
9
9
9
9
9
9
9
9
9
9
9
9
9
9
9
9
9
9
9
9
9
9
9
9
9
9
9
9
9
9
9
9
9
9
9
9
9
9
9
9
9
9
9
9
9
9
9
9
9
9
9
9
9
9
9
9
9
9
9
9
9
9
9
9
9
9
9
9
9
9
9
9
9
9
9
9
9
9
9
9
9
9
9
9
9
9
9
9
9
9
9
9
9
9
9
9
9
9
9
9
9
9
9
9
9
9
9
9
9
9
9
9
9
9
9
9
9
9
9
9
9
9
9
9
9
9
9
9
9
9
9
9
9
9
9
9
9
9
9
9
9
9
9
9
9
9
9
9
9
9
9
9
9
9
9
9
9
9
9
9
9
9
9
9
9
9
9
9
9
9
9
9
9
9
9
9
9
9
9
9
9
9
9
9
9
9
9
9
9
9
9
9
9
9
9
9
9
9
9
9
9
9
9
9
9
9
9
9
9
9
9
9
9
9
9
9
9
9
9
9
9
9
9
9
9
9
9
9
9
9
9
9
9
9
9
9
9
9
9
9
9
9
9
9
9
9
9
9
9
9
9
9
9
9
9
9
9
9
9
9
9
9
9
9
9
9
9
9
9
9
9
9
9
9
9
9
9
9
9
9
9
9
9
9
9
9
9
9
9
9
9
9
9
9
9
9
9
9
9
9
9
9
9
9
9
9
9
9
9
9
9
9
9
9
9
9
9
9
9
9
9
9
9
9
9
9
9
9
9
9
9
9
9
9
9
9
9
9
9
9
9
9
9
9
9
9
9
9
9
9
9
9
9
9
9
9
9
9
9
9
9
9
9
9
9
9
9
9
9
9
9
9
9
9
9
9
9
9
9
9
9
9
9
9
9
9
9
9
9
9
9
9
9
9
9
9
9
9
9
9
9
9
9
9
9
9
9
9
9
9
9
9
9
9
9
9
9
9
9
9
9
9
9
9
9
9
9
9
9
9
9
9
9
9
9
9
9
9
9
9
9
9
9
9
9
9
9
9
9
9
9
9
9
9
9
9
9
9
9
9
9
9
9
9
9
9
9
9
9
9
9
9
9
9
9
9
9
9
9
9
9
9
9
9
9
9
9
9
9
9
9
9
9
9
9
9
9
9
9
9
9
9
9
9
9
9
9
9
9
9
9
9
9
9
9
9
9
9
9
9
9
9
9
9
9
9
9
9
9
9
9
9
9
9
9
9
9
9
9
9
9
9
9
9
9
9
9
9
9
9
9
9
9
9
9
9
9
9
9
9
9
9
9
9
9
9
9
9
9
9
9
9
9
9
9
9
9
9
9
9
9
9
9
9
9
9
9
9
9
9
9
9
9
9
9
9
9
9
9
9
9
9
9
9
9
9
9
9
9
9
9
9
9
9
9
9
9
9
9
9
9
9
9
9
9
9
9
9
9
9
9
9
9
9
9
9
9
9
9
9
9
9
9
9
9
9
9
9
9
9
9
9
9
9
9
9
9
9
9
9
9
9
9
9
9
9
9
9
9
9
9
9
9
9
9
9
9
9
9
9
9
9
9
9
9
9
9
9
9
9
9
9
9
9
9
9
9
9
9
9
9
9
9
9
9
9
9
9
9
9
9
9
9
9
9
9
9
9
9
9
9
9
9
9
9
9
9
9
9
9
9
9
9
9
9
9
9
9
9
9
9
9
9
9
9
9
9
9
9
9
9
9
9
9
9
9
9
9
9
9
9
9
9
9
9
9
9
9
9
9
9
9
9
9
9
9
9
9
9
9
9
9
9
9
9
9
9
9
9
9
9
9
9
9
9
9
9
9
9
9
9
9
9
9
9
9
9
9
9
9
9
9
9
9
9
9
9
9
9
9
9
9
9
9
9
9
9
9
9
9
9
9
9
9
9
9
9
9
9
9
9
9
9
9
9
9
9
9
9
9
9
9
9
9
9
9
9
9
9
9
9
9
9
9
9
9
9
9
9
9
9
9
9
9
9
9
9
9
9
9
9
9
9
9
9
9
9
9
9
9
9
9
9
9
9
9
9
9
9
9
9
9
9
POINT_DATA      1225
SCALARS p double 
LOOKUP_TABLE default
   1371.10318010350     
   1447.01129638938     
   1658.62013900757     
   1963.68869673454     
   2322.08356445584     
   2705.53238670797     
   3099.30380500166     
   3494.51033242794     
   3885.26758633706     
   4267.27760057513     
   4637.13409701497     
   4991.97071526441     
   5329.29132167940     
   5646.89113493166     
   5942.81402434747     
   6215.34304408509     
   6462.97678329448     
   6684.42076444536     
   6878.33641517844     
   7043.60150405333     
   7179.47611232068     
   7285.59222303179     
   7361.53055259745     
   7407.07047819589     
   7422.18931376809     
   1282.55127374762     
   1373.11006542436     
   1608.76071043036     
   1937.67033093399     
   2306.92997624699     
   2696.16767630597     
   3093.10956870706     
   3490.11462123279     
   3881.88797514393     
   4264.43723770411     
   4634.52975323202     
   4989.40826591743     
   5326.64556346882     
   5644.07628463624     
   5939.77007559653     
   6212.01992576829     
   6459.35115284137     
   6680.44052755674     
   6874.07802161026     
   7039.17959710606     
   7174.90652124551     
   7280.88760224638     
   7356.71660289089     
   7402.18564620779     
   7417.27951679521     
   996.862203034995     
   1117.61964472343     
   1485.09985306671     
   1868.13733443295     
   2265.82305218674     
   2670.17220831972     
   3075.59768941413     
   3477.47808061336     
   3872.02997539280     
   4256.05999920703     
   4626.79360464630     
   4981.76120594223     
   5318.72539103034     
   5635.64359784073     
   5930.66017701386     
   6202.10907610302     
   6448.52836441730     
   6668.70948695466     
   6861.60123179637     
   7026.06307626322     
   7161.27357109357     
   7266.80959465571     
   7342.29336344976     
   7387.54447573747     
   7402.56276624645     
  0.000000000000000E+000
   847.766221103990     
   1330.51873230439     
   1778.17230653072     
   2209.46009196041     
   2632.95898563394     
   3049.58343086570     
   3458.08635427131     
   3856.46799305282     
   4242.53729675143     
   4614.11605900437     
   4969.11518928654     
   5305.56020424272     
   5621.59922177479     
   5915.51425624405     
   6185.75217286943     
   6430.90656222152     
   6649.78260888728     
   6841.31584126555     
   7004.50314056608     
   7138.70681154185     
   7243.42250675749     
   7318.30113188653     
   7363.17973953998     
   7378.07155655063     
  0.000000000000000E+000
   635.382829797426     
   1201.62470968974     
   1691.12380749626     
   2150.11272899355     
   2591.04286786123     
   3018.63598465831     
   3433.90594485442     
   3836.26532488263     
   4224.40962791620     
   4596.73496910612     
   4951.54113277101     
   5287.13457485378     
   5601.88247501076     
   5894.24661479261     
   6162.79453785445     
   6406.25490194875     
   6623.40851170274     
   6813.10894406957     
   6974.51601559368     
   7107.21845634669     
   7210.75332223389     
   7284.77429528903     
   7329.13247788570     
   7343.84974866629     
  0.000000000000000E+000
   572.444526395126     
   1115.85405879733     
   1621.92060169427     
   2096.63150904642     
   2549.81039249342     
   2985.96906173822     
   3406.82233625142     
   3812.48789910839     
   4202.23202480066     
   4574.88494236834     
   4929.07594949587     
   5263.36795392291     
   5576.33607689489     
   5866.61180577638     
   6132.91209371754     
   6374.02928442499     
   6588.84291739708     
   6776.36834562296     
   6935.78994851990     
   7066.70227794741     
   7168.78158897712     
   7241.74107353246     
   7285.45409193882     
   7299.95513459155     
  0.000000000000000E+000
   542.322781231317     
   1068.71864276072     
   1572.33707338817     
   2052.66374588723     
   2512.26505292582     
   2953.70530561518     
   3378.20922241084     
   3785.95784814944     
   4176.44212794978     
   4548.74342312072     
   4901.72487417978     
   5234.15605011443     
   5544.79161591979     
   5832.42010832826     
   6095.88817746124     
   6334.11305186261     
   6546.10686034691     
   6731.00796983412     
   6888.14357331578     
   7017.07216337822     
   7117.51091866783     
   7189.25657932822     
   7232.22608369143     
   7246.47664029657     
  0.000000000000000E+000
   525.274044379580     
   1039.48220549738     
   1537.64977329970     
   2017.58191330897     
   2479.09464417046     
   2922.70495364115     
   3348.75673773469     
   3757.12717544408     
   4147.27984240280     
   4518.38830499266     
   4869.45379243240     
   5199.39639658533     
   5507.11965189407     
   5791.55275136672     
   6051.67673975461     
   6286.54429612293     
   6495.30160601523     
   6677.21890524183     
   6831.72390368748     
   6958.41580614960     
   7057.03659576516     
   7127.43863151139     
   7169.58393895771     
   7183.55582366029     
  0.000000000000000E+000
   514.199671328136     
   1019.41250205036     
   1511.82023819099     
   1988.94701564804     
   2449.49374157781     
   2892.83501044476     
   3318.53598927274     
   3726.07782367603     
   4114.77336292922     
   4483.78634675433     
   4832.18327714349     
   5158.98703884500     
   5463.22085925082     
   5743.94048483740     
   6000.25705317150     
   6231.35539423328     
   6436.51288886600     
   6615.12030357865     
   6766.70006959053     
   6890.91164987082     
   6987.53988236025     
   7056.47965609253     
   7097.73077118060     
   7111.40065348580     
  0.000000000000000E+000
   506.063703081692     
   1004.08817560701     
   1490.94041005217     
   1964.18242839137     
   2422.07649628657     
   2863.39733903551     
   3287.19422343219     
   3692.60842320367     
   4078.77813860735     
   4444.81166995670     
   4789.79747511674     
   5112.82754062248     
   5413.02169034986     
   5689.54793737096     
   5941.63842743756     
   6168.60282605942     
   6369.84112480513     
   6544.85601969406     
   6693.26205266659     
   6814.78754481037     
   6909.26885131111     
   6976.64230502996     
   7016.93979141969     
   7030.28894809261     
  0.000000000000000E+000
   499.337624480132     
   991.087706745515     
   1472.51508756182     
   1941.27131225224     
   2395.44405979424     
   2833.49876021261     
   3254.16965314812     
   3656.35488580444     
   4039.04446329353     
   4401.28429133597     
   4742.16614974119     
   5060.83148393919     
   5356.48021570756     
   5628.37988204655     
   5875.87351156169     
   6098.38638392951     
   6295.43217901377     
   6466.61822284138     
   6611.64845355261     
   6730.32265956765     
   6822.53224202910     
   6888.25499207828     
   6927.55174968312     
   6940.56624256461     
  0.000000000000000E+000
   493.168364055604     
   978.982247404354     
   1454.93157600406     
   1918.73970817270     
   2368.42152739388     
   2802.27947391799     
   3218.86086075131     
   3616.90372686060     
   3995.29043713381     
   4353.01662842105     
   4689.17451092517     
   5002.94587100391     
   5293.60007830492     
   5560.49391170907     
   5803.07166310213     
   6020.86508112200     
   6213.49308020825     
   6380.66092753519     
   6522.15830395326     
   6637.85579465405     
   6727.70018976011     
   6791.70991323575     
   6829.97215042767     
   6842.64273530118     
  0.000000000000000E+000
   487.046693720193     
   966.887718790393     
   1437.13204477476     
   1895.54471139949     
   2340.10418121998     
   2769.02201681003     
   3180.73426047515     
   3573.87800394051     
   3947.26478578147     
   4299.85762499559     
   4630.75381150500     
   4939.17268230296     
   5224.44661240816     
   5486.01365005113     
   5723.41085910490     
   5936.26798324665     
   6124.30129954342     
   6287.30752426090     
   6425.15759133497     
   6537.79028233552     
   6625.20609254939     
   6687.46214334807     
   6724.66909839141     
   6736.99086680859     
  0.000000000000000E+000
   480.659261411411     
   954.247206052130     
   1418.42526363018     
   1870.97285411987     
   2309.84227599056     
   2733.18900561601     
   3139.38085068378     
   3526.99256256446     
   3894.79272381276     
   4241.72798423818     
   4566.90742726545     
   4869.58802548515     
   5149.16115247662     
   5405.13982748286     
   5637.14645849718     
   5844.90102705065     
   6028.20976475551     
   6186.95439175511     
   6321.08200234816     
   6430.59578399283     
   6515.54695091802     
   6576.02846583642     
   6612.17119409391     
   6624.14305149724     
  0.000000000000000E+000
   473.815645004889     
   940.717193805848     
   1398.37605196345     
   1844.56478963737     
   2277.20988174416     
   2694.42696694494     
   3094.53946030110     
   3476.08365147065     
   3837.80423967767     
   4178.64388135291     
   4497.72936094423     
   4794.35599800752     
   5067.97118442923     
   5318.15756069806     
   5544.61619507478     
   5747.15009418496     
   5925.64835731208     
   6080.07126331207     
   6210.43657067566     
   6316.80734670668     
   6399.28171719305     
   6457.98499895602     
   6493.06469091003     
   6504.68873165316     
  0.000000000000000E+000
   466.408933786076     
   926.103216246795     
   1376.73705557756     
   1816.06085116207     
   2241.97245898935     
   2652.55488007043     
   3046.10001656643     
   3421.11984024052     
   3776.34726220243     
   4110.72921279729     
   4423.41417867365     
   4713.73598792156     
   4981.19519445508     
   5225.43908433851     
   5446.24111295591     
   5643.48044428073     
   5817.12216406654     
   5967.19866094268     
   6093.79261588114     
   6197.02201713057     
   6277.02761720467     
   6333.96324735244     
   6367.98937552118     
   6379.27021960425     
  0.000000000000000E+000
   458.392295435296     
   910.320166394388     
   1353.40358061070     
   1785.36040006617     
   2204.05674891804     
   2607.54596692078     
   2994.09522178406     
   3362.20017984403     
   3710.58906182786     
   4038.21788634866     
   4344.25880942569     
   4628.08334417066     
   4889.24202214055     
   5127.44182301617     
   5342.52249055043     
   5534.43267701052     
   5703.20671100715     
   5848.94266143314     
   5971.78227386951     
   6071.89328492413     
   6149.45456752536     
   6204.64451174759     
   6237.63298461574     
   6248.57712644788     
  0.000000000000000E+000
   449.763592221410     
   893.365447207299     
   1328.38120803471     
   1752.48979521937     
   2163.52328315936     
   2559.50656417987     
   2938.68557872859     
   3299.54399305869     
   3640.80908849500     
   3961.44821170648     
   4260.65743334127     
   4537.84413641165     
   4792.60518502950     
   5024.70217657458     
   5234.03510264219     
   5420.61556291167     
   5584.54050550212     
   5725.96731525487     
   5845.09094192487     
   5942.12365360030     
   6017.27791164981     
   6070.75278230330     
   6102.72421510994     
   6113.33942071019     
  0.000000000000000E+000
   440.554288281156     
   875.299154300625     
   1301.76076278067     
   1717.57580541637     
   2120.54114888812     
   2508.65393609226     
   2880.14075124120     
   3233.47543335177     
   3567.38596674166     
   3880.85150984390     
   4173.09102383951     
   4443.54515431349     
   4691.85304976975     
   4917.82572235406     
   5121.41741360112     
   5302.69625552791     
   5461.81533859550     
   5598.98512826726     
   5714.44801968368     
   5808.45568793051     
   5881.24977664755     
   5933.04636334353     
   5964.02453702882     
   5974.31931503748     
  0.000000000000000E+000
   430.820824049622     
   856.228397277951     
   1273.69782016942     
   1680.82269852592     
   2075.36472842845     
   2455.29409656650     
   2818.81919985963     
   3164.40508976750     
   3490.78086453166     
   3796.93688685069     
   4082.11316074080     
   4345.78046353461     
   4587.61592609975     
   4807.47472670067     
   5005.35945261943     
   5181.38852456887     
   5335.76490014171     
   5468.74609388681     
   5580.61638518860     
   5671.66193607910     
   5742.14940869044     
   5792.30855125134     
   5822.31910526006     
   5832.30226807645     
  0.000000000000000E+000
   420.637566332631     
   836.294323973738     
   1244.39532777368     
   1642.49211602447     
   2028.31233789209     
   2399.80038437793     
   2755.14745204235     
   3092.81033072555     
   3411.51900876040     
   3710.27385444986     
   3988.33362092486     
   4245.19582673893     
   4480.57120519639     
   4694.35392399754     
   4886.58919065150     
   5057.43971376808     
   5207.15231560966     
   5336.02580951158     
   5444.38108146937     
   5532.53415549400     
   5600.77287817638     
   5649.33772564450     
   5678.40710968645     
   5688.08743314219     
  0.000000000000000E+000
   410.090899815713     
   815.661144775842     
   1214.08865267627     
   1602.88533434797     
   1979.74683523862     
   2342.59336733052     
   2689.60000499193     
   3019.21565951019     
   3330.17074105954     
   3621.47418877210     
   3892.40105726347     
   4142.47218016011     
   4371.42760051368     
   4579.19549213521     
   4765.85822920594     
   4931.61712854943     
   5076.75721996395     
   5201.61321861308     
   5306.53769563276     
   5391.87227737691     
   5457.92255220239     
   5504.93722369550     
   5533.09191536725     
   5542.47789830184     
  0.000000000000000E+000
   399.274247623366     
   794.506815057455     
   1183.03272997400     
   1562.32776089587     
   1930.05832662394     
   2284.12252264208     
   2622.68059557038     
   2944.17402717465     
   3247.33317960275     
   3531.17413004751     
   3794.98584297995     
   4038.30917765024     
   4260.90941708904     
   4462.74405703390     
   4643.92754132559     
   4804.69450787938     
   4945.36294653612     
   5066.29849105667     
   5167.88088902933     
   5250.47352491533     
   5314.39671574598     
   5359.90535402997     
   5387.17133324638     
   5396.27105228764     
  0.000000000000000E+000
   388.283910821811     
   773.015200492765     
   1151.49115350805     
   1521.15561049358     
   1879.64908975788     
   2224.85001603501     
   2554.90535509487     
   2868.24977784955     
   3163.61326623350     
   3440.01775309317     
   3696.76391635478     
   3933.40960876571     
   4149.74160609760     
   4345.74242173849     
   4521.55389494667     
   4677.43914636213     
   4813.74433758176     
   4930.86149595462     
   5029.19348840909     
   5109.12205895860     
   5170.97968688709     
   5215.02587478506     
   5241.42833286614     
   5250.24938286676     
  0.000000000000000E+000
   377.215658452604     
   751.369616381748     
   1119.72710789015     
   1479.70472328345     
   1828.92078147933     
   2165.23677743635     
   2486.78817923685     
   2792.00367139470     
   3079.61272910157     
   3348.64209060621     
   3598.40222840939     
   3828.46528871938     
   4038.63617923521     
   4228.91855962001     
   4399.47745693539     
   4550.60012185727     
   4682.65659026359     
   4796.06124295998     
   4891.23648117438     
   4968.57946709023     
   5028.43272067347     
   5071.05921488390     
   5096.62246647572     
   5105.17197360027     
  0.000000000000000E+000
   366.162011821855     
   729.747648865125     
   1087.99604571952     
   1438.30145946816     
   1778.26392727998     
   2105.73095312387     
   2418.82848121657     
   2715.98023373148     
   2995.91527817761     
   3257.66437407230     
   3500.54618569277     
   3724.14482172751     
   3928.28037960000     
   4112.97425328707     
   4278.41093795041     
   4424.89796419760     
   4552.82544855798     
   4662.62657882947     
   4754.74018057858     
   4829.57634439094     
   4887.48593613530     
   4928.73466312393     
   4953.48222314332     
   4961.76691558607     
  0.000000000000000E+000
   355.210165922271     
   708.317160866068     
   1056.53999614981     
   1397.25556593500     
   1728.04961969546     
   2046.75870982315     
   2351.50136081856     
   2640.69752467007     
   2913.07617451179     
   3167.67157389352     
   3403.80929856318     
   3621.08346529067     
   3819.32684368926     
   3998.57561302570     
   4159.03050561810     
   4301.01598281460     
   4424.93894772632     
   4531.24833470249     
   4620.39674613168     
   4692.80514262356     
   4748.83143663610     
   4788.74369080046     
   4812.69847613475     
   4820.72479678707     
  0.000000000000000E+000
   344.440485781023     
   687.233373715147     
   1025.58336767457     
   1356.85486947750     
   1678.62329056799     
   1988.71728066713     
   2285.25011346392     
   2566.63928576302     
   2831.61417330959     
   3079.21227217938     
   3308.76509566235     
   3519.87517660842     
   3712.38584980426     
   3886.34557869398     
   4041.96857435739     
   4179.59336308033     
   4299.64082086692     
   4402.57303251882     
   4488.85416645357     
   4558.91439426013     
   4613.11772972212     
   4651.73451431603     
   4674.91913062252     
   4682.69337649917     
  0.000000000000000E+000
   333.925510593607     
   666.636904322966     
   995.330087924126     
   1317.36161884098     
   1630.30037436651     
   1931.97007826696     
   2220.48092237044     
   2494.24933500659     
   2752.00573400378     
   2992.79078754470     
   3215.94124800471     
   3421.06680550172     
   3608.01963472495     
   3776.85840112391     
   3927.80847926889     
   4061.22004791578     
   4177.52559161108     
   4277.19818105200     
   4360.71174074642     
   4428.50435270630     
   4480.94549252754     
   4518.30794788779     
   4540.74502487039     
   4548.27349948254     
  0.000000000000000E+000
   323.729395655964     
   646.652630856202     
   965.961910245585     
   1279.01027630543     
   1583.36364765980     
   1876.84365621295     
   2157.55952091464     
   2423.92800829344     
   2674.68131448445     
   2908.86338861534     
   3125.81575951123     
   3325.15431023410     
   3506.73867336729     
   3670.63601453482     
   3817.08096082459     
   3946.43334519529     
   4059.13530602477     
   4155.66912604892     
   4236.51703379208     
   4302.12403301636     
   4352.86467523570     
   4389.01454557160     
   4410.72708883846     
   4418.01625568108     
  0.000000000000000E+000
   313.907721916209     
   627.389258149927     
   937.637711836697     
   1242.00654934735     
   1538.06201280213     
   1823.62627524639     
   2096.80957872497     
   2356.03040571850     
   2600.02351758295     
   2827.83637803681     
   3038.81502174213     
   3232.58081108622     
   3408.99975371849     
   3568.14614950359     
   3710.26232663763     
   3835.71614325279     
   3944.95780121624     
   4038.47736623107     
   4116.76422940757     
   4180.26958992660     
   4229.37288973881     
   4264.35298805348     
   4285.36472137116     
   4292.42134900128     
  0.000000000000000E+000
   304.507605287562     
   608.939457268177     
   910.493610614018     
   1206.52745289570     
   1494.61048991796     
   1772.56782125609     
   2038.51255014198     
   2290.86617997077     
   2528.36683137217     
   2750.06579727525     
   2955.31349504567     
   3143.73625801949     
   3315.20563888433     
   3469.80199457732     
   3607.77411492075     
   3729.49657551741     
   3835.42636767940     
   3926.06020748278     
   4001.89376897358     
   4063.38393276916     
   4110.91499425749     
   4144.76963392230     
   4165.10531175937     
   4171.93660334323     
  0.000000000000000E+000
   295.568042214282     
   591.380460806752     
   884.643736447194     
   1172.72220087539     
   1453.19118776213     
   1723.88082588423     
   1982.90872361243     
   2228.70059980263     
   2459.99869631943     
   2675.85848988147     
   2875.63476204557     
   3058.95846934970     
   3225.70608616177     
   3375.96319078827     
   3509.98405905464     
   3628.14894921018     
   3730.92063574641     
   3818.80160057913     
   3892.29313450980     
   3951.85744958328     
   3997.88375733975     
   4030.65912767590     
   4050.34480387051     
   4056.95850638623     
  0.000000000000000E+000
   287.120433768008     
   574.775005603857     
   860.181505258740     
   1140.71373994829     
   1413.95503825913     
   1677.74235360323     
   1930.19922158753     
   2169.75662984350     
   2395.16163749036     
   2605.47426279575     
   2800.05369809842     
   2978.53529406184     
   3140.79998604848     
   3286.93793394643     
   3417.20814124970     
   3531.99573984765     
   3631.76850185525     
   3717.03399187459     
   3788.29861875001     
   3846.02969477399     
   3890.62146587294     
   3922.36593724429     
   3941.42918107049     
   3947.83367143418     
  0.000000000000000E+000
   279.189237191567     
   559.172526386146     
   837.181260181843     
   1110.60075654253     
   1377.02409893656     
   1634.29653864509     
   1880.54871917427     
   2114.21778511191     
   2334.05621495270     
   2539.12889773397     
   2728.79951314468     
   2902.70765747183     
   3060.73838851128     
   3202.98596144955     
   3329.71352276205     
   3441.31045056512     
   3538.24890557271     
   3621.04100975543     
   3690.19791637503     
   3746.19188487776     
   3789.42233065638     
   3820.18668167402     
   3838.65673728261     
   3844.86108443721     
  0.000000000000000E+000
   271.792700794576     
   544.610516564607     
   815.700161090140     
   1082.46000859102     
   1342.49424984917     
   1593.65757853857     
   1834.08867322624     
   2062.23154130060     
   2276.84456690913     
   2476.99778426543     
   2662.05943680755     
   2831.67326502453     
   2985.72819646378     
   3124.32221049396     
   3247.72214581122     
   3356.32114057259     
   3450.59527133393     
   3531.06081053047     
   3598.23336944576     
   3652.59004408446     
   3694.53553861692     
   3724.37310389875     
   3742.28099294551     
   3748.29499637253     
  0.000000000000000E+000
   264.943645036099     
   531.115985126325     
   795.780221225594     
   1056.34885440036     
   1310.43813513468     
   1555.91301612900     
   1790.92087937894     
   2013.91310766221     
   2223.65434513165     
   2419.21997000412     
   2599.98284076585     
   2765.59075924897     
   2915.93632448564     
   3051.12095037234     
   3171.41481580671     
   3277.21443816763     
   3368.99943766470     
   3447.28991402528     
   3512.60570458963     
   3565.42864378648     
   3606.16880173023     
   3635.13554318468     
   3652.51411339813     
   3658.34831957708     
  0.000000000000000E+000
   258.650259205245     
   518.706950758334     
   777.450406490822     
   1032.30787161018     
   1280.90822266132     
   1521.12716718693     
   1751.12120088028     
   1969.34939606882     
   2174.58286879150     
   2365.90244910322     
   2542.68561700737     
   2704.58414793720     
   2851.49414206280     
   2983.52021080258     
   3100.93558963944     
   3204.13986870820     
   3293.61590945912     
   3369.88736983208     
   3433.47810817409     
   3484.87458727029     
   3524.49225796012     
   3552.64676581338     
   3569.53069033174     
   3575.19638940012     
  0.000000000000000E+000
   252.916889128612     
   507.393925583606     
   760.728728632852     
   1010.36347847261     
   1253.93987731572     
   1489.34457486432     
   1714.74333857726     
   1928.60304604006     
   2129.70134913434     
   2317.12453622887     
   2490.25465575592     
   2648.74734564568     
   2792.50204322136     
   2921.62634916976     
   3036.39631492078     
   3137.21434517166     
   3224.56628417132     
   3298.97910854215     
   3360.98049724896     
   3411.06140053749     
   3449.64258794225     
   3477.04601981689     
   3493.47175342093     
   3498.98095871565     
  0.000000000000000E+000
   247.744796673563     
   497.181350936497     
   745.624277640102     
   990.530487154748     
   1229.55436366925     
   1460.59339452059     
   1681.82253514927     
   1891.71639016438     
   2089.05906246639     
   2272.94219813308     
   2442.75229133709     
   2598.14869427711     
   2739.03400699243     
   2865.51862080954     
   2977.88118481507     
   3076.52668709642     
   3161.94371930479     
   3234.66234717060     
   3295.21385734399     
   3344.09350209381     
   3381.72722172651     
   3408.44318916361     
   3424.44888816006     
   3429.81430149490     
  0.000000000000000E+000
   243.132876423776     
   488.068956331335     
   732.139150997541     
   972.814534148276     
   1207.76171165863     
   1434.88863232476     
   1652.37912803722     
   1858.71526669220     
   2052.68737182227     
   2233.39223799855     
   2400.22060709219     
   2552.83535082611     
   2691.14203469041     
   2815.25363701369     
   2925.45119250765     
   3022.14205182945     
   3105.81732537696     
   3177.00993343613     
   3236.25453236305     
   3284.05043749995     
   3320.82852180578     
   3346.92293388263     
   3362.54834647494     
   3367.78331197855     
  0.000000000000000E+000
   239.078318772906     
   480.053020154793     
   720.270247930676     
   957.214346043711     
   1188.56339434807     
   1412.23517830090     
   1626.42188419376     
   1829.61260577264     
   2020.60351802467     
   2198.49624837390     
   2362.68551109329     
   2512.83745074342     
   2648.86036985366     
   2770.86961460769     
   2879.14838767124     
   2974.10617936708     
   3056.23638488095     
   3126.07452886184     
   3184.15836610691     
   3230.99097783249     
   3267.00784120057     
   3292.54871451531     
   3307.83504816098     
   3312.95349731564     
  0.000000000000000E+000
   235.577211843561     
   473.127516681771     
   710.010905453614     
   943.723809910466     
   1171.95477979318     
   1392.63058907367     
   1603.95106567597     
   1804.41173269201     
   1992.81411842142     
   2168.26426650205     
   2330.16051255166     
   2478.17197343956     
   2612.20942449209     
   2732.39033830902     
   2838.99985408252     
   2932.44936819784     
   3013.23431315780     
   3081.89254530251     
   3138.96460885774     
   3184.95699441904     
   3220.30936799177     
   3245.36661144217     
   3260.35638305810     
   3265.37277328744     
  0.000000000000000E+000
   232.625077145782     
   467.285138864609     
   701.352360028750     
   932.333826431692     
   1157.92732960761     
   1376.06758757476     
   1584.96118827954     
   1783.10934557777     
   1969.31832638432     
   2142.69808111567     
   2302.65014435093     
   2448.84625207205     
   2581.19935083134     
   2699.82877240455     
   2805.02134254346     
   2897.19011414729     
   2976.83229121722     
   3044.48776313506     
   3100.69951560187     
   3145.97703490111     
   3180.76367999211     
   3205.40886162961     
   3220.14573567699     
   3225.07498447320     
  0.000000000000000E+000
   230.217335809281     
   462.518190095024     
   694.285024099296     
   923.033930949971     
   1146.47052522694     
   1362.53625657273     
   1569.44344604222     
   1765.69813650668     
   1950.11061679991     
   2121.79415242258     
   2280.15299013209     
   2424.86108296049     
   2555.83321102114     
   2673.19027153106     
   2777.22050638536     
   2868.33835715708     
   2947.04251323793     
   3013.87457177778     
   3069.37957462750     
   3114.06953758851     
   3148.39094494409     
   3172.69704687657     
   3187.22566543050     
   3192.08308162385     
  0.000000000000000E+000
   228.349703631572     
   458.819340921927     
   688.799570851429     
   915.813672899794     
   1137.57350930297     
   1352.02591033158     
   1557.38778276730     
   1752.16903403497     
   1935.18317249262     
   2105.54611722585     
   2262.66428497779     
   2406.21340088683     
   2536.10970838665     
   2652.47535157056     
   2755.59969810837     
   2845.89829219740     
   2923.87100269864     
   2990.06078435238     
   3045.01431630250     
   3089.24563206023     
   3123.20371256059     
   3147.24487853033     
   3161.61068649520     
   3166.41189988096     
  0.000000000000000E+000
   227.018514156740     
   456.182248666801     
   684.887823492719     
   910.663747966909     
   1131.22643440741     
   1344.52663426362     
   1548.78459802121     
   1742.51305213555     
   1924.52785407295     
   2093.94685918080     
   2250.17806722897     
   2392.89849538091     
   2522.02545293526     
   2637.68199103786     
   2740.15829525734     
   2829.87071020150     
   2907.31996089002     
   2973.04998819041     
   3027.60866179843     
   3071.51148399475     
   3105.20925481597     
   3129.06053378995     
   3143.30960152560     
   3148.07049170042     
  0.000000000000000E+000
   226.220969612501     
   454.602039152435     
   682.543447292156     
   907.576879961479     
   1127.42151454593     
   1340.03048641675     
   1543.62607965124     
   1736.72273569763     
   1918.13774140854     
   2086.99013038624     
   2242.68886560707     
   2384.91175013182     
   2513.57674123113     
   2628.80744105904     
   2730.89453164359     
   2820.25484317923     
   2897.38962006181     
   2962.84340160417     
   3017.16478044397     
   3060.87015131116     
   3094.41142015598     
   3118.14850811408     
   3132.32735294180     
   3137.06397788129     
  0.000000000000000E+000
   225.955319859209     
   454.075650486818     
   681.762443805510     
   906.548451057143     
   1126.15377715560     
   1338.53235732154     
   1541.90715806705     
   1734.79319644572     
   1916.00823910655     
   2084.67171516903     
   2240.19291092752     
   2382.24989320776     
   2510.76083669968     
   2625.84952837669     
   2727.80681672768     
   2817.04969472042     
   2894.07958084380     
   2959.44121504060     
   3013.68343238290     
   3057.32292696501     
   3090.81197579774     
   3114.51095695077     
   3128.66636435135     
   3133.39488899848     
VECTORS u double 
    0.00000E+00        -0.70011E+00         0.00000E+00
    0.00000E+00        -0.65732E+00         0.00000E+00
    0.00000E+00        -0.59682E+00         0.00000E+00
    0.00000E+00        -0.52846E+00         0.00000E+00
    0.00000E+00        -0.46063E+00         0.00000E+00
    0.00000E+00        -0.39806E+00         0.00000E+00
    0.00000E+00        -0.34252E+00         0.00000E+00
    0.00000E+00        -0.29412E+00         0.00000E+00
    0.00000E+00        -0.25205E+00         0.00000E+00
    0.00000E+00        -0.21527E+00         0.00000E+00
    0.00000E+00        -0.18293E+00         0.00000E+00
    0.00000E+00        -0.15434E+00         0.00000E+00
    0.00000E+00        -0.12910E+00         0.00000E+00
    0.00000E+00        -0.10697E+00         0.00000E+00
    0.00000E+00        -0.87707E-01         0.00000E+00
    0.00000E+00        -0.71086E-01         0.00000E+00
    0.00000E+00        -0.56855E-01         0.00000E+00
    0.00000E+00        -0.44823E-01         0.00000E+00
    0.00000E+00        -0.34762E-01         0.00000E+00
    0.00000E+00        -0.26340E-01         0.00000E+00
    0.00000E+00        -0.19218E-01         0.00000E+00
    0.00000E+00        -0.13084E-01         0.00000E+00
    0.00000E+00        -0.78546E-02         0.00000E+00
    0.00000E+00        -0.34924E-02         0.00000E+00
    0.00000E+00         0.00000E+00         0.00000E+00
   -0.11136E-01        -0.67812E+00         0.00000E+00
    0.32573E-01        -0.63388E+00         0.00000E+00
    0.58947E-01        -0.57173E+00         0.00000E+00
    0.68395E-01        -0.50554E+00         0.00000E+00
    0.67061E-01        -0.44186E+00         0.00000E+00
    0.60725E-01        -0.38345E+00         0.00000E+00
    0.52827E-01        -0.33133E+00         0.00000E+00
    0.45310E-01        -0.28541E+00         0.00000E+00
    0.39079E-01        -0.24512E+00         0.00000E+00
    0.34036E-01        -0.20971E+00         0.00000E+00
    0.29879E-01        -0.17843E+00         0.00000E+00
    0.26291E-01        -0.15078E+00         0.00000E+00
    0.22930E-01        -0.12637E+00         0.00000E+00
    0.19769E-01        -0.10490E+00         0.00000E+00
    0.16812E-01        -0.86176E-01         0.00000E+00
    0.14073E-01        -0.69984E-01         0.00000E+00
    0.11649E-01        -0.56118E-01         0.00000E+00
    0.93138E-02        -0.44369E-01         0.00000E+00
    0.74238E-02        -0.34468E-01         0.00000E+00
    0.58911E-02        -0.26144E-01         0.00000E+00
    0.46394E-02        -0.19081E-01         0.00000E+00
    0.34845E-02        -0.12994E-01         0.00000E+00
    0.23588E-02        -0.78021E-02         0.00000E+00
    0.12118E-02        -0.34701E-02         0.00000E+00
    0.00000E+00         0.00000E+00         0.00000E+00
   -0.17892E-01        -0.60393E+00         0.00000E+00
    0.78996E-01        -0.55177E+00         0.00000E+00
    0.11982E+00        -0.49216E+00         0.00000E+00
    0.13088E+00        -0.43765E+00         0.00000E+00
    0.12652E+00        -0.38751E+00         0.00000E+00
    0.11477E+00        -0.34129E+00         0.00000E+00
    0.10078E+00        -0.29881E+00         0.00000E+00
    0.87267E-01        -0.26006E+00         0.00000E+00
    0.75488E-01        -0.22503E+00         0.00000E+00
    0.65854E-01        -0.19361E+00         0.00000E+00
    0.57731E-01        -0.16559E+00         0.00000E+00
    0.50622E-01        -0.14067E+00         0.00000E+00
    0.44189E-01        -0.11857E+00         0.00000E+00
    0.38146E-01        -0.99050E-01         0.00000E+00
    0.32485E-01        -0.81904E-01         0.00000E+00
    0.27273E-01        -0.66946E-01         0.00000E+00
    0.22439E-01        -0.54057E-01         0.00000E+00
    0.18149E-01        -0.43030E-01         0.00000E+00
    0.14564E-01        -0.33586E-01         0.00000E+00
    0.11629E-01        -0.25542E-01         0.00000E+00
    0.91747E-02        -0.18660E-01         0.00000E+00
    0.68970E-02        -0.12717E-01         0.00000E+00
    0.46711E-02        -0.76417E-02         0.00000E+00
    0.24007E-02        -0.34021E-02         0.00000E+00
    0.00000E+00         0.00000E+00         0.00000E+00
    0.59350E-02        -0.41409E+00         0.00000E+00
    0.13434E+00        -0.37455E+00         0.00000E+00
    0.17008E+00        -0.35220E+00         0.00000E+00
    0.17842E+00        -0.32897E+00         0.00000E+00
    0.17148E+00        -0.30355E+00         0.00000E+00
    0.15701E+00        -0.27621E+00         0.00000E+00
    0.13978E+00        -0.24808E+00         0.00000E+00
    0.12258E+00        -0.22028E+00         0.00000E+00
    0.10683E+00        -0.19368E+00         0.00000E+00
    0.93189E-01        -0.16888E+00         0.00000E+00
    0.81627E-01        -0.14617E+00         0.00000E+00
    0.71497E-01        -0.12561E+00         0.00000E+00
    0.62326E-01        -0.10710E+00         0.00000E+00
    0.53874E-01        -0.90483E-01         0.00000E+00
    0.46008E-01        -0.75643E-01         0.00000E+00
    0.38753E-01        -0.62502E-01         0.00000E+00
    0.31993E-01        -0.50975E-01         0.00000E+00
    0.26143E-01        -0.40884E-01         0.00000E+00
    0.21200E-01        -0.32101E-01         0.00000E+00
    0.17067E-01        -0.24513E-01         0.00000E+00
    0.13502E-01        -0.17938E-01         0.00000E+00
    0.10164E-01        -0.12242E-01         0.00000E+00
    0.68880E-02        -0.73673E-02         0.00000E+00
    0.35419E-02        -0.32862E-02         0.00000E+00
    0.00000E+00         0.00000E+00         0.00000E+00
    0.83186E-01        -0.14226E+00         0.00000E+00
    0.16050E+00        -0.14923E+00         0.00000E+00
    0.19603E+00        -0.17296E+00         0.00000E+00
    0.20440E+00        -0.18888E+00         0.00000E+00
    0.19884E+00        -0.19448E+00         0.00000E+00
    0.18471E+00        -0.19177E+00         0.00000E+00
    0.16682E+00        -0.18294E+00         0.00000E+00
    0.14809E+00        -0.17013E+00         0.00000E+00
    0.13018E+00        -0.15513E+00         0.00000E+00
    0.11396E+00        -0.13925E+00         0.00000E+00
    0.99814E-01        -0.12340E+00         0.00000E+00
    0.87528E-01        -0.10813E+00         0.00000E+00
    0.76537E-01        -0.93744E-01         0.00000E+00
    0.66431E-01        -0.80389E-01         0.00000E+00
    0.57016E-01        -0.68130E-01         0.00000E+00
    0.48232E-01        -0.57018E-01         0.00000E+00
    0.40192E-01        -0.46996E-01         0.00000E+00
    0.33188E-01        -0.37991E-01         0.00000E+00
    0.27145E-01        -0.30027E-01         0.00000E+00
    0.22074E-01        -0.23033E-01         0.00000E+00
    0.17522E-01        -0.16898E-01         0.00000E+00
    0.13210E-01        -0.11559E-01         0.00000E+00
    0.89581E-02        -0.69751E-02         0.00000E+00
    0.46088E-02        -0.31214E-02         0.00000E+00
    0.00000E+00         0.00000E+00         0.00000E+00
    0.95100E-01        -0.79081E-01         0.00000E+00
    0.14602E+00        -0.76566E-01         0.00000E+00
    0.18130E+00        -0.85300E-01         0.00000E+00
    0.19760E+00        -0.10206E+00         0.00000E+00
    0.19906E+00        -0.11652E+00         0.00000E+00
    0.19057E+00        -0.12539E+00         0.00000E+00
    0.17650E+00        -0.12817E+00         0.00000E+00
    0.15993E+00        -0.12582E+00         0.00000E+00
    0.14291E+00        -0.11971E+00         0.00000E+00
    0.12662E+00        -0.11115E+00         0.00000E+00
    0.11177E+00        -0.10119E+00         0.00000E+00
    0.98539E-01        -0.90660E-01         0.00000E+00
    0.86652E-01        -0.80075E-01         0.00000E+00
    0.75710E-01        -0.69794E-01         0.00000E+00
    0.65424E-01        -0.60024E-01         0.00000E+00
    0.55794E-01        -0.50859E-01         0.00000E+00
    0.47050E-01        -0.42314E-01         0.00000E+00
    0.39200E-01        -0.34470E-01         0.00000E+00
    0.32374E-01        -0.27383E-01         0.00000E+00
    0.26534E-01        -0.21095E-01         0.00000E+00
    0.21137E-01        -0.15543E-01         0.00000E+00
    0.15958E-01        -0.10677E-01         0.00000E+00
    0.10830E-01        -0.64713E-02         0.00000E+00
    0.55743E-02        -0.29106E-02         0.00000E+00
    0.00000E+00         0.00000E+00         0.00000E+00
    0.10701E+00        -0.38738E-01         0.00000E+00
    0.13866E+00        -0.38267E-01         0.00000E+00
    0.16571E+00        -0.41783E-01         0.00000E+00
    0.18227E+00        -0.51284E-01         0.00000E+00
    0.18824E+00        -0.63930E-01         0.00000E+00
    0.18509E+00        -0.75227E-01         0.00000E+00
    0.17579E+00        -0.83009E-01         0.00000E+00
    0.16282E+00        -0.86721E-01         0.00000E+00
    0.14823E+00        -0.86737E-01         0.00000E+00
    0.13332E+00        -0.83836E-01         0.00000E+00
    0.11904E+00        -0.78835E-01         0.00000E+00
    0.10586E+00        -0.72508E-01         0.00000E+00
    0.93752E-01        -0.65478E-01         0.00000E+00
    0.82452E-01        -0.58172E-01         0.00000E+00
    0.71857E-01        -0.50832E-01         0.00000E+00
    0.61952E-01        -0.43604E-01         0.00000E+00
    0.52791E-01        -0.36657E-01         0.00000E+00
    0.44390E-01        -0.30143E-01         0.00000E+00
    0.36886E-01        -0.24169E-01         0.00000E+00
    0.30365E-01        -0.18774E-01         0.00000E+00
    0.24255E-01        -0.13933E-01         0.00000E+00
    0.18343E-01        -0.96363E-02         0.00000E+00
    0.12461E-01        -0.58786E-02         0.00000E+00
    0.64157E-02        -0.26628E-02         0.00000E+00
    0.00000E+00         0.00000E+00         0.00000E+00
    0.11326E+00        -0.14544E-01         0.00000E+00
    0.13458E+00        -0.14338E-01         0.00000E+00
    0.15413E+00        -0.17103E-01         0.00000E+00
    0.16792E+00        -0.22346E-01         0.00000E+00
    0.17466E+00        -0.31147E-01         0.00000E+00
    0.17453E+00        -0.41076E-01         0.00000E+00
    0.16900E+00        -0.49602E-01         0.00000E+00
    0.15955E+00        -0.55694E-01         0.00000E+00
    0.14784E+00        -0.58996E-01         0.00000E+00
    0.13502E+00        -0.59741E-01         0.00000E+00
    0.12208E+00        -0.58360E-01         0.00000E+00
    0.10966E+00        -0.55366E-01         0.00000E+00
    0.97958E-01        -0.51273E-01         0.00000E+00
    0.86910E-01        -0.46493E-01         0.00000E+00
    0.76444E-01        -0.41321E-01         0.00000E+00
    0.66513E-01        -0.35995E-01         0.00000E+00
    0.57161E-01        -0.30699E-01         0.00000E+00
    0.48451E-01        -0.25601E-01         0.00000E+00
    0.40559E-01        -0.20758E-01         0.00000E+00
    0.33503E-01        -0.16280E-01         0.00000E+00
    0.26822E-01        -0.12196E-01         0.00000E+00
    0.20326E-01        -0.85074E-02         0.00000E+00
    0.13823E-01        -0.52326E-02         0.00000E+00
    0.71183E-02        -0.23914E-02         0.00000E+00
    0.00000E+00         0.00000E+00         0.00000E+00
    0.11660E+00         0.14034E-02         0.00000E+00
    0.13122E+00         0.10211E-02         0.00000E+00
    0.14556E+00        -0.16514E-02         0.00000E+00
    0.15624E+00        -0.54404E-02         0.00000E+00
    0.16203E+00        -0.11311E-01         0.00000E+00
    0.16307E+00        -0.18786E-01         0.00000E+00
    0.15975E+00        -0.26430E-01         0.00000E+00
    0.15296E+00        -0.32852E-01         0.00000E+00
    0.14381E+00        -0.37438E-01         0.00000E+00
    0.13316E+00        -0.40088E-01         0.00000E+00
    0.12190E+00        -0.40918E-01         0.00000E+00
    0.11069E+00        -0.40205E-01         0.00000E+00
    0.99827E-01        -0.38296E-01         0.00000E+00
    0.89337E-01        -0.35559E-01         0.00000E+00
    0.79225E-01        -0.32278E-01         0.00000E+00
    0.69507E-01        -0.28662E-01         0.00000E+00
    0.60181E-01        -0.24904E-01         0.00000E+00
    0.51436E-01        -0.21091E-01         0.00000E+00
    0.43359E-01        -0.17370E-01         0.00000E+00
    0.35918E-01        -0.13815E-01         0.00000E+00
    0.28841E-01        -0.10459E-01         0.00000E+00
    0.21901E-01        -0.73641E-02         0.00000E+00
    0.14911E-01        -0.45721E-02         0.00000E+00
    0.76787E-02        -0.21115E-02         0.00000E+00
    0.00000E+00         0.00000E+00         0.00000E+00
    0.11788E+00         0.11958E-01         0.00000E+00
    0.12798E+00         0.11192E-01         0.00000E+00
    0.13853E+00         0.86819E-02         0.00000E+00
    0.14669E+00         0.49327E-02         0.00000E+00
    0.15134E+00         0.65838E-03         0.00000E+00
    0.15241E+00        -0.48112E-02         0.00000E+00
    0.15026E+00        -0.10855E-01         0.00000E+00
    0.14519E+00        -0.16675E-01         0.00000E+00
    0.13801E+00        -0.21458E-01         0.00000E+00
    0.12922E+00        -0.24901E-01         0.00000E+00
    0.11959E+00        -0.26950E-01         0.00000E+00
    0.10965E+00        -0.27697E-01         0.00000E+00
    0.99765E-01        -0.27347E-01         0.00000E+00
    0.90010E-01        -0.26156E-01         0.00000E+00
    0.80420E-01        -0.24368E-01         0.00000E+00
    0.71070E-01        -0.22165E-01         0.00000E+00
    0.61996E-01        -0.19668E-01         0.00000E+00
    0.53365E-01        -0.17030E-01         0.00000E+00
    0.45268E-01        -0.14302E-01         0.00000E+00
    0.37676E-01        -0.11510E-01         0.00000E+00
    0.30346E-01        -0.88045E-02         0.00000E+00
    0.23092E-01        -0.62611E-02         0.00000E+00
    0.15737E-01        -0.39276E-02         0.00000E+00
    0.81031E-02        -0.18353E-02         0.00000E+00
    0.00000E+00         0.00000E+00         0.00000E+00
    0.11756E+00         0.19148E-01         0.00000E+00
    0.12464E+00         0.18054E-01         0.00000E+00
    0.13230E+00         0.15592E-01         0.00000E+00
    0.13859E+00         0.12032E-01         0.00000E+00
    0.14226E+00         0.79812E-02         0.00000E+00
    0.14309E+00         0.37393E-02         0.00000E+00
    0.14135E+00        -0.10177E-02         0.00000E+00
    0.13735E+00        -0.58304E-02         0.00000E+00
    0.13154E+00        -0.10194E-01         0.00000E+00
    0.12420E+00        -0.13807E-01         0.00000E+00
    0.11597E+00        -0.16385E-01         0.00000E+00
    0.10722E+00        -0.17952E-01         0.00000E+00
    0.98319E-01        -0.18609E-01         0.00000E+00
    0.89338E-01        -0.18536E-01         0.00000E+00
    0.80336E-01        -0.17878E-01         0.00000E+00
    0.71481E-01        -0.16754E-01         0.00000E+00
    0.62742E-01        -0.15346E-01         0.00000E+00
    0.54406E-01        -0.13588E-01         0.00000E+00
    0.46481E-01        -0.11546E-01         0.00000E+00
    0.38860E-01        -0.94031E-02         0.00000E+00
    0.31396E-01        -0.72728E-02         0.00000E+00
    0.23936E-01        -0.52282E-02         0.00000E+00
    0.16326E-01        -0.33179E-02         0.00000E+00
    0.84041E-02        -0.15711E-02         0.00000E+00
    0.00000E+00         0.00000E+00         0.00000E+00
    0.11606E+00         0.24173E-01         0.00000E+00
    0.12110E+00         0.22827E-01         0.00000E+00
    0.12666E+00         0.20438E-01         0.00000E+00
    0.13138E+00         0.17095E-01         0.00000E+00
    0.13428E+00         0.13156E-01         0.00000E+00
    0.13492E+00         0.90983E-02         0.00000E+00
    0.13336E+00         0.50855E-02         0.00000E+00
    0.12998E+00         0.10950E-02         0.00000E+00
    0.12504E+00        -0.27381E-02         0.00000E+00
    0.11878E+00        -0.61486E-02         0.00000E+00
    0.11168E+00        -0.88632E-02         0.00000E+00
    0.10396E+00        -0.10844E-01         0.00000E+00
    0.95916E-01        -0.12102E-01         0.00000E+00
    0.87700E-01        -0.12748E-01         0.00000E+00
    0.79334E-01        -0.12911E-01         0.00000E+00
    0.70973E-01        -0.12603E-01         0.00000E+00
    0.62803E-01        -0.11767E-01         0.00000E+00
    0.54846E-01        -0.10547E-01         0.00000E+00
    0.47124E-01        -0.90890E-02         0.00000E+00
    0.39558E-01        -0.75012E-02         0.00000E+00
    0.32050E-01        -0.58756E-02         0.00000E+00
    0.24476E-01        -0.42778E-02         0.00000E+00
    0.16705E-01        -0.27518E-02         0.00000E+00
    0.85966E-02        -0.13233E-02         0.00000E+00
    0.00000E+00         0.00000E+00         0.00000E+00
    0.11371E+00         0.27804E-01         0.00000E+00
    0.11737E+00         0.26287E-01         0.00000E+00
    0.12141E+00         0.23964E-01         0.00000E+00
    0.12489E+00         0.20846E-01         0.00000E+00
    0.12706E+00         0.17157E-01         0.00000E+00
    0.12752E+00         0.13193E-01         0.00000E+00
    0.12618E+00         0.92657E-02         0.00000E+00
    0.12322E+00         0.55777E-02         0.00000E+00
    0.11887E+00         0.21199E-02         0.00000E+00
    0.11343E+00        -0.99359E-03         0.00000E+00
    0.10717E+00        -0.36654E-02         0.00000E+00
    0.10030E+00        -0.58360E-02         0.00000E+00
    0.93014E-01        -0.74651E-02         0.00000E+00
    0.85502E-01        -0.85068E-02         0.00000E+00
    0.77810E-01        -0.90022E-02         0.00000E+00
    0.70072E-01        -0.90058E-02         0.00000E+00
    0.62395E-01        -0.86035E-02         0.00000E+00
    0.54804E-01        -0.78736E-02         0.00000E+00
    0.47303E-01        -0.69068E-02         0.00000E+00
    0.39850E-01        -0.57958E-02         0.00000E+00
    0.32365E-01        -0.46124E-02         0.00000E+00
    0.24753E-01        -0.34120E-02         0.00000E+00
    0.16904E-01        -0.22321E-02         0.00000E+00
    0.86957E-02        -0.10934E-02         0.00000E+00
    0.00000E+00         0.00000E+00         0.00000E+00
    0.11079E+00         0.30527E-01         0.00000E+00
    0.11352E+00         0.28902E-01         0.00000E+00
    0.11646E+00         0.26646E-01         0.00000E+00
    0.11897E+00         0.23742E-01         0.00000E+00
    0.12051E+00         0.20324E-01         0.00000E+00
    0.12074E+00         0.16617E-01         0.00000E+00
    0.11954E+00         0.12855E-01         0.00000E+00
    0.11695E+00         0.92175E-02         0.00000E+00
    0.11313E+00         0.58508E-02         0.00000E+00
    0.10832E+00         0.28387E-02         0.00000E+00
    0.10274E+00         0.23771E-03         0.00000E+00
    0.96580E-01        -0.19110E-02         0.00000E+00
    0.89998E-01        -0.35812E-02         0.00000E+00
    0.83130E-01        -0.47847E-02         0.00000E+00
    0.76054E-01        -0.55369E-02         0.00000E+00
    0.68859E-01        -0.58695E-02         0.00000E+00
    0.61620E-01        -0.58395E-02         0.00000E+00
    0.54370E-01        -0.55175E-02         0.00000E+00
    0.47108E-01        -0.49732E-02         0.00000E+00
    0.39802E-01        -0.42737E-02         0.00000E+00
    0.32394E-01        -0.34774E-02         0.00000E+00
    0.24807E-01        -0.26289E-02         0.00000E+00
    0.16948E-01        -0.17585E-02         0.00000E+00
    0.87154E-02        -0.88204E-03         0.00000E+00
    0.00000E+00         0.00000E+00         0.00000E+00
    0.10751E+00         0.32640E-01         0.00000E+00
    0.10958E+00         0.30956E-01         0.00000E+00
    0.11173E+00         0.28770E-01         0.00000E+00
    0.11351E+00         0.26057E-01         0.00000E+00
    0.11454E+00         0.22904E-01         0.00000E+00
    0.11455E+00         0.19471E-01         0.00000E+00
    0.11339E+00         0.15943E-01         0.00000E+00
    0.11109E+00         0.12490E-01         0.00000E+00
    0.10772E+00         0.92493E-02         0.00000E+00
    0.10347E+00         0.63166E-02         0.00000E+00
    0.98483E-01         0.37489E-02         0.00000E+00
    0.92933E-01         0.15789E-02         0.00000E+00
    0.86952E-01        -0.18230E-03         0.00000E+00
    0.80648E-01        -0.15400E-02         0.00000E+00
    0.74103E-01        -0.25117E-02         0.00000E+00
    0.67386E-01        -0.31243E-02         0.00000E+00
    0.60549E-01        -0.34190E-02         0.00000E+00
    0.53622E-01        -0.34475E-02         0.00000E+00
    0.46605E-01        -0.32643E-02         0.00000E+00
    0.39474E-01        -0.29210E-02         0.00000E+00
    0.32184E-01        -0.24626E-02         0.00000E+00
    0.24672E-01        -0.19242E-02         0.00000E+00
    0.16861E-01        -0.13293E-02         0.00000E+00
    0.86682E-02        -0.68877E-03         0.00000E+00
    0.00000E+00         0.00000E+00         0.00000E+00
    0.10403E+00         0.34327E-01         0.00000E+00
    0.10563E+00         0.32620E-01         0.00000E+00
    0.10720E+00         0.30503E-01         0.00000E+00
    0.10844E+00         0.27956E-01         0.00000E+00
    0.10906E+00         0.25037E-01         0.00000E+00
    0.10886E+00         0.21865E-01         0.00000E+00
    0.10773E+00         0.18582E-01         0.00000E+00
    0.10563E+00         0.15332E-01         0.00000E+00
    0.10263E+00         0.12238E-01         0.00000E+00
    0.98832E-01         0.93905E-02         0.00000E+00
    0.94360E-01         0.68487E-02         0.00000E+00
    0.89339E-01         0.46456E-02         0.00000E+00
    0.83881E-01         0.27940E-02         0.00000E+00
    0.78076E-01         0.12912E-02         0.00000E+00
    0.71999E-01         0.12394E-03         0.00000E+00
    0.65706E-01        -0.73034E-03         0.00000E+00
    0.59239E-01        -0.13030E-02         0.00000E+00
    0.52621E-01        -0.16324E-02         0.00000E+00
    0.45852E-01        -0.17595E-02         0.00000E+00
    0.38916E-01        -0.17238E-02         0.00000E+00
    0.31775E-01        -0.15595E-02         0.00000E+00
    0.24379E-01        -0.12933E-02         0.00000E+00
    0.16666E-01        -0.94240E-03         0.00000E+00
    0.85651E-02        -0.51305E-03         0.00000E+00
    0.00000E+00         0.00000E+00         0.00000E+00
    0.10045E+00         0.35698E-01         0.00000E+00
    0.10170E+00         0.33992E-01         0.00000E+00
    0.10284E+00         0.31943E-01         0.00000E+00
    0.10367E+00         0.29538E-01         0.00000E+00
    0.10398E+00         0.26819E-01         0.00000E+00
    0.10362E+00         0.23875E-01         0.00000E+00
    0.10248E+00         0.20818E-01         0.00000E+00
    0.10055E+00         0.17763E-01         0.00000E+00
    0.97831E-01         0.14814E-01         0.00000E+00
    0.94408E-01         0.12055E-01         0.00000E+00
    0.90366E-01         0.95426E-02         0.00000E+00
    0.85799E-01         0.73127E-02         0.00000E+00
    0.80796E-01         0.53814E-02         0.00000E+00
    0.75433E-01         0.37509E-02         0.00000E+00
    0.69773E-01         0.24128E-02         0.00000E+00
    0.63863E-01         0.13504E-02         0.00000E+00
    0.57738E-01         0.54005E-03         0.00000E+00
    0.51415E-01        -0.46532E-04         0.00000E+00
    0.44897E-01        -0.43979E-03         0.00000E+00
    0.38169E-01        -0.66906E-03         0.00000E+00
    0.31202E-01        -0.75983E-03         0.00000E+00
    0.23956E-01        -0.73146E-03         0.00000E+00
    0.16380E-01        -0.59544E-03         0.00000E+00
    0.84156E-02        -0.35417E-03         0.00000E+00
    0.00000E+00         0.00000E+00         0.00000E+00
    0.96835E-01         0.36820E-01         0.00000E+00
    0.97813E-01         0.35131E-01         0.00000E+00
    0.98633E-01         0.33147E-01         0.00000E+00
    0.99153E-01         0.30862E-01         0.00000E+00
    0.99227E-01         0.28311E-01         0.00000E+00
    0.98736E-01         0.25561E-01         0.00000E+00
    0.97598E-01         0.22698E-01         0.00000E+00
    0.95781E-01         0.19817E-01         0.00000E+00
    0.93294E-01         0.17004E-01         0.00000E+00
    0.90179E-01         0.14331E-01         0.00000E+00
    0.86497E-01         0.11853E-01         0.00000E+00
    0.82318E-01         0.96069E-02         0.00000E+00
    0.77712E-01         0.76112E-02         0.00000E+00
    0.72740E-01         0.58732E-02         0.00000E+00
    0.67454E-01         0.43899E-02         0.00000E+00
    0.61893E-01         0.31503E-02         0.00000E+00
    0.56085E-01         0.21379E-02         0.00000E+00
    0.50047E-01         0.13325E-02         0.00000E+00
    0.43778E-01         0.71201E-03         0.00000E+00
    0.37269E-01         0.25540E-03         0.00000E+00
    0.30496E-01        -0.55466E-04         0.00000E+00
    0.23427E-01        -0.23374E-03         0.00000E+00
    0.16020E-01        -0.28606E-03         0.00000E+00
    0.82282E-02        -0.21137E-03         0.00000E+00
    0.00000E+00         0.00000E+00         0.00000E+00
    0.93238E-01         0.37734E-01         0.00000E+00
    0.93996E-01         0.36072E-01         0.00000E+00
    0.94569E-01         0.34149E-01         0.00000E+00
    0.94855E-01         0.31967E-01         0.00000E+00
    0.94748E-01         0.29554E-01         0.00000E+00
    0.94157E-01         0.26965E-01         0.00000E+00
    0.93017E-01         0.24267E-01         0.00000E+00
    0.91295E-01         0.21536E-01         0.00000E+00
    0.88991E-01         0.18844E-01         0.00000E+00
    0.86128E-01         0.16253E-01         0.00000E+00
    0.82748E-01         0.13813E-01         0.00000E+00
    0.78903E-01         0.11559E-01         0.00000E+00
    0.74643E-01         0.95146E-02         0.00000E+00
    0.70017E-01         0.76894E-02         0.00000E+00
    0.65067E-01         0.60854E-02         0.00000E+00
    0.59825E-01         0.46974E-02         0.00000E+00
    0.54316E-01         0.35150E-02         0.00000E+00
    0.48550E-01         0.25246E-02         0.00000E+00
    0.42530E-01         0.17114E-02         0.00000E+00
    0.36247E-01         0.10609E-02         0.00000E+00
    0.29683E-01         0.56126E-03         0.00000E+00
    0.22812E-01         0.20449E-03         0.00000E+00
    0.15600E-01        -0.11871E-04         0.00000E+00
    0.80100E-02        -0.83818E-04         0.00000E+00
    0.00000E+00         0.00000E+00         0.00000E+00
    0.89682E-01         0.38468E-01         0.00000E+00
    0.90257E-01         0.36838E-01         0.00000E+00
    0.90635E-01         0.34971E-01         0.00000E+00
    0.90741E-01         0.32877E-01         0.00000E+00
    0.90496E-01         0.30580E-01         0.00000E+00
    0.89830E-01         0.28124E-01         0.00000E+00
    0.88690E-01         0.25564E-01         0.00000E+00
    0.87046E-01         0.22960E-01         0.00000E+00
    0.84892E-01         0.20373E-01         0.00000E+00
    0.82239E-01         0.17856E-01         0.00000E+00
    0.79115E-01         0.15455E-01         0.00000E+00
    0.75555E-01         0.13203E-01         0.00000E+00
    0.71598E-01         0.11123E-01         0.00000E+00
    0.67280E-01         0.92291E-02         0.00000E+00
    0.62634E-01         0.75273E-02         0.00000E+00
    0.57687E-01         0.60170E-02         0.00000E+00
    0.52457E-01         0.46932E-02         0.00000E+00
    0.46954E-01         0.35482E-02         0.00000E+00
    0.41180E-01         0.25727E-02         0.00000E+00
    0.35128E-01         0.17581E-02         0.00000E+00
    0.28785E-01         0.10976E-02         0.00000E+00
    0.22129E-01         0.58776E-03         0.00000E+00
    0.15133E-01         0.22950E-03         0.00000E+00
    0.77674E-02         0.29340E-04         0.00000E+00
    0.00000E+00         0.00000E+00         0.00000E+00
    0.86181E-01         0.39041E-01         0.00000E+00
    0.86599E-01         0.37444E-01         0.00000E+00
    0.86820E-01         0.35630E-01         0.00000E+00
    0.86785E-01         0.33611E-01         0.00000E+00
    0.86434E-01         0.31411E-01         0.00000E+00
    0.85713E-01         0.29065E-01         0.00000E+00
    0.84577E-01         0.26620E-01         0.00000E+00
    0.83001E-01         0.24124E-01         0.00000E+00
    0.80972E-01         0.21628E-01         0.00000E+00
    0.78497E-01         0.19179E-01         0.00000E+00
    0.75591E-01         0.16815E-01         0.00000E+00
    0.72278E-01         0.14570E-01         0.00000E+00
    0.68586E-01         0.12467E-01         0.00000E+00
    0.64543E-01         0.10521E-01         0.00000E+00
    0.60174E-01         0.87418E-02         0.00000E+00
    0.55498E-01         0.71325E-02         0.00000E+00
    0.50532E-01         0.56928E-02         0.00000E+00
    0.45283E-01         0.44198E-02         0.00000E+00
    0.39752E-01         0.33091E-02         0.00000E+00
    0.33935E-01         0.23569E-02         0.00000E+00
    0.27821E-01         0.15606E-02         0.00000E+00
    0.21392E-01         0.92047E-03         0.00000E+00
    0.14628E-01         0.44042E-03         0.00000E+00
    0.75058E-02         0.12899E-03         0.00000E+00
    0.00000E+00         0.00000E+00         0.00000E+00
    0.82742E-01         0.39469E-01         0.00000E+00
    0.83022E-01         0.37905E-01         0.00000E+00
    0.83112E-01         0.36139E-01         0.00000E+00
    0.82966E-01         0.34186E-01         0.00000E+00
    0.82534E-01         0.32067E-01         0.00000E+00
    0.81773E-01         0.29814E-01         0.00000E+00
    0.80645E-01         0.27464E-01         0.00000E+00
    0.79128E-01         0.25059E-01         0.00000E+00
    0.77208E-01         0.22642E-01         0.00000E+00
    0.74884E-01         0.20253E-01         0.00000E+00
    0.72167E-01         0.17927E-01         0.00000E+00
    0.69070E-01         0.15694E-01         0.00000E+00
    0.65614E-01         0.13577E-01         0.00000E+00
    0.61818E-01         0.11593E-01         0.00000E+00
    0.57701E-01         0.97535E-02         0.00000E+00
    0.53279E-01         0.80656E-02         0.00000E+00
    0.48562E-01         0.65324E-02         0.00000E+00
    0.43558E-01         0.51549E-02         0.00000E+00
    0.38267E-01         0.39330E-02         0.00000E+00
    0.32686E-01         0.28666E-02         0.00000E+00
    0.26806E-01         0.19568E-02         0.00000E+00
    0.20614E-01         0.12069E-02         0.00000E+00
    0.14095E-01         0.62321E-03         0.00000E+00
    0.72296E-02         0.21604E-03         0.00000E+00
    0.00000E+00         0.00000E+00         0.00000E+00
    0.79364E-01         0.39764E-01         0.00000E+00
    0.79522E-01         0.38232E-01         0.00000E+00
    0.79503E-01         0.36510E-01         0.00000E+00
    0.79267E-01         0.34614E-01         0.00000E+00
    0.78772E-01         0.32564E-01         0.00000E+00
    0.77983E-01         0.30389E-01         0.00000E+00
    0.76867E-01         0.28121E-01         0.00000E+00
    0.75404E-01         0.25794E-01         0.00000E+00
    0.73579E-01         0.23446E-01         0.00000E+00
    0.71388E-01         0.21110E-01         0.00000E+00
    0.68836E-01         0.18820E-01         0.00000E+00
    0.65931E-01         0.16602E-01         0.00000E+00
    0.62686E-01         0.14479E-01         0.00000E+00
    0.59114E-01         0.12469E-01         0.00000E+00
    0.55229E-01         0.10585E-01         0.00000E+00
    0.51042E-01         0.88366E-02         0.00000E+00
    0.46563E-01         0.72294E-02         0.00000E+00
    0.41795E-01         0.57681E-02         0.00000E+00
    0.36740E-01         0.44559E-02         0.00000E+00
    0.31395E-01         0.32960E-02         0.00000E+00
    0.25754E-01         0.22925E-02         0.00000E+00
    0.19806E-01         0.14510E-02         0.00000E+00
    0.13540E-01         0.78019E-03         0.00000E+00
    0.69427E-02         0.29142E-03         0.00000E+00
    0.00000E+00         0.00000E+00         0.00000E+00
    0.76043E-01         0.39940E-01         0.00000E+00
    0.76095E-01         0.38436E-01         0.00000E+00
    0.75983E-01         0.36754E-01         0.00000E+00
    0.75673E-01         0.34908E-01         0.00000E+00
    0.75130E-01         0.32919E-01         0.00000E+00
    0.74321E-01         0.30811E-01         0.00000E+00
    0.73221E-01         0.28612E-01         0.00000E+00
    0.71808E-01         0.26353E-01         0.00000E+00
    0.70068E-01         0.24065E-01         0.00000E+00
    0.67996E-01         0.21778E-01         0.00000E+00
    0.65591E-01         0.19522E-01         0.00000E+00
    0.62858E-01         0.17322E-01         0.00000E+00
    0.59803E-01         0.15200E-01         0.00000E+00
    0.56436E-01         0.13174E-01         0.00000E+00
    0.52766E-01         0.11259E-01         0.00000E+00
    0.48801E-01         0.94642E-02         0.00000E+00
    0.44548E-01         0.78000E-02         0.00000E+00
    0.40009E-01         0.62729E-02         0.00000E+00
    0.35187E-01         0.48888E-02         0.00000E+00
    0.30077E-01         0.36535E-02         0.00000E+00
    0.24677E-01         0.25736E-02         0.00000E+00
    0.18977E-01         0.16570E-02         0.00000E+00
    0.12971E-01         0.91360E-03         0.00000E+00
    0.66485E-02         0.35604E-03         0.00000E+00
    0.00000E+00         0.00000E+00         0.00000E+00
    0.72776E-01         0.40007E-01         0.00000E+00
    0.72732E-01         0.38529E-01         0.00000E+00
    0.72542E-01         0.36883E-01         0.00000E+00
    0.72172E-01         0.35082E-01         0.00000E+00
    0.71591E-01         0.33147E-01         0.00000E+00
    0.70771E-01         0.31097E-01         0.00000E+00
    0.69689E-01         0.28958E-01         0.00000E+00
    0.68324E-01         0.26758E-01         0.00000E+00
    0.66663E-01         0.24523E-01         0.00000E+00
    0.64698E-01         0.22281E-01         0.00000E+00
    0.62426E-01         0.20059E-01         0.00000E+00
    0.59848E-01         0.17879E-01         0.00000E+00
    0.56967E-01         0.15763E-01         0.00000E+00
    0.53789E-01         0.13730E-01         0.00000E+00
    0.50320E-01         0.11793E-01         0.00000E+00
    0.46565E-01         0.99660E-02         0.00000E+00
    0.42528E-01         0.82593E-02         0.00000E+00
    0.38212E-01         0.66818E-02         0.00000E+00
    0.33617E-01         0.52417E-02         0.00000E+00
    0.28742E-01         0.39469E-02         0.00000E+00
    0.23583E-01         0.28060E-02         0.00000E+00
    0.18135E-01         0.18285E-02         0.00000E+00
    0.12393E-01         0.10256E-02         0.00000E+00
    0.63497E-02         0.41084E-03         0.00000E+00
    0.00000E+00         0.00000E+00         0.00000E+00
    0.69555E-01         0.39978E-01         0.00000E+00
    0.69429E-01         0.38524E-01         0.00000E+00
    0.69171E-01         0.36909E-01         0.00000E+00
    0.68752E-01         0.35149E-01         0.00000E+00
    0.68143E-01         0.33260E-01         0.00000E+00
    0.67319E-01         0.31262E-01         0.00000E+00
    0.66256E-01         0.29177E-01         0.00000E+00
    0.64938E-01         0.27028E-01         0.00000E+00
    0.63350E-01         0.24842E-01         0.00000E+00
    0.61484E-01         0.22642E-01         0.00000E+00
    0.59334E-01         0.20452E-01         0.00000E+00
    0.56899E-01         0.18294E-01         0.00000E+00
    0.54179E-01         0.16189E-01         0.00000E+00
    0.51177E-01         0.14155E-01         0.00000E+00
    0.47897E-01         0.12206E-01         0.00000E+00
    0.44341E-01         0.10358E-01         0.00000E+00
    0.40512E-01         0.86209E-02         0.00000E+00
    0.36412E-01         0.70064E-02         0.00000E+00
    0.32041E-01         0.55240E-02         0.00000E+00
    0.27398E-01         0.41835E-02         0.00000E+00
    0.22481E-01         0.29950E-02         0.00000E+00
    0.17286E-01         0.19692E-02         0.00000E+00
    0.11809E-01         0.11185E-02         0.00000E+00
    0.60485E-02         0.45672E-03         0.00000E+00
    0.00000E+00         0.00000E+00         0.00000E+00
    0.66376E-01         0.39864E-01         0.00000E+00
    0.66178E-01         0.38431E-01         0.00000E+00
    0.65863E-01         0.36845E-01         0.00000E+00
    0.65405E-01         0.35121E-01         0.00000E+00
    0.64775E-01         0.33274E-01         0.00000E+00
    0.63951E-01         0.31321E-01         0.00000E+00
    0.62911E-01         0.29284E-01         0.00000E+00
    0.61639E-01         0.27182E-01         0.00000E+00
    0.60121E-01         0.25040E-01         0.00000E+00
    0.58347E-01         0.22879E-01         0.00000E+00
    0.56310E-01         0.20721E-01         0.00000E+00
    0.54007E-01         0.18587E-01         0.00000E+00
    0.51438E-01         0.16496E-01         0.00000E+00
    0.48602E-01         0.14467E-01         0.00000E+00
    0.45500E-01         0.12515E-01         0.00000E+00
    0.42135E-01         0.10654E-01         0.00000E+00
    0.38507E-01         0.88976E-02         0.00000E+00
    0.34617E-01         0.72573E-02         0.00000E+00
    0.30466E-01         0.57445E-02         0.00000E+00
    0.26053E-01         0.43702E-02         0.00000E+00
    0.21376E-01         0.31455E-02         0.00000E+00
    0.16434E-01         0.20825E-02         0.00000E+00
    0.11225E-01         0.11941E-02         0.00000E+00
    0.57467E-02         0.49457E-03         0.00000E+00
    0.00000E+00         0.00000E+00         0.00000E+00
    0.63232E-01         0.39677E-01         0.00000E+00
    0.62973E-01         0.38262E-01         0.00000E+00
    0.62611E-01         0.36702E-01         0.00000E+00
    0.62122E-01         0.35010E-01         0.00000E+00
    0.61478E-01         0.33200E-01         0.00000E+00
    0.60659E-01         0.31289E-01         0.00000E+00
    0.59644E-01         0.29295E-01         0.00000E+00
    0.58418E-01         0.27237E-01         0.00000E+00
    0.56966E-01         0.25135E-01         0.00000E+00
    0.55279E-01         0.23011E-01         0.00000E+00
    0.53349E-01         0.20884E-01         0.00000E+00
    0.51171E-01         0.18775E-01         0.00000E+00
    0.48744E-01         0.16702E-01         0.00000E+00
    0.46065E-01         0.14683E-01         0.00000E+00
    0.43134E-01         0.12733E-01         0.00000E+00
    0.39951E-01         0.10868E-01         0.00000E+00
    0.36518E-01         0.91009E-02         0.00000E+00
    0.32833E-01         0.74445E-02         0.00000E+00
    0.28898E-01         0.59113E-02         0.00000E+00
    0.24712E-01         0.45132E-02         0.00000E+00
    0.20274E-01         0.32624E-02         0.00000E+00
    0.15584E-01         0.21717E-02         0.00000E+00
    0.10641E-01         0.12544E-02         0.00000E+00
    0.54459E-02         0.52524E-03         0.00000E+00
    0.00000E+00         0.00000E+00         0.00000E+00
    0.60118E-01         0.39428E-01         0.00000E+00
    0.59808E-01         0.38028E-01         0.00000E+00
    0.59409E-01         0.36491E-01         0.00000E+00
    0.58895E-01         0.34828E-01         0.00000E+00
    0.58244E-01         0.33053E-01         0.00000E+00
    0.57433E-01         0.31179E-01         0.00000E+00
    0.56446E-01         0.29224E-01         0.00000E+00
    0.55265E-01         0.27206E-01         0.00000E+00
    0.53878E-01         0.25143E-01         0.00000E+00
    0.52275E-01         0.23054E-01         0.00000E+00
    0.50447E-01         0.20958E-01         0.00000E+00
    0.48388E-01         0.18875E-01         0.00000E+00
    0.46095E-01         0.16823E-01         0.00000E+00
    0.43566E-01         0.14817E-01         0.00000E+00
    0.40799E-01         0.12875E-01         0.00000E+00
    0.37793E-01         0.11012E-01         0.00000E+00
    0.34549E-01         0.92412E-02         0.00000E+00
    0.31065E-01         0.75768E-02         0.00000E+00
    0.27342E-01         0.60316E-02         0.00000E+00
    0.23380E-01         0.46184E-02         0.00000E+00
    0.19179E-01         0.33500E-02         0.00000E+00
    0.14739E-01         0.22397E-02         0.00000E+00
    0.10061E-01         0.13014E-02         0.00000E+00
    0.51472E-02         0.54955E-03         0.00000E+00
    0.00000E+00         0.00000E+00         0.00000E+00
    0.57030E-01         0.39126E-01         0.00000E+00
    0.56678E-01         0.37740E-01         0.00000E+00
    0.56249E-01         0.36224E-01         0.00000E+00
    0.55719E-01         0.34588E-01         0.00000E+00
    0.55065E-01         0.32843E-01         0.00000E+00
    0.54268E-01         0.31004E-01         0.00000E+00
    0.53310E-01         0.29085E-01         0.00000E+00
    0.52176E-01         0.27104E-01         0.00000E+00
    0.50852E-01         0.25077E-01         0.00000E+00
    0.49330E-01         0.23022E-01         0.00000E+00
    0.47599E-01         0.20957E-01         0.00000E+00
    0.45655E-01         0.18901E-01         0.00000E+00
    0.43492E-01         0.16870E-01         0.00000E+00
    0.41107E-01         0.14882E-01         0.00000E+00
    0.38498E-01         0.12952E-01         0.00000E+00
    0.35663E-01         0.11096E-01         0.00000E+00
    0.32603E-01         0.93281E-02         0.00000E+00
    0.29315E-01         0.76623E-02         0.00000E+00
    0.25801E-01         0.61122E-02         0.00000E+00
    0.22060E-01         0.46911E-02         0.00000E+00
    0.18094E-01         0.34123E-02         0.00000E+00
    0.13902E-01         0.22894E-02         0.00000E+00
    0.94869E-02         0.13366E-02         0.00000E+00
    0.48515E-02         0.56827E-03         0.00000E+00
    0.00000E+00         0.00000E+00         0.00000E+00
    0.53962E-01         0.38783E-01         0.00000E+00
    0.53578E-01         0.37409E-01         0.00000E+00
    0.53127E-01         0.35911E-01         0.00000E+00
    0.52587E-01         0.34299E-01         0.00000E+00
    0.51936E-01         0.32583E-01         0.00000E+00
    0.51156E-01         0.30775E-01         0.00000E+00
    0.50229E-01         0.28890E-01         0.00000E+00
    0.49142E-01         0.26943E-01         0.00000E+00
    0.47882E-01         0.24950E-01         0.00000E+00
    0.46439E-01         0.22928E-01         0.00000E+00
    0.44803E-01         0.20894E-01         0.00000E+00
    0.42969E-01         0.18865E-01         0.00000E+00
    0.40931E-01         0.16858E-01         0.00000E+00
    0.38686E-01         0.14889E-01         0.00000E+00
    0.36230E-01         0.12975E-01         0.00000E+00
    0.33563E-01         0.11130E-01         0.00000E+00
    0.30682E-01         0.93702E-02         0.00000E+00
    0.27587E-01         0.77084E-02         0.00000E+00
    0.24278E-01         0.61592E-02         0.00000E+00
    0.20756E-01         0.47362E-02         0.00000E+00
    0.17020E-01         0.34530E-02         0.00000E+00
    0.13074E-01         0.23235E-02         0.00000E+00
    0.89193E-02         0.13617E-02         0.00000E+00
    0.45595E-02         0.58214E-03         0.00000E+00
    0.00000E+00         0.00000E+00         0.00000E+00
    0.50911E-01         0.38408E-01         0.00000E+00
    0.50504E-01         0.37044E-01         0.00000E+00
    0.50039E-01         0.35563E-01         0.00000E+00
    0.49494E-01         0.33972E-01         0.00000E+00
    0.48851E-01         0.32282E-01         0.00000E+00
    0.48092E-01         0.30504E-01         0.00000E+00
    0.47200E-01         0.28650E-01         0.00000E+00
    0.46161E-01         0.26735E-01         0.00000E+00
    0.44964E-01         0.24775E-01         0.00000E+00
    0.43598E-01         0.22784E-01         0.00000E+00
    0.42055E-01         0.20780E-01         0.00000E+00
    0.40329E-01         0.18779E-01         0.00000E+00
    0.38413E-01         0.16796E-01         0.00000E+00
    0.36303E-01         0.14849E-01         0.00000E+00
    0.33997E-01         0.12953E-01         0.00000E+00
    0.31492E-01         0.11124E-01         0.00000E+00
    0.28787E-01         0.93750E-02         0.00000E+00
    0.25882E-01         0.77218E-02         0.00000E+00
    0.22775E-01         0.61782E-02         0.00000E+00
    0.19467E-01         0.47581E-02         0.00000E+00
    0.15961E-01         0.34755E-02         0.00000E+00
    0.12257E-01         0.23441E-02         0.00000E+00
    0.83595E-02         0.13781E-02         0.00000E+00
    0.42718E-02         0.59183E-03         0.00000E+00
    0.00000E+00         0.00000E+00         0.00000E+00
    0.47874E-01         0.38010E-01         0.00000E+00
    0.47452E-01         0.36654E-01         0.00000E+00
    0.46979E-01         0.35188E-01         0.00000E+00
    0.46437E-01         0.33617E-01         0.00000E+00
    0.45806E-01         0.31951E-01         0.00000E+00
    0.45071E-01         0.30199E-01         0.00000E+00
    0.44215E-01         0.28375E-01         0.00000E+00
    0.43226E-01         0.26491E-01         0.00000E+00
    0.42092E-01         0.24561E-01         0.00000E+00
    0.40804E-01         0.22601E-01         0.00000E+00
    0.39352E-01         0.20626E-01         0.00000E+00
    0.37731E-01         0.18652E-01         0.00000E+00
    0.35934E-01         0.16696E-01         0.00000E+00
    0.33957E-01         0.14772E-01         0.00000E+00
    0.31798E-01         0.12896E-01         0.00000E+00
    0.29452E-01         0.11084E-01         0.00000E+00
    0.26920E-01         0.93495E-02         0.00000E+00
    0.24200E-01         0.77082E-02         0.00000E+00
    0.21292E-01         0.61741E-02         0.00000E+00
    0.18197E-01         0.47609E-02         0.00000E+00
    0.14916E-01         0.34828E-02         0.00000E+00
    0.11452E-01         0.23536E-02         0.00000E+00
    0.78080E-02         0.13873E-02         0.00000E+00
    0.39886E-02         0.59797E-03         0.00000E+00
    0.00000E+00         0.00000E+00         0.00000E+00
    0.44849E-01         0.37597E-01         0.00000E+00
    0.44419E-01         0.36249E-01         0.00000E+00
    0.43945E-01         0.34796E-01         0.00000E+00
    0.43411E-01         0.33243E-01         0.00000E+00
    0.42797E-01         0.31599E-01         0.00000E+00
    0.42089E-01         0.29872E-01         0.00000E+00
    0.41272E-01         0.28075E-01         0.00000E+00
    0.40334E-01         0.26219E-01         0.00000E+00
    0.39264E-01         0.24319E-01         0.00000E+00
    0.38053E-01         0.22388E-01         0.00000E+00
    0.36691E-01         0.20442E-01         0.00000E+00
    0.35173E-01         0.18495E-01         0.00000E+00
    0.33494E-01         0.16564E-01         0.00000E+00
    0.31647E-01         0.14664E-01         0.00000E+00
    0.29631E-01         0.12810E-01         0.00000E+00
    0.27443E-01         0.11017E-01         0.00000E+00
    0.25081E-01         0.92999E-02         0.00000E+00
    0.22543E-01         0.76733E-02         0.00000E+00
    0.19832E-01         0.61514E-02         0.00000E+00
    0.16946E-01         0.47482E-02         0.00000E+00
    0.13888E-01         0.34778E-02         0.00000E+00
    0.10660E-01         0.23540E-02         0.00000E+00
    0.72654E-02         0.13904E-02         0.00000E+00
    0.37101E-02         0.60114E-03         0.00000E+00
    0.00000E+00         0.00000E+00         0.00000E+00
    0.41833E-01         0.37178E-01         0.00000E+00
    0.41402E-01         0.35836E-01         0.00000E+00
    0.40934E-01         0.34395E-01         0.00000E+00
    0.40412E-01         0.32858E-01         0.00000E+00
    0.39819E-01         0.31234E-01         0.00000E+00
    0.39142E-01         0.29530E-01         0.00000E+00
    0.38366E-01         0.27758E-01         0.00000E+00
    0.37481E-01         0.25929E-01         0.00000E+00
    0.36476E-01         0.24057E-01         0.00000E+00
    0.35341E-01         0.22154E-01         0.00000E+00
    0.34069E-01         0.20235E-01         0.00000E+00
    0.32654E-01         0.18316E-01         0.00000E+00
    0.31090E-01         0.16411E-01         0.00000E+00
    0.29372E-01         0.14534E-01         0.00000E+00
    0.27497E-01         0.12703E-01         0.00000E+00
    0.25463E-01         0.10930E-01         0.00000E+00
    0.23268E-01         0.92317E-02         0.00000E+00
    0.20911E-01         0.76216E-02         0.00000E+00
    0.18393E-01         0.61141E-02         0.00000E+00
    0.15713E-01         0.47233E-02         0.00000E+00
    0.12875E-01         0.34630E-02         0.00000E+00
    0.98795E-02         0.23469E-02         0.00000E+00
    0.67317E-02         0.13887E-02         0.00000E+00
    0.34364E-02         0.60187E-03         0.00000E+00
    0.00000E+00         0.00000E+00         0.00000E+00
    0.38825E-01         0.36759E-01         0.00000E+00
    0.38399E-01         0.35423E-01         0.00000E+00
    0.37942E-01         0.33992E-01         0.00000E+00
    0.37437E-01         0.32470E-01         0.00000E+00
    0.36870E-01         0.30864E-01         0.00000E+00
    0.36226E-01         0.29181E-01         0.00000E+00
    0.35495E-01         0.27433E-01         0.00000E+00
    0.34664E-01         0.25629E-01         0.00000E+00
    0.33724E-01         0.23783E-01         0.00000E+00
    0.32667E-01         0.21906E-01         0.00000E+00
    0.31484E-01         0.20014E-01         0.00000E+00
    0.30170E-01         0.18121E-01         0.00000E+00
    0.28720E-01         0.16241E-01         0.00000E+00
    0.27129E-01         0.14389E-01         0.00000E+00
    0.25394E-01         0.12580E-01         0.00000E+00
    0.23512E-01         0.10829E-01         0.00000E+00
    0.21482E-01         0.91499E-02         0.00000E+00
    0.19303E-01         0.75575E-02         0.00000E+00
    0.16975E-01         0.60659E-02         0.00000E+00
    0.14499E-01         0.46890E-02         0.00000E+00
    0.11877E-01         0.34406E-02         0.00000E+00
    0.91121E-02         0.23341E-02         0.00000E+00
    0.62071E-02         0.13831E-02         0.00000E+00
    0.31676E-02         0.60065E-03         0.00000E+00
    0.00000E+00         0.00000E+00         0.00000E+00
    0.35823E-01         0.36347E-01         0.00000E+00
    0.35409E-01         0.35016E-01         0.00000E+00
    0.34967E-01         0.33594E-01         0.00000E+00
    0.34484E-01         0.32085E-01         0.00000E+00
    0.33946E-01         0.30496E-01         0.00000E+00
    0.33339E-01         0.28833E-01         0.00000E+00
    0.32654E-01         0.27106E-01         0.00000E+00
    0.31879E-01         0.25326E-01         0.00000E+00
    0.31006E-01         0.23504E-01         0.00000E+00
    0.30026E-01         0.21653E-01         0.00000E+00
    0.28932E-01         0.19786E-01         0.00000E+00
    0.27720E-01         0.17918E-01         0.00000E+00
    0.26383E-01         0.16062E-01         0.00000E+00
    0.24917E-01         0.14234E-01         0.00000E+00
    0.23320E-01         0.12448E-01         0.00000E+00
    0.21588E-01         0.10718E-01         0.00000E+00
    0.19722E-01         0.90589E-02         0.00000E+00
    0.17718E-01         0.74849E-02         0.00000E+00
    0.15579E-01         0.60100E-02         0.00000E+00
    0.13304E-01         0.46481E-02         0.00000E+00
    0.10896E-01         0.34127E-02         0.00000E+00
    0.83571E-02         0.23171E-02         0.00000E+00
    0.56912E-02         0.13745E-02         0.00000E+00
    0.29035E-02         0.59792E-03         0.00000E+00
    0.00000E+00         0.00000E+00         0.00000E+00
    0.32825E-01         0.35948E-01         0.00000E+00
    0.32428E-01         0.34621E-01         0.00000E+00
    0.32008E-01         0.33207E-01         0.00000E+00
    0.31550E-01         0.31710E-01         0.00000E+00
    0.31044E-01         0.30136E-01         0.00000E+00
    0.30478E-01         0.28491E-01         0.00000E+00
    0.29840E-01         0.26784E-01         0.00000E+00
    0.29123E-01         0.25026E-01         0.00000E+00
    0.28318E-01         0.23226E-01         0.00000E+00
    0.27416E-01         0.21399E-01         0.00000E+00
    0.26412E-01         0.19556E-01         0.00000E+00
    0.25300E-01         0.17712E-01         0.00000E+00
    0.24075E-01         0.15880E-01         0.00000E+00
    0.22734E-01         0.14075E-01         0.00000E+00
    0.21274E-01         0.12310E-01         0.00000E+00
    0.19691E-01         0.10602E-01         0.00000E+00
    0.17986E-01         0.89624E-02         0.00000E+00
    0.16156E-01         0.74070E-02         0.00000E+00
    0.14203E-01         0.59492E-02         0.00000E+00
    0.12127E-01         0.46027E-02         0.00000E+00
    0.99296E-02         0.33810E-02         0.00000E+00
    0.76141E-02         0.22971E-02         0.00000E+00
    0.51839E-02         0.13639E-02         0.00000E+00
    0.26439E-02         0.59407E-03         0.00000E+00
    0.00000E+00         0.00000E+00         0.00000E+00
    0.29832E-01         0.35567E-01         0.00000E+00
    0.29456E-01         0.34243E-01         0.00000E+00
    0.29061E-01         0.32837E-01         0.00000E+00
    0.28633E-01         0.31351E-01         0.00000E+00
    0.28163E-01         0.29790E-01         0.00000E+00
    0.27639E-01         0.28162E-01         0.00000E+00
    0.27052E-01         0.26473E-01         0.00000E+00
    0.26394E-01         0.24734E-01         0.00000E+00
    0.25657E-01         0.22956E-01         0.00000E+00
    0.24835E-01         0.21150E-01         0.00000E+00
    0.23920E-01         0.19330E-01         0.00000E+00
    0.22909E-01         0.17508E-01         0.00000E+00
    0.21796E-01         0.15698E-01         0.00000E+00
    0.20579E-01         0.13915E-01         0.00000E+00
    0.19254E-01         0.12172E-01         0.00000E+00
    0.17819E-01         0.10484E-01         0.00000E+00
    0.16273E-01         0.88641E-02         0.00000E+00
    0.14615E-01         0.73269E-02         0.00000E+00
    0.12846E-01         0.58861E-02         0.00000E+00
    0.10966E-01         0.45551E-02         0.00000E+00
    0.89775E-02         0.33472E-02         0.00000E+00
    0.68825E-02         0.22752E-02         0.00000E+00
    0.46847E-02         0.13519E-02         0.00000E+00
    0.23887E-02         0.58946E-03         0.00000E+00
    0.00000E+00         0.00000E+00         0.00000E+00
    0.26841E-01         0.35209E-01         0.00000E+00
    0.26492E-01         0.33888E-01         0.00000E+00
    0.26125E-01         0.32488E-01         0.00000E+00
    0.25731E-01         0.31012E-01         0.00000E+00
    0.25299E-01         0.29464E-01         0.00000E+00
    0.24820E-01         0.27849E-01         0.00000E+00
    0.24286E-01         0.26177E-01         0.00000E+00
    0.23689E-01         0.24456E-01         0.00000E+00
    0.23022E-01         0.22697E-01         0.00000E+00
    0.22279E-01         0.20912E-01         0.00000E+00
    0.21454E-01         0.19112E-01         0.00000E+00
    0.20543E-01         0.17311E-01         0.00000E+00
    0.19542E-01         0.15522E-01         0.00000E+00
    0.18448E-01         0.13760E-01         0.00000E+00
    0.17257E-01         0.12037E-01         0.00000E+00
    0.15969E-01         0.10368E-01         0.00000E+00
    0.14581E-01         0.87668E-02         0.00000E+00
    0.13094E-01         0.72472E-02         0.00000E+00
    0.11507E-01         0.58229E-02         0.00000E+00
    0.98215E-02         0.45070E-02         0.00000E+00
    0.80389E-02         0.33126E-02         0.00000E+00
    0.61617E-02         0.22526E-02         0.00000E+00
    0.41931E-02         0.13391E-02         0.00000E+00
    0.21375E-02         0.58440E-03         0.00000E+00
    0.00000E+00         0.00000E+00         0.00000E+00
    0.23854E-01         0.34878E-01         0.00000E+00
    0.23534E-01         0.33560E-01         0.00000E+00
    0.23200E-01         0.32166E-01         0.00000E+00
    0.22841E-01         0.30698E-01         0.00000E+00
    0.22450E-01         0.29160E-01         0.00000E+00
    0.22019E-01         0.27559E-01         0.00000E+00
    0.21539E-01         0.25901E-01         0.00000E+00
    0.21004E-01         0.24197E-01         0.00000E+00
    0.20408E-01         0.22455E-01         0.00000E+00
    0.19746E-01         0.20688E-01         0.00000E+00
    0.19011E-01         0.18907E-01         0.00000E+00
    0.18201E-01         0.17125E-01         0.00000E+00
    0.17312E-01         0.15356E-01         0.00000E+00
    0.16340E-01         0.13612E-01         0.00000E+00
    0.15283E-01         0.11908E-01         0.00000E+00
    0.14140E-01         0.10257E-01         0.00000E+00
    0.12910E-01         0.86732E-02         0.00000E+00
    0.11591E-01         0.71702E-02         0.00000E+00
    0.10185E-01         0.57614E-02         0.00000E+00
    0.86916E-02         0.44600E-02         0.00000E+00
    0.71128E-02         0.32786E-02         0.00000E+00
    0.54508E-02         0.22300E-02         0.00000E+00
    0.37086E-02         0.13263E-02         0.00000E+00
    0.18901E-02         0.57917E-03         0.00000E+00
    0.00000E+00         0.00000E+00         0.00000E+00
    0.20868E-01         0.34578E-01         0.00000E+00
    0.20581E-01         0.33262E-01         0.00000E+00
    0.20282E-01         0.31873E-01         0.00000E+00
    0.19963E-01         0.30412E-01         0.00000E+00
    0.19616E-01         0.28884E-01         0.00000E+00
    0.19234E-01         0.27294E-01         0.00000E+00
    0.18810E-01         0.25650E-01         0.00000E+00
    0.18339E-01         0.23959E-01         0.00000E+00
    0.17815E-01         0.22233E-01         0.00000E+00
    0.17233E-01         0.20482E-01         0.00000E+00
    0.16590E-01         0.18718E-01         0.00000E+00
    0.15880E-01         0.16954E-01         0.00000E+00
    0.15102E-01         0.15201E-01         0.00000E+00
    0.14252E-01         0.13475E-01         0.00000E+00
    0.13329E-01         0.11788E-01         0.00000E+00
    0.12330E-01         0.10153E-01         0.00000E+00
    0.11256E-01         0.85856E-02         0.00000E+00
    0.10105E-01         0.70979E-02         0.00000E+00
    0.88777E-02         0.57035E-02         0.00000E+00
    0.75749E-02         0.44154E-02         0.00000E+00
    0.61980E-02         0.32463E-02         0.00000E+00
    0.47490E-02         0.22084E-02         0.00000E+00
    0.32305E-02         0.13138E-02         0.00000E+00
    0.16461E-02         0.57402E-03         0.00000E+00
    0.00000E+00         0.00000E+00         0.00000E+00
    0.17884E-01         0.34312E-01         0.00000E+00
    0.17633E-01         0.32998E-01         0.00000E+00
    0.17372E-01         0.31612E-01         0.00000E+00
    0.17094E-01         0.30158E-01         0.00000E+00
    0.16793E-01         0.28638E-01         0.00000E+00
    0.16462E-01         0.27058E-01         0.00000E+00
    0.16095E-01         0.25425E-01         0.00000E+00
    0.15689E-01         0.23747E-01         0.00000E+00
    0.15238E-01         0.22035E-01         0.00000E+00
    0.14738E-01         0.20298E-01         0.00000E+00
    0.14186E-01         0.18549E-01         0.00000E+00
    0.13577E-01         0.16799E-01         0.00000E+00
    0.12910E-01         0.15062E-01         0.00000E+00
    0.12182E-01         0.13351E-01         0.00000E+00
    0.11392E-01         0.11679E-01         0.00000E+00
    0.10537E-01         0.10059E-01         0.00000E+00
    0.96178E-02         0.85059E-02         0.00000E+00
    0.86333E-02         0.70320E-02         0.00000E+00
    0.75839E-02         0.56505E-02         0.00000E+00
    0.64701E-02         0.43745E-02         0.00000E+00
    0.52933E-02         0.32164E-02         0.00000E+00
    0.40552E-02         0.21884E-02         0.00000E+00
    0.27581E-02         0.13022E-02         0.00000E+00
    0.14051E-02         0.56914E-03         0.00000E+00
    0.00000E+00         0.00000E+00         0.00000E+00
    0.14901E-01         0.34082E-01         0.00000E+00
    0.14689E-01         0.32769E-01         0.00000E+00
    0.14468E-01         0.31388E-01         0.00000E+00
    0.14233E-01         0.29939E-01         0.00000E+00
    0.13979E-01         0.28425E-01         0.00000E+00
    0.13701E-01         0.26854E-01         0.00000E+00
    0.13394E-01         0.25230E-01         0.00000E+00
    0.13054E-01         0.23563E-01         0.00000E+00
    0.12676E-01         0.21862E-01         0.00000E+00
    0.12259E-01         0.20138E-01         0.00000E+00
    0.11798E-01         0.18401E-01         0.00000E+00
    0.11290E-01         0.16664E-01         0.00000E+00
    0.10734E-01         0.14941E-01         0.00000E+00
    0.10128E-01         0.13243E-01         0.00000E+00
    0.94698E-02         0.11583E-01         0.00000E+00
    0.87585E-02         0.99768E-02         0.00000E+00
    0.79935E-02         0.84359E-02         0.00000E+00
    0.71746E-02         0.69738E-02         0.00000E+00
    0.63018E-02         0.56037E-02         0.00000E+00
    0.53757E-02         0.43383E-02         0.00000E+00
    0.43974E-02         0.31899E-02         0.00000E+00
    0.33684E-02         0.21705E-02         0.00000E+00
    0.22907E-02         0.12918E-02         0.00000E+00
    0.11668E-02         0.56473E-03         0.00000E+00
    0.00000E+00         0.00000E+00         0.00000E+00
    0.11920E-01         0.33891E-01         0.00000E+00
    0.11748E-01         0.32580E-01         0.00000E+00
    0.11569E-01         0.31201E-01         0.00000E+00
    0.11379E-01         0.29756E-01         0.00000E+00
    0.11174E-01         0.28248E-01         0.00000E+00
    0.10950E-01         0.26684E-01         0.00000E+00
    0.10703E-01         0.25068E-01         0.00000E+00
    0.10429E-01         0.23410E-01         0.00000E+00
    0.10127E-01         0.21718E-01         0.00000E+00
    0.97919E-02         0.20004E-01         0.00000E+00
    0.94226E-02         0.18277E-01         0.00000E+00
    0.90164E-02         0.16552E-01         0.00000E+00
    0.85717E-02         0.14839E-01         0.00000E+00
    0.80868E-02         0.13151E-01         0.00000E+00
    0.75605E-02         0.11503E-01         0.00000E+00
    0.69920E-02         0.99073E-02         0.00000E+00
    0.63808E-02         0.83767E-02         0.00000E+00
    0.57266E-02         0.69247E-02         0.00000E+00
    0.50295E-02         0.55641E-02         0.00000E+00
    0.42899E-02         0.43075E-02         0.00000E+00
    0.35089E-02         0.31673E-02         0.00000E+00
    0.26875E-02         0.21552E-02         0.00000E+00
    0.18274E-02         0.12828E-02         0.00000E+00
    0.93074E-03         0.56092E-03         0.00000E+00
    0.00000E+00         0.00000E+00         0.00000E+00
    0.89392E-02         0.33741E-01         0.00000E+00
    0.88086E-02         0.32430E-01         0.00000E+00
    0.86732E-02         0.31054E-01         0.00000E+00
    0.85296E-02         0.29612E-01         0.00000E+00
    0.83748E-02         0.28109E-01         0.00000E+00
    0.82057E-02         0.26549E-01         0.00000E+00
    0.80197E-02         0.24940E-01         0.00000E+00
    0.78141E-02         0.23288E-01         0.00000E+00
    0.75866E-02         0.21604E-01         0.00000E+00
    0.73351E-02         0.19897E-01         0.00000E+00
    0.70578E-02         0.18179E-01         0.00000E+00
    0.67531E-02         0.16462E-01         0.00000E+00
    0.64195E-02         0.14758E-01         0.00000E+00
    0.60559E-02         0.13079E-01         0.00000E+00
    0.56614E-02         0.11440E-01         0.00000E+00
    0.52354E-02         0.98520E-02         0.00000E+00
    0.47774E-02         0.83296E-02         0.00000E+00
    0.42873E-02         0.68855E-02         0.00000E+00
    0.37651E-02         0.55325E-02         0.00000E+00
    0.32112E-02         0.42830E-02         0.00000E+00
    0.26264E-02         0.31492E-02         0.00000E+00
    0.20114E-02         0.21430E-02         0.00000E+00
    0.13676E-02         0.12756E-02         0.00000E+00
    0.69646E-03         0.55783E-03         0.00000E+00
    0.00000E+00         0.00000E+00         0.00000E+00
    0.59591E-02         0.33633E-01         0.00000E+00
    0.58715E-02         0.32323E-01         0.00000E+00
    0.57806E-02         0.30947E-01         0.00000E+00
    0.56843E-02         0.29508E-01         0.00000E+00
    0.55806E-02         0.28008E-01         0.00000E+00
    0.54674E-02         0.26452E-01         0.00000E+00
    0.53430E-02         0.24847E-01         0.00000E+00
    0.52056E-02         0.23201E-01         0.00000E+00
    0.50537E-02         0.21522E-01         0.00000E+00
    0.48859E-02         0.19821E-01         0.00000E+00
    0.47009E-02         0.18109E-01         0.00000E+00
    0.44976E-02         0.16397E-01         0.00000E+00
    0.42752E-02         0.14699E-01         0.00000E+00
    0.40329E-02         0.13027E-01         0.00000E+00
    0.37700E-02         0.11393E-01         0.00000E+00
    0.34861E-02         0.98118E-02         0.00000E+00
    0.31810E-02         0.82954E-02         0.00000E+00
    0.28545E-02         0.68570E-02         0.00000E+00
    0.25067E-02         0.55094E-02         0.00000E+00
    0.21379E-02         0.42650E-02         0.00000E+00
    0.17484E-02         0.31360E-02         0.00000E+00
    0.13389E-02         0.21340E-02         0.00000E+00
    0.91028E-03         0.12703E-02         0.00000E+00
    0.46355E-03         0.55557E-03         0.00000E+00
    0.00000E+00         0.00000E+00         0.00000E+00
    0.29795E-02         0.33567E-01         0.00000E+00
    0.29354E-02         0.32258E-01         0.00000E+00
    0.28898E-02         0.30883E-01         0.00000E+00
    0.28415E-02         0.29446E-01         0.00000E+00
    0.27895E-02         0.27947E-01         0.00000E+00
    0.27328E-02         0.26394E-01         0.00000E+00
    0.26705E-02         0.24791E-01         0.00000E+00
    0.26017E-02         0.23148E-01         0.00000E+00
    0.25256E-02         0.21472E-01         0.00000E+00
    0.24417E-02         0.19774E-01         0.00000E+00
    0.23491E-02         0.18066E-01         0.00000E+00
    0.22475E-02         0.16358E-01         0.00000E+00
    0.21363E-02         0.14663E-01         0.00000E+00
    0.20151E-02         0.12995E-01         0.00000E+00
    0.18837E-02         0.11365E-01         0.00000E+00
    0.17418E-02         0.97874E-02         0.00000E+00
    0.15893E-02         0.82746E-02         0.00000E+00
    0.14262E-02         0.68397E-02         0.00000E+00
    0.12523E-02         0.54954E-02         0.00000E+00
    0.10680E-02         0.42541E-02         0.00000E+00
    0.87343E-03         0.31280E-02         0.00000E+00
    0.66885E-03         0.21286E-02         0.00000E+00
    0.45471E-03         0.12671E-02         0.00000E+00
    0.23154E-03         0.55418E-03         0.00000E+00
    0.00000E+00         0.00000E+00         0.00000E+00
    0.00000E+00         0.33545E-01         0.00000E+00
    0.00000E+00         0.32236E-01         0.00000E+00
    0.00000E+00         0.30862E-01         0.00000E+00
    0.00000E+00         0.29425E-01         0.00000E+00
    0.00000E+00         0.27927E-01         0.00000E+00
    0.00000E+00         0.26374E-01         0.00000E+00
    0.00000E+00         0.24773E-01         0.00000E+00
    0.00000E+00         0.23130E-01         0.00000E+00
    0.00000E+00         0.21455E-01         0.00000E+00
    0.00000E+00         0.19759E-01         0.00000E+00
    0.00000E+00         0.18051E-01         0.00000E+00
    0.00000E+00         0.16345E-01         0.00000E+00
    0.00000E+00         0.14652E-01         0.00000E+00
    0.00000E+00         0.12984E-01         0.00000E+00
    0.00000E+00         0.11356E-01         0.00000E+00
    0.00000E+00         0.97793E-02         0.00000E+00
    0.00000E+00         0.82677E-02         0.00000E+00
    0.00000E+00         0.68339E-02         0.00000E+00
    0.00000E+00         0.54907E-02         0.00000E+00
    0.00000E+00         0.42505E-02         0.00000E+00
    0.00000E+00         0.31253E-02         0.00000E+00
    0.00000E+00         0.21267E-02         0.00000E+00
    0.00000E+00         0.12660E-02         0.00000E+00
    0.00000E+00         0.55371E-03         0.00000E+00
    0.00000E+00         0.00000E+00         0.00000E+00
CELL_DATA       1152
VECTORS vDarcy double 
    0.81227E-03         0.83233E-03         0.00000E+00
    0.61880E-03         0.22363E-02         0.00000E+00
    0.37939E-03         0.31699E-02         0.00000E+00
    0.20586E-03         0.36383E-02         0.00000E+00
    0.12259E-03         0.38634E-02         0.00000E+00
    0.77795E-04         0.39536E-02         0.00000E+00
    0.52950E-04         0.39611E-02         0.00000E+00
    0.38877E-04         0.39127E-02         0.00000E+00
    0.31100E-04         0.38228E-02         0.00000E+00
    0.27224E-04         0.36997E-02         0.00000E+00
    0.25834E-04         0.35486E-02         0.00000E+00
    0.26041E-04         0.33728E-02         0.00000E+00
    0.27303E-04         0.31752E-02         0.00000E+00
    0.29294E-04         0.29581E-02         0.00000E+00
    0.31835E-04         0.27239E-02         0.00000E+00
    0.34744E-04         0.24748E-02         0.00000E+00
    0.38029E-04         0.22127E-02         0.00000E+00
    0.41193E-04         0.19378E-02         0.00000E+00
    0.43402E-04         0.16518E-02         0.00000E+00
    0.44957E-04         0.13580E-02         0.00000E+00
    0.46371E-04         0.10605E-02         0.00000E+00
    0.47593E-04         0.75884E-03         0.00000E+00
    0.48494E-04         0.45504E-03         0.00000E+00
    0.48973E-04         0.15106E-03         0.00000E+00
    0.27059E-02         0.10566E-02         0.00000E+00
    0.18958E-02         0.30157E-02         0.00000E+00
    0.96597E-03         0.35597E-02         0.00000E+00
    0.55320E-03         0.38347E-02         0.00000E+00
    0.33551E-03         0.39679E-02         0.00000E+00
    0.21754E-03         0.40118E-02         0.00000E+00
    0.15074E-03         0.39944E-02         0.00000E+00
    0.11247E-03         0.39316E-02         0.00000E+00
    0.91176E-04         0.38329E-02         0.00000E+00
    0.80567E-04         0.37041E-02         0.00000E+00
    0.76916E-04         0.35492E-02         0.00000E+00
    0.77836E-04         0.33710E-02         0.00000E+00
    0.81764E-04         0.31717E-02         0.00000E+00
    0.87713E-04         0.29536E-02         0.00000E+00
    0.95104E-04         0.27185E-02         0.00000E+00
    0.10367E-03         0.24688E-02         0.00000E+00
    0.11277E-03         0.22064E-02         0.00000E+00
    0.12104E-03         0.19326E-02         0.00000E+00
    0.12797E-03         0.16478E-02         0.00000E+00
    0.13375E-03         0.13547E-02         0.00000E+00
    0.13855E-03         0.10576E-02         0.00000E+00
    0.14251E-03         0.75656E-03         0.00000E+00
    0.14532E-03         0.45360E-03         0.00000E+00
    0.14679E-03         0.15056E-03         0.00000E+00
    0.63336E-02         0.48426E-02         0.00000E+00
    0.21222E-02         0.42512E-02         0.00000E+00
    0.12227E-02         0.41535E-02         0.00000E+00
    0.73164E-03         0.41449E-02         0.00000E+00
    0.46788E-03         0.41392E-02         0.00000E+00
    0.31614E-03         0.41102E-02         0.00000E+00
    0.22703E-03         0.40519E-02         0.00000E+00
    0.17477E-03         0.39647E-02         0.00000E+00
    0.14542E-03         0.38505E-02         0.00000E+00
    0.13100E-03         0.37116E-02         0.00000E+00
    0.12662E-03         0.35498E-02         0.00000E+00
    0.12906E-03         0.33670E-02         0.00000E+00
    0.13605E-03         0.31648E-02         0.00000E+00
    0.14595E-03         0.29447E-02         0.00000E+00
    0.15751E-03         0.27084E-02         0.00000E+00
    0.16989E-03         0.24579E-02         0.00000E+00
    0.18274E-03         0.21953E-02         0.00000E+00
    0.19606E-03         0.19221E-02         0.00000E+00
    0.20923E-03         0.16382E-02         0.00000E+00
    0.22063E-03         0.13471E-02         0.00000E+00
    0.22977E-03         0.10513E-02         0.00000E+00
    0.23690E-03         0.75181E-03         0.00000E+00
    0.24178E-03         0.45065E-03         0.00000E+00
    0.24428E-03         0.14955E-03         0.00000E+00
    0.10619E-02         0.74157E-02         0.00000E+00
    0.17064E-02         0.52450E-02         0.00000E+00
    0.10797E-02         0.46858E-02         0.00000E+00
    0.73198E-03         0.44514E-02         0.00000E+00
    0.50632E-03         0.43221E-02         0.00000E+00
    0.36432E-03         0.42211E-02         0.00000E+00
    0.27564E-03         0.41189E-02         0.00000E+00
    0.22192E-03         0.40037E-02         0.00000E+00
    0.19165E-03         0.38711E-02         0.00000E+00
    0.17754E-03         0.37195E-02         0.00000E+00
    0.17478E-03         0.35490E-02         0.00000E+00
    0.18000E-03         0.33602E-02         0.00000E+00
    0.19071E-03         0.31539E-02         0.00000E+00
    0.20492E-03         0.29314E-02         0.00000E+00
    0.22113E-03         0.26939E-02         0.00000E+00
    0.23805E-03         0.24431E-02         0.00000E+00
    0.25513E-03         0.21801E-02         0.00000E+00
    0.27290E-03         0.19062E-02         0.00000E+00
    0.29097E-03         0.16230E-02         0.00000E+00
    0.30738E-03         0.13345E-02         0.00000E+00
    0.32079E-03         0.10413E-02         0.00000E+00
    0.33098E-03         0.74450E-03         0.00000E+00
    0.33787E-03         0.44618E-03         0.00000E+00
    0.34135E-03         0.14805E-03         0.00000E+00
    0.31469E-03         0.60391E-02         0.00000E+00
    0.74354E-03         0.55483E-02         0.00000E+00
    0.77487E-03         0.49778E-02         0.00000E+00
    0.61342E-03         0.46685E-02         0.00000E+00
    0.47357E-03         0.44705E-02         0.00000E+00
    0.36950E-03         0.43188E-02         0.00000E+00
    0.29875E-03         0.41806E-02         0.00000E+00
    0.25431E-03         0.40401E-02         0.00000E+00
    0.22978E-03         0.38894E-02         0.00000E+00
    0.22014E-03         0.37249E-02         0.00000E+00
    0.22158E-03         0.35450E-02         0.00000E+00
    0.23116E-03         0.33494E-02         0.00000E+00
    0.24657E-03         0.31386E-02         0.00000E+00
    0.26591E-03         0.29132E-02         0.00000E+00
    0.28759E-03         0.26742E-02         0.00000E+00
    0.31054E-03         0.24229E-02         0.00000E+00
    0.33396E-03         0.21598E-02         0.00000E+00
    0.35653E-03         0.18861E-02         0.00000E+00
    0.37733E-03         0.16041E-02         0.00000E+00
    0.39621E-03         0.13181E-02         0.00000E+00
    0.41244E-03         0.10281E-02         0.00000E+00
    0.42502E-03         0.73490E-03         0.00000E+00
    0.43356E-03         0.44036E-03         0.00000E+00
    0.43787E-03         0.14609E-03         0.00000E+00
    0.15061E-03         0.55738E-02         0.00000E+00
    0.38629E-03         0.53490E-02         0.00000E+00
    0.48359E-03         0.50484E-02         0.00000E+00
    0.46776E-03         0.47752E-02         0.00000E+00
    0.40757E-03         0.45639E-02         0.00000E+00
    0.34905E-03         0.43880E-02         0.00000E+00
    0.30438E-03         0.42268E-02         0.00000E+00
    0.27572E-03         0.40671E-02         0.00000E+00
    0.26160E-03         0.39011E-02         0.00000E+00
    0.25966E-03         0.37248E-02         0.00000E+00
    0.26746E-03         0.35359E-02         0.00000E+00
    0.28281E-03         0.33336E-02         0.00000E+00
    0.30378E-03         0.31180E-02         0.00000E+00
    0.32868E-03         0.28895E-02         0.00000E+00
    0.35608E-03         0.26488E-02         0.00000E+00
    0.38470E-03         0.23967E-02         0.00000E+00
    0.41326E-03         0.21340E-02         0.00000E+00
    0.44048E-03         0.18621E-02         0.00000E+00
    0.46503E-03         0.15828E-02         0.00000E+00
    0.48638E-03         0.12992E-02         0.00000E+00
    0.50450E-03         0.10126E-02         0.00000E+00
    0.51878E-03         0.72353E-03         0.00000E+00
    0.52856E-03         0.43341E-03         0.00000E+00
    0.53353E-03         0.14376E-03         0.00000E+00
    0.85244E-04         0.53380E-02         0.00000E+00
    0.23143E-03         0.52030E-02         0.00000E+00
    0.31962E-03         0.50089E-02         0.00000E+00
    0.34885E-03         0.48013E-02         0.00000E+00
    0.34126E-03         0.46056E-02         0.00000E+00
    0.32085E-03         0.44253E-02         0.00000E+00
    0.30226E-03         0.42528E-02         0.00000E+00
    0.29142E-03         0.40806E-02         0.00000E+00
    0.28996E-03         0.39032E-02         0.00000E+00
    0.29759E-03         0.37170E-02         0.00000E+00
    0.31313E-03         0.35202E-02         0.00000E+00
    0.33515E-03         0.33119E-02         0.00000E+00
    0.36216E-03         0.30918E-02         0.00000E+00
    0.39270E-03         0.28603E-02         0.00000E+00
    0.42539E-03         0.26180E-02         0.00000E+00
    0.45890E-03         0.23655E-02         0.00000E+00
    0.49187E-03         0.21038E-02         0.00000E+00
    0.52297E-03         0.18341E-02         0.00000E+00
    0.55104E-03         0.15582E-02         0.00000E+00
    0.57538E-03         0.12781E-02         0.00000E+00
    0.59565E-03         0.99530E-03         0.00000E+00
    0.61146E-03         0.71074E-03         0.00000E+00
    0.62230E-03         0.42557E-03         0.00000E+00
    0.62781E-03         0.14111E-03         0.00000E+00
    0.55372E-04         0.51974E-02         0.00000E+00
    0.15572E-03         0.50971E-02         0.00000E+00
    0.22950E-03         0.49529E-02         0.00000E+00
    0.27232E-03         0.47853E-02         0.00000E+00
    0.29118E-03         0.46103E-02         0.00000E+00
    0.29735E-03         0.44348E-02         0.00000E+00
    0.30045E-03         0.42588E-02         0.00000E+00
    0.30635E-03         0.40796E-02         0.00000E+00
    0.31778E-03         0.38942E-02         0.00000E+00
    0.33554E-03         0.37006E-02         0.00000E+00
    0.35936E-03         0.34973E-02         0.00000E+00
    0.38840E-03         0.32837E-02         0.00000E+00
    0.42154E-03         0.30598E-02         0.00000E+00
    0.45756E-03         0.28258E-02         0.00000E+00
    0.49516E-03         0.25822E-02         0.00000E+00
    0.53304E-03         0.23298E-02         0.00000E+00
    0.56989E-03         0.20696E-02         0.00000E+00
    0.60444E-03         0.18026E-02         0.00000E+00
    0.63561E-03         0.15304E-02         0.00000E+00
    0.66264E-03         0.12545E-02         0.00000E+00
    0.68500E-03         0.97625E-03         0.00000E+00
    0.70228E-03         0.69671E-03         0.00000E+00
    0.71406E-03         0.41698E-03         0.00000E+00
    0.72004E-03         0.13821E-03         0.00000E+00
    0.40680E-04         0.51013E-02         0.00000E+00
    0.11730E-03         0.50162E-02         0.00000E+00
    0.18102E-03         0.48963E-02         0.00000E+00
    0.22822E-03         0.47518E-02         0.00000E+00
    0.26091E-03         0.45922E-02         0.00000E+00
    0.28427E-03         0.44233E-02         0.00000E+00
    0.30390E-03         0.42475E-02         0.00000E+00
    0.32406E-03         0.40648E-02         0.00000E+00
    0.34732E-03         0.38743E-02         0.00000E+00
    0.37485E-03         0.36752E-02         0.00000E+00
    0.40680E-03         0.34669E-02         0.00000E+00
    0.44273E-03         0.32492E-02         0.00000E+00
    0.48179E-03         0.30221E-02         0.00000E+00
    0.52296E-03         0.27862E-02         0.00000E+00
    0.56506E-03         0.25420E-02         0.00000E+00
    0.60686E-03         0.22903E-02         0.00000E+00
    0.64712E-03         0.20320E-02         0.00000E+00
    0.68468E-03         0.17681E-02         0.00000E+00
    0.71851E-03         0.14999E-02         0.00000E+00
    0.74781E-03         0.12287E-02         0.00000E+00
    0.77198E-03         0.95555E-03         0.00000E+00
    0.79054E-03         0.68157E-03         0.00000E+00
    0.80314E-03         0.40774E-03         0.00000E+00
    0.80951E-03         0.13510E-03         0.00000E+00
    0.33630E-04         0.50270E-02         0.00000E+00
    0.98633E-04         0.49489E-02         0.00000E+00
    0.15713E-03         0.48414E-02         0.00000E+00
    0.20668E-03         0.47100E-02         0.00000E+00
    0.24772E-03         0.45603E-02         0.00000E+00
    0.28266E-03         0.43969E-02         0.00000E+00
    0.31462E-03         0.42223E-02         0.00000E+00
    0.34639E-03         0.40380E-02         0.00000E+00
    0.37994E-03         0.38443E-02         0.00000E+00
    0.41631E-03         0.36414E-02         0.00000E+00
    0.45579E-03         0.34293E-02         0.00000E+00
    0.49814E-03         0.32085E-02         0.00000E+00
    0.54269E-03         0.29792E-02         0.00000E+00
    0.58855E-03         0.27421E-02         0.00000E+00
    0.63466E-03         0.24979E-02         0.00000E+00
    0.67991E-03         0.22474E-02         0.00000E+00
    0.72313E-03         0.19914E-02         0.00000E+00
    0.76323E-03         0.17310E-02         0.00000E+00
    0.79926E-03         0.14672E-02         0.00000E+00
    0.83039E-03         0.12010E-02         0.00000E+00
    0.85601E-03         0.93345E-03         0.00000E+00
    0.87562E-03         0.66548E-03         0.00000E+00
    0.88888E-03         0.39797E-03         0.00000E+00
    0.89555E-03         0.13182E-03         0.00000E+00
    0.30846E-04         0.49625E-02         0.00000E+00
    0.91374E-04         0.48878E-02         0.00000E+00
    0.14844E-03         0.47869E-02         0.00000E+00
    0.20058E-03         0.46628E-02         0.00000E+00
    0.24777E-03         0.45193E-02         0.00000E+00
    0.29121E-03         0.43596E-02         0.00000E+00
    0.33264E-03         0.41863E-02         0.00000E+00
    0.37380E-03         0.40011E-02         0.00000E+00
    0.41603E-03         0.38054E-02         0.00000E+00
    0.46011E-03         0.35998E-02         0.00000E+00
    0.50630E-03         0.33852E-02         0.00000E+00
    0.55439E-03         0.31622E-02         0.00000E+00
    0.60383E-03         0.29315E-02         0.00000E+00
    0.65383E-03         0.26940E-02         0.00000E+00
    0.70344E-03         0.24504E-02         0.00000E+00
    0.75162E-03         0.22015E-02         0.00000E+00
    0.79730E-03         0.19484E-02         0.00000E+00
    0.83948E-03         0.16918E-02         0.00000E+00
    0.87724E-03         0.14326E-02         0.00000E+00
    0.90979E-03         0.11719E-02         0.00000E+00
    0.93649E-03         0.91027E-03         0.00000E+00
    0.95689E-03         0.64866E-03         0.00000E+00
    0.97062E-03         0.38779E-03         0.00000E+00
    0.97752E-03         0.12843E-03         0.00000E+00
    0.30608E-04         0.49011E-02         0.00000E+00
    0.91081E-04         0.48283E-02         0.00000E+00
    0.14947E-03         0.47310E-02         0.00000E+00
    0.20497E-03         0.46111E-02         0.00000E+00
    0.25756E-03         0.44712E-02         0.00000E+00
    0.30787E-03         0.43139E-02         0.00000E+00
    0.35692E-03         0.41415E-02         0.00000E+00
    0.40576E-03         0.39559E-02         0.00000E+00
    0.45526E-03         0.37589E-02         0.00000E+00
    0.50592E-03         0.35516E-02         0.00000E+00
    0.55790E-03         0.33353E-02         0.00000E+00
    0.61097E-03         0.31110E-02         0.00000E+00
    0.66463E-03         0.28796E-02         0.00000E+00
    0.71817E-03         0.26423E-02         0.00000E+00
    0.77071E-03         0.23999E-02         0.00000E+00
    0.82129E-03         0.21533E-02         0.00000E+00
    0.86894E-03         0.19033E-02         0.00000E+00
    0.91273E-03         0.16509E-02         0.00000E+00
    0.95177E-03         0.13967E-02         0.00000E+00
    0.98533E-03         0.11417E-02         0.00000E+00
    0.10128E-02         0.88630E-03         0.00000E+00
    0.10337E-02         0.63133E-03         0.00000E+00
    0.10478E-02         0.37735E-03         0.00000E+00
    0.10548E-02         0.12496E-03         0.00000E+00
    0.31937E-04         0.48385E-02         0.00000E+00
    0.95140E-04         0.47671E-02         0.00000E+00
    0.15674E-03         0.46721E-02         0.00000E+00
    0.21639E-03         0.45548E-02         0.00000E+00
    0.27417E-03         0.44171E-02         0.00000E+00
    0.33047E-03         0.42613E-02         0.00000E+00
    0.38593E-03         0.40895E-02         0.00000E+00
    0.44119E-03         0.39038E-02         0.00000E+00
    0.49679E-03         0.37059E-02         0.00000E+00
    0.55301E-03         0.34976E-02         0.00000E+00
    0.60988E-03         0.32804E-02         0.00000E+00
    0.66716E-03         0.30555E-02         0.00000E+00
    0.72435E-03         0.28242E-02         0.00000E+00
    0.78080E-03         0.25877E-02         0.00000E+00
    0.83569E-03         0.23470E-02         0.00000E+00
    0.88816E-03         0.21031E-02         0.00000E+00
    0.93729E-03         0.18567E-02         0.00000E+00
    0.98222E-03         0.16088E-02         0.00000E+00
    0.10221E-02         0.13599E-02         0.00000E+00
    0.10564E-02         0.11107E-02         0.00000E+00
    0.10843E-02         0.86183E-03         0.00000E+00
    0.11055E-02         0.61369E-03         0.00000E+00
    0.11197E-02         0.36675E-03         0.00000E+00
    0.11267E-02         0.12147E-03         0.00000E+00
    0.34218E-04         0.47724E-02         0.00000E+00
    0.10187E-03         0.47024E-02         0.00000E+00
    0.16790E-03         0.46092E-02         0.00000E+00
    0.23229E-03         0.44937E-02         0.00000E+00
    0.29520E-03         0.43576E-02         0.00000E+00
    0.35697E-03         0.42028E-02         0.00000E+00
    0.41802E-03         0.40315E-02         0.00000E+00
    0.47875E-03         0.38458E-02         0.00000E+00
    0.53949E-03         0.36476E-02         0.00000E+00
    0.60036E-03         0.34389E-02         0.00000E+00
    0.66131E-03         0.32213E-02         0.00000E+00
    0.72205E-03         0.29965E-02         0.00000E+00
    0.78211E-03         0.27659E-02         0.00000E+00
    0.84086E-03         0.25308E-02         0.00000E+00
    0.89756E-03         0.22923E-02         0.00000E+00
    0.95141E-03         0.20514E-02         0.00000E+00
    0.10016E-02         0.18090E-02         0.00000E+00
    0.10472E-02         0.15658E-02         0.00000E+00
    0.10876E-02         0.13225E-02         0.00000E+00
    0.11222E-02         0.10794E-02         0.00000E+00
    0.11503E-02         0.83713E-03         0.00000E+00
    0.11715E-02         0.59592E-03         0.00000E+00
    0.11857E-02         0.35611E-03         0.00000E+00
    0.11928E-02         0.11798E-03         0.00000E+00
    0.37034E-04         0.47011E-02         0.00000E+00
    0.11010E-03         0.46330E-02         0.00000E+00
    0.18126E-03         0.45415E-02         0.00000E+00
    0.25071E-03         0.44276E-02         0.00000E+00
    0.31871E-03         0.42928E-02         0.00000E+00
    0.38555E-03         0.41390E-02         0.00000E+00
    0.45156E-03         0.39683E-02         0.00000E+00
    0.51702E-03         0.37828E-02         0.00000E+00
    0.58210E-03         0.35847E-02         0.00000E+00
    0.64686E-03         0.33761E-02         0.00000E+00
    0.71115E-03         0.31589E-02         0.00000E+00
    0.77468E-03         0.29347E-02         0.00000E+00
    0.83698E-03         0.27054E-02         0.00000E+00
    0.89747E-03         0.24722E-02         0.00000E+00
    0.95547E-03         0.22363E-02         0.00000E+00
    0.10102E-02         0.19989E-02         0.00000E+00
    0.10610E-02         0.17607E-02         0.00000E+00
    0.11070E-02         0.15225E-02         0.00000E+00
    0.11476E-02         0.12848E-02         0.00000E+00
    0.11821E-02         0.10480E-02         0.00000E+00
    0.12102E-02         0.81240E-03         0.00000E+00
    0.12314E-02         0.57819E-03         0.00000E+00
    0.12455E-02         0.34553E-03         0.00000E+00
    0.12525E-02         0.11452E-03         0.00000E+00
    0.40083E-04         0.46240E-02         0.00000E+00
    0.11900E-03         0.45581E-02         0.00000E+00
    0.19558E-03         0.44686E-02         0.00000E+00
    0.27017E-03         0.43564E-02         0.00000E+00
    0.34308E-03         0.42230E-02         0.00000E+00
    0.41462E-03         0.40704E-02         0.00000E+00
    0.48507E-03         0.39005E-02         0.00000E+00
    0.55462E-03         0.37156E-02         0.00000E+00
    0.62339E-03         0.35181E-02         0.00000E+00
    0.69135E-03         0.33101E-02         0.00000E+00
    0.75833E-03         0.30936E-02         0.00000E+00
    0.82404E-03         0.28707E-02         0.00000E+00
    0.88803E-03         0.26431E-02         0.00000E+00
    0.94975E-03         0.24122E-02         0.00000E+00
    0.10086E-02         0.21794E-02         0.00000E+00
    0.10638E-02         0.19457E-02         0.00000E+00
    0.11148E-02         0.17121E-02         0.00000E+00
    0.11609E-02         0.14791E-02         0.00000E+00
    0.12013E-02         0.12472E-02         0.00000E+00
    0.12357E-02         0.10167E-02         0.00000E+00
    0.12635E-02         0.78783E-03         0.00000E+00
    0.12845E-02         0.56063E-03         0.00000E+00
    0.12984E-02         0.33507E-03         0.00000E+00
    0.13052E-02         0.11112E-03         0.00000E+00
    0.43144E-04         0.45408E-02         0.00000E+00
    0.12792E-03         0.44776E-02         0.00000E+00
    0.20989E-03         0.43905E-02         0.00000E+00
    0.28946E-03         0.42803E-02         0.00000E+00
    0.36702E-03         0.41486E-02         0.00000E+00
    0.44286E-03         0.39974E-02         0.00000E+00
    0.51725E-03         0.38286E-02         0.00000E+00
    0.59033E-03         0.36448E-02         0.00000E+00
    0.66218E-03         0.34483E-02         0.00000E+00
    0.73275E-03         0.32413E-02         0.00000E+00
    0.80186E-03         0.30263E-02         0.00000E+00
    0.86920E-03         0.28051E-02         0.00000E+00
    0.93438E-03         0.25796E-02         0.00000E+00
    0.99688E-03         0.23515E-02         0.00000E+00
    0.10561E-02         0.21221E-02         0.00000E+00
    0.11115E-02         0.18925E-02         0.00000E+00
    0.11624E-02         0.16635E-02         0.00000E+00
    0.12082E-02         0.14358E-02         0.00000E+00
    0.12483E-02         0.12098E-02         0.00000E+00
    0.12823E-02         0.98572E-03         0.00000E+00
    0.13097E-02         0.76358E-03         0.00000E+00
    0.13303E-02         0.54332E-03         0.00000E+00
    0.13440E-02         0.32480E-03         0.00000E+00
    0.13507E-02         0.10780E-03         0.00000E+00
    0.46047E-04         0.44516E-02         0.00000E+00
    0.13638E-03         0.43917E-02         0.00000E+00
    0.22343E-03         0.43074E-02         0.00000E+00
    0.30767E-03         0.41996E-02         0.00000E+00
    0.38948E-03         0.40700E-02         0.00000E+00
    0.46917E-03         0.39205E-02         0.00000E+00
    0.54699E-03         0.37533E-02         0.00000E+00
    0.62307E-03         0.35710E-02         0.00000E+00
    0.69746E-03         0.33759E-02         0.00000E+00
    0.77010E-03         0.31705E-02         0.00000E+00
    0.84082E-03         0.29572E-02         0.00000E+00
    0.90933E-03         0.27382E-02         0.00000E+00
    0.97526E-03         0.25153E-02         0.00000E+00
    0.10381E-02         0.22903E-02         0.00000E+00
    0.10975E-02         0.20646E-02         0.00000E+00
    0.11527E-02         0.18393E-02         0.00000E+00
    0.12032E-02         0.16152E-02         0.00000E+00
    0.12485E-02         0.13930E-02         0.00000E+00
    0.12881E-02         0.11729E-02         0.00000E+00
    0.13216E-02         0.95520E-03         0.00000E+00
    0.13485E-02         0.73974E-03         0.00000E+00
    0.13687E-02         0.52636E-03         0.00000E+00
    0.13820E-02         0.31475E-03         0.00000E+00
    0.13886E-02         0.10455E-03         0.00000E+00
    0.48667E-04         0.43569E-02         0.00000E+00
    0.14402E-03         0.43008E-02         0.00000E+00
    0.23567E-03         0.42197E-02         0.00000E+00
    0.32408E-03         0.41147E-02         0.00000E+00
    0.40965E-03         0.39875E-02         0.00000E+00
    0.49268E-03         0.38402E-02         0.00000E+00
    0.57341E-03         0.36751E-02         0.00000E+00
    0.65196E-03         0.34946E-02         0.00000E+00
    0.72838E-03         0.33014E-02         0.00000E+00
    0.80260E-03         0.30981E-02         0.00000E+00
    0.87446E-03         0.28871E-02         0.00000E+00
    0.94371E-03         0.26706E-02         0.00000E+00
    0.10100E-02         0.24507E-02         0.00000E+00
    0.10729E-02         0.22292E-02         0.00000E+00
    0.11320E-02         0.20074E-02         0.00000E+00
    0.11868E-02         0.17865E-02         0.00000E+00
    0.12368E-02         0.15675E-02         0.00000E+00
    0.12814E-02         0.13508E-02         0.00000E+00
    0.13204E-02         0.11367E-02         0.00000E+00
    0.13531E-02         0.92527E-03         0.00000E+00
    0.13795E-02         0.71641E-03         0.00000E+00
    0.13992E-02         0.50978E-03         0.00000E+00
    0.14122E-02         0.30494E-03         0.00000E+00
    0.14186E-02         0.10139E-03         0.00000E+00
    0.50916E-04         0.42573E-02         0.00000E+00
    0.15059E-03         0.42053E-02         0.00000E+00
    0.24618E-03         0.41279E-02         0.00000E+00
    0.33817E-03         0.40261E-02         0.00000E+00
    0.42691E-03         0.39018E-02         0.00000E+00
    0.51273E-03         0.37571E-02         0.00000E+00
    0.59583E-03         0.35944E-02         0.00000E+00
    0.67633E-03         0.34162E-02         0.00000E+00
    0.75428E-03         0.32254E-02         0.00000E+00
    0.82962E-03         0.30246E-02         0.00000E+00
    0.90221E-03         0.28162E-02         0.00000E+00
    0.97182E-03         0.26026E-02         0.00000E+00
    0.10381E-02         0.23861E-02         0.00000E+00
    0.11008E-02         0.21682E-02         0.00000E+00
    0.11595E-02         0.19506E-02         0.00000E+00
    0.12136E-02         0.17344E-02         0.00000E+00
    0.12628E-02         0.15204E-02         0.00000E+00
    0.13067E-02         0.13093E-02         0.00000E+00
    0.13448E-02         0.11011E-02         0.00000E+00
    0.13768E-02         0.89599E-03         0.00000E+00
    0.14025E-02         0.69363E-03         0.00000E+00
    0.14217E-02         0.49362E-03         0.00000E+00
    0.14344E-02         0.29540E-03         0.00000E+00
    0.14406E-02         0.98317E-04         0.00000E+00
    0.52733E-04         0.41536E-02         0.00000E+00
    0.15590E-03         0.41061E-02         0.00000E+00
    0.25470E-03         0.40326E-02         0.00000E+00
    0.34957E-03         0.39345E-02         0.00000E+00
    0.44086E-03         0.38134E-02         0.00000E+00
    0.52886E-03         0.36717E-02         0.00000E+00
    0.61377E-03         0.35118E-02         0.00000E+00
    0.69571E-03         0.33364E-02         0.00000E+00
    0.77471E-03         0.31483E-02         0.00000E+00
    0.85074E-03         0.29503E-02         0.00000E+00
    0.92366E-03         0.27449E-02         0.00000E+00
    0.99328E-03         0.25347E-02         0.00000E+00
    0.10593E-02         0.23217E-02         0.00000E+00
    0.11215E-02         0.21078E-02         0.00000E+00
    0.11794E-02         0.18945E-02         0.00000E+00
    0.12328E-02         0.16830E-02         0.00000E+00
    0.12811E-02         0.14743E-02         0.00000E+00
    0.13240E-02         0.12686E-02         0.00000E+00
    0.13613E-02         0.10664E-02         0.00000E+00
    0.13925E-02         0.86744E-03         0.00000E+00
    0.14176E-02         0.67144E-03         0.00000E+00
    0.14363E-02         0.47790E-03         0.00000E+00
    0.14486E-02         0.28612E-03         0.00000E+00
    0.14546E-02         0.95332E-04         0.00000E+00
    0.54083E-04         0.40468E-02         0.00000E+00
    0.15985E-03         0.40040E-02         0.00000E+00
    0.26105E-03         0.39348E-02         0.00000E+00
    0.35807E-03         0.38405E-02         0.00000E+00
    0.45123E-03         0.37230E-02         0.00000E+00
    0.54080E-03         0.35846E-02         0.00000E+00
    0.62695E-03         0.34278E-02         0.00000E+00
    0.70981E-03         0.32555E-02         0.00000E+00
    0.78940E-03         0.30706E-02         0.00000E+00
    0.86569E-03         0.28757E-02         0.00000E+00
    0.93858E-03         0.26737E-02         0.00000E+00
    0.10079E-02         0.24670E-02         0.00000E+00
    0.10734E-02         0.22578E-02         0.00000E+00
    0.11348E-02         0.20480E-02         0.00000E+00
    0.11919E-02         0.18392E-02         0.00000E+00
    0.12443E-02         0.16326E-02         0.00000E+00
    0.12916E-02         0.14290E-02         0.00000E+00
    0.13335E-02         0.12290E-02         0.00000E+00
    0.13699E-02         0.10325E-02         0.00000E+00
    0.14003E-02         0.83964E-03         0.00000E+00
    0.14246E-02         0.64987E-03         0.00000E+00
    0.14428E-02         0.46262E-03         0.00000E+00
    0.14548E-02         0.27710E-03         0.00000E+00
    0.14606E-02         0.92429E-04         0.00000E+00
    0.54952E-04         0.39378E-02         0.00000E+00
    0.16241E-03         0.38998E-02         0.00000E+00
    0.26517E-03         0.38350E-02         0.00000E+00
    0.36357E-03         0.37448E-02         0.00000E+00
    0.45791E-03         0.36311E-02         0.00000E+00
    0.54841E-03         0.34963E-02         0.00000E+00
    0.63524E-03         0.33431E-02         0.00000E+00
    0.71850E-03         0.31742E-02         0.00000E+00
    0.79822E-03         0.29926E-02         0.00000E+00
    0.87438E-03         0.28012E-02         0.00000E+00
    0.94689E-03         0.26028E-02         0.00000E+00
    0.10156E-02         0.23998E-02         0.00000E+00
    0.10803E-02         0.21947E-02         0.00000E+00
    0.11408E-02         0.19892E-02         0.00000E+00
    0.11969E-02         0.17850E-02         0.00000E+00
    0.12481E-02         0.15833E-02         0.00000E+00
    0.12944E-02         0.13849E-02         0.00000E+00
    0.13353E-02         0.11903E-02         0.00000E+00
    0.13706E-02         0.99957E-03         0.00000E+00
    0.14002E-02         0.81261E-03         0.00000E+00
    0.14238E-02         0.62890E-03         0.00000E+00
    0.14415E-02         0.44777E-03         0.00000E+00
    0.14531E-02         0.26834E-03         0.00000E+00
    0.14588E-02         0.89604E-04         0.00000E+00
    0.55341E-04         0.38275E-02         0.00000E+00
    0.16357E-03         0.37944E-02         0.00000E+00
    0.26705E-03         0.37342E-02         0.00000E+00
    0.36607E-03         0.36482E-02         0.00000E+00
    0.46090E-03         0.35385E-02         0.00000E+00
    0.55171E-03         0.34076E-02         0.00000E+00
    0.63865E-03         0.32580E-02         0.00000E+00
    0.72182E-03         0.30928E-02         0.00000E+00
    0.80123E-03         0.29149E-02         0.00000E+00
    0.87688E-03         0.27272E-02         0.00000E+00
    0.94869E-03         0.25325E-02         0.00000E+00
    0.10165E-02         0.23335E-02         0.00000E+00
    0.10802E-02         0.21325E-02         0.00000E+00
    0.11396E-02         0.19314E-02         0.00000E+00
    0.11945E-02         0.17319E-02         0.00000E+00
    0.12446E-02         0.15350E-02         0.00000E+00
    0.12896E-02         0.13418E-02         0.00000E+00
    0.13294E-02         0.11526E-02         0.00000E+00
    0.13638E-02         0.96754E-03         0.00000E+00
    0.13925E-02         0.78636E-03         0.00000E+00
    0.14154E-02         0.60855E-03         0.00000E+00
    0.14326E-02         0.43336E-03         0.00000E+00
    0.14439E-02         0.25983E-03         0.00000E+00
    0.14494E-02         0.86853E-04         0.00000E+00
    0.55268E-04         0.37169E-02         0.00000E+00
    0.16338E-03         0.36887E-02         0.00000E+00
    0.26677E-03         0.36330E-02         0.00000E+00
    0.36567E-03         0.35514E-02         0.00000E+00
    0.46030E-03         0.34459E-02         0.00000E+00
    0.55081E-03         0.33189E-02         0.00000E+00
    0.63733E-03         0.31732E-02         0.00000E+00
    0.71992E-03         0.30118E-02         0.00000E+00
    0.79860E-03         0.28377E-02         0.00000E+00
    0.87338E-03         0.26539E-02         0.00000E+00
    0.94417E-03         0.24632E-02         0.00000E+00
    0.10109E-02         0.22683E-02         0.00000E+00
    0.10734E-02         0.20715E-02         0.00000E+00
    0.11315E-02         0.18749E-02         0.00000E+00
    0.11851E-02         0.16800E-02         0.00000E+00
    0.12338E-02         0.14880E-02         0.00000E+00
    0.12777E-02         0.12999E-02         0.00000E+00
    0.13163E-02         0.11160E-02         0.00000E+00
    0.13497E-02         0.93644E-03         0.00000E+00
    0.13775E-02         0.76090E-03         0.00000E+00
    0.13997E-02         0.58881E-03         0.00000E+00
    0.14164E-02         0.41938E-03         0.00000E+00
    0.14273E-02         0.25155E-03         0.00000E+00
    0.14327E-02         0.84171E-04         0.00000E+00
    0.54759E-04         0.36069E-02         0.00000E+00
    0.16191E-03         0.35835E-02         0.00000E+00
    0.26443E-03         0.35324E-02         0.00000E+00
    0.36251E-03         0.34551E-02         0.00000E+00
    0.45630E-03         0.33538E-02         0.00000E+00
    0.54593E-03         0.32309E-02         0.00000E+00
    0.63150E-03         0.30892E-02         0.00000E+00
    0.71305E-03         0.29317E-02         0.00000E+00
    0.79061E-03         0.27616E-02         0.00000E+00
    0.86416E-03         0.25817E-02         0.00000E+00
    0.93365E-03         0.23951E-02         0.00000E+00
    0.99899E-03         0.22044E-02         0.00000E+00
    0.10601E-02         0.20119E-02         0.00000E+00
    0.11168E-02         0.18197E-02         0.00000E+00
    0.11689E-02         0.16295E-02         0.00000E+00
    0.12163E-02         0.14424E-02         0.00000E+00
    0.12588E-02         0.12593E-02         0.00000E+00
    0.12963E-02         0.10806E-02         0.00000E+00
    0.13286E-02         0.90631E-03         0.00000E+00
    0.13556E-02         0.73622E-03         0.00000E+00
    0.13771E-02         0.56968E-03         0.00000E+00
    0.13932E-02         0.40580E-03         0.00000E+00
    0.14039E-02         0.24351E-03         0.00000E+00
    0.14091E-02         0.81555E-04         0.00000E+00
    0.53848E-04         0.34983E-02         0.00000E+00
    0.15927E-03         0.34795E-02         0.00000E+00
    0.26020E-03         0.34329E-02         0.00000E+00
    0.35679E-03         0.33599E-02         0.00000E+00
    0.44914E-03         0.32628E-02         0.00000E+00
    0.53734E-03         0.31440E-02         0.00000E+00
    0.62146E-03         0.30064E-02         0.00000E+00
    0.70155E-03         0.28529E-02         0.00000E+00
    0.77760E-03         0.26868E-02         0.00000E+00
    0.84961E-03         0.25110E-02         0.00000E+00
    0.91752E-03         0.23285E-02         0.00000E+00
    0.98126E-03         0.21419E-02         0.00000E+00
    0.10407E-02         0.19538E-02         0.00000E+00
    0.10959E-02         0.17660E-02         0.00000E+00
    0.11465E-02         0.15804E-02         0.00000E+00
    0.11924E-02         0.13981E-02         0.00000E+00
    0.12336E-02         0.12199E-02         0.00000E+00
    0.12699E-02         0.10462E-02         0.00000E+00
    0.13011E-02         0.87715E-03         0.00000E+00
    0.13272E-02         0.71234E-03         0.00000E+00
    0.13480E-02         0.55115E-03         0.00000E+00
    0.13636E-02         0.39265E-03         0.00000E+00
    0.13739E-02         0.23570E-03         0.00000E+00
    0.13791E-02         0.79003E-04         0.00000E+00
    0.52575E-04         0.33918E-02         0.00000E+00
    0.15556E-03         0.33775E-02         0.00000E+00
    0.25425E-03         0.33352E-02         0.00000E+00
    0.34873E-03         0.32665E-02         0.00000E+00
    0.43908E-03         0.31735E-02         0.00000E+00
    0.52535E-03         0.30588E-02         0.00000E+00
    0.60758E-03         0.29252E-02         0.00000E+00
    0.68580E-03         0.27758E-02         0.00000E+00
    0.75999E-03         0.26137E-02         0.00000E+00
    0.83015E-03         0.24419E-02         0.00000E+00
    0.89623E-03         0.22635E-02         0.00000E+00
    0.95816E-03         0.20812E-02         0.00000E+00
    0.10159E-02         0.18973E-02         0.00000E+00
    0.10693E-02         0.17140E-02         0.00000E+00
    0.11182E-02         0.15329E-02         0.00000E+00
    0.11627E-02         0.13552E-02         0.00000E+00
    0.12024E-02         0.11818E-02         0.00000E+00
    0.12375E-02         0.10130E-02         0.00000E+00
    0.12676E-02         0.84897E-03         0.00000E+00
    0.12928E-02         0.68926E-03         0.00000E+00
    0.13129E-02         0.53322E-03         0.00000E+00
    0.13280E-02         0.37990E-03         0.00000E+00
    0.13380E-02         0.22811E-03         0.00000E+00
    0.13430E-02         0.76514E-04         0.00000E+00
    0.50981E-04         0.32883E-02         0.00000E+00
    0.15090E-03         0.32782E-02         0.00000E+00
    0.24676E-03         0.32400E-02         0.00000E+00
    0.33860E-03         0.31754E-02         0.00000E+00
    0.42644E-03         0.30865E-02         0.00000E+00
    0.51032E-03         0.29757E-02         0.00000E+00
    0.59024E-03         0.28461E-02         0.00000E+00
    0.66621E-03         0.27007E-02         0.00000E+00
    0.73823E-03         0.25425E-02         0.00000E+00
    0.80626E-03         0.23748E-02         0.00000E+00
    0.87026E-03         0.22005E-02         0.00000E+00
    0.93019E-03         0.20223E-02         0.00000E+00
    0.98597E-03         0.18427E-02         0.00000E+00
    0.10375E-02         0.16637E-02         0.00000E+00
    0.10847E-02         0.14870E-02         0.00000E+00
    0.11276E-02         0.13138E-02         0.00000E+00
    0.11659E-02         0.11450E-02         0.00000E+00
    0.11996E-02         0.98103E-03         0.00000E+00
    0.12286E-02         0.82181E-03         0.00000E+00
    0.12529E-02         0.66700E-03         0.00000E+00
    0.12723E-02         0.51591E-03         0.00000E+00
    0.12869E-02         0.36756E-03         0.00000E+00
    0.12966E-02         0.22075E-03         0.00000E+00
    0.13014E-02         0.74088E-04         0.00000E+00
    0.49108E-04         0.31882E-02         0.00000E+00
    0.14543E-03         0.31820E-02         0.00000E+00
    0.23794E-03         0.31478E-02         0.00000E+00
    0.32664E-03         0.30871E-02         0.00000E+00
    0.41153E-03         0.30020E-02         0.00000E+00
    0.49260E-03         0.28952E-02         0.00000E+00
    0.56984E-03         0.27695E-02         0.00000E+00
    0.64324E-03         0.26279E-02         0.00000E+00
    0.71278E-03         0.24737E-02         0.00000E+00
    0.77842E-03         0.23100E-02         0.00000E+00
    0.84014E-03         0.21397E-02         0.00000E+00
    0.89787E-03         0.19655E-02         0.00000E+00
    0.95156E-03         0.17900E-02         0.00000E+00
    0.10011E-02         0.16152E-02         0.00000E+00
    0.10465E-02         0.14428E-02         0.00000E+00
    0.10877E-02         0.12740E-02         0.00000E+00
    0.11245E-02         0.11097E-02         0.00000E+00
    0.11568E-02         0.95027E-03         0.00000E+00
    0.11847E-02         0.79567E-03         0.00000E+00
    0.12080E-02         0.64556E-03         0.00000E+00
    0.12267E-02         0.49922E-03         0.00000E+00
    0.12408E-02         0.35565E-03         0.00000E+00
    0.12501E-02         0.21362E-03         0.00000E+00
    0.12548E-02         0.71729E-04         0.00000E+00
    0.47001E-04         0.30921E-02         0.00000E+00
    0.13925E-03         0.30896E-02         0.00000E+00
    0.22797E-03         0.30590E-02         0.00000E+00
    0.31312E-03         0.30020E-02         0.00000E+00
    0.39465E-03         0.29207E-02         0.00000E+00
    0.47255E-03         0.28176E-02         0.00000E+00
    0.54678E-03         0.26956E-02         0.00000E+00
    0.61731E-03         0.25579E-02         0.00000E+00
    0.68410E-03         0.24075E-02         0.00000E+00
    0.74714E-03         0.22476E-02         0.00000E+00
    0.80636E-03         0.20811E-02         0.00000E+00
    0.86173E-03         0.19109E-02         0.00000E+00
    0.91319E-03         0.17394E-02         0.00000E+00
    0.96069E-03         0.15687E-02         0.00000E+00
    0.10042E-02         0.14004E-02         0.00000E+00
    0.10435E-02         0.12359E-02         0.00000E+00
    0.10788E-02         0.10759E-02         0.00000E+00
    0.11097E-02         0.92077E-03         0.00000E+00
    0.11364E-02         0.77060E-03         0.00000E+00
    0.11588E-02         0.62498E-03         0.00000E+00
    0.11767E-02         0.48317E-03         0.00000E+00
    0.11902E-02         0.34417E-03         0.00000E+00
    0.11992E-02         0.20674E-03         0.00000E+00
    0.12037E-02         0.69440E-04         0.00000E+00
    0.44698E-04         0.30004E-02         0.00000E+00
    0.13249E-03         0.30012E-02         0.00000E+00
    0.21704E-03         0.29741E-02         0.00000E+00
    0.29828E-03         0.29206E-02         0.00000E+00
    0.37612E-03         0.28428E-02         0.00000E+00
    0.45053E-03         0.27432E-02         0.00000E+00
    0.52145E-03         0.26249E-02         0.00000E+00
    0.58885E-03         0.24907E-02         0.00000E+00
    0.65267E-03         0.23440E-02         0.00000E+00
    0.71288E-03         0.21878E-02         0.00000E+00
    0.76943E-03         0.20251E-02         0.00000E+00
    0.82228E-03         0.18587E-02         0.00000E+00
    0.87139E-03         0.16911E-02         0.00000E+00
    0.91669E-03         0.15243E-02         0.00000E+00
    0.95814E-03         0.13600E-02         0.00000E+00
    0.99569E-03         0.11994E-02         0.00000E+00
    0.10293E-02         0.10435E-02         0.00000E+00
    0.10588E-02         0.89257E-03         0.00000E+00
    0.10843E-02         0.74663E-03         0.00000E+00
    0.11056E-02         0.60527E-03         0.00000E+00
    0.11228E-02         0.46779E-03         0.00000E+00
    0.11357E-02         0.33315E-03         0.00000E+00
    0.11444E-02         0.20011E-03         0.00000E+00
    0.11487E-02         0.67225E-04         0.00000E+00
    0.42238E-04         0.29134E-02         0.00000E+00
    0.12527E-03         0.29173E-02         0.00000E+00
    0.20534E-03         0.28933E-02         0.00000E+00
    0.28235E-03         0.28431E-02         0.00000E+00
    0.35622E-03         0.27686E-02         0.00000E+00
    0.42687E-03         0.26724E-02         0.00000E+00
    0.49424E-03         0.25574E-02         0.00000E+00
    0.55827E-03         0.24267E-02         0.00000E+00
    0.61891E-03         0.22835E-02         0.00000E+00
    0.67611E-03         0.21309E-02         0.00000E+00
    0.72983E-03         0.19718E-02         0.00000E+00
    0.78002E-03         0.18090E-02         0.00000E+00
    0.82665E-03         0.16451E-02         0.00000E+00
    0.86966E-03         0.14820E-02         0.00000E+00
    0.90901E-03         0.13215E-02         0.00000E+00
    0.94465E-03         0.11648E-02         0.00000E+00
    0.97653E-03         0.10127E-02         0.00000E+00
    0.10046E-02         0.86573E-03         0.00000E+00
    0.10288E-02         0.72378E-03         0.00000E+00
    0.10491E-02         0.58648E-03         0.00000E+00
    0.10655E-02         0.45309E-03         0.00000E+00
    0.10778E-02         0.32260E-03         0.00000E+00
    0.10860E-02         0.19374E-03         0.00000E+00
    0.10902E-02         0.65091E-04         0.00000E+00
    0.39656E-04         0.28315E-02         0.00000E+00
    0.11767E-03         0.28382E-02         0.00000E+00
    0.19301E-03         0.28171E-02         0.00000E+00
    0.26557E-03         0.27698E-02         0.00000E+00
    0.33522E-03         0.26983E-02         0.00000E+00
    0.40188E-03         0.26053E-02         0.00000E+00
    0.46548E-03         0.24935E-02         0.00000E+00
    0.52595E-03         0.23661E-02         0.00000E+00
    0.58322E-03         0.22262E-02         0.00000E+00
    0.63725E-03         0.20769E-02         0.00000E+00
    0.68800E-03         0.19213E-02         0.00000E+00
    0.73541E-03         0.17619E-02         0.00000E+00
    0.77945E-03         0.16015E-02         0.00000E+00
    0.82007E-03         0.14419E-02         0.00000E+00
    0.85723E-03         0.12850E-02         0.00000E+00
    0.89090E-03         0.11319E-02         0.00000E+00
    0.92102E-03         0.98356E-03         0.00000E+00
    0.94756E-03         0.84029E-03         0.00000E+00
    0.97047E-03         0.70211E-03         0.00000E+00
    0.98969E-03         0.56863E-03         0.00000E+00
    0.10052E-02         0.43911E-03         0.00000E+00
    0.10169E-02         0.31254E-03         0.00000E+00
    0.10248E-02         0.18767E-03         0.00000E+00
    0.10287E-02         0.63044E-04         0.00000E+00
    0.36983E-04         0.27549E-02         0.00000E+00
    0.10979E-03         0.27640E-02         0.00000E+00
    0.18022E-03         0.27455E-02         0.00000E+00
    0.24811E-03         0.27009E-02         0.00000E+00
    0.31335E-03         0.26323E-02         0.00000E+00
    0.37584E-03         0.25422E-02         0.00000E+00
    0.43550E-03         0.24334E-02         0.00000E+00
    0.49223E-03         0.23091E-02         0.00000E+00
    0.54599E-03         0.21723E-02         0.00000E+00
    0.59671E-03         0.20261E-02         0.00000E+00
    0.64436E-03         0.18737E-02         0.00000E+00
    0.68887E-03         0.17176E-02         0.00000E+00
    0.73022E-03         0.15604E-02         0.00000E+00
    0.76837E-03         0.14042E-02         0.00000E+00
    0.80328E-03         0.12506E-02         0.00000E+00
    0.83490E-03         0.11010E-02         0.00000E+00
    0.86321E-03         0.95606E-03         0.00000E+00
    0.88817E-03         0.81629E-03         0.00000E+00
    0.90972E-03         0.68165E-03         0.00000E+00
    0.92783E-03         0.55175E-03         0.00000E+00
    0.94244E-03         0.42588E-03         0.00000E+00
    0.95350E-03         0.30301E-03         0.00000E+00
    0.96095E-03         0.18189E-03         0.00000E+00
    0.96471E-03         0.61092E-04         0.00000E+00
    0.34245E-04         0.26837E-02         0.00000E+00
    0.10172E-03         0.26950E-02         0.00000E+00
    0.16707E-03         0.26788E-02         0.00000E+00
    0.23016E-03         0.26366E-02         0.00000E+00
    0.29084E-03         0.25706E-02         0.00000E+00
    0.34900E-03         0.24832E-02         0.00000E+00
    0.40456E-03         0.23772E-02         0.00000E+00
    0.45743E-03         0.22557E-02         0.00000E+00
    0.50754E-03         0.21218E-02         0.00000E+00
    0.55484E-03         0.19786E-02         0.00000E+00
    0.59927E-03         0.18291E-02         0.00000E+00
    0.64080E-03         0.16761E-02         0.00000E+00
    0.67937E-03         0.15220E-02         0.00000E+00
    0.71497E-03         0.13689E-02         0.00000E+00
    0.74754E-03         0.12185E-02         0.00000E+00
    0.77707E-03         0.10720E-02         0.00000E+00
    0.80351E-03         0.93030E-03         0.00000E+00
    0.82683E-03         0.79378E-03         0.00000E+00
    0.84699E-03         0.66244E-03         0.00000E+00
    0.86395E-03         0.53590E-03         0.00000E+00
    0.87764E-03         0.41343E-03         0.00000E+00
    0.88802E-03         0.29402E-03         0.00000E+00
    0.89502E-03         0.17643E-03         0.00000E+00
    0.89857E-03         0.59241E-04         0.00000E+00
    0.31467E-04         0.26180E-02         0.00000E+00
    0.93512E-04         0.26311E-02         0.00000E+00
    0.15369E-03         0.26170E-02         0.00000E+00
    0.21185E-03         0.25771E-02         0.00000E+00
    0.26785E-03         0.25134E-02         0.00000E+00
    0.32158E-03         0.24285E-02         0.00000E+00
    0.37293E-03         0.23250E-02         0.00000E+00
    0.42182E-03         0.22061E-02         0.00000E+00
    0.46818E-03         0.20749E-02         0.00000E+00
    0.51194E-03         0.19344E-02         0.00000E+00
    0.55307E-03         0.17877E-02         0.00000E+00
    0.59152E-03         0.16375E-02         0.00000E+00
    0.62724E-03         0.14863E-02         0.00000E+00
    0.66021E-03         0.13361E-02         0.00000E+00
    0.69040E-03         0.11885E-02         0.00000E+00
    0.71777E-03         0.10450E-02         0.00000E+00
    0.74229E-03         0.90631E-03         0.00000E+00
    0.76393E-03         0.77281E-03         0.00000E+00
    0.78265E-03         0.64453E-03         0.00000E+00
    0.79841E-03         0.52110E-03         0.00000E+00
    0.81115E-03         0.40179E-03         0.00000E+00
    0.82083E-03         0.28561E-03         0.00000E+00
    0.82736E-03         0.17131E-03         0.00000E+00
    0.83068E-03         0.57500E-04         0.00000E+00
    0.28667E-04         0.25578E-02         0.00000E+00
    0.85232E-04         0.25727E-02         0.00000E+00
    0.14017E-03         0.25604E-02         0.00000E+00
    0.19333E-03         0.25225E-02         0.00000E+00
    0.24456E-03         0.24609E-02         0.00000E+00
    0.29375E-03         0.23781E-02         0.00000E+00
    0.34080E-03         0.22770E-02         0.00000E+00
    0.38562E-03         0.21604E-02         0.00000E+00
    0.42814E-03         0.20317E-02         0.00000E+00
    0.46830E-03         0.18937E-02         0.00000E+00
    0.50604E-03         0.17496E-02         0.00000E+00
    0.54134E-03         0.16020E-02         0.00000E+00
    0.57414E-03         0.14533E-02         0.00000E+00
    0.60443E-03         0.13058E-02         0.00000E+00
    0.63217E-03         0.11609E-02         0.00000E+00
    0.65732E-03         0.10201E-02         0.00000E+00
    0.67988E-03         0.88414E-03         0.00000E+00
    0.69979E-03         0.75342E-03         0.00000E+00
    0.71703E-03         0.62796E-03         0.00000E+00
    0.73155E-03         0.50739E-03         0.00000E+00
    0.74331E-03         0.39099E-03         0.00000E+00
    0.75225E-03         0.27779E-03         0.00000E+00
    0.75830E-03         0.16655E-03         0.00000E+00
    0.76137E-03         0.55875E-04         0.00000E+00
    0.25860E-04         0.25033E-02         0.00000E+00
    0.76923E-04         0.25196E-02         0.00000E+00
    0.12659E-03         0.25089E-02         0.00000E+00
    0.17469E-03         0.24727E-02         0.00000E+00
    0.22109E-03         0.24130E-02         0.00000E+00
    0.26568E-03         0.23322E-02         0.00000E+00
    0.30836E-03         0.22331E-02         0.00000E+00
    0.34904E-03         0.21188E-02         0.00000E+00
    0.38764E-03         0.19922E-02         0.00000E+00
    0.42412E-03         0.18565E-02         0.00000E+00
    0.45842E-03         0.17147E-02         0.00000E+00
    0.49051E-03         0.15694E-02         0.00000E+00
    0.52033E-03         0.14232E-02         0.00000E+00
    0.54788E-03         0.12780E-02         0.00000E+00
    0.57311E-03         0.11357E-02         0.00000E+00
    0.59601E-03         0.99732E-03         0.00000E+00
    0.61655E-03         0.86384E-03         0.00000E+00
    0.63470E-03         0.73566E-03         0.00000E+00
    0.65042E-03         0.61276E-03         0.00000E+00
    0.66367E-03         0.49480E-03         0.00000E+00
    0.67442E-03         0.38107E-03         0.00000E+00
    0.68259E-03         0.27060E-03         0.00000E+00
    0.68813E-03         0.16216E-03         0.00000E+00
    0.69095E-03         0.54373E-04         0.00000E+00
    0.23060E-04         0.24544E-02         0.00000E+00
    0.68622E-04         0.24719E-02         0.00000E+00
    0.11299E-03         0.24626E-02         0.00000E+00
    0.15601E-03         0.24279E-02         0.00000E+00
    0.19754E-03         0.23699E-02         0.00000E+00
    0.23749E-03         0.22908E-02         0.00000E+00
    0.27574E-03         0.21936E-02         0.00000E+00
    0.31222E-03         0.20811E-02         0.00000E+00
    0.34686E-03         0.19566E-02         0.00000E+00
    0.37961E-03         0.18229E-02         0.00000E+00
    0.41041E-03         0.16832E-02         0.00000E+00
    0.43923E-03         0.15401E-02         0.00000E+00
    0.46603E-03         0.13960E-02         0.00000E+00
    0.49078E-03         0.12530E-02         0.00000E+00
    0.51347E-03         0.11128E-02         0.00000E+00
    0.53407E-03         0.97668E-03         0.00000E+00
    0.55256E-03         0.84546E-03         0.00000E+00
    0.56889E-03         0.71956E-03         0.00000E+00
    0.58306E-03         0.59898E-03         0.00000E+00
    0.59501E-03         0.48338E-03         0.00000E+00
    0.60471E-03         0.37206E-03         0.00000E+00
    0.61209E-03         0.26405E-03         0.00000E+00
    0.61710E-03         0.15816E-03         0.00000E+00
    0.61966E-03         0.53002E-04         0.00000E+00
    0.20273E-04         0.24111E-02         0.00000E+00
    0.60352E-04         0.24296E-02         0.00000E+00
    0.99424E-04         0.24214E-02         0.00000E+00
    0.13735E-03         0.23881E-02         0.00000E+00
    0.17399E-03         0.23315E-02         0.00000E+00
    0.20926E-03         0.22540E-02         0.00000E+00
    0.24305E-03         0.21584E-02         0.00000E+00
    0.27530E-03         0.20476E-02         0.00000E+00
    0.30593E-03         0.19248E-02         0.00000E+00
    0.33490E-03         0.17930E-02         0.00000E+00
    0.36216E-03         0.16551E-02         0.00000E+00
    0.38766E-03         0.15138E-02         0.00000E+00
    0.41140E-03         0.13716E-02         0.00000E+00
    0.43333E-03         0.12306E-02         0.00000E+00
    0.45343E-03         0.10924E-02         0.00000E+00
    0.47169E-03         0.95824E-03         0.00000E+00
    0.48808E-03         0.82903E-03         0.00000E+00
    0.50258E-03         0.70515E-03         0.00000E+00
    0.51516E-03         0.58664E-03         0.00000E+00
    0.52578E-03         0.47314E-03         0.00000E+00
    0.53440E-03         0.36397E-03         0.00000E+00
    0.54097E-03         0.25818E-03         0.00000E+00
    0.54544E-03         0.15456E-03         0.00000E+00
    0.54772E-03         0.51767E-04         0.00000E+00
    0.17506E-04         0.23733E-02         0.00000E+00
    0.52133E-04         0.23926E-02         0.00000E+00
    0.85924E-04         0.23855E-02         0.00000E+00
    0.11875E-03         0.23533E-02         0.00000E+00
    0.15050E-03         0.22979E-02         0.00000E+00
    0.18107E-03         0.22217E-02         0.00000E+00
    0.21038E-03         0.21275E-02         0.00000E+00
    0.23836E-03         0.20183E-02         0.00000E+00
    0.26495E-03         0.18970E-02         0.00000E+00
    0.29011E-03         0.17667E-02         0.00000E+00
    0.31378E-03         0.16304E-02         0.00000E+00
    0.33595E-03         0.14908E-02         0.00000E+00
    0.35658E-03         0.13503E-02         0.00000E+00
    0.37565E-03         0.12110E-02         0.00000E+00
    0.39314E-03         0.10744E-02         0.00000E+00
    0.40903E-03         0.94204E-03         0.00000E+00
    0.42329E-03         0.81458E-03         0.00000E+00
    0.43592E-03         0.69248E-03         0.00000E+00
    0.44688E-03         0.57578E-03         0.00000E+00
    0.45614E-03         0.46412E-03         0.00000E+00
    0.46366E-03         0.35685E-03         0.00000E+00
    0.46940E-03         0.25299E-03         0.00000E+00
    0.47330E-03         0.15138E-03         0.00000E+00
    0.47530E-03         0.50674E-04         0.00000E+00
    0.14761E-04         0.23410E-02         0.00000E+00
    0.43973E-04         0.23611E-02         0.00000E+00
    0.72505E-04         0.23548E-02         0.00000E+00
    0.10024E-03         0.23235E-02         0.00000E+00
    0.12709E-03         0.22691E-02         0.00000E+00
    0.15295E-03         0.21941E-02         0.00000E+00
    0.17776E-03         0.21011E-02         0.00000E+00
    0.20146E-03         0.19930E-02         0.00000E+00
    0.22399E-03         0.18731E-02         0.00000E+00
    0.24531E-03         0.17441E-02         0.00000E+00
    0.26538E-03         0.16092E-02         0.00000E+00
    0.28418E-03         0.14710E-02         0.00000E+00
    0.30168E-03         0.13320E-02         0.00000E+00
    0.31786E-03         0.11941E-02         0.00000E+00
    0.33270E-03         0.10590E-02         0.00000E+00
    0.34619E-03         0.92809E-03         0.00000E+00
    0.35831E-03         0.80214E-03         0.00000E+00
    0.36903E-03         0.68157E-03         0.00000E+00
    0.37835E-03         0.56642E-03         0.00000E+00
    0.38623E-03         0.45635E-03         0.00000E+00
    0.39263E-03         0.35070E-03         0.00000E+00
    0.39752E-03         0.24851E-03         0.00000E+00
    0.40084E-03         0.14863E-03         0.00000E+00
    0.40254E-03         0.49728E-04         0.00000E+00
    0.12039E-04         0.23142E-02         0.00000E+00
    0.35873E-04         0.23348E-02         0.00000E+00
    0.59171E-04         0.23292E-02         0.00000E+00
    0.81836E-04         0.22987E-02         0.00000E+00
    0.10378E-03         0.22452E-02         0.00000E+00
    0.12494E-03         0.21710E-02         0.00000E+00
    0.14525E-03         0.20790E-02         0.00000E+00
    0.16464E-03         0.19720E-02         0.00000E+00
    0.18309E-03         0.18531E-02         0.00000E+00
    0.20056E-03         0.17253E-02         0.00000E+00
    0.21701E-03         0.15916E-02         0.00000E+00
    0.23241E-03         0.14545E-02         0.00000E+00
    0.24676E-03         0.13166E-02         0.00000E+00
    0.26002E-03         0.11799E-02         0.00000E+00
    0.27220E-03         0.10461E-02         0.00000E+00
    0.28326E-03         0.91643E-03         0.00000E+00
    0.29321E-03         0.79173E-03         0.00000E+00
    0.30201E-03         0.67244E-03         0.00000E+00
    0.30967E-03         0.55858E-03         0.00000E+00
    0.31614E-03         0.44984E-03         0.00000E+00
    0.32140E-03         0.34554E-03         0.00000E+00
    0.32542E-03         0.24476E-03         0.00000E+00
    0.32816E-03         0.14633E-03         0.00000E+00
    0.32956E-03         0.48933E-04         0.00000E+00
    0.93382E-05         0.22928E-02         0.00000E+00
    0.27832E-04         0.23139E-02         0.00000E+00
    0.45922E-04         0.23087E-02         0.00000E+00
    0.63529E-04         0.22788E-02         0.00000E+00
    0.80586E-04         0.22260E-02         0.00000E+00
    0.97037E-04         0.21526E-02         0.00000E+00
    0.11283E-03         0.20613E-02         0.00000E+00
    0.12792E-03         0.19552E-02         0.00000E+00
    0.14228E-03         0.18371E-02         0.00000E+00
    0.15588E-03         0.17102E-02         0.00000E+00
    0.16868E-03         0.15774E-02         0.00000E+00
    0.18068E-03         0.14413E-02         0.00000E+00
    0.19186E-03         0.13043E-02         0.00000E+00
    0.20219E-03         0.11686E-02         0.00000E+00
    0.21168E-03         0.10358E-02         0.00000E+00
    0.22030E-03         0.90708E-03         0.00000E+00
    0.22806E-03         0.78338E-03         0.00000E+00
    0.23493E-03         0.66511E-03         0.00000E+00
    0.24090E-03         0.55229E-03         0.00000E+00
    0.24595E-03         0.44461E-03         0.00000E+00
    0.25006E-03         0.34140E-03         0.00000E+00
    0.25320E-03         0.24174E-03         0.00000E+00
    0.25534E-03         0.14447E-03         0.00000E+00
    0.25643E-03         0.48293E-04         0.00000E+00
    0.66559E-05         0.22768E-02         0.00000E+00
    0.19841E-04         0.22982E-02         0.00000E+00
    0.32744E-04         0.22934E-02         0.00000E+00
    0.45308E-04         0.22640E-02         0.00000E+00
    0.57485E-04         0.22116E-02         0.00000E+00
    0.69232E-04         0.21388E-02         0.00000E+00
    0.80512E-04         0.20481E-02         0.00000E+00
    0.91296E-04         0.19425E-02         0.00000E+00
    0.10156E-03         0.18251E-02         0.00000E+00
    0.11127E-03         0.16989E-02         0.00000E+00
    0.12043E-03         0.15667E-02         0.00000E+00
    0.12901E-03         0.14313E-02         0.00000E+00
    0.13700E-03         0.12951E-02         0.00000E+00
    0.14439E-03         0.11601E-02         0.00000E+00
    0.15117E-03         0.10280E-02         0.00000E+00
    0.15734E-03         0.90006E-03         0.00000E+00
    0.16289E-03         0.77711E-03         0.00000E+00
    0.16781E-03         0.65960E-03         0.00000E+00
    0.17208E-03         0.54756E-03         0.00000E+00
    0.17570E-03         0.44067E-03         0.00000E+00
    0.17864E-03         0.33828E-03         0.00000E+00
    0.18089E-03         0.23946E-03         0.00000E+00
    0.18243E-03         0.14307E-03         0.00000E+00
    0.18321E-03         0.47811E-04         0.00000E+00
    0.39877E-05         0.22662E-02         0.00000E+00
    0.11889E-04         0.22877E-02         0.00000E+00
    0.19623E-04         0.22832E-02         0.00000E+00
    0.27156E-04         0.22540E-02         0.00000E+00
    0.34459E-04         0.22020E-02         0.00000E+00
    0.41505E-04         0.21295E-02         0.00000E+00
    0.48273E-04         0.20393E-02         0.00000E+00
    0.54744E-04         0.19341E-02         0.00000E+00
    0.60902E-04         0.18171E-02         0.00000E+00
    0.66734E-04         0.16914E-02         0.00000E+00
    0.72230E-04         0.15596E-02         0.00000E+00
    0.77380E-04         0.14247E-02         0.00000E+00
    0.82177E-04         0.12890E-02         0.00000E+00
    0.86616E-04         0.11544E-02         0.00000E+00
    0.90692E-04         0.10228E-02         0.00000E+00
    0.94398E-04         0.89536E-03         0.00000E+00
    0.97731E-04         0.77292E-03         0.00000E+00
    0.10068E-03         0.65592E-03         0.00000E+00
    0.10325E-03         0.54440E-03         0.00000E+00
    0.10543E-03         0.43804E-03         0.00000E+00
    0.10720E-03         0.33620E-03         0.00000E+00
    0.10855E-03         0.23794E-03         0.00000E+00
    0.10947E-03         0.14214E-03         0.00000E+00
    0.10994E-03         0.47488E-04         0.00000E+00
    0.13282E-05         0.22609E-02         0.00000E+00
    0.39602E-05         0.22825E-02         0.00000E+00
    0.65370E-05         0.22781E-02         0.00000E+00
    0.90472E-05         0.22491E-02         0.00000E+00
    0.11481E-04         0.21972E-02         0.00000E+00
    0.13829E-04         0.21249E-02         0.00000E+00
    0.16085E-04         0.20349E-02         0.00000E+00
    0.18242E-04         0.19299E-02         0.00000E+00
    0.20295E-04         0.18132E-02         0.00000E+00
    0.22240E-04         0.16876E-02         0.00000E+00
    0.24072E-04         0.15561E-02         0.00000E+00
    0.25789E-04         0.14214E-02         0.00000E+00
    0.27389E-04         0.12859E-02         0.00000E+00
    0.28869E-04         0.11516E-02         0.00000E+00
    0.30228E-04         0.10202E-02         0.00000E+00
    0.31464E-04         0.89302E-03         0.00000E+00
    0.32576E-04         0.77082E-03         0.00000E+00
    0.33561E-04         0.65408E-03         0.00000E+00
    0.34418E-04         0.54282E-03         0.00000E+00
    0.35143E-04         0.43672E-03         0.00000E+00
    0.35733E-04         0.33515E-03         0.00000E+00
    0.36185E-04         0.23718E-03         0.00000E+00
    0.36493E-04         0.14167E-03         0.00000E+00
    0.36650E-04         0.47326E-04         0.00000E+00
POINT_DATA       1225
VECTORS vDarcyNodal double 
    0.88552E-03         0.75908E-03         0.00000E+00
    0.73901E-03         0.14376E-02         0.00000E+00
    0.49859E-03         0.25834E-02         0.00000E+00
    0.26018E-03         0.33173E-02         0.00000E+00
    0.15154E-03         0.37092E-02         0.00000E+00
    0.93647E-04         0.38861E-02         0.00000E+00
    0.61942E-04         0.39449E-02         0.00000E+00
    0.43957E-04         0.39298E-02         0.00000E+00
    0.33796E-04         0.38638E-02         0.00000E+00
    0.28404E-04         0.37593E-02         0.00000E+00
    0.26043E-04         0.36235E-02         0.00000E+00
    0.25624E-04         0.34608E-02         0.00000E+00
    0.26458E-04         0.32746E-02         0.00000E+00
    0.28149E-04         0.30676E-02         0.00000E+00
    0.30439E-04         0.28423E-02         0.00000E+00
    0.33231E-04         0.26008E-02         0.00000E+00
    0.36256E-04         0.23454E-02         0.00000E+00
    0.39802E-04         0.20768E-02         0.00000E+00
    0.42584E-04         0.17959E-02         0.00000E+00
    0.44219E-04         0.15057E-02         0.00000E+00
    0.45696E-04         0.12100E-02         0.00000E+00
    0.47046E-04         0.91027E-03         0.00000E+00
    0.48139E-04         0.60739E-03         0.00000E+00
    0.48848E-04         0.30329E-03         0.00000E+00
    0.49098E-04         0.15119E-03         0.00000E+00
    0.18712E-02         0.90559E-03         0.00000E+00
    0.16470E-02         0.16310E-02         0.00000E+00
    0.86760E-03         0.28228E-02         0.00000E+00
    0.47776E-03         0.34908E-02         0.00000E+00
    0.28130E-03         0.37925E-02         0.00000E+00
    0.17680E-03         0.39309E-02         0.00000E+00
    0.11853E-03         0.39697E-02         0.00000E+00
    0.85161E-04         0.39439E-02         0.00000E+00
    0.66188E-04         0.38716E-02         0.00000E+00
    0.56088E-04         0.37632E-02         0.00000E+00
    0.51702E-04         0.36249E-02         0.00000E+00
    0.51048E-04         0.34606E-02         0.00000E+00
    0.52830E-04         0.32733E-02         0.00000E+00
    0.56238E-04         0.30656E-02         0.00000E+00
    0.60769E-04         0.28397E-02         0.00000E+00
    0.66170E-04         0.25979E-02         0.00000E+00
    0.72242E-04         0.23421E-02         0.00000E+00
    0.78556E-04         0.20736E-02         0.00000E+00
    0.83676E-04         0.17937E-02         0.00000E+00
    0.87692E-04         0.15041E-02         0.00000E+00
    0.91013E-04         0.12085E-02         0.00000E+00
    0.93913E-04         0.90905E-03         0.00000E+00
    0.96186E-04         0.60649E-03         0.00000E+00
    0.97630E-04         0.30281E-03         0.00000E+00
    0.98133E-04         0.15094E-03         0.00000E+00
    0.64128E-02         0.12076E-02         0.00000E+00
    0.26267E-02         0.24412E-02         0.00000E+00
    0.13912E-02         0.37526E-02         0.00000E+00
    0.79749E-03         0.39036E-02         0.00000E+00
    0.48735E-03         0.40102E-02         0.00000E+00
    0.31604E-03         0.40489E-02         0.00000E+00
    0.21763E-03         0.40365E-02         0.00000E+00
    0.16014E-03         0.39822E-02         0.00000E+00
    0.12710E-03         0.38929E-02         0.00000E+00
    0.10950E-03         0.37738E-02         0.00000E+00
    0.10207E-03         0.36285E-02         0.00000E+00
    0.10147E-03         0.34597E-02         0.00000E+00
    0.10543E-03         0.32694E-02         0.00000E+00
    0.11239E-03         0.30597E-02         0.00000E+00
    0.12128E-03         0.28323E-02         0.00000E+00
    0.13134E-03         0.25893E-02         0.00000E+00
    0.14222E-03         0.23330E-02         0.00000E+00
    0.15329E-03         0.20654E-02         0.00000E+00
    0.16381E-03         0.17868E-02         0.00000E+00
    0.17338E-03         0.14984E-02         0.00000E+00
    0.18100E-03         0.12037E-02         0.00000E+00
    0.18733E-03         0.90510E-03         0.00000E+00
    0.19208E-03         0.60367E-03         0.00000E+00
    0.19503E-03         0.30135E-03         0.00000E+00
    0.19604E-03         0.15018E-03         0.00000E+00
    0.49843E-02         0.84777E-02         0.00000E+00
    0.24112E-02         0.66526E-02         0.00000E+00
    0.14174E-02         0.46520E-02         0.00000E+00
    0.88507E-03         0.43947E-02         0.00000E+00
    0.57855E-03         0.42739E-02         0.00000E+00
    0.39565E-03         0.42006E-02         0.00000E+00
    0.28481E-03         0.41256E-02         0.00000E+00
    0.21786E-03         0.40344E-02         0.00000E+00
    0.17882E-03         0.39223E-02         0.00000E+00
    0.15825E-03         0.37882E-02         0.00000E+00
    0.15029E-03         0.36329E-02         0.00000E+00
    0.15110E-03         0.34572E-02         0.00000E+00
    0.15795E-03         0.32624E-02         0.00000E+00
    0.16881E-03         0.30498E-02         0.00000E+00
    0.18207E-03         0.28208E-02         0.00000E+00
    0.19657E-03         0.25770E-02         0.00000E+00
    0.21137E-03         0.23202E-02         0.00000E+00
    0.22650E-03         0.20520E-02         0.00000E+00
    0.24246E-03         0.17736E-02         0.00000E+00
    0.25774E-03         0.14870E-02         0.00000E+00
    0.27028E-03         0.11946E-02         0.00000E+00
    0.28028E-03         0.89797E-03         0.00000E+00
    0.28760E-03         0.59879E-03         0.00000E+00
    0.29206E-03         0.29885E-03         0.00000E+00
    0.29357E-03         0.14892E-03         0.00000E+00
    0.00000E+00         0.63538E-02         0.00000E+00
    0.13766E-02         0.60081E-02         0.00000E+00
    0.10733E-02         0.52787E-02         0.00000E+00
    0.78126E-03         0.47424E-02         0.00000E+00
    0.56414E-03         0.44996E-02         0.00000E+00
    0.41574E-03         0.43426E-02         0.00000E+00
    0.31807E-03         0.42143E-02         0.00000E+00
    0.25632E-03         0.40881E-02         0.00000E+00
    0.21990E-03         0.39525E-02         0.00000E+00
    0.20153E-03         0.38023E-02         0.00000E+00
    0.19616E-03         0.36357E-02         0.00000E+00
    0.20020E-03         0.34520E-02         0.00000E+00
    0.21096E-03         0.32517E-02         0.00000E+00
    0.22632E-03         0.30356E-02         0.00000E+00
    0.24451E-03         0.28046E-02         0.00000E+00
    0.26420E-03         0.25600E-02         0.00000E+00
    0.28439E-03         0.23031E-02         0.00000E+00
    0.30470E-03         0.20343E-02         0.00000E+00
    0.32474E-03         0.17555E-02         0.00000E+00
    0.34357E-03         0.14705E-02         0.00000E+00
    0.36002E-03         0.11812E-02         0.00000E+00
    0.37320E-03         0.88778E-03         0.00000E+00
    0.38280E-03         0.59190E-03         0.00000E+00
    0.38863E-03         0.29538E-03         0.00000E+00
    0.39058E-03         0.14717E-03         0.00000E+00
    0.00000E+00         0.57244E-02         0.00000E+00
    0.46530E-03         0.55793E-02         0.00000E+00
    0.66453E-03         0.52474E-02         0.00000E+00
    0.59393E-03         0.49039E-02         0.00000E+00
    0.48724E-03         0.46394E-02         0.00000E+00
    0.39389E-03         0.44467E-02         0.00000E+00
    0.32465E-03         0.42851E-02         0.00000E+00
    0.27848E-03         0.41326E-02         0.00000E+00
    0.25154E-03         0.39770E-02         0.00000E+00
    0.23984E-03         0.38120E-02         0.00000E+00
    0.23996E-03         0.36342E-02         0.00000E+00
    0.24908E-03         0.34424E-02         0.00000E+00
    0.26489E-03         0.32363E-02         0.00000E+00
    0.28545E-03         0.30162E-02         0.00000E+00
    0.30913E-03         0.27829E-02         0.00000E+00
    0.33453E-03         0.25371E-02         0.00000E+00
    0.36071E-03         0.22797E-02         0.00000E+00
    0.38651E-03         0.20117E-02         0.00000E+00
    0.41050E-03         0.17347E-02         0.00000E+00
    0.43186E-03         0.14517E-02         0.00000E+00
    0.45073E-03         0.11650E-02         0.00000E+00
    0.46621E-03         0.87519E-03         0.00000E+00
    0.47759E-03         0.58336E-03         0.00000E+00
    0.48453E-03         0.29107E-03         0.00000E+00
    0.48687E-03         0.14501E-03         0.00000E+00
    0.96336E-17         0.54232E-02         0.00000E+00
    0.23585E-03         0.53436E-02         0.00000E+00
    0.38186E-03         0.51501E-02         0.00000E+00
    0.42135E-03         0.49197E-02         0.00000E+00
    0.39525E-03         0.46996E-02         0.00000E+00
    0.35358E-03         0.45052E-02         0.00000E+00
    0.31632E-03         0.43297E-02         0.00000E+00
    0.29033E-03         0.41613E-02         0.00000E+00
    0.27680E-03         0.39912E-02         0.00000E+00
    0.27476E-03         0.38139E-02         0.00000E+00
    0.28248E-03         0.36264E-02         0.00000E+00
    0.29811E-03         0.34271E-02         0.00000E+00
    0.31986E-03         0.32153E-02         0.00000E+00
    0.34608E-03         0.29913E-02         0.00000E+00
    0.37530E-03         0.27555E-02         0.00000E+00
    0.40618E-03         0.25085E-02         0.00000E+00
    0.43742E-03         0.22511E-02         0.00000E+00
    0.46771E-03         0.19845E-02         0.00000E+00
    0.49575E-03         0.17102E-02         0.00000E+00
    0.52033E-03         0.14303E-02         0.00000E+00
    0.54143E-03         0.11468E-02         0.00000E+00
    0.55872E-03         0.86092E-03         0.00000E+00
    0.57151E-03         0.57358E-03         0.00000E+00
    0.57935E-03         0.28610E-03         0.00000E+00
    0.58200E-03         0.14251E-03         0.00000E+00
    0.00000E+00         0.52527E-02         0.00000E+00
    0.14062E-03         0.51974E-02         0.00000E+00
    0.24653E-03         0.50619E-02         0.00000E+00
    0.30258E-03         0.48905E-02         0.00000E+00
    0.31858E-03         0.47072E-02         0.00000E+00
    0.31386E-03         0.45256E-02         0.00000E+00
    0.30435E-03         0.43483E-02         0.00000E+00
    0.29837E-03         0.41721E-02         0.00000E+00
    0.29940E-03         0.39926E-02         0.00000E+00
    0.30834E-03         0.38063E-02         0.00000E+00
    0.32479E-03         0.36109E-02         0.00000E+00
    0.34771E-03         0.34050E-02         0.00000E+00
    0.37585E-03         0.31883E-02         0.00000E+00
    0.40785E-03         0.29608E-02         0.00000E+00
    0.44240E-03         0.27228E-02         0.00000E+00
    0.47816E-03         0.24750E-02         0.00000E+00
    0.51379E-03         0.22181E-02         0.00000E+00
    0.54797E-03         0.19534E-02         0.00000E+00
    0.57944E-03         0.16821E-02         0.00000E+00
    0.60722E-03         0.14060E-02         0.00000E+00
    0.63080E-03         0.11266E-02         0.00000E+00
    0.64986E-03         0.84511E-03         0.00000E+00
    0.66388E-03         0.56274E-03         0.00000E+00
    0.67248E-03         0.28059E-03         0.00000E+00
    0.67538E-03         0.13972E-03         0.00000E+00
   -0.18268E-16         0.51420E-02         0.00000E+00
    0.96052E-04         0.50971E-02         0.00000E+00
    0.17697E-03         0.49881E-02         0.00000E+00
    0.23355E-03         0.48477E-02         0.00000E+00
    0.26700E-03         0.46884E-02         0.00000E+00
    0.28509E-03         0.45194E-02         0.00000E+00
    0.29654E-03         0.43452E-02         0.00000E+00
    0.30781E-03         0.41662E-02         0.00000E+00
    0.32259E-03         0.39812E-02         0.00000E+00
    0.34251E-03         0.37885E-02         0.00000E+00
    0.36788E-03         0.35870E-02         0.00000E+00
    0.39828E-03         0.33760E-02         0.00000E+00
    0.43284E-03         0.31552E-02         0.00000E+00
    0.47049E-03         0.29248E-02         0.00000E+00
    0.51002E-03         0.26852E-02         0.00000E+00
    0.55019E-03         0.24371E-02         0.00000E+00
    0.58971E-03         0.21813E-02         0.00000E+00
    0.62730E-03         0.19188E-02         0.00000E+00
    0.66181E-03         0.16509E-02         0.00000E+00
    0.69231E-03         0.13790E-02         0.00000E+00
    0.71814E-03         0.11042E-02         0.00000E+00
    0.73884E-03         0.82784E-03         0.00000E+00
    0.75398E-03         0.55095E-03         0.00000E+00
    0.76322E-03         0.27460E-03         0.00000E+00
    0.76633E-03         0.13670E-03         0.00000E+00
    0.15407E-31         0.50606E-02         0.00000E+00
    0.74310E-04         0.50204E-02         0.00000E+00
    0.14162E-03         0.49244E-02         0.00000E+00
    0.19653E-03         0.48005E-02         0.00000E+00
    0.23838E-03         0.46557E-02         0.00000E+00
    0.27025E-03         0.44961E-02         0.00000E+00
    0.29668E-03         0.43256E-02         0.00000E+00
    0.32183E-03         0.41461E-02         0.00000E+00
    0.34861E-03         0.39579E-02         0.00000E+00
    0.37864E-03         0.37610E-02         0.00000E+00
    0.41251E-03         0.35551E-02         0.00000E+00
    0.45009E-03         0.33401E-02         0.00000E+00
    0.49078E-03         0.31161E-02         0.00000E+00
    0.53370E-03         0.28836E-02         0.00000E+00
    0.57780E-03         0.26431E-02         0.00000E+00
    0.62192E-03         0.23953E-02         0.00000E+00
    0.66485E-03         0.21410E-02         0.00000E+00
    0.70540E-03         0.18813E-02         0.00000E+00
    0.74251E-03         0.16171E-02         0.00000E+00
    0.77526E-03         0.13497E-02         0.00000E+00
    0.80294E-03         0.10800E-02         0.00000E+00
    0.82504E-03         0.80927E-03         0.00000E+00
    0.84112E-03         0.53835E-03         0.00000E+00
    0.85090E-03         0.26823E-03         0.00000E+00
    0.85417E-03         0.13349E-03         0.00000E+00
    0.88700E-17         0.49934E-02         0.00000E+00
    0.64477E-04         0.49554E-02         0.00000E+00
    0.12553E-03         0.48659E-02         0.00000E+00
    0.18004E-03         0.47509E-02         0.00000E+00
    0.22721E-03         0.46146E-02         0.00000E+00
    0.26827E-03         0.44611E-02         0.00000E+00
    0.30559E-03         0.42936E-02         0.00000E+00
    0.34167E-03         0.41143E-02         0.00000E+00
    0.37852E-03         0.39244E-02         0.00000E+00
    0.41744E-03         0.37246E-02         0.00000E+00
    0.45898E-03         0.35156E-02         0.00000E+00
    0.50311E-03         0.32977E-02         0.00000E+00
    0.54941E-03         0.30716E-02         0.00000E+00
    0.59711E-03         0.28377E-02         0.00000E+00
    0.64527E-03         0.25970E-02         0.00000E+00
    0.69283E-03         0.23500E-02         0.00000E+00
    0.73869E-03         0.20978E-02         0.00000E+00
    0.78174E-03         0.18412E-02         0.00000E+00
    0.82098E-03         0.15811E-02         0.00000E+00
    0.85552E-03         0.13185E-02         0.00000E+00
    0.88466E-03         0.10544E-02         0.00000E+00
    0.90784E-03         0.78966E-03         0.00000E+00
    0.92466E-03         0.52510E-03         0.00000E+00
    0.93484E-03         0.26156E-03         0.00000E+00
    0.93823E-03         0.13014E-03         0.00000E+00
    0.00000E+00         0.49317E-02         0.00000E+00
    0.61455E-04         0.48949E-02         0.00000E+00
    0.12100E-03         0.48088E-02         0.00000E+00
    0.17692E-03         0.46988E-02         0.00000E+00
    0.22863E-03         0.45674E-02         0.00000E+00
    0.27670E-03         0.44177E-02         0.00000E+00
    0.32238E-03         0.42522E-02         0.00000E+00
    0.36718E-03         0.40731E-02         0.00000E+00
    0.41238E-03         0.38821E-02         0.00000E+00
    0.45890E-03         0.36806E-02         0.00000E+00
    0.50713E-03         0.34694E-02         0.00000E+00
    0.55706E-03         0.32496E-02         0.00000E+00
    0.60829E-03         0.30221E-02         0.00000E+00
    0.66017E-03         0.27877E-02         0.00000E+00
    0.71183E-03         0.25474E-02         0.00000E+00
    0.76231E-03         0.23019E-02         0.00000E+00
    0.81059E-03         0.20521E-02         0.00000E+00
    0.85565E-03         0.17990E-02         0.00000E+00
    0.89655E-03         0.15433E-02         0.00000E+00
    0.93245E-03         0.12860E-02         0.00000E+00
    0.96266E-03         0.10277E-02         0.00000E+00
    0.98663E-03         0.76927E-03         0.00000E+00
    0.10040E-02         0.51136E-03         0.00000E+00
    0.10144E-02         0.25466E-03         0.00000E+00
    0.10179E-02         0.12671E-03         0.00000E+00
    0.00000E+00         0.48705E-02         0.00000E+00
    0.62546E-04         0.48344E-02         0.00000E+00
    0.12368E-03         0.47504E-02         0.00000E+00
    0.18253E-03         0.46433E-02         0.00000E+00
    0.23883E-03         0.45149E-02         0.00000E+00
    0.29290E-03         0.43674E-02         0.00000E+00
    0.34545E-03         0.42032E-02         0.00000E+00
    0.39740E-03         0.40243E-02         0.00000E+00
    0.44956E-03         0.38327E-02         0.00000E+00
    0.50249E-03         0.36299E-02         0.00000E+00
    0.55644E-03         0.34174E-02         0.00000E+00
    0.61134E-03         0.31966E-02         0.00000E+00
    0.66679E-03         0.29685E-02         0.00000E+00
    0.72219E-03         0.27342E-02         0.00000E+00
    0.77677E-03         0.24948E-02         0.00000E+00
    0.82963E-03         0.22513E-02         0.00000E+00
    0.87982E-03         0.20045E-02         0.00000E+00
    0.92642E-03         0.17552E-02         0.00000E+00
    0.96853E-03         0.15043E-02         0.00000E+00
    0.10054E-02         0.12524E-02         0.00000E+00
    0.10363E-02         0.10002E-02         0.00000E+00
    0.10608E-02         0.74836E-03         0.00000E+00
    0.10784E-02         0.49732E-03         0.00000E+00
    0.10890E-02         0.24764E-03         0.00000E+00
    0.10925E-02         0.12322E-03         0.00000E+00
    0.00000E+00         0.48066E-02         0.00000E+00
    0.66155E-04         0.47712E-02         0.00000E+00
    0.13085E-03         0.46888E-02         0.00000E+00
    0.19378E-03         0.45836E-02         0.00000E+00
    0.25490E-03         0.44571E-02         0.00000E+00
    0.31447E-03         0.43111E-02         0.00000E+00
    0.37298E-03         0.41477E-02         0.00000E+00
    0.43097E-03         0.39690E-02         0.00000E+00
    0.48897E-03         0.37771E-02         0.00000E+00
    0.54730E-03         0.35737E-02         0.00000E+00
    0.60607E-03         0.33606E-02         0.00000E+00
    0.66512E-03         0.31393E-02         0.00000E+00
    0.72408E-03         0.29113E-02         0.00000E+00
    0.78238E-03         0.26778E-02         0.00000E+00
    0.83928E-03         0.24399E-02         0.00000E+00
    0.89397E-03         0.21988E-02         0.00000E+00
    0.94559E-03         0.19553E-02         0.00000E+00
    0.99326E-03         0.17103E-02         0.00000E+00
    0.10362E-02         0.14644E-02         0.00000E+00
    0.10736E-02         0.12182E-02         0.00000E+00
    0.11049E-02         0.97232E-03         0.00000E+00
    0.11296E-02         0.72716E-03         0.00000E+00
    0.11474E-02         0.48312E-03         0.00000E+00
    0.11580E-02         0.24057E-03         0.00000E+00
    0.11615E-02         0.11972E-03         0.00000E+00
    0.00000E+00         0.47382E-02         0.00000E+00
    0.71252E-04         0.47036E-02         0.00000E+00
    0.14072E-03         0.46228E-02         0.00000E+00
    0.20844E-03         0.45192E-02         0.00000E+00
    0.27456E-03         0.43942E-02         0.00000E+00
    0.33935E-03         0.42493E-02         0.00000E+00
    0.40317E-03         0.40866E-02         0.00000E+00
    0.46640E-03         0.39083E-02         0.00000E+00
    0.52936E-03         0.37163E-02         0.00000E+00
    0.59223E-03         0.35128E-02         0.00000E+00
    0.65499E-03         0.32996E-02         0.00000E+00
    0.71747E-03         0.30786E-02         0.00000E+00
    0.77926E-03         0.28512E-02         0.00000E+00
    0.83983E-03         0.26190E-02         0.00000E+00
    0.89850E-03         0.23832E-02         0.00000E+00
    0.95453E-03         0.21450E-02         0.00000E+00
    0.10071E-02         0.19052E-02         0.00000E+00
    0.10554E-02         0.16646E-02         0.00000E+00
    0.10988E-02         0.14239E-02         0.00000E+00
    0.11364E-02         0.11837E-02         0.00000E+00
    0.11679E-02         0.94423E-03         0.00000E+00
    0.11926E-02         0.70589E-03         0.00000E+00
    0.12103E-02         0.46891E-03         0.00000E+00
    0.12209E-02         0.23352E-03         0.00000E+00
    0.12244E-02         0.11624E-03         0.00000E+00
    0.00000E+00         0.46641E-02         0.00000E+00
    0.77117E-04         0.46305E-02         0.00000E+00
    0.15199E-03         0.45516E-02         0.00000E+00
    0.22486E-03         0.44498E-02         0.00000E+00
    0.29602E-03         0.43262E-02         0.00000E+00
    0.36577E-03         0.41825E-02         0.00000E+00
    0.43441E-03         0.40206E-02         0.00000E+00
    0.50222E-03         0.38428E-02         0.00000E+00
    0.56942E-03         0.36512E-02         0.00000E+00
    0.63608E-03         0.34480E-02         0.00000E+00
    0.70213E-03         0.32353E-02         0.00000E+00
    0.76735E-03         0.30150E-02         0.00000E+00
    0.83136E-03         0.27889E-02         0.00000E+00
    0.89365E-03         0.25585E-02         0.00000E+00
    0.95358E-03         0.23252E-02         0.00000E+00
    0.10105E-02         0.20902E-02         0.00000E+00
    0.10636E-02         0.18544E-02         0.00000E+00
    0.11122E-02         0.16186E-02         0.00000E+00
    0.11556E-02         0.13834E-02         0.00000E+00
    0.11933E-02         0.11491E-02         0.00000E+00
    0.12246E-02         0.91618E-03         0.00000E+00
    0.12491E-02         0.68471E-03         0.00000E+00
    0.12667E-02         0.45481E-03         0.00000E+00
    0.12772E-02         0.22653E-03         0.00000E+00
    0.12806E-02         0.11281E-03         0.00000E+00
    0.00000E+00         0.45839E-02         0.00000E+00
    0.83227E-04         0.45516E-02         0.00000E+00
    0.16369E-03         0.44751E-02         0.00000E+00
    0.24178E-03         0.43752E-02         0.00000E+00
    0.31786E-03         0.42533E-02         0.00000E+00
    0.39225E-03         0.41109E-02         0.00000E+00
    0.46524E-03         0.39502E-02         0.00000E+00
    0.53707E-03         0.37733E-02         0.00000E+00
    0.60788E-03         0.35825E-02         0.00000E+00
    0.67769E-03         0.33801E-02         0.00000E+00
    0.74641E-03         0.31683E-02         0.00000E+00
    0.81378E-03         0.29493E-02         0.00000E+00
    0.87946E-03         0.27249E-02         0.00000E+00
    0.94295E-03         0.24968E-02         0.00000E+00
    0.10037E-02         0.22664E-02         0.00000E+00
    0.10610E-02         0.20350E-02         0.00000E+00
    0.11143E-02         0.18034E-02         0.00000E+00
    0.11629E-02         0.15725E-02         0.00000E+00
    0.12062E-02         0.13429E-02         0.00000E+00
    0.12435E-02         0.11148E-02         0.00000E+00
    0.12745E-02         0.88836E-03         0.00000E+00
    0.12987E-02         0.66376E-03         0.00000E+00
    0.13161E-02         0.44089E-03         0.00000E+00
    0.13263E-02         0.21966E-03         0.00000E+00
    0.13297E-02         0.10944E-03         0.00000E+00
    0.00000E+00         0.44976E-02         0.00000E+00
    0.89190E-04         0.44668E-02         0.00000E+00
    0.17511E-03         0.43931E-02         0.00000E+00
    0.25821E-03         0.42956E-02         0.00000E+00
    0.33892E-03         0.41757E-02         0.00000E+00
    0.41758E-03         0.40351E-02         0.00000E+00
    0.49446E-03         0.38758E-02         0.00000E+00
    0.56977E-03         0.37002E-02         0.00000E+00
    0.64362E-03         0.35106E-02         0.00000E+00
    0.71602E-03         0.33095E-02         0.00000E+00
    0.78683E-03         0.30992E-02         0.00000E+00
    0.85584E-03         0.28820E-02         0.00000E+00
    0.92269E-03         0.26597E-02         0.00000E+00
    0.98694E-03         0.24343E-02         0.00000E+00
    0.10481E-02         0.22071E-02         0.00000E+00
    0.11055E-02         0.19796E-02         0.00000E+00
    0.11587E-02         0.17525E-02         0.00000E+00
    0.12070E-02         0.15268E-02         0.00000E+00
    0.12498E-02         0.13028E-02         0.00000E+00
    0.12867E-02         0.10808E-02         0.00000E+00
    0.13172E-02         0.86093E-03         0.00000E+00
    0.13410E-02         0.64315E-03         0.00000E+00
    0.13580E-02         0.42723E-03         0.00000E+00
    0.13680E-02         0.21293E-03         0.00000E+00
    0.13713E-02         0.10615E-03         0.00000E+00
    0.00000E+00         0.44055E-02         0.00000E+00
    0.94714E-04         0.43765E-02         0.00000E+00
    0.18569E-03         0.43060E-02         0.00000E+00
    0.27342E-03         0.42114E-02         0.00000E+00
    0.35834E-03         0.40939E-02         0.00000E+00
    0.44079E-03         0.39554E-02         0.00000E+00
    0.52106E-03         0.37980E-02         0.00000E+00
    0.59933E-03         0.36241E-02         0.00000E+00
    0.67569E-03         0.34362E-02         0.00000E+00
    0.75014E-03         0.32369E-02         0.00000E+00
    0.82256E-03         0.30285E-02         0.00000E+00
    0.89272E-03         0.28135E-02         0.00000E+00
    0.96032E-03         0.25938E-02         0.00000E+00
    0.10249E-02         0.23714E-02         0.00000E+00
    0.10861E-02         0.21478E-02         0.00000E+00
    0.11434E-02         0.19244E-02         0.00000E+00
    0.11961E-02         0.17020E-02         0.00000E+00
    0.12439E-02         0.14814E-02         0.00000E+00
    0.12861E-02         0.12632E-02         0.00000E+00
    0.13224E-02         0.10474E-02         0.00000E+00
    0.13523E-02         0.83401E-03         0.00000E+00
    0.13756E-02         0.62295E-03         0.00000E+00
    0.13922E-02         0.41387E-03         0.00000E+00
    0.14020E-02         0.20636E-03         0.00000E+00
    0.14052E-02         0.10295E-03         0.00000E+00
    0.00000E+00         0.43082E-02         0.00000E+00
    0.99584E-04         0.42811E-02         0.00000E+00
    0.19502E-03         0.42144E-02         0.00000E+00
    0.28683E-03         0.41230E-02         0.00000E+00
    0.37542E-03         0.40083E-02         0.00000E+00
    0.46114E-03         0.38724E-02         0.00000E+00
    0.54427E-03         0.37173E-02         0.00000E+00
    0.62497E-03         0.35456E-02         0.00000E+00
    0.70333E-03         0.33598E-02         0.00000E+00
    0.77933E-03         0.31627E-02         0.00000E+00
    0.85289E-03         0.29567E-02         0.00000E+00
    0.92379E-03         0.27442E-02         0.00000E+00
    0.99175E-03         0.25275E-02         0.00000E+00
    0.10564E-02         0.23085E-02         0.00000E+00
    0.11174E-02         0.20887E-02         0.00000E+00
    0.11741E-02         0.18696E-02         0.00000E+00
    0.12263E-02         0.16520E-02         0.00000E+00
    0.12733E-02         0.14368E-02         0.00000E+00
    0.13148E-02         0.12243E-02         0.00000E+00
    0.13503E-02         0.10146E-02         0.00000E+00
    0.13796E-02         0.80767E-03         0.00000E+00
    0.14024E-02         0.60323E-03         0.00000E+00
    0.14185E-02         0.40085E-03         0.00000E+00
    0.14281E-02         0.19997E-03         0.00000E+00
    0.14312E-02         0.99832E-04         0.00000E+00
    0.00000E+00         0.42064E-02         0.00000E+00
    0.10365E-03         0.41815E-02         0.00000E+00
    0.20284E-03         0.41188E-02         0.00000E+00
    0.29805E-03         0.40310E-02         0.00000E+00
    0.38969E-03         0.39196E-02         0.00000E+00
    0.47809E-03         0.37865E-02         0.00000E+00
    0.56350E-03         0.36342E-02         0.00000E+00
    0.64610E-03         0.34650E-02         0.00000E+00
    0.72595E-03         0.32819E-02         0.00000E+00
    0.80305E-03         0.30873E-02         0.00000E+00
    0.87731E-03         0.28841E-02         0.00000E+00
    0.94856E-03         0.26746E-02         0.00000E+00
    0.10165E-02         0.24612E-02         0.00000E+00
    0.10809E-02         0.22458E-02         0.00000E+00
    0.11414E-02         0.20301E-02         0.00000E+00
    0.11975E-02         0.18154E-02         0.00000E+00
    0.12489E-02         0.16028E-02         0.00000E+00
    0.12950E-02         0.13929E-02         0.00000E+00
    0.13357E-02         0.11861E-02         0.00000E+00
    0.13704E-02         0.98254E-03         0.00000E+00
    0.13989E-02         0.78196E-03         0.00000E+00
    0.14211E-02         0.58402E-03         0.00000E+00
    0.14369E-02         0.38817E-03         0.00000E+00
    0.14461E-02         0.19375E-03         0.00000E+00
    0.14491E-02         0.96803E-04         0.00000E+00
    0.00000E+00         0.41009E-02         0.00000E+00
    0.10682E-03         0.40783E-02         0.00000E+00
    0.20894E-03         0.40200E-02         0.00000E+00
    0.30681E-03         0.39361E-02         0.00000E+00
    0.40082E-03         0.38283E-02         0.00000E+00
    0.49127E-03         0.36985E-02         0.00000E+00
    0.57839E-03         0.35493E-02         0.00000E+00
    0.66233E-03         0.33831E-02         0.00000E+00
    0.74318E-03         0.32029E-02         0.00000E+00
    0.82093E-03         0.30113E-02         0.00000E+00
    0.89550E-03         0.28112E-02         0.00000E+00
    0.96674E-03         0.26050E-02         0.00000E+00
    0.10344E-02         0.23951E-02         0.00000E+00
    0.10983E-02         0.21836E-02         0.00000E+00
    0.11580E-02         0.19722E-02         0.00000E+00
    0.12133E-02         0.17621E-02         0.00000E+00
    0.12637E-02         0.15545E-02         0.00000E+00
    0.13089E-02         0.13500E-02         0.00000E+00
    0.13486E-02         0.11489E-02         0.00000E+00
    0.13825E-02         0.95130E-03         0.00000E+00
    0.14103E-02         0.75692E-03         0.00000E+00
    0.14319E-02         0.56532E-03         0.00000E+00
    0.14472E-02         0.37585E-03         0.00000E+00
    0.14562E-02         0.18770E-03         0.00000E+00
    0.14591E-02         0.93860E-04         0.00000E+00
    0.00000E+00         0.39927E-02         0.00000E+00
    0.10903E-03         0.39725E-02         0.00000E+00
    0.21323E-03         0.39188E-02         0.00000E+00
    0.31299E-03         0.38391E-02         0.00000E+00
    0.40865E-03         0.37351E-02         0.00000E+00
    0.50049E-03         0.36090E-02         0.00000E+00
    0.58872E-03         0.34631E-02         0.00000E+00
    0.67347E-03         0.33003E-02         0.00000E+00
    0.75483E-03         0.31233E-02         0.00000E+00
    0.83279E-03         0.29350E-02         0.00000E+00
    0.90728E-03         0.27383E-02         0.00000E+00
    0.97819E-03         0.25357E-02         0.00000E+00
    0.10453E-02         0.23296E-02         0.00000E+00
    0.11084E-02         0.21222E-02         0.00000E+00
    0.11673E-02         0.19151E-02         0.00000E+00
    0.12215E-02         0.17098E-02         0.00000E+00
    0.12709E-02         0.15072E-02         0.00000E+00
    0.13151E-02         0.13080E-02         0.00000E+00
    0.13538E-02         0.11126E-02         0.00000E+00
    0.13867E-02         0.92088E-03         0.00000E+00
    0.14138E-02         0.73258E-03         0.00000E+00
    0.14347E-02         0.54716E-03         0.00000E+00
    0.14496E-02         0.36387E-03         0.00000E+00
    0.14583E-02         0.18183E-03         0.00000E+00
    0.14611E-02         0.90997E-04         0.00000E+00
    0.00000E+00         0.38828E-02         0.00000E+00
    0.11029E-03         0.38651E-02         0.00000E+00
    0.21569E-03         0.38160E-02         0.00000E+00
    0.31653E-03         0.37407E-02         0.00000E+00
    0.41312E-03         0.36408E-02         0.00000E+00
    0.50569E-03         0.35185E-02         0.00000E+00
    0.59443E-03         0.33763E-02         0.00000E+00
    0.67946E-03         0.32170E-02         0.00000E+00
    0.76085E-03         0.30435E-02         0.00000E+00
    0.83860E-03         0.28588E-02         0.00000E+00
    0.91266E-03         0.26658E-02         0.00000E+00
    0.98292E-03         0.24670E-02         0.00000E+00
    0.10492E-02         0.22649E-02         0.00000E+00
    0.11114E-02         0.20617E-02         0.00000E+00
    0.11691E-02         0.18591E-02         0.00000E+00
    0.12223E-02         0.16585E-02         0.00000E+00
    0.12705E-02         0.14610E-02         0.00000E+00
    0.13135E-02         0.12671E-02         0.00000E+00
    0.13512E-02         0.10772E-02         0.00000E+00
    0.13832E-02         0.89130E-03         0.00000E+00
    0.14095E-02         0.70893E-03         0.00000E+00
    0.14298E-02         0.52952E-03         0.00000E+00
    0.14442E-02         0.35224E-03         0.00000E+00
    0.14527E-02         0.17612E-03         0.00000E+00
    0.14555E-02         0.88211E-04         0.00000E+00
    0.00000E+00         0.37722E-02         0.00000E+00
    0.11061E-03         0.37568E-02         0.00000E+00
    0.21634E-03         0.37126E-02         0.00000E+00
    0.31748E-03         0.36417E-02         0.00000E+00
    0.41427E-03         0.35460E-02         0.00000E+00
    0.50693E-03         0.34277E-02         0.00000E+00
    0.59560E-03         0.32893E-02         0.00000E+00
    0.68038E-03         0.31338E-02         0.00000E+00
    0.76135E-03         0.29641E-02         0.00000E+00
    0.83849E-03         0.27832E-02         0.00000E+00
    0.91177E-03         0.25939E-02         0.00000E+00
    0.98109E-03         0.23991E-02         0.00000E+00
    0.10463E-02         0.22012E-02         0.00000E+00
    0.11073E-02         0.20023E-02         0.00000E+00
    0.11638E-02         0.18042E-02         0.00000E+00
    0.12157E-02         0.16084E-02         0.00000E+00
    0.12627E-02         0.14159E-02         0.00000E+00
    0.13046E-02         0.12273E-02         0.00000E+00
    0.13412E-02         0.10429E-02         0.00000E+00
    0.13723E-02         0.86259E-03         0.00000E+00
    0.13977E-02         0.68598E-03         0.00000E+00
    0.14175E-02         0.51240E-03         0.00000E+00
    0.14315E-02         0.34095E-03         0.00000E+00
    0.14397E-02         0.17056E-03         0.00000E+00
    0.14424E-02         0.85495E-04         0.00000E+00
    0.00000E+00         0.36616E-02         0.00000E+00
    0.11003E-03         0.36487E-02         0.00000E+00
    0.21526E-03         0.36092E-02         0.00000E+00
    0.31594E-03         0.35428E-02         0.00000E+00
    0.41225E-03         0.34513E-02         0.00000E+00
    0.50436E-03         0.33371E-02         0.00000E+00
    0.59239E-03         0.32028E-02         0.00000E+00
    0.67643E-03         0.30512E-02         0.00000E+00
    0.75653E-03         0.28854E-02         0.00000E+00
    0.83268E-03         0.27084E-02         0.00000E+00
    0.90485E-03         0.25232E-02         0.00000E+00
    0.97296E-03         0.23324E-02         0.00000E+00
    0.10369E-02         0.21387E-02         0.00000E+00
    0.10965E-02         0.19441E-02         0.00000E+00
    0.11517E-02         0.17507E-02         0.00000E+00
    0.12022E-02         0.15596E-02         0.00000E+00
    0.12479E-02         0.13721E-02         0.00000E+00
    0.12886E-02         0.11886E-02         0.00000E+00
    0.13241E-02         0.10096E-02         0.00000E+00
    0.13542E-02         0.83475E-03         0.00000E+00
    0.13789E-02         0.66373E-03         0.00000E+00
    0.13980E-02         0.49579E-03         0.00000E+00
    0.14116E-02         0.32998E-03         0.00000E+00
    0.14196E-02         0.16516E-03         0.00000E+00
    0.14222E-02         0.82847E-04         0.00000E+00
    0.00000E+00         0.35521E-02         0.00000E+00
    0.10861E-03         0.35416E-02         0.00000E+00
    0.21257E-03         0.35066E-02         0.00000E+00
    0.31206E-03         0.34447E-02         0.00000E+00
    0.40723E-03         0.33575E-02         0.00000E+00
    0.49820E-03         0.32475E-02         0.00000E+00
    0.58507E-03         0.31173E-02         0.00000E+00
    0.66789E-03         0.29697E-02         0.00000E+00
    0.74670E-03         0.28079E-02         0.00000E+00
    0.82151E-03         0.26349E-02         0.00000E+00
    0.89226E-03         0.24537E-02         0.00000E+00
    0.95891E-03         0.22671E-02         0.00000E+00
    0.10213E-02         0.20776E-02         0.00000E+00
    0.10795E-02         0.18875E-02         0.00000E+00
    0.11331E-02         0.16985E-02         0.00000E+00
    0.11822E-02         0.15122E-02         0.00000E+00
    0.12265E-02         0.13295E-02         0.00000E+00
    0.12659E-02         0.11512E-02         0.00000E+00
    0.13003E-02         0.97729E-03         0.00000E+00
    0.13294E-02         0.80778E-03         0.00000E+00
    0.13533E-02         0.64217E-03         0.00000E+00
    0.13718E-02         0.47969E-03         0.00000E+00
    0.13850E-02         0.31934E-03         0.00000E+00
    0.13928E-02         0.15991E-03         0.00000E+00
    0.13954E-02         0.80263E-04         0.00000E+00
    0.00000E+00         0.34444E-02         0.00000E+00
    0.10642E-03         0.34362E-02         0.00000E+00
    0.20840E-03         0.34057E-02         0.00000E+00
    0.30605E-03         0.33481E-02         0.00000E+00
    0.39947E-03         0.32652E-02         0.00000E+00
    0.48875E-03         0.31593E-02         0.00000E+00
    0.57394E-03         0.30331E-02         0.00000E+00
    0.65510E-03         0.28896E-02         0.00000E+00
    0.73224E-03         0.27318E-02         0.00000E+00
    0.80535E-03         0.25629E-02         0.00000E+00
    0.87440E-03         0.23858E-02         0.00000E+00
    0.93934E-03         0.22033E-02         0.00000E+00
    0.10001E-02         0.20181E-02         0.00000E+00
    0.10565E-02         0.18324E-02         0.00000E+00
    0.11086E-02         0.16479E-02         0.00000E+00
    0.11561E-02         0.14662E-02         0.00000E+00
    0.11990E-02         0.12884E-02         0.00000E+00
    0.12371E-02         0.11149E-02         0.00000E+00
    0.12703E-02         0.94607E-03         0.00000E+00
    0.12984E-02         0.78171E-03         0.00000E+00
    0.13215E-02         0.62132E-03         0.00000E+00
    0.13394E-02         0.46410E-03         0.00000E+00
    0.13522E-02         0.30901E-03         0.00000E+00
    0.13598E-02         0.15479E-03         0.00000E+00
    0.13623E-02         0.77742E-04         0.00000E+00
    0.00000E+00         0.33393E-02         0.00000E+00
    0.10356E-03         0.33332E-02         0.00000E+00
    0.20290E-03         0.33070E-02         0.00000E+00
    0.29811E-03         0.32536E-02         0.00000E+00
    0.38922E-03         0.31749E-02         0.00000E+00
    0.47630E-03         0.30730E-02         0.00000E+00
    0.55937E-03         0.29509E-02         0.00000E+00
    0.63845E-03         0.28114E-02         0.00000E+00
    0.71356E-03         0.26576E-02         0.00000E+00
    0.78466E-03         0.24927E-02         0.00000E+00
    0.85174E-03         0.23197E-02         0.00000E+00
    0.91475E-03         0.21414E-02         0.00000E+00
    0.97360E-03         0.19604E-02         0.00000E+00
    0.10282E-02         0.17790E-02         0.00000E+00
    0.10785E-02         0.15989E-02         0.00000E+00
    0.11244E-02         0.14218E-02         0.00000E+00
    0.11658E-02         0.12486E-02         0.00000E+00
    0.12025E-02         0.10799E-02         0.00000E+00
    0.12345E-02         0.91593E-03         0.00000E+00
    0.12617E-02         0.75653E-03         0.00000E+00
    0.12840E-02         0.60117E-03         0.00000E+00
    0.13013E-02         0.44902E-03         0.00000E+00
    0.13136E-02         0.29900E-03         0.00000E+00
    0.13210E-02         0.14983E-03         0.00000E+00
    0.13234E-02         0.75285E-04         0.00000E+00
    0.00000E+00         0.32373E-02         0.00000E+00
    0.10009E-03         0.32333E-02         0.00000E+00
    0.19624E-03         0.32112E-02         0.00000E+00
    0.28846E-03         0.31618E-02         0.00000E+00
    0.37678E-03         0.30870E-02         0.00000E+00
    0.46119E-03         0.29892E-02         0.00000E+00
    0.54172E-03         0.28710E-02         0.00000E+00
    0.61836E-03         0.27354E-02         0.00000E+00
    0.69109E-03         0.25856E-02         0.00000E+00
    0.75991E-03         0.24247E-02         0.00000E+00
    0.82477E-03         0.22557E-02         0.00000E+00
    0.88563E-03         0.20815E-02         0.00000E+00
    0.94243E-03         0.19046E-02         0.00000E+00
    0.99510E-03         0.17274E-02         0.00000E+00
    0.10436E-02         0.15517E-02         0.00000E+00
    0.10877E-02         0.13790E-02         0.00000E+00
    0.11275E-02         0.12103E-02         0.00000E+00
    0.11628E-02         0.10462E-02         0.00000E+00
    0.11936E-02         0.88691E-03         0.00000E+00
    0.12197E-02         0.73227E-03         0.00000E+00
    0.12412E-02         0.58174E-03         0.00000E+00
    0.12579E-02         0.43445E-03         0.00000E+00
    0.12698E-02         0.28931E-03         0.00000E+00
    0.12769E-02         0.14501E-03         0.00000E+00
    0.12793E-02         0.72892E-04         0.00000E+00
    0.00000E+00         0.31391E-02         0.00000E+00
    0.96109E-04         0.31369E-02         0.00000E+00
    0.18857E-03         0.31186E-02         0.00000E+00
    0.27734E-03         0.30731E-02         0.00000E+00
    0.36241E-03         0.30021E-02         0.00000E+00
    0.44377E-03         0.29081E-02         0.00000E+00
    0.52138E-03         0.27937E-02         0.00000E+00
    0.59523E-03         0.26620E-02         0.00000E+00
    0.66531E-03         0.25161E-02         0.00000E+00
    0.73157E-03         0.23590E-02         0.00000E+00
    0.79399E-03         0.21940E-02         0.00000E+00
    0.85251E-03         0.20237E-02         0.00000E+00
    0.90709E-03         0.18509E-02         0.00000E+00
    0.95767E-03         0.16778E-02         0.00000E+00
    0.10042E-02         0.15063E-02         0.00000E+00
    0.10465E-02         0.13378E-02         0.00000E+00
    0.10847E-02         0.11735E-02         0.00000E+00
    0.11185E-02         0.10138E-02         0.00000E+00
    0.11480E-02         0.85903E-03         0.00000E+00
    0.11731E-02         0.70896E-03         0.00000E+00
    0.11937E-02         0.56304E-03         0.00000E+00
    0.12097E-02         0.42042E-03         0.00000E+00
    0.12212E-02         0.27996E-03         0.00000E+00
    0.12281E-02         0.14034E-03         0.00000E+00
    0.12304E-02         0.70566E-04         0.00000E+00
    0.00000E+00         0.30451E-02         0.00000E+00
    0.91698E-04         0.30447E-02         0.00000E+00
    0.18004E-03         0.30299E-02         0.00000E+00
    0.26497E-03         0.29879E-02         0.00000E+00
    0.34642E-03         0.29206E-02         0.00000E+00
    0.42435E-03         0.28302E-02         0.00000E+00
    0.49873E-03         0.27195E-02         0.00000E+00
    0.56950E-03         0.25915E-02         0.00000E+00
    0.63665E-03         0.24493E-02         0.00000E+00
    0.70012E-03         0.22960E-02         0.00000E+00
    0.75989E-03         0.21347E-02         0.00000E+00
    0.81590E-03         0.19684E-02         0.00000E+00
    0.86811E-03         0.17995E-02         0.00000E+00
    0.91647E-03         0.16303E-02         0.00000E+00
    0.96091E-03         0.14628E-02         0.00000E+00
    0.10014E-02         0.12985E-02         0.00000E+00
    0.10378E-02         0.11383E-02         0.00000E+00
    0.10702E-02         0.98282E-03         0.00000E+00
    0.10984E-02         0.83234E-03         0.00000E+00
    0.11224E-02         0.68662E-03         0.00000E+00
    0.11421E-02         0.54511E-03         0.00000E+00
    0.11574E-02         0.40693E-03         0.00000E+00
    0.11685E-02         0.27095E-03         0.00000E+00
    0.11751E-02         0.13583E-03         0.00000E+00
    0.11773E-02         0.68313E-04         0.00000E+00
    0.00000E+00         0.29557E-02         0.00000E+00
    0.86936E-04         0.29569E-02         0.00000E+00
    0.17082E-03         0.29454E-02         0.00000E+00
    0.25156E-03         0.29067E-02         0.00000E+00
    0.32907E-03         0.28427E-02         0.00000E+00
    0.40328E-03         0.27558E-02         0.00000E+00
    0.47413E-03         0.26486E-02         0.00000E+00
    0.54157E-03         0.25241E-02         0.00000E+00
    0.60555E-03         0.23854E-02         0.00000E+00
    0.66603E-03         0.22358E-02         0.00000E+00
    0.72296E-03         0.20782E-02         0.00000E+00
    0.77630E-03         0.19155E-02         0.00000E+00
    0.82600E-03         0.17504E-02         0.00000E+00
    0.87203E-03         0.15850E-02         0.00000E+00
    0.91432E-03         0.14214E-02         0.00000E+00
    0.95283E-03         0.12609E-02         0.00000E+00
    0.98750E-03         0.11047E-02         0.00000E+00
    0.10183E-02         0.95326E-03         0.00000E+00
    0.10451E-02         0.80686E-03         0.00000E+00
    0.10680E-02         0.66528E-03         0.00000E+00
    0.10868E-02         0.52795E-03         0.00000E+00
    0.11015E-02         0.39401E-03         0.00000E+00
    0.11120E-02         0.26231E-03         0.00000E+00
    0.11184E-02         0.13150E-03         0.00000E+00
    0.11205E-02         0.66137E-04         0.00000E+00
    0.00000E+00         0.28712E-02         0.00000E+00
    0.81894E-04         0.28739E-02         0.00000E+00
    0.16104E-03         0.28653E-02         0.00000E+00
    0.23731E-03         0.28297E-02         0.00000E+00
    0.31061E-03         0.27689E-02         0.00000E+00
    0.38084E-03         0.26851E-02         0.00000E+00
    0.44792E-03         0.25812E-02         0.00000E+00
    0.51180E-03         0.24601E-02         0.00000E+00
    0.57241E-03         0.23248E-02         0.00000E+00
    0.62971E-03         0.21786E-02         0.00000E+00
    0.68365E-03         0.20245E-02         0.00000E+00
    0.73418E-03         0.18653E-02         0.00000E+00
    0.78125E-03         0.17037E-02         0.00000E+00
    0.82484E-03         0.15420E-02         0.00000E+00
    0.86489E-03         0.13820E-02         0.00000E+00
    0.90135E-03         0.12253E-02         0.00000E+00
    0.93419E-03         0.10728E-02         0.00000E+00
    0.96336E-03         0.92519E-03         0.00000E+00
    0.98880E-03         0.78265E-03         0.00000E+00
    0.10105E-02         0.64498E-03         0.00000E+00
    0.10283E-02         0.51161E-03         0.00000E+00
    0.10423E-02         0.38168E-03         0.00000E+00
    0.10524E-02         0.25404E-03         0.00000E+00
    0.10584E-02         0.12734E-03         0.00000E+00
    0.10605E-02         0.64045E-04         0.00000E+00
    0.00000E+00         0.27919E-02         0.00000E+00
    0.76639E-04         0.27959E-02         0.00000E+00
    0.15082E-03         0.27900E-02         0.00000E+00
    0.22241E-03         0.27571E-02         0.00000E+00
    0.29127E-03         0.26992E-02         0.00000E+00
    0.35730E-03         0.26185E-02         0.00000E+00
    0.42042E-03         0.25176E-02         0.00000E+00
    0.48055E-03         0.23996E-02         0.00000E+00
    0.53763E-03         0.22675E-02         0.00000E+00
    0.59159E-03         0.21246E-02         0.00000E+00
    0.64238E-03         0.19737E-02         0.00000E+00
    0.68997E-03         0.18179E-02         0.00000E+00
    0.73431E-03         0.16597E-02         0.00000E+00
    0.77536E-03         0.15014E-02         0.00000E+00
    0.81308E-03         0.13449E-02         0.00000E+00
    0.84743E-03         0.11916E-02         0.00000E+00
    0.87837E-03         0.10427E-02         0.00000E+00
    0.90587E-03         0.89865E-03         0.00000E+00
    0.92987E-03         0.75975E-03         0.00000E+00
    0.95033E-03         0.62575E-03         0.00000E+00
    0.96720E-03         0.49612E-03         0.00000E+00
    0.98043E-03         0.36997E-03         0.00000E+00
    0.98996E-03         0.24617E-03         0.00000E+00
    0.99574E-03         0.12337E-03         0.00000E+00
    0.99769E-03         0.62043E-04         0.00000E+00
    0.48280E-17         0.27179E-02         0.00000E+00
    0.71228E-04         0.27231E-02         0.00000E+00
    0.14028E-03         0.27195E-02         0.00000E+00
    0.20701E-03         0.26892E-02         0.00000E+00
    0.27126E-03         0.26340E-02         0.00000E+00
    0.33293E-03         0.25560E-02         0.00000E+00
    0.39192E-03         0.24580E-02         0.00000E+00
    0.44814E-03         0.23429E-02         0.00000E+00
    0.50152E-03         0.22138E-02         0.00000E+00
    0.55201E-03         0.20738E-02         0.00000E+00
    0.59954E-03         0.19261E-02         0.00000E+00
    0.64408E-03         0.17734E-02         0.00000E+00
    0.68558E-03         0.16183E-02         0.00000E+00
    0.72401E-03         0.14632E-02         0.00000E+00
    0.75933E-03         0.13100E-02         0.00000E+00
    0.79149E-03         0.11600E-02         0.00000E+00
    0.82048E-03         0.10144E-02         0.00000E+00
    0.84625E-03         0.87370E-03         0.00000E+00
    0.86876E-03         0.73819E-03         0.00000E+00
    0.88796E-03         0.60765E-03         0.00000E+00
    0.90382E-03         0.48151E-03         0.00000E+00
    0.91627E-03         0.35892E-03         0.00000E+00
    0.92526E-03         0.23873E-03         0.00000E+00
    0.93071E-03         0.11961E-03         0.00000E+00
    0.93256E-03         0.60140E-04         0.00000E+00
    0.66252E-31         0.26494E-02         0.00000E+00
    0.65712E-04         0.26556E-02         0.00000E+00
    0.12952E-03         0.26542E-02         0.00000E+00
    0.19125E-03         0.26262E-02         0.00000E+00
    0.25076E-03         0.25733E-02         0.00000E+00
    0.30793E-03         0.24978E-02         0.00000E+00
    0.36265E-03         0.24024E-02         0.00000E+00
    0.41484E-03         0.22900E-02         0.00000E+00
    0.46441E-03         0.21637E-02         0.00000E+00
    0.51131E-03         0.20265E-02         0.00000E+00
    0.55548E-03         0.18816E-02         0.00000E+00
    0.59687E-03         0.17319E-02         0.00000E+00
    0.63545E-03         0.15798E-02         0.00000E+00
    0.67117E-03         0.14277E-02         0.00000E+00
    0.70401E-03         0.12774E-02         0.00000E+00
    0.73393E-03         0.11305E-02         0.00000E+00
    0.76091E-03         0.98792E-03         0.00000E+00
    0.78490E-03         0.85038E-03         0.00000E+00
    0.80587E-03         0.71803E-03         0.00000E+00
    0.82378E-03         0.59069E-03         0.00000E+00
    0.83858E-03         0.46782E-03         0.00000E+00
    0.85022E-03         0.34853E-03         0.00000E+00
    0.85863E-03         0.23173E-03         0.00000E+00
    0.86375E-03         0.11606E-03         0.00000E+00
    0.86549E-03         0.58342E-04         0.00000E+00
   -0.45946E-17         0.25865E-02         0.00000E+00
    0.60134E-04         0.25935E-02         0.00000E+00
    0.11861E-03         0.25940E-02         0.00000E+00
    0.17526E-03         0.25680E-02         0.00000E+00
    0.22993E-03         0.25173E-02         0.00000E+00
    0.28249E-03         0.24441E-02         0.00000E+00
    0.33284E-03         0.23511E-02         0.00000E+00
    0.38089E-03         0.22411E-02         0.00000E+00
    0.42655E-03         0.21173E-02         0.00000E+00
    0.46976E-03         0.19828E-02         0.00000E+00
    0.51048E-03         0.18405E-02         0.00000E+00
    0.54864E-03         0.16934E-02         0.00000E+00
    0.58422E-03         0.15440E-02         0.00000E+00
    0.61717E-03         0.13947E-02         0.00000E+00
    0.64747E-03         0.12472E-02         0.00000E+00
    0.67509E-03         0.11031E-02         0.00000E+00
    0.70000E-03         0.96340E-03         0.00000E+00
    0.72217E-03         0.82874E-03         0.00000E+00
    0.74155E-03         0.69931E-03         0.00000E+00
    0.75813E-03         0.57494E-03         0.00000E+00
    0.77184E-03         0.45507E-03         0.00000E+00
    0.78263E-03         0.33886E-03         0.00000E+00
    0.79045E-03         0.22519E-03         0.00000E+00
    0.79521E-03         0.11275E-03         0.00000E+00
    0.79684E-03         0.56657E-04         0.00000E+00
    0.00000E+00         0.25292E-02         0.00000E+00
    0.54527E-04         0.25370E-02         0.00000E+00
    0.10763E-03         0.25391E-02         0.00000E+00
    0.15913E-03         0.25148E-02         0.00000E+00
    0.20889E-03         0.24661E-02         0.00000E+00
    0.25677E-03         0.23949E-02         0.00000E+00
    0.30267E-03         0.23040E-02         0.00000E+00
    0.34649E-03         0.21963E-02         0.00000E+00
    0.38817E-03         0.20748E-02         0.00000E+00
    0.42762E-03         0.19426E-02         0.00000E+00
    0.46480E-03         0.18028E-02         0.00000E+00
    0.49967E-03         0.16581E-02         0.00000E+00
    0.53218E-03         0.15112E-02         0.00000E+00
    0.56230E-03         0.13644E-02         0.00000E+00
    0.59001E-03         0.12195E-02         0.00000E+00
    0.61527E-03         0.10779E-02         0.00000E+00
    0.63807E-03         0.94085E-03         0.00000E+00
    0.65836E-03         0.80882E-03         0.00000E+00
    0.67613E-03         0.68207E-03         0.00000E+00
    0.69132E-03         0.56041E-03         0.00000E+00
    0.70391E-03         0.44331E-03         0.00000E+00
    0.71383E-03         0.32992E-03         0.00000E+00
    0.72102E-03         0.21915E-03         0.00000E+00
    0.72541E-03         0.10967E-03         0.00000E+00
    0.72691E-03         0.55092E-04         0.00000E+00
    0.00000E+00         0.24774E-02         0.00000E+00
    0.48920E-04         0.24859E-02         0.00000E+00
    0.96625E-04         0.24894E-02         0.00000E+00
    0.14295E-03         0.24667E-02         0.00000E+00
    0.18774E-03         0.24197E-02         0.00000E+00
    0.23089E-03         0.23503E-02         0.00000E+00
    0.27228E-03         0.22613E-02         0.00000E+00
    0.31182E-03         0.21556E-02         0.00000E+00
    0.34944E-03         0.20362E-02         0.00000E+00
    0.38507E-03         0.19061E-02         0.00000E+00
    0.41866E-03         0.17685E-02         0.00000E+00
    0.45017E-03         0.16260E-02         0.00000E+00
    0.47956E-03         0.14814E-02         0.00000E+00
    0.50680E-03         0.13368E-02         0.00000E+00
    0.53186E-03         0.11942E-02         0.00000E+00
    0.55473E-03         0.10550E-02         0.00000E+00
    0.57536E-03         0.92031E-03         0.00000E+00
    0.59374E-03         0.79068E-03         0.00000E+00
    0.60985E-03         0.66635E-03         0.00000E+00
    0.62363E-03         0.54716E-03         0.00000E+00
    0.63505E-03         0.43257E-03         0.00000E+00
    0.64407E-03         0.32175E-03         0.00000E+00
    0.65062E-03         0.21361E-03         0.00000E+00
    0.65462E-03         0.10686E-03         0.00000E+00
    0.65599E-03         0.53654E-04         0.00000E+00
    0.00000E+00         0.24313E-02         0.00000E+00
    0.43332E-04         0.24403E-02         0.00000E+00
    0.85642E-04         0.24450E-02         0.00000E+00
    0.12677E-03         0.24237E-02         0.00000E+00
    0.16658E-03         0.23781E-02         0.00000E+00
    0.20495E-03         0.23104E-02         0.00000E+00
    0.24179E-03         0.22231E-02         0.00000E+00
    0.27700E-03         0.21191E-02         0.00000E+00
    0.31052E-03         0.20015E-02         0.00000E+00
    0.34228E-03         0.18734E-02         0.00000E+00
    0.37223E-03         0.17377E-02         0.00000E+00
    0.40033E-03         0.15972E-02         0.00000E+00
    0.42656E-03         0.14546E-02         0.00000E+00
    0.45087E-03         0.13121E-02         0.00000E+00
    0.47325E-03         0.11715E-02         0.00000E+00
    0.49366E-03         0.10344E-02         0.00000E+00
    0.51210E-03         0.90183E-03         0.00000E+00
    0.52854E-03         0.77434E-03         0.00000E+00
    0.54294E-03         0.65219E-03         0.00000E+00
    0.55528E-03         0.53520E-03         0.00000E+00
    0.56551E-03         0.42287E-03         0.00000E+00
    0.57360E-03         0.31436E-03         0.00000E+00
    0.57947E-03         0.20860E-03         0.00000E+00
    0.58307E-03         0.10430E-03         0.00000E+00
    0.58430E-03         0.52350E-04         0.00000E+00
    0.00000E+00         0.23908E-02         0.00000E+00
    0.37778E-04         0.24003E-02         0.00000E+00
    0.74707E-04         0.24060E-02         0.00000E+00
    0.11064E-03         0.23858E-02         0.00000E+00
    0.14545E-03         0.23415E-02         0.00000E+00
    0.17903E-03         0.22751E-02         0.00000E+00
    0.21129E-03         0.21893E-02         0.00000E+00
    0.24214E-03         0.20869E-02         0.00000E+00
    0.27152E-03         0.19709E-02         0.00000E+00
    0.29937E-03         0.18444E-02         0.00000E+00
    0.32564E-03         0.17104E-02         0.00000E+00
    0.35030E-03         0.15717E-02         0.00000E+00
    0.37332E-03         0.14309E-02         0.00000E+00
    0.39466E-03         0.12902E-02         0.00000E+00
    0.41432E-03         0.11514E-02         0.00000E+00
    0.43226E-03         0.10162E-02         0.00000E+00
    0.44846E-03         0.88544E-03         0.00000E+00
    0.46292E-03         0.75984E-03         0.00000E+00
    0.47559E-03         0.63961E-03         0.00000E+00
    0.48645E-03         0.52458E-03         0.00000E+00
    0.49547E-03         0.41425E-03         0.00000E+00
    0.50260E-03         0.30779E-03         0.00000E+00
    0.50778E-03         0.20414E-03         0.00000E+00
    0.51096E-03         0.10202E-03         0.00000E+00
    0.51205E-03         0.51184E-04         0.00000E+00
    0.00000E+00         0.23558E-02         0.00000E+00
    0.32266E-04         0.23656E-02         0.00000E+00
    0.63839E-04         0.23722E-02         0.00000E+00
    0.94589E-04         0.23530E-02         0.00000E+00
    0.12440E-03         0.23097E-02         0.00000E+00
    0.15318E-03         0.22445E-02         0.00000E+00
    0.18084E-03         0.21600E-02         0.00000E+00
    0.20730E-03         0.20589E-02         0.00000E+00
    0.23252E-03         0.19443E-02         0.00000E+00
    0.25643E-03         0.18193E-02         0.00000E+00
    0.27899E-03         0.16867E-02         0.00000E+00
    0.30018E-03         0.15495E-02         0.00000E+00
    0.31996E-03         0.14102E-02         0.00000E+00
    0.33831E-03         0.12711E-02         0.00000E+00
    0.35520E-03         0.11340E-02         0.00000E+00
    0.37064E-03         0.10003E-02         0.00000E+00
    0.38458E-03         0.87117E-03         0.00000E+00
    0.39702E-03         0.74722E-03         0.00000E+00
    0.40793E-03         0.62865E-03         0.00000E+00
    0.41729E-03         0.51532E-03         0.00000E+00
    0.42507E-03         0.40672E-03         0.00000E+00
    0.43122E-03         0.30205E-03         0.00000E+00
    0.43570E-03         0.20024E-03         0.00000E+00
    0.43845E-03         0.10003E-03         0.00000E+00
    0.43939E-03         0.50164E-04         0.00000E+00
    0.00000E+00         0.23263E-02         0.00000E+00
    0.26799E-04         0.23364E-02         0.00000E+00
    0.53047E-04         0.23436E-02         0.00000E+00
    0.78629E-04         0.23252E-02         0.00000E+00
    0.10345E-03         0.22829E-02         0.00000E+00
    0.12742E-03         0.22187E-02         0.00000E+00
    0.15047E-03         0.21352E-02         0.00000E+00
    0.17254E-03         0.20352E-02         0.00000E+00
    0.19357E-03         0.19218E-02         0.00000E+00
    0.21352E-03         0.17979E-02         0.00000E+00
    0.23235E-03         0.16667E-02         0.00000E+00
    0.25004E-03         0.15307E-02         0.00000E+00
    0.26655E-03         0.13927E-02         0.00000E+00
    0.28188E-03         0.12549E-02         0.00000E+00
    0.29600E-03         0.11191E-02         0.00000E+00
    0.30890E-03         0.98681E-03         0.00000E+00
    0.32056E-03         0.85905E-03         0.00000E+00
    0.33096E-03         0.73649E-03         0.00000E+00
    0.34009E-03         0.61934E-03         0.00000E+00
    0.34793E-03         0.50745E-03         0.00000E+00
    0.35444E-03         0.40032E-03         0.00000E+00
    0.35959E-03         0.29716E-03         0.00000E+00
    0.36335E-03         0.19691E-03         0.00000E+00
    0.36565E-03         0.98331E-04         0.00000E+00
    0.36645E-03         0.49292E-04         0.00000E+00
    0.00000E+00         0.23022E-02         0.00000E+00
    0.21377E-04         0.23126E-02         0.00000E+00
    0.42329E-04         0.23203E-02         0.00000E+00
    0.62764E-04         0.23026E-02         0.00000E+00
    0.82601E-04         0.22609E-02         0.00000E+00
    0.10177E-03         0.21975E-02         0.00000E+00
    0.12021E-03         0.21149E-02         0.00000E+00
    0.13787E-03         0.20158E-02         0.00000E+00
    0.15470E-03         0.19033E-02         0.00000E+00
    0.17068E-03         0.17805E-02         0.00000E+00
    0.18576E-03         0.16502E-02         0.00000E+00
    0.19993E-03         0.15153E-02         0.00000E+00
    0.21316E-03         0.13784E-02         0.00000E+00
    0.22545E-03         0.12416E-02         0.00000E+00
    0.23677E-03         0.11069E-02         0.00000E+00
    0.24711E-03         0.97574E-03         0.00000E+00
    0.25646E-03         0.84911E-03         0.00000E+00
    0.26481E-03         0.72768E-03         0.00000E+00
    0.27213E-03         0.61169E-03         0.00000E+00
    0.27843E-03         0.50097E-03         0.00000E+00
    0.28366E-03         0.39506E-03         0.00000E+00
    0.28780E-03         0.29314E-03         0.00000E+00
    0.29082E-03         0.19417E-03         0.00000E+00
    0.29268E-03         0.96930E-04         0.00000E+00
    0.29332E-03         0.48574E-04         0.00000E+00
    0.00000E+00         0.22835E-02         0.00000E+00
    0.15994E-04         0.22941E-02         0.00000E+00
    0.31680E-04         0.23022E-02         0.00000E+00
    0.46986E-04         0.22850E-02         0.00000E+00
    0.61851E-04         0.22439E-02         0.00000E+00
    0.76220E-04         0.21811E-02         0.00000E+00
    0.90048E-04         0.20991E-02         0.00000E+00
    0.10329E-03         0.20007E-02         0.00000E+00
    0.11593E-03         0.18890E-02         0.00000E+00
    0.12791E-03         0.17669E-02         0.00000E+00
    0.13924E-03         0.16374E-02         0.00000E+00
    0.14987E-03         0.15033E-02         0.00000E+00
    0.15981E-03         0.13672E-02         0.00000E+00
    0.16904E-03         0.12313E-02         0.00000E+00
    0.17754E-03         0.10974E-02         0.00000E+00
    0.18531E-03         0.96711E-03         0.00000E+00
    0.19234E-03         0.84136E-03         0.00000E+00
    0.19861E-03         0.72081E-03         0.00000E+00
    0.20412E-03         0.60572E-03         0.00000E+00
    0.20885E-03         0.49592E-03         0.00000E+00
    0.21279E-03         0.39095E-03         0.00000E+00
    0.21591E-03         0.29000E-03         0.00000E+00
    0.21818E-03         0.19203E-03         0.00000E+00
    0.21958E-03         0.95835E-04         0.00000E+00
    0.22006E-03         0.48012E-04         0.00000E+00
    0.00000E+00         0.22702E-02         0.00000E+00
    0.10644E-04         0.22809E-02         0.00000E+00
    0.21087E-04         0.22893E-02         0.00000E+00
    0.31281E-04         0.22724E-02         0.00000E+00
    0.41184E-04         0.22317E-02         0.00000E+00
    0.50760E-04         0.21693E-02         0.00000E+00
    0.59977E-04         0.20878E-02         0.00000E+00
    0.68809E-04         0.19899E-02         0.00000E+00
    0.77231E-04         0.18787E-02         0.00000E+00
    0.85227E-04         0.17572E-02         0.00000E+00
    0.92780E-04         0.16283E-02         0.00000E+00
    0.99877E-04         0.14948E-02         0.00000E+00
    0.10651E-03         0.13592E-02         0.00000E+00
    0.11266E-03         0.12239E-02         0.00000E+00
    0.11834E-03         0.10907E-02         0.00000E+00
    0.12353E-03         0.96094E-03         0.00000E+00
    0.12822E-03         0.83581E-03         0.00000E+00
    0.13241E-03         0.71590E-03         0.00000E+00
    0.13609E-03         0.60144E-03         0.00000E+00
    0.13925E-03         0.49231E-03         0.00000E+00
    0.14188E-03         0.38800E-03         0.00000E+00
    0.14396E-03         0.28775E-03         0.00000E+00
    0.14548E-03         0.19050E-03         0.00000E+00
    0.14642E-03         0.95050E-04         0.00000E+00
    0.14674E-03         0.47609E-04         0.00000E+00
    0.00000E+00         0.22622E-02         0.00000E+00
    0.53160E-05         0.22730E-02         0.00000E+00
    0.10533E-04         0.22816E-02         0.00000E+00
    0.15627E-04         0.22649E-02         0.00000E+00
    0.20576E-04         0.22244E-02         0.00000E+00
    0.25363E-04         0.21623E-02         0.00000E+00
    0.29971E-04         0.20810E-02         0.00000E+00
    0.34387E-04         0.19835E-02         0.00000E+00
    0.38599E-04         0.18726E-02         0.00000E+00
    0.42598E-04         0.17513E-02         0.00000E+00
    0.46376E-04         0.16228E-02         0.00000E+00
    0.49926E-04         0.14896E-02         0.00000E+00
    0.53243E-04         0.13544E-02         0.00000E+00
    0.56323E-04         0.12195E-02         0.00000E+00
    0.59162E-04         0.10866E-02         0.00000E+00
    0.61757E-04         0.95724E-03         0.00000E+00
    0.64105E-04         0.83248E-03         0.00000E+00
    0.66202E-04         0.71294E-03         0.00000E+00
    0.68044E-04         0.59888E-03         0.00000E+00
    0.69626E-04         0.49013E-03         0.00000E+00
    0.70943E-04         0.38623E-03         0.00000E+00
    0.71986E-04         0.28639E-03         0.00000E+00
    0.72748E-04         0.18958E-03         0.00000E+00
    0.73216E-04         0.94577E-04         0.00000E+00
    0.73378E-04         0.47366E-04         0.00000E+00
    0.00000E+00         0.22596E-02         0.00000E+00
    0.26565E-05         0.22704E-02         0.00000E+00
    0.52639E-05         0.22790E-02         0.00000E+00
    0.78100E-05         0.22624E-02         0.00000E+00
    0.10284E-04         0.22220E-02         0.00000E+00
    0.12677E-04         0.21599E-02         0.00000E+00
    0.14981E-04         0.20788E-02         0.00000E+00
    0.17189E-04         0.19813E-02         0.00000E+00
    0.19295E-04         0.18705E-02         0.00000E+00
    0.21295E-04         0.17494E-02         0.00000E+00
    0.23184E-04         0.16209E-02         0.00000E+00
    0.24960E-04         0.14879E-02         0.00000E+00
    0.26619E-04         0.13528E-02         0.00000E+00
    0.28159E-04         0.12180E-02         0.00000E+00
    0.29579E-04         0.10852E-02         0.00000E+00
    0.30877E-04         0.95600E-03         0.00000E+00
    0.32051E-04         0.83136E-03         0.00000E+00
    0.33100E-04         0.71196E-03         0.00000E+00
    0.34022E-04         0.59802E-03         0.00000E+00
    0.34813E-04         0.48941E-03         0.00000E+00
    0.35472E-04         0.38564E-03         0.00000E+00
    0.35994E-04         0.28594E-03         0.00000E+00
    0.36376E-04         0.18927E-03         0.00000E+00
    0.36610E-04         0.94420E-04         0.00000E+00
    0.36691E-04         0.47285E-04         0.00000E+00
CELL_DATA       1152
TENSORS stressef double 
   -0.48226E+05         0.36683E+03         0.00000E+00
    0.36683E+03        -0.98853E+05         0.00000E+00
    0.00000E+00         0.00000E+00        -0.55165E+05
 
   -0.38579E+05         0.26451E+04         0.00000E+00
    0.26451E+04        -0.95381E+05         0.00000E+00
    0.00000E+00         0.00000E+00        -0.64736E+05
 
   -0.32985E+05         0.38004E+04         0.00000E+00
    0.38004E+04        -0.87174E+05         0.00000E+00
    0.00000E+00         0.00000E+00        -0.62106E+05
 
   -0.27730E+05         0.40445E+04         0.00000E+00
    0.40445E+04        -0.78402E+05         0.00000E+00
    0.00000E+00         0.00000E+00        -0.56290E+05
 
   -0.22785E+05         0.38858E+04         0.00000E+00
    0.38858E+04        -0.70224E+05         0.00000E+00
    0.00000E+00         0.00000E+00        -0.49949E+05
 
   -0.18267E+05         0.35842E+04         0.00000E+00
    0.35842E+04        -0.62726E+05         0.00000E+00
    0.00000E+00         0.00000E+00        -0.43748E+05
 
   -0.14184E+05         0.31974E+04         0.00000E+00
    0.31974E+04        -0.55933E+05         0.00000E+00
    0.00000E+00         0.00000E+00        -0.37947E+05
 
   -0.10986E+05         0.27760E+04         0.00000E+00
    0.27760E+04        -0.49823E+05         0.00000E+00
    0.00000E+00         0.00000E+00        -0.32846E+05
 
   -0.82680E+04         0.24077E+04         0.00000E+00
    0.24077E+04        -0.44407E+05         0.00000E+00
    0.00000E+00         0.00000E+00        -0.28392E+05
 
   -0.58806E+04         0.20780E+04         0.00000E+00
    0.20780E+04        -0.39656E+05         0.00000E+00
    0.00000E+00         0.00000E+00        -0.24534E+05
 
   -0.38936E+04         0.18014E+04         0.00000E+00
    0.18014E+04        -0.35446E+05         0.00000E+00
    0.00000E+00         0.00000E+00        -0.21229E+05
 
   -0.21456E+04         0.16127E+04         0.00000E+00
    0.16127E+04        -0.31716E+05         0.00000E+00
    0.00000E+00         0.00000E+00        -0.18305E+05
 
   -0.55146E+03         0.14487E+04         0.00000E+00
    0.14487E+04        -0.28390E+05         0.00000E+00
    0.00000E+00         0.00000E+00        -0.15642E+05
 
    0.90562E+03         0.13050E+04         0.00000E+00
    0.13050E+04        -0.25377E+05         0.00000E+00
    0.00000E+00         0.00000E+00        -0.13176E+05
 
    0.22467E+04         0.11651E+04         0.00000E+00
    0.11651E+04        -0.22660E+05         0.00000E+00
    0.00000E+00         0.00000E+00        -0.10860E+05
 
    0.34873E+04         0.10601E+04         0.00000E+00
    0.10601E+04        -0.20209E+05         0.00000E+00
    0.00000E+00         0.00000E+00        -0.86486E+04
 
    0.46136E+04         0.91790E+03         0.00000E+00
    0.91790E+03        -0.18040E+05         0.00000E+00
    0.00000E+00         0.00000E+00        -0.65421E+04
 
    0.56019E+04         0.81034E+03         0.00000E+00
    0.81034E+03        -0.16142E+05         0.00000E+00
    0.00000E+00         0.00000E+00        -0.46602E+04
 
    0.63451E+04         0.70635E+03         0.00000E+00
    0.70635E+03        -0.14479E+05         0.00000E+00
    0.00000E+00         0.00000E+00        -0.29783E+04
 
    0.59923E+04         0.60973E+03         0.00000E+00
    0.60973E+03        -0.13019E+05         0.00000E+00
    0.00000E+00         0.00000E+00        -0.21081E+04
 
    0.38857E+04         0.53187E+03         0.00000E+00
    0.53187E+03        -0.11764E+05         0.00000E+00
    0.00000E+00         0.00000E+00        -0.23634E+04
 
    0.18536E+04         0.48801E+03         0.00000E+00
    0.48801E+03        -0.10658E+05         0.00000E+00
    0.00000E+00         0.00000E+00        -0.26413E+04
 
   -0.20925E+03         0.46995E+03         0.00000E+00
    0.46995E+03        -0.96438E+04         0.00000E+00
    0.00000E+00         0.00000E+00        -0.29559E+04
 
   -0.23855E+04         0.47467E+03         0.00000E+00
    0.47467E+03        -0.86734E+04         0.00000E+00
    0.00000E+00         0.00000E+00        -0.33177E+04
 
   -0.44921E+05         0.27376E+04         0.00000E+00
    0.27376E+04        -0.98422E+05         0.00000E+00
    0.00000E+00         0.00000E+00        -0.58076E+05
 
   -0.35347E+05         0.97035E+04         0.00000E+00
    0.97035E+04        -0.87475E+05         0.00000E+00
    0.00000E+00         0.00000E+00        -0.62771E+05
 
   -0.31653E+05         0.11681E+05         0.00000E+00
    0.11681E+05        -0.78649E+05         0.00000E+00
    0.00000E+00         0.00000E+00        -0.58368E+05
 
   -0.27775E+05         0.11852E+05         0.00000E+00
    0.11852E+05        -0.71255E+05         0.00000E+00
    0.00000E+00         0.00000E+00        -0.53136E+05
 
   -0.23395E+05         0.11163E+05         0.00000E+00
    0.11163E+05        -0.64204E+05         0.00000E+00
    0.00000E+00         0.00000E+00        -0.47395E+05
 
   -0.19058E+05         0.10153E+05         0.00000E+00
    0.10153E+05        -0.57777E+05         0.00000E+00
    0.00000E+00         0.00000E+00        -0.41755E+05
 
   -0.15142E+05         0.90121E+04         0.00000E+00
    0.90121E+04        -0.52002E+05         0.00000E+00
    0.00000E+00         0.00000E+00        -0.36526E+05
 
   -0.11784E+05         0.79037E+04         0.00000E+00
    0.79037E+04        -0.46868E+05         0.00000E+00
    0.00000E+00         0.00000E+00        -0.31843E+05
 
   -0.89824E+04         0.68895E+04         0.00000E+00
    0.68895E+04        -0.42194E+05         0.00000E+00
    0.00000E+00         0.00000E+00        -0.27695E+05
 
   -0.64909E+04         0.60145E+04         0.00000E+00
    0.60145E+04        -0.37907E+05         0.00000E+00
    0.00000E+00         0.00000E+00        -0.23979E+05
 
   -0.43275E+04         0.53020E+04         0.00000E+00
    0.53020E+04        -0.34089E+05         0.00000E+00
    0.00000E+00         0.00000E+00        -0.20707E+05
 
   -0.24808E+04         0.47368E+04         0.00000E+00
    0.47368E+04        -0.30599E+05         0.00000E+00
    0.00000E+00         0.00000E+00        -0.17825E+05
 
   -0.87027E+03         0.42525E+04         0.00000E+00
    0.42525E+04        -0.27410E+05         0.00000E+00
    0.00000E+00         0.00000E+00        -0.15223E+05
 
    0.62462E+03         0.38351E+04         0.00000E+00
    0.38351E+04        -0.24568E+05         0.00000E+00
    0.00000E+00         0.00000E+00        -0.12802E+05
 
    0.19866E+04         0.34429E+04         0.00000E+00
    0.34429E+04        -0.22008E+05         0.00000E+00
    0.00000E+00         0.00000E+00        -0.10550E+05
 
    0.32339E+04         0.30652E+04         0.00000E+00
    0.30652E+04        -0.19730E+05         0.00000E+00
    0.00000E+00         0.00000E+00        -0.84331E+04
 
    0.43670E+04         0.27166E+04         0.00000E+00
    0.27166E+04        -0.17697E+05         0.00000E+00
    0.00000E+00         0.00000E+00        -0.63829E+04
 
    0.53728E+04         0.23826E+04         0.00000E+00
    0.23826E+04        -0.15876E+05         0.00000E+00
    0.00000E+00         0.00000E+00        -0.45511E+04
 
    0.61551E+04         0.20934E+04         0.00000E+00
    0.20934E+04        -0.14273E+05         0.00000E+00
    0.00000E+00         0.00000E+00        -0.29195E+04
 
    0.57835E+04         0.18182E+04         0.00000E+00
    0.18182E+04        -0.12846E+05         0.00000E+00
    0.00000E+00         0.00000E+00        -0.21187E+04
 
    0.37585E+04         0.15884E+04         0.00000E+00
    0.15884E+04        -0.11609E+05         0.00000E+00
    0.00000E+00         0.00000E+00        -0.23552E+04
 
    0.17832E+04         0.14573E+04         0.00000E+00
    0.14573E+04        -0.10518E+05         0.00000E+00
    0.00000E+00         0.00000E+00        -0.26205E+04
 
   -0.23219E+03         0.14022E+04         0.00000E+00
    0.14022E+04        -0.95189E+04         0.00000E+00
    0.00000E+00         0.00000E+00        -0.29253E+04
 
   -0.23643E+04         0.14156E+04         0.00000E+00
    0.14156E+04        -0.85651E+04         0.00000E+00
    0.00000E+00         0.00000E+00        -0.32788E+04
 
   -0.32789E+05         0.16154E+05         0.00000E+00
    0.16154E+05        -0.74645E+05         0.00000E+00
    0.00000E+00         0.00000E+00        -0.55035E+05
 
   -0.31757E+05         0.18364E+05         0.00000E+00
    0.18364E+05        -0.63179E+05         0.00000E+00
    0.00000E+00         0.00000E+00        -0.51995E+05
 
   -0.31821E+05         0.18891E+05         0.00000E+00
    0.18891E+05        -0.60361E+05         0.00000E+00
    0.00000E+00         0.00000E+00        -0.50527E+05
 
   -0.28774E+05         0.17911E+05         0.00000E+00
    0.17911E+05        -0.56422E+05         0.00000E+00
    0.00000E+00         0.00000E+00        -0.46775E+05
 
   -0.24855E+05         0.16528E+05         0.00000E+00
    0.16528E+05        -0.52607E+05         0.00000E+00
    0.00000E+00         0.00000E+00        -0.42601E+05
 
   -0.20627E+05         0.14928E+05         0.00000E+00
    0.14928E+05        -0.48693E+05         0.00000E+00
    0.00000E+00         0.00000E+00        -0.38182E+05
 
   -0.16665E+05         0.13317E+05         0.00000E+00
    0.13317E+05        -0.44858E+05         0.00000E+00
    0.00000E+00         0.00000E+00        -0.33884E+05
 
   -0.13192E+05         0.11823E+05         0.00000E+00
    0.11823E+05        -0.41159E+05         0.00000E+00
    0.00000E+00         0.00000E+00        -0.29847E+05
 
   -0.10163E+05         0.10559E+05         0.00000E+00
    0.10559E+05        -0.37663E+05         0.00000E+00
    0.00000E+00         0.00000E+00        -0.26128E+05
 
   -0.74835E+04         0.93974E+04         0.00000E+00
    0.93974E+04        -0.34307E+05         0.00000E+00
    0.00000E+00         0.00000E+00        -0.22735E+05
 
   -0.51652E+04         0.83693E+04         0.00000E+00
    0.83693E+04        -0.31070E+05         0.00000E+00
    0.00000E+00         0.00000E+00        -0.19626E+05
 
   -0.31673E+04         0.74931E+04         0.00000E+00
    0.74931E+04        -0.28168E+05         0.00000E+00
    0.00000E+00         0.00000E+00        -0.16843E+05
 
   -0.14458E+04         0.67539E+04         0.00000E+00
    0.67539E+04        -0.25552E+05         0.00000E+00
    0.00000E+00         0.00000E+00        -0.14356E+05
 
    0.76458E+02         0.60781E+04         0.00000E+00
    0.60781E+04        -0.23127E+05         0.00000E+00
    0.00000E+00         0.00000E+00        -0.12083E+05
 
    0.14763E+04         0.54801E+04         0.00000E+00
    0.54801E+04        -0.20906E+05         0.00000E+00
    0.00000E+00         0.00000E+00        -0.99343E+04
 
    0.27532E+04         0.48989E+04         0.00000E+00
    0.48989E+04        -0.18887E+05         0.00000E+00
    0.00000E+00         0.00000E+00        -0.78931E+04
 
    0.39214E+04         0.43536E+04         0.00000E+00
    0.43536E+04        -0.17043E+05         0.00000E+00
    0.00000E+00         0.00000E+00        -0.60229E+04
 
    0.49345E+04         0.38459E+04         0.00000E+00
    0.38459E+04        -0.15362E+05         0.00000E+00
    0.00000E+00         0.00000E+00        -0.43329E+04
 
    0.58113E+04         0.34134E+04         0.00000E+00
    0.34134E+04        -0.13835E+05         0.00000E+00
    0.00000E+00         0.00000E+00        -0.27903E+04
 
    0.53830E+04         0.29883E+04         0.00000E+00
    0.29883E+04        -0.12480E+05         0.00000E+00
    0.00000E+00         0.00000E+00        -0.21292E+04
 
    0.35082E+04         0.26205E+04         0.00000E+00
    0.26205E+04        -0.11288E+05         0.00000E+00
    0.00000E+00         0.00000E+00        -0.23339E+04
 
    0.16419E+04         0.24043E+04         0.00000E+00
    0.24043E+04        -0.10230E+05         0.00000E+00
    0.00000E+00         0.00000E+00        -0.25764E+04
 
   -0.27988E+03         0.23103E+04         0.00000E+00
    0.23103E+04        -0.92636E+04         0.00000E+00
    0.00000E+00         0.00000E+00        -0.28631E+04
 
   -0.23224E+04         0.23302E+04         0.00000E+00
    0.23302E+04        -0.83451E+04         0.00000E+00
    0.00000E+00         0.00000E+00        -0.32002E+04
 
   -0.12533E+05         0.14258E+05         0.00000E+00
    0.14258E+05        -0.27150E+05         0.00000E+00
    0.00000E+00         0.00000E+00        -0.24246E+05
 
   -0.31883E+05         0.19968E+05         0.00000E+00
    0.19968E+05        -0.36875E+05         0.00000E+00
    0.00000E+00         0.00000E+00        -0.40363E+05
 
   -0.32243E+05         0.19597E+05         0.00000E+00
    0.19597E+05        -0.36305E+05         0.00000E+00
    0.00000E+00         0.00000E+00        -0.39640E+05
 
   -0.30119E+05         0.19113E+05         0.00000E+00
    0.19113E+05        -0.36871E+05         0.00000E+00
    0.00000E+00         0.00000E+00        -0.38448E+05
 
   -0.26419E+05         0.18170E+05         0.00000E+00
    0.18170E+05        -0.36604E+05         0.00000E+00
    0.00000E+00         0.00000E+00        -0.36019E+05
 
   -0.22333E+05         0.16985E+05         0.00000E+00
    0.16985E+05        -0.35816E+05         0.00000E+00
    0.00000E+00         0.00000E+00        -0.33109E+05
 
   -0.18341E+05         0.15638E+05         0.00000E+00
    0.15638E+05        -0.34480E+05         0.00000E+00
    0.00000E+00         0.00000E+00        -0.29940E+05
 
   -0.14708E+05         0.14262E+05         0.00000E+00
    0.14262E+05        -0.32765E+05         0.00000E+00
    0.00000E+00         0.00000E+00        -0.26738E+05
 
   -0.11551E+05         0.12956E+05         0.00000E+00
    0.12956E+05        -0.30870E+05         0.00000E+00
    0.00000E+00         0.00000E+00        -0.23630E+05
 
   -0.86928E+04         0.11789E+05         0.00000E+00
    0.11789E+05        -0.28941E+05         0.00000E+00
    0.00000E+00         0.00000E+00        -0.20646E+05
 
   -0.62314E+04         0.10677E+05         0.00000E+00
    0.10677E+05        -0.26949E+05         0.00000E+00
    0.00000E+00         0.00000E+00        -0.17900E+05
 
   -0.41115E+04         0.96090E+04         0.00000E+00
    0.96090E+04        -0.24876E+05         0.00000E+00
    0.00000E+00         0.00000E+00        -0.15391E+05
 
   -0.22648E+04         0.86824E+04         0.00000E+00
    0.86824E+04        -0.22870E+05         0.00000E+00
    0.00000E+00         0.00000E+00        -0.13116E+05
 
   -0.65214E+03         0.78721E+04         0.00000E+00
    0.78721E+04        -0.20990E+05         0.00000E+00
    0.00000E+00         0.00000E+00        -0.11050E+05
 
    0.79609E+03         0.71205E+04         0.00000E+00
    0.71205E+04        -0.19242E+05         0.00000E+00
    0.00000E+00         0.00000E+00        -0.91135E+04
 
    0.20982E+04         0.64212E+04         0.00000E+00
    0.64212E+04        -0.17614E+05         0.00000E+00
    0.00000E+00         0.00000E+00        -0.73076E+04
 
    0.32910E+04         0.57832E+04         0.00000E+00
    0.57832E+04        -0.16033E+05         0.00000E+00
    0.00000E+00         0.00000E+00        -0.56315E+04
 
    0.43846E+04         0.51719E+04         0.00000E+00
    0.51719E+04        -0.14550E+05         0.00000E+00
    0.00000E+00         0.00000E+00        -0.40512E+04
 
    0.53430E+04         0.46359E+04         0.00000E+00
    0.46359E+04        -0.13176E+05         0.00000E+00
    0.00000E+00         0.00000E+00        -0.26071E+04
 
    0.48193E+04         0.40906E+04         0.00000E+00
    0.40906E+04        -0.11901E+05         0.00000E+00
    0.00000E+00         0.00000E+00        -0.21245E+04
 
    0.31441E+04         0.36053E+04         0.00000E+00
    0.36053E+04        -0.10780E+05         0.00000E+00
    0.00000E+00         0.00000E+00        -0.22907E+04
 
    0.14298E+04         0.33085E+04         0.00000E+00
    0.33085E+04        -0.97811E+04         0.00000E+00
    0.00000E+00         0.00000E+00        -0.25054E+04
 
   -0.35488E+03         0.31741E+04         0.00000E+00
    0.31741E+04        -0.88717E+04         0.00000E+00
    0.00000E+00         0.00000E+00        -0.27680E+04
 
   -0.22605E+04         0.31982E+04         0.00000E+00
    0.31982E+04        -0.80102E+04         0.00000E+00
    0.00000E+00         0.00000E+00        -0.30812E+04
 
   -0.42957E+04         0.32269E+04         0.00000E+00
    0.32269E+04         0.39721E+04         0.00000E+00
    0.00000E+00         0.00000E+00         0.63741E+03
 
   -0.25813E+05         0.11061E+05         0.00000E+00
    0.11061E+05        -0.88311E+04         0.00000E+00
    0.00000E+00         0.00000E+00        -0.19157E+05
 
   -0.30637E+05         0.14135E+05         0.00000E+00
    0.14135E+05        -0.16297E+05         0.00000E+00
    0.00000E+00         0.00000E+00        -0.26809E+05
 
   -0.29318E+05         0.15508E+05         0.00000E+00
    0.15508E+05        -0.20115E+05         0.00000E+00
    0.00000E+00         0.00000E+00        -0.28151E+05
 
   -0.26552E+05         0.16097E+05         0.00000E+00
    0.16097E+05        -0.22654E+05         0.00000E+00
    0.00000E+00         0.00000E+00        -0.27880E+05
 
   -0.23036E+05         0.16027E+05         0.00000E+00
    0.16027E+05        -0.24077E+05         0.00000E+00
    0.00000E+00         0.00000E+00        -0.26532E+05
 
   -0.19371E+05         0.15506E+05         0.00000E+00
    0.15506E+05        -0.24706E+05         0.00000E+00
    0.00000E+00         0.00000E+00        -0.24634E+05
 
   -0.15871E+05         0.14698E+05         0.00000E+00
    0.14698E+05        -0.24711E+05         0.00000E+00
    0.00000E+00         0.00000E+00        -0.22456E+05
 
   -0.12697E+05         0.13757E+05         0.00000E+00
    0.13757E+05        -0.24237E+05         0.00000E+00
    0.00000E+00         0.00000E+00        -0.20176E+05
 
   -0.98415E+04         0.12772E+05         0.00000E+00
    0.12772E+05        -0.23440E+05         0.00000E+00
    0.00000E+00         0.00000E+00        -0.17889E+05
 
   -0.73185E+04         0.11811E+05         0.00000E+00
    0.11811E+05        -0.22484E+05         0.00000E+00
    0.00000E+00         0.00000E+00        -0.15680E+05
 
   -0.51045E+04         0.10890E+05         0.00000E+00
    0.10890E+05        -0.21367E+05         0.00000E+00
    0.00000E+00         0.00000E+00        -0.13597E+05
 
   -0.31596E+04         0.99996E+04         0.00000E+00
    0.99996E+04        -0.20060E+05         0.00000E+00
    0.00000E+00         0.00000E+00        -0.11651E+05
 
   -0.14965E+04         0.91475E+04         0.00000E+00
    0.91475E+04        -0.18716E+05         0.00000E+00
    0.00000E+00         0.00000E+00        -0.98638E+04
 
    0.25324E+02         0.83393E+04         0.00000E+00
    0.83393E+04        -0.17397E+05         0.00000E+00
    0.00000E+00         0.00000E+00        -0.81918E+04
 
    0.13775E+04         0.76319E+04         0.00000E+00
    0.76319E+04        -0.16042E+05         0.00000E+00
    0.00000E+00         0.00000E+00        -0.66429E+04
 
    0.26082E+04         0.69664E+04         0.00000E+00
    0.69664E+04        -0.14744E+05         0.00000E+00
    0.00000E+00         0.00000E+00        -0.51720E+04
 
    0.37401E+04         0.63243E+04         0.00000E+00
    0.63243E+04        -0.13487E+05         0.00000E+00
    0.00000E+00         0.00000E+00        -0.37286E+04
 
    0.47871E+04         0.57415E+04         0.00000E+00
    0.57415E+04        -0.12237E+05         0.00000E+00
    0.00000E+00         0.00000E+00        -0.23813E+04
 
    0.41263E+04         0.50933E+04         0.00000E+00
    0.50933E+04        -0.11075E+05         0.00000E+00
    0.00000E+00         0.00000E+00        -0.20846E+04
 
    0.26779E+04         0.45113E+04         0.00000E+00
    0.45113E+04        -0.10067E+05         0.00000E+00
    0.00000E+00         0.00000E+00        -0.22166E+04
 
    0.11489E+04         0.41403E+04         0.00000E+00
    0.41403E+04        -0.91665E+04         0.00000E+00
    0.00000E+00         0.00000E+00        -0.24053E+04
 
   -0.45753E+03         0.39691E+04         0.00000E+00
    0.39691E+04        -0.83437E+04         0.00000E+00
    0.00000E+00         0.00000E+00        -0.26404E+04
 
   -0.21802E+04         0.39976E+04         0.00000E+00
    0.39976E+04        -0.75630E+04         0.00000E+00
    0.00000E+00         0.00000E+00        -0.29230E+04
 
    0.13467E+04        -0.11987E+04         0.00000E+00
   -0.11987E+04        -0.14059E+04         0.00000E+00
    0.00000E+00         0.00000E+00         0.22228E+03
 
   -0.23045E+05         0.57809E+04         0.00000E+00
    0.57809E+04        -0.22915E+04         0.00000E+00
    0.00000E+00         0.00000E+00        -0.94142E+04
 
   -0.27456E+05         0.95213E+04         0.00000E+00
    0.95213E+04        -0.78757E+04         0.00000E+00
    0.00000E+00         0.00000E+00        -0.17494E+05
 
   -0.27575E+05         0.11817E+05         0.00000E+00
    0.11817E+05        -0.11661E+05         0.00000E+00
    0.00000E+00         0.00000E+00        -0.20749E+05
 
   -0.25539E+05         0.13242E+05         0.00000E+00
    0.13242E+05        -0.14312E+05         0.00000E+00
    0.00000E+00         0.00000E+00        -0.21589E+05
 
   -0.22756E+05         0.13980E+05         0.00000E+00
    0.13980E+05        -0.16200E+05         0.00000E+00
    0.00000E+00         0.00000E+00        -0.21214E+05
 
   -0.19612E+05         0.14184E+05         0.00000E+00
    0.14184E+05        -0.17458E+05         0.00000E+00
    0.00000E+00         0.00000E+00        -0.20166E+05
 
   -0.16450E+05         0.13987E+05         0.00000E+00
    0.13987E+05        -0.18168E+05         0.00000E+00
    0.00000E+00         0.00000E+00        -0.18721E+05
 
   -0.13463E+05         0.13526E+05         0.00000E+00
    0.13526E+05        -0.18435E+05         0.00000E+00
    0.00000E+00         0.00000E+00        -0.17077E+05
 
   -0.10708E+05         0.12898E+05         0.00000E+00
    0.12898E+05        -0.18343E+05         0.00000E+00
    0.00000E+00         0.00000E+00        -0.15336E+05
 
   -0.82126E+04         0.12167E+05         0.00000E+00
    0.12167E+05        -0.17969E+05         0.00000E+00
    0.00000E+00         0.00000E+00        -0.13580E+05
 
   -0.59646E+04         0.11452E+05         0.00000E+00
    0.11452E+05        -0.17395E+05         0.00000E+00
    0.00000E+00         0.00000E+00        -0.11845E+05
 
   -0.40185E+04         0.10700E+05         0.00000E+00
    0.10700E+05        -0.16732E+05         0.00000E+00
    0.00000E+00         0.00000E+00        -0.10229E+05
 
   -0.23062E+04         0.99539E+04         0.00000E+00
    0.99539E+04        -0.15920E+05         0.00000E+00
    0.00000E+00         0.00000E+00        -0.87132E+04
 
   -0.76689E+03         0.92448E+04         0.00000E+00
    0.92448E+04        -0.14936E+05         0.00000E+00
    0.00000E+00         0.00000E+00        -0.72913E+04
 
    0.65613E+03         0.85428E+04         0.00000E+00
    0.85428E+04        -0.13918E+05         0.00000E+00
    0.00000E+00         0.00000E+00        -0.59150E+04
 
    0.19058E+04         0.78675E+04         0.00000E+00
    0.78675E+04        -0.12916E+05         0.00000E+00
    0.00000E+00         0.00000E+00        -0.45977E+04
 
    0.31161E+04         0.72754E+04         0.00000E+00
    0.72754E+04        -0.11919E+05         0.00000E+00
    0.00000E+00         0.00000E+00        -0.32701E+04
 
    0.41149E+04         0.67096E+04         0.00000E+00
    0.67096E+04        -0.10901E+05         0.00000E+00
    0.00000E+00         0.00000E+00        -0.21325E+04
 
    0.33585E+04         0.59377E+04         0.00000E+00
    0.59377E+04        -0.99827E+04         0.00000E+00
    0.00000E+00         0.00000E+00        -0.19873E+04
 
    0.21222E+04         0.52849E+04         0.00000E+00
    0.52849E+04        -0.91590E+04         0.00000E+00
    0.00000E+00         0.00000E+00        -0.21111E+04
 
    0.81156E+03         0.48628E+04         0.00000E+00
    0.48628E+04        -0.84031E+04         0.00000E+00
    0.00000E+00         0.00000E+00        -0.22775E+04
 
   -0.58209E+03         0.46699E+04         0.00000E+00
    0.46699E+04        -0.76962E+04         0.00000E+00
    0.00000E+00         0.00000E+00        -0.24835E+04
 
   -0.20829E+04         0.47069E+04         0.00000E+00
    0.47069E+04        -0.70173E+04         0.00000E+00
    0.00000E+00         0.00000E+00        -0.27301E+04
 
    0.19258E+04        -0.17161E+04         0.00000E+00
   -0.17161E+04         0.31526E+03         0.00000E+00
    0.00000E+00         0.00000E+00         0.72358E+03
 
   -0.17467E+05         0.77104E+03         0.00000E+00
    0.77104E+03        -0.58377E+03         0.00000E+00
    0.00000E+00         0.00000E+00        -0.54153E+04
 
   -0.25303E+05         0.60809E+04         0.00000E+00
    0.60809E+04        -0.36932E+04         0.00000E+00
    0.00000E+00         0.00000E+00        -0.11370E+05
 
   -0.25344E+05         0.88188E+04         0.00000E+00
    0.88188E+04        -0.65304E+04         0.00000E+00
    0.00000E+00         0.00000E+00        -0.14733E+05
 
   -0.24136E+05         0.10668E+05         0.00000E+00
    0.10668E+05        -0.89617E+04         0.00000E+00
    0.00000E+00         0.00000E+00        -0.16255E+05
 
   -0.21907E+05         0.11912E+05         0.00000E+00
    0.11912E+05        -0.10853E+05         0.00000E+00
    0.00000E+00         0.00000E+00        -0.16570E+05
 
   -0.19292E+05         0.12581E+05         0.00000E+00
    0.12581E+05        -0.12210E+05         0.00000E+00
    0.00000E+00         0.00000E+00        -0.16152E+05
 
   -0.16517E+05         0.12832E+05         0.00000E+00
    0.12832E+05        -0.13164E+05         0.00000E+00
    0.00000E+00         0.00000E+00        -0.15271E+05
 
   -0.13806E+05         0.12763E+05         0.00000E+00
    0.12763E+05        -0.13761E+05         0.00000E+00
    0.00000E+00         0.00000E+00        -0.14131E+05
 
   -0.11245E+05         0.12472E+05         0.00000E+00
    0.12472E+05        -0.14062E+05         0.00000E+00
    0.00000E+00         0.00000E+00        -0.12834E+05
 
   -0.88349E+04         0.12059E+05         0.00000E+00
    0.12059E+05        -0.14102E+05         0.00000E+00
    0.00000E+00         0.00000E+00        -0.11435E+05
 
   -0.66489E+04         0.11531E+05         0.00000E+00
    0.11531E+05        -0.13936E+05         0.00000E+00
    0.00000E+00         0.00000E+00        -0.10029E+05
 
   -0.47292E+04         0.10965E+05         0.00000E+00
    0.10965E+05        -0.13560E+05         0.00000E+00
    0.00000E+00         0.00000E+00        -0.86932E+04
 
   -0.30091E+04         0.10370E+05         0.00000E+00
    0.10370E+05        -0.13029E+05         0.00000E+00
    0.00000E+00         0.00000E+00        -0.74236E+04
 
   -0.14615E+04         0.97670E+04         0.00000E+00
    0.97670E+04        -0.12441E+05         0.00000E+00
    0.00000E+00         0.00000E+00        -0.62239E+04
 
   -0.40918E+02         0.91600E+04         0.00000E+00
    0.91600E+04        -0.11779E+05         0.00000E+00
    0.00000E+00         0.00000E+00        -0.50261E+04
 
    0.12669E+04         0.85657E+04         0.00000E+00
    0.85657E+04        -0.11020E+05         0.00000E+00
    0.00000E+00         0.00000E+00        -0.38437E+04
 
    0.24935E+04         0.80129E+04         0.00000E+00
    0.80129E+04        -0.10182E+05         0.00000E+00
    0.00000E+00         0.00000E+00        -0.27572E+04
 
    0.33304E+04         0.74156E+04         0.00000E+00
    0.74156E+04        -0.93642E+04         0.00000E+00
    0.00000E+00         0.00000E+00        -0.18478E+04
 
    0.25308E+04         0.65466E+04         0.00000E+00
    0.65466E+04        -0.87237E+04         0.00000E+00
    0.00000E+00         0.00000E+00        -0.18579E+04
 
    0.15187E+04         0.58744E+04         0.00000E+00
    0.58744E+04        -0.81245E+04         0.00000E+00
    0.00000E+00         0.00000E+00        -0.19817E+04
 
    0.44532E+03         0.54463E+04         0.00000E+00
    0.54463E+04        -0.75372E+04         0.00000E+00
    0.00000E+00         0.00000E+00        -0.21276E+04
 
   -0.71519E+03         0.52565E+04         0.00000E+00
    0.52565E+04        -0.69626E+04         0.00000E+00
    0.00000E+00         0.00000E+00        -0.23033E+04
 
   -0.19701E+04         0.53097E+04         0.00000E+00
    0.53097E+04        -0.63984E+04         0.00000E+00
    0.00000E+00         0.00000E+00        -0.25105E+04
 
    0.86307E+02        -0.17827E+04         0.00000E+00
   -0.17827E+04         0.23118E+03         0.00000E+00
    0.00000E+00         0.00000E+00         0.95245E+02
 
   -0.12911E+05        -0.11842E+04         0.00000E+00
   -0.11842E+04         0.44228E+03         0.00000E+00
    0.00000E+00         0.00000E+00        -0.37405E+04
 
   -0.21906E+05         0.29224E+04         0.00000E+00
    0.29224E+04        -0.21283E+03         0.00000E+00
    0.00000E+00         0.00000E+00        -0.68662E+04
 
   -0.23306E+05         0.61980E+04         0.00000E+00
    0.61980E+04        -0.29503E+04         0.00000E+00
    0.00000E+00         0.00000E+00        -0.10404E+05
 
   -0.22452E+05         0.83533E+04         0.00000E+00
    0.83533E+04        -0.48987E+04         0.00000E+00
    0.00000E+00         0.00000E+00        -0.12057E+05
 
   -0.20729E+05         0.99133E+04         0.00000E+00
    0.99133E+04        -0.66371E+04         0.00000E+00
    0.00000E+00         0.00000E+00        -0.12601E+05
 
   -0.18616E+05         0.10958E+05         0.00000E+00
    0.10958E+05        -0.81056E+04         0.00000E+00
    0.00000E+00         0.00000E+00        -0.12604E+05
 
   -0.16229E+05         0.11549E+05         0.00000E+00
    0.11549E+05        -0.91855E+04         0.00000E+00
    0.00000E+00         0.00000E+00        -0.12119E+05
 
   -0.13823E+05         0.11795E+05         0.00000E+00
    0.11795E+05        -0.99417E+04         0.00000E+00
    0.00000E+00         0.00000E+00        -0.11367E+05
 
   -0.11460E+05         0.11793E+05         0.00000E+00
    0.11793E+05        -0.10414E+05         0.00000E+00
    0.00000E+00         0.00000E+00        -0.10417E+05
 
   -0.92068E+04         0.11622E+05         0.00000E+00
    0.11622E+05        -0.10648E+05         0.00000E+00
    0.00000E+00         0.00000E+00        -0.93446E+04
 
   -0.71299E+04         0.11331E+05         0.00000E+00
    0.11331E+05        -0.10672E+05         0.00000E+00
    0.00000E+00         0.00000E+00        -0.82246E+04
 
   -0.52688E+04         0.10938E+05         0.00000E+00
    0.10938E+05        -0.10560E+05         0.00000E+00
    0.00000E+00         0.00000E+00        -0.71447E+04
 
   -0.35847E+04         0.10496E+05         0.00000E+00
    0.10496E+05        -0.10330E+05         0.00000E+00
    0.00000E+00         0.00000E+00        -0.61003E+04
 
   -0.20464E+04         0.10021E+05         0.00000E+00
    0.10021E+05        -0.99565E+04         0.00000E+00
    0.00000E+00         0.00000E+00        -0.50817E+04
 
   -0.64387E+03         0.95321E+04         0.00000E+00
    0.95321E+04        -0.94730E+04         0.00000E+00
    0.00000E+00         0.00000E+00        -0.41112E+04
 
    0.68615E+03         0.90413E+04         0.00000E+00
    0.90413E+04        -0.89242E+04         0.00000E+00
    0.00000E+00         0.00000E+00        -0.31387E+04
 
    0.19161E+04         0.85500E+04         0.00000E+00
    0.85500E+04        -0.83114E+04         0.00000E+00
    0.00000E+00         0.00000E+00        -0.21862E+04
 
    0.23874E+04         0.78273E+04         0.00000E+00
    0.78273E+04        -0.78038E+04         0.00000E+00
    0.00000E+00         0.00000E+00        -0.16249E+04
 
    0.16771E+04         0.69079E+04         0.00000E+00
    0.69079E+04        -0.74568E+04         0.00000E+00
    0.00000E+00         0.00000E+00        -0.17339E+04
 
    0.92432E+03         0.62759E+04         0.00000E+00
    0.62759E+04        -0.70586E+04         0.00000E+00
    0.00000E+00         0.00000E+00        -0.18403E+04
 
    0.84915E+02         0.58837E+04         0.00000E+00
    0.58837E+04        -0.66305E+04         0.00000E+00
    0.00000E+00         0.00000E+00        -0.19637E+04
 
   -0.83995E+03         0.57218E+04         0.00000E+00
    0.57218E+04        -0.61862E+04         0.00000E+00
    0.00000E+00         0.00000E+00        -0.21078E+04
 
   -0.18434E+04         0.57988E+04         0.00000E+00
    0.57988E+04        -0.57383E+04         0.00000E+00
    0.00000E+00         0.00000E+00        -0.22745E+04
 
   -0.19809E+04        -0.15355E+04         0.00000E+00
   -0.15355E+04         0.41292E+03         0.00000E+00
    0.00000E+00         0.00000E+00        -0.47040E+03
 
   -0.10850E+05        -0.16858E+04         0.00000E+00
   -0.16858E+04         0.10452E+04         0.00000E+00
    0.00000E+00         0.00000E+00        -0.29413E+04
 
   -0.17977E+05         0.71584E+03         0.00000E+00
    0.71584E+03         0.57947E+03         0.00000E+00
    0.00000E+00         0.00000E+00        -0.52192E+04
 
   -0.21023E+05         0.40452E+04         0.00000E+00
    0.40452E+04        -0.30711E+03         0.00000E+00
    0.00000E+00         0.00000E+00        -0.70814E+04
 
   -0.20678E+05         0.63936E+04         0.00000E+00
    0.63936E+04        -0.19338E+04         0.00000E+00
    0.00000E+00         0.00000E+00        -0.87743E+04
 
   -0.19379E+05         0.80789E+04         0.00000E+00
    0.80789E+04        -0.32800E+04         0.00000E+00
    0.00000E+00         0.00000E+00        -0.95352E+04
 
   -0.17676E+05         0.93251E+04         0.00000E+00
    0.93251E+04        -0.45183E+04         0.00000E+00
    0.00000E+00         0.00000E+00        -0.96730E+04
 
   -0.15665E+05         0.10209E+05         0.00000E+00
    0.10209E+05        -0.56054E+04         0.00000E+00
    0.00000E+00         0.00000E+00        -0.94446E+04
 
   -0.13584E+05         0.10725E+05         0.00000E+00
    0.10725E+05        -0.64595E+04         0.00000E+00
    0.00000E+00         0.00000E+00        -0.89543E+04
 
   -0.11434E+05         0.10973E+05         0.00000E+00
    0.10973E+05        -0.70641E+04         0.00000E+00
    0.00000E+00         0.00000E+00        -0.82619E+04
 
   -0.93520E+04         0.11032E+05         0.00000E+00
    0.11032E+05        -0.74640E+04         0.00000E+00
    0.00000E+00         0.00000E+00        -0.74398E+04
 
   -0.74160E+04         0.10931E+05         0.00000E+00
    0.10931E+05        -0.76900E+04         0.00000E+00
    0.00000E+00         0.00000E+00        -0.65658E+04
 
   -0.56517E+04         0.10713E+05         0.00000E+00
    0.10713E+05        -0.77488E+04         0.00000E+00
    0.00000E+00         0.00000E+00        -0.57051E+04
 
   -0.40205E+04         0.10424E+05         0.00000E+00
    0.10424E+05        -0.76560E+04         0.00000E+00
    0.00000E+00         0.00000E+00        -0.48548E+04
 
   -0.25146E+04         0.10082E+05         0.00000E+00
    0.10082E+05        -0.74780E+04         0.00000E+00
    0.00000E+00         0.00000E+00        -0.40126E+04
 
   -0.11402E+04         0.96990E+04         0.00000E+00
    0.96990E+04        -0.72260E+04         0.00000E+00
    0.00000E+00         0.00000E+00        -0.32035E+04
 
    0.17760E+03         0.92987E+04         0.00000E+00
    0.92987E+04        -0.68532E+04         0.00000E+00
    0.00000E+00         0.00000E+00        -0.23671E+04
 
    0.13066E+04         0.88516E+04         0.00000E+00
    0.88516E+04        -0.65017E+04         0.00000E+00
    0.00000E+00         0.00000E+00        -0.16015E+04
 
    0.12747E+04         0.78482E+04         0.00000E+00
    0.78482E+04        -0.64289E+04         0.00000E+00
    0.00000E+00         0.00000E+00        -0.15463E+04
 
    0.89613E+03         0.70637E+04         0.00000E+00
    0.70637E+04        -0.62767E+04         0.00000E+00
    0.00000E+00         0.00000E+00        -0.16142E+04
 
    0.37706E+03         0.65198E+04         0.00000E+00
    0.65198E+04        -0.60342E+04         0.00000E+00
    0.00000E+00         0.00000E+00        -0.16971E+04
 
   -0.24123E+03         0.61898E+04         0.00000E+00
    0.61898E+04        -0.57359E+04         0.00000E+00
    0.00000E+00         0.00000E+00        -0.17931E+04
 
   -0.94280E+03         0.60717E+04         0.00000E+00
    0.60717E+04        -0.54072E+04         0.00000E+00
    0.00000E+00         0.00000E+00        -0.19050E+04
 
   -0.17056E+04         0.61761E+04         0.00000E+00
    0.61761E+04        -0.50681E+04         0.00000E+00
    0.00000E+00         0.00000E+00        -0.20321E+04
 
   -0.38493E+04        -0.12030E+04         0.00000E+00
   -0.12030E+04         0.39317E+03         0.00000E+00
    0.00000E+00         0.00000E+00        -0.10368E+04
 
   -0.10000E+05        -0.17043E+04         0.00000E+00
   -0.17043E+04         0.11782E+04         0.00000E+00
    0.00000E+00         0.00000E+00        -0.26466E+04
 
   -0.15074E+05        -0.17042E+03         0.00000E+00
   -0.17042E+03         0.15717E+04         0.00000E+00
    0.00000E+00         0.00000E+00        -0.40507E+04
 
   -0.18331E+05         0.23511E+04         0.00000E+00
    0.23511E+04         0.12928E+04         0.00000E+00
    0.00000E+00         0.00000E+00        -0.51114E+04
 
   -0.18865E+05         0.47592E+04         0.00000E+00
    0.47592E+04         0.31904E+03         0.00000E+00
    0.00000E+00         0.00000E+00        -0.61713E+04
 
   -0.17971E+05         0.65544E+04         0.00000E+00
    0.65544E+04        -0.80936E+03         0.00000E+00
    0.00000E+00         0.00000E+00        -0.69750E+04
 
   -0.16588E+05         0.78933E+04         0.00000E+00
    0.78933E+04        -0.17858E+04         0.00000E+00
    0.00000E+00         0.00000E+00        -0.72707E+04
 
   -0.14903E+05         0.88969E+04         0.00000E+00
    0.88969E+04        -0.26773E+04         0.00000E+00
    0.00000E+00         0.00000E+00        -0.72045E+04
 
   -0.13115E+05         0.96202E+04         0.00000E+00
    0.96202E+04        -0.34659E+04         0.00000E+00
    0.00000E+00         0.00000E+00        -0.68873E+04
 
   -0.11206E+05         0.10076E+05         0.00000E+00
    0.10076E+05        -0.41198E+04         0.00000E+00
    0.00000E+00         0.00000E+00        -0.64007E+04
 
   -0.93163E+04         0.10322E+05         0.00000E+00
    0.10322E+05        -0.45908E+04         0.00000E+00
    0.00000E+00         0.00000E+00        -0.57771E+04
 
   -0.75368E+04         0.10390E+05         0.00000E+00
    0.10390E+05        -0.49124E+04         0.00000E+00
    0.00000E+00         0.00000E+00        -0.50910E+04
 
   -0.58741E+04         0.10334E+05         0.00000E+00
    0.10334E+05        -0.51175E+04         0.00000E+00
    0.00000E+00         0.00000E+00        -0.43710E+04
 
   -0.43208E+04         0.10188E+05         0.00000E+00
    0.10188E+05        -0.52370E+04         0.00000E+00
    0.00000E+00         0.00000E+00        -0.36824E+04
 
   -0.28698E+04         0.99736E+04         0.00000E+00
    0.99736E+04        -0.51976E+04         0.00000E+00
    0.00000E+00         0.00000E+00        -0.29793E+04
 
   -0.15520E+04         0.96868E+04         0.00000E+00
    0.96868E+04        -0.50478E+04         0.00000E+00
    0.00000E+00         0.00000E+00        -0.22999E+04
 
   -0.24651E+03         0.93945E+04         0.00000E+00
    0.93945E+04        -0.49373E+04         0.00000E+00
    0.00000E+00         0.00000E+00        -0.15981E+04
 
    0.28259E+03         0.85463E+04         0.00000E+00
    0.85463E+04        -0.51215E+04         0.00000E+00
    0.00000E+00         0.00000E+00        -0.14517E+04
 
    0.37953E+03         0.77221E+04         0.00000E+00
    0.77221E+04        -0.52601E+04         0.00000E+00
    0.00000E+00         0.00000E+00        -0.14642E+04
 
    0.21696E+03         0.70893E+04         0.00000E+00
    0.70893E+04        -0.52211E+04         0.00000E+00
    0.00000E+00         0.00000E+00        -0.15012E+04
 
   -0.97299E+02         0.66456E+04         0.00000E+00
    0.66456E+04        -0.50834E+04         0.00000E+00
    0.00000E+00         0.00000E+00        -0.15542E+04
 
   -0.51923E+03         0.63878E+04         0.00000E+00
    0.63878E+04        -0.48861E+04         0.00000E+00
    0.00000E+00         0.00000E+00        -0.16216E+04
 
   -0.10169E+04         0.63190E+04         0.00000E+00
    0.63190E+04        -0.46545E+04         0.00000E+00
    0.00000E+00         0.00000E+00        -0.17014E+04
 
   -0.15601E+04         0.64505E+04         0.00000E+00
    0.64505E+04        -0.44120E+04         0.00000E+00
    0.00000E+00         0.00000E+00        -0.17916E+04
 
   -0.53893E+04        -0.89603E+03         0.00000E+00
   -0.89603E+03         0.37046E+03         0.00000E+00
    0.00000E+00         0.00000E+00        -0.15057E+04
 
   -0.95654E+04        -0.13843E+04         0.00000E+00
   -0.13843E+04         0.12320E+04         0.00000E+00
    0.00000E+00         0.00000E+00        -0.25000E+04
 
   -0.13316E+05        -0.42177E+03         0.00000E+00
   -0.42177E+03         0.18785E+04         0.00000E+00
    0.00000E+00         0.00000E+00        -0.34311E+04
 
   -0.15830E+05         0.14109E+04         0.00000E+00
    0.14109E+04         0.19963E+04         0.00000E+00
    0.00000E+00         0.00000E+00        -0.41502E+04
 
   -0.16946E+05         0.34854E+04         0.00000E+00
    0.34854E+04         0.18574E+04         0.00000E+00
    0.00000E+00         0.00000E+00        -0.45266E+04
 
   -0.16529E+05         0.52478E+04         0.00000E+00
    0.52478E+04         0.11701E+04         0.00000E+00
    0.00000E+00         0.00000E+00        -0.49668E+04
 
   -0.15453E+05         0.66652E+04         0.00000E+00
    0.66652E+04         0.32516E+03         0.00000E+00
    0.00000E+00         0.00000E+00        -0.52634E+04
 
   -0.14047E+05         0.77553E+04         0.00000E+00
    0.77553E+04        -0.41540E+03         0.00000E+00
    0.00000E+00         0.00000E+00        -0.52887E+04
 
   -0.12489E+05         0.85515E+04         0.00000E+00
    0.85515E+04        -0.11029E+04         0.00000E+00
    0.00000E+00         0.00000E+00        -0.51238E+04
 
   -0.10821E+05         0.91685E+04         0.00000E+00
    0.91685E+04        -0.16749E+04         0.00000E+00
    0.00000E+00         0.00000E+00        -0.47343E+04
 
   -0.91262E+04         0.95563E+04         0.00000E+00
    0.95563E+04        -0.21758E+04         0.00000E+00
    0.00000E+00         0.00000E+00        -0.42600E+04
 
   -0.75051E+04         0.97833E+04         0.00000E+00
    0.97833E+04        -0.25773E+04         0.00000E+00
    0.00000E+00         0.00000E+00        -0.37214E+04
 
   -0.59693E+04         0.98502E+04         0.00000E+00
    0.98502E+04        -0.28339E+04         0.00000E+00
    0.00000E+00         0.00000E+00        -0.31567E+04
 
   -0.44915E+04         0.98257E+04         0.00000E+00
    0.98257E+04        -0.29454E+04         0.00000E+00
    0.00000E+00         0.00000E+00        -0.25695E+04
 
   -0.31546E+04         0.97268E+04         0.00000E+00
    0.97268E+04        -0.30728E+04         0.00000E+00
    0.00000E+00         0.00000E+00        -0.20079E+04
 
   -0.18981E+04         0.94764E+04         0.00000E+00
    0.94764E+04        -0.32791E+04         0.00000E+00
    0.00000E+00         0.00000E+00        -0.15532E+04
 
   -0.10452E+04         0.88126E+04         0.00000E+00
    0.88126E+04        -0.37204E+04         0.00000E+00
    0.00000E+00         0.00000E+00        -0.14297E+04
 
   -0.56300E+03         0.81330E+04         0.00000E+00
    0.81330E+04        -0.40877E+04         0.00000E+00
    0.00000E+00         0.00000E+00        -0.13952E+04
 
   -0.34764E+03         0.75173E+04         0.00000E+00
    0.75173E+04        -0.42481E+04         0.00000E+00
    0.00000E+00         0.00000E+00        -0.13787E+04
 
   -0.34702E+03         0.70274E+04         0.00000E+00
    0.70274E+04        -0.42761E+04         0.00000E+00
    0.00000E+00         0.00000E+00        -0.13869E+04
 
   -0.49471E+03         0.66851E+04         0.00000E+00
    0.66851E+04        -0.42146E+04         0.00000E+00
    0.00000E+00         0.00000E+00        -0.14128E+04
 
   -0.74492E+03         0.64992E+04         0.00000E+00
    0.64992E+04        -0.40955E+04         0.00000E+00
    0.00000E+00         0.00000E+00        -0.14521E+04
 
   -0.10619E+04         0.64787E+04         0.00000E+00
    0.64787E+04        -0.39445E+04         0.00000E+00
    0.00000E+00         0.00000E+00        -0.15019E+04
 
   -0.14107E+04         0.66340E+04         0.00000E+00
    0.66340E+04        -0.37852E+04         0.00000E+00
    0.00000E+00         0.00000E+00        -0.15588E+04
 
   -0.65282E+04        -0.62339E+03         0.00000E+00
   -0.62339E+03         0.34800E+03         0.00000E+00
    0.00000E+00         0.00000E+00        -0.18540E+04
 
   -0.93594E+04        -0.10060E+04         0.00000E+00
   -0.10060E+04         0.11676E+04         0.00000E+00
    0.00000E+00         0.00000E+00        -0.24575E+04
 
   -0.12075E+05        -0.35084E+03         0.00000E+00
   -0.35084E+03         0.19236E+04         0.00000E+00
    0.00000E+00         0.00000E+00        -0.30455E+04
 
   -0.14055E+05         0.10288E+04         0.00000E+00
    0.10288E+04         0.23590E+04         0.00000E+00
    0.00000E+00         0.00000E+00        -0.35090E+04
 
   -0.15043E+05         0.26913E+04         0.00000E+00
    0.26913E+04         0.23679E+04         0.00000E+00
    0.00000E+00         0.00000E+00        -0.38027E+04
 
   -0.15049E+05         0.42975E+04         0.00000E+00
    0.42975E+04         0.22757E+04         0.00000E+00
    0.00000E+00         0.00000E+00        -0.38319E+04
 
   -0.14319E+05         0.56646E+04         0.00000E+00
    0.56646E+04         0.20064E+04         0.00000E+00
    0.00000E+00         0.00000E+00        -0.37685E+04
 
   -0.13161E+05         0.67330E+04         0.00000E+00
    0.67330E+04         0.14295E+04         0.00000E+00
    0.00000E+00         0.00000E+00        -0.37666E+04
 
   -0.11793E+05         0.76286E+04         0.00000E+00
    0.76286E+04         0.87764E+03         0.00000E+00
    0.00000E+00         0.00000E+00        -0.36184E+04
 
   -0.10319E+05         0.83074E+04         0.00000E+00
    0.83074E+04         0.36292E+03         0.00000E+00
    0.00000E+00         0.00000E+00        -0.33291E+04
 
   -0.88175E+04         0.87916E+04         0.00000E+00
    0.87916E+04        -0.71726E+02         0.00000E+00
    0.00000E+00         0.00000E+00        -0.29567E+04
 
   -0.73549E+04         0.91149E+04         0.00000E+00
    0.91149E+04        -0.44310E+03         0.00000E+00
    0.00000E+00         0.00000E+00        -0.25210E+04
 
   -0.59545E+04         0.93313E+04         0.00000E+00
    0.93313E+04        -0.80027E+03         0.00000E+00
    0.00000E+00         0.00000E+00        -0.20744E+04
 
   -0.46344E+04         0.93073E+04         0.00000E+00
    0.93073E+04        -0.12651E+04         0.00000E+00
    0.00000E+00         0.00000E+00        -0.17709E+04
 
   -0.34413E+04         0.90787E+04         0.00000E+00
    0.90787E+04        -0.18094E+04         0.00000E+00
    0.00000E+00         0.00000E+00        -0.15752E+04
 
   -0.24751E+04         0.86950E+04         0.00000E+00
    0.86950E+04        -0.24209E+04         0.00000E+00
    0.00000E+00         0.00000E+00        -0.14688E+04
 
   -0.17293E+04         0.82247E+04         0.00000E+00
    0.82247E+04        -0.28846E+04         0.00000E+00
    0.00000E+00         0.00000E+00        -0.13842E+04
 
   -0.12125E+04         0.77226E+04         0.00000E+00
    0.77226E+04        -0.31837E+04         0.00000E+00
    0.00000E+00         0.00000E+00        -0.13189E+04
 
   -0.92276E+03         0.72718E+04         0.00000E+00
    0.72718E+04        -0.33612E+04         0.00000E+00
    0.00000E+00         0.00000E+00        -0.12852E+04
 
   -0.80416E+03         0.69082E+04         0.00000E+00
    0.69082E+04        -0.34315E+04         0.00000E+00
    0.00000E+00         0.00000E+00        -0.12707E+04
 
   -0.81691E+03         0.66593E+04         0.00000E+00
    0.66593E+04        -0.34250E+04         0.00000E+00
    0.00000E+00         0.00000E+00        -0.12726E+04
 
   -0.92080E+03         0.65407E+04         0.00000E+00
    0.65407E+04        -0.33681E+04         0.00000E+00
    0.00000E+00         0.00000E+00        -0.12867E+04
 
   -0.10805E+04         0.65640E+04         0.00000E+00
    0.65640E+04        -0.32842E+04         0.00000E+00
    0.00000E+00         0.00000E+00        -0.13094E+04
 
   -0.12608E+04         0.67393E+04         0.00000E+00
    0.67393E+04        -0.31960E+04         0.00000E+00
    0.00000E+00         0.00000E+00        -0.13371E+04
 
   -0.73083E+04        -0.40595E+03         0.00000E+00
   -0.40595E+03         0.32038E+03         0.00000E+00
    0.00000E+00         0.00000E+00        -0.20964E+04
 
   -0.92252E+04        -0.64828E+03         0.00000E+00
   -0.64828E+03         0.10777E+04         0.00000E+00
    0.00000E+00         0.00000E+00        -0.24443E+04
 
   -0.11163E+05        -0.15553E+03         0.00000E+00
   -0.15553E+03         0.18327E+04         0.00000E+00
    0.00000E+00         0.00000E+00        -0.27991E+04
 
   -0.12681E+05         0.90140E+03         0.00000E+00
    0.90140E+03         0.23750E+04         0.00000E+00
    0.00000E+00         0.00000E+00        -0.30918E+04
 
   -0.13518E+05         0.22695E+04         0.00000E+00
    0.22695E+04         0.26367E+04         0.00000E+00
    0.00000E+00         0.00000E+00        -0.32644E+04
 
   -0.13627E+05         0.36778E+04         0.00000E+00
    0.36778E+04         0.26102E+04         0.00000E+00
    0.00000E+00         0.00000E+00        -0.33051E+04
 
   -0.13157E+05         0.49146E+04         0.00000E+00
    0.49146E+04         0.24110E+04         0.00000E+00
    0.00000E+00         0.00000E+00        -0.32239E+04
 
   -0.12241E+05         0.59759E+04         0.00000E+00
    0.59759E+04         0.22533E+04         0.00000E+00
    0.00000E+00         0.00000E+00        -0.29963E+04
 
   -0.11072E+05         0.68513E+04         0.00000E+00
    0.68513E+04         0.19860E+04         0.00000E+00
    0.00000E+00         0.00000E+00        -0.27259E+04
 
   -0.97934E+04         0.75268E+04         0.00000E+00
    0.75268E+04         0.15972E+04         0.00000E+00
    0.00000E+00         0.00000E+00        -0.24589E+04
 
   -0.84758E+04         0.80258E+04         0.00000E+00
    0.80258E+04         0.11140E+04         0.00000E+00
    0.00000E+00         0.00000E+00        -0.22085E+04
 
   -0.71635E+04         0.83369E+04         0.00000E+00
    0.83369E+04         0.55559E+03         0.00000E+00
    0.00000E+00         0.00000E+00        -0.19824E+04
 
   -0.59574E+04         0.84562E+04         0.00000E+00
    0.84562E+04        -0.85939E+02         0.00000E+00
    0.00000E+00         0.00000E+00        -0.18130E+04
 
   -0.48362E+04         0.84444E+04         0.00000E+00
    0.84444E+04        -0.70162E+03         0.00000E+00
    0.00000E+00         0.00000E+00        -0.16614E+04
 
   -0.38021E+04         0.82824E+04         0.00000E+00
    0.82824E+04        -0.12601E+04         0.00000E+00
    0.00000E+00         0.00000E+00        -0.15187E+04
 
   -0.29259E+04         0.80059E+04         0.00000E+00
    0.80059E+04        -0.17290E+04         0.00000E+00
    0.00000E+00         0.00000E+00        -0.13965E+04
 
   -0.22350E+04         0.76772E+04         0.00000E+00
    0.76772E+04        -0.21137E+04         0.00000E+00
    0.00000E+00         0.00000E+00        -0.13046E+04
 
   -0.17191E+04         0.73281E+04         0.00000E+00
    0.73281E+04        -0.23973E+04         0.00000E+00
    0.00000E+00         0.00000E+00        -0.12349E+04
 
   -0.13715E+04         0.70060E+04         0.00000E+00
    0.70060E+04        -0.25774E+04         0.00000E+00
    0.00000E+00         0.00000E+00        -0.11847E+04
 
   -0.11668E+04         0.67497E+04         0.00000E+00
    0.67497E+04        -0.26755E+04         0.00000E+00
    0.00000E+00         0.00000E+00        -0.11527E+04
 
   -0.10709E+04         0.65836E+04         0.00000E+00
    0.65836E+04        -0.27105E+04         0.00000E+00
    0.00000E+00         0.00000E+00        -0.11344E+04
 
   -0.10517E+04         0.65251E+04         0.00000E+00
    0.65251E+04        -0.27038E+04         0.00000E+00
    0.00000E+00         0.00000E+00        -0.11266E+04
 
   -0.10768E+04         0.65868E+04         0.00000E+00
    0.65868E+04        -0.26760E+04         0.00000E+00
    0.00000E+00         0.00000E+00        -0.11258E+04
 
   -0.11132E+04         0.67779E+04         0.00000E+00
    0.67779E+04        -0.26479E+04         0.00000E+00
    0.00000E+00         0.00000E+00        -0.11283E+04
 
   -0.77935E+04        -0.24140E+03         0.00000E+00
   -0.24140E+03         0.29633E+03         0.00000E+00
    0.00000E+00         0.00000E+00        -0.22491E+04
 
   -0.90935E+04        -0.35034E+03         0.00000E+00
   -0.35034E+03         0.98319E+03         0.00000E+00
    0.00000E+00         0.00000E+00        -0.24331E+04
 
   -0.10465E+05         0.54983E+02         0.00000E+00
    0.54983E+02         0.16883E+04         0.00000E+00
    0.00000E+00         0.00000E+00        -0.26330E+04
 
   -0.11587E+05         0.89290E+03         0.00000E+00
    0.89290E+03         0.22550E+04         0.00000E+00
    0.00000E+00         0.00000E+00        -0.27995E+04
 
   -0.12256E+05         0.19999E+04         0.00000E+00
    0.19999E+04         0.25930E+04         0.00000E+00
    0.00000E+00         0.00000E+00        -0.28988E+04
 
   -0.12406E+05         0.31919E+04         0.00000E+00
    0.31919E+04         0.26956E+04         0.00000E+00
    0.00000E+00         0.00000E+00        -0.29130E+04
 
   -0.12071E+05         0.43314E+04         0.00000E+00
    0.43314E+04         0.26180E+04         0.00000E+00
    0.00000E+00         0.00000E+00        -0.28358E+04
 
   -0.11354E+05         0.53276E+04         0.00000E+00
    0.53276E+04         0.23950E+04         0.00000E+00
    0.00000E+00         0.00000E+00        -0.26877E+04
 
   -0.10385E+05         0.61312E+04         0.00000E+00
    0.61312E+04         0.20819E+04         0.00000E+00
    0.00000E+00         0.00000E+00        -0.24910E+04
 
   -0.92935E+04         0.67497E+04         0.00000E+00
    0.67497E+04         0.16970E+04         0.00000E+00
    0.00000E+00         0.00000E+00        -0.22790E+04
 
   -0.81544E+04         0.71985E+04         0.00000E+00
    0.71985E+04         0.12511E+04         0.00000E+00
    0.00000E+00         0.00000E+00        -0.20710E+04
 
   -0.70295E+04         0.74814E+04         0.00000E+00
    0.74814E+04         0.75817E+03         0.00000E+00
    0.00000E+00         0.00000E+00        -0.18814E+04
 
   -0.59636E+04         0.76214E+04         0.00000E+00
    0.76214E+04         0.25855E+03         0.00000E+00
    0.00000E+00         0.00000E+00        -0.17115E+04
 
   -0.49724E+04         0.76503E+04         0.00000E+00
    0.76503E+04        -0.23654E+03         0.00000E+00
    0.00000E+00         0.00000E+00        -0.15627E+04
 
   -0.40640E+04         0.75704E+04         0.00000E+00
    0.75704E+04        -0.70308E+03         0.00000E+00
    0.00000E+00         0.00000E+00        -0.14301E+04
 
   -0.32719E+04         0.74003E+04         0.00000E+00
    0.74003E+04        -0.11113E+04         0.00000E+00
    0.00000E+00         0.00000E+00        -0.13150E+04
 
   -0.26178E+04         0.71797E+04         0.00000E+00
    0.71797E+04        -0.14444E+04         0.00000E+00
    0.00000E+00         0.00000E+00        -0.12187E+04
 
   -0.21036E+04         0.69455E+04         0.00000E+00
    0.69455E+04        -0.17010E+04         0.00000E+00
    0.00000E+00         0.00000E+00        -0.11414E+04
 
   -0.17196E+04         0.67302E+04         0.00000E+00
    0.67302E+04        -0.18829E+04         0.00000E+00
    0.00000E+00         0.00000E+00        -0.10808E+04
 
   -0.14482E+04         0.65637E+04         0.00000E+00
    0.65637E+04        -0.19995E+04         0.00000E+00
    0.00000E+00         0.00000E+00        -0.10343E+04
 
   -0.12652E+04         0.64690E+04         0.00000E+00
    0.64690E+04        -0.20663E+04         0.00000E+00
    0.00000E+00         0.00000E+00        -0.99947E+03
 
   -0.11436E+04         0.64627E+04         0.00000E+00
    0.64627E+04        -0.21003E+04         0.00000E+00
    0.00000E+00         0.00000E+00        -0.97318E+03
 
   -0.10551E+04         0.65570E+04         0.00000E+00
    0.65570E+04        -0.21192E+04         0.00000E+00
    0.00000E+00         0.00000E+00        -0.95229E+03
 
   -0.96979E+03         0.67603E+04         0.00000E+00
    0.67603E+04        -0.21418E+04         0.00000E+00
    0.00000E+00         0.00000E+00        -0.93347E+03
 
   -0.80527E+04        -0.12253E+03         0.00000E+00
   -0.12253E+03         0.27561E+03         0.00000E+00
    0.00000E+00         0.00000E+00        -0.23331E+04
 
   -0.89403E+04        -0.12275E+03         0.00000E+00
   -0.12275E+03         0.89648E+03         0.00000E+00
    0.00000E+00         0.00000E+00        -0.24131E+04
 
   -0.99027E+04         0.23513E+03         0.00000E+00
    0.23513E+03         0.15375E+04         0.00000E+00
    0.00000E+00         0.00000E+00        -0.25096E+04
 
   -0.10715E+05         0.91460E+03         0.00000E+00
    0.91460E+03         0.20799E+04         0.00000E+00
    0.00000E+00         0.00000E+00        -0.25906E+04
 
   -0.11222E+05         0.18157E+04         0.00000E+00
    0.18157E+04         0.24490E+04         0.00000E+00
    0.00000E+00         0.00000E+00        -0.26318E+04
 
   -0.11350E+05         0.28160E+04         0.00000E+00
    0.28160E+04         0.26206E+04         0.00000E+00
    0.00000E+00         0.00000E+00        -0.26188E+04
 
   -0.11104E+05         0.38023E+04         0.00000E+00
    0.38023E+04         0.26065E+04         0.00000E+00
    0.00000E+00         0.00000E+00        -0.25491E+04
 
   -0.10542E+05         0.46903E+04         0.00000E+00
    0.46903E+04         0.24434E+04         0.00000E+00
    0.00000E+00         0.00000E+00        -0.24296E+04
 
   -0.97568E+04         0.54309E+04         0.00000E+00
    0.54309E+04         0.21707E+04         0.00000E+00
    0.00000E+00         0.00000E+00        -0.22758E+04
 
   -0.88393E+04         0.60109E+04         0.00000E+00
    0.60109E+04         0.18266E+04         0.00000E+00
    0.00000E+00         0.00000E+00        -0.21038E+04
 
   -0.78650E+04         0.64374E+04         0.00000E+00
    0.64374E+04         0.14349E+04         0.00000E+00
    0.00000E+00         0.00000E+00        -0.19291E+04
 
   -0.68881E+04         0.67241E+04         0.00000E+00
    0.67241E+04         0.10180E+04         0.00000E+00
    0.00000E+00         0.00000E+00        -0.17610E+04
 
   -0.59465E+04         0.68907E+04         0.00000E+00
    0.68907E+04         0.59486E+03         0.00000E+00
    0.00000E+00         0.00000E+00        -0.16055E+04
 
   -0.50610E+04         0.69573E+04         0.00000E+00
    0.69573E+04         0.18152E+03         0.00000E+00
    0.00000E+00         0.00000E+00        -0.14639E+04
 
   -0.42478E+04         0.69384E+04         0.00000E+00
    0.69384E+04        -0.20854E+03         0.00000E+00
    0.00000E+00         0.00000E+00        -0.13369E+04
 
   -0.35246E+04         0.68512E+04         0.00000E+00
    0.68512E+04        -0.55733E+03         0.00000E+00
    0.00000E+00         0.00000E+00        -0.12246E+04
 
   -0.29055E+04         0.67218E+04         0.00000E+00
    0.67218E+04        -0.85193E+03         0.00000E+00
    0.00000E+00         0.00000E+00        -0.11272E+04
 
   -0.23940E+04         0.65789E+04         0.00000E+00
    0.65789E+04        -0.10876E+04         0.00000E+00
    0.00000E+00         0.00000E+00        -0.10445E+04
 
   -0.19839E+04         0.64498E+04         0.00000E+00
    0.64498E+04        -0.12667E+04         0.00000E+00
    0.00000E+00         0.00000E+00        -0.97519E+03
 
   -0.16617E+04         0.63583E+04         0.00000E+00
    0.63583E+04        -0.13964E+04         0.00000E+00
    0.00000E+00         0.00000E+00        -0.91744E+03
 
   -0.14087E+04         0.63239E+04         0.00000E+00
    0.63239E+04        -0.14879E+04         0.00000E+00
    0.00000E+00         0.00000E+00        -0.86897E+03
 
   -0.12027E+04         0.63619E+04         0.00000E+00
    0.63619E+04        -0.15548E+04         0.00000E+00
    0.00000E+00         0.00000E+00        -0.82726E+03
 
   -0.10193E+04         0.64834E+04         0.00000E+00
    0.64834E+04        -0.16125E+04         0.00000E+00
    0.00000E+00         0.00000E+00        -0.78955E+03
 
   -0.83221E+03         0.66958E+04         0.00000E+00
    0.66958E+04        -0.16773E+04         0.00000E+00
    0.00000E+00         0.00000E+00        -0.75286E+03
 
   -0.81489E+04        -0.40625E+02         0.00000E+00
   -0.40625E+02         0.25840E+03         0.00000E+00
    0.00000E+00         0.00000E+00        -0.23672E+04
 
   -0.87615E+04         0.39415E+02         0.00000E+00
    0.39415E+02         0.82262E+03         0.00000E+00
    0.00000E+00         0.00000E+00        -0.23817E+04
 
   -0.94337E+04         0.36804E+03         0.00000E+00
    0.36804E+03         0.13999E+04         0.00000E+00
    0.00000E+00         0.00000E+00        -0.24101E+04
 
   -0.10011E+05         0.93291E+03         0.00000E+00
    0.93291E+03         0.19043E+04         0.00000E+00
    0.00000E+00         0.00000E+00        -0.24319E+04
 
   -0.10376E+05         0.16736E+04         0.00000E+00
    0.16736E+04         0.22747E+04         0.00000E+00
    0.00000E+00         0.00000E+00        -0.24303E+04
 
   -0.10466E+05         0.25062E+04         0.00000E+00
    0.25062E+04         0.24818E+04         0.00000E+00
    0.00000E+00         0.00000E+00        -0.23952E+04
 
   -0.10271E+05         0.33460E+04         0.00000E+00
    0.33460E+04         0.25266E+04         0.00000E+00
    0.00000E+00         0.00000E+00        -0.23232E+04
 
   -0.98233E+04         0.41234E+04         0.00000E+00
    0.41234E+04         0.24304E+04         0.00000E+00
    0.00000E+00         0.00000E+00        -0.22179E+04
 
   -0.91829E+04         0.47932E+04         0.00000E+00
    0.47932E+04         0.22261E+04         0.00000E+00
    0.00000E+00         0.00000E+00        -0.20870E+04
 
   -0.84166E+04         0.53356E+04         0.00000E+00
    0.53356E+04         0.19467E+04         0.00000E+00
    0.00000E+00         0.00000E+00        -0.19410E+04
 
   -0.75848E+04         0.57495E+04         0.00000E+00
    0.57495E+04         0.16208E+04         0.00000E+00
    0.00000E+00         0.00000E+00        -0.17892E+04
 
   -0.67352E+04         0.60446E+04         0.00000E+00
    0.60446E+04         0.12705E+04         0.00000E+00
    0.00000E+00         0.00000E+00        -0.16394E+04
 
   -0.59022E+04         0.62363E+04         0.00000E+00
    0.62363E+04         0.91365E+03         0.00000E+00
    0.00000E+00         0.00000E+00        -0.14966E+04
 
   -0.51087E+04         0.63409E+04         0.00000E+00
    0.63409E+04         0.56371E+03         0.00000E+00
    0.00000E+00         0.00000E+00        -0.13635E+04
 
   -0.43714E+04         0.63739E+04         0.00000E+00
    0.63739E+04         0.23283E+03         0.00000E+00
    0.00000E+00         0.00000E+00        -0.12416E+04
 
   -0.37040E+04         0.63523E+04         0.00000E+00
    0.63523E+04        -0.67628E+02         0.00000E+00
    0.00000E+00         0.00000E+00        -0.11315E+04
 
   -0.31156E+04         0.62961E+04         0.00000E+00
    0.62961E+04        -0.32868E+03         0.00000E+00
    0.00000E+00         0.00000E+00        -0.10333E+04
 
   -0.26091E+04         0.62277E+04         0.00000E+00
    0.62277E+04        -0.54634E+03         0.00000E+00
    0.00000E+00         0.00000E+00        -0.94663E+03
 
   -0.21803E+04         0.61689E+04         0.00000E+00
    0.61689E+04        -0.72172E+03         0.00000E+00
    0.00000E+00         0.00000E+00        -0.87060E+03
 
   -0.18188E+04         0.61392E+04         0.00000E+00
    0.61392E+04        -0.86026E+03         0.00000E+00
    0.00000E+00         0.00000E+00        -0.80372E+03
 
   -0.15098E+04         0.61552E+04         0.00000E+00
    0.61552E+04        -0.97072E+03         0.00000E+00
    0.00000E+00         0.00000E+00        -0.74414E+03
 
   -0.12347E+04         0.62301E+04         0.00000E+00
    0.62301E+04        -0.10643E+04         0.00000E+00
    0.00000E+00         0.00000E+00        -0.68971E+03
 
   -0.97290E+03         0.63736E+04         0.00000E+00
    0.63736E+04        -0.11539E+04         0.00000E+00
    0.00000E+00         0.00000E+00        -0.63804E+03
 
   -0.70153E+03         0.65921E+04         0.00000E+00
    0.65921E+04        -0.12536E+04         0.00000E+00
    0.00000E+00         0.00000E+00        -0.58655E+03
 
   -0.81340E+04         0.12948E+02         0.00000E+00
    0.12948E+02         0.24429E+03         0.00000E+00
    0.00000E+00         0.00000E+00        -0.23669E+04
 
   -0.85633E+04         0.14683E+03         0.00000E+00
    0.14683E+03         0.76203E+03         0.00000E+00
    0.00000E+00         0.00000E+00        -0.23404E+04
 
   -0.90312E+04         0.45420E+03         0.00000E+00
    0.45420E+03         0.12838E+04         0.00000E+00
    0.00000E+00         0.00000E+00        -0.23242E+04
 
   -0.94327E+04         0.93413E+03         0.00000E+00
    0.93413E+03         0.17482E+04         0.00000E+00
    0.00000E+00         0.00000E+00        -0.23053E+04
 
   -0.96833E+04         0.15501E+04         0.00000E+00
    0.15501E+04         0.21074E+04         0.00000E+00
    0.00000E+00         0.00000E+00        -0.22728E+04
 
   -0.97320E+04         0.22451E+04         0.00000E+00
    0.22451E+04         0.23346E+04         0.00000E+00
    0.00000E+00         0.00000E+00        -0.22192E+04
 
   -0.95642E+04         0.29574E+04         0.00000E+00
    0.29574E+04         0.24247E+04         0.00000E+00
    0.00000E+00         0.00000E+00        -0.21419E+04
 
   -0.91966E+04         0.36328E+04         0.00000E+00
    0.36328E+04         0.23903E+04         0.00000E+00
    0.00000E+00         0.00000E+00        -0.20419E+04
 
   -0.86672E+04         0.42324E+04         0.00000E+00
    0.42324E+04         0.22546E+04         0.00000E+00
    0.00000E+00         0.00000E+00        -0.19238E+04
 
   -0.80233E+04         0.47350E+04         0.00000E+00
    0.47350E+04         0.20446E+04         0.00000E+00
    0.00000E+00         0.00000E+00        -0.17936E+04
 
   -0.73114E+04         0.51347E+04         0.00000E+00
    0.51347E+04         0.17857E+04         0.00000E+00
    0.00000E+00         0.00000E+00        -0.16577E+04
 
   -0.65711E+04         0.54358E+04         0.00000E+00
    0.54358E+04         0.14992E+04         0.00000E+00
    0.00000E+00         0.00000E+00        -0.15216E+04
 
   -0.58329E+04         0.56488E+04         0.00000E+00
    0.56488E+04         0.12018E+04         0.00000E+00
    0.00000E+00         0.00000E+00        -0.13893E+04
 
   -0.51192E+04         0.57871E+04         0.00000E+00
    0.57871E+04         0.90660E+03         0.00000E+00
    0.00000E+00         0.00000E+00        -0.12638E+04
 
   -0.44460E+04         0.58645E+04         0.00000E+00
    0.58645E+04         0.62427E+03         0.00000E+00
    0.00000E+00         0.00000E+00        -0.11465E+04
 
   -0.38251E+04         0.58963E+04         0.00000E+00
    0.58963E+04         0.36362E+03         0.00000E+00
    0.00000E+00         0.00000E+00        -0.10384E+04
 
   -0.32635E+04         0.58993E+04         0.00000E+00
    0.58993E+04         0.13107E+03         0.00000E+00
    0.00000E+00         0.00000E+00        -0.93972E+03
 
   -0.27633E+04         0.58913E+04         0.00000E+00
    0.58913E+04        -0.70303E+02         0.00000E+00
    0.00000E+00         0.00000E+00        -0.85008E+03
 
   -0.23214E+04         0.58898E+04         0.00000E+00
    0.58898E+04        -0.24116E+03         0.00000E+00
    0.00000E+00         0.00000E+00        -0.76877E+03
 
   -0.19296E+04         0.59108E+04         0.00000E+00
    0.59108E+04        -0.38563E+03         0.00000E+00
    0.00000E+00         0.00000E+00        -0.69458E+03
 
   -0.15759E+04         0.59682E+04         0.00000E+00
    0.59682E+04        -0.51068E+03         0.00000E+00
    0.00000E+00         0.00000E+00        -0.62599E+03
 
   -0.12450E+04         0.60732E+04         0.00000E+00
    0.60732E+04        -0.62554E+03         0.00000E+00
    0.00000E+00         0.00000E+00        -0.56116E+03
 
   -0.91905E+03         0.62341E+04         0.00000E+00
    0.62341E+04        -0.74108E+03         0.00000E+00
    0.00000E+00         0.00000E+00        -0.49804E+03
 
   -0.57858E+03         0.64564E+04         0.00000E+00
    0.64564E+04        -0.86944E+03         0.00000E+00
    0.00000E+00         0.00000E+00        -0.43441E+03
 
   -0.80481E+04         0.45698E+02         0.00000E+00
    0.45698E+02         0.23269E+03         0.00000E+00
    0.00000E+00         0.00000E+00        -0.23446E+04
 
   -0.83544E+04         0.21170E+03         0.00000E+00
    0.21170E+03         0.71333E+03         0.00000E+00
    0.00000E+00         0.00000E+00        -0.22923E+04
 
   -0.86788E+04         0.50052E+03         0.00000E+00
    0.50052E+03         0.11895E+04         0.00000E+00
    0.00000E+00         0.00000E+00        -0.22468E+04
 
   -0.89515E+04         0.91560E+03         0.00000E+00
    0.91560E+03         0.16179E+04         0.00000E+00
    0.00000E+00         0.00000E+00        -0.22001E+04
 
   -0.91126E+04         0.14348E+04         0.00000E+00
    0.14348E+04         0.19623E+04         0.00000E+00
    0.00000E+00         0.00000E+00        -0.21451E+04
 
   -0.91232E+04         0.20197E+04         0.00000E+00
    0.20197E+04         0.22001E+04         0.00000E+00
    0.00000E+00         0.00000E+00        -0.20769E+04
 
   -0.89684E+04         0.26258E+04         0.00000E+00
    0.26258E+04         0.23241E+04         0.00000E+00
    0.00000E+00         0.00000E+00        -0.19933E+04
 
   -0.86557E+04         0.32119E+04         0.00000E+00
    0.32119E+04         0.23408E+04         0.00000E+00
    0.00000E+00         0.00000E+00        -0.18945E+04
 
   -0.82091E+04         0.37461E+04         0.00000E+00
    0.37461E+04         0.22660E+04         0.00000E+00
    0.00000E+00         0.00000E+00        -0.17829E+04
 
   -0.76615E+04         0.42085E+04         0.00000E+00
    0.42085E+04         0.21203E+04         0.00000E+00
    0.00000E+00         0.00000E+00        -0.16624E+04
 
   -0.70477E+04         0.45906E+04         0.00000E+00
    0.45906E+04         0.19245E+04         0.00000E+00
    0.00000E+00         0.00000E+00        -0.15370E+04
 
   -0.63995E+04         0.48930E+04         0.00000E+00
    0.48930E+04         0.16973E+04         0.00000E+00
    0.00000E+00         0.00000E+00        -0.14106E+04
 
   -0.57429E+04         0.51221E+04         0.00000E+00
    0.51221E+04         0.14543E+04         0.00000E+00
    0.00000E+00         0.00000E+00        -0.12866E+04
 
   -0.50983E+04         0.52878E+04         0.00000E+00
    0.52878E+04         0.12077E+04         0.00000E+00
    0.00000E+00         0.00000E+00        -0.11672E+04
 
   -0.44803E+04         0.54019E+04         0.00000E+00
    0.54019E+04         0.96736E+03         0.00000E+00
    0.00000E+00         0.00000E+00        -0.10539E+04
 
   -0.38993E+04         0.54775E+04         0.00000E+00
    0.54775E+04         0.74066E+03         0.00000E+00
    0.00000E+00         0.00000E+00        -0.94759E+03
 
   -0.33614E+04         0.55284E+04         0.00000E+00
    0.55284E+04         0.53279E+03         0.00000E+00
    0.00000E+00         0.00000E+00        -0.84858E+03
 
   -0.28684E+04         0.55692E+04         0.00000E+00
    0.55692E+04         0.34619E+03         0.00000E+00
    0.00000E+00         0.00000E+00        -0.75665E+03
 
   -0.24177E+04         0.56141E+04         0.00000E+00
    0.56141E+04         0.18044E+03         0.00000E+00
    0.00000E+00         0.00000E+00        -0.67117E+03
 
   -0.20028E+04         0.56764E+04         0.00000E+00
    0.56764E+04         0.32347E+02         0.00000E+00
    0.00000E+00         0.00000E+00        -0.59114E+03
 
   -0.16139E+04         0.57674E+04         0.00000E+00
    0.57674E+04        -0.10371E+03         0.00000E+00
    0.00000E+00         0.00000E+00        -0.51528E+03
 
   -0.12381E+04         0.58966E+04         0.00000E+00
    0.58966E+04        -0.23534E+03         0.00000E+00
    0.00000E+00         0.00000E+00        -0.44202E+03
 
   -0.86033E+03         0.60709E+04         0.00000E+00
    0.60709E+04        -0.37173E+03         0.00000E+00
    0.00000E+00         0.00000E+00        -0.36962E+03
 
   -0.46394E+03         0.62945E+04         0.00000E+00
    0.62945E+04        -0.52321E+03         0.00000E+00
    0.00000E+00         0.00000E+00        -0.29615E+03
 
   -0.79212E+04         0.63722E+02         0.00000E+00
    0.63722E+02         0.22301E+03         0.00000E+00
    0.00000E+00         0.00000E+00        -0.23094E+04
 
   -0.81433E+04         0.24522E+03         0.00000E+00
    0.24522E+03         0.67425E+03         0.00000E+00
    0.00000E+00         0.00000E+00        -0.22407E+04
 
   -0.83666E+04         0.51583E+03         0.00000E+00
    0.51583E+03         0.11142E+04         0.00000E+00
    0.00000E+00         0.00000E+00        -0.21757E+04
 
   -0.85453E+04         0.87986E+03         0.00000E+00
    0.87986E+03         0.15125E+04         0.00000E+00
    0.00000E+00         0.00000E+00        -0.21098E+04
 
   -0.86381E+04         0.13237E+04         0.00000E+00
    0.13237E+04         0.18423E+04         0.00000E+00
    0.00000E+00         0.00000E+00        -0.20387E+04
 
   -0.86160E+04         0.18211E+04         0.00000E+00
    0.18211E+04         0.20854E+04         0.00000E+00
    0.00000E+00         0.00000E+00        -0.19592E+04
 
   -0.84659E+04         0.23405E+04         0.00000E+00
    0.23405E+04         0.22343E+04         0.00000E+00
    0.00000E+00         0.00000E+00        -0.18695E+04
 
   -0.81906E+04         0.28507E+04         0.00000E+00
    0.28507E+04         0.22916E+04         0.00000E+00
    0.00000E+00         0.00000E+00        -0.17697E+04
 
   -0.78051E+04         0.33264E+04         0.00000E+00
    0.33264E+04         0.22677E+04         0.00000E+00
    0.00000E+00         0.00000E+00        -0.16612E+04
 
   -0.73320E+04         0.37499E+04         0.00000E+00
    0.37499E+04         0.21778E+04         0.00000E+00
    0.00000E+00         0.00000E+00        -0.15463E+04
 
   -0.67971E+04         0.41122E+04         0.00000E+00
    0.41122E+04         0.20382E+04         0.00000E+00
    0.00000E+00         0.00000E+00        -0.14277E+04
 
   -0.62252E+04         0.44113E+04         0.00000E+00
    0.44113E+04         0.18645E+04         0.00000E+00
    0.00000E+00         0.00000E+00        -0.13082E+04
 
   -0.56378E+04         0.46508E+04         0.00000E+00
    0.46508E+04         0.16706E+04         0.00000E+00
    0.00000E+00         0.00000E+00        -0.11902E+04
 
   -0.50523E+04         0.48375E+04         0.00000E+00
    0.48375E+04         0.14675E+04         0.00000E+00
    0.00000E+00         0.00000E+00        -0.10754E+04
 
   -0.44819E+04         0.49809E+04         0.00000E+00
    0.49809E+04         0.12642E+04         0.00000E+00
    0.00000E+00         0.00000E+00        -0.96531E+03
 
   -0.39357E+04         0.50915E+04         0.00000E+00
    0.50915E+04         0.10673E+04         0.00000E+00
    0.00000E+00         0.00000E+00        -0.86054E+03
 
   -0.34192E+04         0.51809E+04         0.00000E+00
    0.51809E+04         0.88125E+03         0.00000E+00
    0.00000E+00         0.00000E+00        -0.76137E+03
 
   -0.29338E+04         0.52610E+04         0.00000E+00
    0.52610E+04         0.70825E+03         0.00000E+00
    0.00000E+00         0.00000E+00        -0.66767E+03
 
   -0.24777E+04         0.53433E+04         0.00000E+00
    0.53433E+04         0.54806E+03         0.00000E+00
    0.00000E+00         0.00000E+00        -0.57891E+03
 
   -0.20457E+04         0.54387E+04         0.00000E+00
    0.54387E+04         0.39818E+03         0.00000E+00
    0.00000E+00         0.00000E+00        -0.49424E+03
 
   -0.16293E+04         0.55566E+04         0.00000E+00
    0.55566E+04         0.25408E+03         0.00000E+00
    0.00000E+00         0.00000E+00        -0.41257E+03
 
   -0.12180E+04         0.57047E+04         0.00000E+00
    0.57047E+04         0.10946E+03         0.00000E+00
    0.00000E+00         0.00000E+00        -0.33256E+03
 
   -0.79897E+03         0.58886E+04         0.00000E+00
    0.58886E+04        -0.43397E+02         0.00000E+00
    0.00000E+00         0.00000E+00        -0.25271E+03
 
   -0.35799E+03         0.61118E+04         0.00000E+00
    0.61118E+04        -0.21329E+03         0.00000E+00
    0.00000E+00         0.00000E+00        -0.17138E+03
 
   -0.77742E+04         0.71696E+02         0.00000E+00
    0.71696E+02         0.21473E+03         0.00000E+00
    0.00000E+00         0.00000E+00        -0.22678E+04
 
   -0.79369E+04         0.25670E+03         0.00000E+00
    0.25670E+03         0.64253E+03         0.00000E+00
    0.00000E+00         0.00000E+00        -0.21883E+04
 
   -0.80882E+04         0.50868E+03         0.00000E+00
    0.50868E+03         0.10542E+04         0.00000E+00
    0.00000E+00         0.00000E+00        -0.21102E+04
 
   -0.81984E+04         0.83119E+03         0.00000E+00
    0.83119E+03         0.14284E+04         0.00000E+00
    0.00000E+00         0.00000E+00        -0.20310E+04
 
   -0.82394E+04         0.12154E+04         0.00000E+00
    0.12154E+04         0.17454E+04         0.00000E+00
    0.00000E+00         0.00000E+00        -0.19482E+04
 
   -0.81904E+04         0.16434E+04         0.00000E+00
    0.16434E+04         0.19908E+04         0.00000E+00
    0.00000E+00         0.00000E+00        -0.18599E+04
 
   -0.80408E+04         0.20924E+04         0.00000E+00
    0.20924E+04         0.21578E+04         0.00000E+00
    0.00000E+00         0.00000E+00        -0.17649E+04
 
   -0.77909E+04         0.25392E+04         0.00000E+00
    0.25392E+04         0.22467E+04         0.00000E+00
    0.00000E+00         0.00000E+00        -0.16633E+04
 
   -0.74502E+04         0.29636E+04         0.00000E+00
    0.29636E+04         0.22642E+04         0.00000E+00
    0.00000E+00         0.00000E+00        -0.15558E+04
 
   -0.70343E+04         0.33510E+04         0.00000E+00
    0.33510E+04         0.22210E+04         0.00000E+00
    0.00000E+00         0.00000E+00        -0.14440E+04
 
   -0.65620E+04         0.36926E+04         0.00000E+00
    0.36926E+04         0.21297E+04         0.00000E+00
    0.00000E+00         0.00000E+00        -0.13297E+04
 
   -0.60523E+04         0.39850E+04         0.00000E+00
    0.39850E+04         0.20030E+04         0.00000E+00
    0.00000E+00         0.00000E+00        -0.12148E+04
 
   -0.55226E+04         0.42298E+04         0.00000E+00
    0.42298E+04         0.18525E+04         0.00000E+00
    0.00000E+00         0.00000E+00        -0.11010E+04
 
   -0.49873E+04         0.44315E+04         0.00000E+00
    0.44315E+04         0.16881E+04         0.00000E+00
    0.00000E+00         0.00000E+00        -0.98976E+03
 
   -0.44578E+04         0.45972E+04         0.00000E+00
    0.45972E+04         0.15177E+04         0.00000E+00
    0.00000E+00         0.00000E+00        -0.88204E+03
 
   -0.39421E+04         0.47353E+04         0.00000E+00
    0.47353E+04         0.13473E+04         0.00000E+00
    0.00000E+00         0.00000E+00        -0.77845E+03
 
   -0.34449E+04         0.48551E+04         0.00000E+00
    0.48551E+04         0.11809E+04         0.00000E+00
    0.00000E+00         0.00000E+00        -0.67918E+03
 
   -0.29676E+04         0.49663E+04         0.00000E+00
    0.49663E+04         0.10206E+04         0.00000E+00
    0.00000E+00         0.00000E+00        -0.58411E+03
 
   -0.25089E+04         0.50783E+04         0.00000E+00
    0.50783E+04         0.86630E+03         0.00000E+00
    0.00000E+00         0.00000E+00        -0.49277E+03
 
   -0.20643E+04         0.51999E+04         0.00000E+00
    0.51999E+04         0.71614E+03         0.00000E+00
    0.00000E+00         0.00000E+00        -0.40445E+03
 
   -0.16270E+04         0.53388E+04         0.00000E+00
    0.53388E+04         0.56645E+03         0.00000E+00
    0.00000E+00         0.00000E+00        -0.31818E+03
 
   -0.11881E+04         0.55012E+04         0.00000E+00
    0.55012E+04         0.41203E+03         0.00000E+00
    0.00000E+00         0.00000E+00        -0.23283E+03
 
   -0.73678E+03         0.56916E+04         0.00000E+00
    0.56916E+04         0.24642E+03         0.00000E+00
    0.00000E+00         0.00000E+00        -0.14711E+03
 
   -0.26091E+03         0.59126E+04         0.00000E+00
    0.59126E+04         0.62171E+02         0.00000E+00
    0.00000E+00         0.00000E+00        -0.59623E+02
 
   -0.76214E+04         0.73077E+02         0.00000E+00
    0.73077E+02         0.20744E+03         0.00000E+00
    0.00000E+00         0.00000E+00        -0.22242E+04
 
   -0.77405E+04         0.25339E+03         0.00000E+00
    0.25339E+03         0.61622E+03         0.00000E+00
    0.00000E+00         0.00000E+00        -0.21373E+04
 
   -0.78393E+04         0.48629E+03         0.00000E+00
    0.48629E+03         0.10058E+04         0.00000E+00
    0.00000E+00         0.00000E+00        -0.20501E+04
 
   -0.78991E+04         0.77400E+03         0.00000E+00
    0.77400E+03         0.13610E+04         0.00000E+00
    0.00000E+00         0.00000E+00        -0.19614E+04
 
   -0.79011E+04         0.11104E+04         0.00000E+00
    0.11104E+04         0.16674E+04         0.00000E+00
    0.00000E+00         0.00000E+00        -0.18701E+04
 
   -0.78304E+04         0.14828E+04         0.00000E+00
    0.14828E+04         0.19138E+04         0.00000E+00
    0.00000E+00         0.00000E+00        -0.17750E+04
 
   -0.76792E+04         0.18746E+04         0.00000E+00
    0.18746E+04         0.20940E+04         0.00000E+00
    0.00000E+00         0.00000E+00        -0.16756E+04
 
   -0.74467E+04         0.22686E+04         0.00000E+00
    0.22686E+04         0.22073E+04         0.00000E+00
    0.00000E+00         0.00000E+00        -0.15718E+04
 
   -0.71389E+04         0.26490E+04         0.00000E+00
    0.26490E+04         0.22579E+04         0.00000E+00
    0.00000E+00         0.00000E+00        -0.14643E+04
 
   -0.67666E+04         0.30037E+04         0.00000E+00
    0.30037E+04         0.22531E+04         0.00000E+00
    0.00000E+00         0.00000E+00        -0.13541E+04
 
   -0.63435E+04         0.33245E+04         0.00000E+00
    0.33245E+04         0.22025E+04         0.00000E+00
    0.00000E+00         0.00000E+00        -0.12423E+04
 
   -0.58841E+04         0.36080E+04         0.00000E+00
    0.36080E+04         0.21160E+04         0.00000E+00
    0.00000E+00         0.00000E+00        -0.11304E+04
 
   -0.54019E+04         0.38539E+04         0.00000E+00
    0.38539E+04         0.20033E+04         0.00000E+00
    0.00000E+00         0.00000E+00        -0.10196E+04
 
   -0.49088E+04         0.40653E+04         0.00000E+00
    0.40653E+04         0.18728E+04         0.00000E+00
    0.00000E+00         0.00000E+00        -0.91079E+03
 
   -0.44142E+04         0.42472E+04         0.00000E+00
    0.42472E+04         0.17315E+04         0.00000E+00
    0.00000E+00         0.00000E+00        -0.80482E+03
 
   -0.39251E+04         0.44061E+04         0.00000E+00
    0.44061E+04         0.15847E+04         0.00000E+00
    0.00000E+00         0.00000E+00        -0.70210E+03
 
   -0.34453E+04         0.45494E+04         0.00000E+00
    0.45494E+04         0.14361E+04         0.00000E+00
    0.00000E+00         0.00000E+00        -0.60275E+03
 
   -0.29764E+04         0.46848E+04         0.00000E+00
    0.46848E+04         0.12877E+04         0.00000E+00
    0.00000E+00         0.00000E+00        -0.50661E+03
 
   -0.25171E+04         0.48199E+04         0.00000E+00
    0.48199E+04         0.11395E+04         0.00000E+00
    0.00000E+00         0.00000E+00        -0.41327E+03
 
   -0.20639E+04         0.49617E+04         0.00000E+00
    0.49617E+04         0.99029E+03         0.00000E+00
    0.00000E+00         0.00000E+00        -0.32209E+03
 
   -0.16112E+04         0.51166E+04         0.00000E+00
    0.51166E+04         0.83703E+03         0.00000E+00
    0.00000E+00         0.00000E+00        -0.23224E+03
 
   -0.11513E+04         0.52893E+04         0.00000E+00
    0.52893E+04         0.67549E+03         0.00000E+00
    0.00000E+00         0.00000E+00        -0.14274E+03
 
   -0.67523E+03         0.54835E+04         0.00000E+00
    0.54835E+04         0.50028E+03         0.00000E+00
    0.00000E+00         0.00000E+00        -0.52484E+02
 
   -0.17274E+03         0.57009E+04         0.00000E+00
    0.57009E+04         0.30513E+03         0.00000E+00
    0.00000E+00         0.00000E+00         0.39716E+02
 
   -0.74723E+04         0.70342E+02         0.00000E+00
    0.70342E+02         0.20082E+03         0.00000E+00
    0.00000E+00         0.00000E+00        -0.21814E+04
 
   -0.75574E+04         0.24074E+03         0.00000E+00
    0.24074E+03         0.59377E+03         0.00000E+00
    0.00000E+00         0.00000E+00        -0.20891E+04
 
   -0.76170E+04         0.45443E+03         0.00000E+00
    0.45443E+03         0.96588E+03         0.00000E+00
    0.00000E+00         0.00000E+00        -0.19953E+04
 
   -0.76391E+04         0.71221E+03         0.00000E+00
    0.71221E+03         0.13063E+04         0.00000E+00
    0.00000E+00         0.00000E+00        -0.18998E+04
 
   -0.76113E+04         0.10094E+04         0.00000E+00
    0.10094E+04         0.16041E+04         0.00000E+00
    0.00000E+00         0.00000E+00        -0.18022E+04
 
   -0.75235E+04         0.13367E+04         0.00000E+00
    0.13367E+04         0.18506E+04         0.00000E+00
    0.00000E+00         0.00000E+00        -0.17019E+04
 
   -0.73697E+04         0.16820E+04         0.00000E+00
    0.16820E+04         0.20407E+04         0.00000E+00
    0.00000E+00         0.00000E+00        -0.15987E+04
 
   -0.71491E+04         0.20320E+04         0.00000E+00
    0.20320E+04         0.21729E+04         0.00000E+00
    0.00000E+00         0.00000E+00        -0.14929E+04
 
   -0.68655E+04         0.23747E+04         0.00000E+00
    0.23747E+04         0.22497E+04         0.00000E+00
    0.00000E+00         0.00000E+00        -0.13848E+04
 
   -0.65264E+04         0.27001E+04         0.00000E+00
    0.27001E+04         0.22761E+04         0.00000E+00
    0.00000E+00         0.00000E+00        -0.12751E+04
 
   -0.61418E+04         0.30011E+04         0.00000E+00
    0.30011E+04         0.22591E+04         0.00000E+00
    0.00000E+00         0.00000E+00        -0.11648E+04
 
   -0.57226E+04         0.32741E+04         0.00000E+00
    0.32741E+04         0.22066E+04         0.00000E+00
    0.00000E+00         0.00000E+00        -0.10548E+04
 
   -0.52792E+04         0.35181E+04         0.00000E+00
    0.35181E+04         0.21263E+04         0.00000E+00
    0.00000E+00         0.00000E+00        -0.94586E+03
 
   -0.48212E+04         0.37347E+04         0.00000E+00
    0.37347E+04         0.20253E+04         0.00000E+00
    0.00000E+00         0.00000E+00        -0.83878E+03
 
   -0.43563E+04         0.39276E+04         0.00000E+00
    0.39276E+04         0.19095E+04         0.00000E+00
    0.00000E+00         0.00000E+00        -0.73405E+03
 
   -0.38902E+04         0.41016E+04         0.00000E+00
    0.41016E+04         0.17837E+04         0.00000E+00
    0.00000E+00         0.00000E+00        -0.63194E+03
 
   -0.34262E+04         0.42624E+04         0.00000E+00
    0.42624E+04         0.16512E+04         0.00000E+00
    0.00000E+00         0.00000E+00        -0.53250E+03
 
   -0.29656E+04         0.44161E+04         0.00000E+00
    0.44161E+04         0.15138E+04         0.00000E+00
    0.00000E+00         0.00000E+00        -0.43554E+03
 
   -0.25074E+04         0.45686E+04         0.00000E+00
    0.45686E+04         0.13719E+04         0.00000E+00
    0.00000E+00         0.00000E+00        -0.34066E+03
 
   -0.20489E+04         0.47256E+04         0.00000E+00
    0.47256E+04         0.12245E+04         0.00000E+00
    0.00000E+00         0.00000E+00        -0.24730E+03
 
   -0.15851E+04         0.48920E+04         0.00000E+00
    0.48920E+04         0.10694E+04         0.00000E+00
    0.00000E+00         0.00000E+00        -0.15472E+03
 
   -0.11098E+04         0.50717E+04         0.00000E+00
    0.50717E+04         0.90294E+03         0.00000E+00
    0.00000E+00         0.00000E+00        -0.62067E+02
 
   -0.61545E+03         0.52673E+04         0.00000E+00
    0.52673E+04         0.72078E+03         0.00000E+00
    0.00000E+00         0.00000E+00         0.31599E+02
 
   -0.93348E+02         0.54799E+04         0.00000E+00
    0.54799E+04         0.51764E+03         0.00000E+00
    0.00000E+00         0.00000E+00         0.12729E+03
 
   -0.73323E+04         0.65222E+02         0.00000E+00
    0.65222E+02         0.19467E+03         0.00000E+00
    0.00000E+00         0.00000E+00        -0.21413E+04
 
   -0.73897E+04         0.22270E+03         0.00000E+00
    0.22270E+03         0.57402E+03         0.00000E+00
    0.00000E+00         0.00000E+00        -0.20447E+04
 
   -0.74187E+04         0.41741E+03         0.00000E+00
    0.41741E+03         0.93208E+03         0.00000E+00
    0.00000E+00         0.00000E+00        -0.19460E+04
 
   -0.74119E+04         0.64897E+03         0.00000E+00
    0.64897E+03         0.12607E+04         0.00000E+00
    0.00000E+00         0.00000E+00        -0.18454E+04
 
   -0.73612E+04         0.91341E+03         0.00000E+00
    0.91341E+03         0.15517E+04         0.00000E+00
    0.00000E+00         0.00000E+00        -0.17429E+04
 
   -0.72596E+04         0.12037E+04         0.00000E+00
    0.12037E+04         0.17981E+04         0.00000E+00
    0.00000E+00         0.00000E+00        -0.16385E+04
 
   -0.71030E+04         0.15105E+04         0.00000E+00
    0.15105E+04         0.19955E+04         0.00000E+00
    0.00000E+00         0.00000E+00        -0.15322E+04
 
   -0.68905E+04         0.18239E+04         0.00000E+00
    0.18239E+04         0.21424E+04         0.00000E+00
    0.00000E+00         0.00000E+00        -0.14245E+04
 
   -0.66248E+04         0.21343E+04         0.00000E+00
    0.21343E+04         0.22398E+04         0.00000E+00
    0.00000E+00         0.00000E+00        -0.13155E+04
 
   -0.63110E+04         0.24336E+04         0.00000E+00
    0.24336E+04         0.22913E+04         0.00000E+00
    0.00000E+00         0.00000E+00        -0.12059E+04
 
   -0.59564E+04         0.27160E+04         0.00000E+00
    0.27160E+04         0.23020E+04         0.00000E+00
    0.00000E+00         0.00000E+00        -0.10963E+04
 
   -0.55691E+04         0.29776E+04         0.00000E+00
    0.29776E+04         0.22778E+04         0.00000E+00
    0.00000E+00         0.00000E+00        -0.98738E+03
 
   -0.51573E+04         0.32173E+04         0.00000E+00
    0.32173E+04         0.22250E+04         0.00000E+00
    0.00000E+00         0.00000E+00        -0.87970E+03
 
   -0.47283E+04         0.34358E+04         0.00000E+00
    0.34358E+04         0.21492E+04         0.00000E+00
    0.00000E+00         0.00000E+00        -0.77375E+03
 
   -0.42884E+04         0.36354E+04         0.00000E+00
    0.36354E+04         0.20556E+04         0.00000E+00
    0.00000E+00         0.00000E+00        -0.66985E+03
 
   -0.38421E+04         0.38197E+04         0.00000E+00
    0.38197E+04         0.19482E+04         0.00000E+00
    0.00000E+00         0.00000E+00        -0.56816E+03
 
   -0.33923E+04         0.39929E+04         0.00000E+00
    0.39929E+04         0.18302E+04         0.00000E+00
    0.00000E+00         0.00000E+00        -0.46863E+03
 
   -0.29399E+04         0.41597E+04         0.00000E+00
    0.41597E+04         0.17030E+04         0.00000E+00
    0.00000E+00         0.00000E+00        -0.37105E+03
 
   -0.24842E+04         0.43248E+04         0.00000E+00
    0.43248E+04         0.15674E+04         0.00000E+00
    0.00000E+00         0.00000E+00        -0.27502E+03
 
   -0.20228E+04         0.44926E+04         0.00000E+00
    0.44926E+04         0.14226E+04         0.00000E+00
    0.00000E+00         0.00000E+00        -0.18003E+03
 
   -0.15517E+04         0.46669E+04         0.00000E+00
    0.46669E+04         0.12669E+04         0.00000E+00
    0.00000E+00         0.00000E+00        -0.85429E+02
 
   -0.10657E+04         0.48506E+04         0.00000E+00
    0.48506E+04         0.10974E+04         0.00000E+00
    0.00000E+00         0.00000E+00         0.95316E+01
 
   -0.55833E+03         0.50455E+04         0.00000E+00
    0.50455E+04         0.91053E+03         0.00000E+00
    0.00000E+00         0.00000E+00         0.10566E+03
 
   -0.22497E+02         0.52523E+04         0.00000E+00
    0.52523E+04         0.70185E+03         0.00000E+00
    0.00000E+00         0.00000E+00         0.20381E+03
 
   -0.72045E+04         0.58893E+02         0.00000E+00
    0.58893E+02         0.18884E+03         0.00000E+00
    0.00000E+00         0.00000E+00        -0.21047E+04
 
   -0.72381E+04         0.20201E+03         0.00000E+00
    0.20201E+03         0.55613E+03         0.00000E+00
    0.00000E+00         0.00000E+00        -0.20046E+04
 
   -0.72424E+04         0.37836E+03         0.00000E+00
    0.37836E+03         0.90255E+03         0.00000E+00
    0.00000E+00         0.00000E+00        -0.19020E+04
 
   -0.72128E+04         0.58662E+03         0.00000E+00
    0.58662E+03         0.12217E+04         0.00000E+00
    0.00000E+00         0.00000E+00        -0.17973E+04
 
   -0.71439E+04         0.82321E+03         0.00000E+00
    0.82321E+03         0.15070E+04         0.00000E+00
    0.00000E+00         0.00000E+00        -0.16911E+04
 
   -0.70311E+04         0.10825E+04         0.00000E+00
    0.10825E+04         0.17531E+04         0.00000E+00
    0.00000E+00         0.00000E+00        -0.15834E+04
 
   -0.68716E+04         0.13572E+04         0.00000E+00
    0.13572E+04         0.19561E+04         0.00000E+00
    0.00000E+00         0.00000E+00        -0.14746E+04
 
   -0.66646E+04         0.16397E+04         0.00000E+00
    0.16397E+04         0.21143E+04         0.00000E+00
    0.00000E+00         0.00000E+00        -0.13651E+04
 
   -0.64120E+04         0.19224E+04         0.00000E+00
    0.19224E+04         0.22281E+04         0.00000E+00
    0.00000E+00         0.00000E+00        -0.12552E+04
 
   -0.61174E+04         0.21987E+04         0.00000E+00
    0.21987E+04         0.22997E+04         0.00000E+00
    0.00000E+00         0.00000E+00        -0.11453E+04
 
   -0.57862E+04         0.24635E+04         0.00000E+00
    0.24635E+04         0.23329E+04         0.00000E+00
    0.00000E+00         0.00000E+00        -0.10360E+04
 
   -0.54243E+04         0.27136E+04         0.00000E+00
    0.27136E+04         0.23321E+04         0.00000E+00
    0.00000E+00         0.00000E+00        -0.92765E+03
 
   -0.50380E+04         0.29473E+04         0.00000E+00
    0.29473E+04         0.23022E+04         0.00000E+00
    0.00000E+00         0.00000E+00        -0.82072E+03
 
   -0.46329E+04         0.31649E+04         0.00000E+00
    0.31649E+04         0.22479E+04         0.00000E+00
    0.00000E+00         0.00000E+00        -0.71549E+03
 
   -0.42139E+04         0.33677E+04         0.00000E+00
    0.33677E+04         0.21734E+04         0.00000E+00
    0.00000E+00         0.00000E+00        -0.61215E+03
 
   -0.37847E+04         0.35581E+04         0.00000E+00
    0.35581E+04         0.20823E+04         0.00000E+00
    0.00000E+00         0.00000E+00        -0.51073E+03
 
   -0.33475E+04         0.37394E+04         0.00000E+00
    0.37394E+04         0.19770E+04         0.00000E+00
    0.00000E+00         0.00000E+00        -0.41113E+03
 
   -0.29030E+04         0.39151E+04         0.00000E+00
    0.39151E+04         0.18594E+04         0.00000E+00
    0.00000E+00         0.00000E+00        -0.31310E+03
 
   -0.24508E+04         0.40887E+04         0.00000E+00
    0.40887E+04         0.17299E+04         0.00000E+00
    0.00000E+00         0.00000E+00        -0.21626E+03
 
   -0.19886E+04         0.42636E+04         0.00000E+00
    0.42636E+04         0.15882E+04         0.00000E+00
    0.00000E+00         0.00000E+00        -0.12011E+03
 
   -0.15132E+04         0.44426E+04         0.00000E+00
    0.44426E+04         0.14330E+04         0.00000E+00
    0.00000E+00         0.00000E+00        -0.24079E+02
 
   -0.10203E+04         0.46277E+04         0.00000E+00
    0.46277E+04         0.12619E+04         0.00000E+00
    0.00000E+00         0.00000E+00         0.72488E+02
 
   -0.50449E+03         0.48203E+04         0.00000E+00
    0.48203E+04         0.10721E+04         0.00000E+00
    0.00000E+00         0.00000E+00         0.17028E+03
 
    0.40153E+02         0.50204E+04         0.00000E+00
    0.50204E+04         0.85993E+03         0.00000E+00
    0.00000E+00         0.00000E+00         0.27003E+03
 
   -0.70904E+04         0.52138E+02         0.00000E+00
    0.52138E+02         0.18324E+03         0.00000E+00
    0.00000E+00         0.00000E+00        -0.20721E+04
 
   -0.71027E+04         0.18054E+03         0.00000E+00
    0.18054E+03         0.53956E+03         0.00000E+00
    0.00000E+00         0.00000E+00        -0.19689E+04
 
   -0.70862E+04         0.33943E+03         0.00000E+00
    0.33943E+03         0.87597E+03         0.00000E+00
    0.00000E+00         0.00000E+00        -0.18631E+04
 
   -0.70378E+04         0.52683E+03         0.00000E+00
    0.52683E+03         0.11872E+04         0.00000E+00
    0.00000E+00         0.00000E+00        -0.17552E+04
 
   -0.69541E+04         0.73936E+03         0.00000E+00
    0.73936E+03         0.14679E+04         0.00000E+00
    0.00000E+00         0.00000E+00        -0.16459E+04
 
   -0.68320E+04         0.97231E+03         0.00000E+00
    0.97231E+03         0.17134E+04         0.00000E+00
    0.00000E+00         0.00000E+00        -0.15356E+04
 
   -0.66695E+04         0.12200E+04         0.00000E+00
    0.12200E+04         0.19206E+04         0.00000E+00
    0.00000E+00         0.00000E+00        -0.14247E+04
 
   -0.64662E+04         0.14761E+04         0.00000E+00
    0.14761E+04         0.20875E+04         0.00000E+00
    0.00000E+00         0.00000E+00        -0.13136E+04
 
   -0.62232E+04         0.17347E+04         0.00000E+00
    0.17347E+04         0.22141E+04         0.00000E+00
    0.00000E+00         0.00000E+00        -0.12027E+04
 
   -0.59432E+04         0.19905E+04         0.00000E+00
    0.19905E+04         0.23019E+04         0.00000E+00
    0.00000E+00         0.00000E+00        -0.10924E+04
 
   -0.56301E+04         0.22390E+04         0.00000E+00
    0.22390E+04         0.23533E+04         0.00000E+00
    0.00000E+00         0.00000E+00        -0.98305E+03
 
   -0.52883E+04         0.24774E+04         0.00000E+00
    0.24774E+04         0.23717E+04         0.00000E+00
    0.00000E+00         0.00000E+00        -0.87498E+03
 
   -0.49225E+04         0.27040E+04         0.00000E+00
    0.27040E+04         0.23609E+04         0.00000E+00
    0.00000E+00         0.00000E+00        -0.76848E+03
 
   -0.45370E+04         0.29185E+04         0.00000E+00
    0.29185E+04         0.23247E+04         0.00000E+00
    0.00000E+00         0.00000E+00        -0.66370E+03
 
   -0.41356E+04         0.31216E+04         0.00000E+00
    0.31216E+04         0.22665E+04         0.00000E+00
    0.00000E+00         0.00000E+00        -0.56072E+03
 
   -0.37210E+04         0.33150E+04         0.00000E+00
    0.33150E+04         0.21894E+04         0.00000E+00
    0.00000E+00         0.00000E+00        -0.45949E+03
 
   -0.32951E+04         0.35008E+04         0.00000E+00
    0.35008E+04         0.20955E+04         0.00000E+00
    0.00000E+00         0.00000E+00        -0.35986E+03
 
   -0.28583E+04         0.36818E+04         0.00000E+00
    0.36818E+04         0.19865E+04         0.00000E+00
    0.00000E+00         0.00000E+00        -0.26154E+03
 
   -0.24101E+04         0.38604E+04         0.00000E+00
    0.38604E+04         0.18629E+04         0.00000E+00
    0.00000E+00         0.00000E+00        -0.16415E+03
 
   -0.19488E+04         0.40392E+04         0.00000E+00
    0.40392E+04         0.17247E+04         0.00000E+00
    0.00000E+00         0.00000E+00        -0.67240E+02
 
   -0.14716E+04         0.42201E+04         0.00000E+00
    0.42201E+04         0.15707E+04         0.00000E+00
    0.00000E+00         0.00000E+00         0.29722E+02
 
   -0.97495E+03         0.44046E+04         0.00000E+00
    0.44046E+04         0.13993E+04         0.00000E+00
    0.00000E+00         0.00000E+00         0.12731E+03
 
   -0.45437E+03         0.45934E+04         0.00000E+00
    0.45934E+04         0.12081E+04         0.00000E+00
    0.00000E+00         0.00000E+00         0.22611E+03
 
    0.95023E+02         0.47862E+04         0.00000E+00
    0.47862E+04         0.99408E+03         0.00000E+00
    0.00000E+00         0.00000E+00         0.32673E+03
 
   -0.69900E+04         0.45454E+02         0.00000E+00
    0.45454E+02         0.17783E+03         0.00000E+00
    0.00000E+00         0.00000E+00        -0.20437E+04
 
   -0.69828E+04         0.15951E+03         0.00000E+00
    0.15951E+03         0.52392E+03         0.00000E+00
    0.00000E+00         0.00000E+00        -0.19377E+04
 
   -0.69481E+04         0.30205E+03         0.00000E+00
    0.30205E+03         0.85145E+03         0.00000E+00
    0.00000E+00         0.00000E+00        -0.18290E+04
 
   -0.68839E+04         0.47067E+03         0.00000E+00
    0.47067E+03         0.11558E+04         0.00000E+00
    0.00000E+00         0.00000E+00        -0.17184E+04
 
   -0.67877E+04         0.66215E+03         0.00000E+00
    0.66215E+03         0.14324E+04         0.00000E+00
    0.00000E+00         0.00000E+00        -0.16066E+04
 
   -0.66576E+04         0.87243E+03         0.00000E+00
    0.87243E+03         0.16772E+04         0.00000E+00
    0.00000E+00         0.00000E+00        -0.14941E+04
 
   -0.64921E+04         0.10968E+04         0.00000E+00
    0.10968E+04         0.18874E+04         0.00000E+00
    0.00000E+00         0.00000E+00        -0.13814E+04
 
   -0.62909E+04         0.13302E+04         0.00000E+00
    0.13302E+04         0.20610E+04         0.00000E+00
    0.00000E+00         0.00000E+00        -0.12690E+04
 
   -0.60549E+04         0.15678E+04         0.00000E+00
    0.15678E+04         0.21978E+04         0.00000E+00
    0.00000E+00         0.00000E+00        -0.11571E+04
 
   -0.57860E+04         0.18051E+04         0.00000E+00
    0.18051E+04         0.22983E+04         0.00000E+00
    0.00000E+00         0.00000E+00        -0.10463E+04
 
   -0.54870E+04         0.20385E+04         0.00000E+00
    0.20385E+04         0.23644E+04         0.00000E+00
    0.00000E+00         0.00000E+00        -0.93678E+03
 
   -0.51611E+04         0.22652E+04         0.00000E+00
    0.22652E+04         0.23985E+04         0.00000E+00
    0.00000E+00         0.00000E+00        -0.82878E+03
 
   -0.48118E+04         0.24838E+04         0.00000E+00
    0.24838E+04         0.24035E+04         0.00000E+00
    0.00000E+00         0.00000E+00        -0.72249E+03
 
   -0.44423E+04         0.26935E+04         0.00000E+00
    0.26935E+04         0.23824E+04         0.00000E+00
    0.00000E+00         0.00000E+00        -0.61798E+03
 
   -0.40556E+04         0.28947E+04         0.00000E+00
    0.28947E+04         0.23381E+04         0.00000E+00
    0.00000E+00         0.00000E+00        -0.51524E+03
 
   -0.36535E+04         0.30883E+04         0.00000E+00
    0.30883E+04         0.22730E+04         0.00000E+00
    0.00000E+00         0.00000E+00        -0.41417E+03
 
   -0.32376E+04         0.32758E+04         0.00000E+00
    0.32758E+04         0.21891E+04         0.00000E+00
    0.00000E+00         0.00000E+00        -0.31455E+03
 
   -0.28081E+04         0.34590E+04         0.00000E+00
    0.34590E+04         0.20879E+04         0.00000E+00
    0.00000E+00         0.00000E+00        -0.21608E+03
 
   -0.23646E+04         0.36398E+04         0.00000E+00
    0.36398E+04         0.19699E+04         0.00000E+00
    0.00000E+00         0.00000E+00        -0.11839E+03
 
   -0.19054E+04         0.38198E+04         0.00000E+00
    0.38198E+04         0.18353E+04         0.00000E+00
    0.00000E+00         0.00000E+00        -0.21049E+02
 
   -0.14284E+04         0.40004E+04         0.00000E+00
    0.40004E+04         0.16832E+04         0.00000E+00
    0.00000E+00         0.00000E+00         0.76427E+02
 
   -0.93057E+03         0.41825E+04         0.00000E+00
    0.41825E+04         0.15124E+04         0.00000E+00
    0.00000E+00         0.00000E+00         0.17454E+03
 
   -0.40823E+03         0.43663E+04         0.00000E+00
    0.43663E+04         0.13209E+04         0.00000E+00
    0.00000E+00         0.00000E+00         0.27381E+03
 
    0.14259E+03         0.45512E+04         0.00000E+00
    0.45512E+04         0.11065E+04         0.00000E+00
    0.00000E+00         0.00000E+00         0.37472E+03
 
   -0.69029E+04         0.39145E+02         0.00000E+00
    0.39145E+02         0.17258E+03         0.00000E+00
    0.00000E+00         0.00000E+00        -0.20191E+04
 
   -0.68775E+04         0.13968E+03         0.00000E+00
    0.13968E+03         0.50899E+03         0.00000E+00
    0.00000E+00         0.00000E+00        -0.19106E+04
 
   -0.68266E+04         0.26710E+03         0.00000E+00
    0.26710E+03         0.82839E+03         0.00000E+00
    0.00000E+00         0.00000E+00        -0.17994E+04
 
   -0.67484E+04         0.41879E+03         0.00000E+00
    0.41879E+03         0.11265E+04         0.00000E+00
    0.00000E+00         0.00000E+00        -0.16866E+04
 
   -0.66414E+04         0.59166E+03         0.00000E+00
    0.59166E+03         0.13993E+04         0.00000E+00
    0.00000E+00         0.00000E+00        -0.15726E+04
 
   -0.65041E+04         0.78212E+03         0.00000E+00
    0.78212E+03         0.16432E+04         0.00000E+00
    0.00000E+00         0.00000E+00        -0.14583E+04
 
   -0.63355E+04         0.98621E+03         0.00000E+00
    0.98621E+03         0.18555E+04         0.00000E+00
    0.00000E+00         0.00000E+00        -0.13440E+04
 
   -0.61354E+04         0.11997E+04         0.00000E+00
    0.11997E+04         0.20342E+04         0.00000E+00
    0.00000E+00         0.00000E+00        -0.12304E+04
 
   -0.59044E+04         0.14187E+04         0.00000E+00
    0.14187E+04         0.21788E+04         0.00000E+00
    0.00000E+00         0.00000E+00        -0.11177E+04
 
   -0.56438E+04         0.16393E+04         0.00000E+00
    0.16393E+04         0.22895E+04         0.00000E+00
    0.00000E+00         0.00000E+00        -0.10063E+04
 
   -0.53557E+04         0.18584E+04         0.00000E+00
    0.18584E+04         0.23673E+04         0.00000E+00
    0.00000E+00         0.00000E+00        -0.89651E+03
 
   -0.50423E+04         0.20738E+04         0.00000E+00
    0.20738E+04         0.24141E+04         0.00000E+00
    0.00000E+00         0.00000E+00        -0.78846E+03
 
   -0.47063E+04         0.22837E+04         0.00000E+00
    0.22837E+04         0.24321E+04         0.00000E+00
    0.00000E+00         0.00000E+00        -0.68225E+03
 
   -0.43499E+04         0.24874E+04         0.00000E+00
    0.24874E+04         0.24236E+04         0.00000E+00
    0.00000E+00         0.00000E+00        -0.57791E+03
 
   -0.39754E+04         0.26848E+04         0.00000E+00
    0.26848E+04         0.23909E+04         0.00000E+00
    0.00000E+00         0.00000E+00        -0.47535E+03
 
   -0.35842E+04         0.28764E+04         0.00000E+00
    0.28764E+04         0.23361E+04         0.00000E+00
    0.00000E+00         0.00000E+00        -0.37441E+03
 
   -0.31772E+04         0.30632E+04         0.00000E+00
    0.30632E+04         0.22610E+04         0.00000E+00
    0.00000E+00         0.00000E+00        -0.27486E+03
 
   -0.27547E+04         0.32461E+04         0.00000E+00
    0.32461E+04         0.21667E+04         0.00000E+00
    0.00000E+00         0.00000E+00        -0.17638E+03
 
   -0.23160E+04         0.34266E+04         0.00000E+00
    0.34266E+04         0.20540E+04         0.00000E+00
    0.00000E+00         0.00000E+00        -0.78597E+02
 
   -0.18601E+04         0.36056E+04         0.00000E+00
    0.36056E+04         0.19230E+04         0.00000E+00
    0.00000E+00         0.00000E+00         0.18896E+02
 
   -0.13848E+04         0.37840E+04         0.00000E+00
    0.37840E+04         0.17733E+04         0.00000E+00
    0.00000E+00         0.00000E+00         0.11654E+03
 
   -0.88784E+03         0.39622E+04         0.00000E+00
    0.39622E+04         0.16038E+04         0.00000E+00
    0.00000E+00         0.00000E+00         0.21479E+03
 
   -0.36618E+03         0.41400E+04         0.00000E+00
    0.41400E+04         0.14131E+04         0.00000E+00
    0.00000E+00         0.00000E+00         0.31407E+03
 
    0.18339E+03         0.43167E+04         0.00000E+00
    0.43167E+04         0.11993E+04         0.00000E+00
    0.00000E+00         0.00000E+00         0.41479E+03
 
   -0.68280E+04         0.33379E+02         0.00000E+00
    0.33379E+02         0.16749E+03         0.00000E+00
    0.00000E+00         0.00000E+00        -0.19982E+04
 
   -0.67856E+04         0.12146E+03         0.00000E+00
    0.12146E+03         0.49464E+03         0.00000E+00
    0.00000E+00         0.00000E+00        -0.18873E+04
 
   -0.67197E+04         0.23506E+03         0.00000E+00
    0.23506E+03         0.80643E+03         0.00000E+00
    0.00000E+00         0.00000E+00        -0.17740E+04
 
   -0.66291E+04         0.37146E+03         0.00000E+00
    0.37146E+03         0.10988E+04         0.00000E+00
    0.00000E+00         0.00000E+00        -0.16591E+04
 
   -0.65124E+04         0.52774E+03         0.00000E+00
    0.52774E+03         0.13680E+04         0.00000E+00
    0.00000E+00         0.00000E+00        -0.15433E+04
 
   -0.63685E+04         0.70069E+03         0.00000E+00
    0.70069E+03         0.16106E+04         0.00000E+00
    0.00000E+00         0.00000E+00        -0.14273E+04
 
   -0.61967E+04         0.88688E+03         0.00000E+00
    0.88688E+03         0.18241E+04         0.00000E+00
    0.00000E+00         0.00000E+00        -0.13118E+04
 
   -0.59968E+04         0.10828E+04         0.00000E+00
    0.10828E+04         0.20067E+04         0.00000E+00
    0.00000E+00         0.00000E+00        -0.11970E+04
 
   -0.57692E+04         0.12850E+04         0.00000E+00
    0.12850E+04         0.21573E+04         0.00000E+00
    0.00000E+00         0.00000E+00        -0.10836E+04
 
   -0.55149E+04         0.14903E+04         0.00000E+00
    0.14903E+04         0.22759E+04         0.00000E+00
    0.00000E+00         0.00000E+00        -0.97170E+03
 
   -0.52351E+04         0.16961E+04         0.00000E+00
    0.16961E+04         0.23631E+04         0.00000E+00
    0.00000E+00         0.00000E+00        -0.86161E+03
 
   -0.49316E+04         0.19001E+04         0.00000E+00
    0.19001E+04         0.24201E+04         0.00000E+00
    0.00000E+00         0.00000E+00        -0.75345E+03
 
   -0.46062E+04         0.21010E+04         0.00000E+00
    0.21010E+04         0.24487E+04         0.00000E+00
    0.00000E+00         0.00000E+00        -0.64726E+03
 
   -0.42606E+04         0.22977E+04         0.00000E+00
    0.22977E+04         0.24505E+04         0.00000E+00
    0.00000E+00         0.00000E+00        -0.54303E+03
 
   -0.38963E+04         0.24899E+04         0.00000E+00
    0.24899E+04         0.24276E+04         0.00000E+00
    0.00000E+00         0.00000E+00        -0.44061E+03
 
   -0.35144E+04         0.26778E+04         0.00000E+00
    0.26778E+04         0.23816E+04         0.00000E+00
    0.00000E+00         0.00000E+00        -0.33983E+03
 
   -0.31154E+04         0.28618E+04         0.00000E+00
    0.28618E+04         0.23140E+04         0.00000E+00
    0.00000E+00         0.00000E+00        -0.24041E+03
 
   -0.26995E+04         0.30425E+04         0.00000E+00
    0.30425E+04         0.22260E+04         0.00000E+00
    0.00000E+00         0.00000E+00        -0.14204E+03
 
   -0.22660E+04         0.32206E+04         0.00000E+00
    0.32206E+04         0.21182E+04         0.00000E+00
    0.00000E+00         0.00000E+00        -0.44344E+02
 
   -0.18140E+04         0.33968E+04         0.00000E+00
    0.33968E+04         0.19908E+04         0.00000E+00
    0.00000E+00         0.00000E+00         0.53066E+02
 
   -0.13417E+04         0.35714E+04         0.00000E+00
    0.35714E+04         0.18437E+04         0.00000E+00
    0.00000E+00         0.00000E+00         0.15059E+03
 
   -0.84725E+03         0.37445E+04         0.00000E+00
    0.37445E+04         0.16760E+04         0.00000E+00
    0.00000E+00         0.00000E+00         0.24864E+03
 
   -0.32822E+03         0.39156E+04         0.00000E+00
    0.39156E+04         0.14868E+04         0.00000E+00
    0.00000E+00         0.00000E+00         0.34757E+03
 
    0.21796E+03         0.40836E+04         0.00000E+00
    0.40836E+04         0.12745E+04         0.00000E+00
    0.00000E+00         0.00000E+00         0.44774E+03
 
   -0.67643E+04         0.28233E+02         0.00000E+00
    0.28233E+02         0.16256E+03         0.00000E+00
    0.00000E+00         0.00000E+00        -0.19805E+04
 
   -0.67058E+04         0.10506E+03         0.00000E+00
    0.10506E+03         0.48080E+03         0.00000E+00
    0.00000E+00         0.00000E+00        -0.18675E+04
 
   -0.66261E+04         0.20610E+03         0.00000E+00
    0.20610E+03         0.78534E+03         0.00000E+00
    0.00000E+00         0.00000E+00        -0.17522E+04
 
   -0.65240E+04         0.32871E+03         0.00000E+00
    0.32871E+03         0.10722E+04         0.00000E+00
    0.00000E+00         0.00000E+00        -0.16355E+04
 
   -0.63984E+04         0.47011E+03         0.00000E+00
    0.47011E+03         0.13378E+04         0.00000E+00
    0.00000E+00         0.00000E+00        -0.15182E+04
 
   -0.62483E+04         0.62742E+03         0.00000E+00
    0.62742E+03         0.15789E+04         0.00000E+00
    0.00000E+00         0.00000E+00        -0.14008E+04
 
   -0.60732E+04         0.79763E+03         0.00000E+00
    0.79763E+03         0.17930E+04         0.00000E+00
    0.00000E+00         0.00000E+00        -0.12841E+04
 
   -0.58729E+04         0.97769E+03         0.00000E+00
    0.97769E+03         0.19781E+04         0.00000E+00
    0.00000E+00         0.00000E+00        -0.11684E+04
 
   -0.56475E+04         0.11647E+04         0.00000E+00
    0.11647E+04         0.21332E+04         0.00000E+00
    0.00000E+00         0.00000E+00        -0.10543E+04
 
   -0.53976E+04         0.13559E+04         0.00000E+00
    0.13559E+04         0.22580E+04         0.00000E+00
    0.00000E+00         0.00000E+00        -0.94189E+03
 
   -0.51243E+04         0.15489E+04         0.00000E+00
    0.15489E+04         0.23526E+04         0.00000E+00
    0.00000E+00         0.00000E+00        -0.83150E+03
 
   -0.48285E+04         0.17419E+04         0.00000E+00
    0.17419E+04         0.24179E+04         0.00000E+00
    0.00000E+00         0.00000E+00        -0.72321E+03
 
   -0.45117E+04         0.19334E+04         0.00000E+00
    0.19334E+04         0.24550E+04         0.00000E+00
    0.00000E+00         0.00000E+00        -0.61702E+03
 
   -0.41749E+04         0.21224E+04         0.00000E+00
    0.21224E+04         0.24654E+04         0.00000E+00
    0.00000E+00         0.00000E+00        -0.51287E+03
 
   -0.38192E+04         0.23083E+04         0.00000E+00
    0.23083E+04         0.24506E+04         0.00000E+00
    0.00000E+00         0.00000E+00        -0.41060E+03
 
   -0.34453E+04         0.24910E+04         0.00000E+00
    0.24910E+04         0.24120E+04         0.00000E+00
    0.00000E+00         0.00000E+00        -0.31000E+03
 
   -0.30536E+04         0.26706E+04         0.00000E+00
    0.26706E+04         0.23509E+04         0.00000E+00
    0.00000E+00         0.00000E+00        -0.21079E+03
 
   -0.26438E+04         0.28473E+04         0.00000E+00
    0.28473E+04         0.22684E+04         0.00000E+00
    0.00000E+00         0.00000E+00        -0.11263E+03
 
   -0.22157E+04         0.30215E+04         0.00000E+00
    0.30215E+04         0.21651E+04         0.00000E+00
    0.00000E+00         0.00000E+00        -0.15175E+02
 
   -0.17681E+04         0.31934E+04         0.00000E+00
    0.31934E+04         0.20413E+04         0.00000E+00
    0.00000E+00         0.00000E+00         0.81955E+02
 
   -0.12998E+04         0.33630E+04         0.00000E+00
    0.33630E+04         0.18969E+04         0.00000E+00
    0.00000E+00         0.00000E+00         0.17913E+03
 
   -0.80916E+03         0.35299E+04         0.00000E+00
    0.35299E+04         0.17315E+04         0.00000E+00
    0.00000E+00         0.00000E+00         0.27671E+03
 
   -0.29427E+03         0.36936E+04         0.00000E+00
    0.36936E+04         0.15443E+04         0.00000E+00
    0.00000E+00         0.00000E+00         0.37501E+03
 
    0.24686E+03         0.38529E+04         0.00000E+00
    0.38529E+04         0.13342E+04         0.00000E+00
    0.00000E+00         0.00000E+00         0.47431E+03
 
   -0.67103E+04         0.23726E+02         0.00000E+00
    0.23726E+02         0.15780E+03         0.00000E+00
    0.00000E+00         0.00000E+00        -0.19658E+04
 
   -0.66368E+04         0.90508E+02         0.00000E+00
    0.90508E+02         0.46747E+03         0.00000E+00
    0.00000E+00         0.00000E+00        -0.18508E+04
 
   -0.65442E+04         0.18025E+03         0.00000E+00
    0.18025E+03         0.76502E+03         0.00000E+00
    0.00000E+00         0.00000E+00        -0.17338E+04
 
   -0.64315E+04         0.29040E+03         0.00000E+00
    0.29040E+03         0.10466E+04         0.00000E+00
    0.00000E+00         0.00000E+00        -0.16155E+04
 
   -0.62975E+04         0.41839E+03         0.00000E+00
    0.41839E+03         0.13085E+04         0.00000E+00
    0.00000E+00         0.00000E+00        -0.14967E+04
 
   -0.61416E+04         0.56161E+03         0.00000E+00
    0.56161E+03         0.15477E+04         0.00000E+00
    0.00000E+00         0.00000E+00        -0.13781E+04
 
   -0.59630E+04         0.71738E+03         0.00000E+00
    0.71738E+03         0.17617E+04         0.00000E+00
    0.00000E+00         0.00000E+00        -0.12604E+04
 
   -0.57616E+04         0.88306E+03         0.00000E+00
    0.88306E+03         0.19486E+04         0.00000E+00
    0.00000E+00         0.00000E+00        -0.11439E+04
 
   -0.55375E+04         0.10561E+04         0.00000E+00
    0.10561E+04         0.21070E+04         0.00000E+00
    0.00000E+00         0.00000E+00        -0.10291E+04
 
   -0.52909E+04         0.12341E+04         0.00000E+00
    0.12341E+04         0.22364E+04         0.00000E+00
    0.00000E+00         0.00000E+00        -0.91632E+03
 
   -0.50224E+04         0.14150E+04         0.00000E+00
    0.14150E+04         0.23368E+04         0.00000E+00
    0.00000E+00         0.00000E+00        -0.80566E+03
 
   -0.47327E+04         0.15971E+04         0.00000E+00
    0.15971E+04         0.24086E+04         0.00000E+00
    0.00000E+00         0.00000E+00        -0.69724E+03
 
   -0.44228E+04         0.17789E+04         0.00000E+00
    0.17789E+04         0.24526E+04         0.00000E+00
    0.00000E+00         0.00000E+00        -0.59105E+03
 
   -0.40933E+04         0.19595E+04         0.00000E+00
    0.19595E+04         0.24700E+04         0.00000E+00
    0.00000E+00         0.00000E+00        -0.48699E+03
 
   -0.37448E+04         0.21382E+04         0.00000E+00
    0.21382E+04         0.24619E+04         0.00000E+00
    0.00000E+00         0.00000E+00        -0.38489E+03
 
   -0.33779E+04         0.23146E+04         0.00000E+00
    0.23146E+04         0.24295E+04         0.00000E+00
    0.00000E+00         0.00000E+00        -0.28450E+03
 
   -0.29926E+04         0.24886E+04         0.00000E+00
    0.24886E+04         0.23741E+04         0.00000E+00
    0.00000E+00         0.00000E+00        -0.18556E+03
 
   -0.25888E+04         0.26600E+04         0.00000E+00
    0.26600E+04         0.22964E+04         0.00000E+00
    0.00000E+00         0.00000E+00        -0.87713E+02
 
   -0.21659E+04         0.28289E+04         0.00000E+00
    0.28289E+04         0.21972E+04         0.00000E+00
    0.00000E+00         0.00000E+00         0.93760E+01
 
   -0.17233E+04         0.29953E+04         0.00000E+00
    0.29953E+04         0.20768E+04         0.00000E+00
    0.00000E+00         0.00000E+00         0.10607E+03
 
   -0.12596E+04         0.31588E+04         0.00000E+00
    0.31588E+04         0.19353E+04         0.00000E+00
    0.00000E+00         0.00000E+00         0.20271E+03
 
   -0.77375E+03         0.33188E+04         0.00000E+00
    0.33188E+04         0.17724E+04         0.00000E+00
    0.00000E+00         0.00000E+00         0.29961E+03
 
   -0.26416E+03         0.34747E+04         0.00000E+00
    0.34747E+04         0.15877E+04         0.00000E+00
    0.00000E+00         0.00000E+00         0.39705E+03
 
    0.27066E+03         0.36250E+04         0.00000E+00
    0.36250E+04         0.13802E+04         0.00000E+00
    0.00000E+00         0.00000E+00         0.49526E+03
 
   -0.66650E+04         0.19836E+02         0.00000E+00
    0.19836E+02         0.15323E+03         0.00000E+00
    0.00000E+00         0.00000E+00        -0.19535E+04
 
   -0.65773E+04         0.77754E+02         0.00000E+00
    0.77754E+02         0.45464E+03         0.00000E+00
    0.00000E+00         0.00000E+00        -0.18368E+04
 
   -0.64727E+04         0.15736E+03         0.00000E+00
    0.15736E+03         0.74544E+03         0.00000E+00
    0.00000E+00         0.00000E+00        -0.17182E+04
 
   -0.63500E+04         0.25627E+03         0.00000E+00
    0.25627E+03         0.10217E+04         0.00000E+00
    0.00000E+00         0.00000E+00        -0.15985E+04
 
   -0.62082E+04         0.37212E+03         0.00000E+00
    0.37212E+03         0.12799E+04         0.00000E+00
    0.00000E+00         0.00000E+00        -0.14785E+04
 
   -0.60466E+04         0.50254E+03         0.00000E+00
    0.50254E+03         0.15170E+04         0.00000E+00
    0.00000E+00         0.00000E+00        -0.13589E+04
 
   -0.58645E+04         0.64516E+03         0.00000E+00
    0.64516E+03         0.17305E+04         0.00000E+00
    0.00000E+00         0.00000E+00        -0.12402E+04
 
   -0.56616E+04         0.79762E+03         0.00000E+00
    0.79762E+03         0.19182E+04         0.00000E+00
    0.00000E+00         0.00000E+00        -0.11230E+04
 
   -0.54379E+04         0.95769E+03         0.00000E+00
    0.95769E+03         0.20789E+04         0.00000E+00
    0.00000E+00         0.00000E+00        -0.10077E+04
 
   -0.51935E+04         0.11233E+04         0.00000E+00
    0.11233E+04         0.22118E+04         0.00000E+00
    0.00000E+00         0.00000E+00        -0.89450E+03
 
   -0.49286E+04         0.12926E+04         0.00000E+00
    0.12926E+04         0.23166E+04         0.00000E+00
    0.00000E+00         0.00000E+00        -0.78361E+03
 
   -0.46437E+04         0.14639E+04         0.00000E+00
    0.14639E+04         0.23935E+04         0.00000E+00
    0.00000E+00         0.00000E+00        -0.67508E+03
 
   -0.43393E+04         0.16359E+04         0.00000E+00
    0.16359E+04         0.24430E+04         0.00000E+00
    0.00000E+00         0.00000E+00        -0.56889E+03
 
   -0.40158E+04         0.18077E+04         0.00000E+00
    0.18077E+04         0.24660E+04         0.00000E+00
    0.00000E+00         0.00000E+00        -0.46494E+03
 
   -0.36735E+04         0.19785E+04         0.00000E+00
    0.19785E+04         0.24634E+04         0.00000E+00
    0.00000E+00         0.00000E+00        -0.36302E+03
 
   -0.33127E+04         0.21477E+04         0.00000E+00
    0.21477E+04         0.24363E+04         0.00000E+00
    0.00000E+00         0.00000E+00        -0.26291E+03
 
   -0.29333E+04         0.23149E+04         0.00000E+00
    0.23149E+04         0.23857E+04         0.00000E+00
    0.00000E+00         0.00000E+00        -0.16429E+03
 
   -0.25350E+04         0.24800E+04         0.00000E+00
    0.24800E+04         0.23122E+04         0.00000E+00
    0.00000E+00         0.00000E+00        -0.66838E+02
 
   -0.21175E+04         0.26426E+04         0.00000E+00
    0.26426E+04         0.22168E+04         0.00000E+00
    0.00000E+00         0.00000E+00         0.29777E+02
 
   -0.16800E+04         0.28024E+04         0.00000E+00
    0.28024E+04         0.20996E+04         0.00000E+00
    0.00000E+00         0.00000E+00         0.12590E+03
 
   -0.12215E+04         0.29589E+04         0.00000E+00
    0.29589E+04         0.19610E+04         0.00000E+00
    0.00000E+00         0.00000E+00         0.22185E+03
 
   -0.74111E+03         0.31115E+04         0.00000E+00
    0.31115E+04         0.18008E+04         0.00000E+00
    0.00000E+00         0.00000E+00         0.31792E+03
 
   -0.23767E+03         0.32591E+04         0.00000E+00
    0.32591E+04         0.16188E+04         0.00000E+00
    0.00000E+00         0.00000E+00         0.41434E+03
 
    0.28992E+03         0.34004E+04         0.00000E+00
    0.34004E+04         0.14143E+04         0.00000E+00
    0.00000E+00         0.00000E+00         0.51128E+03
 
   -0.66270E+04         0.16521E+02         0.00000E+00
    0.16521E+02         0.14886E+03         0.00000E+00
    0.00000E+00         0.00000E+00        -0.19434E+04
 
   -0.65261E+04         0.66678E+02         0.00000E+00
    0.66678E+02         0.44234E+03         0.00000E+00
    0.00000E+00         0.00000E+00        -0.18251E+04
 
   -0.64103E+04         0.13722E+03         0.00000E+00
    0.13722E+03         0.72660E+03         0.00000E+00
    0.00000E+00         0.00000E+00        -0.17051E+04
 
   -0.62783E+04         0.22599E+03         0.00000E+00
    0.22599E+03         0.99772E+03         0.00000E+00
    0.00000E+00         0.00000E+00        -0.15842E+04
 
   -0.61291E+04         0.33081E+03         0.00000E+00
    0.33081E+03         0.12522E+04         0.00000E+00
    0.00000E+00         0.00000E+00        -0.14631E+04
 
   -0.59620E+04         0.44954E+03         0.00000E+00
    0.44954E+03         0.14869E+04         0.00000E+00
    0.00000E+00         0.00000E+00        -0.13425E+04
 
   -0.57763E+04         0.58005E+03         0.00000E+00
    0.58005E+03         0.16992E+04         0.00000E+00
    0.00000E+00         0.00000E+00        -0.12231E+04
 
   -0.55716E+04         0.72028E+03         0.00000E+00
    0.72028E+03         0.18872E+04         0.00000E+00
    0.00000E+00         0.00000E+00        -0.11053E+04
 
   -0.53477E+04         0.86822E+03         0.00000E+00
    0.86822E+03         0.20494E+04         0.00000E+00
    0.00000E+00         0.00000E+00        -0.98951E+03
 
   -0.51047E+04         0.10220E+04         0.00000E+00
    0.10220E+04         0.21847E+04         0.00000E+00
    0.00000E+00         0.00000E+00        -0.87598E+03
 
   -0.48424E+04         0.11800E+04         0.00000E+00
    0.11800E+04         0.22928E+04         0.00000E+00
    0.00000E+00         0.00000E+00        -0.76488E+03
 
   -0.45612E+04         0.13407E+04         0.00000E+00
    0.13407E+04         0.23736E+04         0.00000E+00
    0.00000E+00         0.00000E+00        -0.65628E+03
 
   -0.42613E+04         0.15029E+04         0.00000E+00
    0.15029E+04         0.24275E+04         0.00000E+00
    0.00000E+00         0.00000E+00        -0.55013E+03
 
   -0.39427E+04         0.16655E+04         0.00000E+00
    0.16655E+04         0.24550E+04         0.00000E+00
    0.00000E+00         0.00000E+00        -0.44630E+03
 
   -0.36057E+04         0.18278E+04         0.00000E+00
    0.18278E+04         0.24570E+04         0.00000E+00
    0.00000E+00         0.00000E+00        -0.34461E+03
 
   -0.32502E+04         0.19890E+04         0.00000E+00
    0.19890E+04         0.24342E+04         0.00000E+00
    0.00000E+00         0.00000E+00        -0.24479E+03
 
   -0.28761E+04         0.21488E+04         0.00000E+00
    0.21488E+04         0.23876E+04         0.00000E+00
    0.00000E+00         0.00000E+00        -0.14655E+03
 
   -0.24832E+04         0.23066E+04         0.00000E+00
    0.23066E+04         0.23180E+04         0.00000E+00
    0.00000E+00         0.00000E+00        -0.49569E+02
 
   -0.20709E+04         0.24619E+04         0.00000E+00
    0.24619E+04         0.22258E+04         0.00000E+00
    0.00000E+00         0.00000E+00         0.46486E+02
 
   -0.16386E+04         0.26144E+04         0.00000E+00
    0.26144E+04         0.21118E+04         0.00000E+00
    0.00000E+00         0.00000E+00         0.14194E+03
 
   -0.11857E+04         0.27634E+04         0.00000E+00
    0.27634E+04         0.19760E+04         0.00000E+00
    0.00000E+00         0.00000E+00         0.23709E+03
 
   -0.71128E+03         0.29080E+04         0.00000E+00
    0.29080E+04         0.18186E+04         0.00000E+00
    0.00000E+00         0.00000E+00         0.33220E+03
 
   -0.21458E+03         0.30471E+04         0.00000E+00
    0.30471E+04         0.16395E+04         0.00000E+00
    0.00000E+00         0.00000E+00         0.42747E+03
 
    0.30517E+03         0.31794E+04         0.00000E+00
    0.31794E+04         0.14383E+04         0.00000E+00
    0.00000E+00         0.00000E+00         0.52303E+03
 
   -0.65953E+04         0.13724E+02         0.00000E+00
    0.13724E+02         0.14470E+03         0.00000E+00
    0.00000E+00         0.00000E+00        -0.19352E+04
 
   -0.64822E+04         0.57127E+02         0.00000E+00
    0.57127E+02         0.43061E+03         0.00000E+00
    0.00000E+00         0.00000E+00        -0.18155E+04
 
   -0.63559E+04         0.11960E+03         0.00000E+00
    0.11960E+03         0.70855E+03         0.00000E+00
    0.00000E+00         0.00000E+00        -0.16942E+04
 
   -0.62152E+04         0.19919E+03         0.00000E+00
    0.19919E+03         0.97458E+03         0.00000E+00
    0.00000E+00         0.00000E+00        -0.15722E+04
 
   -0.60590E+04         0.29394E+03         0.00000E+00
    0.29394E+03         0.12252E+04         0.00000E+00
    0.00000E+00         0.00000E+00        -0.14501E+04
 
   -0.58865E+04         0.40192E+03         0.00000E+00
    0.40192E+03         0.14573E+04         0.00000E+00
    0.00000E+00         0.00000E+00        -0.13288E+04
 
   -0.56971E+04         0.52124E+03         0.00000E+00
    0.52124E+03         0.16682E+04         0.00000E+00
    0.00000E+00         0.00000E+00        -0.12087E+04
 
   -0.54904E+04         0.65003E+03         0.00000E+00
    0.65003E+03         0.18559E+04         0.00000E+00
    0.00000E+00         0.00000E+00        -0.10903E+04
 
   -0.52660E+04         0.78653E+03         0.00000E+00
    0.78653E+03         0.20188E+04         0.00000E+00
    0.00000E+00         0.00000E+00        -0.97414E+03
 
   -0.50236E+04         0.92906E+03         0.00000E+00
    0.92906E+03         0.21558E+04         0.00000E+00
    0.00000E+00         0.00000E+00        -0.86034E+03
 
   -0.47633E+04         0.10761E+04         0.00000E+00
    0.10761E+04         0.22663E+04         0.00000E+00
    0.00000E+00         0.00000E+00        -0.74909E+03
 
   -0.44849E+04         0.12263E+04         0.00000E+00
    0.12263E+04         0.23501E+04         0.00000E+00
    0.00000E+00         0.00000E+00        -0.64044E+03
 
   -0.41885E+04         0.13786E+04         0.00000E+00
    0.13786E+04         0.24073E+04         0.00000E+00
    0.00000E+00         0.00000E+00        -0.53435E+03
 
   -0.38741E+04         0.15317E+04         0.00000E+00
    0.15317E+04         0.24385E+04         0.00000E+00
    0.00000E+00         0.00000E+00        -0.43068E+03
 
   -0.35415E+04         0.16851E+04         0.00000E+00
    0.16851E+04         0.24441E+04         0.00000E+00
    0.00000E+00         0.00000E+00        -0.32923E+03
 
   -0.31908E+04         0.18378E+04         0.00000E+00
    0.18378E+04         0.24250E+04         0.00000E+00
    0.00000E+00         0.00000E+00        -0.22975E+03
 
   -0.28216E+04         0.19894E+04         0.00000E+00
    0.19894E+04         0.23818E+04         0.00000E+00
    0.00000E+00         0.00000E+00        -0.13194E+03
 
   -0.24336E+04         0.21392E+04         0.00000E+00
    0.21392E+04         0.23154E+04         0.00000E+00
    0.00000E+00         0.00000E+00        -0.35482E+02
 
   -0.20265E+04         0.22867E+04         0.00000E+00
    0.22867E+04         0.22263E+04         0.00000E+00
    0.00000E+00         0.00000E+00         0.59948E+02
 
   -0.15995E+04         0.24313E+04         0.00000E+00
    0.24313E+04         0.21151E+04         0.00000E+00
    0.00000E+00         0.00000E+00         0.15466E+03
 
   -0.11523E+04         0.25722E+04         0.00000E+00
    0.25722E+04         0.19821E+04         0.00000E+00
    0.00000E+00         0.00000E+00         0.24893E+03
 
   -0.68418E+03         0.27084E+04         0.00000E+00
    0.27084E+04         0.18275E+04         0.00000E+00
    0.00000E+00         0.00000E+00         0.34299E+03
 
   -0.19459E+03         0.28389E+04         0.00000E+00
    0.28389E+04         0.16514E+04         0.00000E+00
    0.00000E+00         0.00000E+00         0.43703E+03
 
    0.31692E+03         0.29622E+04         0.00000E+00
    0.29622E+04         0.14535E+04         0.00000E+00
    0.00000E+00         0.00000E+00         0.53113E+03
 
   -0.65688E+04         0.11385E+02         0.00000E+00
    0.11385E+02         0.14077E+03         0.00000E+00
    0.00000E+00         0.00000E+00        -0.19284E+04
 
   -0.64445E+04         0.48931E+02         0.00000E+00
    0.48931E+02         0.41948E+03         0.00000E+00
    0.00000E+00         0.00000E+00        -0.18075E+04
 
   -0.63085E+04         0.10421E+03         0.00000E+00
    0.10421E+03         0.69133E+03         0.00000E+00
    0.00000E+00         0.00000E+00        -0.16851E+04
 
   -0.61596E+04         0.17549E+03         0.00000E+00
    0.17549E+03         0.95239E+03         0.00000E+00
    0.00000E+00         0.00000E+00        -0.15622E+04
 
   -0.59968E+04         0.26102E+03         0.00000E+00
    0.26102E+03         0.11991E+04         0.00000E+00
    0.00000E+00         0.00000E+00        -0.14393E+04
 
   -0.58192E+04         0.35907E+03         0.00000E+00
    0.35907E+03         0.14284E+04         0.00000E+00
    0.00000E+00         0.00000E+00        -0.13172E+04
 
   -0.56262E+04         0.46795E+03         0.00000E+00
    0.46795E+03         0.16376E+04         0.00000E+00
    0.00000E+00         0.00000E+00        -0.11966E+04
 
   -0.54172E+04         0.58600E+03         0.00000E+00
    0.58600E+03         0.18246E+04         0.00000E+00
    0.00000E+00         0.00000E+00        -0.10778E+04
 
   -0.51918E+04         0.71162E+03         0.00000E+00
    0.71162E+03         0.19877E+04         0.00000E+00
    0.00000E+00         0.00000E+00        -0.96124E+03
 
   -0.49497E+04         0.84333E+03         0.00000E+00
    0.84333E+03         0.21257E+04         0.00000E+00
    0.00000E+00         0.00000E+00        -0.84721E+03
 
   -0.46906E+04         0.97974E+03         0.00000E+00
    0.97974E+03         0.22378E+04         0.00000E+00
    0.00000E+00         0.00000E+00        -0.73584E+03
 
   -0.44144E+04         0.11196E+04         0.00000E+00
    0.11196E+04         0.23238E+04         0.00000E+00
    0.00000E+00         0.00000E+00        -0.62719E+03
 
   -0.41209E+04         0.12618E+04         0.00000E+00
    0.12618E+04         0.23836E+04         0.00000E+00
    0.00000E+00         0.00000E+00        -0.52118E+03
 
   -0.38099E+04         0.14054E+04         0.00000E+00
    0.14054E+04         0.24176E+04         0.00000E+00
    0.00000E+00         0.00000E+00        -0.41770E+03
 
   -0.34813E+04         0.15494E+04         0.00000E+00
    0.15494E+04         0.24262E+04         0.00000E+00
    0.00000E+00         0.00000E+00        -0.31653E+03
 
   -0.31347E+04         0.16933E+04         0.00000E+00
    0.16933E+04         0.24100E+04         0.00000E+00
    0.00000E+00         0.00000E+00        -0.21742E+03
 
   -0.27700E+04         0.18362E+04         0.00000E+00
    0.18362E+04         0.23697E+04         0.00000E+00
    0.00000E+00         0.00000E+00        -0.12007E+03
 
   -0.23867E+04         0.19775E+04         0.00000E+00
    0.19775E+04         0.23061E+04         0.00000E+00
    0.00000E+00         0.00000E+00        -0.24175E+02
 
   -0.19845E+04         0.21166E+04         0.00000E+00
    0.21166E+04         0.22198E+04         0.00000E+00
    0.00000E+00         0.00000E+00         0.70582E+02
 
   -0.15629E+04         0.22527E+04         0.00000E+00
    0.22527E+04         0.21112E+04         0.00000E+00
    0.00000E+00         0.00000E+00         0.16450E+03
 
   -0.11214E+04         0.23851E+04         0.00000E+00
    0.23851E+04         0.19809E+04         0.00000E+00
    0.00000E+00         0.00000E+00         0.25783E+03
 
   -0.65973E+03         0.25127E+04         0.00000E+00
    0.25127E+04         0.18291E+04         0.00000E+00
    0.00000E+00         0.00000E+00         0.35080E+03
 
   -0.17744E+03         0.26345E+04         0.00000E+00
    0.26345E+04         0.16560E+04         0.00000E+00
    0.00000E+00         0.00000E+00         0.44355E+03
 
    0.32567E+03         0.27489E+04         0.00000E+00
    0.27489E+04         0.14616E+04         0.00000E+00
    0.00000E+00         0.00000E+00         0.53617E+03
 
   -0.65468E+04         0.94415E+01         0.00000E+00
    0.94415E+01         0.13708E+03         0.00000E+00
    0.00000E+00         0.00000E+00        -0.19229E+04
 
   -0.64122E+04         0.41919E+02         0.00000E+00
    0.41919E+02         0.40898E+03         0.00000E+00
    0.00000E+00         0.00000E+00        -0.18010E+04
 
   -0.62672E+04         0.90787E+02         0.00000E+00
    0.90787E+02         0.67500E+03         0.00000E+00
    0.00000E+00         0.00000E+00        -0.16777E+04
 
   -0.61107E+04         0.15452E+03         0.00000E+00
    0.15452E+03         0.93123E+03         0.00000E+00
    0.00000E+00         0.00000E+00        -0.15539E+04
 
   -0.59417E+04         0.23157E+03         0.00000E+00
    0.23157E+03         0.11741E+04         0.00000E+00
    0.00000E+00         0.00000E+00        -0.14303E+04
 
   -0.57592E+04         0.32040E+03         0.00000E+00
    0.32040E+03         0.14005E+04         0.00000E+00
    0.00000E+00         0.00000E+00        -0.13076E+04
 
   -0.55626E+04         0.41949E+03         0.00000E+00
    0.41949E+03         0.16078E+04         0.00000E+00
    0.00000E+00         0.00000E+00        -0.11865E+04
 
   -0.53513E+04         0.52737E+03         0.00000E+00
    0.52737E+03         0.17937E+04         0.00000E+00
    0.00000E+00         0.00000E+00        -0.10673E+04
 
   -0.51247E+04         0.64262E+03         0.00000E+00
    0.64262E+03         0.19565E+04         0.00000E+00
    0.00000E+00         0.00000E+00        -0.95046E+03
 
   -0.48824E+04         0.76387E+03         0.00000E+00
    0.76387E+03         0.20949E+04         0.00000E+00
    0.00000E+00         0.00000E+00        -0.83626E+03
 
   -0.46242E+04         0.88988E+03         0.00000E+00
    0.88988E+03         0.22081E+04         0.00000E+00
    0.00000E+00         0.00000E+00        -0.72482E+03
 
   -0.43496E+04         0.10195E+04         0.00000E+00
    0.10195E+04         0.22956E+04         0.00000E+00
    0.00000E+00         0.00000E+00        -0.61618E+03
 
   -0.40583E+04         0.11517E+04         0.00000E+00
    0.11517E+04         0.23574E+04         0.00000E+00
    0.00000E+00         0.00000E+00        -0.51029E+03
 
   -0.37502E+04         0.12854E+04         0.00000E+00
    0.12854E+04         0.23935E+04         0.00000E+00
    0.00000E+00         0.00000E+00        -0.40702E+03
 
   -0.34249E+04         0.14200E+04         0.00000E+00
    0.14200E+04         0.24044E+04         0.00000E+00
    0.00000E+00         0.00000E+00        -0.30615E+03
 
   -0.30821E+04         0.15546E+04         0.00000E+00
    0.15546E+04         0.23907E+04         0.00000E+00
    0.00000E+00         0.00000E+00        -0.20743E+03
 
   -0.27215E+04         0.16884E+04         0.00000E+00
    0.16884E+04         0.23529E+04         0.00000E+00
    0.00000E+00         0.00000E+00        -0.11057E+03
 
   -0.23426E+04         0.18208E+04         0.00000E+00
    0.18208E+04         0.22917E+04         0.00000E+00
    0.00000E+00         0.00000E+00        -0.15267E+02
 
   -0.19452E+04         0.19511E+04         0.00000E+00
    0.19511E+04         0.22078E+04         0.00000E+00
    0.00000E+00         0.00000E+00         0.78787E+02
 
   -0.15288E+04         0.20784E+04         0.00000E+00
    0.20784E+04         0.21017E+04         0.00000E+00
    0.00000E+00         0.00000E+00         0.17187E+03
 
   -0.10931E+04         0.22020E+04         0.00000E+00
    0.22020E+04         0.19739E+04         0.00000E+00
    0.00000E+00         0.00000E+00         0.26424E+03
 
   -0.63781E+03         0.23209E+04         0.00000E+00
    0.23209E+04         0.18248E+04         0.00000E+00
    0.00000E+00         0.00000E+00         0.35609E+03
 
   -0.16284E+03         0.24338E+04         0.00000E+00
    0.24338E+04         0.16547E+04         0.00000E+00
    0.00000E+00         0.00000E+00         0.44755E+03
 
    0.33187E+03         0.25395E+04         0.00000E+00
    0.25395E+04         0.14637E+04         0.00000E+00
    0.00000E+00         0.00000E+00         0.53867E+03
 
   -0.65286E+04         0.78346E+01         0.00000E+00
    0.78346E+01         0.13364E+03         0.00000E+00
    0.00000E+00         0.00000E+00        -0.19185E+04
 
   -0.63845E+04         0.35924E+02         0.00000E+00
    0.35924E+02         0.39914E+03         0.00000E+00
    0.00000E+00         0.00000E+00        -0.17956E+04
 
   -0.62313E+04         0.79059E+02         0.00000E+00
    0.79059E+02         0.65963E+03         0.00000E+00
    0.00000E+00         0.00000E+00        -0.16715E+04
 
   -0.60678E+04         0.13591E+03         0.00000E+00
    0.13591E+03         0.91120E+03         0.00000E+00
    0.00000E+00         0.00000E+00        -0.15470E+04
 
   -0.58929E+04         0.20513E+03         0.00000E+00
    0.20513E+03         0.11503E+04         0.00000E+00
    0.00000E+00         0.00000E+00        -0.14228E+04
 
   -0.57058E+04         0.28535E+03         0.00000E+00
    0.28535E+03         0.13738E+04         0.00000E+00
    0.00000E+00         0.00000E+00        -0.12996E+04
 
   -0.55057E+04         0.37523E+03         0.00000E+00
    0.37523E+03         0.15789E+04         0.00000E+00
    0.00000E+00         0.00000E+00        -0.11781E+04
 
   -0.52920E+04         0.47345E+03         0.00000E+00
    0.47345E+03         0.17634E+04         0.00000E+00
    0.00000E+00         0.00000E+00        -0.10586E+04
 
   -0.50640E+04         0.57873E+03         0.00000E+00
    0.57873E+03         0.19256E+04         0.00000E+00
    0.00000E+00         0.00000E+00        -0.94152E+03
 
   -0.48213E+04         0.68985E+03         0.00000E+00
    0.68985E+03         0.20640E+04         0.00000E+00
    0.00000E+00         0.00000E+00        -0.82719E+03
 
   -0.45635E+04         0.80568E+03         0.00000E+00
    0.80568E+03         0.21778E+04         0.00000E+00
    0.00000E+00         0.00000E+00        -0.71571E+03
 
   -0.42901E+04         0.92516E+03         0.00000E+00
    0.92516E+03         0.22663E+04         0.00000E+00
    0.00000E+00         0.00000E+00        -0.60712E+03
 
   -0.40007E+04         0.10473E+04         0.00000E+00
    0.10473E+04         0.23295E+04         0.00000E+00
    0.00000E+00         0.00000E+00        -0.50137E+03
 
   -0.36950E+04         0.11712E+04         0.00000E+00
    0.11712E+04         0.23673E+04         0.00000E+00
    0.00000E+00         0.00000E+00        -0.39832E+03
 
   -0.33726E+04         0.12961E+04         0.00000E+00
    0.12961E+04         0.23801E+04         0.00000E+00
    0.00000E+00         0.00000E+00        -0.29777E+03
 
   -0.30332E+04         0.14211E+04         0.00000E+00
    0.14211E+04         0.23683E+04         0.00000E+00
    0.00000E+00         0.00000E+00        -0.19946E+03
 
   -0.26762E+04         0.15455E+04         0.00000E+00
    0.15455E+04         0.23326E+04         0.00000E+00
    0.00000E+00         0.00000E+00        -0.10310E+03
 
   -0.23015E+04         0.16687E+04         0.00000E+00
    0.16687E+04         0.22735E+04         0.00000E+00
    0.00000E+00         0.00000E+00        -0.84056E+01
 
   -0.19086E+04         0.17899E+04         0.00000E+00
    0.17899E+04         0.21917E+04         0.00000E+00
    0.00000E+00         0.00000E+00         0.84931E+02
 
   -0.14973E+04         0.19082E+04         0.00000E+00
    0.19082E+04         0.20878E+04         0.00000E+00
    0.00000E+00         0.00000E+00         0.17718E+03
 
   -0.10672E+04         0.20228E+04         0.00000E+00
    0.20228E+04         0.19624E+04         0.00000E+00
    0.00000E+00         0.00000E+00         0.26857E+03
 
   -0.61827E+03         0.21328E+04         0.00000E+00
    0.21328E+04         0.18159E+04         0.00000E+00
    0.00000E+00         0.00000E+00         0.35930E+03
 
   -0.15051E+03         0.22369E+04         0.00000E+00
    0.22369E+04         0.16487E+04         0.00000E+00
    0.00000E+00         0.00000E+00         0.44946E+03
 
    0.33594E+03         0.23340E+04         0.00000E+00
    0.23340E+04         0.14611E+04         0.00000E+00
    0.00000E+00         0.00000E+00         0.53911E+03
 
   -0.65133E+04         0.65088E+01         0.00000E+00
    0.65088E+01         0.13045E+03         0.00000E+00
    0.00000E+00         0.00000E+00        -0.19149E+04
 
   -0.63607E+04         0.30790E+02         0.00000E+00
    0.30790E+02         0.39000E+03         0.00000E+00
    0.00000E+00         0.00000E+00        -0.17912E+04
 
   -0.62001E+04         0.68780E+02         0.00000E+00
    0.68780E+02         0.64528E+03         0.00000E+00
    0.00000E+00         0.00000E+00        -0.16664E+04
 
   -0.60301E+04         0.11934E+03         0.00000E+00
    0.11934E+03         0.89238E+03         0.00000E+00
    0.00000E+00         0.00000E+00        -0.15413E+04
 
   -0.58499E+04         0.18129E+03         0.00000E+00
    0.18129E+03         0.11278E+04         0.00000E+00
    0.00000E+00         0.00000E+00        -0.14166E+04
 
   -0.56584E+04         0.25343E+03         0.00000E+00
    0.25343E+03         0.13483E+04         0.00000E+00
    0.00000E+00         0.00000E+00        -0.12930E+04
 
   -0.54549E+04         0.33458E+03         0.00000E+00
    0.33458E+03         0.15512E+04         0.00000E+00
    0.00000E+00         0.00000E+00        -0.11711E+04
 
   -0.52388E+04         0.42357E+03         0.00000E+00
    0.42357E+03         0.17342E+04         0.00000E+00
    0.00000E+00         0.00000E+00        -0.10514E+04
 
   -0.50093E+04         0.51925E+03         0.00000E+00
    0.51925E+03         0.18955E+04         0.00000E+00
    0.00000E+00         0.00000E+00        -0.93415E+03
 
   -0.47660E+04         0.62053E+03         0.00000E+00
    0.62053E+03         0.20336E+04         0.00000E+00
    0.00000E+00         0.00000E+00        -0.81972E+03
 
   -0.45084E+04         0.72638E+03         0.00000E+00
    0.72638E+03         0.21476E+04         0.00000E+00
    0.00000E+00         0.00000E+00        -0.70823E+03
 
   -0.42358E+04         0.83582E+03         0.00000E+00
    0.83582E+03         0.22367E+04         0.00000E+00
    0.00000E+00         0.00000E+00        -0.59972E+03
 
   -0.39479E+04         0.94795E+03         0.00000E+00
    0.94795E+03         0.23008E+04         0.00000E+00
    0.00000E+00         0.00000E+00        -0.49413E+03
 
   -0.36443E+04         0.10619E+04         0.00000E+00
    0.10619E+04         0.23399E+04         0.00000E+00
    0.00000E+00         0.00000E+00        -0.39132E+03
 
   -0.33244E+04         0.11769E+04         0.00000E+00
    0.11769E+04         0.23541E+04         0.00000E+00
    0.00000E+00         0.00000E+00        -0.29110E+03
 
   -0.29879E+04         0.12922E+04         0.00000E+00
    0.12922E+04         0.23439E+04         0.00000E+00
    0.00000E+00         0.00000E+00        -0.19320E+03
 
   -0.26344E+04         0.14071E+04         0.00000E+00
    0.14071E+04         0.23099E+04         0.00000E+00
    0.00000E+00         0.00000E+00        -0.97354E+02
 
   -0.22635E+04         0.15208E+04         0.00000E+00
    0.15208E+04         0.22526E+04         0.00000E+00
    0.00000E+00         0.00000E+00        -0.32650E+01
 
   -0.18749E+04         0.16326E+04         0.00000E+00
    0.16326E+04         0.21728E+04         0.00000E+00
    0.00000E+00         0.00000E+00         0.89355E+02
 
   -0.14684E+04         0.17417E+04         0.00000E+00
    0.17417E+04         0.20709E+04         0.00000E+00
    0.00000E+00         0.00000E+00         0.18077E+03
 
   -0.10437E+04         0.18472E+04         0.00000E+00
    0.18472E+04         0.19477E+04         0.00000E+00
    0.00000E+00         0.00000E+00         0.27120E+03
 
   -0.60096E+03         0.19482E+04         0.00000E+00
    0.19482E+04         0.18037E+04         0.00000E+00
    0.00000E+00         0.00000E+00         0.36082E+03
 
   -0.14019E+03         0.20436E+04         0.00000E+00
    0.20436E+04         0.16393E+04         0.00000E+00
    0.00000E+00         0.00000E+00         0.44973E+03
 
    0.33827E+03         0.21321E+04         0.00000E+00
    0.21321E+04         0.14549E+04         0.00000E+00
    0.00000E+00         0.00000E+00         0.53794E+03
 
   -0.65007E+04         0.54144E+01         0.00000E+00
    0.54144E+01         0.12753E+03         0.00000E+00
    0.00000E+00         0.00000E+00        -0.19119E+04
 
   -0.63404E+04         0.26374E+02         0.00000E+00
    0.26374E+02         0.38157E+03         0.00000E+00
    0.00000E+00         0.00000E+00        -0.17877E+04
 
   -0.61730E+04         0.59723E+02         0.00000E+00
    0.59723E+02         0.63198E+03         0.00000E+00
    0.00000E+00         0.00000E+00        -0.16623E+04
 
   -0.59972E+04         0.10449E+03         0.00000E+00
    0.10449E+03         0.87487E+03         0.00000E+00
    0.00000E+00         0.00000E+00        -0.15367E+04
 
   -0.58119E+04         0.15966E+03         0.00000E+00
    0.15966E+03         0.11067E+04         0.00000E+00
    0.00000E+00         0.00000E+00        -0.14116E+04
 
   -0.56164E+04         0.22419E+03         0.00000E+00
    0.22419E+03         0.13243E+04         0.00000E+00
    0.00000E+00         0.00000E+00        -0.12876E+04
 
   -0.54097E+04         0.29704E+03         0.00000E+00
    0.29704E+03         0.15250E+04         0.00000E+00
    0.00000E+00         0.00000E+00        -0.11654E+04
 
   -0.51913E+04         0.37717E+03         0.00000E+00
    0.37717E+03         0.17064E+04         0.00000E+00
    0.00000E+00         0.00000E+00        -0.10455E+04
 
   -0.49603E+04         0.46357E+03         0.00000E+00
    0.46357E+03         0.18666E+04         0.00000E+00
    0.00000E+00         0.00000E+00        -0.92811E+03
 
   -0.47162E+04         0.55526E+03         0.00000E+00
    0.55526E+03         0.20041E+04         0.00000E+00
    0.00000E+00         0.00000E+00        -0.81363E+03
 
   -0.44585E+04         0.65130E+03         0.00000E+00
    0.65130E+03         0.21180E+04         0.00000E+00
    0.00000E+00         0.00000E+00        -0.70216E+03
 
   -0.41865E+04         0.75082E+03         0.00000E+00
    0.75082E+03         0.22074E+04         0.00000E+00
    0.00000E+00         0.00000E+00        -0.59374E+03
 
   -0.38998E+04         0.85296E+03         0.00000E+00
    0.85296E+03         0.22721E+04         0.00000E+00
    0.00000E+00         0.00000E+00        -0.48831E+03
 
   -0.35979E+04         0.95695E+03         0.00000E+00
    0.95695E+03         0.23121E+04         0.00000E+00
    0.00000E+00         0.00000E+00        -0.38576E+03
 
   -0.32802E+04         0.10620E+04         0.00000E+00
    0.10620E+04         0.23274E+04         0.00000E+00
    0.00000E+00         0.00000E+00        -0.28586E+03
 
   -0.29464E+04         0.11675E+04         0.00000E+00
    0.11675E+04         0.23185E+04         0.00000E+00
    0.00000E+00         0.00000E+00        -0.18838E+03
 
   -0.25960E+04         0.12726E+04         0.00000E+00
    0.12726E+04         0.22859E+04         0.00000E+00
    0.00000E+00         0.00000E+00        -0.93037E+02
 
   -0.22286E+04         0.13766E+04         0.00000E+00
    0.13766E+04         0.22301E+04         0.00000E+00
    0.00000E+00         0.00000E+00         0.45232E+00
 
   -0.18441E+04         0.14789E+04         0.00000E+00
    0.14789E+04         0.21520E+04         0.00000E+00
    0.00000E+00         0.00000E+00         0.92370E+02
 
   -0.14421E+04         0.15786E+04         0.00000E+00
    0.15786E+04         0.20520E+04         0.00000E+00
    0.00000E+00         0.00000E+00         0.18297E+03
 
   -0.10226E+04         0.16749E+04         0.00000E+00
    0.16749E+04         0.19308E+04         0.00000E+00
    0.00000E+00         0.00000E+00         0.27247E+03
 
   -0.58572E+03         0.17669E+04         0.00000E+00
    0.17669E+04         0.17891E+04         0.00000E+00
    0.00000E+00         0.00000E+00         0.36102E+03
 
   -0.13162E+03         0.18536E+04         0.00000E+00
    0.18536E+04         0.16273E+04         0.00000E+00
    0.00000E+00         0.00000E+00         0.44871E+03
 
    0.33923E+03         0.19338E+04         0.00000E+00
    0.19338E+04         0.14460E+04         0.00000E+00
    0.00000E+00         0.00000E+00         0.53556E+03
 
   -0.64901E+04         0.45074E+01         0.00000E+00
    0.45074E+01         0.12486E+03         0.00000E+00
    0.00000E+00         0.00000E+00        -0.19096E+04
 
   -0.63231E+04         0.22551E+02         0.00000E+00
    0.22551E+02         0.37388E+03         0.00000E+00
    0.00000E+00         0.00000E+00        -0.17848E+04
 
   -0.61496E+04         0.51685E+02         0.00000E+00
    0.51685E+02         0.61978E+03         0.00000E+00
    0.00000E+00         0.00000E+00        -0.16589E+04
 
   -0.59685E+04         0.91093E+02         0.00000E+00
    0.91093E+02         0.85873E+03         0.00000E+00
    0.00000E+00         0.00000E+00        -0.15329E+04
 
   -0.57787E+04         0.13991E+03         0.00000E+00
    0.13991E+03         0.10872E+04         0.00000E+00
    0.00000E+00         0.00000E+00        -0.14074E+04
 
   -0.55794E+04         0.19723E+03         0.00000E+00
    0.19723E+03         0.13021E+04         0.00000E+00
    0.00000E+00         0.00000E+00        -0.12832E+04
 
   -0.53697E+04         0.26214E+03         0.00000E+00
    0.26214E+03         0.15005E+04         0.00000E+00
    0.00000E+00         0.00000E+00        -0.11608E+04
 
   -0.51490E+04         0.33374E+03         0.00000E+00
    0.33374E+03         0.16802E+04         0.00000E+00
    0.00000E+00         0.00000E+00        -0.10406E+04
 
   -0.49165E+04         0.41114E+03         0.00000E+00
    0.41114E+03         0.18392E+04         0.00000E+00
    0.00000E+00         0.00000E+00        -0.92320E+03
 
   -0.46717E+04         0.49345E+03         0.00000E+00
    0.49345E+03         0.19760E+04         0.00000E+00
    0.00000E+00         0.00000E+00        -0.80869E+03
 
   -0.44137E+04         0.57985E+03         0.00000E+00
    0.57985E+03         0.20895E+04         0.00000E+00
    0.00000E+00         0.00000E+00        -0.69726E+03
 
   -0.41422E+04         0.66954E+03         0.00000E+00
    0.66954E+03         0.21790E+04         0.00000E+00
    0.00000E+00         0.00000E+00        -0.58894E+03
 
   -0.38564E+04         0.76174E+03         0.00000E+00
    0.76174E+03         0.22441E+04         0.00000E+00
    0.00000E+00         0.00000E+00        -0.48370E+03
 
   -0.35559E+04         0.85573E+03         0.00000E+00
    0.85573E+03         0.22846E+04         0.00000E+00
    0.00000E+00         0.00000E+00        -0.38139E+03
 
   -0.32401E+04         0.95081E+03         0.00000E+00
    0.95081E+03         0.23007E+04         0.00000E+00
    0.00000E+00         0.00000E+00        -0.28182E+03
 
   -0.29087E+04         0.10463E+04         0.00000E+00
    0.10463E+04         0.22928E+04         0.00000E+00
    0.00000E+00         0.00000E+00        -0.18475E+03
 
   -0.25610E+04         0.11415E+04         0.00000E+00
    0.11415E+04         0.22614E+04         0.00000E+00
    0.00000E+00         0.00000E+00        -0.89894E+02
 
   -0.21970E+04         0.12358E+04         0.00000E+00
    0.12358E+04         0.22070E+04         0.00000E+00
    0.00000E+00         0.00000E+00         0.30155E+01
 
   -0.18161E+04         0.13284E+04         0.00000E+00
    0.13284E+04         0.21303E+04         0.00000E+00
    0.00000E+00         0.00000E+00         0.94256E+02
 
   -0.14184E+04         0.14187E+04         0.00000E+00
    0.14187E+04         0.20320E+04         0.00000E+00
    0.00000E+00         0.00000E+00         0.18408E+03
 
   -0.10038E+04         0.15058E+04         0.00000E+00
    0.15058E+04         0.19127E+04         0.00000E+00
    0.00000E+00         0.00000E+00         0.27268E+03
 
   -0.57239E+03         0.15888E+04         0.00000E+00
    0.15888E+04         0.17731E+04         0.00000E+00
    0.00000E+00         0.00000E+00         0.36022E+03
 
   -0.12458E+03         0.16669E+04         0.00000E+00
    0.16669E+04         0.16138E+04         0.00000E+00
    0.00000E+00         0.00000E+00         0.44676E+03
 
    0.33912E+03         0.17389E+04         0.00000E+00
    0.17389E+04         0.14353E+04         0.00000E+00
    0.00000E+00         0.00000E+00         0.53233E+03
 
   -0.64813E+04         0.37498E+01         0.00000E+00
    0.37498E+01         0.12247E+03         0.00000E+00
    0.00000E+00         0.00000E+00        -0.19076E+04
 
   -0.63083E+04         0.19208E+02         0.00000E+00
    0.19208E+02         0.36693E+03         0.00000E+00
    0.00000E+00         0.00000E+00        -0.17824E+04
 
   -0.61294E+04         0.44484E+02         0.00000E+00
    0.44484E+02         0.60873E+03         0.00000E+00
    0.00000E+00         0.00000E+00        -0.16562E+04
 
   -0.59435E+04         0.78899E+02         0.00000E+00
    0.78899E+02         0.84405E+03         0.00000E+00
    0.00000E+00         0.00000E+00        -0.15298E+04
 
   -0.57497E+04         0.12172E+03         0.00000E+00
    0.12172E+03         0.10694E+04         0.00000E+00
    0.00000E+00         0.00000E+00        -0.14041E+04
 
   -0.55469E+04         0.17217E+03         0.00000E+00
    0.17217E+03         0.12816E+04         0.00000E+00
    0.00000E+00         0.00000E+00        -0.12796E+04
 
   -0.53346E+04         0.22947E+03         0.00000E+00
    0.22947E+03         0.14779E+04         0.00000E+00
    0.00000E+00         0.00000E+00        -0.11570E+04
 
   -0.51118E+04         0.29283E+03         0.00000E+00
    0.29283E+03         0.16559E+04         0.00000E+00
    0.00000E+00         0.00000E+00        -0.10368E+04
 
   -0.48778E+04         0.36146E+03         0.00000E+00
    0.36146E+03         0.18137E+04         0.00000E+00
    0.00000E+00         0.00000E+00        -0.91924E+03
 
   -0.46321E+04         0.43460E+03         0.00000E+00
    0.43460E+03         0.19497E+04         0.00000E+00
    0.00000E+00         0.00000E+00        -0.80472E+03
 
   -0.43739E+04         0.51150E+03         0.00000E+00
    0.51150E+03         0.20627E+04         0.00000E+00
    0.00000E+00         0.00000E+00        -0.69334E+03
 
   -0.41025E+04         0.59145E+03         0.00000E+00
    0.59145E+03         0.21520E+04         0.00000E+00
    0.00000E+00         0.00000E+00        -0.58515E+03
 
   -0.38175E+04         0.67376E+03         0.00000E+00
    0.67376E+03         0.22172E+04         0.00000E+00
    0.00000E+00         0.00000E+00        -0.48008E+03
 
   -0.35182E+04         0.75776E+03         0.00000E+00
    0.75776E+03         0.22582E+04         0.00000E+00
    0.00000E+00         0.00000E+00        -0.37802E+03
 
   -0.32041E+04         0.84282E+03         0.00000E+00
    0.84282E+03         0.22749E+04         0.00000E+00
    0.00000E+00         0.00000E+00        -0.27876E+03
 
   -0.28747E+04         0.92829E+03         0.00000E+00
    0.92829E+03         0.22678E+04         0.00000E+00
    0.00000E+00         0.00000E+00        -0.18208E+03
 
   -0.25296E+04         0.10136E+04         0.00000E+00
    0.10136E+04         0.22373E+04         0.00000E+00
    0.00000E+00         0.00000E+00        -0.87694E+02
 
   -0.21685E+04         0.10980E+04         0.00000E+00
    0.10980E+04         0.21840E+04         0.00000E+00
    0.00000E+00         0.00000E+00         0.46653E+01
 
   -0.17911E+04         0.11809E+04         0.00000E+00
    0.11809E+04         0.21086E+04         0.00000E+00
    0.00000E+00         0.00000E+00         0.95267E+02
 
   -0.13973E+04         0.12617E+04         0.00000E+00
    0.12617E+04         0.20118E+04         0.00000E+00
    0.00000E+00         0.00000E+00         0.18435E+03
 
   -0.98712E+03         0.13395E+04         0.00000E+00
    0.13395E+04         0.18942E+04         0.00000E+00
    0.00000E+00         0.00000E+00         0.27212E+03
 
   -0.56084E+03         0.14136E+04         0.00000E+00
    0.14136E+04         0.17565E+04         0.00000E+00
    0.00000E+00         0.00000E+00         0.35871E+03
 
   -0.11884E+03         0.14831E+04         0.00000E+00
    0.14831E+04         0.15995E+04         0.00000E+00
    0.00000E+00         0.00000E+00         0.44419E+03
 
    0.33824E+03         0.15471E+04         0.00000E+00
    0.15471E+04         0.14236E+04         0.00000E+00
    0.00000E+00         0.00000E+00         0.52856E+03
 
   -0.64740E+04         0.31091E+01         0.00000E+00
    0.31091E+01         0.12034E+03         0.00000E+00
    0.00000E+00         0.00000E+00        -0.19061E+04
 
   -0.62958E+04         0.16250E+02         0.00000E+00
    0.16250E+02         0.36074E+03         0.00000E+00
    0.00000E+00         0.00000E+00        -0.17805E+04
 
   -0.61122E+04         0.37965E+02         0.00000E+00
    0.37965E+02         0.59884E+03         0.00000E+00
    0.00000E+00         0.00000E+00        -0.16540E+04
 
   -0.59221E+04         0.67694E+02         0.00000E+00
    0.67694E+02         0.83087E+03         0.00000E+00
    0.00000E+00         0.00000E+00        -0.15274E+04
 
   -0.57246E+04         0.10483E+03         0.00000E+00
    0.10483E+03         0.10533E+04         0.00000E+00
    0.00000E+00         0.00000E+00        -0.14014E+04
 
   -0.55188E+04         0.14871E+03         0.00000E+00
    0.14871E+03         0.12631E+04         0.00000E+00
    0.00000E+00         0.00000E+00        -0.12767E+04
 
   -0.53039E+04         0.19867E+03         0.00000E+00
    0.19867E+03         0.14574E+04         0.00000E+00
    0.00000E+00         0.00000E+00        -0.11540E+04
 
   -0.50792E+04         0.25402E+03         0.00000E+00
    0.25402E+03         0.16338E+04         0.00000E+00
    0.00000E+00         0.00000E+00        -0.10336E+04
 
   -0.48439E+04         0.31410E+03         0.00000E+00
    0.31410E+03         0.17903E+04         0.00000E+00
    0.00000E+00         0.00000E+00        -0.91608E+03
 
   -0.45973E+04         0.37824E+03         0.00000E+00
    0.37824E+03         0.19254E+04         0.00000E+00
    0.00000E+00         0.00000E+00        -0.80157E+03
 
   -0.43387E+04         0.44578E+03         0.00000E+00
    0.44578E+03         0.20379E+04         0.00000E+00
    0.00000E+00         0.00000E+00        -0.69025E+03
 
   -0.40676E+04         0.51608E+03         0.00000E+00
    0.51608E+03         0.21270E+04         0.00000E+00
    0.00000E+00         0.00000E+00        -0.58217E+03
 
   -0.37831E+04         0.58855E+03         0.00000E+00
    0.58855E+03         0.21922E+04         0.00000E+00
    0.00000E+00         0.00000E+00        -0.47729E+03
 
   -0.34848E+04         0.66258E+03         0.00000E+00
    0.66258E+03         0.22333E+04         0.00000E+00
    0.00000E+00         0.00000E+00        -0.37546E+03
 
   -0.31722E+04         0.73759E+03         0.00000E+00
    0.73759E+03         0.22505E+04         0.00000E+00
    0.00000E+00         0.00000E+00        -0.27650E+03
 
   -0.28446E+04         0.81301E+03         0.00000E+00
    0.81301E+03         0.22440E+04         0.00000E+00
    0.00000E+00         0.00000E+00        -0.18018E+03
 
   -0.25017E+04         0.88828E+03         0.00000E+00
    0.88828E+03         0.22143E+04         0.00000E+00
    0.00000E+00         0.00000E+00        -0.86233E+02
 
   -0.21432E+04         0.96280E+03         0.00000E+00
    0.96280E+03         0.21619E+04         0.00000E+00
    0.00000E+00         0.00000E+00         0.56153E+01
 
   -0.17689E+04         0.10360E+04         0.00000E+00
    0.10360E+04         0.20876E+04         0.00000E+00
    0.00000E+00         0.00000E+00         0.95625E+02
 
   -0.13786E+04         0.11072E+04         0.00000E+00
    0.11072E+04         0.19921E+04         0.00000E+00
    0.00000E+00         0.00000E+00         0.18403E+03
 
   -0.97255E+03         0.11758E+04         0.00000E+00
    0.11758E+04         0.18760E+04         0.00000E+00
    0.00000E+00         0.00000E+00         0.27103E+03
 
   -0.55093E+03         0.12410E+04         0.00000E+00
    0.12410E+04         0.17401E+04         0.00000E+00
    0.00000E+00         0.00000E+00         0.35674E+03
 
   -0.11423E+03         0.13020E+04         0.00000E+00
    0.13020E+04         0.15851E+04         0.00000E+00
    0.00000E+00         0.00000E+00         0.44125E+03
 
    0.33684E+03         0.13581E+04         0.00000E+00
    0.13581E+04         0.14116E+04         0.00000E+00
    0.00000E+00         0.00000E+00         0.52453E+03
 
   -0.64679E+04         0.25585E+01         0.00000E+00
    0.25585E+01         0.11848E+03         0.00000E+00
    0.00000E+00         0.00000E+00        -0.19048E+04
 
   -0.62853E+04         0.13596E+02         0.00000E+00
    0.13596E+02         0.35532E+03         0.00000E+00
    0.00000E+00         0.00000E+00        -0.17790E+04
 
   -0.60976E+04         0.31991E+02         0.00000E+00
    0.31991E+02         0.59015E+03         0.00000E+00
    0.00000E+00         0.00000E+00        -0.16522E+04
 
   -0.59039E+04         0.57292E+02         0.00000E+00
    0.57292E+02         0.81924E+03         0.00000E+00
    0.00000E+00         0.00000E+00        -0.15254E+04
 
   -0.57032E+04         0.88994E+02         0.00000E+00
    0.88994E+02         0.10391E+04         0.00000E+00
    0.00000E+00         0.00000E+00        -0.13992E+04
 
   -0.54947E+04         0.12655E+03         0.00000E+00
    0.12655E+03         0.12467E+04         0.00000E+00
    0.00000E+00         0.00000E+00        -0.12744E+04
 
   -0.52776E+04         0.16941E+03         0.00000E+00
    0.16941E+03         0.14391E+04         0.00000E+00
    0.00000E+00         0.00000E+00        -0.11516E+04
 
   -0.50511E+04         0.21698E+03         0.00000E+00
    0.21698E+03         0.16139E+04         0.00000E+00
    0.00000E+00         0.00000E+00        -0.10312E+04
 
   -0.48146E+04         0.26869E+03         0.00000E+00
    0.26869E+03         0.17693E+04         0.00000E+00
    0.00000E+00         0.00000E+00        -0.91358E+03
 
   -0.45672E+04         0.32397E+03         0.00000E+00
    0.32397E+03         0.19035E+04         0.00000E+00
    0.00000E+00         0.00000E+00        -0.79909E+03
 
   -0.43082E+04         0.38226E+03         0.00000E+00
    0.38226E+03         0.20154E+04         0.00000E+00
    0.00000E+00         0.00000E+00        -0.68784E+03
 
   -0.40371E+04         0.44300E+03         0.00000E+00
    0.44300E+03         0.21042E+04         0.00000E+00
    0.00000E+00         0.00000E+00        -0.57988E+03
 
   -0.37531E+04         0.50568E+03         0.00000E+00
    0.50568E+03         0.21693E+04         0.00000E+00
    0.00000E+00         0.00000E+00        -0.47516E+03
 
   -0.34557E+04         0.56975E+03         0.00000E+00
    0.56975E+03         0.22105E+04         0.00000E+00
    0.00000E+00         0.00000E+00        -0.37355E+03
 
   -0.31442E+04         0.63472E+03         0.00000E+00
    0.63472E+03         0.22280E+04         0.00000E+00
    0.00000E+00         0.00000E+00        -0.27487E+03
 
   -0.28182E+04         0.70008E+03         0.00000E+00
    0.70008E+03         0.22220E+04         0.00000E+00
    0.00000E+00         0.00000E+00        -0.17888E+03
 
   -0.24773E+04         0.76531E+03         0.00000E+00
    0.76531E+03         0.21929E+04         0.00000E+00
    0.00000E+00         0.00000E+00        -0.85331E+02
 
   -0.21211E+04         0.82990E+03         0.00000E+00
    0.82990E+03         0.21413E+04         0.00000E+00
    0.00000E+00         0.00000E+00         0.60520E+01
 
   -0.17495E+04         0.89332E+03         0.00000E+00
    0.89332E+03         0.20679E+04         0.00000E+00
    0.00000E+00         0.00000E+00         0.95525E+02
 
   -0.13624E+04         0.95500E+03         0.00000E+00
    0.95500E+03         0.19735E+04         0.00000E+00
    0.00000E+00         0.00000E+00         0.18332E+03
 
   -0.96000E+03         0.10143E+04         0.00000E+00
    0.10143E+04         0.18587E+04         0.00000E+00
    0.00000E+00         0.00000E+00         0.26962E+03
 
   -0.54253E+03         0.10707E+04         0.00000E+00
    0.10707E+04         0.17244E+04         0.00000E+00
    0.00000E+00         0.00000E+00         0.35456E+03
 
   -0.11056E+03         0.11234E+04         0.00000E+00
    0.11234E+04         0.15712E+04         0.00000E+00
    0.00000E+00         0.00000E+00         0.43819E+03
 
    0.33515E+03         0.11717E+04         0.00000E+00
    0.11717E+04         0.13999E+04         0.00000E+00
    0.00000E+00         0.00000E+00         0.52050E+03
 
   -0.64630E+04         0.20758E+01         0.00000E+00
    0.20758E+01         0.11689E+03         0.00000E+00
    0.00000E+00         0.00000E+00        -0.19038E+04
 
   -0.62766E+04         0.11177E+02         0.00000E+00
    0.11177E+02         0.35067E+03         0.00000E+00
    0.00000E+00         0.00000E+00        -0.17778E+04
 
   -0.60855E+04         0.26449E+02         0.00000E+00
    0.26449E+02         0.58267E+03         0.00000E+00
    0.00000E+00         0.00000E+00        -0.16509E+04
 
   -0.58887E+04         0.47532E+02         0.00000E+00
    0.47532E+02         0.80921E+03         0.00000E+00
    0.00000E+00         0.00000E+00        -0.15238E+04
 
   -0.56852E+04         0.74018E+02         0.00000E+00
    0.74018E+02         0.10268E+04         0.00000E+00
    0.00000E+00         0.00000E+00        -0.13975E+04
 
   -0.54744E+04         0.10547E+03         0.00000E+00
    0.10547E+03         0.12324E+04         0.00000E+00
    0.00000E+00         0.00000E+00        -0.12726E+04
 
   -0.52554E+04         0.14141E+03         0.00000E+00
    0.14141E+03         0.14232E+04         0.00000E+00
    0.00000E+00         0.00000E+00        -0.11497E+04
 
   -0.50274E+04         0.18137E+03         0.00000E+00
    0.18137E+03         0.15967E+04         0.00000E+00
    0.00000E+00         0.00000E+00        -0.10292E+04
 
   -0.47897E+04         0.22487E+03         0.00000E+00
    0.22487E+03         0.17509E+04         0.00000E+00
    0.00000E+00         0.00000E+00        -0.91163E+03
 
   -0.45416E+04         0.27142E+03         0.00000E+00
    0.27142E+03         0.18843E+04         0.00000E+00
    0.00000E+00         0.00000E+00        -0.79717E+03
 
   -0.42823E+04         0.32056E+03         0.00000E+00
    0.32056E+03         0.19957E+04         0.00000E+00
    0.00000E+00         0.00000E+00        -0.68599E+03
 
   -0.40112E+04         0.37183E+03         0.00000E+00
    0.37183E+03         0.20841E+04         0.00000E+00
    0.00000E+00         0.00000E+00        -0.57814E+03
 
   -0.37275E+04         0.42476E+03         0.00000E+00
    0.42476E+03         0.21490E+04         0.00000E+00
    0.00000E+00         0.00000E+00        -0.47357E+03
 
   -0.34308E+04         0.47891E+03         0.00000E+00
    0.47891E+03         0.21903E+04         0.00000E+00
    0.00000E+00         0.00000E+00        -0.37216E+03
 
   -0.31203E+04         0.53385E+03         0.00000E+00
    0.53385E+03         0.22079E+04         0.00000E+00
    0.00000E+00         0.00000E+00        -0.27372E+03
 
   -0.27957E+04         0.58913E+03         0.00000E+00
    0.58913E+03         0.22022E+04         0.00000E+00
    0.00000E+00         0.00000E+00        -0.17803E+03
 
   -0.24564E+04         0.64432E+03         0.00000E+00
    0.64432E+03         0.21736E+04         0.00000E+00
    0.00000E+00         0.00000E+00        -0.84836E+02
 
   -0.21022E+04         0.69897E+03         0.00000E+00
    0.69897E+03         0.21227E+04         0.00000E+00
    0.00000E+00         0.00000E+00         0.61362E+01
 
   -0.17330E+04         0.75261E+03         0.00000E+00
    0.75261E+03         0.20501E+04         0.00000E+00
    0.00000E+00         0.00000E+00         0.95136E+02
 
   -0.13487E+04         0.80476E+03         0.00000E+00
    0.80476E+03         0.19566E+04         0.00000E+00
    0.00000E+00         0.00000E+00         0.18239E+03
 
   -0.94939E+03         0.85490E+03         0.00000E+00
    0.85490E+03         0.18430E+04         0.00000E+00
    0.00000E+00         0.00000E+00         0.26808E+03
 
   -0.53554E+03         0.90247E+03         0.00000E+00
    0.90247E+03         0.17100E+04         0.00000E+00
    0.00000E+00         0.00000E+00         0.35233E+03
 
   -0.10768E+03         0.94689E+03         0.00000E+00
    0.94689E+03         0.15584E+04         0.00000E+00
    0.00000E+00         0.00000E+00         0.43520E+03
 
    0.33335E+03         0.98751E+03         0.00000E+00
    0.98751E+03         0.13889E+04         0.00000E+00
    0.00000E+00         0.00000E+00         0.51667E+03
 
   -0.64590E+04         0.16432E+01         0.00000E+00
    0.16432E+01         0.11557E+03         0.00000E+00
    0.00000E+00         0.00000E+00        -0.19030E+04
 
   -0.62696E+04         0.89370E+01         0.00000E+00
    0.89370E+01         0.34679E+03         0.00000E+00
    0.00000E+00         0.00000E+00        -0.17768E+04
 
   -0.60756E+04         0.21240E+02         0.00000E+00
    0.21240E+02         0.57642E+03         0.00000E+00
    0.00000E+00         0.00000E+00        -0.16498E+04
 
   -0.58762E+04         0.38274E+02         0.00000E+00
    0.38274E+02         0.80081E+03         0.00000E+00
    0.00000E+00         0.00000E+00        -0.15226E+04
 
   -0.56705E+04         0.59720E+02         0.00000E+00
    0.59720E+02         0.10165E+04         0.00000E+00
    0.00000E+00         0.00000E+00        -0.13962E+04
 
   -0.54577E+04         0.85225E+02         0.00000E+00
    0.85225E+02         0.12204E+04         0.00000E+00
    0.00000E+00         0.00000E+00        -0.12712E+04
 
   -0.52371E+04         0.11442E+03         0.00000E+00
    0.11442E+03         0.14097E+04         0.00000E+00
    0.00000E+00         0.00000E+00        -0.11482E+04
 
   -0.50078E+04         0.14692E+03         0.00000E+00
    0.14692E+03         0.15820E+04         0.00000E+00
    0.00000E+00         0.00000E+00        -0.10277E+04
 
   -0.47692E+04         0.18233E+03         0.00000E+00
    0.18233E+03         0.17353E+04         0.00000E+00
    0.00000E+00         0.00000E+00        -0.91015E+03
 
   -0.45204E+04         0.22027E+03         0.00000E+00
    0.22027E+03         0.18680E+04         0.00000E+00
    0.00000E+00         0.00000E+00        -0.79572E+03
 
   -0.42608E+04         0.26036E+03         0.00000E+00
    0.26036E+03         0.19788E+04         0.00000E+00
    0.00000E+00         0.00000E+00        -0.68460E+03
 
   -0.39896E+04         0.30220E+03         0.00000E+00
    0.30220E+03         0.20668E+04         0.00000E+00
    0.00000E+00         0.00000E+00        -0.57684E+03
 
   -0.37063E+04         0.34544E+03         0.00000E+00
    0.34544E+03         0.21316E+04         0.00000E+00
    0.00000E+00         0.00000E+00        -0.47240E+03
 
   -0.34101E+04         0.38970E+03         0.00000E+00
    0.38970E+03         0.21729E+04         0.00000E+00
    0.00000E+00         0.00000E+00        -0.37116E+03
 
   -0.31004E+04         0.43462E+03         0.00000E+00
    0.43462E+03         0.21906E+04         0.00000E+00
    0.00000E+00         0.00000E+00        -0.27294E+03
 
   -0.27769E+04         0.47983E+03         0.00000E+00
    0.47983E+03         0.21852E+04         0.00000E+00
    0.00000E+00         0.00000E+00        -0.17751E+03
 
   -0.24390E+04         0.52498E+03         0.00000E+00
    0.52498E+03         0.21570E+04         0.00000E+00
    0.00000E+00         0.00000E+00        -0.84617E+02
 
   -0.20865E+04         0.56967E+03         0.00000E+00
    0.56967E+03         0.21065E+04         0.00000E+00
    0.00000E+00         0.00000E+00         0.60037E+01
 
   -0.17193E+04         0.61354E+03         0.00000E+00
    0.61354E+03         0.20346E+04         0.00000E+00
    0.00000E+00         0.00000E+00         0.94599E+02
 
   -0.13373E+04         0.65617E+03         0.00000E+00
    0.65617E+03         0.19419E+04         0.00000E+00
    0.00000E+00         0.00000E+00         0.18139E+03
 
   -0.94065E+03         0.69714E+03         0.00000E+00
    0.69714E+03         0.18292E+04         0.00000E+00
    0.00000E+00         0.00000E+00         0.26656E+03
 
   -0.52985E+03         0.73598E+03         0.00000E+00
    0.73598E+03         0.16973E+04         0.00000E+00
    0.00000E+00         0.00000E+00         0.35023E+03
 
   -0.10548E+03         0.77221E+03         0.00000E+00
    0.77221E+03         0.15470E+04         0.00000E+00
    0.00000E+00         0.00000E+00         0.43246E+03
 
    0.33161E+03         0.80529E+03         0.00000E+00
    0.80529E+03         0.13791E+04         0.00000E+00
    0.00000E+00         0.00000E+00         0.51321E+03
 
   -0.64560E+04         0.12465E+01         0.00000E+00
    0.12465E+01         0.11451E+03         0.00000E+00
    0.00000E+00         0.00000E+00        -0.19024E+04
 
   -0.62641E+04         0.68295E+01         0.00000E+00
    0.68295E+01         0.34368E+03         0.00000E+00
    0.00000E+00         0.00000E+00        -0.17761E+04
 
   -0.60679E+04         0.16283E+02         0.00000E+00
    0.16283E+02         0.57141E+03         0.00000E+00
    0.00000E+00         0.00000E+00        -0.16489E+04
 
   -0.58664E+04         0.29401E+02         0.00000E+00
    0.29401E+02         0.79406E+03         0.00000E+00
    0.00000E+00         0.00000E+00        -0.15217E+04
 
   -0.56589E+04         0.45944E+02         0.00000E+00
    0.45944E+02         0.10082E+04         0.00000E+00
    0.00000E+00         0.00000E+00        -0.13952E+04
 
   -0.54446E+04         0.65644E+02         0.00000E+00
    0.65644E+02         0.12107E+04         0.00000E+00
    0.00000E+00         0.00000E+00        -0.12701E+04
 
   -0.52226E+04         0.88219E+02         0.00000E+00
    0.88219E+02         0.13989E+04         0.00000E+00
    0.00000E+00         0.00000E+00        -0.11471E+04
 
   -0.49923E+04         0.11337E+03         0.00000E+00
    0.11337E+03         0.15702E+04         0.00000E+00
    0.00000E+00         0.00000E+00        -0.10266E+04
 
   -0.47528E+04         0.14081E+03         0.00000E+00
    0.14081E+03         0.17227E+04         0.00000E+00
    0.00000E+00         0.00000E+00        -0.90904E+03
 
   -0.45035E+04         0.17023E+03         0.00000E+00
    0.17023E+03         0.18547E+04         0.00000E+00
    0.00000E+00         0.00000E+00        -0.79464E+03
 
   -0.42437E+04         0.20133E+03         0.00000E+00
    0.20133E+03         0.19651E+04         0.00000E+00
    0.00000E+00         0.00000E+00        -0.68358E+03
 
   -0.39725E+04         0.23381E+03         0.00000E+00
    0.23381E+03         0.20528E+04         0.00000E+00
    0.00000E+00         0.00000E+00        -0.57590E+03
 
   -0.36893E+04         0.26740E+03         0.00000E+00
    0.26740E+03         0.21174E+04         0.00000E+00
    0.00000E+00         0.00000E+00        -0.47158E+03
 
   -0.33935E+04         0.30179E+03         0.00000E+00
    0.30179E+03         0.21586E+04         0.00000E+00
    0.00000E+00         0.00000E+00        -0.37048E+03
 
   -0.30845E+04         0.33670E+03         0.00000E+00
    0.33670E+03         0.21764E+04         0.00000E+00
    0.00000E+00         0.00000E+00        -0.27244E+03
 
   -0.27619E+04         0.37186E+03         0.00000E+00
    0.37186E+03         0.21712E+04         0.00000E+00
    0.00000E+00         0.00000E+00        -0.17722E+03
 
   -0.24251E+04         0.40696E+03         0.00000E+00
    0.40696E+03         0.21432E+04         0.00000E+00
    0.00000E+00         0.00000E+00        -0.84567E+02
 
   -0.20740E+04         0.44171E+03         0.00000E+00
    0.44171E+03         0.20932E+04         0.00000E+00
    0.00000E+00         0.00000E+00         0.57660E+01
 
   -0.17083E+04         0.47582E+03         0.00000E+00
    0.47582E+03         0.20218E+04         0.00000E+00
    0.00000E+00         0.00000E+00         0.94032E+02
 
   -0.13282E+04         0.50895E+03         0.00000E+00
    0.50895E+03         0.19297E+04         0.00000E+00
    0.00000E+00         0.00000E+00         0.18045E+03
 
   -0.93373E+03         0.54078E+03         0.00000E+00
    0.54078E+03         0.18177E+04         0.00000E+00
    0.00000E+00         0.00000E+00         0.26520E+03
 
   -0.52540E+03         0.57093E+03         0.00000E+00
    0.57093E+03         0.16867E+04         0.00000E+00
    0.00000E+00         0.00000E+00         0.34840E+03
 
   -0.10384E+03         0.59903E+03         0.00000E+00
    0.59903E+03         0.15375E+04         0.00000E+00
    0.00000E+00         0.00000E+00         0.43010E+03
 
    0.33006E+03         0.62466E+03         0.00000E+00
    0.62466E+03         0.13708E+04         0.00000E+00
    0.00000E+00         0.00000E+00         0.51027E+03
 
   -0.64537E+04         0.87467E+00         0.00000E+00
    0.87467E+00         0.11372E+03         0.00000E+00
    0.00000E+00         0.00000E+00        -0.19020E+04
 
   -0.62601E+04         0.48164E+01         0.00000E+00
    0.48164E+01         0.34136E+03         0.00000E+00
    0.00000E+00         0.00000E+00        -0.17756E+04
 
   -0.60622E+04         0.11509E+02         0.00000E+00
    0.11509E+02         0.56765E+03         0.00000E+00
    0.00000E+00         0.00000E+00        -0.16484E+04
 
   -0.58592E+04         0.20810E+02         0.00000E+00
    0.20810E+02         0.78898E+03         0.00000E+00
    0.00000E+00         0.00000E+00        -0.15211E+04
 
   -0.56503E+04         0.32554E+02         0.00000E+00
    0.32554E+02         0.10019E+04         0.00000E+00
    0.00000E+00         0.00000E+00        -0.13945E+04
 
   -0.54348E+04         0.46553E+02         0.00000E+00
    0.46553E+02         0.12034E+04         0.00000E+00
    0.00000E+00         0.00000E+00        -0.12694E+04
 
   -0.52118E+04         0.62608E+02         0.00000E+00
    0.62608E+02         0.13907E+04         0.00000E+00
    0.00000E+00         0.00000E+00        -0.11463E+04
 
   -0.49807E+04         0.80511E+02         0.00000E+00
    0.80511E+02         0.15612E+04         0.00000E+00
    0.00000E+00         0.00000E+00        -0.10258E+04
 
   -0.47407E+04         0.10005E+03         0.00000E+00
    0.10005E+03         0.17131E+04         0.00000E+00
    0.00000E+00         0.00000E+00        -0.90826E+03
 
   -0.44910E+04         0.12101E+03         0.00000E+00
    0.12101E+03         0.18447E+04         0.00000E+00
    0.00000E+00         0.00000E+00        -0.79389E+03
 
   -0.42308E+04         0.14319E+03         0.00000E+00
    0.14319E+03         0.19546E+04         0.00000E+00
    0.00000E+00         0.00000E+00        -0.68287E+03
 
   -0.39596E+04         0.16636E+03         0.00000E+00
    0.16636E+03         0.20421E+04         0.00000E+00
    0.00000E+00         0.00000E+00        -0.57526E+03
 
   -0.36766E+04         0.19032E+03         0.00000E+00
    0.19032E+03         0.21065E+04         0.00000E+00
    0.00000E+00         0.00000E+00        -0.47102E+03
 
   -0.33811E+04         0.21487E+03         0.00000E+00
    0.21487E+03         0.21477E+04         0.00000E+00
    0.00000E+00         0.00000E+00        -0.37003E+03
 
   -0.30726E+04         0.23979E+03         0.00000E+00
    0.23979E+03         0.21656E+04         0.00000E+00
    0.00000E+00         0.00000E+00        -0.27212E+03
 
   -0.27506E+04         0.26489E+03         0.00000E+00
    0.26489E+03         0.21604E+04         0.00000E+00
    0.00000E+00         0.00000E+00        -0.17706E+03
 
   -0.24147E+04         0.28996E+03         0.00000E+00
    0.28996E+03         0.21327E+04         0.00000E+00
    0.00000E+00         0.00000E+00        -0.84603E+02
 
   -0.20646E+04         0.31478E+03         0.00000E+00
    0.31478E+03         0.20830E+04         0.00000E+00
    0.00000E+00         0.00000E+00         0.55114E+01
 
   -0.17001E+04         0.33913E+03         0.00000E+00
    0.33913E+03         0.20119E+04         0.00000E+00
    0.00000E+00         0.00000E+00         0.93527E+02
 
   -0.13214E+04         0.36278E+03         0.00000E+00
    0.36278E+03         0.19203E+04         0.00000E+00
    0.00000E+00         0.00000E+00         0.17966E+03
 
   -0.92858E+03         0.38549E+03         0.00000E+00
    0.38549E+03         0.18089E+04         0.00000E+00
    0.00000E+00         0.00000E+00         0.26409E+03
 
   -0.52212E+03         0.40700E+03         0.00000E+00
    0.40700E+03         0.16786E+04         0.00000E+00
    0.00000E+00         0.00000E+00         0.34693E+03
 
   -0.10269E+03         0.42703E+03         0.00000E+00
    0.42703E+03         0.15301E+04         0.00000E+00
    0.00000E+00         0.00000E+00         0.42824E+03
 
    0.32881E+03         0.44528E+03         0.00000E+00
    0.44528E+03         0.13644E+04         0.00000E+00
    0.00000E+00         0.00000E+00         0.50797E+03
 
   -0.64522E+04         0.51886E+00         0.00000E+00
    0.51886E+00         0.11319E+03         0.00000E+00
    0.00000E+00         0.00000E+00        -0.19017E+04
 
   -0.62574E+04         0.28660E+01         0.00000E+00
    0.28660E+01         0.33980E+03         0.00000E+00
    0.00000E+00         0.00000E+00        -0.17753E+04
 
   -0.60584E+04         0.68579E+01         0.00000E+00
    0.68579E+01         0.56514E+03         0.00000E+00
    0.00000E+00         0.00000E+00        -0.16480E+04
 
   -0.58544E+04         0.12412E+02         0.00000E+00
    0.12412E+02         0.78558E+03         0.00000E+00
    0.00000E+00         0.00000E+00        -0.15206E+04
 
   -0.56446E+04         0.19429E+02         0.00000E+00
    0.19429E+02         0.99775E+03         0.00000E+00
    0.00000E+00         0.00000E+00        -0.13941E+04
 
   -0.54283E+04         0.27800E+02         0.00000E+00
    0.27800E+02         0.11985E+04         0.00000E+00
    0.00000E+00         0.00000E+00        -0.12689E+04
 
   -0.52047E+04         0.37405E+02         0.00000E+00
    0.37405E+02         0.13852E+04         0.00000E+00
    0.00000E+00         0.00000E+00        -0.11459E+04
 
   -0.49730E+04         0.48122E+02         0.00000E+00
    0.48122E+02         0.15552E+04         0.00000E+00
    0.00000E+00         0.00000E+00        -0.10253E+04
 
   -0.47326E+04         0.59822E+02         0.00000E+00
    0.59822E+02         0.17067E+04         0.00000E+00
    0.00000E+00         0.00000E+00        -0.90777E+03
 
   -0.44826E+04         0.72379E+02         0.00000E+00
    0.72379E+02         0.18379E+04         0.00000E+00
    0.00000E+00         0.00000E+00        -0.79341E+03
 
   -0.42223E+04         0.85666E+02         0.00000E+00
    0.85666E+02         0.19476E+04         0.00000E+00
    0.00000E+00         0.00000E+00        -0.68242E+03
 
   -0.39511E+04         0.99556E+02         0.00000E+00
    0.99556E+02         0.20349E+04         0.00000E+00
    0.00000E+00         0.00000E+00        -0.57485E+03
 
   -0.36681E+04         0.11392E+03         0.00000E+00
    0.11392E+03         0.20992E+04         0.00000E+00
    0.00000E+00         0.00000E+00        -0.47067E+03
 
   -0.33729E+04         0.12864E+03         0.00000E+00
    0.12864E+03         0.21403E+04         0.00000E+00
    0.00000E+00         0.00000E+00        -0.36976E+03
 
   -0.30647E+04         0.14360E+03         0.00000E+00
    0.14360E+03         0.21582E+04         0.00000E+00
    0.00000E+00         0.00000E+00        -0.27194E+03
 
   -0.27431E+04         0.15865E+03         0.00000E+00
    0.15865E+03         0.21532E+04         0.00000E+00
    0.00000E+00         0.00000E+00        -0.17699E+03
 
   -0.24078E+04         0.17369E+03         0.00000E+00
    0.17369E+03         0.21256E+04         0.00000E+00
    0.00000E+00         0.00000E+00        -0.84661E+02
 
   -0.20583E+04         0.18858E+03         0.00000E+00
    0.18858E+03         0.20760E+04         0.00000E+00
    0.00000E+00         0.00000E+00         0.53055E+01
 
   -0.16947E+04         0.20318E+03         0.00000E+00
    0.20318E+03         0.20052E+04         0.00000E+00
    0.00000E+00         0.00000E+00         0.93152E+02
 
   -0.13169E+04         0.21737E+03         0.00000E+00
    0.21737E+03         0.19139E+04         0.00000E+00
    0.00000E+00         0.00000E+00         0.17910E+03
 
   -0.92516E+03         0.23098E+03         0.00000E+00
    0.23098E+03         0.18029E+04         0.00000E+00
    0.00000E+00         0.00000E+00         0.26331E+03
 
   -0.51996E+03         0.24388E+03         0.00000E+00
    0.24388E+03         0.16730E+04         0.00000E+00
    0.00000E+00         0.00000E+00         0.34591E+03
 
   -0.10195E+03         0.25588E+03         0.00000E+00
    0.25588E+03         0.15251E+04         0.00000E+00
    0.00000E+00         0.00000E+00         0.42695E+03
 
    0.32793E+03         0.26681E+03         0.00000E+00
    0.26681E+03         0.13600E+04         0.00000E+00
    0.00000E+00         0.00000E+00         0.50639E+03
 
   -0.64515E+04         0.17200E+00         0.00000E+00
    0.17200E+00         0.11293E+03         0.00000E+00
    0.00000E+00         0.00000E+00        -0.19016E+04
 
   -0.62561E+04         0.95146E+00         0.00000E+00
    0.95146E+00         0.33903E+03         0.00000E+00
    0.00000E+00         0.00000E+00        -0.17751E+04
 
   -0.60565E+04         0.22782E+01         0.00000E+00
    0.22782E+01         0.56388E+03         0.00000E+00
    0.00000E+00         0.00000E+00        -0.16478E+04
 
   -0.58520E+04         0.41251E+01         0.00000E+00
    0.41251E+01         0.78389E+03         0.00000E+00
    0.00000E+00         0.00000E+00        -0.15204E+04
 
   -0.56418E+04         0.64595E+01         0.00000E+00
    0.64595E+01         0.99566E+03         0.00000E+00
    0.00000E+00         0.00000E+00        -0.13938E+04
 
   -0.54251E+04         0.92450E+01         0.00000E+00
    0.92450E+01         0.11961E+04         0.00000E+00
    0.00000E+00         0.00000E+00        -0.12687E+04
 
   -0.52011E+04         0.12442E+02         0.00000E+00
    0.12442E+02         0.13824E+04         0.00000E+00
    0.00000E+00         0.00000E+00        -0.11456E+04
 
   -0.49692E+04         0.16010E+02         0.00000E+00
    0.16010E+02         0.15522E+04         0.00000E+00
    0.00000E+00         0.00000E+00        -0.10251E+04
 
   -0.47285E+04         0.19906E+02         0.00000E+00
    0.19906E+02         0.17035E+04         0.00000E+00
    0.00000E+00         0.00000E+00        -0.90753E+03
 
   -0.44784E+04         0.24089E+02         0.00000E+00
    0.24089E+02         0.18345E+04         0.00000E+00
    0.00000E+00         0.00000E+00        -0.79318E+03
 
   -0.42181E+04         0.28515E+02         0.00000E+00
    0.28515E+02         0.19441E+04         0.00000E+00
    0.00000E+00         0.00000E+00        -0.68220E+03
 
   -0.39468E+04         0.33143E+02         0.00000E+00
    0.33143E+02         0.20313E+04         0.00000E+00
    0.00000E+00         0.00000E+00        -0.57466E+03
 
   -0.36639E+04         0.37930E+02         0.00000E+00
    0.37930E+02         0.20955E+04         0.00000E+00
    0.00000E+00         0.00000E+00        -0.47051E+03
 
   -0.33687E+04         0.42836E+02         0.00000E+00
    0.42836E+02         0.21366E+04         0.00000E+00
    0.00000E+00         0.00000E+00        -0.36964E+03
 
   -0.30607E+04         0.47818E+02         0.00000E+00
    0.47818E+02         0.21545E+04         0.00000E+00
    0.00000E+00         0.00000E+00        -0.27186E+03
 
   -0.27394E+04         0.52837E+02         0.00000E+00
    0.52837E+02         0.21495E+04         0.00000E+00
    0.00000E+00         0.00000E+00        -0.17697E+03
 
   -0.24043E+04         0.57848E+02         0.00000E+00
    0.57848E+02         0.21220E+04         0.00000E+00
    0.00000E+00         0.00000E+00        -0.84701E+02
 
   -0.20552E+04         0.62810E+02         0.00000E+00
    0.62810E+02         0.20725E+04         0.00000E+00
    0.00000E+00         0.00000E+00         0.51917E+01
 
   -0.16920E+04         0.67678E+02         0.00000E+00
    0.67678E+02         0.20018E+04         0.00000E+00
    0.00000E+00         0.00000E+00         0.92953E+02
 
   -0.13146E+04         0.72406E+02         0.00000E+00
    0.72406E+02         0.19106E+04         0.00000E+00
    0.00000E+00         0.00000E+00         0.17880E+03
 
   -0.92346E+03         0.76943E+02         0.00000E+00
    0.76943E+02         0.17998E+04         0.00000E+00
    0.00000E+00         0.00000E+00         0.26291E+03
 
   -0.51889E+03         0.81239E+02         0.00000E+00
    0.81239E+02         0.16702E+04         0.00000E+00
    0.00000E+00         0.00000E+00         0.34539E+03
 
   -0.10160E+03         0.85236E+02         0.00000E+00
    0.85236E+02         0.15226E+04         0.00000E+00
    0.00000E+00         0.00000E+00         0.42629E+03
 
    0.32748E+03         0.88876E+02         0.00000E+00
    0.88876E+02         0.13578E+04         0.00000E+00
    0.00000E+00         0.00000E+00         0.50559E+03
 
TENSORS stresstot double 
   -0.49595E+05         0.36683E+03         0.00000E+00
    0.36683E+03        -0.10022E+06         0.00000E+00
    0.00000E+00         0.00000E+00        -0.56534E+05
 
   -0.40101E+05         0.26451E+04         0.00000E+00
    0.26451E+04        -0.96903E+05         0.00000E+00
    0.00000E+00         0.00000E+00        -0.66258E+05
 
   -0.34778E+05         0.38004E+04         0.00000E+00
    0.38004E+04        -0.88966E+05         0.00000E+00
    0.00000E+00         0.00000E+00        -0.63898E+05
 
   -0.29862E+05         0.40445E+04         0.00000E+00
    0.40445E+04        -0.80535E+05         0.00000E+00
    0.00000E+00         0.00000E+00        -0.58422E+05
 
   -0.25293E+05         0.38858E+04         0.00000E+00
    0.38858E+04        -0.72732E+05         0.00000E+00
    0.00000E+00         0.00000E+00        -0.52456E+05
 
   -0.21166E+05         0.35842E+04         0.00000E+00
    0.35842E+04        -0.65624E+05         0.00000E+00
    0.00000E+00         0.00000E+00        -0.46646E+05
 
   -0.17478E+05         0.31974E+04         0.00000E+00
    0.31974E+04        -0.59228E+05         0.00000E+00
    0.00000E+00         0.00000E+00        -0.41241E+05
 
   -0.14674E+05         0.27760E+04         0.00000E+00
    0.27760E+04        -0.53511E+05         0.00000E+00
    0.00000E+00         0.00000E+00        -0.36534E+05
 
   -0.12343E+05         0.24077E+04         0.00000E+00
    0.24077E+04        -0.48481E+05         0.00000E+00
    0.00000E+00         0.00000E+00        -0.32467E+05
 
   -0.10331E+05         0.20780E+04         0.00000E+00
    0.20780E+04        -0.44107E+05         0.00000E+00
    0.00000E+00         0.00000E+00        -0.28985E+05
 
   -0.87069E+04         0.18014E+04         0.00000E+00
    0.18014E+04        -0.40259E+05         0.00000E+00
    0.00000E+00         0.00000E+00        -0.26042E+05
 
   -0.73050E+04         0.16127E+04         0.00000E+00
    0.16127E+04        -0.36875E+05         0.00000E+00
    0.00000E+00         0.00000E+00        -0.23464E+05
 
   -0.60382E+04         0.14487E+04         0.00000E+00
    0.14487E+04        -0.33877E+05         0.00000E+00
    0.00000E+00         0.00000E+00        -0.21129E+05
 
   -0.48878E+04         0.13050E+04         0.00000E+00
    0.13050E+04        -0.31170E+05         0.00000E+00
    0.00000E+00         0.00000E+00        -0.18970E+05
 
   -0.38308E+04         0.11651E+04         0.00000E+00
    0.11651E+04        -0.28738E+05         0.00000E+00
    0.00000E+00         0.00000E+00        -0.16937E+05
 
   -0.28501E+04         0.10601E+04         0.00000E+00
    0.10601E+04        -0.26546E+05         0.00000E+00
    0.00000E+00         0.00000E+00        -0.14986E+05
 
   -0.19582E+04         0.91790E+03         0.00000E+00
    0.91790E+03        -0.24612E+05         0.00000E+00
    0.00000E+00         0.00000E+00        -0.13114E+05
 
   -0.11774E+04         0.81034E+03         0.00000E+00
    0.81034E+03        -0.22922E+05         0.00000E+00
    0.00000E+00         0.00000E+00        -0.11440E+05
 
   -0.61373E+03         0.70635E+03         0.00000E+00
    0.70635E+03        -0.21437E+05         0.00000E+00
    0.00000E+00         0.00000E+00        -0.99371E+04
 
   -0.11170E+04         0.60973E+03         0.00000E+00
    0.60973E+03        -0.20129E+05         0.00000E+00
    0.00000E+00         0.00000E+00        -0.92174E+04
 
   -0.33445E+04         0.53187E+03         0.00000E+00
    0.53187E+03        -0.18994E+05         0.00000E+00
    0.00000E+00         0.00000E+00        -0.95936E+04
 
   -0.54676E+04         0.48801E+03         0.00000E+00
    0.48801E+03        -0.17979E+05         0.00000E+00
    0.00000E+00         0.00000E+00        -0.99625E+04
 
   -0.75911E+04         0.46995E+03         0.00000E+00
    0.46995E+03        -0.17026E+05         0.00000E+00
    0.00000E+00         0.00000E+00        -0.10338E+05
 
   -0.97977E+04         0.47467E+03         0.00000E+00
    0.47467E+03        -0.16086E+05         0.00000E+00
    0.00000E+00         0.00000E+00        -0.10730E+05
 
   -0.46113E+05         0.27376E+04         0.00000E+00
    0.27376E+04        -0.99614E+05         0.00000E+00
    0.00000E+00         0.00000E+00        -0.59269E+05
 
   -0.36743E+05         0.97035E+04         0.00000E+00
    0.97035E+04        -0.88872E+05         0.00000E+00
    0.00000E+00         0.00000E+00        -0.64167E+05
 
   -0.33377E+05         0.11681E+05         0.00000E+00
    0.11681E+05        -0.80374E+05         0.00000E+00
    0.00000E+00         0.00000E+00        -0.60093E+05
 
   -0.29869E+05         0.11852E+05         0.00000E+00
    0.11852E+05        -0.73350E+05         0.00000E+00
    0.00000E+00         0.00000E+00        -0.55231E+05
 
   -0.25880E+05         0.11163E+05         0.00000E+00
    0.11163E+05        -0.66689E+05         0.00000E+00
    0.00000E+00         0.00000E+00        -0.49880E+05
 
   -0.21942E+05         0.10153E+05         0.00000E+00
    0.10153E+05        -0.60660E+05         0.00000E+00
    0.00000E+00         0.00000E+00        -0.44639E+05
 
   -0.18426E+05         0.90121E+04         0.00000E+00
    0.90121E+04        -0.55286E+05         0.00000E+00
    0.00000E+00         0.00000E+00        -0.39810E+05
 
   -0.15465E+05         0.79037E+04         0.00000E+00
    0.79037E+04        -0.50549E+05         0.00000E+00
    0.00000E+00         0.00000E+00        -0.35524E+05
 
   -0.13051E+05         0.68895E+04         0.00000E+00
    0.68895E+04        -0.46263E+05         0.00000E+00
    0.00000E+00         0.00000E+00        -0.31763E+05
 
   -0.10936E+05         0.60145E+04         0.00000E+00
    0.60145E+04        -0.42353E+05         0.00000E+00
    0.00000E+00         0.00000E+00        -0.28424E+05
 
   -0.91356E+04         0.53020E+04         0.00000E+00
    0.53020E+04        -0.38897E+05         0.00000E+00
    0.00000E+00         0.00000E+00        -0.25515E+05
 
   -0.76349E+04         0.47368E+04         0.00000E+00
    0.47368E+04        -0.35753E+05         0.00000E+00
    0.00000E+00         0.00000E+00        -0.22979E+05
 
   -0.63515E+04         0.42525E+04         0.00000E+00
    0.42525E+04        -0.32891E+05         0.00000E+00
    0.00000E+00         0.00000E+00        -0.20704E+05
 
   -0.51629E+04         0.38351E+04         0.00000E+00
    0.38351E+04        -0.30355E+05         0.00000E+00
    0.00000E+00         0.00000E+00        -0.18589E+05
 
   -0.40845E+04         0.34429E+04         0.00000E+00
    0.34429E+04        -0.28079E+05         0.00000E+00
    0.00000E+00         0.00000E+00        -0.16621E+05
 
   -0.30966E+04         0.30652E+04         0.00000E+00
    0.30652E+04        -0.26060E+05         0.00000E+00
    0.00000E+00         0.00000E+00        -0.14764E+05
 
   -0.21972E+04         0.27166E+04         0.00000E+00
    0.27166E+04        -0.24261E+05         0.00000E+00
    0.00000E+00         0.00000E+00        -0.12947E+05
 
   -0.13984E+04         0.23826E+04         0.00000E+00
    0.23826E+04        -0.22647E+05         0.00000E+00
    0.00000E+00         0.00000E+00        -0.11322E+05
 
   -0.79510E+03         0.20934E+04         0.00000E+00
    0.20934E+04        -0.21223E+05         0.00000E+00
    0.00000E+00         0.00000E+00        -0.98698E+04
 
   -0.13169E+04         0.18182E+04         0.00000E+00
    0.18182E+04        -0.19946E+05         0.00000E+00
    0.00000E+00         0.00000E+00        -0.92190E+04
 
   -0.34625E+04         0.15884E+04         0.00000E+00
    0.15884E+04        -0.18830E+05         0.00000E+00
    0.00000E+00         0.00000E+00        -0.95762E+04
 
   -0.55285E+04         0.14573E+04         0.00000E+00
    0.14573E+04        -0.17830E+05         0.00000E+00
    0.00000E+00         0.00000E+00        -0.99322E+04
 
   -0.76044E+04         0.14022E+04         0.00000E+00
    0.14022E+04        -0.16891E+05         0.00000E+00
    0.00000E+00         0.00000E+00        -0.10298E+05
 
   -0.97667E+04         0.14156E+04         0.00000E+00
    0.14156E+04        -0.15967E+05         0.00000E+00
    0.00000E+00         0.00000E+00        -0.10681E+05
 
   -0.33530E+05         0.16154E+05         0.00000E+00
    0.16154E+05        -0.75385E+05         0.00000E+00
    0.00000E+00         0.00000E+00        -0.55776E+05
 
   -0.32953E+05         0.18364E+05         0.00000E+00
    0.18364E+05        -0.64374E+05         0.00000E+00
    0.00000E+00         0.00000E+00        -0.53190E+05
 
   -0.33436E+05         0.18891E+05         0.00000E+00
    0.18891E+05        -0.61976E+05         0.00000E+00
    0.00000E+00         0.00000E+00        -0.52143E+05
 
   -0.30804E+05         0.17911E+05         0.00000E+00
    0.17911E+05        -0.58453E+05         0.00000E+00
    0.00000E+00         0.00000E+00        -0.48805E+05
 
   -0.27300E+05         0.16528E+05         0.00000E+00
    0.16528E+05        -0.55052E+05         0.00000E+00
    0.00000E+00         0.00000E+00        -0.45045E+05
 
   -0.23484E+05         0.14928E+05         0.00000E+00
    0.14928E+05        -0.51550E+05         0.00000E+00
    0.00000E+00         0.00000E+00        -0.41039E+05
 
   -0.19931E+05         0.13317E+05         0.00000E+00
    0.13317E+05        -0.48123E+05         0.00000E+00
    0.00000E+00         0.00000E+00        -0.37150E+05
 
   -0.16858E+05         0.11823E+05         0.00000E+00
    0.11823E+05        -0.44825E+05         0.00000E+00
    0.00000E+00         0.00000E+00        -0.33513E+05
 
   -0.14219E+05         0.10559E+05         0.00000E+00
    0.10559E+05        -0.41720E+05         0.00000E+00
    0.00000E+00         0.00000E+00        -0.30185E+05
 
   -0.11918E+05         0.93974E+04         0.00000E+00
    0.93974E+04        -0.38742E+05         0.00000E+00
    0.00000E+00         0.00000E+00        -0.27170E+05
 
   -0.99631E+04         0.83693E+04         0.00000E+00
    0.83693E+04        -0.35868E+05         0.00000E+00
    0.00000E+00         0.00000E+00        -0.24424E+05
 
   -0.83111E+04         0.74931E+04         0.00000E+00
    0.74931E+04        -0.33312E+05         0.00000E+00
    0.00000E+00         0.00000E+00        -0.21987E+05
 
   -0.69162E+04         0.67539E+04         0.00000E+00
    0.67539E+04        -0.31022E+05         0.00000E+00
    0.00000E+00         0.00000E+00        -0.19826E+05
 
   -0.56994E+04         0.60781E+04         0.00000E+00
    0.60781E+04        -0.28903E+05         0.00000E+00
    0.00000E+00         0.00000E+00        -0.17859E+05
 
   -0.45822E+04         0.54801E+04         0.00000E+00
    0.54801E+04        -0.26964E+05         0.00000E+00
    0.00000E+00         0.00000E+00        -0.15993E+05
 
   -0.35636E+04         0.48989E+04         0.00000E+00
    0.48989E+04        -0.25204E+05         0.00000E+00
    0.00000E+00         0.00000E+00        -0.14210E+05
 
   -0.26281E+04         0.43536E+04         0.00000E+00
    0.43536E+04        -0.23592E+05         0.00000E+00
    0.00000E+00         0.00000E+00        -0.12572E+05
 
   -0.18209E+04         0.38459E+04         0.00000E+00
    0.38459E+04        -0.22117E+05         0.00000E+00
    0.00000E+00         0.00000E+00        -0.11088E+05
 
   -0.11221E+04         0.34134E+04         0.00000E+00
    0.34134E+04        -0.20769E+05         0.00000E+00
    0.00000E+00         0.00000E+00        -0.97237E+04
 
   -0.16996E+04         0.29883E+04         0.00000E+00
    0.29883E+04        -0.19563E+05         0.00000E+00
    0.00000E+00         0.00000E+00        -0.92119E+04
 
   -0.36944E+04         0.26205E+04         0.00000E+00
    0.26205E+04        -0.18490E+05         0.00000E+00
    0.00000E+00         0.00000E+00        -0.95364E+04
 
   -0.56508E+04         0.24043E+04         0.00000E+00
    0.24043E+04        -0.17523E+05         0.00000E+00
    0.00000E+00         0.00000E+00        -0.98691E+04
 
   -0.76327E+04         0.23103E+04         0.00000E+00
    0.23103E+04        -0.16616E+05         0.00000E+00
    0.00000E+00         0.00000E+00        -0.10216E+05
 
   -0.97052E+04         0.23302E+04         0.00000E+00
    0.23302E+04        -0.15728E+05         0.00000E+00
    0.00000E+00         0.00000E+00        -0.10583E+05
 
   -0.12904E+05         0.14258E+05         0.00000E+00
    0.14258E+05        -0.27520E+05         0.00000E+00
    0.00000E+00         0.00000E+00        -0.24616E+05
 
   -0.32887E+05         0.19968E+05         0.00000E+00
    0.19968E+05        -0.37879E+05         0.00000E+00
    0.00000E+00         0.00000E+00        -0.41367E+05
 
   -0.33744E+05         0.19597E+05         0.00000E+00
    0.19597E+05        -0.37806E+05         0.00000E+00
    0.00000E+00         0.00000E+00        -0.41141E+05
 
   -0.32077E+05         0.19113E+05         0.00000E+00
    0.19113E+05        -0.38828E+05         0.00000E+00
    0.00000E+00         0.00000E+00        -0.40405E+05
 
   -0.28815E+05         0.18170E+05         0.00000E+00
    0.18170E+05        -0.39000E+05         0.00000E+00
    0.00000E+00         0.00000E+00        -0.38415E+05
 
   -0.25156E+05         0.16985E+05         0.00000E+00
    0.16985E+05        -0.38639E+05         0.00000E+00
    0.00000E+00         0.00000E+00        -0.35932E+05
 
   -0.21581E+05         0.15638E+05         0.00000E+00
    0.15638E+05        -0.37720E+05         0.00000E+00
    0.00000E+00         0.00000E+00        -0.33181E+05
 
   -0.18355E+05         0.14262E+05         0.00000E+00
    0.14262E+05        -0.36411E+05         0.00000E+00
    0.00000E+00         0.00000E+00        -0.30384E+05
 
   -0.15591E+05         0.12956E+05         0.00000E+00
    0.12956E+05        -0.34910E+05         0.00000E+00
    0.00000E+00         0.00000E+00        -0.27669E+05
 
   -0.13112E+05         0.11789E+05         0.00000E+00
    0.11789E+05        -0.33360E+05         0.00000E+00
    0.00000E+00         0.00000E+00        -0.25065E+05
 
   -0.11014E+05         0.10677E+05         0.00000E+00
    0.10677E+05        -0.31732E+05         0.00000E+00
    0.00000E+00         0.00000E+00        -0.22683E+05
 
   -0.92398E+04         0.96090E+04         0.00000E+00
    0.96090E+04        -0.30004E+05         0.00000E+00
    0.00000E+00         0.00000E+00        -0.20520E+05
 
   -0.77188E+04         0.86824E+04         0.00000E+00
    0.86824E+04        -0.28324E+05         0.00000E+00
    0.00000E+00         0.00000E+00        -0.18570E+05
 
   -0.64105E+04         0.78721E+04         0.00000E+00
    0.78721E+04        -0.26749E+05         0.00000E+00
    0.00000E+00         0.00000E+00        -0.16809E+05
 
   -0.52435E+04         0.71205E+04         0.00000E+00
    0.71205E+04        -0.25282E+05         0.00000E+00
    0.00000E+00         0.00000E+00        -0.15153E+05
 
   -0.41983E+04         0.64212E+04         0.00000E+00
    0.64212E+04        -0.23910E+05         0.00000E+00
    0.00000E+00         0.00000E+00        -0.13604E+05
 
   -0.32366E+04         0.57832E+04         0.00000E+00
    0.57832E+04        -0.22560E+05         0.00000E+00
    0.00000E+00         0.00000E+00        -0.12159E+05
 
   -0.23473E+04         0.51719E+04         0.00000E+00
    0.51719E+04        -0.21282E+05         0.00000E+00
    0.00000E+00         0.00000E+00        -0.10783E+05
 
   -0.15654E+04         0.46359E+04         0.00000E+00
    0.46359E+04        -0.20084E+05         0.00000E+00
    0.00000E+00         0.00000E+00        -0.95154E+04
 
   -0.22369E+04         0.40906E+04         0.00000E+00
    0.40906E+04        -0.18957E+05         0.00000E+00
    0.00000E+00         0.00000E+00        -0.91807E+04
 
   -0.40309E+04         0.36053E+04         0.00000E+00
    0.36053E+04        -0.17955E+05         0.00000E+00
    0.00000E+00         0.00000E+00        -0.94657E+04
 
   -0.58345E+04         0.33085E+04         0.00000E+00
    0.33085E+04        -0.17045E+05         0.00000E+00
    0.00000E+00         0.00000E+00        -0.97697E+04
 
   -0.76787E+04         0.31741E+04         0.00000E+00
    0.31741E+04        -0.16195E+05         0.00000E+00
    0.00000E+00         0.00000E+00        -0.10092E+05
 
   -0.96141E+04         0.31982E+04         0.00000E+00
    0.31982E+04        -0.15364E+05         0.00000E+00
    0.00000E+00         0.00000E+00        -0.10435E+05
 
   -0.45976E+04         0.32269E+04         0.00000E+00
    0.32269E+04         0.36701E+04         0.00000E+00
    0.00000E+00         0.00000E+00         0.33546E+03
 
   -0.26694E+05         0.11061E+05         0.00000E+00
    0.11061E+05        -0.97124E+04         0.00000E+00
    0.00000E+00         0.00000E+00        -0.20039E+05
 
   -0.32045E+05         0.14135E+05         0.00000E+00
    0.14135E+05        -0.17705E+05         0.00000E+00
    0.00000E+00         0.00000E+00        -0.28217E+05
 
   -0.31208E+05         0.15508E+05         0.00000E+00
    0.15508E+05        -0.22005E+05         0.00000E+00
    0.00000E+00         0.00000E+00        -0.30041E+05
 
   -0.28899E+05         0.16097E+05         0.00000E+00
    0.16097E+05        -0.25001E+05         0.00000E+00
    0.00000E+00         0.00000E+00        -0.30227E+05
 
   -0.25822E+05         0.16027E+05         0.00000E+00
    0.16027E+05        -0.26863E+05         0.00000E+00
    0.00000E+00         0.00000E+00        -0.29318E+05
 
   -0.22583E+05         0.15506E+05         0.00000E+00
    0.15506E+05        -0.27917E+05         0.00000E+00
    0.00000E+00         0.00000E+00        -0.27845E+05
 
   -0.19493E+05         0.14698E+05         0.00000E+00
    0.14698E+05        -0.28333E+05         0.00000E+00
    0.00000E+00         0.00000E+00        -0.26078E+05
 
   -0.16716E+05         0.13757E+05         0.00000E+00
    0.13757E+05        -0.28256E+05         0.00000E+00
    0.00000E+00         0.00000E+00        -0.24195E+05
 
   -0.14241E+05         0.12772E+05         0.00000E+00
    0.12772E+05        -0.27840E+05         0.00000E+00
    0.00000E+00         0.00000E+00        -0.22288E+05
 
   -0.12082E+05         0.11811E+05         0.00000E+00
    0.11811E+05        -0.27247E+05         0.00000E+00
    0.00000E+00         0.00000E+00        -0.20443E+05
 
   -0.10212E+05         0.10890E+05         0.00000E+00
    0.10890E+05        -0.26475E+05         0.00000E+00
    0.00000E+00         0.00000E+00        -0.18705E+05
 
   -0.85917E+04         0.99996E+04         0.00000E+00
    0.99996E+04        -0.25493E+05         0.00000E+00
    0.00000E+00         0.00000E+00        -0.17083E+05
 
   -0.72312E+04         0.91475E+04         0.00000E+00
    0.91475E+04        -0.24451E+05         0.00000E+00
    0.00000E+00         0.00000E+00        -0.15599E+05
 
   -0.59888E+04         0.83393E+04         0.00000E+00
    0.83393E+04        -0.23411E+05         0.00000E+00
    0.00000E+00         0.00000E+00        -0.14206E+05
 
   -0.48915E+04         0.76319E+04         0.00000E+00
    0.76319E+04        -0.22311E+05         0.00000E+00
    0.00000E+00         0.00000E+00        -0.12912E+05
 
   -0.38899E+04         0.69664E+04         0.00000E+00
    0.69664E+04        -0.21242E+05         0.00000E+00
    0.00000E+00         0.00000E+00        -0.11670E+05
 
   -0.29603E+04         0.63243E+04         0.00000E+00
    0.63243E+04        -0.20187E+05         0.00000E+00
    0.00000E+00         0.00000E+00        -0.10429E+05
 
   -0.20879E+04         0.57415E+04         0.00000E+00
    0.57415E+04        -0.19112E+05         0.00000E+00
    0.00000E+00         0.00000E+00        -0.92563E+04
 
   -0.28947E+04         0.50933E+04         0.00000E+00
    0.50933E+04        -0.18096E+05         0.00000E+00
    0.00000E+00         0.00000E+00        -0.91056E+04
 
   -0.44605E+04         0.45113E+04         0.00000E+00
    0.45113E+04        -0.17205E+05         0.00000E+00
    0.00000E+00         0.00000E+00        -0.93550E+04
 
   -0.60776E+04         0.41403E+04         0.00000E+00
    0.41403E+04        -0.16393E+05         0.00000E+00
    0.00000E+00         0.00000E+00        -0.96318E+04
 
   -0.77428E+04         0.39691E+04         0.00000E+00
    0.39691E+04        -0.15629E+05         0.00000E+00
    0.00000E+00         0.00000E+00        -0.99257E+04
 
   -0.94948E+04         0.39976E+04         0.00000E+00
    0.39976E+04        -0.14878E+05         0.00000E+00
    0.00000E+00         0.00000E+00        -0.10238E+05
 
    0.10680E+04        -0.11987E+04         0.00000E+00
   -0.11987E+04        -0.16846E+04         0.00000E+00
    0.00000E+00         0.00000E+00        -0.56416E+02
 
   -0.23870E+05         0.57809E+04         0.00000E+00
    0.57809E+04        -0.31163E+04         0.00000E+00
    0.00000E+00         0.00000E+00        -0.10239E+05
 
   -0.28800E+05         0.95213E+04         0.00000E+00
    0.95213E+04        -0.92204E+04         0.00000E+00
    0.00000E+00         0.00000E+00        -0.18839E+05
 
   -0.29411E+05         0.11817E+05         0.00000E+00
    0.11817E+05        -0.13497E+05         0.00000E+00
    0.00000E+00         0.00000E+00        -0.22585E+05
 
   -0.27842E+05         0.13242E+05         0.00000E+00
    0.13242E+05        -0.16615E+05         0.00000E+00
    0.00000E+00         0.00000E+00        -0.23892E+05
 
   -0.25506E+05         0.13980E+05         0.00000E+00
    0.13980E+05        -0.18951E+05         0.00000E+00
    0.00000E+00         0.00000E+00        -0.23964E+05
 
   -0.22793E+05         0.14184E+05         0.00000E+00
    0.14184E+05        -0.20639E+05         0.00000E+00
    0.00000E+00         0.00000E+00        -0.23347E+05
 
   -0.20046E+05         0.13987E+05         0.00000E+00
    0.13987E+05        -0.21764E+05         0.00000E+00
    0.00000E+00         0.00000E+00        -0.22317E+05
 
   -0.17457E+05         0.13526E+05         0.00000E+00
    0.13526E+05        -0.22430E+05         0.00000E+00
    0.00000E+00         0.00000E+00        -0.21071E+05
 
   -0.15084E+05         0.12898E+05         0.00000E+00
    0.12898E+05        -0.22718E+05         0.00000E+00
    0.00000E+00         0.00000E+00        -0.19712E+05
 
   -0.12951E+05         0.12167E+05         0.00000E+00
    0.12167E+05        -0.22707E+05         0.00000E+00
    0.00000E+00         0.00000E+00        -0.18319E+05
 
   -0.11047E+05         0.11452E+05         0.00000E+00
    0.11452E+05        -0.22477E+05         0.00000E+00
    0.00000E+00         0.00000E+00        -0.16927E+05
 
   -0.94232E+04         0.10700E+05         0.00000E+00
    0.10700E+05        -0.22136E+05         0.00000E+00
    0.00000E+00         0.00000E+00        -0.15633E+05
 
   -0.80112E+04         0.99539E+04         0.00000E+00
    0.99539E+04        -0.21625E+05         0.00000E+00
    0.00000E+00         0.00000E+00        -0.14418E+05
 
   -0.67488E+04         0.92448E+04         0.00000E+00
    0.92448E+04        -0.20918E+05         0.00000E+00
    0.00000E+00         0.00000E+00        -0.13273E+05
 
   -0.55781E+04         0.85428E+04         0.00000E+00
    0.85428E+04        -0.20153E+05         0.00000E+00
    0.00000E+00         0.00000E+00        -0.12149E+05
 
   -0.45550E+04         0.78675E+04         0.00000E+00
    0.78675E+04        -0.19377E+05         0.00000E+00
    0.00000E+00         0.00000E+00        -0.11058E+05
 
   -0.35445E+04         0.72754E+04         0.00000E+00
    0.72754E+04        -0.18579E+05         0.00000E+00
    0.00000E+00         0.00000E+00        -0.99306E+04
 
   -0.27180E+04         0.67096E+04         0.00000E+00
    0.67096E+04        -0.17734E+05         0.00000E+00
    0.00000E+00         0.00000E+00        -0.89654E+04
 
   -0.36185E+04         0.59377E+04         0.00000E+00
    0.59377E+04        -0.16960E+05         0.00000E+00
    0.00000E+00         0.00000E+00        -0.89642E+04
 
   -0.49704E+04         0.52849E+04         0.00000E+00
    0.52849E+04        -0.16252E+05         0.00000E+00
    0.00000E+00         0.00000E+00        -0.92036E+04
 
   -0.63678E+04         0.48628E+04         0.00000E+00
    0.48628E+04        -0.15582E+05         0.00000E+00
    0.00000E+00         0.00000E+00        -0.94568E+04
 
   -0.78193E+04         0.46699E+04         0.00000E+00
    0.46699E+04        -0.14933E+05         0.00000E+00
    0.00000E+00         0.00000E+00        -0.97206E+04
 
   -0.93489E+04         0.47069E+04         0.00000E+00
    0.47069E+04        -0.14283E+05         0.00000E+00
    0.00000E+00         0.00000E+00        -0.99961E+04
 
    0.16589E+04        -0.17161E+04         0.00000E+00
   -0.17161E+04         0.48359E+02         0.00000E+00
    0.00000E+00         0.00000E+00         0.45668E+03
 
   -0.18261E+05         0.77104E+03         0.00000E+00
    0.77104E+03        -0.13777E+04         0.00000E+00
    0.00000E+00         0.00000E+00        -0.62092E+04
 
   -0.26607E+05         0.60809E+04         0.00000E+00
    0.60809E+04        -0.49977E+04         0.00000E+00
    0.00000E+00         0.00000E+00        -0.12674E+05
 
   -0.27140E+05         0.88188E+04         0.00000E+00
    0.88188E+04        -0.83254E+04         0.00000E+00
    0.00000E+00         0.00000E+00        -0.16528E+05
 
   -0.26402E+05         0.10668E+05         0.00000E+00
    0.10668E+05        -0.11227E+05         0.00000E+00
    0.00000E+00         0.00000E+00        -0.18521E+05
 
   -0.24624E+05         0.11912E+05         0.00000E+00
    0.11912E+05        -0.13570E+05         0.00000E+00
    0.00000E+00         0.00000E+00        -0.19287E+05
 
   -0.22443E+05         0.12581E+05         0.00000E+00
    0.12581E+05        -0.15361E+05         0.00000E+00
    0.00000E+00         0.00000E+00        -0.19303E+05
 
   -0.20085E+05         0.12832E+05         0.00000E+00
    0.12832E+05        -0.16732E+05         0.00000E+00
    0.00000E+00         0.00000E+00        -0.18839E+05
 
   -0.17773E+05         0.12763E+05         0.00000E+00
    0.12763E+05        -0.17727E+05         0.00000E+00
    0.00000E+00         0.00000E+00        -0.18097E+05
 
   -0.15592E+05         0.12472E+05         0.00000E+00
    0.12472E+05        -0.18410E+05         0.00000E+00
    0.00000E+00         0.00000E+00        -0.17182E+05
 
   -0.13545E+05         0.12059E+05         0.00000E+00
    0.12059E+05        -0.18812E+05         0.00000E+00
    0.00000E+00         0.00000E+00        -0.16144E+05
 
   -0.11700E+05         0.11531E+05         0.00000E+00
    0.11531E+05        -0.18987E+05         0.00000E+00
    0.00000E+00         0.00000E+00        -0.15080E+05
 
   -0.10101E+05         0.10965E+05         0.00000E+00
    0.10965E+05        -0.18931E+05         0.00000E+00
    0.00000E+00         0.00000E+00        -0.14065E+05
 
   -0.86781E+04         0.10370E+05         0.00000E+00
    0.10370E+05        -0.18698E+05         0.00000E+00
    0.00000E+00         0.00000E+00        -0.13093E+05
 
   -0.74044E+04         0.97670E+04         0.00000E+00
    0.97670E+04        -0.18384E+05         0.00000E+00
    0.00000E+00         0.00000E+00        -0.12167E+05
 
   -0.62330E+04         0.91600E+04         0.00000E+00
    0.91600E+04        -0.17971E+05         0.00000E+00
    0.00000E+00         0.00000E+00        -0.11218E+05
 
   -0.51487E+04         0.85657E+04         0.00000E+00
    0.85657E+04        -0.17436E+05         0.00000E+00
    0.00000E+00         0.00000E+00        -0.10259E+05
 
   -0.41189E+04         0.80129E+04         0.00000E+00
    0.80129E+04        -0.16795E+05         0.00000E+00
    0.00000E+00         0.00000E+00        -0.93696E+04
 
   -0.34516E+04         0.74156E+04         0.00000E+00
    0.74156E+04        -0.16146E+05         0.00000E+00
    0.00000E+00         0.00000E+00        -0.86299E+04
 
   -0.43931E+04         0.65466E+04         0.00000E+00
    0.65466E+04        -0.15647E+05         0.00000E+00
    0.00000E+00         0.00000E+00        -0.87817E+04
 
   -0.55188E+04         0.58744E+04         0.00000E+00
    0.58744E+04        -0.15162E+05         0.00000E+00
    0.00000E+00         0.00000E+00        -0.90192E+04
 
   -0.66775E+04         0.54463E+04         0.00000E+00
    0.54463E+04        -0.14660E+05         0.00000E+00
    0.00000E+00         0.00000E+00        -0.92504E+04
 
   -0.78948E+04         0.52565E+04         0.00000E+00
    0.52565E+04        -0.14142E+05         0.00000E+00
    0.00000E+00         0.00000E+00        -0.94830E+04
 
   -0.91780E+04         0.53097E+04         0.00000E+00
    0.53097E+04        -0.13606E+05         0.00000E+00
    0.00000E+00         0.00000E+00        -0.97185E+04
 
   -0.17356E+03        -0.17827E+04         0.00000E+00
   -0.17827E+04        -0.28693E+02         0.00000E+00
    0.00000E+00         0.00000E+00        -0.16462E+03
 
   -0.13685E+05        -0.11842E+04         0.00000E+00
   -0.11842E+04        -0.33231E+03         0.00000E+00
    0.00000E+00         0.00000E+00        -0.45151E+04
 
   -0.23183E+05         0.29224E+04         0.00000E+00
    0.29224E+04        -0.14899E+04         0.00000E+00
    0.00000E+00         0.00000E+00        -0.81433E+04
 
   -0.25070E+05         0.61980E+04         0.00000E+00
    0.61980E+04        -0.47143E+04         0.00000E+00
    0.00000E+00         0.00000E+00        -0.12168E+05
 
   -0.24686E+05         0.83533E+04         0.00000E+00
    0.83533E+04        -0.71325E+04         0.00000E+00
    0.00000E+00         0.00000E+00        -0.14291E+05
 
   -0.23415E+05         0.99133E+04         0.00000E+00
    0.99133E+04        -0.93232E+04         0.00000E+00
    0.00000E+00         0.00000E+00        -0.15287E+05
 
   -0.21737E+05         0.10958E+05         0.00000E+00
    0.10958E+05        -0.11226E+05         0.00000E+00
    0.00000E+00         0.00000E+00        -0.15725E+05
 
   -0.19767E+05         0.11549E+05         0.00000E+00
    0.11549E+05        -0.12723E+05         0.00000E+00
    0.00000E+00         0.00000E+00        -0.15656E+05
 
   -0.17759E+05         0.11795E+05         0.00000E+00
    0.11795E+05        -0.13878E+05         0.00000E+00
    0.00000E+00         0.00000E+00        -0.15303E+05
 
   -0.15777E+05         0.11793E+05         0.00000E+00
    0.11793E+05        -0.14730E+05         0.00000E+00
    0.00000E+00         0.00000E+00        -0.14733E+05
 
   -0.13883E+05         0.11622E+05         0.00000E+00
    0.11622E+05        -0.15324E+05         0.00000E+00
    0.00000E+00         0.00000E+00        -0.14021E+05
 
   -0.12145E+05         0.11331E+05         0.00000E+00
    0.11331E+05        -0.15687E+05         0.00000E+00
    0.00000E+00         0.00000E+00        -0.13240E+05
 
   -0.10601E+05         0.10938E+05         0.00000E+00
    0.10938E+05        -0.15892E+05         0.00000E+00
    0.00000E+00         0.00000E+00        -0.12477E+05
 
   -0.92111E+04         0.10496E+05         0.00000E+00
    0.10496E+05        -0.15957E+05         0.00000E+00
    0.00000E+00         0.00000E+00        -0.11727E+05
 
   -0.79433E+04         0.10021E+05         0.00000E+00
    0.10021E+05        -0.15853E+05         0.00000E+00
    0.00000E+00         0.00000E+00        -0.10979E+05
 
   -0.67863E+04         0.95321E+04         0.00000E+00
    0.95321E+04        -0.15615E+05         0.00000E+00
    0.00000E+00         0.00000E+00        -0.10254E+05
 
   -0.56763E+04         0.90413E+04         0.00000E+00
    0.90413E+04        -0.15287E+05         0.00000E+00
    0.00000E+00         0.00000E+00        -0.95012E+04
 
   -0.46399E+04         0.85500E+04         0.00000E+00
    0.85500E+04        -0.14867E+05         0.00000E+00
    0.00000E+00         0.00000E+00        -0.87423E+04
 
   -0.43353E+04         0.78273E+04         0.00000E+00
    0.78273E+04        -0.14526E+05         0.00000E+00
    0.00000E+00         0.00000E+00        -0.83476E+04
 
   -0.51849E+04         0.69079E+04         0.00000E+00
    0.69079E+04        -0.14319E+05         0.00000E+00
    0.00000E+00         0.00000E+00        -0.85958E+04
 
   -0.60492E+04         0.62759E+04         0.00000E+00
    0.62759E+04        -0.14032E+05         0.00000E+00
    0.00000E+00         0.00000E+00        -0.88137E+04
 
   -0.69722E+04         0.58837E+04         0.00000E+00
    0.58837E+04        -0.13688E+05         0.00000E+00
    0.00000E+00         0.00000E+00        -0.90208E+04
 
   -0.79528E+04         0.57218E+04         0.00000E+00
    0.57218E+04        -0.13299E+05         0.00000E+00
    0.00000E+00         0.00000E+00        -0.92206E+04
 
   -0.89840E+04         0.57988E+04         0.00000E+00
    0.57988E+04        -0.12879E+05         0.00000E+00
    0.00000E+00         0.00000E+00        -0.94151E+04
 
   -0.22360E+04        -0.15355E+04         0.00000E+00
   -0.15355E+04         0.15785E+03         0.00000E+00
    0.00000E+00         0.00000E+00        -0.72547E+03
 
   -0.11611E+05        -0.16858E+04         0.00000E+00
   -0.16858E+04         0.28424E+03         0.00000E+00
    0.00000E+00         0.00000E+00        -0.37023E+04
 
   -0.19233E+05         0.71584E+03         0.00000E+00
    0.71584E+03        -0.67710E+03         0.00000E+00
    0.00000E+00         0.00000E+00        -0.64757E+04
 
   -0.22762E+05         0.40452E+04         0.00000E+00
    0.40452E+04        -0.20461E+04         0.00000E+00
    0.00000E+00         0.00000E+00        -0.88204E+04
 
   -0.22884E+05         0.63936E+04         0.00000E+00
    0.63936E+04        -0.41400E+04         0.00000E+00
    0.00000E+00         0.00000E+00        -0.10980E+05
 
   -0.22036E+05         0.80789E+04         0.00000E+00
    0.80789E+04        -0.59369E+04         0.00000E+00
    0.00000E+00         0.00000E+00        -0.12192E+05
 
   -0.20767E+05         0.93251E+04         0.00000E+00
    0.93251E+04        -0.76088E+04         0.00000E+00
    0.00000E+00         0.00000E+00        -0.12764E+05
 
   -0.19171E+05         0.10209E+05         0.00000E+00
    0.10209E+05        -0.91115E+04         0.00000E+00
    0.00000E+00         0.00000E+00        -0.12951E+05
 
   -0.17488E+05         0.10725E+05         0.00000E+00
    0.10725E+05        -0.10363E+05         0.00000E+00
    0.00000E+00         0.00000E+00        -0.12857E+05
 
   -0.15715E+05         0.10973E+05         0.00000E+00
    0.10973E+05        -0.11345E+05         0.00000E+00
    0.00000E+00         0.00000E+00        -0.12542E+05
 
   -0.13990E+05         0.11032E+05         0.00000E+00
    0.11032E+05        -0.12102E+05         0.00000E+00
    0.00000E+00         0.00000E+00        -0.12077E+05
 
   -0.12389E+05         0.10931E+05         0.00000E+00
    0.10931E+05        -0.12663E+05         0.00000E+00
    0.00000E+00         0.00000E+00        -0.11539E+05
 
   -0.10939E+05         0.10713E+05         0.00000E+00
    0.10713E+05        -0.13036E+05         0.00000E+00
    0.00000E+00         0.00000E+00        -0.10992E+05
 
   -0.95980E+04         0.10424E+05         0.00000E+00
    0.10424E+05        -0.13233E+05         0.00000E+00
    0.00000E+00         0.00000E+00        -0.10432E+05
 
   -0.83584E+04         0.10082E+05         0.00000E+00
    0.10082E+05        -0.13322E+05         0.00000E+00
    0.00000E+00         0.00000E+00        -0.98564E+04
 
   -0.72256E+04         0.96990E+04         0.00000E+00
    0.96990E+04        -0.13311E+05         0.00000E+00
    0.00000E+00         0.00000E+00        -0.92889E+04
 
   -0.61240E+04         0.92987E+04         0.00000E+00
    0.92987E+04        -0.13155E+05         0.00000E+00
    0.00000E+00         0.00000E+00        -0.86687E+04
 
   -0.51849E+04         0.88516E+04         0.00000E+00
    0.88516E+04        -0.12993E+05         0.00000E+00
    0.00000E+00         0.00000E+00        -0.80931E+04
 
   -0.53803E+04         0.78482E+04         0.00000E+00
    0.78482E+04        -0.13084E+05         0.00000E+00
    0.00000E+00         0.00000E+00        -0.82013E+04
 
   -0.58953E+04         0.70637E+04         0.00000E+00
    0.70637E+04        -0.13068E+05         0.00000E+00
    0.00000E+00         0.00000E+00        -0.84056E+04
 
   -0.65236E+04         0.65198E+04         0.00000E+00
    0.65198E+04        -0.12935E+05         0.00000E+00
    0.00000E+00         0.00000E+00        -0.85978E+04
 
   -0.72237E+04         0.61898E+04         0.00000E+00
    0.61898E+04        -0.12718E+05         0.00000E+00
    0.00000E+00         0.00000E+00        -0.87756E+04
 
   -0.79797E+04         0.60717E+04         0.00000E+00
    0.60717E+04        -0.12444E+05         0.00000E+00
    0.00000E+00         0.00000E+00        -0.89419E+04
 
   -0.87697E+04         0.61761E+04         0.00000E+00
    0.61761E+04        -0.12132E+05         0.00000E+00
    0.00000E+00         0.00000E+00        -0.90962E+04
 
   -0.41007E+04        -0.12030E+04         0.00000E+00
   -0.12030E+04         0.14182E+03         0.00000E+00
    0.00000E+00         0.00000E+00        -0.12882E+04
 
   -0.10750E+05        -0.17043E+04         0.00000E+00
   -0.17043E+04         0.42805E+03         0.00000E+00
    0.00000E+00         0.00000E+00        -0.33967E+04
 
   -0.16314E+05        -0.17042E+03         0.00000E+00
   -0.17042E+03         0.33205E+03         0.00000E+00
    0.00000E+00         0.00000E+00        -0.52904E+04
 
   -0.20048E+05         0.23511E+04         0.00000E+00
    0.23511E+04        -0.42438E+03         0.00000E+00
    0.00000E+00         0.00000E+00        -0.68286E+04
 
   -0.21046E+05         0.47592E+04         0.00000E+00
    0.47592E+04        -0.18617E+04         0.00000E+00
    0.00000E+00         0.00000E+00        -0.83521E+04
 
   -0.20600E+05         0.65544E+04         0.00000E+00
    0.65544E+04        -0.34380E+04         0.00000E+00
    0.00000E+00         0.00000E+00        -0.96036E+04
 
   -0.19648E+05         0.78933E+04         0.00000E+00
    0.78933E+04        -0.48454E+04         0.00000E+00
    0.00000E+00         0.00000E+00        -0.10330E+05
 
   -0.18375E+05         0.88969E+04         0.00000E+00
    0.88969E+04        -0.61499E+04         0.00000E+00
    0.00000E+00         0.00000E+00        -0.10677E+05
 
   -0.16982E+05         0.96202E+04         0.00000E+00
    0.96202E+04        -0.73326E+04         0.00000E+00
    0.00000E+00         0.00000E+00        -0.10754E+05
 
   -0.15447E+05         0.10076E+05         0.00000E+00
    0.10076E+05        -0.83608E+04         0.00000E+00
    0.00000E+00         0.00000E+00        -0.10642E+05
 
   -0.13911E+05         0.10322E+05         0.00000E+00
    0.10322E+05        -0.91853E+04         0.00000E+00
    0.00000E+00         0.00000E+00        -0.10372E+05
 
   -0.12463E+05         0.10390E+05         0.00000E+00
    0.10390E+05        -0.98388E+04         0.00000E+00
    0.00000E+00         0.00000E+00        -0.10017E+05
 
   -0.11110E+05         0.10334E+05         0.00000E+00
    0.10334E+05        -0.10353E+05         0.00000E+00
    0.00000E+00         0.00000E+00        -0.96068E+04
 
   -0.98427E+04         0.10188E+05         0.00000E+00
    0.10188E+05        -0.10759E+05         0.00000E+00
    0.00000E+00         0.00000E+00        -0.92043E+04
 
   -0.86536E+04         0.99736E+04         0.00000E+00
    0.99736E+04        -0.10981E+05         0.00000E+00
    0.00000E+00         0.00000E+00        -0.87632E+04
 
   -0.75731E+04         0.96868E+04         0.00000E+00
    0.96868E+04        -0.11069E+05         0.00000E+00
    0.00000E+00         0.00000E+00        -0.83211E+04
 
   -0.64796E+04         0.93945E+04         0.00000E+00
    0.93945E+04        -0.11170E+05         0.00000E+00
    0.00000E+00         0.00000E+00        -0.78312E+04
 
   -0.61366E+04         0.85463E+04         0.00000E+00
    0.85463E+04        -0.11541E+05         0.00000E+00
    0.00000E+00         0.00000E+00        -0.78709E+04
 
   -0.61996E+04         0.77221E+04         0.00000E+00
    0.77221E+04        -0.11839E+05         0.00000E+00
    0.00000E+00         0.00000E+00        -0.80433E+04
 
   -0.64955E+04         0.70893E+04         0.00000E+00
    0.70893E+04        -0.11934E+05         0.00000E+00
    0.00000E+00         0.00000E+00        -0.82137E+04
 
   -0.69165E+04         0.66456E+04         0.00000E+00
    0.66456E+04        -0.11903E+05         0.00000E+00
    0.00000E+00         0.00000E+00        -0.83734E+04
 
   -0.74184E+04         0.63878E+04         0.00000E+00
    0.63878E+04        -0.11785E+05         0.00000E+00
    0.00000E+00         0.00000E+00        -0.85208E+04
 
   -0.79693E+04         0.63190E+04         0.00000E+00
    0.63190E+04        -0.11607E+05         0.00000E+00
    0.00000E+00         0.00000E+00        -0.86538E+04
 
   -0.85390E+04         0.64505E+04         0.00000E+00
    0.64505E+04        -0.11391E+05         0.00000E+00
    0.00000E+00         0.00000E+00        -0.87705E+04
 
   -0.56374E+04        -0.89603E+03         0.00000E+00
   -0.89603E+03         0.12233E+03         0.00000E+00
    0.00000E+00         0.00000E+00        -0.17538E+04
 
   -0.10306E+05        -0.13843E+04         0.00000E+00
   -0.13843E+04         0.49134E+03         0.00000E+00
    0.00000E+00         0.00000E+00        -0.32407E+04
 
   -0.14540E+05        -0.42177E+03         0.00000E+00
   -0.42177E+03         0.65416E+03         0.00000E+00
    0.00000E+00         0.00000E+00        -0.46555E+04
 
   -0.17527E+05         0.14109E+04         0.00000E+00
    0.14109E+04         0.29945E+03         0.00000E+00
    0.00000E+00         0.00000E+00        -0.58471E+04
 
   -0.19102E+05         0.34854E+04         0.00000E+00
    0.34854E+04        -0.29861E+03         0.00000E+00
    0.00000E+00         0.00000E+00        -0.66826E+04
 
   -0.19129E+05         0.52478E+04         0.00000E+00
    0.52478E+04        -0.14299E+04         0.00000E+00
    0.00000E+00         0.00000E+00        -0.75667E+04
 
   -0.18480E+05         0.66652E+04         0.00000E+00
    0.66652E+04        -0.27020E+04         0.00000E+00
    0.00000E+00         0.00000E+00        -0.82906E+04
 
   -0.17484E+05         0.77553E+04         0.00000E+00
    0.77553E+04        -0.38520E+04         0.00000E+00
    0.00000E+00         0.00000E+00        -0.87252E+04
 
   -0.16316E+05         0.85515E+04         0.00000E+00
    0.85515E+04        -0.49298E+04         0.00000E+00
    0.00000E+00         0.00000E+00        -0.89507E+04
 
   -0.15018E+05         0.91685E+04         0.00000E+00
    0.91685E+04        -0.58721E+04         0.00000E+00
    0.00000E+00         0.00000E+00        -0.89315E+04
 
   -0.13673E+05         0.95563E+04         0.00000E+00
    0.95563E+04        -0.67222E+04         0.00000E+00
    0.00000E+00         0.00000E+00        -0.88064E+04
 
   -0.12379E+05         0.97833E+04         0.00000E+00
    0.97833E+04        -0.74511E+04         0.00000E+00
    0.00000E+00         0.00000E+00        -0.85952E+04
 
   -0.11148E+05         0.98502E+04         0.00000E+00
    0.98502E+04        -0.80124E+04         0.00000E+00
    0.00000E+00         0.00000E+00        -0.83351E+04
 
   -0.99513E+04         0.98257E+04         0.00000E+00
    0.98257E+04        -0.84051E+04         0.00000E+00
    0.00000E+00         0.00000E+00        -0.80292E+04
 
   -0.88715E+04         0.97268E+04         0.00000E+00
    0.97268E+04        -0.87898E+04         0.00000E+00
    0.00000E+00         0.00000E+00        -0.77248E+04
 
   -0.78476E+04         0.94764E+04         0.00000E+00
    0.94764E+04        -0.92287E+04         0.00000E+00
    0.00000E+00         0.00000E+00        -0.75027E+04
 
   -0.72022E+04         0.88126E+04         0.00000E+00
    0.88126E+04        -0.98775E+04         0.00000E+00
    0.00000E+00         0.00000E+00        -0.75867E+04
 
   -0.69020E+04         0.81330E+04         0.00000E+00
    0.81330E+04        -0.10427E+05         0.00000E+00
    0.00000E+00         0.00000E+00        -0.77343E+04
 
   -0.68429E+04         0.75173E+04         0.00000E+00
    0.75173E+04        -0.10743E+05         0.00000E+00
    0.00000E+00         0.00000E+00        -0.78740E+04
 
   -0.69725E+04         0.70274E+04         0.00000E+00
    0.70274E+04        -0.10902E+05         0.00000E+00
    0.00000E+00         0.00000E+00        -0.80124E+04
 
   -0.72243E+04         0.66851E+04         0.00000E+00
    0.66851E+04        -0.10944E+05         0.00000E+00
    0.00000E+00         0.00000E+00        -0.81424E+04
 
   -0.75525E+04         0.64992E+04         0.00000E+00
    0.64992E+04        -0.10903E+05         0.00000E+00
    0.00000E+00         0.00000E+00        -0.82597E+04
 
   -0.79213E+04         0.64787E+04         0.00000E+00
    0.64787E+04        -0.10804E+05         0.00000E+00
    0.00000E+00         0.00000E+00        -0.83613E+04
 
   -0.82959E+04         0.66340E+04         0.00000E+00
    0.66340E+04        -0.10670E+05         0.00000E+00
    0.00000E+00         0.00000E+00        -0.84440E+04
 
   -0.67732E+04        -0.62339E+03         0.00000E+00
   -0.62339E+03         0.10294E+03         0.00000E+00
    0.00000E+00         0.00000E+00        -0.20991E+04
 
   -0.10091E+05        -0.10060E+04         0.00000E+00
   -0.10060E+04         0.43609E+03         0.00000E+00
    0.00000E+00         0.00000E+00        -0.31891E+04
 
   -0.13285E+05        -0.35084E+03         0.00000E+00
   -0.35084E+03         0.71416E+03         0.00000E+00
    0.00000E+00         0.00000E+00        -0.42550E+04
 
   -0.15732E+05         0.10288E+04         0.00000E+00
    0.10288E+04         0.68238E+03         0.00000E+00
    0.00000E+00         0.00000E+00        -0.51855E+04
 
   -0.17174E+05         0.26913E+04         0.00000E+00
    0.26913E+04         0.23718E+03         0.00000E+00
    0.00000E+00         0.00000E+00        -0.59334E+04
 
   -0.17619E+05         0.42975E+04         0.00000E+00
    0.42975E+04        -0.29422E+03         0.00000E+00
    0.00000E+00         0.00000E+00        -0.64019E+04
 
   -0.17312E+05         0.56646E+04         0.00000E+00
    0.56646E+04        -0.98637E+03         0.00000E+00
    0.00000E+00         0.00000E+00        -0.67612E+04
 
   -0.16558E+05         0.67330E+04         0.00000E+00
    0.67330E+04        -0.19681E+04         0.00000E+00
    0.00000E+00         0.00000E+00        -0.71642E+04
 
   -0.15576E+05         0.76286E+04         0.00000E+00
    0.76286E+04        -0.29057E+04         0.00000E+00
    0.00000E+00         0.00000E+00        -0.74017E+04
 
   -0.14468E+05         0.83074E+04         0.00000E+00
    0.83074E+04        -0.37859E+04         0.00000E+00
    0.00000E+00         0.00000E+00        -0.74779E+04
 
   -0.13311E+05         0.87916E+04         0.00000E+00
    0.87916E+04        -0.45649E+04         0.00000E+00
    0.00000E+00         0.00000E+00        -0.74499E+04
 
   -0.12170E+05         0.91149E+04         0.00000E+00
    0.91149E+04        -0.52586E+04         0.00000E+00
    0.00000E+00         0.00000E+00        -0.73366E+04
 
   -0.11070E+05         0.93313E+04         0.00000E+00
    0.93313E+04        -0.59153E+04         0.00000E+00
    0.00000E+00         0.00000E+00        -0.71894E+04
 
   -0.10026E+05         0.93073E+04         0.00000E+00
    0.93073E+04        -0.66562E+04         0.00000E+00
    0.00000E+00         0.00000E+00        -0.71620E+04
 
   -0.90846E+04         0.90787E+04         0.00000E+00
    0.90787E+04        -0.74526E+04         0.00000E+00
    0.00000E+00         0.00000E+00        -0.72185E+04
 
   -0.83460E+04         0.86950E+04         0.00000E+00
    0.86950E+04        -0.82918E+04         0.00000E+00
    0.00000E+00         0.00000E+00        -0.73397E+04
 
   -0.78031E+04         0.82247E+04         0.00000E+00
    0.82247E+04        -0.89583E+04         0.00000E+00
    0.00000E+00         0.00000E+00        -0.74579E+04
 
   -0.74639E+04         0.77226E+04         0.00000E+00
    0.77226E+04        -0.94351E+04         0.00000E+00
    0.00000E+00         0.00000E+00        -0.75703E+04
 
   -0.73266E+04         0.72718E+04         0.00000E+00
    0.72718E+04        -0.97650E+04         0.00000E+00
    0.00000E+00         0.00000E+00        -0.76890E+04
 
   -0.73349E+04         0.69082E+04         0.00000E+00
    0.69082E+04        -0.99622E+04         0.00000E+00
    0.00000E+00         0.00000E+00        -0.78014E+04
 
   -0.74491E+04         0.66593E+04         0.00000E+00
    0.66593E+04        -0.10057E+05         0.00000E+00
    0.00000E+00         0.00000E+00        -0.79047E+04
 
   -0.76288E+04         0.65407E+04         0.00000E+00
    0.65407E+04        -0.10076E+05         0.00000E+00
    0.00000E+00         0.00000E+00        -0.79947E+04
 
   -0.78389E+04         0.65640E+04         0.00000E+00
    0.65640E+04        -0.10043E+05         0.00000E+00
    0.00000E+00         0.00000E+00        -0.80679E+04
 
   -0.80444E+04         0.67393E+04         0.00000E+00
    0.67393E+04        -0.99796E+04         0.00000E+00
    0.00000E+00         0.00000E+00        -0.81206E+04
 
   -0.75502E+04        -0.40595E+03         0.00000E+00
   -0.40595E+03         0.78453E+02         0.00000E+00
    0.00000E+00         0.00000E+00        -0.23383E+04
 
   -0.99474E+04        -0.64828E+03         0.00000E+00
   -0.64828E+03         0.35551E+03         0.00000E+00
    0.00000E+00         0.00000E+00        -0.31665E+04
 
   -0.12357E+05        -0.15553E+03         0.00000E+00
   -0.15553E+03         0.63853E+03         0.00000E+00
    0.00000E+00         0.00000E+00        -0.39933E+04
 
   -0.14336E+05         0.90140E+03         0.00000E+00
    0.90140E+03         0.71945E+03         0.00000E+00
    0.00000E+00         0.00000E+00        -0.47473E+04
 
   -0.15622E+05         0.22695E+04         0.00000E+00
    0.22695E+04         0.53254E+03         0.00000E+00
    0.00000E+00         0.00000E+00        -0.53685E+04
 
   -0.16165E+05         0.36778E+04         0.00000E+00
    0.36778E+04         0.72121E+02         0.00000E+00
    0.00000E+00         0.00000E+00        -0.58431E+04
 
   -0.16113E+05         0.49146E+04         0.00000E+00
    0.49146E+04        -0.54462E+03         0.00000E+00
    0.00000E+00         0.00000E+00        -0.61795E+04
 
   -0.15596E+05         0.59759E+04         0.00000E+00
    0.59759E+04        -0.11020E+04         0.00000E+00
    0.00000E+00         0.00000E+00        -0.63516E+04
 
   -0.14808E+05         0.68513E+04         0.00000E+00
    0.68513E+04        -0.17497E+04         0.00000E+00
    0.00000E+00         0.00000E+00        -0.64617E+04
 
   -0.13889E+05         0.75268E+04         0.00000E+00
    0.75268E+04        -0.24987E+04         0.00000E+00
    0.00000E+00         0.00000E+00        -0.65548E+04
 
   -0.12911E+05         0.80258E+04         0.00000E+00
    0.80258E+04        -0.33208E+04         0.00000E+00
    0.00000E+00         0.00000E+00        -0.66433E+04
 
   -0.11915E+05         0.83369E+04         0.00000E+00
    0.83369E+04        -0.41960E+04         0.00000E+00
    0.00000E+00         0.00000E+00        -0.67340E+04
 
   -0.11003E+05         0.84562E+04         0.00000E+00
    0.84562E+04        -0.51315E+04         0.00000E+00
    0.00000E+00         0.00000E+00        -0.68586E+04
 
   -0.10152E+05         0.84444E+04         0.00000E+00
    0.84444E+04        -0.60178E+04         0.00000E+00
    0.00000E+00         0.00000E+00        -0.69776E+04
 
   -0.93650E+04         0.82824E+04         0.00000E+00
    0.82824E+04        -0.68231E+04         0.00000E+00
    0.00000E+00         0.00000E+00        -0.70816E+04
 
   -0.87113E+04         0.80059E+04         0.00000E+00
    0.80059E+04        -0.75144E+04         0.00000E+00
    0.00000E+00         0.00000E+00        -0.71819E+04
 
   -0.82184E+04         0.76772E+04         0.00000E+00
    0.76772E+04        -0.80971E+04         0.00000E+00
    0.00000E+00         0.00000E+00        -0.72880E+04
 
   -0.78758E+04         0.73281E+04         0.00000E+00
    0.73281E+04        -0.85540E+04         0.00000E+00
    0.00000E+00         0.00000E+00        -0.73916E+04
 
   -0.76766E+04         0.70060E+04         0.00000E+00
    0.70060E+04        -0.88826E+04         0.00000E+00
    0.00000E+00         0.00000E+00        -0.74898E+04
 
   -0.75954E+04         0.67497E+04         0.00000E+00
    0.67497E+04        -0.91041E+04         0.00000E+00
    0.00000E+00         0.00000E+00        -0.75813E+04
 
   -0.75982E+04         0.65836E+04         0.00000E+00
    0.65836E+04        -0.92378E+04         0.00000E+00
    0.00000E+00         0.00000E+00        -0.76617E+04
 
   -0.76528E+04         0.65251E+04         0.00000E+00
    0.65251E+04        -0.93048E+04         0.00000E+00
    0.00000E+00         0.00000E+00        -0.77277E+04
 
   -0.77269E+04         0.65868E+04         0.00000E+00
    0.65868E+04        -0.93260E+04         0.00000E+00
    0.00000E+00         0.00000E+00        -0.77759E+04
 
   -0.77876E+04         0.67779E+04         0.00000E+00
    0.67779E+04        -0.93224E+04         0.00000E+00
    0.00000E+00         0.00000E+00        -0.78028E+04
 
   -0.80321E+04        -0.24140E+03         0.00000E+00
   -0.24140E+03         0.57708E+02         0.00000E+00
    0.00000E+00         0.00000E+00        -0.24878E+04
 
   -0.98059E+04        -0.35034E+03         0.00000E+00
   -0.35034E+03         0.27083E+03         0.00000E+00
    0.00000E+00         0.00000E+00        -0.31455E+04
 
   -0.11643E+05         0.54983E+02         0.00000E+00
    0.54983E+02         0.51033E+03         0.00000E+00
    0.00000E+00         0.00000E+00        -0.38110E+04
 
   -0.13220E+05         0.89290E+03         0.00000E+00
    0.89290E+03         0.62190E+03         0.00000E+00
    0.00000E+00         0.00000E+00        -0.44326E+04
 
   -0.14331E+05         0.19999E+04         0.00000E+00
    0.19999E+04         0.51736E+03         0.00000E+00
    0.00000E+00         0.00000E+00        -0.49745E+04
 
   -0.14909E+05         0.31919E+04         0.00000E+00
    0.31919E+04         0.19197E+03         0.00000E+00
    0.00000E+00         0.00000E+00        -0.54167E+04
 
   -0.14986E+05         0.43314E+04         0.00000E+00
    0.43314E+04        -0.29736E+03         0.00000E+00
    0.00000E+00         0.00000E+00        -0.57512E+04
 
   -0.14663E+05         0.53276E+04         0.00000E+00
    0.53276E+04        -0.91428E+03         0.00000E+00
    0.00000E+00         0.00000E+00        -0.59970E+04
 
   -0.14069E+05         0.61312E+04         0.00000E+00
    0.61312E+04        -0.16020E+04         0.00000E+00
    0.00000E+00         0.00000E+00        -0.61750E+04
 
   -0.13332E+05         0.67497E+04         0.00000E+00
    0.67497E+04        -0.23413E+04         0.00000E+00
    0.00000E+00         0.00000E+00        -0.63172E+04
 
   -0.12526E+05         0.71985E+04         0.00000E+00
    0.71985E+04        -0.31202E+04         0.00000E+00
    0.00000E+00         0.00000E+00        -0.64423E+04
 
   -0.11712E+05         0.74814E+04         0.00000E+00
    0.74814E+04        -0.39240E+04         0.00000E+00
    0.00000E+00         0.00000E+00        -0.65635E+04
 
   -0.10934E+05         0.76214E+04         0.00000E+00
    0.76214E+04        -0.47117E+04         0.00000E+00
    0.00000E+00         0.00000E+00        -0.66818E+04
 
   -0.10207E+05         0.76503E+04         0.00000E+00
    0.76503E+04        -0.54717E+04         0.00000E+00
    0.00000E+00         0.00000E+00        -0.67978E+04
 
   -0.95403E+04         0.75704E+04         0.00000E+00
    0.75704E+04        -0.61793E+04         0.00000E+00
    0.00000E+00         0.00000E+00        -0.69064E+04
 
   -0.89653E+04         0.74003E+04         0.00000E+00
    0.74003E+04        -0.68048E+04         0.00000E+00
    0.00000E+00         0.00000E+00        -0.70084E+04
 
   -0.85043E+04         0.71797E+04         0.00000E+00
    0.71797E+04        -0.73309E+04         0.00000E+00
    0.00000E+00         0.00000E+00        -0.71051E+04
 
   -0.81588E+04         0.69455E+04         0.00000E+00
    0.69455E+04        -0.77563E+04         0.00000E+00
    0.00000E+00         0.00000E+00        -0.71966E+04
 
   -0.79192E+04         0.67302E+04         0.00000E+00
    0.67302E+04        -0.80826E+04         0.00000E+00
    0.00000E+00         0.00000E+00        -0.72804E+04
 
   -0.77679E+04         0.65637E+04         0.00000E+00
    0.65637E+04        -0.83192E+04         0.00000E+00
    0.00000E+00         0.00000E+00        -0.73540E+04
 
   -0.76808E+04         0.64690E+04         0.00000E+00
    0.64690E+04        -0.84819E+04         0.00000E+00
    0.00000E+00         0.00000E+00        -0.74150E+04
 
   -0.76309E+04         0.64627E+04         0.00000E+00
    0.64627E+04        -0.85875E+04         0.00000E+00
    0.00000E+00         0.00000E+00        -0.74604E+04
 
   -0.75899E+04         0.65570E+04         0.00000E+00
    0.65570E+04        -0.86540E+04         0.00000E+00
    0.00000E+00         0.00000E+00        -0.74871E+04
 
   -0.75283E+04         0.67603E+04         0.00000E+00
    0.67603E+04        -0.87003E+04         0.00000E+00
    0.00000E+00         0.00000E+00        -0.74920E+04
 
   -0.82878E+04        -0.12253E+03         0.00000E+00
   -0.12253E+03         0.40558E+02         0.00000E+00
    0.00000E+00         0.00000E+00        -0.25682E+04
 
   -0.96420E+04        -0.12275E+03         0.00000E+00
   -0.12275E+03         0.19472E+03         0.00000E+00
    0.00000E+00         0.00000E+00        -0.31149E+04
 
   -0.11063E+05         0.23513E+03         0.00000E+00
    0.23513E+03         0.37698E+03         0.00000E+00
    0.00000E+00         0.00000E+00        -0.36700E+04
 
   -0.12324E+05         0.91460E+03         0.00000E+00
    0.91460E+03         0.47092E+03         0.00000E+00
    0.00000E+00         0.00000E+00        -0.41995E+04
 
   -0.13267E+05         0.18157E+04         0.00000E+00
    0.18157E+04         0.40401E+03         0.00000E+00
    0.00000E+00         0.00000E+00        -0.46768E+04
 
   -0.13816E+05         0.28160E+04         0.00000E+00
    0.28160E+04         0.15402E+03         0.00000E+00
    0.00000E+00         0.00000E+00        -0.50853E+04
 
   -0.13976E+05         0.38023E+04         0.00000E+00
    0.38023E+04        -0.26539E+03         0.00000E+00
    0.00000E+00         0.00000E+00        -0.54211E+04
 
   -0.13802E+05         0.46903E+04         0.00000E+00
    0.46903E+04        -0.81601E+03         0.00000E+00
    0.00000E+00         0.00000E+00        -0.56891E+04
 
   -0.13385E+05         0.54309E+04         0.00000E+00
    0.54309E+04        -0.14571E+04         0.00000E+00
    0.00000E+00         0.00000E+00        -0.59037E+04
 
   -0.12815E+05         0.60109E+04         0.00000E+00
    0.60109E+04        -0.21493E+04         0.00000E+00
    0.00000E+00         0.00000E+00        -0.60797E+04
 
   -0.12168E+05         0.64374E+04         0.00000E+00
    0.64374E+04        -0.28678E+04         0.00000E+00
    0.00000E+00         0.00000E+00        -0.62317E+04
 
   -0.11495E+05         0.67241E+04         0.00000E+00
    0.67241E+04        -0.35893E+04         0.00000E+00
    0.00000E+00         0.00000E+00        -0.63683E+04
 
   -0.10836E+05         0.68907E+04         0.00000E+00
    0.68907E+04        -0.42945E+04         0.00000E+00
    0.00000E+00         0.00000E+00        -0.64948E+04
 
   -0.10209E+05         0.69573E+04         0.00000E+00
    0.69573E+04        -0.49667E+04         0.00000E+00
    0.00000E+00         0.00000E+00        -0.66120E+04
 
   -0.96314E+04         0.69384E+04         0.00000E+00
    0.69384E+04        -0.55922E+04         0.00000E+00
    0.00000E+00         0.00000E+00        -0.67205E+04
 
   -0.91199E+04         0.68512E+04         0.00000E+00
    0.68512E+04        -0.61527E+04         0.00000E+00
    0.00000E+00         0.00000E+00        -0.68199E+04
 
   -0.86888E+04         0.67218E+04         0.00000E+00
    0.67218E+04        -0.66353E+04         0.00000E+00
    0.00000E+00         0.00000E+00        -0.69106E+04
 
   -0.83415E+04         0.65789E+04         0.00000E+00
    0.65789E+04        -0.70351E+04         0.00000E+00
    0.00000E+00         0.00000E+00        -0.69920E+04
 
   -0.80718E+04         0.64498E+04         0.00000E+00
    0.64498E+04        -0.73546E+04         0.00000E+00
    0.00000E+00         0.00000E+00        -0.70631E+04
 
   -0.78662E+04         0.63583E+04         0.00000E+00
    0.63583E+04        -0.76010E+04         0.00000E+00
    0.00000E+00         0.00000E+00        -0.71220E+04
 
   -0.77062E+04         0.63239E+04         0.00000E+00
    0.63239E+04        -0.77854E+04         0.00000E+00
    0.00000E+00         0.00000E+00        -0.71665E+04
 
   -0.75698E+04         0.63619E+04         0.00000E+00
    0.63619E+04        -0.79219E+04         0.00000E+00
    0.00000E+00         0.00000E+00        -0.71943E+04
 
   -0.74325E+04         0.64834E+04         0.00000E+00
    0.64834E+04        -0.80258E+04         0.00000E+00
    0.00000E+00         0.00000E+00        -0.72028E+04
 
   -0.72685E+04         0.66958E+04         0.00000E+00
    0.66958E+04        -0.81136E+04         0.00000E+00
    0.00000E+00         0.00000E+00        -0.71891E+04
 
   -0.83801E+04        -0.40625E+02         0.00000E+00
   -0.40625E+02         0.27195E+02         0.00000E+00
    0.00000E+00         0.00000E+00        -0.25984E+04
 
   -0.94518E+04         0.39415E+02         0.00000E+00
    0.39415E+02         0.13232E+03         0.00000E+00
    0.00000E+00         0.00000E+00        -0.30720E+04
 
   -0.10575E+05         0.36804E+03         0.00000E+00
    0.36804E+03         0.25824E+03         0.00000E+00
    0.00000E+00         0.00000E+00        -0.35518E+04
 
   -0.11594E+05         0.93291E+03         0.00000E+00
    0.93291E+03         0.32142E+03         0.00000E+00
    0.00000E+00         0.00000E+00        -0.40148E+04
 
   -0.12388E+05         0.16736E+04         0.00000E+00
    0.16736E+04         0.26282E+03         0.00000E+00
    0.00000E+00         0.00000E+00        -0.44422E+04
 
   -0.12892E+05         0.25062E+04         0.00000E+00
    0.25062E+04         0.55273E+02         0.00000E+00
    0.00000E+00         0.00000E+00        -0.48217E+04
 
   -0.13096E+05         0.33460E+04         0.00000E+00
    0.33460E+04        -0.29846E+03         0.00000E+00
    0.00000E+00         0.00000E+00        -0.51483E+04
 
   -0.13029E+05         0.41234E+04         0.00000E+00
    0.41234E+04        -0.77545E+03         0.00000E+00
    0.00000E+00         0.00000E+00        -0.54237E+04
 
   -0.12750E+05         0.47932E+04         0.00000E+00
    0.47932E+04        -0.13414E+04         0.00000E+00
    0.00000E+00         0.00000E+00        -0.56546E+04
 
   -0.12326E+05         0.53356E+04         0.00000E+00
    0.53356E+04        -0.19623E+04         0.00000E+00
    0.00000E+00         0.00000E+00        -0.58499E+04
 
   -0.11814E+05         0.57495E+04         0.00000E+00
    0.57495E+04        -0.26084E+04         0.00000E+00
    0.00000E+00         0.00000E+00        -0.60184E+04
 
   -0.11263E+05         0.60446E+04         0.00000E+00
    0.60446E+04        -0.32569E+04         0.00000E+00
    0.00000E+00         0.00000E+00        -0.61668E+04
 
   -0.10705E+05         0.62363E+04         0.00000E+00
    0.62363E+04        -0.38894E+04         0.00000E+00
    0.00000E+00         0.00000E+00        -0.62996E+04
 
   -0.10165E+05         0.63409E+04         0.00000E+00
    0.63409E+04        -0.44921E+04         0.00000E+00
    0.00000E+00         0.00000E+00        -0.64193E+04
 
   -0.96568E+04         0.63739E+04         0.00000E+00
    0.63739E+04        -0.50526E+04         0.00000E+00
    0.00000E+00         0.00000E+00        -0.65270E+04
 
   -0.91956E+04         0.63523E+04         0.00000E+00
    0.63523E+04        -0.55593E+04         0.00000E+00
    0.00000E+00         0.00000E+00        -0.66231E+04
 
   -0.87901E+04         0.62961E+04         0.00000E+00
    0.62961E+04        -0.60032E+04         0.00000E+00
    0.00000E+00         0.00000E+00        -0.67078E+04
 
   -0.84432E+04         0.62277E+04         0.00000E+00
    0.62277E+04        -0.63805E+04         0.00000E+00
    0.00000E+00         0.00000E+00        -0.67808E+04
 
   -0.81507E+04         0.61689E+04         0.00000E+00
    0.61689E+04        -0.66921E+04         0.00000E+00
    0.00000E+00         0.00000E+00        -0.68410E+04
 
   -0.79024E+04         0.61392E+04         0.00000E+00
    0.61392E+04        -0.69439E+04         0.00000E+00
    0.00000E+00         0.00000E+00        -0.68873E+04
 
   -0.76836E+04         0.61552E+04         0.00000E+00
    0.61552E+04        -0.71446E+04         0.00000E+00
    0.00000E+00         0.00000E+00        -0.69180E+04
 
   -0.74760E+04         0.62301E+04         0.00000E+00
    0.62301E+04        -0.73056E+04         0.00000E+00
    0.00000E+00         0.00000E+00        -0.69310E+04
 
   -0.72590E+04         0.63736E+04         0.00000E+00
    0.63736E+04        -0.74400E+04         0.00000E+00
    0.00000E+00         0.00000E+00        -0.69241E+04
 
   -0.70099E+04         0.65921E+04         0.00000E+00
    0.65921E+04        -0.75620E+04         0.00000E+00
    0.00000E+00         0.00000E+00        -0.68949E+04
 
   -0.83610E+04         0.12948E+02         0.00000E+00
    0.12948E+02         0.17246E+02         0.00000E+00
    0.00000E+00         0.00000E+00        -0.25939E+04
 
   -0.92413E+04         0.14683E+03         0.00000E+00
    0.14683E+03         0.84074E+02         0.00000E+00
    0.00000E+00         0.00000E+00        -0.30184E+04
 
   -0.10153E+05         0.45420E+03         0.00000E+00
    0.45420E+03         0.16243E+03         0.00000E+00
    0.00000E+00         0.00000E+00        -0.34456E+04
 
   -0.10988E+05         0.93413E+03         0.00000E+00
    0.93413E+03         0.19330E+03         0.00000E+00
    0.00000E+00         0.00000E+00        -0.38602E+04
 
   -0.11660E+05         0.15501E+04         0.00000E+00
    0.15501E+04         0.13103E+03         0.00000E+00
    0.00000E+00         0.00000E+00        -0.42491E+04
 
   -0.12116E+05         0.22451E+04         0.00000E+00
    0.22451E+04        -0.49084E+02         0.00000E+00
    0.00000E+00         0.00000E+00        -0.46029E+04
 
   -0.12339E+05         0.29574E+04         0.00000E+00
    0.29574E+04        -0.35028E+03         0.00000E+00
    0.00000E+00         0.00000E+00        -0.49168E+04
 
   -0.12345E+05         0.36328E+04         0.00000E+00
    0.36328E+04        -0.75836E+03         0.00000E+00
    0.00000E+00         0.00000E+00        -0.51905E+04
 
   -0.12171E+05         0.42324E+04         0.00000E+00
    0.42324E+04        -0.12487E+04         0.00000E+00
    0.00000E+00         0.00000E+00        -0.54271E+04
 
   -0.11861E+05         0.47350E+04         0.00000E+00
    0.47350E+04        -0.17932E+04         0.00000E+00
    0.00000E+00         0.00000E+00        -0.56314E+04
 
   -0.11463E+05         0.51347E+04         0.00000E+00
    0.51347E+04        -0.23654E+04         0.00000E+00
    0.00000E+00         0.00000E+00        -0.58089E+04
 
   -0.11014E+05         0.54358E+04         0.00000E+00
    0.54358E+04        -0.29435E+04         0.00000E+00
    0.00000E+00         0.00000E+00        -0.59643E+04
 
   -0.10545E+05         0.56488E+04         0.00000E+00
    0.56488E+04        -0.35102E+04         0.00000E+00
    0.00000E+00         0.00000E+00        -0.61013E+04
 
   -0.10078E+05         0.57871E+04         0.00000E+00
    0.57871E+04        -0.40519E+04         0.00000E+00
    0.00000E+00         0.00000E+00        -0.62223E+04
 
   -0.96282E+04         0.58645E+04         0.00000E+00
    0.58645E+04        -0.45579E+04         0.00000E+00
    0.00000E+00         0.00000E+00        -0.63287E+04
 
   -0.92080E+04         0.58963E+04         0.00000E+00
    0.58963E+04        -0.50193E+04         0.00000E+00
    0.00000E+00         0.00000E+00        -0.64213E+04
 
   -0.88242E+04         0.58993E+04         0.00000E+00
    0.58993E+04        -0.54296E+04         0.00000E+00
    0.00000E+00         0.00000E+00        -0.65004E+04
 
   -0.84790E+04         0.58913E+04         0.00000E+00
    0.58913E+04        -0.57860E+04         0.00000E+00
    0.00000E+00         0.00000E+00        -0.65657E+04
 
   -0.81693E+04         0.58898E+04         0.00000E+00
    0.58898E+04        -0.60891E+04         0.00000E+00
    0.00000E+00         0.00000E+00        -0.66167E+04
 
   -0.78874E+04         0.59108E+04         0.00000E+00
    0.59108E+04        -0.63434E+04         0.00000E+00
    0.00000E+00         0.00000E+00        -0.66523E+04
 
   -0.76211E+04         0.59682E+04         0.00000E+00
    0.59682E+04        -0.65559E+04         0.00000E+00
    0.00000E+00         0.00000E+00        -0.66712E+04
 
   -0.73555E+04         0.60732E+04         0.00000E+00
    0.60732E+04        -0.67361E+04         0.00000E+00
    0.00000E+00         0.00000E+00        -0.66717E+04
 
   -0.70730E+04         0.62341E+04         0.00000E+00
    0.62341E+04        -0.68950E+04         0.00000E+00
    0.00000E+00         0.00000E+00        -0.66520E+04
 
   -0.67541E+04         0.64564E+04         0.00000E+00
    0.64564E+04        -0.70450E+04         0.00000E+00
    0.00000E+00         0.00000E+00        -0.66100E+04
 
   -0.82707E+04         0.45698E+02         0.00000E+00
    0.45698E+02         0.10107E+02         0.00000E+00
    0.00000E+00         0.00000E+00        -0.25672E+04
 
   -0.90192E+04         0.21170E+03         0.00000E+00
    0.21170E+03         0.48582E+02         0.00000E+00
    0.00000E+00         0.00000E+00        -0.29571E+04
 
   -0.97785E+04         0.50052E+03         0.00000E+00
    0.50052E+03         0.89778E+02         0.00000E+00
    0.00000E+00         0.00000E+00        -0.33465E+04
 
   -0.10477E+05         0.91560E+03         0.00000E+00
    0.91560E+03         0.92802E+02         0.00000E+00
    0.00000E+00         0.00000E+00        -0.37251E+04
 
   -0.11051E+05         0.14348E+04         0.00000E+00
    0.14348E+04         0.23729E+02         0.00000E+00
    0.00000E+00         0.00000E+00        -0.40836E+04
 
   -0.11461E+05         0.20197E+04         0.00000E+00
    0.20197E+04        -0.13799E+03         0.00000E+00
    0.00000E+00         0.00000E+00        -0.44150E+04
 
   -0.11690E+05         0.26258E+04         0.00000E+00
    0.26258E+04        -0.39764E+03         0.00000E+00
    0.00000E+00         0.00000E+00        -0.47150E+04
 
   -0.11744E+05         0.32119E+04         0.00000E+00
    0.32119E+04        -0.74717E+03         0.00000E+00
    0.00000E+00         0.00000E+00        -0.49824E+04
 
   -0.11644E+05         0.37461E+04         0.00000E+00
    0.37461E+04        -0.11693E+04         0.00000E+00
    0.00000E+00         0.00000E+00        -0.52182E+04
 
   -0.11424E+05         0.42085E+04         0.00000E+00
    0.42085E+04        -0.16423E+04         0.00000E+00
    0.00000E+00         0.00000E+00        -0.54250E+04
 
   -0.11117E+05         0.45906E+04         0.00000E+00
    0.45906E+04        -0.21445E+04         0.00000E+00
    0.00000E+00         0.00000E+00        -0.56060E+04
 
   -0.10753E+05         0.48930E+04         0.00000E+00
    0.48930E+04        -0.26564E+04         0.00000E+00
    0.00000E+00         0.00000E+00        -0.57644E+04
 
   -0.10359E+05         0.51221E+04         0.00000E+00
    0.51221E+04        -0.31622E+04         0.00000E+00
    0.00000E+00         0.00000E+00        -0.59031E+04
 
   -0.99550E+04         0.52878E+04         0.00000E+00
    0.52878E+04        -0.36490E+04         0.00000E+00
    0.00000E+00         0.00000E+00        -0.60239E+04
 
   -0.95548E+04         0.54019E+04         0.00000E+00
    0.54019E+04        -0.41071E+04         0.00000E+00
    0.00000E+00         0.00000E+00        -0.61284E+04
 
   -0.91690E+04         0.54775E+04         0.00000E+00
    0.54775E+04        -0.45290E+04         0.00000E+00
    0.00000E+00         0.00000E+00        -0.62173E+04
 
   -0.88038E+04         0.55284E+04         0.00000E+00
    0.55284E+04        -0.49096E+04         0.00000E+00
    0.00000E+00         0.00000E+00        -0.62910E+04
 
   -0.84612E+04         0.55692E+04         0.00000E+00
    0.55692E+04        -0.52466E+04         0.00000E+00
    0.00000E+00         0.00000E+00        -0.63495E+04
 
   -0.81388E+04         0.56141E+04         0.00000E+00
    0.56141E+04        -0.55407E+04         0.00000E+00
    0.00000E+00         0.00000E+00        -0.63923E+04
 
   -0.78304E+04         0.56764E+04         0.00000E+00
    0.56764E+04        -0.57952E+04         0.00000E+00
    0.00000E+00         0.00000E+00        -0.64187E+04
 
   -0.75262E+04         0.57674E+04         0.00000E+00
    0.57674E+04        -0.60160E+04         0.00000E+00
    0.00000E+00         0.00000E+00        -0.64276E+04
 
   -0.72137E+04         0.58966E+04         0.00000E+00
    0.58966E+04        -0.62109E+04         0.00000E+00
    0.00000E+00         0.00000E+00        -0.64176E+04
 
   -0.68780E+04         0.60709E+04         0.00000E+00
    0.60709E+04        -0.63894E+04         0.00000E+00
    0.00000E+00         0.00000E+00        -0.63873E+04
 
   -0.65025E+04         0.62945E+04         0.00000E+00
    0.62945E+04        -0.65618E+04         0.00000E+00
    0.00000E+00         0.00000E+00        -0.63347E+04
 
   -0.81390E+04         0.63722E+02         0.00000E+00
    0.63722E+02         0.51657E+01         0.00000E+00
    0.00000E+00         0.00000E+00        -0.25273E+04
 
   -0.87940E+04         0.24522E+03         0.00000E+00
    0.24522E+03         0.23522E+02         0.00000E+00
    0.00000E+00         0.00000E+00        -0.28914E+04
 
   -0.94433E+04         0.51583E+03         0.00000E+00
    0.51583E+03         0.37431E+02         0.00000E+00
    0.00000E+00         0.00000E+00        -0.32525E+04
 
   -0.10039E+05         0.87986E+03         0.00000E+00
    0.87986E+03         0.19024E+02         0.00000E+00
    0.00000E+00         0.00000E+00        -0.36033E+04
 
   -0.10537E+05         0.13237E+04         0.00000E+00
    0.13237E+04        -0.56260E+02         0.00000E+00
    0.00000E+00         0.00000E+00        -0.39373E+04
 
   -0.10906E+05         0.18211E+04         0.00000E+00
    0.18211E+04        -0.20455E+03         0.00000E+00
    0.00000E+00         0.00000E+00        -0.42491E+04
 
   -0.11132E+05         0.23405E+04         0.00000E+00
    0.23405E+04        -0.43146E+03         0.00000E+00
    0.00000E+00         0.00000E+00        -0.45352E+04
 
   -0.11215E+05         0.28507E+04         0.00000E+00
    0.28507E+04        -0.73265E+03         0.00000E+00
    0.00000E+00         0.00000E+00        -0.47939E+04
 
   -0.11169E+05         0.33264E+04         0.00000E+00
    0.33264E+04        -0.10963E+04         0.00000E+00
    0.00000E+00         0.00000E+00        -0.50252E+04
 
   -0.11016E+05         0.37499E+04         0.00000E+00
    0.37499E+04        -0.15062E+04         0.00000E+00
    0.00000E+00         0.00000E+00        -0.52303E+04
 
   -0.10780E+05         0.41122E+04         0.00000E+00
    0.41122E+04        -0.19451E+04         0.00000E+00
    0.00000E+00         0.00000E+00        -0.54109E+04
 
   -0.10486E+05         0.44113E+04         0.00000E+00
    0.44113E+04        -0.23966E+04         0.00000E+00
    0.00000E+00         0.00000E+00        -0.55693E+04
 
   -0.10155E+05         0.46508E+04         0.00000E+00
    0.46508E+04        -0.28466E+04         0.00000E+00
    0.00000E+00         0.00000E+00        -0.57074E+04
 
   -0.98035E+04         0.48375E+04         0.00000E+00
    0.48375E+04        -0.32837E+04         0.00000E+00
    0.00000E+00         0.00000E+00        -0.58266E+04
 
   -0.94449E+04         0.49809E+04         0.00000E+00
    0.49809E+04        -0.36988E+04         0.00000E+00
    0.00000E+00         0.00000E+00        -0.59283E+04
 
   -0.90884E+04         0.50915E+04         0.00000E+00
    0.50915E+04        -0.40854E+04         0.00000E+00
    0.00000E+00         0.00000E+00        -0.60133E+04
 
   -0.87396E+04         0.51809E+04         0.00000E+00
    0.51809E+04        -0.44392E+04         0.00000E+00
    0.00000E+00         0.00000E+00        -0.60818E+04
 
   -0.84002E+04         0.52610E+04         0.00000E+00
    0.52610E+04        -0.47581E+04         0.00000E+00
    0.00000E+00         0.00000E+00        -0.61340E+04
 
   -0.80684E+04         0.53433E+04         0.00000E+00
    0.53433E+04        -0.50426E+04         0.00000E+00
    0.00000E+00         0.00000E+00        -0.61696E+04
 
   -0.77394E+04         0.54387E+04         0.00000E+00
    0.54387E+04        -0.52956E+04         0.00000E+00
    0.00000E+00         0.00000E+00        -0.61880E+04
 
   -0.74052E+04         0.55566E+04         0.00000E+00
    0.55566E+04        -0.55218E+04         0.00000E+00
    0.00000E+00         0.00000E+00        -0.61884E+04
 
   -0.70552E+04         0.57047E+04         0.00000E+00
    0.57047E+04        -0.57277E+04         0.00000E+00
    0.00000E+00         0.00000E+00        -0.61697E+04
 
   -0.66769E+04         0.58886E+04         0.00000E+00
    0.58886E+04        -0.59213E+04         0.00000E+00
    0.00000E+00         0.00000E+00        -0.61306E+04
 
   -0.62562E+04         0.61118E+04         0.00000E+00
    0.61118E+04        -0.61115E+04         0.00000E+00
    0.00000E+00         0.00000E+00        -0.60696E+04
 
   -0.79870E+04         0.71696E+02         0.00000E+00
    0.71696E+02         0.18661E+01         0.00000E+00
    0.00000E+00         0.00000E+00        -0.24807E+04
 
   -0.85729E+04         0.25670E+03         0.00000E+00
    0.25670E+03         0.65364E+01         0.00000E+00
    0.00000E+00         0.00000E+00        -0.28243E+04
 
   -0.91408E+04         0.50868E+03         0.00000E+00
    0.50868E+03         0.14984E+01         0.00000E+00
    0.00000E+00         0.00000E+00        -0.31629E+04
 
   -0.96587E+04         0.83119E+03         0.00000E+00
    0.83119E+03        -0.31999E+02         0.00000E+00
    0.00000E+00         0.00000E+00        -0.34914E+04
 
   -0.10096E+05         0.12154E+04         0.00000E+00
    0.12154E+04        -0.11138E+03         0.00000E+00
    0.00000E+00         0.00000E+00        -0.38050E+04
 
   -0.10430E+05         0.16434E+04         0.00000E+00
    0.16434E+04        -0.24885E+03         0.00000E+00
    0.00000E+00         0.00000E+00        -0.40996E+04
 
   -0.10648E+05         0.20924E+04         0.00000E+00
    0.20924E+04        -0.44947E+03         0.00000E+00
    0.00000E+00         0.00000E+00        -0.43722E+04
 
   -0.10749E+05         0.25392E+04         0.00000E+00
    0.25392E+04        -0.71109E+03         0.00000E+00
    0.00000E+00         0.00000E+00        -0.46211E+04
 
   -0.10740E+05         0.29636E+04         0.00000E+00
    0.29636E+04        -0.10257E+04         0.00000E+00
    0.00000E+00         0.00000E+00        -0.48457E+04
 
   -0.10637E+05         0.33510E+04         0.00000E+00
    0.33510E+04        -0.13814E+04         0.00000E+00
    0.00000E+00         0.00000E+00        -0.50464E+04
 
   -0.10456E+05         0.36926E+04         0.00000E+00
    0.36926E+04        -0.17647E+04         0.00000E+00
    0.00000E+00         0.00000E+00        -0.52241E+04
 
   -0.10218E+05         0.39850E+04         0.00000E+00
    0.39850E+04        -0.21623E+04         0.00000E+00
    0.00000E+00         0.00000E+00        -0.53801E+04
 
   -0.99374E+04         0.42298E+04         0.00000E+00
    0.42298E+04        -0.25623E+04         0.00000E+00
    0.00000E+00         0.00000E+00        -0.55158E+04
 
   -0.96298E+04         0.44315E+04         0.00000E+00
    0.44315E+04        -0.29544E+04         0.00000E+00
    0.00000E+00         0.00000E+00        -0.56323E+04
 
   -0.93063E+04         0.45972E+04         0.00000E+00
    0.45972E+04        -0.33308E+04         0.00000E+00
    0.00000E+00         0.00000E+00        -0.57305E+04
 
   -0.89748E+04         0.47353E+04         0.00000E+00
    0.47353E+04        -0.36854E+04         0.00000E+00
    0.00000E+00         0.00000E+00        -0.58111E+04
 
   -0.86403E+04         0.48551E+04         0.00000E+00
    0.48551E+04        -0.40145E+04         0.00000E+00
    0.00000E+00         0.00000E+00        -0.58746E+04
 
   -0.83046E+04         0.49663E+04         0.00000E+00
    0.49663E+04        -0.43163E+04         0.00000E+00
    0.00000E+00         0.00000E+00        -0.59210E+04
 
   -0.79663E+04         0.50783E+04         0.00000E+00
    0.50783E+04        -0.45911E+04         0.00000E+00
    0.00000E+00         0.00000E+00        -0.59502E+04
 
   -0.76216E+04         0.51999E+04         0.00000E+00
    0.51999E+04        -0.48412E+04         0.00000E+00
    0.00000E+00         0.00000E+00        -0.59617E+04
 
   -0.72638E+04         0.53388E+04         0.00000E+00
    0.53388E+04        -0.50703E+04         0.00000E+00
    0.00000E+00         0.00000E+00        -0.59550E+04
 
   -0.68843E+04         0.55012E+04         0.00000E+00
    0.55012E+04        -0.52841E+04         0.00000E+00
    0.00000E+00         0.00000E+00        -0.59290E+04
 
   -0.64724E+04         0.56916E+04         0.00000E+00
    0.56916E+04        -0.54892E+04         0.00000E+00
    0.00000E+00         0.00000E+00        -0.58827E+04
 
   -0.60162E+04         0.59126E+04         0.00000E+00
    0.59126E+04        -0.56931E+04         0.00000E+00
    0.00000E+00         0.00000E+00        -0.58149E+04
 
   -0.78291E+04         0.73077E+02         0.00000E+00
    0.73077E+02        -0.24579E+00         0.00000E+00
    0.00000E+00         0.00000E+00        -0.24319E+04
 
   -0.83611E+04         0.25339E+03         0.00000E+00
    0.25339E+03        -0.44475E+01         0.00000E+00
    0.00000E+00         0.00000E+00        -0.27579E+04
 
   -0.88669E+04         0.48629E+03         0.00000E+00
    0.48629E+03        -0.21857E+02         0.00000E+00
    0.00000E+00         0.00000E+00        -0.30777E+04
 
   -0.93251E+04         0.77400E+03         0.00000E+00
    0.77400E+03        -0.64976E+02         0.00000E+00
    0.00000E+00         0.00000E+00        -0.33874E+04
 
   -0.97144E+04         0.11104E+04         0.00000E+00
    0.11104E+04        -0.14598E+03         0.00000E+00
    0.00000E+00         0.00000E+00        -0.36835E+04
 
   -0.10018E+05         0.14828E+04         0.00000E+00
    0.14828E+04        -0.27386E+03         0.00000E+00
    0.00000E+00         0.00000E+00        -0.39626E+04
 
   -0.10226E+05         0.18746E+04         0.00000E+00
    0.18746E+04        -0.45282E+03         0.00000E+00
    0.00000E+00         0.00000E+00        -0.42224E+04
 
   -0.10336E+05         0.22686E+04         0.00000E+00
    0.22686E+04        -0.68188E+03         0.00000E+00
    0.00000E+00         0.00000E+00        -0.44610E+04
 
   -0.10352E+05         0.26490E+04         0.00000E+00
    0.26490E+04        -0.95558E+03         0.00000E+00
    0.00000E+00         0.00000E+00        -0.46778E+04
 
   -0.10285E+05         0.30037E+04         0.00000E+00
    0.30037E+04        -0.12653E+04         0.00000E+00
    0.00000E+00         0.00000E+00        -0.48724E+04
 
   -0.10147E+05         0.33245E+04         0.00000E+00
    0.33245E+04        -0.16007E+04         0.00000E+00
    0.00000E+00         0.00000E+00        -0.50454E+04
 
   -0.99512E+04         0.36080E+04         0.00000E+00
    0.36080E+04        -0.19511E+04         0.00000E+00
    0.00000E+00         0.00000E+00        -0.51975E+04
 
   -0.97118E+04         0.38539E+04         0.00000E+00
    0.38539E+04        -0.23066E+04         0.00000E+00
    0.00000E+00         0.00000E+00        -0.53295E+04
 
   -0.94402E+04         0.40653E+04         0.00000E+00
    0.40653E+04        -0.26586E+04         0.00000E+00
    0.00000E+00         0.00000E+00        -0.54422E+04
 
   -0.91457E+04         0.42472E+04         0.00000E+00
    0.42472E+04        -0.30000E+04         0.00000E+00
    0.00000E+00         0.00000E+00        -0.55363E+04
 
   -0.88354E+04         0.44061E+04         0.00000E+00
    0.44061E+04        -0.33256E+04         0.00000E+00
    0.00000E+00         0.00000E+00        -0.56125E+04
 
   -0.85135E+04         0.45494E+04         0.00000E+00
    0.45494E+04        -0.36321E+04         0.00000E+00
    0.00000E+00         0.00000E+00        -0.56710E+04
 
   -0.81818E+04         0.46848E+04         0.00000E+00
    0.46848E+04        -0.39177E+04         0.00000E+00
    0.00000E+00         0.00000E+00        -0.57120E+04
 
   -0.78392E+04         0.48199E+04         0.00000E+00
    0.48199E+04        -0.41826E+04         0.00000E+00
    0.00000E+00         0.00000E+00        -0.57354E+04
 
   -0.74828E+04         0.49617E+04         0.00000E+00
    0.49617E+04        -0.44285E+04         0.00000E+00
    0.00000E+00         0.00000E+00        -0.57409E+04
 
   -0.71069E+04         0.51166E+04         0.00000E+00
    0.51166E+04        -0.46587E+04         0.00000E+00
    0.00000E+00         0.00000E+00        -0.57280E+04
 
   -0.67045E+04         0.52893E+04         0.00000E+00
    0.52893E+04        -0.48778E+04         0.00000E+00
    0.00000E+00         0.00000E+00        -0.56960E+04
 
   -0.62667E+04         0.54835E+04         0.00000E+00
    0.54835E+04        -0.50912E+04         0.00000E+00
    0.00000E+00         0.00000E+00        -0.56439E+04
 
   -0.57833E+04         0.57009E+04         0.00000E+00
    0.57009E+04        -0.53054E+04         0.00000E+00
    0.00000E+00         0.00000E+00        -0.55708E+04
 
   -0.76746E+04         0.70342E+02         0.00000E+00
    0.70342E+02        -0.15212E+01         0.00000E+00
    0.00000E+00         0.00000E+00        -0.23838E+04
 
   -0.81623E+04         0.24074E+03         0.00000E+00
    0.24074E+03        -0.11112E+02         0.00000E+00
    0.00000E+00         0.00000E+00        -0.26940E+04
 
   -0.86188E+04         0.45443E+03         0.00000E+00
    0.45443E+03        -0.35947E+02         0.00000E+00
    0.00000E+00         0.00000E+00        -0.29971E+04
 
   -0.90296E+04         0.71221E+03         0.00000E+00
    0.71221E+03        -0.84329E+02         0.00000E+00
    0.00000E+00         0.00000E+00        -0.32904E+04
 
   -0.93800E+04         0.10094E+04         0.00000E+00
    0.10094E+04        -0.16468E+03         0.00000E+00
    0.00000E+00         0.00000E+00        -0.35709E+04
 
   -0.96576E+04         0.13367E+04         0.00000E+00
    0.13367E+04        -0.28349E+03         0.00000E+00
    0.00000E+00         0.00000E+00        -0.38360E+04
 
   -0.98545E+04         0.16820E+04         0.00000E+00
    0.16820E+04        -0.44406E+03         0.00000E+00
    0.00000E+00         0.00000E+00        -0.40835E+04
 
   -0.99680E+04         0.20320E+04         0.00000E+00
    0.20320E+04        -0.64599E+03         0.00000E+00
    0.00000E+00         0.00000E+00        -0.43118E+04
 
   -0.10001E+05         0.23747E+04         0.00000E+00
    0.23747E+04        -0.88557E+03         0.00000E+00
    0.00000E+00         0.00000E+00        -0.45200E+04
 
   -0.99590E+04         0.27001E+04         0.00000E+00
    0.27001E+04        -0.11565E+04         0.00000E+00
    0.00000E+00         0.00000E+00        -0.47077E+04
 
   -0.98518E+04         0.30011E+04         0.00000E+00
    0.30011E+04        -0.14509E+04         0.00000E+00
    0.00000E+00         0.00000E+00        -0.48748E+04
 
   -0.96896E+04         0.32741E+04         0.00000E+00
    0.32741E+04        -0.17604E+04         0.00000E+00
    0.00000E+00         0.00000E+00        -0.50218E+04
 
   -0.94825E+04         0.35181E+04         0.00000E+00
    0.35181E+04        -0.20769E+04         0.00000E+00
    0.00000E+00         0.00000E+00        -0.51491E+04
 
   -0.92398E+04         0.37347E+04         0.00000E+00
    0.37347E+04        -0.23933E+04         0.00000E+00
    0.00000E+00         0.00000E+00        -0.52574E+04
 
   -0.89693E+04         0.39276E+04         0.00000E+00
    0.39276E+04        -0.27034E+04         0.00000E+00
    0.00000E+00         0.00000E+00        -0.53470E+04
 
   -0.86767E+04         0.41016E+04         0.00000E+00
    0.41016E+04        -0.30028E+04         0.00000E+00
    0.00000E+00         0.00000E+00        -0.54185E+04
 
   -0.83658E+04         0.42624E+04         0.00000E+00
    0.42624E+04        -0.32884E+04         0.00000E+00
    0.00000E+00         0.00000E+00        -0.54721E+04
 
   -0.80381E+04         0.44161E+04         0.00000E+00
    0.44161E+04        -0.35587E+04         0.00000E+00
    0.00000E+00         0.00000E+00        -0.55080E+04
 
   -0.76930E+04         0.45686E+04         0.00000E+00
    0.45686E+04        -0.38137E+04         0.00000E+00
    0.00000E+00         0.00000E+00        -0.55262E+04
 
   -0.73281E+04         0.47256E+04         0.00000E+00
    0.47256E+04        -0.40547E+04         0.00000E+00
    0.00000E+00         0.00000E+00        -0.55265E+04
 
   -0.69388E+04         0.48920E+04         0.00000E+00
    0.48920E+04        -0.42843E+04         0.00000E+00
    0.00000E+00         0.00000E+00        -0.55084E+04
 
   -0.65191E+04         0.50717E+04         0.00000E+00
    0.50717E+04        -0.45063E+04         0.00000E+00
    0.00000E+00         0.00000E+00        -0.54714E+04
 
   -0.60617E+04         0.52673E+04         0.00000E+00
    0.52673E+04        -0.47255E+04         0.00000E+00
    0.00000E+00         0.00000E+00        -0.54147E+04
 
   -0.55581E+04         0.54799E+04         0.00000E+00
    0.54799E+04        -0.49471E+04         0.00000E+00
    0.00000E+00         0.00000E+00        -0.53375E+04
 
   -0.75292E+04         0.65222E+02         0.00000E+00
    0.65222E+02        -0.22217E+01         0.00000E+00
    0.00000E+00         0.00000E+00        -0.23382E+04
 
   -0.79785E+04         0.22270E+03         0.00000E+00
    0.22270E+03        -0.14753E+02         0.00000E+00
    0.00000E+00         0.00000E+00        -0.26335E+04
 
   -0.83942E+04         0.41741E+03         0.00000E+00
    0.41741E+03        -0.43432E+02         0.00000E+00
    0.00000E+00         0.00000E+00        -0.29215E+04
 
   -0.87664E+04         0.64897E+03         0.00000E+00
    0.64897E+03        -0.93793E+02         0.00000E+00
    0.00000E+00         0.00000E+00        -0.31999E+04
 
   -0.90845E+04         0.91341E+03         0.00000E+00
    0.91341E+03        -0.17164E+03         0.00000E+00
    0.00000E+00         0.00000E+00        -0.34662E+04
 
   -0.93393E+04         0.12037E+04         0.00000E+00
    0.12037E+04        -0.28159E+03         0.00000E+00
    0.00000E+00         0.00000E+00        -0.37181E+04
 
   -0.95246E+04         0.15105E+04         0.00000E+00
    0.15105E+04        -0.42613E+03         0.00000E+00
    0.00000E+00         0.00000E+00        -0.39539E+04
 
   -0.96380E+04         0.18239E+04         0.00000E+00
    0.18239E+04        -0.60515E+03         0.00000E+00
    0.00000E+00         0.00000E+00        -0.41720E+04
 
   -0.96806E+04         0.21343E+04         0.00000E+00
    0.21343E+04        -0.81605E+03         0.00000E+00
    0.00000E+00         0.00000E+00        -0.43713E+04
 
   -0.96565E+04         0.24336E+04         0.00000E+00
    0.24336E+04        -0.10542E+04         0.00000E+00
    0.00000E+00         0.00000E+00        -0.45514E+04
 
   -0.95721E+04         0.27160E+04         0.00000E+00
    0.27160E+04        -0.13137E+04         0.00000E+00
    0.00000E+00         0.00000E+00        -0.47120E+04
 
   -0.94350E+04         0.29776E+04         0.00000E+00
    0.29776E+04        -0.15880E+04         0.00000E+00
    0.00000E+00         0.00000E+00        -0.48532E+04
 
   -0.92529E+04         0.32173E+04         0.00000E+00
    0.32173E+04        -0.18706E+04         0.00000E+00
    0.00000E+00         0.00000E+00        -0.49753E+04
 
   -0.90331E+04         0.34358E+04         0.00000E+00
    0.34358E+04        -0.21556E+04         0.00000E+00
    0.00000E+00         0.00000E+00        -0.50785E+04
 
   -0.87819E+04         0.36354E+04         0.00000E+00
    0.36354E+04        -0.24379E+04         0.00000E+00
    0.00000E+00         0.00000E+00        -0.51633E+04
 
   -0.85040E+04         0.38197E+04         0.00000E+00
    0.38197E+04        -0.27137E+04         0.00000E+00
    0.00000E+00         0.00000E+00        -0.52301E+04
 
   -0.82026E+04         0.39929E+04         0.00000E+00
    0.39929E+04        -0.29802E+04         0.00000E+00
    0.00000E+00         0.00000E+00        -0.52789E+04
 
   -0.78789E+04         0.41597E+04         0.00000E+00
    0.41597E+04        -0.32360E+04         0.00000E+00
    0.00000E+00         0.00000E+00        -0.53101E+04
 
   -0.75327E+04         0.43248E+04         0.00000E+00
    0.43248E+04        -0.34811E+04         0.00000E+00
    0.00000E+00         0.00000E+00        -0.53236E+04
 
   -0.71619E+04         0.44926E+04         0.00000E+00
    0.44926E+04        -0.37165E+04         0.00000E+00
    0.00000E+00         0.00000E+00        -0.53192E+04
 
   -0.67629E+04         0.46669E+04         0.00000E+00
    0.46669E+04        -0.39443E+04         0.00000E+00
    0.00000E+00         0.00000E+00        -0.52967E+04
 
   -0.63307E+04         0.48506E+04         0.00000E+00
    0.48506E+04        -0.41677E+04         0.00000E+00
    0.00000E+00         0.00000E+00        -0.52555E+04
 
   -0.58592E+04         0.50455E+04         0.00000E+00
    0.50455E+04        -0.43904E+04         0.00000E+00
    0.00000E+00         0.00000E+00        -0.51952E+04
 
   -0.53413E+04         0.52523E+04         0.00000E+00
    0.52523E+04        -0.46169E+04         0.00000E+00
    0.00000E+00         0.00000E+00        -0.51150E+04
 
   -0.73959E+04         0.58893E+02         0.00000E+00
    0.58893E+02        -0.25370E+01         0.00000E+00
    0.00000E+00         0.00000E+00        -0.22961E+04
 
   -0.78106E+04         0.20201E+03         0.00000E+00
    0.20201E+03        -0.16337E+02         0.00000E+00
    0.00000E+00         0.00000E+00        -0.25771E+04
 
   -0.81913E+04         0.37836E+03         0.00000E+00
    0.37836E+03        -0.46355E+02         0.00000E+00
    0.00000E+00         0.00000E+00        -0.28509E+04
 
   -0.85308E+04         0.58662E+03         0.00000E+00
    0.58662E+03        -0.96345E+02         0.00000E+00
    0.00000E+00         0.00000E+00        -0.31153E+04
 
   -0.88212E+04         0.82321E+03         0.00000E+00
    0.82321E+03        -0.17031E+03         0.00000E+00
    0.00000E+00         0.00000E+00        -0.33684E+04
 
   -0.90558E+04         0.10825E+04         0.00000E+00
    0.10825E+04        -0.27154E+03         0.00000E+00
    0.00000E+00         0.00000E+00        -0.36081E+04
 
   -0.92295E+04         0.13572E+04         0.00000E+00
    0.13572E+04        -0.40184E+03         0.00000E+00
    0.00000E+00         0.00000E+00        -0.38326E+04
 
   -0.93401E+04         0.16397E+04         0.00000E+00
    0.16397E+04        -0.56121E+03         0.00000E+00
    0.00000E+00         0.00000E+00        -0.40406E+04
 
   -0.93878E+04         0.19224E+04         0.00000E+00
    0.19224E+04        -0.74781E+03         0.00000E+00
    0.00000E+00         0.00000E+00        -0.42310E+04
 
   -0.93754E+04         0.21987E+04         0.00000E+00
    0.21987E+04        -0.95826E+03         0.00000E+00
    0.00000E+00         0.00000E+00        -0.44033E+04
 
   -0.93071E+04         0.24635E+04         0.00000E+00
    0.24635E+04        -0.11881E+04         0.00000E+00
    0.00000E+00         0.00000E+00        -0.45569E+04
 
   -0.91885E+04         0.27136E+04         0.00000E+00
    0.27136E+04        -0.14321E+04         0.00000E+00
    0.00000E+00         0.00000E+00        -0.46919E+04
 
   -0.90255E+04         0.29473E+04         0.00000E+00
    0.29473E+04        -0.16853E+04         0.00000E+00
    0.00000E+00         0.00000E+00        -0.48083E+04
 
   -0.88236E+04         0.31649E+04         0.00000E+00
    0.31649E+04        -0.19428E+04         0.00000E+00
    0.00000E+00         0.00000E+00        -0.49062E+04
 
   -0.85879E+04         0.33677E+04         0.00000E+00
    0.33677E+04        -0.22005E+04         0.00000E+00
    0.00000E+00         0.00000E+00        -0.49861E+04
 
   -0.83220E+04         0.35581E+04         0.00000E+00
    0.35581E+04        -0.24550E+04         0.00000E+00
    0.00000E+00         0.00000E+00        -0.50480E+04
 
   -0.80286E+04         0.37394E+04         0.00000E+00
    0.37394E+04        -0.27041E+04         0.00000E+00
    0.00000E+00         0.00000E+00        -0.50922E+04
 
   -0.77089E+04         0.39151E+04         0.00000E+00
    0.39151E+04        -0.29465E+04         0.00000E+00
    0.00000E+00         0.00000E+00        -0.51189E+04
 
   -0.73626E+04         0.40887E+04         0.00000E+00
    0.40887E+04        -0.31819E+04         0.00000E+00
    0.00000E+00         0.00000E+00        -0.51281E+04
 
   -0.69881E+04         0.42636E+04         0.00000E+00
    0.42636E+04        -0.34113E+04         0.00000E+00
    0.00000E+00         0.00000E+00        -0.51196E+04
 
   -0.65825E+04         0.44426E+04         0.00000E+00
    0.44426E+04        -0.36363E+04         0.00000E+00
    0.00000E+00         0.00000E+00        -0.50934E+04
 
   -0.61417E+04         0.46277E+04         0.00000E+00
    0.46277E+04        -0.38595E+04         0.00000E+00
    0.00000E+00         0.00000E+00        -0.50489E+04
 
   -0.56605E+04         0.48203E+04         0.00000E+00
    0.48203E+04        -0.40839E+04         0.00000E+00
    0.00000E+00         0.00000E+00        -0.49857E+04
 
   -0.51332E+04         0.50204E+04         0.00000E+00
    0.50204E+04        -0.43134E+04         0.00000E+00
    0.00000E+00         0.00000E+00        -0.49033E+04
 
   -0.72762E+04         0.52138E+02         0.00000E+00
    0.52138E+02        -0.26019E+01         0.00000E+00
    0.00000E+00         0.00000E+00        -0.22580E+04
 
   -0.76588E+04         0.18054E+03         0.00000E+00
    0.18054E+03        -0.16566E+02         0.00000E+00
    0.00000E+00         0.00000E+00        -0.25251E+04
 
   -0.80084E+04         0.33943E+03         0.00000E+00
    0.33943E+03        -0.46242E+02         0.00000E+00
    0.00000E+00         0.00000E+00        -0.27853E+04
 
   -0.83192E+04         0.52683E+03         0.00000E+00
    0.52683E+03        -0.94262E+02         0.00000E+00
    0.00000E+00         0.00000E+00        -0.30366E+04
 
   -0.85854E+04         0.73936E+03         0.00000E+00
    0.73936E+03        -0.16344E+03         0.00000E+00
    0.00000E+00         0.00000E+00        -0.32772E+04
 
   -0.88016E+04         0.97231E+03         0.00000E+00
    0.97231E+03        -0.25611E+03         0.00000E+00
    0.00000E+00         0.00000E+00        -0.35051E+04
 
   -0.89637E+04         0.12200E+04         0.00000E+00
    0.12200E+04        -0.37359E+03         0.00000E+00
    0.00000E+00         0.00000E+00        -0.37188E+04
 
   -0.90696E+04         0.14761E+04         0.00000E+00
    0.14761E+04        -0.51590E+03         0.00000E+00
    0.00000E+00         0.00000E+00        -0.39170E+04
 
   -0.91190E+04         0.17347E+04         0.00000E+00
    0.17347E+04        -0.68174E+03         0.00000E+00
    0.00000E+00         0.00000E+00        -0.40986E+04
 
   -0.91137E+04         0.19905E+04         0.00000E+00
    0.19905E+04        -0.86858E+03         0.00000E+00
    0.00000E+00         0.00000E+00        -0.42629E+04
 
   -0.90564E+04         0.22390E+04         0.00000E+00
    0.22390E+04        -0.10730E+04         0.00000E+00
    0.00000E+00         0.00000E+00        -0.44094E+04
 
   -0.89512E+04         0.24774E+04         0.00000E+00
    0.24774E+04        -0.12912E+04         0.00000E+00
    0.00000E+00         0.00000E+00        -0.45379E+04
 
   -0.88024E+04         0.27040E+04         0.00000E+00
    0.27040E+04        -0.15189E+04         0.00000E+00
    0.00000E+00         0.00000E+00        -0.46484E+04
 
   -0.86142E+04         0.29185E+04         0.00000E+00
    0.29185E+04        -0.17525E+04         0.00000E+00
    0.00000E+00         0.00000E+00        -0.47409E+04
 
   -0.83905E+04         0.31216E+04         0.00000E+00
    0.31216E+04        -0.19884E+04         0.00000E+00
    0.00000E+00         0.00000E+00        -0.48157E+04
 
   -0.81344E+04         0.33150E+04         0.00000E+00
    0.33150E+04        -0.22240E+04         0.00000E+00
    0.00000E+00         0.00000E+00        -0.48728E+04
 
   -0.78478E+04         0.35008E+04         0.00000E+00
    0.35008E+04        -0.24572E+04         0.00000E+00
    0.00000E+00         0.00000E+00        -0.49126E+04
 
   -0.75318E+04         0.36818E+04         0.00000E+00
    0.36818E+04        -0.26870E+04         0.00000E+00
    0.00000E+00         0.00000E+00        -0.49351E+04
 
   -0.71863E+04         0.38604E+04         0.00000E+00
    0.38604E+04        -0.29132E+04         0.00000E+00
    0.00000E+00         0.00000E+00        -0.49403E+04
 
   -0.68098E+04         0.40392E+04         0.00000E+00
    0.40392E+04        -0.31364E+04         0.00000E+00
    0.00000E+00         0.00000E+00        -0.49283E+04
 
   -0.64002E+04         0.42201E+04         0.00000E+00
    0.42201E+04        -0.33578E+04         0.00000E+00
    0.00000E+00         0.00000E+00        -0.48988E+04
 
   -0.59539E+04         0.44046E+04         0.00000E+00
    0.44046E+04        -0.35796E+04         0.00000E+00
    0.00000E+00         0.00000E+00        -0.48516E+04
 
   -0.54668E+04         0.45934E+04         0.00000E+00
    0.45934E+04        -0.38044E+04         0.00000E+00
    0.00000E+00         0.00000E+00        -0.47864E+04
 
   -0.49342E+04         0.47862E+04         0.00000E+00
    0.47862E+04        -0.40352E+04         0.00000E+00
    0.00000E+00         0.00000E+00        -0.47025E+04
 
   -0.71703E+04         0.45454E+02         0.00000E+00
    0.45454E+02        -0.25107E+01         0.00000E+00
    0.00000E+00         0.00000E+00        -0.22240E+04
 
   -0.75227E+04         0.15951E+03         0.00000E+00
    0.15951E+03        -0.15941E+02         0.00000E+00
    0.00000E+00         0.00000E+00        -0.24775E+04
 
   -0.78438E+04         0.30205E+03         0.00000E+00
    0.30205E+03        -0.44202E+02         0.00000E+00
    0.00000E+00         0.00000E+00        -0.27247E+04
 
   -0.81289E+04         0.47067E+03         0.00000E+00
    0.47067E+03        -0.89243E+02         0.00000E+00
    0.00000E+00         0.00000E+00        -0.29635E+04
 
   -0.83732E+04         0.66215E+03         0.00000E+00
    0.66215E+03        -0.15311E+03         0.00000E+00
    0.00000E+00         0.00000E+00        -0.31921E+04
 
   -0.85723E+04         0.87243E+03         0.00000E+00
    0.87243E+03        -0.23748E+03         0.00000E+00
    0.00000E+00         0.00000E+00        -0.34088E+04
 
   -0.87228E+04         0.10968E+04         0.00000E+00
    0.10968E+04        -0.34333E+03         0.00000E+00
    0.00000E+00         0.00000E+00        -0.36121E+04
 
   -0.88227E+04         0.13302E+04         0.00000E+00
    0.13302E+04        -0.47071E+03         0.00000E+00
    0.00000E+00         0.00000E+00        -0.38007E+04
 
   -0.88713E+04         0.15678E+04         0.00000E+00
    0.15678E+04        -0.61864E+03         0.00000E+00
    0.00000E+00         0.00000E+00        -0.39736E+04
 
   -0.88696E+04         0.18051E+04         0.00000E+00
    0.18051E+04        -0.78527E+03         0.00000E+00
    0.00000E+00         0.00000E+00        -0.41299E+04
 
   -0.88194E+04         0.20385E+04         0.00000E+00
    0.20385E+04        -0.96803E+03         0.00000E+00
    0.00000E+00         0.00000E+00        -0.42692E+04
 
   -0.87235E+04         0.22652E+04         0.00000E+00
    0.22652E+04        -0.11639E+04         0.00000E+00
    0.00000E+00         0.00000E+00        -0.43912E+04
 
   -0.85850E+04         0.24838E+04         0.00000E+00
    0.24838E+04        -0.13697E+04         0.00000E+00
    0.00000E+00         0.00000E+00        -0.44957E+04
 
   -0.84071E+04         0.26935E+04         0.00000E+00
    0.26935E+04        -0.15824E+04         0.00000E+00
    0.00000E+00         0.00000E+00        -0.45828E+04
 
   -0.81928E+04         0.28947E+04         0.00000E+00
    0.28947E+04        -0.17992E+04         0.00000E+00
    0.00000E+00         0.00000E+00        -0.46525E+04
 
   -0.79444E+04         0.30883E+04         0.00000E+00
    0.30883E+04        -0.20179E+04         0.00000E+00
    0.00000E+00         0.00000E+00        -0.47050E+04
 
   -0.76635E+04         0.32758E+04         0.00000E+00
    0.32758E+04        -0.22368E+04         0.00000E+00
    0.00000E+00         0.00000E+00        -0.47405E+04
 
   -0.73511E+04         0.34590E+04         0.00000E+00
    0.34590E+04        -0.24550E+04         0.00000E+00
    0.00000E+00         0.00000E+00        -0.47590E+04
 
   -0.70068E+04         0.36398E+04         0.00000E+00
    0.36398E+04        -0.26723E+04         0.00000E+00
    0.00000E+00         0.00000E+00        -0.47606E+04
 
   -0.66298E+04         0.38198E+04         0.00000E+00
    0.38198E+04        -0.28891E+04         0.00000E+00
    0.00000E+00         0.00000E+00        -0.47454E+04
 
   -0.62181E+04         0.40004E+04         0.00000E+00
    0.40004E+04        -0.31065E+04         0.00000E+00
    0.00000E+00         0.00000E+00        -0.47132E+04
 
   -0.57690E+04         0.41825E+04         0.00000E+00
    0.41825E+04        -0.33261E+04         0.00000E+00
    0.00000E+00         0.00000E+00        -0.46639E+04
 
   -0.52791E+04         0.43663E+04         0.00000E+00
    0.43663E+04        -0.35500E+04         0.00000E+00
    0.00000E+00         0.00000E+00        -0.45971E+04
 
   -0.47446E+04         0.45512E+04         0.00000E+00
    0.45512E+04        -0.37807E+04         0.00000E+00
    0.00000E+00         0.00000E+00        -0.45124E+04
 
   -0.70778E+04         0.39145E+02         0.00000E+00
    0.39145E+02        -0.23284E+01         0.00000E+00
    0.00000E+00         0.00000E+00        -0.21940E+04
 
   -0.74013E+04         0.13968E+03         0.00000E+00
    0.13968E+03        -0.14813E+02         0.00000E+00
    0.00000E+00         0.00000E+00        -0.24344E+04
 
   -0.76960E+04         0.26710E+03         0.00000E+00
    0.26710E+03        -0.41025E+02         0.00000E+00
    0.00000E+00         0.00000E+00        -0.26689E+04
 
   -0.79575E+04         0.41879E+03         0.00000E+00
    0.41879E+03        -0.82520E+02         0.00000E+00
    0.00000E+00         0.00000E+00        -0.28956E+04
 
   -0.81816E+04         0.59166E+03         0.00000E+00
    0.59166E+03        -0.14085E+03         0.00000E+00
    0.00000E+00         0.00000E+00        -0.31128E+04
 
   -0.83646E+04         0.78212E+03         0.00000E+00
    0.78212E+03        -0.21730E+03         0.00000E+00
    0.00000E+00         0.00000E+00        -0.33188E+04
 
   -0.85036E+04         0.98621E+03         0.00000E+00
    0.98621E+03        -0.31259E+03         0.00000E+00
    0.00000E+00         0.00000E+00        -0.35121E+04
 
   -0.85964E+04         0.11997E+04         0.00000E+00
    0.11997E+04        -0.42678E+03         0.00000E+00
    0.00000E+00         0.00000E+00        -0.36914E+04
 
   -0.86424E+04         0.14187E+04         0.00000E+00
    0.14187E+04        -0.55919E+03         0.00000E+00
    0.00000E+00         0.00000E+00        -0.38557E+04
 
   -0.86417E+04         0.16393E+04         0.00000E+00
    0.16393E+04        -0.70843E+03         0.00000E+00
    0.00000E+00         0.00000E+00        -0.40042E+04
 
   -0.85956E+04         0.18584E+04         0.00000E+00
    0.18584E+04        -0.87255E+03         0.00000E+00
    0.00000E+00         0.00000E+00        -0.41364E+04
 
   -0.85057E+04         0.20738E+04         0.00000E+00
    0.20738E+04        -0.10493E+04         0.00000E+00
    0.00000E+00         0.00000E+00        -0.42518E+04
 
   -0.83745E+04         0.22837E+04         0.00000E+00
    0.22837E+04        -0.12361E+04         0.00000E+00
    0.00000E+00         0.00000E+00        -0.43504E+04
 
   -0.82041E+04         0.24874E+04         0.00000E+00
    0.24874E+04        -0.14306E+04         0.00000E+00
    0.00000E+00         0.00000E+00        -0.44321E+04
 
   -0.79969E+04         0.26848E+04         0.00000E+00
    0.26848E+04        -0.16306E+04         0.00000E+00
    0.00000E+00         0.00000E+00        -0.44968E+04
 
   -0.77546E+04         0.28764E+04         0.00000E+00
    0.28764E+04        -0.18343E+04         0.00000E+00
    0.00000E+00         0.00000E+00        -0.45448E+04
 
   -0.74785E+04         0.30632E+04         0.00000E+00
    0.30632E+04        -0.20403E+04         0.00000E+00
    0.00000E+00         0.00000E+00        -0.45762E+04
 
   -0.71693E+04         0.32461E+04         0.00000E+00
    0.32461E+04        -0.22479E+04         0.00000E+00
    0.00000E+00         0.00000E+00        -0.45910E+04
 
   -0.68268E+04         0.34266E+04         0.00000E+00
    0.34266E+04        -0.24567E+04         0.00000E+00
    0.00000E+00         0.00000E+00        -0.45894E+04
 
   -0.64503E+04         0.36056E+04         0.00000E+00
    0.36056E+04        -0.26672E+04         0.00000E+00
    0.00000E+00         0.00000E+00        -0.45713E+04
 
   -0.60382E+04         0.37840E+04         0.00000E+00
    0.37840E+04        -0.28801E+04         0.00000E+00
    0.00000E+00         0.00000E+00        -0.45369E+04
 
   -0.55884E+04         0.39622E+04         0.00000E+00
    0.39622E+04        -0.30968E+04         0.00000E+00
    0.00000E+00         0.00000E+00        -0.44858E+04
 
   -0.50982E+04         0.41400E+04         0.00000E+00
    0.41400E+04        -0.33190E+04         0.00000E+00
    0.00000E+00         0.00000E+00        -0.44180E+04
 
   -0.45644E+04         0.43167E+04         0.00000E+00
    0.43167E+04        -0.35485E+04         0.00000E+00
    0.00000E+00         0.00000E+00        -0.43330E+04
 
   -0.69976E+04         0.33379E+02         0.00000E+00
    0.33379E+02        -0.20991E+01         0.00000E+00
    0.00000E+00         0.00000E+00        -0.21677E+04
 
   -0.72937E+04         0.12146E+03         0.00000E+00
    0.12146E+03        -0.13422E+02         0.00000E+00
    0.00000E+00         0.00000E+00        -0.23954E+04
 
   -0.75634E+04         0.23506E+03         0.00000E+00
    0.23506E+03        -0.37266E+02         0.00000E+00
    0.00000E+00         0.00000E+00        -0.26177E+04
 
   -0.78029E+04         0.37146E+03         0.00000E+00
    0.37146E+03        -0.74969E+02         0.00000E+00
    0.00000E+00         0.00000E+00        -0.28329E+04
 
   -0.80081E+04         0.52774E+03         0.00000E+00
    0.52774E+03        -0.12780E+03         0.00000E+00
    0.00000E+00         0.00000E+00        -0.30391E+04
 
   -0.81759E+04         0.70069E+03         0.00000E+00
    0.70069E+03        -0.19676E+03         0.00000E+00
    0.00000E+00         0.00000E+00        -0.32348E+04
 
   -0.83033E+04         0.88688E+03         0.00000E+00
    0.88688E+03        -0.28247E+03         0.00000E+00
    0.00000E+00         0.00000E+00        -0.34184E+04
 
   -0.83885E+04         0.10828E+04         0.00000E+00
    0.10828E+04        -0.38500E+03         0.00000E+00
    0.00000E+00         0.00000E+00        -0.35887E+04
 
   -0.84304E+04         0.12850E+04         0.00000E+00
    0.12850E+04        -0.50387E+03         0.00000E+00
    0.00000E+00         0.00000E+00        -0.37447E+04
 
   -0.84288E+04         0.14903E+04         0.00000E+00
    0.14903E+04        -0.63806E+03         0.00000E+00
    0.00000E+00         0.00000E+00        -0.38856E+04
 
   -0.83843E+04         0.16961E+04         0.00000E+00
    0.16961E+04        -0.78611E+03         0.00000E+00
    0.00000E+00         0.00000E+00        -0.40108E+04
 
   -0.82980E+04         0.19001E+04         0.00000E+00
    0.19001E+04        -0.94629E+03         0.00000E+00
    0.00000E+00         0.00000E+00        -0.41199E+04
 
   -0.81716E+04         0.21010E+04         0.00000E+00
    0.21010E+04        -0.11167E+04         0.00000E+00
    0.00000E+00         0.00000E+00        -0.42126E+04
 
   -0.80065E+04         0.22977E+04         0.00000E+00
    0.22977E+04        -0.12954E+04         0.00000E+00
    0.00000E+00         0.00000E+00        -0.42889E+04
 
   -0.78046E+04         0.24899E+04         0.00000E+00
    0.24899E+04        -0.14806E+04         0.00000E+00
    0.00000E+00         0.00000E+00        -0.43489E+04
 
   -0.75670E+04         0.26778E+04         0.00000E+00
    0.26778E+04        -0.16710E+04         0.00000E+00
    0.00000E+00         0.00000E+00        -0.43925E+04
 
   -0.72949E+04         0.28618E+04         0.00000E+00
    0.28618E+04        -0.18655E+04         0.00000E+00
    0.00000E+00         0.00000E+00        -0.44199E+04
 
   -0.69887E+04         0.30425E+04         0.00000E+00
    0.30425E+04        -0.20632E+04         0.00000E+00
    0.00000E+00         0.00000E+00        -0.44313E+04
 
   -0.66483E+04         0.32206E+04         0.00000E+00
    0.32206E+04        -0.22641E+04         0.00000E+00
    0.00000E+00         0.00000E+00        -0.44267E+04
 
   -0.62732E+04         0.33968E+04         0.00000E+00
    0.33968E+04        -0.24684E+04         0.00000E+00
    0.00000E+00         0.00000E+00        -0.44062E+04
 
   -0.58621E+04         0.35714E+04         0.00000E+00
    0.35714E+04        -0.26767E+04         0.00000E+00
    0.00000E+00         0.00000E+00        -0.43698E+04
 
   -0.54133E+04         0.37445E+04         0.00000E+00
    0.37445E+04        -0.28900E+04         0.00000E+00
    0.00000E+00         0.00000E+00        -0.43174E+04
 
   -0.49246E+04         0.39156E+04         0.00000E+00
    0.39156E+04        -0.31096E+04         0.00000E+00
    0.00000E+00         0.00000E+00        -0.42489E+04
 
   -0.43937E+04         0.40836E+04         0.00000E+00
    0.40836E+04        -0.33372E+04         0.00000E+00
    0.00000E+00         0.00000E+00        -0.41639E+04
 
   -0.69287E+04         0.28233E+02         0.00000E+00
    0.28233E+02        -0.18521E+01         0.00000E+00
    0.00000E+00         0.00000E+00        -0.21449E+04
 
   -0.71986E+04         0.10506E+03         0.00000E+00
    0.10506E+03        -0.11933E+02         0.00000E+00
    0.00000E+00         0.00000E+00        -0.23602E+04
 
   -0.74448E+04         0.20610E+03         0.00000E+00
    0.20610E+03        -0.33303E+02         0.00000E+00
    0.00000E+00         0.00000E+00        -0.25709E+04
 
   -0.76634E+04         0.32871E+03         0.00000E+00
    0.32871E+03        -0.67194E+02         0.00000E+00
    0.00000E+00         0.00000E+00        -0.27750E+04
 
   -0.78509E+04         0.47011E+03         0.00000E+00
    0.47011E+03        -0.11471E+03         0.00000E+00
    0.00000E+00         0.00000E+00        -0.29707E+04
 
   -0.80039E+04         0.62742E+03         0.00000E+00
    0.62742E+03        -0.17672E+03         0.00000E+00
    0.00000E+00         0.00000E+00        -0.31564E+04
 
   -0.81199E+04         0.79763E+03         0.00000E+00
    0.79763E+03        -0.25376E+03         0.00000E+00
    0.00000E+00         0.00000E+00        -0.33308E+04
 
   -0.81969E+04         0.97769E+03         0.00000E+00
    0.97769E+03        -0.34595E+03         0.00000E+00
    0.00000E+00         0.00000E+00        -0.34925E+04
 
   -0.82337E+04         0.11647E+04         0.00000E+00
    0.11647E+04        -0.45297E+03         0.00000E+00
    0.00000E+00         0.00000E+00        -0.36405E+04
 
   -0.82297E+04         0.13559E+04         0.00000E+00
    0.13559E+04        -0.57410E+03         0.00000E+00
    0.00000E+00         0.00000E+00        -0.37740E+04
 
   -0.81851E+04         0.15489E+04         0.00000E+00
    0.15489E+04        -0.70827E+03         0.00000E+00
    0.00000E+00         0.00000E+00        -0.38924E+04
 
   -0.81005E+04         0.17419E+04         0.00000E+00
    0.17419E+04        -0.85414E+03         0.00000E+00
    0.00000E+00         0.00000E+00        -0.39952E+04
 
   -0.79770E+04         0.19334E+04         0.00000E+00
    0.19334E+04        -0.10103E+04         0.00000E+00
    0.00000E+00         0.00000E+00        -0.40823E+04
 
   -0.78155E+04         0.21224E+04         0.00000E+00
    0.21224E+04        -0.11752E+04         0.00000E+00
    0.00000E+00         0.00000E+00        -0.41534E+04
 
   -0.76173E+04         0.23083E+04         0.00000E+00
    0.23083E+04        -0.13475E+04         0.00000E+00
    0.00000E+00         0.00000E+00        -0.42087E+04
 
   -0.73835E+04         0.24910E+04         0.00000E+00
    0.24910E+04        -0.15261E+04         0.00000E+00
    0.00000E+00         0.00000E+00        -0.42481E+04
 
   -0.71146E+04         0.26706E+04         0.00000E+00
    0.26706E+04        -0.17101E+04         0.00000E+00
    0.00000E+00         0.00000E+00        -0.42719E+04
 
   -0.68112E+04         0.28473E+04         0.00000E+00
    0.28473E+04        -0.18990E+04         0.00000E+00
    0.00000E+00         0.00000E+00        -0.42800E+04
 
   -0.64732E+04         0.30215E+04         0.00000E+00
    0.30215E+04        -0.20924E+04         0.00000E+00
    0.00000E+00         0.00000E+00        -0.42727E+04
 
   -0.61001E+04         0.31934E+04         0.00000E+00
    0.31934E+04        -0.22907E+04         0.00000E+00
    0.00000E+00         0.00000E+00        -0.42500E+04
 
   -0.56909E+04         0.33630E+04         0.00000E+00
    0.33630E+04        -0.24942E+04         0.00000E+00
    0.00000E+00         0.00000E+00        -0.42120E+04
 
   -0.52444E+04         0.35299E+04         0.00000E+00
    0.35299E+04        -0.27038E+04         0.00000E+00
    0.00000E+00         0.00000E+00        -0.41586E+04
 
   -0.47590E+04         0.36936E+04         0.00000E+00
    0.36936E+04        -0.29204E+04         0.00000E+00
    0.00000E+00         0.00000E+00        -0.40897E+04
 
   -0.42326E+04         0.38529E+04         0.00000E+00
    0.38529E+04        -0.31453E+04         0.00000E+00
    0.00000E+00         0.00000E+00        -0.40051E+04
 
   -0.68697E+04         0.23726E+02         0.00000E+00
    0.23726E+02        -0.16064E+01         0.00000E+00
    0.00000E+00         0.00000E+00        -0.21252E+04
 
   -0.71147E+04         0.90508E+02         0.00000E+00
    0.90508E+02        -0.10453E+02         0.00000E+00
    0.00000E+00         0.00000E+00        -0.23287E+04
 
   -0.73387E+04         0.18025E+03         0.00000E+00
    0.18025E+03        -0.29386E+02         0.00000E+00
    0.00000E+00         0.00000E+00        -0.25282E+04
 
   -0.75376E+04         0.29040E+03         0.00000E+00
    0.29040E+03        -0.59600E+02         0.00000E+00
    0.00000E+00         0.00000E+00        -0.27216E+04
 
   -0.77081E+04         0.41839E+03         0.00000E+00
    0.41839E+03        -0.10212E+03         0.00000E+00
    0.00000E+00         0.00000E+00        -0.29073E+04
 
   -0.78470E+04         0.56161E+03         0.00000E+00
    0.56161E+03        -0.15774E+03         0.00000E+00
    0.00000E+00         0.00000E+00        -0.30836E+04
 
   -0.79517E+04         0.71738E+03         0.00000E+00
    0.71738E+03        -0.22697E+03         0.00000E+00
    0.00000E+00         0.00000E+00        -0.32491E+04
 
   -0.80202E+04         0.88306E+03         0.00000E+00
    0.88306E+03        -0.31000E+03         0.00000E+00
    0.00000E+00         0.00000E+00        -0.34025E+04
 
   -0.80511E+04         0.10561E+04         0.00000E+00
    0.10561E+04        -0.40664E+03         0.00000E+00
    0.00000E+00         0.00000E+00        -0.35428E+04
 
   -0.80437E+04         0.12341E+04         0.00000E+00
    0.12341E+04        -0.51641E+03         0.00000E+00
    0.00000E+00         0.00000E+00        -0.36692E+04
 
   -0.79977E+04         0.14150E+04         0.00000E+00
    0.14150E+04        -0.63853E+03         0.00000E+00
    0.00000E+00         0.00000E+00        -0.37810E+04
 
   -0.79133E+04         0.15971E+04         0.00000E+00
    0.15971E+04        -0.77201E+03         0.00000E+00
    0.00000E+00         0.00000E+00        -0.38778E+04
 
   -0.77911E+04         0.17789E+04         0.00000E+00
    0.17789E+04        -0.91577E+03         0.00000E+00
    0.00000E+00         0.00000E+00        -0.39594E+04
 
   -0.76319E+04         0.19595E+04         0.00000E+00
    0.19595E+04        -0.10687E+04         0.00000E+00
    0.00000E+00         0.00000E+00        -0.40256E+04
 
   -0.74364E+04         0.21382E+04         0.00000E+00
    0.21382E+04        -0.12297E+04         0.00000E+00
    0.00000E+00         0.00000E+00        -0.40764E+04
 
   -0.72053E+04         0.23146E+04         0.00000E+00
    0.23146E+04        -0.13978E+04         0.00000E+00
    0.00000E+00         0.00000E+00        -0.41119E+04
 
   -0.69392E+04         0.24886E+04         0.00000E+00
    0.24886E+04        -0.15725E+04         0.00000E+00
    0.00000E+00         0.00000E+00        -0.41321E+04
 
   -0.66383E+04         0.26600E+04         0.00000E+00
    0.26600E+04        -0.17532E+04         0.00000E+00
    0.00000E+00         0.00000E+00        -0.41373E+04
 
   -0.63028E+04         0.28289E+04         0.00000E+00
    0.28289E+04        -0.19397E+04         0.00000E+00
    0.00000E+00         0.00000E+00        -0.41275E+04
 
   -0.59322E+04         0.29953E+04         0.00000E+00
    0.29953E+04        -0.21321E+04         0.00000E+00
    0.00000E+00         0.00000E+00        -0.41029E+04
 
   -0.55258E+04         0.31588E+04         0.00000E+00
    0.31588E+04        -0.23308E+04         0.00000E+00
    0.00000E+00         0.00000E+00        -0.40635E+04
 
   -0.50826E+04         0.33188E+04         0.00000E+00
    0.33188E+04        -0.25365E+04         0.00000E+00
    0.00000E+00         0.00000E+00        -0.40093E+04
 
   -0.46015E+04         0.34747E+04         0.00000E+00
    0.34747E+04        -0.27497E+04         0.00000E+00
    0.00000E+00         0.00000E+00        -0.39403E+04
 
   -0.40810E+04         0.36250E+04         0.00000E+00
    0.36250E+04        -0.29714E+04         0.00000E+00
    0.00000E+00         0.00000E+00        -0.38564E+04
 
   -0.68196E+04         0.19836E+02         0.00000E+00
    0.19836E+02        -0.13737E+01         0.00000E+00
    0.00000E+00         0.00000E+00        -0.21081E+04
 
   -0.70410E+04         0.77754E+02         0.00000E+00
    0.77754E+02        -0.90472E+01         0.00000E+00
    0.00000E+00         0.00000E+00        -0.23005E+04
 
   -0.72438E+04         0.15736E+03         0.00000E+00
    0.15736E+03        -0.25674E+02         0.00000E+00
    0.00000E+00         0.00000E+00        -0.24893E+04
 
   -0.74242E+04         0.25627E+03         0.00000E+00
    0.25627E+03        -0.52445E+02         0.00000E+00
    0.00000E+00         0.00000E+00        -0.26727E+04
 
   -0.75785E+04         0.37212E+03         0.00000E+00
    0.37212E+03        -0.90354E+02         0.00000E+00
    0.00000E+00         0.00000E+00        -0.28488E+04
 
   -0.77038E+04         0.50254E+03         0.00000E+00
    0.50254E+03        -0.14017E+03         0.00000E+00
    0.00000E+00         0.00000E+00        -0.30161E+04
 
   -0.77974E+04         0.64516E+03         0.00000E+00
    0.64516E+03        -0.20242E+03         0.00000E+00
    0.00000E+00         0.00000E+00        -0.31731E+04
 
   -0.78572E+04         0.79762E+03         0.00000E+00
    0.79762E+03        -0.27734E+03         0.00000E+00
    0.00000E+00         0.00000E+00        -0.33186E+04
 
   -0.78818E+04         0.95769E+03         0.00000E+00
    0.95769E+03        -0.36489E+03         0.00000E+00
    0.00000E+00         0.00000E+00        -0.34515E+04
 
   -0.78701E+04         0.11233E+04         0.00000E+00
    0.11233E+04        -0.46475E+03         0.00000E+00
    0.00000E+00         0.00000E+00        -0.35711E+04
 
   -0.78216E+04         0.12926E+04         0.00000E+00
    0.12926E+04        -0.57641E+03         0.00000E+00
    0.00000E+00         0.00000E+00        -0.36766E+04
 
   -0.77363E+04         0.14639E+04         0.00000E+00
    0.14639E+04        -0.69914E+03         0.00000E+00
    0.00000E+00         0.00000E+00        -0.37677E+04
 
   -0.76144E+04         0.16359E+04         0.00000E+00
    0.16359E+04        -0.83213E+03         0.00000E+00
    0.00000E+00         0.00000E+00        -0.38440E+04
 
   -0.74563E+04         0.18077E+04         0.00000E+00
    0.18077E+04        -0.97454E+03         0.00000E+00
    0.00000E+00         0.00000E+00        -0.39055E+04
 
   -0.72625E+04         0.19785E+04         0.00000E+00
    0.19785E+04        -0.11256E+04         0.00000E+00
    0.00000E+00         0.00000E+00        -0.39520E+04
 
   -0.70335E+04         0.21477E+04         0.00000E+00
    0.21477E+04        -0.12845E+04         0.00000E+00
    0.00000E+00         0.00000E+00        -0.39837E+04
 
   -0.67697E+04         0.23149E+04         0.00000E+00
    0.23149E+04        -0.14507E+04         0.00000E+00
    0.00000E+00         0.00000E+00        -0.40007E+04
 
   -0.64713E+04         0.24800E+04         0.00000E+00
    0.24800E+04        -0.16240E+04         0.00000E+00
    0.00000E+00         0.00000E+00        -0.40031E+04
 
   -0.61383E+04         0.26426E+04         0.00000E+00
    0.26426E+04        -0.18040E+04         0.00000E+00
    0.00000E+00         0.00000E+00        -0.39910E+04
 
   -0.57705E+04         0.28024E+04         0.00000E+00
    0.28024E+04        -0.19910E+04         0.00000E+00
    0.00000E+00         0.00000E+00        -0.39647E+04
 
   -0.53675E+04         0.29589E+04         0.00000E+00
    0.29589E+04        -0.21850E+04         0.00000E+00
    0.00000E+00         0.00000E+00        -0.39241E+04
 
   -0.49285E+04         0.31115E+04         0.00000E+00
    0.31115E+04        -0.23865E+04         0.00000E+00
    0.00000E+00         0.00000E+00        -0.38694E+04
 
   -0.44526E+04         0.32591E+04         0.00000E+00
    0.32591E+04        -0.25961E+04         0.00000E+00
    0.00000E+00         0.00000E+00        -0.38006E+04
 
   -0.39388E+04         0.34004E+04         0.00000E+00
    0.34004E+04        -0.28144E+04         0.00000E+00
    0.00000E+00         0.00000E+00        -0.37174E+04
 
   -0.67770E+04         0.16521E+02         0.00000E+00
    0.16521E+02        -0.11608E+01         0.00000E+00
    0.00000E+00         0.00000E+00        -0.20935E+04
 
   -0.69762E+04         0.66678E+02         0.00000E+00
    0.66678E+02        -0.77566E+01         0.00000E+00
    0.00000E+00         0.00000E+00        -0.22752E+04
 
   -0.71592E+04         0.13722E+03         0.00000E+00
    0.13722E+03        -0.22263E+02         0.00000E+00
    0.00000E+00         0.00000E+00        -0.24540E+04
 
   -0.73219E+04         0.22599E+03         0.00000E+00
    0.22599E+03        -0.45881E+02         0.00000E+00
    0.00000E+00         0.00000E+00        -0.26278E+04
 
   -0.74609E+04         0.33081E+03         0.00000E+00
    0.33081E+03        -0.79605E+02         0.00000E+00
    0.00000E+00         0.00000E+00        -0.27948E+04
 
   -0.75730E+04         0.44954E+03         0.00000E+00
    0.44954E+03        -0.12421E+03         0.00000E+00
    0.00000E+00         0.00000E+00        -0.29536E+04
 
   -0.76557E+04         0.58005E+03         0.00000E+00
    0.58005E+03        -0.18024E+03         0.00000E+00
    0.00000E+00         0.00000E+00        -0.31026E+04
 
   -0.77068E+04         0.72028E+03         0.00000E+00
    0.72028E+03        -0.24802E+03         0.00000E+00
    0.00000E+00         0.00000E+00        -0.32406E+04
 
   -0.77247E+04         0.86822E+03         0.00000E+00
    0.86822E+03        -0.32760E+03         0.00000E+00
    0.00000E+00         0.00000E+00        -0.33665E+04
 
   -0.77082E+04         0.10220E+04         0.00000E+00
    0.10220E+04        -0.41883E+03         0.00000E+00
    0.00000E+00         0.00000E+00        -0.34796E+04
 
   -0.76567E+04         0.11800E+04         0.00000E+00
    0.11800E+04        -0.52139E+03         0.00000E+00
    0.00000E+00         0.00000E+00        -0.35791E+04
 
   -0.75696E+04         0.13407E+04         0.00000E+00
    0.13407E+04        -0.63477E+03         0.00000E+00
    0.00000E+00         0.00000E+00        -0.36647E+04
 
   -0.74472E+04         0.15029E+04         0.00000E+00
    0.15029E+04        -0.75839E+03         0.00000E+00
    0.00000E+00         0.00000E+00        -0.37360E+04
 
   -0.72894E+04         0.16655E+04         0.00000E+00
    0.16655E+04        -0.89163E+03         0.00000E+00
    0.00000E+00         0.00000E+00        -0.37930E+04
 
   -0.70966E+04         0.18278E+04         0.00000E+00
    0.18278E+04        -0.10339E+04         0.00000E+00
    0.00000E+00         0.00000E+00        -0.38355E+04
 
   -0.68691E+04         0.19890E+04         0.00000E+00
    0.19890E+04        -0.11846E+04         0.00000E+00
    0.00000E+00         0.00000E+00        -0.38636E+04
 
   -0.66071E+04         0.21488E+04         0.00000E+00
    0.21488E+04        -0.13434E+04         0.00000E+00
    0.00000E+00         0.00000E+00        -0.38775E+04
 
   -0.63110E+04         0.23066E+04         0.00000E+00
    0.23066E+04        -0.15098E+04         0.00000E+00
    0.00000E+00         0.00000E+00        -0.38774E+04
 
   -0.59806E+04         0.24619E+04         0.00000E+00
    0.24619E+04        -0.16839E+04         0.00000E+00
    0.00000E+00         0.00000E+00        -0.38633E+04
 
   -0.56160E+04         0.26144E+04         0.00000E+00
    0.26144E+04        -0.18656E+04         0.00000E+00
    0.00000E+00         0.00000E+00        -0.38354E+04
 
   -0.52167E+04         0.27634E+04         0.00000E+00
    0.27634E+04        -0.20550E+04         0.00000E+00
    0.00000E+00         0.00000E+00        -0.37939E+04
 
   -0.47823E+04         0.29080E+04         0.00000E+00
    0.29080E+04        -0.22524E+04         0.00000E+00
    0.00000E+00         0.00000E+00        -0.37389E+04
 
   -0.43123E+04         0.30471E+04         0.00000E+00
    0.30471E+04        -0.24583E+04         0.00000E+00
    0.00000E+00         0.00000E+00        -0.36703E+04
 
   -0.38059E+04         0.31794E+04         0.00000E+00
    0.31794E+04        -0.26728E+04         0.00000E+00
    0.00000E+00         0.00000E+00        -0.35881E+04
 
   -0.67409E+04         0.13724E+02         0.00000E+00
    0.13724E+02        -0.97113E+00         0.00000E+00
    0.00000E+00         0.00000E+00        -0.20808E+04
 
   -0.69194E+04         0.57127E+02         0.00000E+00
    0.57127E+02        -0.66008E+01         0.00000E+00
    0.00000E+00         0.00000E+00        -0.22527E+04
 
   -0.70836E+04         0.11960E+03         0.00000E+00
    0.11960E+03        -0.19199E+02         0.00000E+00
    0.00000E+00         0.00000E+00        -0.24219E+04
 
   -0.72297E+04         0.19919E+03         0.00000E+00
    0.19919E+03        -0.39985E+02         0.00000E+00
    0.00000E+00         0.00000E+00        -0.25867E+04
 
   -0.73541E+04         0.29394E+03         0.00000E+00
    0.29394E+03        -0.69963E+02         0.00000E+00
    0.00000E+00         0.00000E+00        -0.27453E+04
 
   -0.74537E+04         0.40192E+03         0.00000E+00
    0.40192E+03        -0.10993E+03         0.00000E+00
    0.00000E+00         0.00000E+00        -0.28960E+04
 
   -0.75258E+04         0.52124E+03         0.00000E+00
    0.52124E+03        -0.16047E+03         0.00000E+00
    0.00000E+00         0.00000E+00        -0.30374E+04
 
   -0.75683E+04         0.65003E+03         0.00000E+00
    0.65003E+03        -0.22197E+03         0.00000E+00
    0.00000E+00         0.00000E+00        -0.31682E+04
 
   -0.75794E+04         0.78653E+03         0.00000E+00
    0.78653E+03        -0.29458E+03         0.00000E+00
    0.00000E+00         0.00000E+00        -0.32875E+04
 
   -0.75577E+04         0.92906E+03         0.00000E+00
    0.92906E+03        -0.37830E+03         0.00000E+00
    0.00000E+00         0.00000E+00        -0.33945E+04
 
   -0.75025E+04         0.10761E+04         0.00000E+00
    0.10761E+04        -0.47294E+03         0.00000E+00
    0.00000E+00         0.00000E+00        -0.34883E+04
 
   -0.74132E+04         0.12263E+04         0.00000E+00
    0.12263E+04        -0.57819E+03         0.00000E+00
    0.00000E+00         0.00000E+00        -0.35687E+04
 
   -0.72895E+04         0.13786E+04         0.00000E+00
    0.13786E+04        -0.69365E+03         0.00000E+00
    0.00000E+00         0.00000E+00        -0.36353E+04
 
   -0.71314E+04         0.15317E+04         0.00000E+00
    0.15317E+04        -0.81887E+03         0.00000E+00
    0.00000E+00         0.00000E+00        -0.36880E+04
 
   -0.69391E+04         0.16851E+04         0.00000E+00
    0.16851E+04        -0.95342E+03         0.00000E+00
    0.00000E+00         0.00000E+00        -0.37268E+04
 
   -0.67126E+04         0.18378E+04         0.00000E+00
    0.18378E+04        -0.10969E+04         0.00000E+00
    0.00000E+00         0.00000E+00        -0.37516E+04
 
   -0.64523E+04         0.19894E+04         0.00000E+00
    0.19894E+04        -0.12489E+04         0.00000E+00
    0.00000E+00         0.00000E+00        -0.37626E+04
 
   -0.61583E+04         0.21392E+04         0.00000E+00
    0.21392E+04        -0.14093E+04         0.00000E+00
    0.00000E+00         0.00000E+00        -0.37601E+04
 
   -0.58306E+04         0.22867E+04         0.00000E+00
    0.22867E+04        -0.15778E+04         0.00000E+00
    0.00000E+00         0.00000E+00        -0.37442E+04
 
   -0.54692E+04         0.24313E+04         0.00000E+00
    0.24313E+04        -0.17546E+04         0.00000E+00
    0.00000E+00         0.00000E+00        -0.37150E+04
 
   -0.50739E+04         0.25722E+04         0.00000E+00
    0.25722E+04        -0.19395E+04         0.00000E+00
    0.00000E+00         0.00000E+00        -0.36727E+04
 
   -0.46446E+04         0.27084E+04         0.00000E+00
    0.27084E+04        -0.21329E+04         0.00000E+00
    0.00000E+00         0.00000E+00        -0.36174E+04
 
   -0.41808E+04         0.28389E+04         0.00000E+00
    0.28389E+04        -0.23348E+04         0.00000E+00
    0.00000E+00         0.00000E+00        -0.35492E+04
 
   -0.36822E+04         0.29622E+04         0.00000E+00
    0.29622E+04        -0.25456E+04         0.00000E+00
    0.00000E+00         0.00000E+00        -0.34680E+04
 
   -0.67104E+04         0.11385E+02         0.00000E+00
    0.11385E+02        -0.80572E+00         0.00000E+00
    0.00000E+00         0.00000E+00        -0.20700E+04
 
   -0.68695E+04         0.48931E+02         0.00000E+00
    0.48931E+02        -0.55868E+01         0.00000E+00
    0.00000E+00         0.00000E+00        -0.22326E+04
 
   -0.70163E+04         0.10421E+03         0.00000E+00
    0.10421E+03        -0.16501E+02         0.00000E+00
    0.00000E+00         0.00000E+00        -0.23930E+04
 
   -0.71468E+04         0.17549E+03         0.00000E+00
    0.17549E+03        -0.34780E+02         0.00000E+00
    0.00000E+00         0.00000E+00        -0.25493E+04
 
   -0.72574E+04         0.26102E+03         0.00000E+00
    0.26102E+03        -0.61448E+02         0.00000E+00
    0.00000E+00         0.00000E+00        -0.26999E+04
 
   -0.73450E+04         0.35907E+03         0.00000E+00
    0.35907E+03        -0.97328E+02         0.00000E+00
    0.00000E+00         0.00000E+00        -0.28430E+04
 
   -0.74069E+04         0.46795E+03         0.00000E+00
    0.46795E+03        -0.14305E+03         0.00000E+00
    0.00000E+00         0.00000E+00        -0.29773E+04
 
   -0.74409E+04         0.58600E+03         0.00000E+00
    0.58600E+03        -0.19906E+03         0.00000E+00
    0.00000E+00         0.00000E+00        -0.31015E+04
 
   -0.74451E+04         0.71162E+03         0.00000E+00
    0.71162E+03        -0.26560E+03         0.00000E+00
    0.00000E+00         0.00000E+00        -0.32145E+04
 
   -0.74182E+04         0.84333E+03         0.00000E+00
    0.84333E+03        -0.34278E+03         0.00000E+00
    0.00000E+00         0.00000E+00        -0.33157E+04
 
   -0.73590E+04         0.97974E+03         0.00000E+00
    0.97974E+03        -0.43054E+03         0.00000E+00
    0.00000E+00         0.00000E+00        -0.34042E+04
 
   -0.72669E+04         0.11196E+04         0.00000E+00
    0.11196E+04        -0.52872E+03         0.00000E+00
    0.00000E+00         0.00000E+00        -0.34797E+04
 
   -0.71416E+04         0.12618E+04         0.00000E+00
    0.12618E+04        -0.63707E+03         0.00000E+00
    0.00000E+00         0.00000E+00        -0.35419E+04
 
   -0.69828E+04         0.14054E+04         0.00000E+00
    0.14054E+04        -0.75528E+03         0.00000E+00
    0.00000E+00         0.00000E+00        -0.35906E+04
 
   -0.67905E+04         0.15494E+04         0.00000E+00
    0.15494E+04        -0.88305E+03         0.00000E+00
    0.00000E+00         0.00000E+00        -0.36257E+04
 
   -0.65648E+04         0.16933E+04         0.00000E+00
    0.16933E+04        -0.10201E+04         0.00000E+00
    0.00000E+00         0.00000E+00        -0.36475E+04
 
   -0.63058E+04         0.18362E+04         0.00000E+00
    0.18362E+04        -0.11661E+04         0.00000E+00
    0.00000E+00         0.00000E+00        -0.36559E+04
 
   -0.60137E+04         0.19775E+04         0.00000E+00
    0.19775E+04        -0.13209E+04         0.00000E+00
    0.00000E+00         0.00000E+00        -0.36512E+04
 
   -0.56886E+04         0.21166E+04         0.00000E+00
    0.21166E+04        -0.14844E+04         0.00000E+00
    0.00000E+00         0.00000E+00        -0.36336E+04
 
   -0.53306E+04         0.22527E+04         0.00000E+00
    0.22527E+04        -0.16565E+04         0.00000E+00
    0.00000E+00         0.00000E+00        -0.36032E+04
 
   -0.49395E+04         0.23851E+04         0.00000E+00
    0.23851E+04        -0.18372E+04         0.00000E+00
    0.00000E+00         0.00000E+00        -0.35602E+04
 
   -0.45154E+04         0.25127E+04         0.00000E+00
    0.25127E+04        -0.20266E+04         0.00000E+00
    0.00000E+00         0.00000E+00        -0.35048E+04
 
   -0.40581E+04         0.26345E+04         0.00000E+00
    0.26345E+04        -0.22247E+04         0.00000E+00
    0.00000E+00         0.00000E+00        -0.34371E+04
 
   -0.35675E+04         0.27489E+04         0.00000E+00
    0.27489E+04        -0.24316E+04         0.00000E+00
    0.00000E+00         0.00000E+00        -0.33570E+04
 
   -0.66846E+04         0.94415E+01         0.00000E+00
    0.94415E+01        -0.66414E+00         0.00000E+00
    0.00000E+00         0.00000E+00        -0.20607E+04
 
   -0.68258E+04         0.41919E+02         0.00000E+00
    0.41919E+02        -0.47129E+01         0.00000E+00
    0.00000E+00         0.00000E+00        -0.22146E+04
 
   -0.69564E+04         0.90787E+02         0.00000E+00
    0.90787E+02        -0.14163E+02         0.00000E+00
    0.00000E+00         0.00000E+00        -0.23668E+04
 
   -0.70722E+04         0.15452E+03         0.00000E+00
    0.15452E+03        -0.30255E+02         0.00000E+00
    0.00000E+00         0.00000E+00        -0.25153E+04
 
   -0.71698E+04         0.23157E+03         0.00000E+00
    0.23157E+03        -0.54031E+02         0.00000E+00
    0.00000E+00         0.00000E+00        -0.26584E+04
 
   -0.72461E+04         0.32040E+03         0.00000E+00
    0.32040E+03        -0.86342E+02         0.00000E+00
    0.00000E+00         0.00000E+00        -0.27945E+04
 
   -0.72983E+04         0.41949E+03         0.00000E+00
    0.41949E+03        -0.12786E+03         0.00000E+00
    0.00000E+00         0.00000E+00        -0.29221E+04
 
   -0.73241E+04         0.52737E+03         0.00000E+00
    0.52737E+03        -0.17909E+03         0.00000E+00
    0.00000E+00         0.00000E+00        -0.30401E+04
 
   -0.73215E+04         0.64262E+03         0.00000E+00
    0.64262E+03        -0.24036E+03         0.00000E+00
    0.00000E+00         0.00000E+00        -0.31473E+04
 
   -0.72892E+04         0.76387E+03         0.00000E+00
    0.76387E+03        -0.31186E+03         0.00000E+00
    0.00000E+00         0.00000E+00        -0.32430E+04
 
   -0.72259E+04         0.88988E+03         0.00000E+00
    0.88988E+03        -0.39366E+03         0.00000E+00
    0.00000E+00         0.00000E+00        -0.33266E+04
 
   -0.71309E+04         0.10195E+04         0.00000E+00
    0.10195E+04        -0.48569E+03         0.00000E+00
    0.00000E+00         0.00000E+00        -0.33975E+04
 
   -0.70036E+04         0.11517E+04         0.00000E+00
    0.11517E+04        -0.58785E+03         0.00000E+00
    0.00000E+00         0.00000E+00        -0.34555E+04
 
   -0.68437E+04         0.12854E+04         0.00000E+00
    0.12854E+04        -0.69993E+03         0.00000E+00
    0.00000E+00         0.00000E+00        -0.35005E+04
 
   -0.66511E+04         0.14200E+04         0.00000E+00
    0.14200E+04        -0.82174E+03         0.00000E+00
    0.00000E+00         0.00000E+00        -0.35323E+04
 
   -0.64259E+04         0.15546E+04         0.00000E+00
    0.15546E+04        -0.95307E+03         0.00000E+00
    0.00000E+00         0.00000E+00        -0.35512E+04
 
   -0.61681E+04         0.16884E+04         0.00000E+00
    0.16884E+04        -0.10937E+04         0.00000E+00
    0.00000E+00         0.00000E+00        -0.35572E+04
 
   -0.58779E+04         0.18208E+04         0.00000E+00
    0.18208E+04        -0.12435E+04         0.00000E+00
    0.00000E+00         0.00000E+00        -0.35505E+04
 
   -0.55553E+04         0.19511E+04         0.00000E+00
    0.19511E+04        -0.14023E+04         0.00000E+00
    0.00000E+00         0.00000E+00        -0.35313E+04
 
   -0.52006E+04         0.20784E+04         0.00000E+00
    0.20784E+04        -0.15701E+04         0.00000E+00
    0.00000E+00         0.00000E+00        -0.34999E+04
 
   -0.48138E+04         0.22020E+04         0.00000E+00
    0.22020E+04        -0.17468E+04         0.00000E+00
    0.00000E+00         0.00000E+00        -0.34564E+04
 
   -0.43949E+04         0.23209E+04         0.00000E+00
    0.23209E+04        -0.19323E+04         0.00000E+00
    0.00000E+00         0.00000E+00        -0.34010E+04
 
   -0.39442E+04         0.24338E+04         0.00000E+00
    0.24338E+04        -0.21267E+04         0.00000E+00
    0.00000E+00         0.00000E+00        -0.33338E+04
 
   -0.34617E+04         0.25395E+04         0.00000E+00
    0.25395E+04        -0.23298E+04         0.00000E+00
    0.00000E+00         0.00000E+00        -0.32549E+04
 
   -0.66627E+04         0.78346E+01         0.00000E+00
    0.78346E+01        -0.54501E+00         0.00000E+00
    0.00000E+00         0.00000E+00        -0.20527E+04
 
   -0.67876E+04         0.35924E+02         0.00000E+00
    0.35924E+02        -0.39717E+01         0.00000E+00
    0.00000E+00         0.00000E+00        -0.21987E+04
 
   -0.69031E+04         0.79059E+02         0.00000E+00
    0.79059E+02        -0.12167E+02         0.00000E+00
    0.00000E+00         0.00000E+00        -0.23433E+04
 
   -0.70054E+04         0.13591E+03         0.00000E+00
    0.13591E+03        -0.26375E+02         0.00000E+00
    0.00000E+00         0.00000E+00        -0.24846E+04
 
   -0.70909E+04         0.20513E+03         0.00000E+00
    0.20513E+03        -0.47651E+02         0.00000E+00
    0.00000E+00         0.00000E+00        -0.26207E+04
 
   -0.71565E+04         0.28535E+03         0.00000E+00
    0.28535E+03        -0.76873E+02         0.00000E+00
    0.00000E+00         0.00000E+00        -0.27503E+04
 
   -0.71994E+04         0.37523E+03         0.00000E+00
    0.37523E+03        -0.11475E+03         0.00000E+00
    0.00000E+00         0.00000E+00        -0.28717E+04
 
   -0.72173E+04         0.47345E+03         0.00000E+00
    0.47345E+03        -0.16184E+03         0.00000E+00
    0.00000E+00         0.00000E+00        -0.29839E+04
 
   -0.72082E+04         0.57873E+03         0.00000E+00
    0.57873E+03        -0.21855E+03         0.00000E+00
    0.00000E+00         0.00000E+00        -0.30857E+04
 
   -0.71705E+04         0.68985E+03         0.00000E+00
    0.68985E+03        -0.28514E+03         0.00000E+00
    0.00000E+00         0.00000E+00        -0.31764E+04
 
   -0.71031E+04         0.80568E+03         0.00000E+00
    0.80568E+03        -0.36177E+03         0.00000E+00
    0.00000E+00         0.00000E+00        -0.32553E+04
 
   -0.70049E+04         0.92516E+03         0.00000E+00
    0.92516E+03        -0.44848E+03         0.00000E+00
    0.00000E+00         0.00000E+00        -0.33219E+04
 
   -0.68755E+04         0.10473E+04         0.00000E+00
    0.10473E+04        -0.54525E+03         0.00000E+00
    0.00000E+00         0.00000E+00        -0.33761E+04
 
   -0.67143E+04         0.11712E+04         0.00000E+00
    0.11712E+04        -0.65198E+03         0.00000E+00
    0.00000E+00         0.00000E+00        -0.34176E+04
 
   -0.65213E+04         0.12961E+04         0.00000E+00
    0.12961E+04        -0.76857E+03         0.00000E+00
    0.00000E+00         0.00000E+00        -0.34464E+04
 
   -0.62963E+04         0.14211E+04         0.00000E+00
    0.14211E+04        -0.89486E+03         0.00000E+00
    0.00000E+00         0.00000E+00        -0.34626E+04
 
   -0.60395E+04         0.15455E+04         0.00000E+00
    0.15455E+04        -0.10307E+04         0.00000E+00
    0.00000E+00         0.00000E+00        -0.34664E+04
 
   -0.57510E+04         0.16687E+04         0.00000E+00
    0.16687E+04        -0.11760E+04         0.00000E+00
    0.00000E+00         0.00000E+00        -0.34579E+04
 
   -0.54309E+04         0.17899E+04         0.00000E+00
    0.17899E+04        -0.13306E+04         0.00000E+00
    0.00000E+00         0.00000E+00        -0.34374E+04
 
   -0.50795E+04         0.19082E+04         0.00000E+00
    0.19082E+04        -0.14944E+04         0.00000E+00
    0.00000E+00         0.00000E+00        -0.34050E+04
 
   -0.46969E+04         0.20228E+04         0.00000E+00
    0.20228E+04        -0.16672E+04         0.00000E+00
    0.00000E+00         0.00000E+00        -0.33611E+04
 
   -0.42833E+04         0.21328E+04         0.00000E+00
    0.21328E+04        -0.18491E+04         0.00000E+00
    0.00000E+00         0.00000E+00        -0.33058E+04
 
   -0.38391E+04         0.22369E+04         0.00000E+00
    0.22369E+04        -0.20399E+04         0.00000E+00
    0.00000E+00         0.00000E+00        -0.32391E+04
 
   -0.33644E+04         0.23340E+04         0.00000E+00
    0.23340E+04        -0.22393E+04         0.00000E+00
    0.00000E+00         0.00000E+00        -0.31613E+04
 
   -0.66442E+04         0.65088E+01         0.00000E+00
    0.65088E+01        -0.44641E+00         0.00000E+00
    0.00000E+00         0.00000E+00        -0.20458E+04
 
   -0.67541E+04         0.30790E+02         0.00000E+00
    0.30790E+02        -0.33525E+01         0.00000E+00
    0.00000E+00         0.00000E+00        -0.21846E+04
 
   -0.68558E+04         0.68780E+02         0.00000E+00
    0.68780E+02        -0.10488E+02         0.00000E+00
    0.00000E+00         0.00000E+00        -0.23222E+04
 
   -0.69456E+04         0.11934E+03         0.00000E+00
    0.11934E+03        -0.23091E+02         0.00000E+00
    0.00000E+00         0.00000E+00        -0.24568E+04
 
   -0.70199E+04         0.18129E+03         0.00000E+00
    0.18129E+03        -0.42227E+02         0.00000E+00
    0.00000E+00         0.00000E+00        -0.25866E+04
 
   -0.70755E+04         0.25343E+03         0.00000E+00
    0.25343E+03        -0.68798E+02         0.00000E+00
    0.00000E+00         0.00000E+00        -0.27101E+04
 
   -0.71097E+04         0.33458E+03         0.00000E+00
    0.33458E+03        -0.10355E+03         0.00000E+00
    0.00000E+00         0.00000E+00        -0.28259E+04
 
   -0.71201E+04         0.42357E+03         0.00000E+00
    0.42357E+03        -0.14708E+03         0.00000E+00
    0.00000E+00         0.00000E+00        -0.29327E+04
 
   -0.71047E+04         0.51925E+03         0.00000E+00
    0.51925E+03        -0.19986E+03         0.00000E+00
    0.00000E+00         0.00000E+00        -0.30295E+04
 
   -0.70619E+04         0.62053E+03         0.00000E+00
    0.62053E+03        -0.26221E+03         0.00000E+00
    0.00000E+00         0.00000E+00        -0.31156E+04
 
   -0.69903E+04         0.72638E+03         0.00000E+00
    0.72638E+03        -0.33438E+03         0.00000E+00
    0.00000E+00         0.00000E+00        -0.31902E+04
 
   -0.68890E+04         0.83582E+03         0.00000E+00
    0.83582E+03        -0.41648E+03         0.00000E+00
    0.00000E+00         0.00000E+00        -0.32529E+04
 
   -0.67573E+04         0.94795E+03         0.00000E+00
    0.94795E+03        -0.50858E+03         0.00000E+00
    0.00000E+00         0.00000E+00        -0.33035E+04
 
   -0.65948E+04         0.10619E+04         0.00000E+00
    0.10619E+04        -0.61066E+03         0.00000E+00
    0.00000E+00         0.00000E+00        -0.33418E+04
 
   -0.64011E+04         0.11769E+04         0.00000E+00
    0.11769E+04        -0.72267E+03         0.00000E+00
    0.00000E+00         0.00000E+00        -0.33678E+04
 
   -0.61763E+04         0.12922E+04         0.00000E+00
    0.12922E+04        -0.84452E+03         0.00000E+00
    0.00000E+00         0.00000E+00        -0.33816E+04
 
   -0.59204E+04         0.14071E+04         0.00000E+00
    0.14071E+04        -0.97611E+03         0.00000E+00
    0.00000E+00         0.00000E+00        -0.33833E+04
 
   -0.56334E+04         0.15208E+04         0.00000E+00
    0.15208E+04        -0.11173E+04         0.00000E+00
    0.00000E+00         0.00000E+00        -0.33732E+04
 
   -0.53157E+04         0.16326E+04         0.00000E+00
    0.16326E+04        -0.12681E+04         0.00000E+00
    0.00000E+00         0.00000E+00        -0.33515E+04
 
   -0.49675E+04         0.17417E+04         0.00000E+00
    0.17417E+04        -0.14282E+04         0.00000E+00
    0.00000E+00         0.00000E+00        -0.33183E+04
 
   -0.45890E+04         0.18472E+04         0.00000E+00
    0.18472E+04        -0.15975E+04         0.00000E+00
    0.00000E+00         0.00000E+00        -0.32740E+04
 
   -0.41806E+04         0.19482E+04         0.00000E+00
    0.19482E+04        -0.17759E+04         0.00000E+00
    0.00000E+00         0.00000E+00        -0.32188E+04
 
   -0.37426E+04         0.20436E+04         0.00000E+00
    0.20436E+04        -0.19632E+04         0.00000E+00
    0.00000E+00         0.00000E+00        -0.31527E+04
 
   -0.32756E+04         0.21321E+04         0.00000E+00
    0.21321E+04        -0.21590E+04         0.00000E+00
    0.00000E+00         0.00000E+00        -0.30760E+04
 
   -0.66285E+04         0.54144E+01         0.00000E+00
    0.54144E+01        -0.36610E+00         0.00000E+00
    0.00000E+00         0.00000E+00        -0.20398E+04
 
   -0.67248E+04         0.26374E+02         0.00000E+00
    0.26374E+02        -0.28428E+01         0.00000E+00
    0.00000E+00         0.00000E+00        -0.21721E+04
 
   -0.68141E+04         0.59723E+02         0.00000E+00
    0.59723E+02        -0.90931E+01         0.00000E+00
    0.00000E+00         0.00000E+00        -0.23034E+04
 
   -0.68924E+04         0.10449E+03         0.00000E+00
    0.10449E+03        -0.20346E+02         0.00000E+00
    0.00000E+00         0.00000E+00        -0.24319E+04
 
   -0.69563E+04         0.15966E+03         0.00000E+00
    0.15966E+03        -0.37670E+02         0.00000E+00
    0.00000E+00         0.00000E+00        -0.25560E+04
 
   -0.70027E+04         0.22419E+03         0.00000E+00
    0.22419E+03        -0.61985E+02         0.00000E+00
    0.00000E+00         0.00000E+00        -0.26739E+04
 
   -0.70288E+04         0.29704E+03         0.00000E+00
    0.29704E+03        -0.94067E+02         0.00000E+00
    0.00000E+00         0.00000E+00        -0.27845E+04
 
   -0.70322E+04         0.37717E+03         0.00000E+00
    0.37717E+03        -0.13455E+03         0.00000E+00
    0.00000E+00         0.00000E+00        -0.28864E+04
 
   -0.70109E+04         0.46357E+03         0.00000E+00
    0.46357E+03        -0.18396E+03         0.00000E+00
    0.00000E+00         0.00000E+00        -0.29787E+04
 
   -0.69631E+04         0.55526E+03         0.00000E+00
    0.55526E+03        -0.24268E+03         0.00000E+00
    0.00000E+00         0.00000E+00        -0.30605E+04
 
   -0.68875E+04         0.65130E+03         0.00000E+00
    0.65130E+03        -0.31101E+03         0.00000E+00
    0.00000E+00         0.00000E+00        -0.31311E+04
 
   -0.67831E+04         0.75082E+03         0.00000E+00
    0.75082E+03        -0.38914E+03         0.00000E+00
    0.00000E+00         0.00000E+00        -0.31903E+04
 
   -0.66492E+04         0.85296E+03         0.00000E+00
    0.85296E+03        -0.47720E+03         0.00000E+00
    0.00000E+00         0.00000E+00        -0.32376E+04
 
   -0.64852E+04         0.95695E+03         0.00000E+00
    0.95695E+03        -0.57524E+03         0.00000E+00
    0.00000E+00         0.00000E+00        -0.32730E+04
 
   -0.62909E+04         0.10620E+04         0.00000E+00
    0.10620E+04        -0.68325E+03         0.00000E+00
    0.00000E+00         0.00000E+00        -0.32965E+04
 
   -0.60661E+04         0.11675E+04         0.00000E+00
    0.11675E+04        -0.80121E+03         0.00000E+00
    0.00000E+00         0.00000E+00        -0.33080E+04
 
   -0.58109E+04         0.12726E+04         0.00000E+00
    0.12726E+04        -0.92903E+03         0.00000E+00
    0.00000E+00         0.00000E+00        -0.33079E+04
 
   -0.55254E+04         0.13766E+04         0.00000E+00
    0.13766E+04        -0.10666E+04         0.00000E+00
    0.00000E+00         0.00000E+00        -0.32963E+04
 
   -0.52099E+04         0.14789E+04         0.00000E+00
    0.14789E+04        -0.12139E+04         0.00000E+00
    0.00000E+00         0.00000E+00        -0.32735E+04
 
   -0.48647E+04         0.15786E+04         0.00000E+00
    0.15786E+04        -0.13706E+04         0.00000E+00
    0.00000E+00         0.00000E+00        -0.32396E+04
 
   -0.44901E+04         0.16749E+04         0.00000E+00
    0.16749E+04        -0.15367E+04         0.00000E+00
    0.00000E+00         0.00000E+00        -0.31951E+04
 
   -0.40867E+04         0.17669E+04         0.00000E+00
    0.17669E+04        -0.17118E+04         0.00000E+00
    0.00000E+00         0.00000E+00        -0.31399E+04
 
   -0.36548E+04         0.18536E+04         0.00000E+00
    0.18536E+04        -0.18958E+04         0.00000E+00
    0.00000E+00         0.00000E+00        -0.30745E+04
 
   -0.31951E+04         0.19338E+04         0.00000E+00
    0.19338E+04        -0.20883E+04         0.00000E+00
    0.00000E+00         0.00000E+00        -0.29987E+04
 
   -0.66152E+04         0.45074E+01         0.00000E+00
    0.45074E+01        -0.30174E+00         0.00000E+00
    0.00000E+00         0.00000E+00        -0.20347E+04
 
   -0.66994E+04         0.22551E+02         0.00000E+00
    0.22551E+02        -0.24293E+01         0.00000E+00
    0.00000E+00         0.00000E+00        -0.21611E+04
 
   -0.67773E+04         0.51685E+02         0.00000E+00
    0.51685E+02        -0.79507E+01         0.00000E+00
    0.00000E+00         0.00000E+00        -0.22867E+04
 
   -0.68453E+04         0.91093E+02         0.00000E+00
    0.91093E+02        -0.18079E+02         0.00000E+00
    0.00000E+00         0.00000E+00        -0.24097E+04
 
   -0.68998E+04         0.13991E+03         0.00000E+00
    0.13991E+03        -0.33884E+02         0.00000E+00
    0.00000E+00         0.00000E+00        -0.25285E+04
 
   -0.69377E+04         0.19723E+03         0.00000E+00
    0.19723E+03        -0.56297E+02         0.00000E+00
    0.00000E+00         0.00000E+00        -0.26416E+04
 
   -0.69564E+04         0.26214E+03         0.00000E+00
    0.26214E+03        -0.86119E+02         0.00000E+00
    0.00000E+00         0.00000E+00        -0.27474E+04
 
   -0.69532E+04         0.33374E+03         0.00000E+00
    0.33374E+03        -0.12402E+03         0.00000E+00
    0.00000E+00         0.00000E+00        -0.28449E+04
 
   -0.69263E+04         0.41114E+03         0.00000E+00
    0.41114E+03        -0.17056E+03         0.00000E+00
    0.00000E+00         0.00000E+00        -0.29330E+04
 
   -0.68739E+04         0.49345E+03         0.00000E+00
    0.49345E+03        -0.22618E+03         0.00000E+00
    0.00000E+00         0.00000E+00        -0.30109E+04
 
   -0.67945E+04         0.57985E+03         0.00000E+00
    0.57985E+03        -0.29123E+03         0.00000E+00
    0.00000E+00         0.00000E+00        -0.30780E+04
 
   -0.66871E+04         0.66954E+03         0.00000E+00
    0.66954E+03        -0.36595E+03         0.00000E+00
    0.00000E+00         0.00000E+00        -0.31339E+04
 
   -0.65510E+04         0.76174E+03         0.00000E+00
    0.76174E+03        -0.45053E+03         0.00000E+00
    0.00000E+00         0.00000E+00        -0.31783E+04
 
   -0.63856E+04         0.85573E+03         0.00000E+00
    0.85573E+03        -0.54507E+03         0.00000E+00
    0.00000E+00         0.00000E+00        -0.32111E+04
 
   -0.61905E+04         0.95081E+03         0.00000E+00
    0.95081E+03        -0.64961E+03         0.00000E+00
    0.00000E+00         0.00000E+00        -0.32322E+04
 
   -0.59657E+04         0.10463E+04         0.00000E+00
    0.10463E+04        -0.76416E+03         0.00000E+00
    0.00000E+00         0.00000E+00        -0.32418E+04
 
   -0.57111E+04         0.11415E+04         0.00000E+00
    0.11415E+04        -0.88866E+03         0.00000E+00
    0.00000E+00         0.00000E+00        -0.32400E+04
 
   -0.54270E+04         0.12358E+04         0.00000E+00
    0.12358E+04        -0.10230E+04         0.00000E+00
    0.00000E+00         0.00000E+00        -0.32270E+04
 
   -0.51136E+04         0.13284E+04         0.00000E+00
    0.13284E+04        -0.11671E+04         0.00000E+00
    0.00000E+00         0.00000E+00        -0.32032E+04
 
   -0.47712E+04         0.14187E+04         0.00000E+00
    0.14187E+04        -0.13208E+04         0.00000E+00
    0.00000E+00         0.00000E+00        -0.31688E+04
 
   -0.44004E+04         0.15058E+04         0.00000E+00
    0.15058E+04        -0.14839E+04         0.00000E+00
    0.00000E+00         0.00000E+00        -0.31240E+04
 
   -0.40016E+04         0.15888E+04         0.00000E+00
    0.15888E+04        -0.16561E+04         0.00000E+00
    0.00000E+00         0.00000E+00        -0.30690E+04
 
   -0.35754E+04         0.16669E+04         0.00000E+00
    0.16669E+04        -0.18371E+04         0.00000E+00
    0.00000E+00         0.00000E+00        -0.30041E+04
 
   -0.31226E+04         0.17389E+04         0.00000E+00
    0.17389E+04        -0.20264E+04         0.00000E+00
    0.00000E+00         0.00000E+00        -0.29294E+04
 
   -0.66040E+04         0.37498E+01         0.00000E+00
    0.37498E+01        -0.25105E+00         0.00000E+00
    0.00000E+00         0.00000E+00        -0.20304E+04
 
   -0.66774E+04         0.19208E+02         0.00000E+00
    0.19208E+02        -0.20989E+01         0.00000E+00
    0.00000E+00         0.00000E+00        -0.21514E+04
 
   -0.67452E+04         0.44484E+02         0.00000E+00
    0.44484E+02        -0.70274E+01         0.00000E+00
    0.00000E+00         0.00000E+00        -0.22720E+04
 
   -0.68038E+04         0.78899E+02         0.00000E+00
    0.78899E+02        -0.16231E+02         0.00000E+00
    0.00000E+00         0.00000E+00        -0.23901E+04
 
   -0.68498E+04         0.12172E+03         0.00000E+00
    0.12172E+03        -0.30775E+02         0.00000E+00
    0.00000E+00         0.00000E+00        -0.25043E+04
 
   -0.68801E+04         0.17217E+03         0.00000E+00
    0.17217E+03        -0.51600E+02         0.00000E+00
    0.00000E+00         0.00000E+00        -0.26128E+04
 
   -0.68920E+04         0.22947E+03         0.00000E+00
    0.22947E+03        -0.79525E+02         0.00000E+00
    0.00000E+00         0.00000E+00        -0.27144E+04
 
   -0.68829E+04         0.29283E+03         0.00000E+00
    0.29283E+03        -0.11525E+03         0.00000E+00
    0.00000E+00         0.00000E+00        -0.28079E+04
 
   -0.68509E+04         0.36146E+03         0.00000E+00
    0.36146E+03        -0.15937E+03         0.00000E+00
    0.00000E+00         0.00000E+00        -0.28923E+04
 
   -0.67941E+04         0.43460E+03         0.00000E+00
    0.43460E+03        -0.21236E+03         0.00000E+00
    0.00000E+00         0.00000E+00        -0.29667E+04
 
   -0.67112E+04         0.51150E+03         0.00000E+00
    0.51150E+03        -0.27462E+03         0.00000E+00
    0.00000E+00         0.00000E+00        -0.30307E+04
 
   -0.66010E+04         0.59145E+03         0.00000E+00
    0.59145E+03        -0.34644E+03         0.00000E+00
    0.00000E+00         0.00000E+00        -0.30836E+04
 
   -0.64628E+04         0.67376E+03         0.00000E+00
    0.67376E+03        -0.42804E+03         0.00000E+00
    0.00000E+00         0.00000E+00        -0.31254E+04
 
   -0.62960E+04         0.75776E+03         0.00000E+00
    0.75776E+03        -0.51958E+03         0.00000E+00
    0.00000E+00         0.00000E+00        -0.31558E+04
 
   -0.61001E+04         0.84282E+03         0.00000E+00
    0.84282E+03        -0.62112E+03         0.00000E+00
    0.00000E+00         0.00000E+00        -0.31748E+04
 
   -0.58752E+04         0.92829E+03         0.00000E+00
    0.92829E+03        -0.73270E+03         0.00000E+00
    0.00000E+00         0.00000E+00        -0.31826E+04
 
   -0.56212E+04         0.10136E+04         0.00000E+00
    0.10136E+04        -0.85430E+03         0.00000E+00
    0.00000E+00         0.00000E+00        -0.31793E+04
 
   -0.53383E+04         0.10980E+04         0.00000E+00
    0.10980E+04        -0.98583E+03         0.00000E+00
    0.00000E+00         0.00000E+00        -0.31652E+04
 
   -0.50268E+04         0.11809E+04         0.00000E+00
    0.11809E+04        -0.11272E+04         0.00000E+00
    0.00000E+00         0.00000E+00        -0.31405E+04
 
   -0.46872E+04         0.12617E+04         0.00000E+00
    0.12617E+04        -0.12781E+04         0.00000E+00
    0.00000E+00         0.00000E+00        -0.31056E+04
 
   -0.43198E+04         0.13395E+04         0.00000E+00
    0.13395E+04        -0.14385E+04         0.00000E+00
    0.00000E+00         0.00000E+00        -0.30606E+04
 
   -0.39253E+04         0.14136E+04         0.00000E+00
    0.14136E+04        -0.16080E+04         0.00000E+00
    0.00000E+00         0.00000E+00        -0.30058E+04
 
   -0.35044E+04         0.14831E+04         0.00000E+00
    0.14831E+04        -0.17861E+04         0.00000E+00
    0.00000E+00         0.00000E+00        -0.29414E+04
 
   -0.30579E+04         0.15471E+04         0.00000E+00
    0.15471E+04        -0.19725E+04         0.00000E+00
    0.00000E+00         0.00000E+00        -0.28676E+04
 
   -0.65945E+04         0.31091E+01         0.00000E+00
    0.31091E+01        -0.21183E+00         0.00000E+00
    0.00000E+00         0.00000E+00        -0.20266E+04
 
   -0.66584E+04         0.16250E+02         0.00000E+00
    0.16250E+02        -0.18390E+01         0.00000E+00
    0.00000E+00         0.00000E+00        -0.21431E+04
 
   -0.67173E+04         0.37965E+02         0.00000E+00
    0.37965E+02        -0.62919E+01         0.00000E+00
    0.00000E+00         0.00000E+00        -0.22591E+04
 
   -0.67677E+04         0.67694E+02         0.00000E+00
    0.67694E+02        -0.14744E+02         0.00000E+00
    0.00000E+00         0.00000E+00        -0.23730E+04
 
   -0.68062E+04         0.10483E+03         0.00000E+00
    0.10483E+03        -0.28254E+02         0.00000E+00
    0.00000E+00         0.00000E+00        -0.24830E+04
 
   -0.68297E+04         0.14871E+03         0.00000E+00
    0.14871E+03        -0.47767E+02         0.00000E+00
    0.00000E+00         0.00000E+00        -0.25876E+04
 
   -0.68354E+04         0.19867E+03         0.00000E+00
    0.19867E+03        -0.74117E+02         0.00000E+00
    0.00000E+00         0.00000E+00        -0.26855E+04
 
   -0.68210E+04         0.25402E+03         0.00000E+00
    0.25402E+03        -0.10803E+03         0.00000E+00
    0.00000E+00         0.00000E+00        -0.27754E+04
 
   -0.67843E+04         0.31410E+03         0.00000E+00
    0.31410E+03        -0.15012E+03         0.00000E+00
    0.00000E+00         0.00000E+00        -0.28565E+04
 
   -0.67236E+04         0.37824E+03         0.00000E+00
    0.37824E+03        -0.20090E+03         0.00000E+00
    0.00000E+00         0.00000E+00        -0.29279E+04
 
   -0.66374E+04         0.44578E+03         0.00000E+00
    0.44578E+03        -0.26081E+03         0.00000E+00
    0.00000E+00         0.00000E+00        -0.29890E+04
 
   -0.65247E+04         0.51608E+03         0.00000E+00
    0.51608E+03        -0.33017E+03         0.00000E+00
    0.00000E+00         0.00000E+00        -0.30393E+04
 
   -0.63845E+04         0.58855E+03         0.00000E+00
    0.58855E+03        -0.40925E+03         0.00000E+00
    0.00000E+00         0.00000E+00        -0.30787E+04
 
   -0.62164E+04         0.66258E+03         0.00000E+00
    0.66258E+03        -0.49822E+03         0.00000E+00
    0.00000E+00         0.00000E+00        -0.31070E+04
 
   -0.60198E+04         0.73759E+03         0.00000E+00
    0.73759E+03        -0.59720E+03         0.00000E+00
    0.00000E+00         0.00000E+00        -0.31242E+04
 
   -0.57948E+04         0.81301E+03         0.00000E+00
    0.81301E+03        -0.70623E+03         0.00000E+00
    0.00000E+00         0.00000E+00        -0.31304E+04
 
   -0.55413E+04         0.88828E+03         0.00000E+00
    0.88828E+03        -0.82531E+03         0.00000E+00
    0.00000E+00         0.00000E+00        -0.31258E+04
 
   -0.52595E+04         0.96280E+03         0.00000E+00
    0.96280E+03        -0.95436E+03         0.00000E+00
    0.00000E+00         0.00000E+00        -0.31107E+04
 
   -0.49497E+04         0.10360E+04         0.00000E+00
    0.10360E+04        -0.10933E+04         0.00000E+00
    0.00000E+00         0.00000E+00        -0.30852E+04
 
   -0.46125E+04         0.11072E+04         0.00000E+00
    0.11072E+04        -0.12418E+04         0.00000E+00
    0.00000E+00         0.00000E+00        -0.30498E+04
 
   -0.42483E+04         0.11758E+04         0.00000E+00
    0.11758E+04        -0.13997E+04         0.00000E+00
    0.00000E+00         0.00000E+00        -0.30047E+04
 
   -0.38578E+04         0.12410E+04         0.00000E+00
    0.12410E+04        -0.15668E+04         0.00000E+00
    0.00000E+00         0.00000E+00        -0.29501E+04
 
   -0.34417E+04         0.13020E+04         0.00000E+00
    0.13020E+04        -0.17424E+04         0.00000E+00
    0.00000E+00         0.00000E+00        -0.28862E+04
 
   -0.30009E+04         0.13581E+04         0.00000E+00
    0.13581E+04        -0.19262E+04         0.00000E+00
    0.00000E+00         0.00000E+00        -0.28132E+04
 
   -0.65866E+04         0.25585E+01         0.00000E+00
    0.25585E+01        -0.18206E+00         0.00000E+00
    0.00000E+00         0.00000E+00        -0.20235E+04
 
   -0.66423E+04         0.13596E+02         0.00000E+00
    0.13596E+02        -0.16381E+01         0.00000E+00
    0.00000E+00         0.00000E+00        -0.21360E+04
 
   -0.66935E+04         0.31991E+02         0.00000E+00
    0.31991E+02        -0.57151E+01         0.00000E+00
    0.00000E+00         0.00000E+00        -0.22481E+04
 
   -0.67367E+04         0.57292E+02         0.00000E+00
    0.57292E+02        -0.13565E+02         0.00000E+00
    0.00000E+00         0.00000E+00        -0.23582E+04
 
   -0.67686E+04         0.88994E+02         0.00000E+00
    0.88994E+02        -0.26238E+02         0.00000E+00
    0.00000E+00         0.00000E+00        -0.24646E+04
 
   -0.67861E+04         0.12655E+03         0.00000E+00
    0.12655E+03        -0.44681E+02         0.00000E+00
    0.00000E+00         0.00000E+00        -0.25658E+04
 
   -0.67864E+04         0.16941E+03         0.00000E+00
    0.16941E+03        -0.69739E+02         0.00000E+00
    0.00000E+00         0.00000E+00        -0.26604E+04
 
   -0.67672E+04         0.21698E+03         0.00000E+00
    0.21698E+03        -0.10215E+03         0.00000E+00
    0.00000E+00         0.00000E+00        -0.27473E+04
 
   -0.67264E+04         0.26869E+03         0.00000E+00
    0.26869E+03        -0.14256E+03         0.00000E+00
    0.00000E+00         0.00000E+00        -0.28254E+04
 
   -0.66622E+04         0.32397E+03         0.00000E+00
    0.32397E+03        -0.19151E+03         0.00000E+00
    0.00000E+00         0.00000E+00        -0.28941E+04
 
   -0.65732E+04         0.38226E+03         0.00000E+00
    0.38226E+03        -0.24946E+03         0.00000E+00
    0.00000E+00         0.00000E+00        -0.29527E+04
 
   -0.64581E+04         0.44300E+03         0.00000E+00
    0.44300E+03        -0.31677E+03         0.00000E+00
    0.00000E+00         0.00000E+00        -0.30008E+04
 
   -0.63162E+04         0.50568E+03         0.00000E+00
    0.50568E+03        -0.39373E+03         0.00000E+00
    0.00000E+00         0.00000E+00        -0.30382E+04
 
   -0.61468E+04         0.56975E+03         0.00000E+00
    0.56975E+03        -0.48055E+03         0.00000E+00
    0.00000E+00         0.00000E+00        -0.30646E+04
 
   -0.59496E+04         0.63472E+03         0.00000E+00
    0.63472E+03        -0.57735E+03         0.00000E+00
    0.00000E+00         0.00000E+00        -0.30802E+04
 
   -0.57244E+04         0.70008E+03         0.00000E+00
    0.70008E+03        -0.68421E+03         0.00000E+00
    0.00000E+00         0.00000E+00        -0.30851E+04
 
   -0.54713E+04         0.76531E+03         0.00000E+00
    0.76531E+03        -0.80114E+03         0.00000E+00
    0.00000E+00         0.00000E+00        -0.30793E+04
 
   -0.51905E+04         0.82990E+03         0.00000E+00
    0.82990E+03        -0.92805E+03         0.00000E+00
    0.00000E+00         0.00000E+00        -0.30633E+04
 
   -0.48823E+04         0.89332E+03         0.00000E+00
    0.89332E+03        -0.10648E+04         0.00000E+00
    0.00000E+00         0.00000E+00        -0.30372E+04
 
   -0.45472E+04         0.95500E+03         0.00000E+00
    0.95500E+03        -0.12113E+04         0.00000E+00
    0.00000E+00         0.00000E+00        -0.30014E+04
 
   -0.41858E+04         0.10143E+04         0.00000E+00
    0.10143E+04        -0.13671E+04         0.00000E+00
    0.00000E+00         0.00000E+00        -0.29562E+04
 
   -0.37988E+04         0.10707E+04         0.00000E+00
    0.10707E+04        -0.15319E+04         0.00000E+00
    0.00000E+00         0.00000E+00        -0.29018E+04
 
   -0.33871E+04         0.11234E+04         0.00000E+00
    0.11234E+04        -0.17053E+04         0.00000E+00
    0.00000E+00         0.00000E+00        -0.28383E+04
 
   -0.29515E+04         0.11717E+04         0.00000E+00
    0.11717E+04        -0.18868E+04         0.00000E+00
    0.00000E+00         0.00000E+00        -0.27661E+04
 
   -0.65800E+04         0.20758E+01         0.00000E+00
    0.20758E+01        -0.15996E+00         0.00000E+00
    0.00000E+00         0.00000E+00        -0.20209E+04
 
   -0.66288E+04         0.11177E+02         0.00000E+00
    0.11177E+02        -0.14857E+01         0.00000E+00
    0.00000E+00         0.00000E+00        -0.21299E+04
 
   -0.66735E+04         0.26449E+02         0.00000E+00
    0.26449E+02        -0.52707E+01         0.00000E+00
    0.00000E+00         0.00000E+00        -0.22388E+04
 
   -0.67105E+04         0.47532E+02         0.00000E+00
    0.47532E+02        -0.12646E+02         0.00000E+00
    0.00000E+00         0.00000E+00        -0.23457E+04
 
   -0.67367E+04         0.74018E+02         0.00000E+00
    0.74018E+02        -0.24652E+02         0.00000E+00
    0.00000E+00         0.00000E+00        -0.24490E+04
 
   -0.67491E+04         0.10547E+03         0.00000E+00
    0.10547E+03        -0.42237E+02         0.00000E+00
    0.00000E+00         0.00000E+00        -0.25472E+04
 
   -0.67448E+04         0.14141E+03         0.00000E+00
    0.14141E+03        -0.66251E+02         0.00000E+00
    0.00000E+00         0.00000E+00        -0.26391E+04
 
   -0.67215E+04         0.18137E+03         0.00000E+00
    0.18137E+03        -0.97449E+02         0.00000E+00
    0.00000E+00         0.00000E+00        -0.27233E+04
 
   -0.66771E+04         0.22487E+03         0.00000E+00
    0.22487E+03        -0.13649E+03         0.00000E+00
    0.00000E+00         0.00000E+00        -0.27990E+04
 
   -0.66098E+04         0.27142E+03         0.00000E+00
    0.27142E+03        -0.18395E+03         0.00000E+00
    0.00000E+00         0.00000E+00        -0.28654E+04
 
   -0.65182E+04         0.32056E+03         0.00000E+00
    0.32056E+03        -0.24029E+03         0.00000E+00
    0.00000E+00         0.00000E+00        -0.29219E+04
 
   -0.64011E+04         0.37183E+03         0.00000E+00
    0.37183E+03        -0.30591E+03         0.00000E+00
    0.00000E+00         0.00000E+00        -0.29681E+04
 
   -0.62577E+04         0.42476E+03         0.00000E+00
    0.42476E+03        -0.38111E+03         0.00000E+00
    0.00000E+00         0.00000E+00        -0.30037E+04
 
   -0.60872E+04         0.47891E+03         0.00000E+00
    0.47891E+03        -0.46614E+03         0.00000E+00
    0.00000E+00         0.00000E+00        -0.30286E+04
 
   -0.58894E+04         0.53385E+03         0.00000E+00
    0.53385E+03        -0.56114E+03         0.00000E+00
    0.00000E+00         0.00000E+00        -0.30428E+04
 
   -0.56641E+04         0.58913E+03         0.00000E+00
    0.58913E+03        -0.66619E+03         0.00000E+00
    0.00000E+00         0.00000E+00        -0.30464E+04
 
   -0.54113E+04         0.64432E+03         0.00000E+00
    0.64432E+03        -0.78130E+03         0.00000E+00
    0.00000E+00         0.00000E+00        -0.30398E+04
 
   -0.51314E+04         0.69897E+03         0.00000E+00
    0.69897E+03        -0.90641E+03         0.00000E+00
    0.00000E+00         0.00000E+00        -0.30230E+04
 
   -0.48245E+04         0.75261E+03         0.00000E+00
    0.75261E+03        -0.10414E+04         0.00000E+00
    0.00000E+00         0.00000E+00        -0.29964E+04
 
   -0.44913E+04         0.80476E+03         0.00000E+00
    0.80476E+03        -0.11860E+04         0.00000E+00
    0.00000E+00         0.00000E+00        -0.29603E+04
 
   -0.41324E+04         0.85490E+03         0.00000E+00
    0.85490E+03        -0.13400E+04         0.00000E+00
    0.00000E+00         0.00000E+00        -0.29149E+04
 
   -0.37485E+04         0.90247E+03         0.00000E+00
    0.90247E+03        -0.15030E+04         0.00000E+00
    0.00000E+00         0.00000E+00        -0.28606E+04
 
   -0.33405E+04         0.94689E+03         0.00000E+00
    0.94689E+03        -0.16745E+04         0.00000E+00
    0.00000E+00         0.00000E+00        -0.27976E+04
 
   -0.29094E+04         0.98751E+03         0.00000E+00
    0.98751E+03        -0.18539E+04         0.00000E+00
    0.00000E+00         0.00000E+00        -0.27261E+04
 
   -0.65748E+04         0.16432E+01         0.00000E+00
    0.16432E+01        -0.14395E+00         0.00000E+00
    0.00000E+00         0.00000E+00        -0.20188E+04
 
   -0.66178E+04         0.89370E+01         0.00000E+00
    0.89370E+01        -0.13728E+01         0.00000E+00
    0.00000E+00         0.00000E+00        -0.21250E+04
 
   -0.66570E+04         0.21240E+02         0.00000E+00
    0.21240E+02        -0.49359E+01         0.00000E+00
    0.00000E+00         0.00000E+00        -0.22311E+04
 
   -0.66890E+04         0.38274E+02         0.00000E+00
    0.38274E+02        -0.11945E+02         0.00000E+00
    0.00000E+00         0.00000E+00        -0.23354E+04
 
   -0.67105E+04         0.59720E+02         0.00000E+00
    0.59720E+02        -0.23432E+02         0.00000E+00
    0.00000E+00         0.00000E+00        -0.24361E+04
 
   -0.67185E+04         0.85225E+02         0.00000E+00
    0.85225E+02        -0.40342E+02         0.00000E+00
    0.00000E+00         0.00000E+00        -0.25319E+04
 
   -0.67103E+04         0.11442E+03         0.00000E+00
    0.11442E+03        -0.63532E+02         0.00000E+00
    0.00000E+00         0.00000E+00        -0.26215E+04
 
   -0.66836E+04         0.14692E+03         0.00000E+00
    0.14692E+03        -0.93767E+02         0.00000E+00
    0.00000E+00         0.00000E+00        -0.27035E+04
 
   -0.66362E+04         0.18233E+03         0.00000E+00
    0.18233E+03        -0.13172E+03         0.00000E+00
    0.00000E+00         0.00000E+00        -0.27772E+04
 
   -0.65664E+04         0.22027E+03         0.00000E+00
    0.22027E+03        -0.17797E+03         0.00000E+00
    0.00000E+00         0.00000E+00        -0.28417E+04
 
   -0.64726E+04         0.26036E+03         0.00000E+00
    0.26036E+03        -0.23303E+03         0.00000E+00
    0.00000E+00         0.00000E+00        -0.28964E+04
 
   -0.63538E+04         0.30220E+03         0.00000E+00
    0.30220E+03        -0.29729E+03         0.00000E+00
    0.00000E+00         0.00000E+00        -0.29410E+04
 
   -0.62090E+04         0.34544E+03         0.00000E+00
    0.34544E+03        -0.37108E+03         0.00000E+00
    0.00000E+00         0.00000E+00        -0.29751E+04
 
   -0.60376E+04         0.38970E+03         0.00000E+00
    0.38970E+03        -0.45466E+03         0.00000E+00
    0.00000E+00         0.00000E+00        -0.29987E+04
 
   -0.58393E+04         0.43462E+03         0.00000E+00
    0.43462E+03        -0.54819E+03         0.00000E+00
    0.00000E+00         0.00000E+00        -0.30118E+04
 
   -0.56138E+04         0.47983E+03         0.00000E+00
    0.47983E+03        -0.65176E+03         0.00000E+00
    0.00000E+00         0.00000E+00        -0.30145E+04
 
   -0.53614E+04         0.52498E+03         0.00000E+00
    0.52498E+03        -0.76539E+03         0.00000E+00
    0.00000E+00         0.00000E+00        -0.30070E+04
 
   -0.50821E+04         0.56967E+03         0.00000E+00
    0.56967E+03        -0.88901E+03         0.00000E+00
    0.00000E+00         0.00000E+00        -0.29896E+04
 
   -0.47764E+04         0.61354E+03         0.00000E+00
    0.61354E+03        -0.10225E+04         0.00000E+00
    0.00000E+00         0.00000E+00        -0.29625E+04
 
   -0.44448E+04         0.65617E+03         0.00000E+00
    0.65617E+03        -0.11656E+04         0.00000E+00
    0.00000E+00         0.00000E+00        -0.29261E+04
 
   -0.40880E+04         0.69714E+03         0.00000E+00
    0.69714E+03        -0.13181E+04         0.00000E+00
    0.00000E+00         0.00000E+00        -0.28807E+04
 
   -0.37067E+04         0.73598E+03         0.00000E+00
    0.73598E+03        -0.14795E+04         0.00000E+00
    0.00000E+00         0.00000E+00        -0.28266E+04
 
   -0.33019E+04         0.77221E+03         0.00000E+00
    0.77221E+03        -0.16494E+04         0.00000E+00
    0.00000E+00         0.00000E+00        -0.27639E+04
 
   -0.28745E+04         0.80529E+03         0.00000E+00
    0.80529E+03        -0.18270E+04         0.00000E+00
    0.00000E+00         0.00000E+00        -0.26929E+04
 
   -0.65706E+04         0.12465E+01         0.00000E+00
    0.12465E+01        -0.13273E+00         0.00000E+00
    0.00000E+00         0.00000E+00        -0.20171E+04
 
   -0.66091E+04         0.68295E+01         0.00000E+00
    0.68295E+01        -0.12917E+01         0.00000E+00
    0.00000E+00         0.00000E+00        -0.21211E+04
 
   -0.66440E+04         0.16283E+02         0.00000E+00
    0.16283E+02        -0.46915E+01         0.00000E+00
    0.00000E+00         0.00000E+00        -0.22251E+04
 
   -0.66719E+04         0.29401E+02         0.00000E+00
    0.29401E+02        -0.11427E+02         0.00000E+00
    0.00000E+00         0.00000E+00        -0.23272E+04
 
   -0.66896E+04         0.45944E+02         0.00000E+00
    0.45944E+02        -0.22522E+02         0.00000E+00
    0.00000E+00         0.00000E+00        -0.24259E+04
 
   -0.66942E+04         0.65644E+02         0.00000E+00
    0.65644E+02        -0.38920E+02         0.00000E+00
    0.00000E+00         0.00000E+00        -0.25198E+04
 
   -0.66830E+04         0.88219E+02         0.00000E+00
    0.88219E+02        -0.61481E+02         0.00000E+00
    0.00000E+00         0.00000E+00        -0.26075E+04
 
   -0.66535E+04         0.11337E+03         0.00000E+00
    0.11337E+03        -0.90976E+02         0.00000E+00
    0.00000E+00         0.00000E+00        -0.26878E+04
 
   -0.66036E+04         0.14081E+03         0.00000E+00
    0.14081E+03        -0.12809E+03         0.00000E+00
    0.00000E+00         0.00000E+00        -0.27598E+04
 
   -0.65317E+04         0.17023E+03         0.00000E+00
    0.17023E+03        -0.17342E+03         0.00000E+00
    0.00000E+00         0.00000E+00        -0.28228E+04
 
   -0.64362E+04         0.20133E+03         0.00000E+00
    0.20133E+03        -0.22747E+03         0.00000E+00
    0.00000E+00         0.00000E+00        -0.28761E+04
 
   -0.63159E+04         0.23381E+03         0.00000E+00
    0.23381E+03        -0.29068E+03         0.00000E+00
    0.00000E+00         0.00000E+00        -0.29194E+04
 
   -0.61701E+04         0.26740E+03         0.00000E+00
    0.26740E+03        -0.36337E+03         0.00000E+00
    0.00000E+00         0.00000E+00        -0.29523E+04
 
   -0.59979E+04         0.30179E+03         0.00000E+00
    0.30179E+03        -0.44582E+03         0.00000E+00
    0.00000E+00         0.00000E+00        -0.29749E+04
 
   -0.57992E+04         0.33670E+03         0.00000E+00
    0.33670E+03        -0.53819E+03         0.00000E+00
    0.00000E+00         0.00000E+00        -0.29871E+04
 
   -0.55736E+04         0.37186E+03         0.00000E+00
    0.37186E+03        -0.64060E+03         0.00000E+00
    0.00000E+00         0.00000E+00        -0.29890E+04
 
   -0.53214E+04         0.40696E+03         0.00000E+00
    0.40696E+03        -0.75306E+03         0.00000E+00
    0.00000E+00         0.00000E+00        -0.29809E+04
 
   -0.50427E+04         0.44171E+03         0.00000E+00
    0.44171E+03        -0.87551E+03         0.00000E+00
    0.00000E+00         0.00000E+00        -0.29629E+04
 
   -0.47379E+04         0.47582E+03         0.00000E+00
    0.47582E+03        -0.10078E+04         0.00000E+00
    0.00000E+00         0.00000E+00        -0.29356E+04
 
   -0.44076E+04         0.50895E+03         0.00000E+00
    0.50895E+03        -0.11497E+04         0.00000E+00
    0.00000E+00         0.00000E+00        -0.28990E+04
 
   -0.40525E+04         0.54078E+03         0.00000E+00
    0.54078E+03        -0.13010E+04         0.00000E+00
    0.00000E+00         0.00000E+00        -0.28535E+04
 
   -0.36733E+04         0.57093E+03         0.00000E+00
    0.57093E+03        -0.14611E+04         0.00000E+00
    0.00000E+00         0.00000E+00        -0.27995E+04
 
   -0.32710E+04         0.59903E+03         0.00000E+00
    0.59903E+03        -0.16297E+04         0.00000E+00
    0.00000E+00         0.00000E+00        -0.27371E+04
 
   -0.28468E+04         0.62466E+03         0.00000E+00
    0.62466E+03        -0.18060E+04         0.00000E+00
    0.00000E+00         0.00000E+00        -0.26666E+04
 
   -0.65676E+04         0.87467E+00         0.00000E+00
    0.87467E+00        -0.12524E+00         0.00000E+00
    0.00000E+00         0.00000E+00        -0.20158E+04
 
   -0.66027E+04         0.48164E+01         0.00000E+00
    0.48164E+01        -0.12362E+01         0.00000E+00
    0.00000E+00         0.00000E+00        -0.21182E+04
 
   -0.66343E+04         0.11509E+02         0.00000E+00
    0.11509E+02        -0.45218E+01         0.00000E+00
    0.00000E+00         0.00000E+00        -0.22205E+04
 
   -0.66592E+04         0.20810E+02         0.00000E+00
    0.20810E+02        -0.11064E+02         0.00000E+00
    0.00000E+00         0.00000E+00        -0.23211E+04
 
   -0.66741E+04         0.32554E+02         0.00000E+00
    0.32554E+02        -0.21879E+02         0.00000E+00
    0.00000E+00         0.00000E+00        -0.24183E+04
 
   -0.66761E+04         0.46553E+02         0.00000E+00
    0.46553E+02        -0.37909E+02         0.00000E+00
    0.00000E+00         0.00000E+00        -0.25107E+04
 
   -0.66625E+04         0.62608E+02         0.00000E+00
    0.62608E+02        -0.60014E+02         0.00000E+00
    0.00000E+00         0.00000E+00        -0.25970E+04
 
   -0.66309E+04         0.80511E+02         0.00000E+00
    0.80511E+02        -0.88973E+02         0.00000E+00
    0.00000E+00         0.00000E+00        -0.26761E+04
 
   -0.65793E+04         0.10005E+03         0.00000E+00
    0.10005E+03        -0.12548E+03         0.00000E+00
    0.00000E+00         0.00000E+00        -0.27469E+04
 
   -0.65058E+04         0.12101E+03         0.00000E+00
    0.12101E+03        -0.17013E+03         0.00000E+00
    0.00000E+00         0.00000E+00        -0.28087E+04
 
   -0.64089E+04         0.14319E+03         0.00000E+00
    0.14319E+03        -0.22346E+03         0.00000E+00
    0.00000E+00         0.00000E+00        -0.28610E+04
 
   -0.62876E+04         0.16636E+03         0.00000E+00
    0.16636E+03        -0.28589E+03         0.00000E+00
    0.00000E+00         0.00000E+00        -0.29032E+04
 
   -0.61409E+04         0.19032E+03         0.00000E+00
    0.19032E+03        -0.35778E+03         0.00000E+00
    0.00000E+00         0.00000E+00        -0.29353E+04
 
   -0.59682E+04         0.21487E+03         0.00000E+00
    0.21487E+03        -0.43939E+03         0.00000E+00
    0.00000E+00         0.00000E+00        -0.29571E+04
 
   -0.57691E+04         0.23979E+03         0.00000E+00
    0.23979E+03        -0.53091E+03         0.00000E+00
    0.00000E+00         0.00000E+00        -0.29686E+04
 
   -0.55435E+04         0.26489E+03         0.00000E+00
    0.26489E+03        -0.63246E+03         0.00000E+00
    0.00000E+00         0.00000E+00        -0.29699E+04
 
   -0.52914E+04         0.28996E+03         0.00000E+00
    0.28996E+03        -0.74405E+03         0.00000E+00
    0.00000E+00         0.00000E+00        -0.29613E+04
 
   -0.50132E+04         0.31478E+03         0.00000E+00
    0.31478E+03        -0.86562E+03         0.00000E+00
    0.00000E+00         0.00000E+00        -0.29431E+04
 
   -0.47091E+04         0.33913E+03         0.00000E+00
    0.33913E+03        -0.99704E+03         0.00000E+00
    0.00000E+00         0.00000E+00        -0.29154E+04
 
   -0.43797E+04         0.36278E+03         0.00000E+00
    0.36278E+03        -0.11381E+04         0.00000E+00
    0.00000E+00         0.00000E+00        -0.28787E+04
 
   -0.40259E+04         0.38549E+03         0.00000E+00
    0.38549E+03        -0.12884E+04         0.00000E+00
    0.00000E+00         0.00000E+00        -0.28332E+04
 
   -0.36483E+04         0.40700E+03         0.00000E+00
    0.40700E+03        -0.14476E+04         0.00000E+00
    0.00000E+00         0.00000E+00        -0.27792E+04
 
   -0.32480E+04         0.42703E+03         0.00000E+00
    0.42703E+03        -0.16152E+04         0.00000E+00
    0.00000E+00         0.00000E+00        -0.27171E+04
 
   -0.28260E+04         0.44528E+03         0.00000E+00
    0.44528E+03        -0.17904E+04         0.00000E+00
    0.00000E+00         0.00000E+00        -0.26469E+04
 
   -0.65656E+04         0.51886E+00         0.00000E+00
    0.51886E+00        -0.12069E+00         0.00000E+00
    0.00000E+00         0.00000E+00        -0.20150E+04
 
   -0.65984E+04         0.28660E+01         0.00000E+00
    0.28660E+01        -0.12019E+01         0.00000E+00
    0.00000E+00         0.00000E+00        -0.21163E+04
 
   -0.66279E+04         0.68579E+01         0.00000E+00
    0.68579E+01        -0.44151E+01         0.00000E+00
    0.00000E+00         0.00000E+00        -0.22175E+04
 
   -0.66508E+04         0.12412E+02         0.00000E+00
    0.12412E+02        -0.10834E+02         0.00000E+00
    0.00000E+00         0.00000E+00        -0.23171E+04
 
   -0.66638E+04         0.19429E+02         0.00000E+00
    0.19429E+02        -0.21469E+02         0.00000E+00
    0.00000E+00         0.00000E+00        -0.24133E+04
 
   -0.66641E+04         0.27800E+02         0.00000E+00
    0.27800E+02        -0.37261E+02         0.00000E+00
    0.00000E+00         0.00000E+00        -0.25047E+04
 
   -0.66489E+04         0.37405E+02         0.00000E+00
    0.37405E+02        -0.59071E+02         0.00000E+00
    0.00000E+00         0.00000E+00        -0.25901E+04
 
   -0.66159E+04         0.48122E+02         0.00000E+00
    0.48122E+02        -0.87682E+02         0.00000E+00
    0.00000E+00         0.00000E+00        -0.26683E+04
 
   -0.65631E+04         0.59822E+02         0.00000E+00
    0.59822E+02        -0.12379E+03         0.00000E+00
    0.00000E+00         0.00000E+00        -0.27382E+04
 
   -0.64885E+04         0.72379E+02         0.00000E+00
    0.72379E+02        -0.16800E+03         0.00000E+00
    0.00000E+00         0.00000E+00        -0.27993E+04
 
   -0.63908E+04         0.85666E+02         0.00000E+00
    0.85666E+02        -0.22085E+03         0.00000E+00
    0.00000E+00         0.00000E+00        -0.28509E+04
 
   -0.62687E+04         0.99556E+02         0.00000E+00
    0.99556E+02        -0.28277E+03         0.00000E+00
    0.00000E+00         0.00000E+00        -0.28925E+04
 
   -0.61215E+04         0.11392E+03         0.00000E+00
    0.11392E+03        -0.35413E+03         0.00000E+00
    0.00000E+00         0.00000E+00        -0.29240E+04
 
   -0.59484E+04         0.12864E+03         0.00000E+00
    0.12864E+03        -0.43520E+03         0.00000E+00
    0.00000E+00         0.00000E+00        -0.29453E+04
 
   -0.57491E+04         0.14360E+03         0.00000E+00
    0.14360E+03        -0.52616E+03         0.00000E+00
    0.00000E+00         0.00000E+00        -0.29563E+04
 
   -0.55234E+04         0.15865E+03         0.00000E+00
    0.15865E+03        -0.62714E+03         0.00000E+00
    0.00000E+00         0.00000E+00        -0.29573E+04
 
   -0.52715E+04         0.17369E+03         0.00000E+00
    0.17369E+03        -0.73815E+03         0.00000E+00
    0.00000E+00         0.00000E+00        -0.29484E+04
 
   -0.49935E+04         0.18858E+03         0.00000E+00
    0.18858E+03        -0.85914E+03         0.00000E+00
    0.00000E+00         0.00000E+00        -0.29298E+04
 
   -0.46898E+04         0.20318E+03         0.00000E+00
    0.20318E+03        -0.98998E+03         0.00000E+00
    0.00000E+00         0.00000E+00        -0.29020E+04
 
   -0.43612E+04         0.21737E+03         0.00000E+00
    0.21737E+03        -0.11304E+04         0.00000E+00
    0.00000E+00         0.00000E+00        -0.28652E+04
 
   -0.40082E+04         0.23098E+03         0.00000E+00
    0.23098E+03        -0.12801E+04         0.00000E+00
    0.00000E+00         0.00000E+00        -0.28197E+04
 
   -0.36317E+04         0.24388E+03         0.00000E+00
    0.24388E+03        -0.14387E+04         0.00000E+00
    0.00000E+00         0.00000E+00        -0.27658E+04
 
   -0.32327E+04         0.25588E+03         0.00000E+00
    0.25588E+03        -0.16056E+04         0.00000E+00
    0.00000E+00         0.00000E+00        -0.27038E+04
 
   -0.28123E+04         0.26681E+03         0.00000E+00
    0.26681E+03        -0.17802E+04         0.00000E+00
    0.00000E+00         0.00000E+00        -0.26338E+04
 
   -0.65646E+04         0.17200E+00         0.00000E+00
    0.17200E+00        -0.11854E+00         0.00000E+00
    0.00000E+00         0.00000E+00        -0.20146E+04
 
   -0.65963E+04         0.95146E+00         0.00000E+00
    0.95146E+00        -0.11854E+01         0.00000E+00
    0.00000E+00         0.00000E+00        -0.21153E+04
 
   -0.66248E+04         0.22782E+01         0.00000E+00
    0.22782E+01        -0.43638E+01         0.00000E+00
    0.00000E+00         0.00000E+00        -0.22160E+04
 
   -0.66466E+04         0.41251E+01         0.00000E+00
    0.41251E+01        -0.10722E+02         0.00000E+00
    0.00000E+00         0.00000E+00        -0.23150E+04
 
   -0.66587E+04         0.64595E+01         0.00000E+00
    0.64595E+01        -0.21270E+02         0.00000E+00
    0.00000E+00         0.00000E+00        -0.24108E+04
 
   -0.66581E+04         0.92450E+01         0.00000E+00
    0.92450E+01        -0.36945E+02         0.00000E+00
    0.00000E+00         0.00000E+00        -0.25017E+04
 
   -0.66421E+04         0.12442E+02         0.00000E+00
    0.12442E+02        -0.58610E+02         0.00000E+00
    0.00000E+00         0.00000E+00        -0.25866E+04
 
   -0.66085E+04         0.16010E+02         0.00000E+00
    0.16010E+02        -0.87049E+02         0.00000E+00
    0.00000E+00         0.00000E+00        -0.26644E+04
 
   -0.65550E+04         0.19906E+02         0.00000E+00
    0.19906E+02        -0.12296E+03         0.00000E+00
    0.00000E+00         0.00000E+00        -0.27339E+04
 
   -0.64799E+04         0.24089E+02         0.00000E+00
    0.24089E+02        -0.16696E+03         0.00000E+00
    0.00000E+00         0.00000E+00        -0.27946E+04
 
   -0.63817E+04         0.28515E+02         0.00000E+00
    0.28515E+02        -0.21957E+03         0.00000E+00
    0.00000E+00         0.00000E+00        -0.28458E+04
 
   -0.62593E+04         0.33143E+02         0.00000E+00
    0.33143E+02        -0.28124E+03         0.00000E+00
    0.00000E+00         0.00000E+00        -0.28872E+04
 
   -0.61118E+04         0.37930E+02         0.00000E+00
    0.37930E+02        -0.35234E+03         0.00000E+00
    0.00000E+00         0.00000E+00        -0.29184E+04
 
   -0.59385E+04         0.42836E+02         0.00000E+00
    0.42836E+02        -0.43313E+03         0.00000E+00
    0.00000E+00         0.00000E+00        -0.29394E+04
 
   -0.57391E+04         0.47818E+02         0.00000E+00
    0.47818E+02        -0.52381E+03         0.00000E+00
    0.00000E+00         0.00000E+00        -0.29502E+04
 
   -0.55134E+04         0.52837E+02         0.00000E+00
    0.52837E+02        -0.62451E+03         0.00000E+00
    0.00000E+00         0.00000E+00        -0.29510E+04
 
   -0.52615E+04         0.57848E+02         0.00000E+00
    0.57848E+02        -0.73523E+03         0.00000E+00
    0.00000E+00         0.00000E+00        -0.29419E+04
 
   -0.49836E+04         0.62810E+02         0.00000E+00
    0.62810E+02        -0.85594E+03         0.00000E+00
    0.00000E+00         0.00000E+00        -0.29232E+04
 
   -0.46802E+04         0.67678E+02         0.00000E+00
    0.67678E+02        -0.98648E+03         0.00000E+00
    0.00000E+00         0.00000E+00        -0.28953E+04
 
   -0.43519E+04         0.72406E+02         0.00000E+00
    0.72406E+02        -0.11266E+04         0.00000E+00
    0.00000E+00         0.00000E+00        -0.28585E+04
 
   -0.39993E+04         0.76943E+02         0.00000E+00
    0.76943E+02        -0.12760E+04         0.00000E+00
    0.00000E+00         0.00000E+00        -0.28129E+04
 
   -0.36234E+04         0.81239E+02         0.00000E+00
    0.81239E+02        -0.14343E+04         0.00000E+00
    0.00000E+00         0.00000E+00        -0.27591E+04
 
   -0.32250E+04         0.85236E+02         0.00000E+00
    0.85236E+02        -0.16008E+04         0.00000E+00
    0.00000E+00         0.00000E+00        -0.26971E+04
 
   -0.28054E+04         0.88876E+02         0.00000E+00
    0.88876E+02        -0.17751E+04         0.00000E+00
    0.00000E+00         0.00000E+00        -0.26273E+04
 
SCALARS stresss double 
LOOKUP_TABLE default
  -68783.1959250302     
  -67753.9933120057     
  -62547.0822477387     
  -56273.1067527455     
  -50160.2998224028     
  -44478.8589078353     
  -39315.5660366079     
  -34906.5040379497     
  -31096.8872078940     
  -27807.8201539926     
  -25002.7178325177     
  -22548.1157080694     
  -20347.8203743306     
  -18342.5732761916     
  -16501.9219014978     
  -14794.0167893545     
  -13228.0958101820     
  -11846.2571634450     
  -10662.7326977930     
  -10154.3744374888     
  -10644.0420925640     
  -11136.3884251010     
  -11651.5162153523     
  -12204.3670215179     
  -68332.0983576568     
  -63260.7121962708     
  -57948.0656664589     
  -52816.4898906482     
  -47482.9799149313     
  -42413.7319431921     
  -37840.6503233062     
  -33845.7490752728     
  -30359.1477514673     
  -27237.6505060197     
  -24516.0494563654     
  -22122.3760761508     
  -19982.2020110483     
  -18035.8582915190     
  -16261.5673302374     
  -14640.1447239938     
  -13135.1939957513     
  -11789.2442367538     
  -10629.4131802811     
  -10160.6370280123     
  -10622.9649061562     
  -11096.8120837316     
  -11597.6542562032     
  -12138.4774830130     
  -54896.8791631369     
  -50172.2650853523     
  -49185.1886730584     
  -46020.6025252734     
  -42465.5796570463     
  -38691.2686119494     
  -35067.8484193566     
  -31732.0375757462     
  -28708.0117463483     
  -25943.2743069248     
  -23418.5023444367     
  -21203.1878413371     
  -19254.9414645882     
  -17487.1235205943     
  -15846.4005331569     
  -14325.9299591489     
  -12930.9328311203     
  -11675.3389361930     
  -10538.1500869355     
  -10158.1773487276     
  -10573.6800925326     
  -11014.1733115499     
  -11488.3570555436     
  -12005.4109751262     
  -21680.2826775254     
  -37377.7319598632     
  -37563.2263875803     
  -37103.2067965660     
  -35409.9132481183     
  -33242.5142367659     
  -30827.2101910635     
  -28383.3199946084     
  -26056.6547249613     
  -23845.8360093211     
  -21809.6718673520     
  -19921.2511777376     
  -18204.2354447681     
  -16655.8814086129     
  -15226.1923908925     
  -13904.1599186452     
  -12652.0475644190     
  -11470.7832878722     
  -10388.3455070588     
  -10124.9240938122     
  -10483.8461643597     
  -10883.1931898744     
  -11322.0120910822     
  -11804.1915307573     
  -197.355080930680     
  -18814.9667527693     
  -25988.7184483493     
  -27751.3988683057     
  -28042.6589393235     
  -27334.3824413628     
  -26114.9894844127     
  -24634.8457913412     
  -23055.6677914601     
  -21456.4768626335     
  -19923.8508397242     
  -18463.9673288954     
  -17055.8788502000     
  -15760.1498064646     
  -14535.1313166505     
  -13371.3670847970     
  -12267.3252662513     
  -11192.2563391197     
  -10152.0714413288     
  -10032.1232563989     
  -10340.1548463864     
  -10700.8119447112     
  -11099.1574699733     
  -11536.6508825235     
  -224.317794832719     
  -12408.5028242105     
  -18953.1383950548     
  -21830.7264917025     
  -22782.7277418242     
  -22807.2018973956     
  -22259.7032233704     
  -21375.7645444597     
  -20319.1985958278     
  -19171.4051302111     
  -17992.4598440978     
  -16816.9351519033     
  -15730.9579913628     
  -14684.8471615270     
  -13646.7587078270     
  -12626.6788410021     
  -11663.4400156654     
  -10684.8227213800     
  -9805.79805679780     
  -9847.44159457324     
  -10141.8164985065     
  -10468.9957117580     
  -10824.4078118909     
  -11209.4416257661     
   721.329097870497     
  -8616.01918677889     
  -14759.6908183434     
  -17330.8798969271     
  -18716.5312043639     
  -19160.3318549920     
  -19035.6581040545     
  -18551.7014533930     
  -17865.8447651108     
  -17061.2177009052     
  -16166.8773729680     
  -15255.5920107391     
  -14365.4204103348     
  -13489.7074328583     
  -12651.5612966824     
  -11807.5102087950     
  -10947.8583977185     
  -10094.4537661770     
  -9409.23710967847     
  -9607.41917015096     
  -9900.00413388360     
  -10195.9561817884     
  -10506.6531464627     
  -10834.2771931240     
  -122.292756366959     
  -6177.49240959790     
  -10938.8435428747     
  -13984.0934834712     
  -15369.7324388651     
  -16008.4477370450     
  -16229.4134723629     
  -16048.6937288061     
  -15646.7911674131     
  -15079.7591052415     
  -14409.0576346852     
  -13690.6213880320     
  -12990.0634142883     
  -12298.1337648498     
  -11591.7185560091     
  -10885.1474089669     
  -10154.7075379363     
  -9416.52743092788     
  -9069.80758187621     
  -9366.46974825403     
  -9631.64326066562     
  -9893.52325344278     
  -10157.4510689706     
  -10425.9834509920     
  -934.535461205921     
  -5009.52181493969     
  -8795.36893191709     
  -11209.4604551932     
  -12668.2363089822     
  -13388.2996163768     
  -13713.0501887668     
  -13744.3583260220     
  -13569.1649633099     
  -13200.6664114695     
  -12722.8922591470     
  -12197.4016987016     
  -11655.5571859125     
  -11087.8679134886     
  -10512.2292644409     
  -9942.01705896292     
  -9315.80197287952     
  -8757.10551948695     
  -8888.50152001226     
  -9122.99748950462     
  -9352.03139469483     
  -9572.56626542034     
  -9788.61658308525     
  -9999.37622404261     
  -1749.01075177161     
  -4572.94463615665     
  -7090.72711862075     
  -9100.29788655538     
  -10419.8792845250     
  -11213.8940671658     
  -11607.8087284280     
  -11734.0801607382     
  -11689.5412179896     
  -11483.1959559123     
  -11155.8887431593     
  -10773.1650886177     
  -10356.6859400270     
  -9935.26742870246     
  -9466.07779259386     
  -8987.71064064526     
  -8493.71353009842     
  -8516.06595800990     
  -8694.02762460218     
  -8880.95237500182     
  -9064.20500170112     
  -9241.50029987578     
  -9409.98167941021     
  -9566.73783229070     
  -2422.95493079285     
  -4351.79524340775     
  -6180.43850530997     
  -7691.66688575496     
  -8694.43142417747     
  -9375.20799964458     
  -9824.32732024223     
  -10020.4238441194     
  -10065.5445537503     
  -9940.46145230216     
  -9733.72642931342     
  -9475.04662708453     
  -9165.08463376487     
  -8795.20072734694     
  -8462.04672087590     
  -8192.99501574927     
  -8222.15364555438     
  -8354.36137249174     
  -8486.75435180207     
  -8628.85473060493     
  -8770.29415252610     
  -8905.04569127704     
  -9028.79425070902     
  -9136.74617694301     
  -2923.12178677952     
  -4281.30660519887     
  -5608.54063071235     
  -6745.08209543726     
  -7623.46486875974     
  -8104.98306104251     
  -8353.03645966969     
  -8563.53677257722     
  -8627.80749240316     
  -8577.26493622589     
  -8441.81759998065     
  -8255.20550243278     
  -8058.08721298828     
  -7947.92406547462     
  -7918.54735048500     
  -7992.50649105110     
  -8073.09621623612     
  -8156.45628065529     
  -8260.19811852077     
  -8366.17757768128     
  -8470.29382751337     
  -8566.55989459973     
  -8649.82687152606     
  -8714.86817201530     
  -3270.02146999141     
  -4252.79557679302     
  -5237.32275493962     
  -6121.45440036561     
  -6819.35717971721     
  -7312.02944589307     
  -7612.28314815674     
  -7683.30355474468     
  -7673.19430248925     
  -7647.59027803227     
  -7624.91897276667     
  -7615.01436041489     
  -7664.36212031922     
  -7715.93391814291     
  -7756.56219766114     
  -7802.55598210752     
  -7867.85804261418     
  -7940.47667561937     
  -8016.33275269790     
  -8093.61733966298     
  -8165.89220171525     
  -8228.44208417592     
  -8276.27653245360     
  -8304.28960207189     
  -3487.38291833210     
  -4226.82759484594     
  -4981.19092752910     
  -5676.84324327912     
  -6262.83465425520     
  -6711.33668553151     
  -7011.59327482587     
  -7191.49105674956     
  -7282.08794188502     
  -7330.07391410747     
  -7362.70824470719     
  -7399.71680903142     
  -7442.46295405384     
  -7492.30321161770     
  -7542.00564697000     
  -7592.84098162774     
  -7646.76032826042     
  -7703.90677344054     
  -7760.71980675666     
  -7813.69442214626     
  -7859.23148729034     
  -7892.91568794698     
  -7910.34699277213     
  -7906.86437021031     
  -3605.14303587609     
  -4187.39786251356     
  -4785.39787283465     
  -5350.91134679820     
  -5846.50256935184     
  -6249.20071326545     
  -6554.00941537428     
  -6768.94741768634     
  -6915.13016972578     
  -7014.73840876719     
  -7089.04434692149     
  -7151.02216409879     
  -7208.36362859276     
  -7262.65095915142     
  -7314.68682734311     
  -7364.19409935538     
  -7411.56636248212     
  -7456.21450525982     
  -7496.48762278101     
  -7529.70754005291     
  -7552.71329292596     
  -7562.00191702598     
  -7553.70477318457     
  -7523.72234345242     
  -3650.43995566814     
  -4130.49063590277     
  -4622.96775254091     
  -5095.65855132022     
  -5522.35003333647     
  -5886.25386531097     
  -6180.79649758404     
  -6409.44952828164     
  -6582.17007601589     
  -6712.60143574834     
  -6813.55373431363     
  -6895.42779216872     
  -6964.74888498974     
  -7025.32143076055     
  -7078.79982487552     
  -7126.02169218307     
  -7167.07415955468     
  -7201.47648459793     
  -7227.95730700362     
  -7244.55154016095     
  -7248.72516926144     
  -7237.52555483212     
  -7207.67325467601     
  -7155.60999832927     
  -3645.90298393954     
  -4058.52497267093     
  -4478.57637256115     
  -4884.83869774890     
  -5259.24113676175     
  -5589.20263137175     
  -5868.74902401194     
  -6098.04564661645     
  -6282.11077531932     
  -6428.54582803584     
  -6545.61718741826     
  -6640.51973463711     
  -6718.75373004976     
  -6783.94013662314     
  -6838.27785162894     
  -6882.87216478346     
  -6918.07723634005     
  -6943.56359074238     
  -6958.38450136898     
  -6961.00562994335     
  -6949.39126888037     
  -6921.09248957622     
  -6873.32657186986     
  -6803.04256950250     
  -3609.26802234628     
  -3975.88954463373     
  -4345.08492995104     
  -4702.94465473880     
  -5037.02617758817     
  -5338.09074333625     
  -5600.93730730074     
  -5824.40707742575     
  -6010.61178531620     
  -6163.80081017707     
  -6289.07403142027     
  -6391.38591679761     
  -6474.87419646726     
  -6542.64053172656     
  -6596.75738779997     
  -6638.43383876076     
  -6668.14949676872     
  -6685.76595441964     
  -6690.58414865578     
  -6681.40184285275     
  -6656.57066612000     
  -6614.06167527924     
  -6551.52890005248     
  -6466.36819763526     
  -3553.70908462344     
  -3887.30709758969     
  -4219.45859266540     
  -4541.01730538300     
  -4843.41272648791     
  -5119.87328891930     
  -5366.11508378272     
  -5580.46327466278     
  -5763.51531000656     
  -5917.48723489519     
  -6045.47043815264     
  -6150.74874720232     
  -6236.31579705021     
  -6304.59663138891     
  -6357.35695818088     
  -6395.71106970931     
  -6420.17897430908     
  -6430.74250273441     
  -6426.89754742897     
  -6407.69949861438     
  -6371.81111301008     
  -6317.55221971394     
  -6242.95094973562     
  -6145.79431370003     
  -3488.61863907721     
  -3796.89054707547     
  -4100.72316578124     
  -4394.02352662859     
  -4670.82845198780     
  -4926.16369604043     
  -5156.57392394866     
  -5360.30127053876     
  -5537.15151690123     
  -5688.14646406588     
  -5815.07315015544     
  -5920.04387134861     
  -6005.13723133776     
  -6072.15778504947     
  -6122.50358160161     
  -6157.11671256987     
  -6176.48026962966     
  -6180.63872646886     
  -6169.22610921925     
  -6141.49855037268     
  -6096.36967846332     
  -6032.44926654187     
  -5948.08412737287     
  -5841.40042058117     
  -3420.41858518484     
  -3707.84499954568     
  -3988.81341144132     
  -4259.14972994491     
  -4514.61801098049     
  -4751.51420864073     
  -4967.06567101215     
  -5159.60829126765     
  -5328.55956350116     
  -5474.23733629665     
  -5597.59298241081     
  -5699.92441561353     
  -5782.62119041218     
  -5846.96889631334     
  -5894.01990002108     
  -5924.52033696306     
  -5938.87822288633     
  -5937.15708876322     
  -5919.08485665592     
  -5884.07162038976     
  -5831.23360653477     
  -5759.42169963480     
  -5667.25355960598     
  -5553.14839292774     
  -3353.30354060402     
  -3622.45916670420     
  -3883.95686083842     
  -4134.80179996291     
  -4371.87914547613     
  -4592.36036305020     
  -4793.99641559914     
  -4975.27268414213     
  -5135.42920860483     
  -5274.37273646609     
  -5392.51934263600     
  -5490.60890736491     
  -5569.52549474576     
  -5630.14618612800     
  -5673.22776474249     
  -5699.33091309506     
  -5708.77549699298     
  -5701.61907342239     
  -5677.65153454401     
  -5636.40093286536     
  -5577.14725017841     
  -5498.94216090756     
  -5400.63345308214     
  -5280.89313766916     
  -3289.85317955034     
  -3542.22481084835     
  -3786.37781682928     
  -4020.02151347806     
  -4240.75221268334     
  -4446.32872388412     
  -4634.88359361825     
  -4805.04870513884     
  -4955.99264260672     
  -5087.38236821396     
  -5199.29136011963     
  -5292.07939020303     
  -5366.26677947445     
  -5422.41984238736     
  -5461.05705010667     
  -5482.57892133900     
  -5487.22027970664     
  -5475.02127068454     
  -5445.81313382875     
  -5399.21523663913     
  -5334.64074938999     
  -5251.30908291945     
  -5148.26376332229     
  -5024.39476089604     
  -3231.50994105353     
  -3467.99698009636     
  -3696.17619409389     
  -3914.16111836827     
  -4119.98650494553     
  -4311.79396341721     
  -4487.98191975584     
  -4647.30285208024     
  -4788.90273669833     
  -4912.30791820819     
  -5017.37161369665     
  -5104.19544864474     
  -5173.04105193893     
  -5224.24389510174     
  -5258.13749308414     
  -5274.99207914093     
  -5274.96868845408     
  -5258.08761055541     
  -5224.20925780881     
  -5173.02535517788     
  -5104.05859550879     
  -5016.66927390140     
  -4910.06775377986     
  -4783.33188953951     
  -3178.93784935850     
  -3400.15144423984     
  -3613.29778987938     
  -3816.70927187978     
  -4008.68116065197     
  -4187.59633373741     
  -4352.03066975880     
  -4500.82599221115     
  -4633.12508878231     
  -4748.37022901413     
  -4846.27169959419     
  -4926.75566207693     
  -4989.90119470438     
  -5035.87519772165     
  -5064.87166664752     
  -5077.05938815065     
  -5072.53995576659     
  -5051.31642189803     
  -5013.27195863844     
  -4958.15747308961     
  -4885.58704222844     
  -4795.04012927299     
  -4685.86970734972     
  -4557.31558511252     
  -3132.28485103737     
  -3338.72110890595     
  -3537.54759607902     
  -3727.20423522687     
  -3906.13340470661     
  -4072.86392185268     
  -4226.08475465311     
  -4364.69860629959     
  -4487.85038676297     
  -4594.93021723968     
  -4685.55426846657     
  -4759.52901862973     
  -4816.80538010285     
  -4857.42882469383     
  -4881.49053296408     
  -4889.08314497847     
  -4880.26326110531     
  -4855.02166867988     
  -4813.26144569008     
  -4754.78360322197     
  -4679.27969839291     
  -4586.33079008375     
  -4475.41214423730     
  -4345.90317365980     
  -3091.37067954614     
  -3283.50617578646     
  -3468.61997641886     
  -3645.19550778230     
  -3811.75215701829     
  -3966.90241027463     
  -4109.40351162874     
  -4238.19635325479     
  -4352.42742186299     
  -4451.45274026873     
  -4534.82535015370     
  -4602.26967678698     
  -4653.64701053033     
  -4688.91642842093     
  -4708.09497844402     
  -4711.22011900649     
  -4698.31648549191     
  -4669.36821783696     
  -4624.29742293455     
  -4562.94888814537     
  -4485.08088587919     
  -4390.36177037367     
  -4278.37202085049     
  -4148.61139327786     
  -3055.81900219645     
  -3234.15908272084     
  -3406.13225787753     
  -3570.23115409730     
  -3725.01071508836     
  -3869.12796614030     
  -4001.37864840996     
  -4120.72537850356     
  -4226.31400159152     
  -4317.47691516707     
  -4393.72399814503     
  -4454.72315800349     
  -4500.27331330907     
  -4530.27288739265     
  -4544.68671356948     
  -4543.51379703123     
  -4526.75779698317     
  -4494.40150894756     
  -4446.38612178640     
  -4382.59563405899     
  -4302.84654312076     
  -4206.88275092964     
  -4094.37553773667     
  -3964.92841425462     
  -3025.14873330063     
  -3190.24773587240     
  -3349.65547147466     
  -3501.85776981728     
  -3645.42229383946     
  -3779.02732738992     
  -3901.48842020477     
  -4011.77898257110     
  -4109.04224979649     
  -4192.59348514389     
  -4261.91262120761     
  -4316.62858611170     
  -4356.49723919178     
  -4381.37514702497     
  -4391.19142111314     
  -4385.91960361284     
  -4365.55122598475     
  -4330.07226413408     
  -4279.44333589613     
  -4213.58416930715     
  -4132.36262646111     
  -4035.58839478745     
  -3923.01134302958     
  -3794.32446766881     
  -2998.83584386208     
  -3151.30115009040     
  -3298.73982706311     
  -3439.62583488592     
  -3572.52853515084     
  -3696.13478334343     
  -3809.26913554465     
  -3910.90930488044     
  -4000.19490817404     
  -4076.42856139558     
  -4139.06934942731     
  -4187.71948960148     
  -4222.10556135321     
  -4242.05597068497     
  -4247.47638464940     
  -4238.32476105386     
  -4214.58737571649     
  -4176.25697415118     
  -4123.31389449517     
  -4055.71075559749     
  -3973.36109448065     
  -3876.13217426859     
  -3763.84206216673     
  -3636.26098788993     
  -2976.35408251199     
  -3116.84136145896     
  -3252.93446330236     
  -3383.09659714013     
  -3505.89505588275     
  -3620.01944853790     
  -3724.29793631315     
  -3817.70935499605     
  -3899.38975267592     
  -3968.63261152909     
  -4024.88273999092     
  -4067.72442897617     
  -4096.86490982447     
  -4112.11441471658     
  -4113.36423439101     
  -4100.56412514171     
  -4073.70027897502     
  -4032.77487946568     
  -3977.78805697402     
  -3908.72285626351     
  -3825.53365233545     
  -3728.13830225947     
  -3616.41420074754     
  -3490.19830971479     
  -2957.20076234977     
  -3086.40490676673     
  -3211.80192186667     
  -3331.84857587486     
  -3445.11054718630     
  -3550.27864889933     
  -3646.18278302192     
  -3731.80203617053     
  -3806.26981897482     
  -3868.87351221661     
  -3919.04863145164     
  -3956.36799426138     
  -3980.52673018079     
  -3991.32419710877     
  -3988.64396494816     
  -3972.43301755675     
  -3942.68123600301     
  -3899.40208940878     
  -3842.61530085324     
  -3772.33209521335     
  -3688.54348642212     
  -3591.21192952857     
  -3480.26654869678     
  -3355.60205267498     
  -2940.91207309509     
  -3059.55653608801     
  -3174.92814588186     
  -3285.48286058697     
  -3389.78743149348     
  -3486.53480782576     
  -3574.55694419703     
  -3652.83379434252     
  -3720.49767202731     
  -3776.83260691017     
  -3821.26875850772     
  -3853.37232784743     
  -3872.83169402317     
  -3879.44068944767     
  -3873.08001605787     
  -3853.69780895959     
  -3821.29029408963     
  -3775.88338423735     
  -3717.51593318179     
  -3646.22523659391     
  -3562.03524136096     
  -3464.94780759182     
  -3354.93726091065     
  -3231.94837481767     
  -2927.07113048772     
  -3035.89724873225     
  -3141.92887231914     
  -3243.62696293832     
  -3339.56298418836     
  -3428.43422781032     
  -3509.07622006282     
  -3580.47125069151     
  -3641.75240991233     
  -3692.20289382485     
  -3731.25069861037     
  -3758.45913301218     
  -3773.51381488383     
  -3776.20697236671     
  -3766.41994613775     
  -3744.10479689667     
  -3709.26587719609     
  -3661.94214557739     
  -3602.19089921086     
  -3530.07349127059     
  -3445.64348962801     
  -3348.93762869395     
  -3239.96980756058     
  -3118.72829375370     
  -2915.31106718491     
  -3015.06825775506     
  -3112.45322742886     
  -3205.93727434725     
  -3294.10036105179     
  -3375.64680507524     
  -3449.41775842646     
  -3514.39969710262     
  -3569.72845392418     
  -3614.68865816851     
  -3648.70875568562     
  -3671.35204567936     
  -3682.30436888058     
  -3681.35921093382     
  -3668.40104771651     
  -3643.38776536354     
  -3606.33294967841     
  -3557.28877092036     
  -3496.33010307650     
  -3423.54042160195     
  -3338.99992706186     
  -3242.77624780095     
  -3134.91798366987     
  -3015.45126404277     
  -2905.31481315235     
  -2996.75209815013     
  -3086.18522287818     
  -3172.10031434963     
  -3253.08928222282     
  -3327.86611904902     
  -3395.27973964172     
  -3454.32270278479     
  -3504.13545401875     
  -3544.00603092561     
  -3573.36545008924     
  -3591.77922544216     
  -3598.93563899388     
  -3594.63149408094     
  -3578.75613249113     
  -3551.27449900352     
  -3512.21000132831     
  -3461.62785175471     
  -3399.61949944035     
  -3326.28867741354     
  -3241.73950154029     
  -3146.06697281720     
  -3039.35015007375     
  -2921.64817671594     
  -2896.81274068318     
  -2980.67178878342     
  -3062.84372812864     
  -3141.83299996688     
  -3216.24629712573     
  -3284.80958995987     
  -3346.38148442189     
  -3399.96233786093     
  -3444.69884541516     
  -3479.88409604905     
  -3504.95335412657     
  -3519.47603128599     
  -3523.14446528369     
  -3515.76021655273     
  -3497.21863466783     
  -3467.49244465615     
  -3426.61506772822     
  -3374.66433303194     
  -3311.74716560887     
  -3237.98575789180     
  -3153.50565241804     
  -3058.42608421922     
  -2952.85285298286     
  -2836.87391679391     
  -2889.57900903366     
  -2966.58872379629     
  -3042.18138035587     
  -3114.88216630632     
  -3183.31464727673     
  -3246.21855150832     
  -3302.46371926184     
  -3351.05969737914     
  -3391.16074316738     
  -3422.06627838633     
  -3443.21707768887     
  -3454.18767024450     
  -3454.67557159181     
  -3444.48804572188     
  -3423.52713105758     
  -3391.77365753590     
  -3349.27094572502     
  -3296.10882269706     
  -3232.40852160935     
  -3158.30895887618     
  -3073.95480838428     
  -2979.48671822851     
  -2875.03394207447     
  -2760.70958367720     
  -2883.42719919861     
  -2954.29979136000     
  -3023.98279419870     
  -3091.02354744308     
  -3154.06378865996     
  -3211.85817728540     
  -3263.28885097317     
  -3307.37553016336     
  -3343.28096989930     
  -3370.31182926304     
  -3387.91526412321     
  -3395.67173370704     
  -3393.28464043910     
  -3380.56749739317     
  -3357.42934537880     
  -3323.85913160570     
  -3279.90972428205     
  -3225.68218196881     
  -3161.31083094544     
  -3086.94963400465     
  -3002.76026348541     
  -2908.90222145346     
  -2805.52528070281     
  -2692.76445079403     
  -2878.20565379043     
  -2943.63408386585     
  -3008.06235148235     
  -3070.06039740640     
  -3128.28865285171     
  -3181.51725235918     
  -3228.64117583892     
  -3268.69085814373     
  -3300.83808836053     
  -3324.39728970240     
  -3338.82250123122     
  -3343.70056125923     
  -3338.74111482385     
  -3323.76413681125     
  -3298.68568549807     
  -3263.50258826763     
  -3218.27672232891     
  -3163.11949784440     
  -3098.17708661193     
  -3023.61687179768     
  -2939.61552639852     
  -2846.34906136291     
  -2743.98511842474     
  -2632.67771673715     
  -2873.79281108506     
  -2934.44946365861     
  -2994.26178480507     
  -3051.82190068204     
  -3105.80872853909     
  -3155.00781002853     
  -3198.32699466179     
  -3234.80752538782     
  -3263.63036342756     
  -3284.11785710475     
  -3295.73108688258     
  -3298.06339350055     
  -3290.83071438356     
  -3273.85941868070     
  -3247.07235121475     
  -3210.47378032959     
  -3164.13390450225     
  -3108.17351701703     
  -3042.74936449885     
  -2968.04066894742     
  -2884.23721712909     
  -2791.52935685522     
  -2690.10017648887     
  -2580.12008093069     
  -2870.09273224293     
  -2926.62917417211     
  -2982.44771646751     
  -3036.16149337952     
  -3086.46703979404     
  -3132.16466753230     
  -3172.17463223645     
  -3205.54865055642     
  -3231.47661405953     
  -3249.28861368327     
  -3258.45261445943     
  -3258.56829249960     
  -3249.35766170941     
  -3230.65318014932     
  -3202.38404354882     
  -3164.56135647639     
  -3117.26283056766     
  -3060.61760340640     
  -2994.79170859380     
  -2919.97466240585     
  -2836.36756813887     
  -2744.17307675991     
  -2643.58748140564     
  -2534.79516249697     
  -2867.03095658955     
  -2920.07863152050     
  -2972.50927336899     
  -3022.95519147605     
  -3070.12908864216     
  -3112.84489944223     
  -3150.03437500454     
  -3180.75897793895     
  -3204.21693931534     
  -3219.74559724167     
  -3226.81936174481     
  -3225.04382147674     
  -3214.14662145598     
  -3193.96580166789     
  -3164.43630230925     
  -3125.57532321329     
  -3077.46718313119     
  -3020.24826849515     
  -2954.09259848444     
  -2879.19846878118     
  -2795.77657318382     
  -2704.03994115241     
  -2604.19596992180     
  -2496.44077085832     
  -2864.55077451760     
  -2914.72249142615     
  -2964.35586701209     
  -3012.10000166936     
  -3056.68181947937     
  -3096.92728727393     
  -3131.77834814661     
  -3160.30513476322     
  -3181.71331737576     
  -3195.34670953917     
  -3200.68547939514     
  -3197.34048439290     
  -3185.04435988818     
  -3163.64005147464     
  -3133.06749575435     
  -3093.34913512710     
  -3044.57490975476     
  -2986.88731359716     
  -2920.46703876134     
  -2845.51966845471     
  -2762.26381639282     
  -2670.92105045043     
  -2571.70788014190     
  -2464.83002994572     
  -2862.60997589697     
  -2910.50205716123     
  -2957.91520373393     
  -3003.51247315649     
  -3046.03265299828     
  -3084.31178081252     
  -3117.30035595824     
  -3144.07580901384     
  -3163.85008516241     
  -3175.97246650496     
  -3179.92798308210     
  -3175.33193196051     
  -3161.92113564138     
  -3139.54262969614     
  -3108.14048365602     
  -3067.74143945512     
  -3018.44000890467     
  -2960.38361525479     
  -2893.75830133411     
  -2818.77546313590     
  -2735.66000583140     
  -2644.64025987471     
  -2545.93993756718     
  -2439.77235390360     
  -2861.17811011463     
  -2907.37307316572     
  -2953.13157210097     
  -2997.12743467083     
  -3038.10862809932     
  -3074.91900215740     
  -3106.51570889417     
  -3131.98186452390     
  -3150.53431045746     
  -3161.52659946277     
  -3164.44755783003     
  -3158.91594378550     
  -3144.67183391459     
  -3121.56542753648     
  -3089.54397263108     
  -3048.63749680208     
  -2998.94398367136     
  -2940.61457856431     
  -2873.83934483258     
  -2798.83402875727     
  -2715.82822946310     
  -2625.05531147238     
  -2526.74434086232     
  -2421.11427016253     
  -2860.23427927440     
  -2905.30393406122     
  -2949.96444072714     
  -2992.89694983743     
  -3032.85568200308     
  -3068.68981835448     
  -3099.36105834154     
  -3123.95640998308     
  -3141.69606973564     
  -3151.93651845374     
  -3154.16918488953     
  -3148.01519746029     
  -3133.21685632562     
  -3109.62651573482     
  -3077.19357999435     
  -3035.95029605668     
  -2985.99698248067     
  -2927.48727790743     
  -2860.61392971123     
  -2785.59558021628     
  -2702.66494658925     
  -2612.05873203870     
  -2514.00954968569     
  -2408.74008509692     
  -2859.76547664646     
  -2904.27432828731     
  -2948.38738950855     
  -2990.78951481844     
  -3030.23809146005     
  -3065.58500315671     
  -3095.79425675786     
  -3119.95483665628     
  -3137.28864417309     
  -3147.15364856935     
  -3149.04260137118     
  -3142.57783494818     
  -3127.50277751003     
  -3103.67087448849     
  -3071.03261953723     
  -3029.62137792686     
  -2979.53864178456     
  -2920.93929998740     
  -2854.01744304798     
  -2778.99316012525     
  -2696.10072412380     
  -2605.57850252170     
  -2507.66087549169     
  -2402.57238772797     
SCALARS 2waySource double 
LOOKUP_TABLE default
  5.992509115519572E-007
  4.815205868161621E-007
  2.724184607685763E-007
 -1.695502862637899E-009
 -3.297160155441766E-007
 -7.035835515350102E-007
 -1.117767748236956E-006
 -1.567852485571608E-006
 -2.050534923566349E-006
 -2.561546923907583E-006
 -3.094442156651676E-006
 -3.639519272794214E-006
 -4.185598047297544E-006
 -4.723527419030093E-006
 -5.240783680228617E-006
 -5.730209917156016E-006
 -6.165706590911200E-006
 -6.312427357876974E-006
 -6.213090669972184E-006
 -7.242675314005870E-006
 -7.538558657766694E-006
 -7.755757060404620E-006
 -7.926569978834996E-006
 -8.054493717953652E-006
  6.460660273546676E-007
  5.016851080352725E-007
  2.682046512161646E-007
 -2.540859202529979E-008
 -3.674966140126539E-007
 -7.523416644747164E-007
 -1.175305068667911E-006
 -1.631580529734280E-006
 -2.114692458731944E-006
 -2.618603765838607E-006
 -3.138234982222159E-006
 -3.670670541910810E-006
 -4.207297221760394E-006
 -4.739832612217809E-006
 -5.269208875266136E-006
 -5.764698463485394E-006
 -6.138913382559387E-006
 -6.097501397772925E-006
 -6.370922954295991E-006
 -7.292453438805059E-006
 -7.523565859017876E-006
 -7.727930594733680E-006
 -7.894680821876082E-006
 -8.022039296486989E-006
  8.117406112139830E-007
  5.404127566396478E-007
  2.584969936568217E-007
 -6.518382902398059E-008
 -4.287944901651720E-007
 -8.293929706906901E-007
 -1.263243402821326E-006
 -1.725658576233992E-006
 -2.210113241930629E-006
 -2.709584215725903E-006
 -3.217559181396011E-006
 -3.730180851000915E-006
 -4.245126525557475E-006
 -4.759290674534503E-006
 -5.257925905556306E-006
 -5.718244903240215E-006
 -6.025831179049995E-006
 -6.348194440167127E-006
 -6.493172618402484E-006
 -7.276043061130552E-006
 -7.473093870644862E-006
 -7.666530267323124E-006
 -7.833084990708308E-006
 -7.960615484196319E-006
  8.650117843421790E-007
  5.699732148560758E-007
  2.384070236309320E-007
 -1.198387123637043E-007
 -5.097153038121541E-007
 -9.291839569249286E-007
 -1.375236343043101E-006
 -1.843475277038034E-006
 -2.328053299002833E-006
 -2.822432978491744E-006
 -3.320249013931018E-006
 -3.815807729851884E-006
 -4.304759958048702E-006
 -4.781185156868067E-006
 -5.241432511551335E-006
 -5.662174037297039E-006
 -5.991441646015610E-006
 -6.290939927085507E-006
 -6.534305378624414E-006
 -7.182752704246906E-006
 -7.372826116397913E-006
 -7.577704796305302E-006
 -7.744002478495142E-006
 -7.871521926346644E-006
  9.331366286206389E-007
  5.821509537387238E-007
  2.101222960737060E-007
 -1.869374101738931E-007
 -6.060275646547027E-007
 -1.046467343577652E-006
 -1.505547918112746E-006
 -1.979377030310455E-006
 -2.462881987133028E-006
 -2.950318504036248E-006
 -3.435842379413974E-006
 -3.913906845578240E-006
 -4.379346055182414E-006
 -4.826667127353498E-006
 -5.244729871717490E-006
 -5.623700404457621E-006
 -5.963412536171033E-006
 -6.260868278980016E-006
 -6.558608898988782E-006
 -6.968203668232192E-006
 -7.259131458275187E-006
 -7.465755200513986E-006
 -7.631601952316758E-006
 -7.757082398377604E-006
  1.008694902774220E-006
  5.968701307198693E-007
  1.737306219244594E-007
 -2.628873990661256E-007
 -7.133180061672605E-007
 -1.175855695487290E-006
 -1.648301770605425E-006
 -2.127310030094608E-006
 -2.608641229454410E-006
 -3.087488305976351E-006
 -3.558902316180754E-006
 -4.018108092767848E-006
 -4.460789328706460E-006
 -4.882227469319294E-006
 -5.277276732812018E-006
 -5.639342882465079E-006
 -5.967926855315197E-006
 -6.270927552766918E-006
 -6.559099023159964E-006
 -6.858754802750136E-006
 -7.131338106589516E-006
 -7.337384147154048E-006
 -7.497643604996642E-006
 -7.619733043881397E-006
  1.085112093749902E-006
  6.103543841965203E-007
  1.343456508309916E-007
 -3.446089888794807E-007
 -8.269737739796954E-007
 -1.311905410000515E-006
 -1.797459749992017E-006
 -2.280936378370235E-006
 -2.758952451820420E-006
 -3.227724091420581E-006
 -3.683378076673343E-006
 -4.122256694302127E-006
 -4.541009379054233E-006
 -4.936477769119024E-006
 -5.305291595620829E-006
 -5.644990538114202E-006
 -5.956173506400682E-006
 -6.242411334830138E-006
 -6.511425910664481E-006
 -6.767063522287125E-006
 -6.998155006822758E-006
 -7.190538790016629E-006
 -7.343151269755050E-006
 -7.460676683486739E-006
  1.157702625738233E-006
  6.205108591832521E-007
  9.225344853013897E-008
 -4.286293876092118E-007
 -9.426486489418627E-007
 -1.449258727110103E-006
 -1.947044073400218E-006
 -2.433925714080874E-006
 -2.907385431099218E-006
 -3.364676551327282E-006
 -3.803070772698813E-006
 -4.220064695703810E-006
 -4.613492226171910E-006
 -4.981466573160956E-006
 -5.322508372187295E-006
 -5.636043678305846E-006
 -5.923029292305861E-006
 -6.186332731849412E-006
 -6.429376368699132E-006
 -6.653358022977707E-006
 -6.854181923858631E-006
 -7.026333947503141E-006
 -7.167977096278918E-006
 -7.280157510052251E-006
  1.221784292296588E-006
  6.255099439802220E-007
  4.787370606064433E-008
 -5.125871290152402E-007
 -1.056323757535335E-006
 -1.582948504847214E-006
 -2.091427351104717E-006
 -2.580292356374629E-006
 -3.047840665471796E-006
 -3.492327973435212E-006
 -3.912145430239412E-006
 -4.305966059964550E-006
 -4.672821527621859E-006
 -5.012147784169007E-006
 -5.323881407819228E-006
 -5.608666888476495E-006
 -5.868078391827626E-006
 -6.104438248653922E-006
 -6.320073369622413E-006
 -6.515928954208655E-006
 -6.690927159402947E-006
 -6.843203306429132E-006
 -6.971922892603563E-006
 -7.077669867631101E-006
  1.273133887437687E-006
  6.236422636534454E-007
  1.526596840149615E-009
 -5.944725219915174E-007
 -1.164647310443167E-006
 -1.708629418510447E-006
 -2.225644056716875E-006
 -2.714726459635002E-006
 -3.174906192340102E-006
 -3.605360102965559E-006
 -4.005536551557012E-006
 -4.375243068490206E-006
 -4.714696690803183E-006
 -5.024551203926160E-006
 -5.305934365601747E-006
 -5.560498702236200E-006
 -5.790398923596947E-006
 -5.998080082971735E-006
 -6.185780095002453E-006
 -6.354959439268897E-006
 -6.506091358426408E-006
 -6.639158512280676E-006
 -6.754402380833574E-006
 -6.852689891052574E-006
  1.308166401964430E-006
  6.133981648878297E-007
 -4.660047065332413E-008
 -6.727145583140909E-007
 -1.264941437217530E-006
 -1.822800312027676E-006
 -2.345641222065146E-006
 -2.832876112906050E-006
 -3.284146546581205E-006
 -3.699440087979235E-006
 -4.079163545835146E-006
 -4.424179048902620E-006
 -4.735808482873732E-006
 -5.015817228098221E-006
 -5.266386644084814E-006
 -5.490065415747228E-006
 -5.689664910483688E-006
 -5.868050457201357E-006
 -6.027841927234093E-006
 -6.171129972396239E-006
 -6.299400676324828E-006
 -6.413749396050885E-006
 -6.515236237717179E-006
 -6.605158240071047E-006
  1.324094878244400E-006
  5.935314972587922E-007
 -9.647751289249797E-008
 -7.462376191432803E-007
 -1.355296306776870E-006
 -1.922921673997127E-006
 -2.448452496358029E-006
 -2.931540291606270E-006
 -3.372302622166572E-006
 -3.771405403356249E-006
 -4.130090100403322E-006
 -4.450158846716420E-006
 -4.733928669588625E-006
 -4.984164121997338E-006
 -5.203992834100347E-006
 -5.396799444627484E-006
 -5.566084107958671E-006
 -5.715278720563612E-006
 -5.847541279986960E-006
 -5.965592322113900E-006
 -6.071669042552072E-006
 -6.167625452252612E-006
 -6.255120709760632E-006
 -6.335808934309081E-006
  1.319038225128876E-006
  5.631129587097890E-007
 -1.482226656539436E-007
 -8.144832586034305E-007
 -1.434606914123970E-006
 -2.007472296335998E-006
 -2.532272329523974E-006
 -3.008760385979379E-006
 -3.437388385243384E-006
 -3.819358002948824E-006
 -4.156605706169180E-006
 -4.451740112984701E-006
 -4.707946878960636E-006
 -4.928872348805502E-006
 -5.118492296478858E-006
 -5.280966810333020E-006
 -5.420480447394146E-006
 -5.541072057668549E-006
 -5.646473374889066E-006
 -5.739989958076221E-006
 -5.824458543009864E-006
 -5.902290451451705E-006
 -5.975577379317750E-006
 -6.046221741561937E-006
  1.292066729074581E-006
  5.215719286575761E-007
 -2.020665901794624E-007
 -8.773787239601992E-007
 -1.502544564831381E-006
 -2.075924028160435E-006
 -2.596437812792534E-006
 -3.063809585899414E-006
 -3.478686986410620E-006
 -3.842663744442958E-006
 -4.158226612544964E-006
 -4.428649326635497E-006
 -4.657852383605544E-006
 -4.850242923800454E-006
 -5.010544271515016E-006
 -5.143620944509466E-006
 -5.254303805728566E-006
 -5.347223021998726E-006
 -5.426662471612624E-006
 -5.496454034038273E-006
 -5.559927420532672E-006
 -5.619919266926765E-006
 -5.678830266851190E-006
 -5.738711806003278E-006
  1.243183559356158E-006
  4.687213099965206E-007
 -2.582982288350505E-007
 -9.352620697500554E-007
 -1.559467361837515E-006
 -2.128643654935561E-006
 -2.641327622466379E-006
 -3.097093920925812E-006
 -3.496656924055987E-006
 -3.841865361771802E-006
 -4.135615054733791E-006
 -4.381704477343998E-006
 -4.584654828729084E-006
 -4.749511848887010E-006
 -4.881641985333154E-006
 -4.986531831690735E-006
 -5.069598006276413E-006
 -5.136015090489018E-006
 -5.190570993893455E-006
 -5.237559805720561E-006
 -5.280719525996243E-006
 -5.323215694924172E-006
 -5.367664773066572E-006
 -5.416187104091207E-006
  1.173249509101092E-006
  4.047616705872517E-007
 -3.172033905942970E-007
 -9.887790836187269E-007
 -1.606287407239039E-006
 -2.166740342416597E-006
 -2.668198585554317E-006
 -3.109985526758875E-006
 -3.492768080169092E-006
 -3.818525378400544E-006
 -4.090431061196750E-006
 -4.312675453485552E-006
 -4.490251441679688E-006
 -4.628723639945208E-006
 -4.733995773629032E-006
 -4.812087169351733E-006
 -4.868926512982045E-006
 -4.910169722813232E-006
 -4.941048253795056E-006
 -4.966253267883053E-006
 -4.989858876370664E-006
 -5.015284107581586E-006
 -5.045289606861744E-006
 -5.082002954882113E-006
  1.083863803031423E-006
  3.302636383276153E-007
 -3.790066790872061E-007
 -1.038768937209242E-006
 -1.644315404859664E-006
 -2.191881841661505E-006
 -2.678984367389394E-006
 -3.104613186664597E-006
 -3.469291838430453E-006
 -3.775021684755878E-006
 -4.025137336214874E-006
 -4.224100173662618E-006
 -4.377255194772039E-006
 -4.490572437206070E-006
 -4.570389499819336E-006
 -4.623167228885482E-006
 -4.655267090285898E-006
 -4.672756259696552E-006
 -4.681244727731209E-006
 -4.685757170876381E-006
 -4.690640528323333E-006
 -4.699506143258006E-006
 -4.715203470596438E-006
 -4.739821348953072E-006
  9.772162392067191E-007
  2.461303951220331E-007
 -4.438246334583343E-007
 -1.086153248681427E-006
 -1.675102004592773E-006
 -2.206101785787919E-006
 -2.676080451287459E-006
 -3.083635099451967E-006
 -3.429070158127300E-006
 -3.714319742801079E-006
 -3.942779664409003E-006
 -4.119076638043910E-006
 -4.248800770845040E-006
 -4.338223637174870E-006
 -4.394019459858953E-006
 -4.423002128158930E-006
 -4.431886648533730E-006
 -4.427080399868007E-006
 -4.414507171002121E-006
 -4.399465130116342E-006
 -4.386518365536532E-006
 -4.379420378181165E-006
 -4.381067021014986E-006
 -4.393476038392951E-006
  8.559258451983742E-007
  1.535442566791856E-007
 -5.116345852667763E-007
 -1.131839352552981E-006
 -1.700291200194641E-006
 -2.211616532346824E-006
 -2.662135914871035E-006
 -3.050015553483425E-006
 -3.375285675465982E-006
 -3.639743193417587E-006
 -3.846763634128919E-006
 -4.001049991558363E-006
 -4.108345026430812E-006
 -4.175129918886332E-006
 -4.208327351771905E-006
 -4.215022082717859E-006
 -4.202207544206959E-006
 -4.176563341927128E-006
 -4.144265769191842E-006
 -4.110831510119232E-006
 -4.080993405259042E-006
 -4.058606376173089E-006
 -4.046581276932389E-006
 -4.046844484090354E-006
  7.228794038573225E-007
  5.390252969840264E-008
 -5.822605923387758E-007
 -1.176644237735443E-006
 -1.721496106653718E-006
 -2.210664725517313E-006
 -2.639867203194628E-006
 -3.006822043016680E-006
 -3.311250099607055E-006
 -3.554760288790474E-006
 -3.740644679338058E-006
 -3.873610595022714E-006
 -3.959476436256777E-006
 -4.004854413922772E-006
 -4.016838531982936E-006
 -4.002710988787271E-006
 -3.969675413426316E-006
 -3.924621428841782E-006
 -3.873922093542560E-006
 -3.823263792960310E-006
 -3.777507004585295E-006
 -3.740575882199420E-006
 -3.715374607501093E-006
 -3.703728725615300E-006
  5.810804108075179E-007
 -5.125185464418346E-008
 -6.553753452255907E-007
 -1.221241693182400E-006
 -1.740202584598733E-006
 -2.205377345676313E-006
 -2.611903431950779E-006
 -2.957053665838366E-006
 -3.240222626338313E-006
 -3.462798342195273E-006
 -3.627943676545330E-006
 -3.740314963200006E-006
 -3.805744650315463E-006
 -3.830911238368725E-006
 -3.823014919326602E-006
 -3.789472066504036E-006
 -3.737636836668618E-006
 -3.674554084729113E-006
 -3.606744765342049E-006
 -3.540023023205077E-006
 -3.479343143976426E-006
 -3.428674255474163E-006
 -3.390900879323278E-006
 -3.367747835813007E-006
  4.335159016612914E-007
 -1.602998237132566E-007
 -7.305153147169453E-007
 -1.266132121490265E-006
 -1.757702092116966E-006
 -2.197681262919785E-006
 -2.580667608793570E-006
 -2.903506316954738E-006
 -3.165264771950934E-006
 -3.367093235078484E-006
 -3.511995504897698E-006
 -3.604537074218576E-006
 -3.650517527990122E-006
 -3.656630461532925E-006
 -3.630129290299513E-006
 -3.578512007783810E-006
 -3.509232987865022E-006
 -3.429445803310666E-006
 -3.345777979856444E-006
 -3.264136666268925E-006
 -3.189543267952519E-006
 -3.125994949008833E-006
 -3.076351257741873E-006
 -3.042244621018584E-006
  2.830455895645710E-007
 -2.716115034197950E-007
 -8.071055773034154E-007
 -1.311632376080131E-006
 -1.775052103542626E-006
 -2.189235606957844E-006
 -2.548294013569840E-006
 -2.848675784680347E-006
 -3.089133517570447E-006
 -3.270576548989385E-006
 -3.395833681741711E-006
 -3.469353558607191E-006
 -3.496869410907487E-006
 -3.485051413713092E-006
 -3.441164935313290E-006
 -3.372747614284712E-006
 -3.287313200814494E-006
 -3.192085953303308E-006
 -3.093766337561714E-006
 -2.998326884219444E-006
 -2.910836212336935E-006
 -2.835309192181161E-006
 -2.774581673119656E-006
 -2.730208759727437E-006
  1.323151662087895E-007
 -3.836042295816640E-007
 -8.844905707907731E-007
 -1.357881786417804E-006
 -1.793060462716048E-006
 -2.181397706104922E-006
 -2.516578992664330E-006
 -2.794696581654432E-006
 -3.014211213423863E-006
 -3.175799394723904E-006
 -3.282110742384770E-006
 -3.337462980424948E-006
 -3.347501323146875E-006
 -3.318845426982560E-006
 -3.258742105658992E-006
 -3.174736616990722E-006
 -3.074370315407577E-006
 -2.964908320839675E-006
 -2.853097837611063E-006
 -2.744955919106241E-006
 -2.645584703430207E-006
 -2.559012199182771E-006
 -2.488057236844696E-006
 -2.434217817552088E-006
 -1.630642343010848E-008
 -4.947911602551911E-007
 -9.619673078929601E-007
 -1.404860093723522E-006
 -1.812289006252814E-006
 -2.175213844218478E-006
 -2.486960551792210E-006
 -2.743312197339494E-006
 -2.942468355294874E-006
 -3.084889561264213E-006
 -3.173051545701724E-006
 -3.211136968047421E-006
 -3.204691422510832E-006
 -3.160266867996247E-006
 -3.085070597057859E-006
 -2.986632443178803E-006
 -2.872497902947185E-006
 -2.749950719065132E-006
 -2.625765487817338E-006
 -2.505989071542496E-006
 -2.395748896221746E-006
 -2.299086345013215E-006
 -2.218814067408217E-006
 -2.156396697641063E-006
 -1.607673940541786E-007
 -6.038194461684182E-007
 -1.038818130988794E-006
 -1.452413127533146E-006
 -1.833071500987445E-006
 -2.171429449906937E-006
 -2.460521208832712E-006
 -2.695871299898784E-006
 -2.875453999830349E-006
 -2.999537122772915E-006
 -3.070435112056519E-006
 -3.092199331935937E-006
 -3.070272402650460E-006
 -3.011129728297648E-006
 -2.921926277464333E-006
 -2.810161232640544E-006
 -2.683368096405220E-006
 -2.548833728224479E-006
 -2.413346839320471E-006
 -2.282974741981739E-006
 -2.162866512211983E-006
 -2.057080922796937E-006
 -1.968438177871120E-006
 -1.898395211936568E-006
 -2.993538262185195E-007
 -7.094977798361851E-007
 -1.114340775387717E-006
 -1.500282517084376E-006
 -1.855541174704700E-006
 -2.170513346755486E-006
 -2.438008378384050E-006
 -2.653344040221045E-006
 -2.814308046684799E-006
 -2.921002963018087E-006
 -2.975599805891181E-006
 -2.982028423957260E-006
 -2.945631600933776E-006
 -2.872806055346946E-006
 -2.770648370246492E-006
 -2.646618414835159E-006
 -2.508227787209592E-006
 -2.362756709306162E-006
 -2.216999892077636E-006
 -2.077040204449013E-006
 -1.948048397231625E-006
 -1.834107390175998E-006
 -1.738060363138830E-006
 -1.661382681474103E-006
 -4.306937705165711E-007
 -8.108138100704457E-007
 -1.187874208910394E-006
 -1.548136386994787E-006
 -1.879663684376171E-006
 -2.172691143897800E-006
 -2.419866883853266E-006
 -2.616352804159633E-006
 -2.759789678194870E-006
 -2.850144612945375E-006
 -2.889466493567464E-006
 -2.881577704344941E-006
 -2.831729185731296E-006
 -2.746242049614115E-006
 -2.632153786339835E-006
 -2.496881599644204E-006
 -2.347910368018908E-006
 -2.192508646422774E-006
 -2.037473237856325E-006
 -1.888901219434675E-006
 -1.751987771719283E-006
 -1.630848467197485E-006
 -1.528365458490505E-006
 -1.446057850734912E-006
 -5.537480054910598E-007
 -9.069423756791966E-007
 -1.258819357840426E-006
 -1.595598707553986E-006
 -1.905272100640098E-006
 -2.177983550523589E-006
 -2.406278836883320E-006
 -2.585212322128827E-006
 -2.712316715568646E-006
 -2.787454162259257E-006
 -2.812574564989030E-006
 -2.791409633371115E-006
 -2.729129845130245E-006
 -2.631987606653135E-006
 -2.506964668919845E-006
 -2.361436334146922E-006
 -2.202859945423378E-006
 -2.038491077458115E-006
 -1.875127985067801E-006
 -1.718883253033068E-006
 -1.574981092528491E-006
 -1.447579077378542E-006
 -1.339613942324795E-006
 -1.252671959275128E-006
 -6.677906039292171E-007
 -9.972457987510559E-007
 -1.326654371143188E-006
 -1.642275668732191E-006
 -1.932101270541807E-006
 -2.186246212478214E-006
 -2.397206930262634E-006
 -2.559974813536340E-006
 -2.672011358339022E-006
 -2.733103636161451E-006
 -2.745126248665304E-006
 -2.711738449809724E-006
 -2.638043745442563E-006
 -2.530235332237695E-006
 -2.395245471447586E-006
 -2.240411351967460E-006
 -2.073164948667333E-006
 -1.900750314986704E-006
 -1.729968904400902E-006
 -1.566951926256074E-006
 -1.416958271350642E-006
 -1.284196922172203E-006
 -1.171673627325104E-006
 -1.081062556792195E-006
 -7.723821941776773E-007
 -1.081267613439529E-006
 -1.390944499031459E-006
 -1.687778069059407E-006
 -1.959819669908361E-006
 -2.197208490713687E-006
 -2.392438041395051E-006
 -2.540476689980973E-006
 -2.638748589168454E-006
 -2.686993991667652E-006
 -2.687035345039021E-006
 -2.642478013824982E-006
 -2.558373056520586E-006
 -2.440865497600550E-006
 -2.296846240231474E-006
 -2.133620207953577E-006
 -1.958598249882128E-006
 -1.779016281329915E-006
 -1.601682298844550E-006
 -1.432750335822368E-006
 -1.277519974031821E-006
 -1.140260428025007E-006
 -1.024059110747251E-006
 -9.306955610837615E-007
 -8.673384388425984E-007
 -1.158721123948411E-006
 -1.451346968670050E-006
 -1.731739228407746E-006
 -1.988057521818226E-006
 -2.210509362134840E-006
 -2.391624858084569E-006
 -2.526384175916066E-006
 -2.612204353273663E-006
 -2.648804685231519E-006
 -2.637977252590997E-006
 -2.583291580287192E-006
 -2.489760958440731E-006
 -2.363493942645965E-006
 -2.211349234758471E-006
 -2.040606575638395E-006
 -1.858661223059469E-006
 -1.672745527152456E-006
 -1.489678289312992E-006
 -1.315641026842515E-006
 -1.155979825659984E-006
 -1.015031878134422E-006
 -8.959767120949776E-007
 -8.007131161876742E-007
 -9.526958472980830E-007
 -1.229474118268325E-006
 -1.507611440169575E-006
 -1.773828338535353E-006
 -2.016430513303909E-006
 -2.225729284443029E-006
 -2.394323967027173E-006
 -2.517235970082044E-006
 -2.591901396321880E-006
 -2.618041526300361E-006
 -2.597437894658796E-006
 -2.533641058549983E-006
 -2.431640680072594E-006
 -2.297520509690734E-006
 -2.138116528427748E-006
 -1.960690928293688E-006
 -1.772629548351840E-006
 -1.581166322978790E-006
 -1.393135474415315E-006
 -1.214750620944042E-006
 -1.051409535375727E-006
 -9.075237079636904E-007
 -7.863727859029094E-007
 -6.899849786928351E-007
 -1.028676630182017E-006
 -1.293530941147842E-006
 -1.559576736804405E-006
 -1.813759461956052E-006
 -2.044558881674378E-006
 -2.242417410831632E-006
 -2.400029462235036E-006
 -2.512481733041746E-006
 -2.577251328367624E-006
 -2.594081217153671E-006
 -2.564759826376799E-006
 -2.492833958413059E-006
 -2.383282725474377E-006
 -2.242176149782830E-006
 -2.076336741158879E-006
 -1.893016780405638E-006
 -1.699598972046400E-006
 -1.503324067452822E-006
 -1.311046233319515E-006
 -1.129015377157221E-006
 -9.626852014659620E-007
 -8.165461749887117E-007
 -6.939835286446501E-007
 -5.971614106652186E-007
 -1.095653920294164E-006
 -1.351012975050832E-006
 -1.607164583515270E-006
 -1.851296589980579E-006
 -2.072081969787451E-006
 -2.260113966134621E-006
 -2.408201627944973E-006
 -2.511515731920879E-006
 -2.567592055880931E-006
 -2.576211565586674E-006
 -2.539184384553579E-006
 -2.460066790665347E-006
 -2.343838988343796E-006
 -2.196567356253143E-006
 -2.025069531063810E-006
 -1.836595102567928E-006
 -1.638529628779555E-006
 -1.438125614330302E-006
 -1.242261264772915E-006
 -1.057226259159461E-006
 -8.885333343183042E-007
 -7.407548820054861E-007
 -6.173846736270016E-007
 -5.207258565908706E-007
 -1.154118340907690E-006
 -1.402138410355383E-006
 -1.650371075580152E-006
 -1.886255290888160E-006
 -2.098668578445578E-006
 -2.278367911500069E-006
 -2.418290632141285E-006
 -2.513705402946952E-006
 -2.562220185145620E-006
 -2.563666835896764E-006
 -2.519889227803807E-006
 -2.434464170520414E-006
 -2.312382921619504E-006
 -2.159717027222638E-006
 -1.983286895069893E-006
 -1.790345918209788E-006
 -1.588287899741912E-006
 -1.384381460164284E-006
 -1.185532271217103E-006
 -9.980723793978538E-007
 -8.275754200541996E-007
 -6.786969165912050E-007
 -5.550397615418469E-007
 -4.590460018264947E-007
 -1.204646607562546E-006
 -1.447202019667565E-006
 -1.689256551368390E-006
 -1.918501535637876E-006
 -2.124023589618899E-006
 -2.296750243465898E-006
 -2.429755443953642E-006
 -2.518414914012998E-006
 -2.560418353897822E-006
 -2.555658078041067E-006
 -2.506020999779606E-006
 -2.415113260371460E-006
 -2.287945313060386E-006
 -2.130601232645991E-006
 -1.949910688018497E-006
 -1.753136433334486E-006
 -1.547685105447581E-006
 -1.340845042110849E-006
 -1.139551989267077E-006
 -9.501819718790080E-007
 -7.783701239005894E-007
 -6.288546486004238E-007
 -5.053459669940155E-007
 -4.104221289501363E-007
 -1.247872605183771E-006
 -1.486555495287790E-006
 -1.723934473037188E-006
 -1.947948297558697E-006
 -2.147891412981567E-006
 -2.314863411744896E-006
 -2.442078375954340E-006
 -2.525024036482772E-006
 -2.561477705128253E-006
 -2.551398553561042E-006
 -2.496723141170433E-006
 -2.401093488820023E-006
 -2.269545520203134E-006
 -2.108181661433892E-006
 -1.923846063676876E-006
 -1.723815335989682E-006
 -1.515512607696724E-006
 -1.306248662056607E-006
 -1.102991027009959E-006
 -9.121603001529510E-007
 -7.394524873116481E-007
 -5.896864890935667E-007
 -4.666767375077588E-007
 -3.731319890903739E-007
 -1.284461187089623E-006
 -1.520588769449273E-006
 -1.754559838003992E-006
 -1.974550497935307E-006
 -2.170056836081108E-006
 -2.332347414325541E-006
 -2.454775766590031E-006
 -2.532942783154052E-006
 -2.564715891602723E-006
 -2.550124572422632E-006
 -2.491159087159930E-006
 -2.391501704392699E-006
 -2.256218245801718E-006
 -2.091433754611658E-006
 -1.904010771511364E-006
 -1.701243130620177E-006
 -1.490573120868019E-006
 -1.279335775918675E-006
 -1.074531189488584E-006
 -8.826241284712611E-007
 -7.093696983731158E-007
 -5.596641483903412E-007
 -4.374207504419964E-007
 -3.454716758547425E-007
 -1.315084792068121E-006
 -1.549712617018951E-006
 -1.781317560025148E-006
 -1.998298823408692E-006
 -2.190343849464455E-006
 -2.348883154082864E-006
 -2.467405374722203E-006
 -2.541622353082033E-006
 -2.569491106548338E-006
 -2.551112180874251E-006
 -2.488531228276500E-006
 -2.385473075506318E-006
 -2.247036096817601E-006
 -2.079370698675246E-006
 -1.889360415317020E-006
 -1.684318547372349E-006
 -1.471708209418372E-006
 -1.258889565479708E-006
 -1.052895154739544E-006
 -8.602325691931709E-007
 -6.867132066020530E-007
 -5.373061322173124E-007
 -4.160169081723409E-007
 -3.257922224622712E-007
 -1.340402864869082E-006
 -1.574342740679354E-006
 -1.804411177782207E-006
 -2.019212882699009E-006
 -2.208612983999145E-006
 -2.364193631201550E-006
 -2.479571071379285E-006
 -2.550562958354260E-006
 -2.575212689270919E-006
 -2.553690210377061E-006
 -2.488096096792397E-006
 -2.382198144473730E-006
 -2.241128276207362E-006
 -2.071063567609173E-006
 -1.878909900896782E-006
 -1.672001193120438E-006
 -1.457822080185516E-006
 -1.243757846698720E-006
 -1.036872504642242E-006
 -8.437142676389284E-007
 -6.701471091195194E-007
 -5.212073804889701E-007
 -4.009852693954743E-007
 -3.125318344259272E-007
 -1.361043988160226E-006
 -1.594885458934292E-006
 -1.824052174578069E-006
 -2.037334106694632E-006
 -2.224757648014677E-006
 -2.378043511597142E-006
 -2.490925395674093E-006
 -2.559319105380153E-006
 -2.581348866892491E-006
 -2.557250223918251E-006
 -2.489176279720861E-006
 -2.380936493608469E-006
 -2.237695817192649E-006
 -2.065657971549515E-006
 -1.871751377515734E-006
 -1.663330695865301E-006
 -1.447901869822956E-006
 -1.232874466867619E-006
 -1.025342220073462E-006
 -8.318909981326206E-007
 -6.584328557511380E-007
 -5.100650827577300E-007
 -3.909539537511240E-007
 -3.042438199313631E-007
 -1.377590584714672E-006
 -1.611725055933902E-006
 -1.840450127392389E-006
 -2.052718732291429E-006
 -2.238699894027620E-006
 -2.390237562056222E-006
 -2.501170502347893E-006
 -2.567502874639978E-006
 -2.587432175844336E-006
 -2.561253889503316E-006
 -2.491169563588838E-006
 -2.381027495800379E-006
 -2.236023793617300E-006
 -2.062387602999173E-006
 -1.867069019289100E-006
 -1.657442643619068E-006
 -1.441034684824809E-006
 -1.225277407578320E-006
 -1.017291821888449E-006
 -8.236978244734779E-007
 -6.504504077151593E-007
 -5.027007991802603E-007
 -3.846821593185166E-007
 -2.996203893596302E-007
 -1.390566021722491E-006
 -1.625212807232142E-006
 -1.853803848036140E-006
 -2.065431150011688E-006
 -2.250385983966109E-006
 -2.400618384730647E-006
 -2.510057975427654E-006
 -2.574785696495856E-006
 -2.593063068128397E-006
 -2.565238280250976E-006
 -2.493555794460958E-006
 -2.381898608916242E-006
 -2.235490935603277E-006
 -2.060585075569561E-006
 -1.864151004973297E-006
 -1.653581639162653E-006
 -1.436421679626928E-006
 -1.220123846003023E-006
 -1.011833382047542E-006
 -8.182000279176762E-007
 -6.452160410979759E-007
 -4.980790785482373E-007
 -3.810795005347012E-007
 -2.975125671896480E-007
 -1.400423940118214E-006
 -1.635657664962148E-006
 -1.864293633521767E-006
 -2.075537840340159E-006
 -2.259782061673198E-006
 -2.409063821937825E-006
 -2.517387921900383E-006
 -2.580899063259625E-006
 -2.597912154654299E-006
 -2.568819553689302E-006
 -2.495901896377829E-006
 -2.383071640186092E-006
 -2.235577053927116E-006
 -2.059690431976647E-006
 -1.862399043892610E-006
 -1.651111788795287E-006
 -1.433389462253250E-006
 -1.216702437976598E-006
 -1.008216646885779E-006
 -8.146070296049221E-007
 -6.418970156963317E-007
 -4.953227988728305E-007
 -3.792219111657989E-007
 -2.969464976985391E-007
 -1.407539636549081E-006
 -1.643318567213629E-006
 -1.872074706478467E-006
 -2.083102074819217E-006
 -2.266870184230827E-006
 -2.415484340124239E-006
 -2.523007695293964E-006
 -2.585634554090062E-006
 -2.601721476528151E-006
 -2.571695404993144E-006
 -2.497865438296024E-006
 -2.384167359144133E-006
 -2.235868635005149E-006
 -2.059257662894920E-006
 -1.861335767240834E-006
 -1.649524921301677E-006
 -1.431399101597751E-006
 -1.214443077224980E-006
 -1.005839511122843E-006
 -8.122835361045918E-007
 -6.398233357482285E-007
 -4.937254649091560E-007
 -3.783643670895130E-007
 -2.971364348814968E-007
 -1.412203340706134E-006
 -1.648398327517608E-006
 -1.877271898490086E-006
 -2.088179515437492E-006
 -2.271644910503819E-006
 -2.419820641534850E-006
 -2.526810534401456E-006
 -2.588843482749044E-006
 -2.604305128754352E-006
 -2.573646624274492E-006
 -2.499197077975023E-006
 -2.384908780118448E-006
 -2.236062915593791E-006
 -2.058959530788257E-006
 -1.860610262074967E-006
 -1.648446797136085E-006
 -1.430052979761668E-006
 -1.212924359668779E-006
 -1.004256060575616E-006
 -8.107581201024278E-007
 -6.384968153629818E-007
 -4.927606847817225E-007
 -3.779506710045727E-007
 -2.974946914516882E-007
 -1.414615253546469E-006
 -1.651039059236149E-006
 -1.879975608418121E-006
 -2.090814809249958E-006
 -2.274110596564566E-006
 -2.422041694449928E-006
 -2.528734338672667E-006
 -2.590436410917190E-006
 -2.605549491973758E-006
 -2.574538019404324E-006
 -2.499742144305750E-006
 -2.385123371052546E-006
 -2.235970685707755E-006
 -2.058590936455511E-006
 -1.860001973528457E-006
 -1.647641520748035E-006
 -1.429099690449363E-006
 -1.211878943659775E-006
 -1.003182367211762E-006
 -8.097294168467202E-007
 -6.375976317948584E-007
 -4.920890184180299E-007
 -3.776205099475390E-007
 -2.976387862536998E-007
SCALARS elementIsPlast double 
LOOKUP_TABLE default
  0.000000000000000E+000
  0.000000000000000E+000
  0.000000000000000E+000
  0.000000000000000E+000
  0.000000000000000E+000
  0.000000000000000E+000
  0.000000000000000E+000
  0.000000000000000E+000
  0.000000000000000E+000
  0.000000000000000E+000
  0.000000000000000E+000
  0.000000000000000E+000
  0.000000000000000E+000
  0.000000000000000E+000
  0.000000000000000E+000
  0.000000000000000E+000
  0.000000000000000E+000
   1.00000000000000     
   1.00000000000000     
  0.000000000000000E+000
  0.000000000000000E+000
  0.000000000000000E+000
  0.000000000000000E+000
  0.000000000000000E+000
  0.000000000000000E+000
  0.000000000000000E+000
  0.000000000000000E+000
  0.000000000000000E+000
  0.000000000000000E+000
  0.000000000000000E+000
  0.000000000000000E+000
  0.000000000000000E+000
  0.000000000000000E+000
  0.000000000000000E+000
   1.00000000000000     
  0.000000000000000E+000
  0.000000000000000E+000
  0.000000000000000E+000
  0.000000000000000E+000
  0.000000000000000E+000
  0.000000000000000E+000
   1.00000000000000     
   1.00000000000000     
  0.000000000000000E+000
  0.000000000000000E+000
  0.000000000000000E+000
  0.000000000000000E+000
  0.000000000000000E+000
  0.000000000000000E+000
  0.000000000000000E+000
  0.000000000000000E+000
  0.000000000000000E+000
  0.000000000000000E+000
  0.000000000000000E+000
  0.000000000000000E+000
  0.000000000000000E+000
  0.000000000000000E+000
  0.000000000000000E+000
  0.000000000000000E+000
  0.000000000000000E+000
  0.000000000000000E+000
  0.000000000000000E+000
  0.000000000000000E+000
   1.00000000000000     
   1.00000000000000     
   1.00000000000000     
   1.00000000000000     
  0.000000000000000E+000
  0.000000000000000E+000
  0.000000000000000E+000
  0.000000000000000E+000
  0.000000000000000E+000
  0.000000000000000E+000
  0.000000000000000E+000
  0.000000000000000E+000
  0.000000000000000E+000
  0.000000000000000E+000
  0.000000000000000E+000
  0.000000000000000E+000
  0.000000000000000E+000
  0.000000000000000E+000
  0.000000000000000E+000
  0.000000000000000E+000
  0.000000000000000E+000
  0.000000000000000E+000
   1.00000000000000     
   1.00000000000000     
   1.00000000000000     
   1.00000000000000     
   1.00000000000000     
   1.00000000000000     
  0.000000000000000E+000
  0.000000000000000E+000
  0.000000000000000E+000
  0.000000000000000E+000
  0.000000000000000E+000
  0.000000000000000E+000
  0.000000000000000E+000
  0.000000000000000E+000
  0.000000000000000E+000
  0.000000000000000E+000
  0.000000000000000E+000
  0.000000000000000E+000
  0.000000000000000E+000
  0.000000000000000E+000
  0.000000000000000E+000
  0.000000000000000E+000
  0.000000000000000E+000
  0.000000000000000E+000
  0.000000000000000E+000
  0.000000000000000E+000
  0.000000000000000E+000
  0.000000000000000E+000
  0.000000000000000E+000
   1.00000000000000     
  0.000000000000000E+000
  0.000000000000000E+000
  0.000000000000000E+000
  0.000000000000000E+000
  0.000000000000000E+000
  0.000000000000000E+000
  0.000000000000000E+000
  0.000000000000000E+000
  0.000000000000000E+000
  0.000000000000000E+000
  0.000000000000000E+000
  0.000000000000000E+000
  0.000000000000000E+000
  0.000000000000000E+000
  0.000000000000000E+000
  0.000000000000000E+000
  0.000000000000000E+000
  0.000000000000000E+000
  0.000000000000000E+000
  0.000000000000000E+000
  0.000000000000000E+000
  0.000000000000000E+000
  0.000000000000000E+000
  0.000000000000000E+000
  0.000000000000000E+000
  0.000000000000000E+000
  0.000000000000000E+000
  0.000000000000000E+000
  0.000000000000000E+000
  0.000000000000000E+000
  0.000000000000000E+000
  0.000000000000000E+000
  0.000000000000000E+000
  0.000000000000000E+000
  0.000000000000000E+000
  0.000000000000000E+000
  0.000000000000000E+000
  0.000000000000000E+000
  0.000000000000000E+000
  0.000000000000000E+000
  0.000000000000000E+000
  0.000000000000000E+000
  0.000000000000000E+000
  0.000000000000000E+000
  0.000000000000000E+000
  0.000000000000000E+000
  0.000000000000000E+000
  0.000000000000000E+000
  0.000000000000000E+000
  0.000000000000000E+000
  0.000000000000000E+000
  0.000000000000000E+000
  0.000000000000000E+000
  0.000000000000000E+000
  0.000000000000000E+000
  0.000000000000000E+000
  0.000000000000000E+000
  0.000000000000000E+000
  0.000000000000000E+000
  0.000000000000000E+000
  0.000000000000000E+000
  0.000000000000000E+000
  0.000000000000000E+000
  0.000000000000000E+000
  0.000000000000000E+000
  0.000000000000000E+000
  0.000000000000000E+000
  0.000000000000000E+000
  0.000000000000000E+000
  0.000000000000000E+000
  0.000000000000000E+000
  0.000000000000000E+000
  0.000000000000000E+000
  0.000000000000000E+000
  0.000000000000000E+000
  0.000000000000000E+000
  0.000000000000000E+000
  0.000000000000000E+000
  0.000000000000000E+000
  0.000000000000000E+000
  0.000000000000000E+000
  0.000000000000000E+000
  0.000000000000000E+000
  0.000000000000000E+000
  0.000000000000000E+000
  0.000000000000000E+000
  0.000000000000000E+000
  0.000000000000000E+000
  0.000000000000000E+000
  0.000000000000000E+000
  0.000000000000000E+000
  0.000000000000000E+000
  0.000000000000000E+000
  0.000000000000000E+000
  0.000000000000000E+000
  0.000000000000000E+000
  0.000000000000000E+000
  0.000000000000000E+000
  0.000000000000000E+000
  0.000000000000000E+000
  0.000000000000000E+000
  0.000000000000000E+000
  0.000000000000000E+000
  0.000000000000000E+000
  0.000000000000000E+000
  0.000000000000000E+000
  0.000000000000000E+000
  0.000000000000000E+000
  0.000000000000000E+000
  0.000000000000000E+000
  0.000000000000000E+000
  0.000000000000000E+000
  0.000000000000000E+000
  0.000000000000000E+000
  0.000000000000000E+000
  0.000000000000000E+000
  0.000000000000000E+000
  0.000000000000000E+000
  0.000000000000000E+000
  0.000000000000000E+000
  0.000000000000000E+000
  0.000000000000000E+000
  0.000000000000000E+000
  0.000000000000000E+000
  0.000000000000000E+000
  0.000000000000000E+000
  0.000000000000000E+000
  0.000000000000000E+000
  0.000000000000000E+000
  0.000000000000000E+000
  0.000000000000000E+000
  0.000000000000000E+000
  0.000000000000000E+000
  0.000000000000000E+000
  0.000000000000000E+000
  0.000000000000000E+000
  0.000000000000000E+000
  0.000000000000000E+000
  0.000000000000000E+000
  0.000000000000000E+000
  0.000000000000000E+000
  0.000000000000000E+000
  0.000000000000000E+000
  0.000000000000000E+000
  0.000000000000000E+000
  0.000000000000000E+000
  0.000000000000000E+000
  0.000000000000000E+000
  0.000000000000000E+000
  0.000000000000000E+000
  0.000000000000000E+000
  0.000000000000000E+000
  0.000000000000000E+000
  0.000000000000000E+000
  0.000000000000000E+000
  0.000000000000000E+000
  0.000000000000000E+000
  0.000000000000000E+000
  0.000000000000000E+000
  0.000000000000000E+000
  0.000000000000000E+000
  0.000000000000000E+000
  0.000000000000000E+000
  0.000000000000000E+000
  0.000000000000000E+000
  0.000000000000000E+000
  0.000000000000000E+000
  0.000000000000000E+000
  0.000000000000000E+000
  0.000000000000000E+000
  0.000000000000000E+000
  0.000000000000000E+000
  0.000000000000000E+000
  0.000000000000000E+000
  0.000000000000000E+000
  0.000000000000000E+000
  0.000000000000000E+000
  0.000000000000000E+000
  0.000000000000000E+000
  0.000000000000000E+000
  0.000000000000000E+000
  0.000000000000000E+000
  0.000000000000000E+000
  0.000000000000000E+000
  0.000000000000000E+000
  0.000000000000000E+000
  0.000000000000000E+000
  0.000000000000000E+000
  0.000000000000000E+000
  0.000000000000000E+000
  0.000000000000000E+000
  0.000000000000000E+000
  0.000000000000000E+000
  0.000000000000000E+000
  0.000000000000000E+000
  0.000000000000000E+000
  0.000000000000000E+000
  0.000000000000000E+000
  0.000000000000000E+000
  0.000000000000000E+000
  0.000000000000000E+000
  0.000000000000000E+000
  0.000000000000000E+000
  0.000000000000000E+000
  0.000000000000000E+000
  0.000000000000000E+000
  0.000000000000000E+000
  0.000000000000000E+000
  0.000000000000000E+000
  0.000000000000000E+000
  0.000000000000000E+000
  0.000000000000000E+000
  0.000000000000000E+000
  0.000000000000000E+000
  0.000000000000000E+000
  0.000000000000000E+000
  0.000000000000000E+000
  0.000000000000000E+000
  0.000000000000000E+000
  0.000000000000000E+000
  0.000000000000000E+000
  0.000000000000000E+000
  0.000000000000000E+000
  0.000000000000000E+000
  0.000000000000000E+000
  0.000000000000000E+000
  0.000000000000000E+000
  0.000000000000000E+000
  0.000000000000000E+000
  0.000000000000000E+000
  0.000000000000000E+000
  0.000000000000000E+000
  0.000000000000000E+000
  0.000000000000000E+000
  0.000000000000000E+000
  0.000000000000000E+000
  0.000000000000000E+000
  0.000000000000000E+000
  0.000000000000000E+000
  0.000000000000000E+000
  0.000000000000000E+000
  0.000000000000000E+000
  0.000000000000000E+000
  0.000000000000000E+000
  0.000000000000000E+000
  0.000000000000000E+000
  0.000000000000000E+000
  0.000000000000000E+000
  0.000000000000000E+000
  0.000000000000000E+000
  0.000000000000000E+000
  0.000000000000000E+000
  0.000000000000000E+000
  0.000000000000000E+000
  0.000000000000000E+000
  0.000000000000000E+000
  0.000000000000000E+000
  0.000000000000000E+000
  0.000000000000000E+000
  0.000000000000000E+000
  0.000000000000000E+000
  0.000000000000000E+000
  0.000000000000000E+000
  0.000000000000000E+000
  0.000000000000000E+000
  0.000000000000000E+000
  0.000000000000000E+000
  0.000000000000000E+000
  0.000000000000000E+000
  0.000000000000000E+000
  0.000000000000000E+000
  0.000000000000000E+000
  0.000000000000000E+000
  0.000000000000000E+000
  0.000000000000000E+000
  0.000000000000000E+000
  0.000000000000000E+000
  0.000000000000000E+000
  0.000000000000000E+000
  0.000000000000000E+000
  0.000000000000000E+000
  0.000000000000000E+000
  0.000000000000000E+000
  0.000000000000000E+000
  0.000000000000000E+000
  0.000000000000000E+000
  0.000000000000000E+000
  0.000000000000000E+000
  0.000000000000000E+000
  0.000000000000000E+000
  0.000000000000000E+000
  0.000000000000000E+000
  0.000000000000000E+000
  0.000000000000000E+000
  0.000000000000000E+000
  0.000000000000000E+000
  0.000000000000000E+000
  0.000000000000000E+000
  0.000000000000000E+000
  0.000000000000000E+000
  0.000000000000000E+000
  0.000000000000000E+000
  0.000000000000000E+000
  0.000000000000000E+000
  0.000000000000000E+000
  0.000000000000000E+000
  0.000000000000000E+000
  0.000000000000000E+000
  0.000000000000000E+000
  0.000000000000000E+000
  0.000000000000000E+000
  0.000000000000000E+000
  0.000000000000000E+000
  0.000000000000000E+000
  0.000000000000000E+000
  0.000000000000000E+000
  0.000000000000000E+000
  0.000000000000000E+000
  0.000000000000000E+000
  0.000000000000000E+000
  0.000000000000000E+000
  0.000000000000000E+000
  0.000000000000000E+000
  0.000000000000000E+000
  0.000000000000000E+000
  0.000000000000000E+000
  0.000000000000000E+000
  0.000000000000000E+000
  0.000000000000000E+000
  0.000000000000000E+000
  0.000000000000000E+000
  0.000000000000000E+000
  0.000000000000000E+000
  0.000000000000000E+000
  0.000000000000000E+000
  0.000000000000000E+000
  0.000000000000000E+000
  0.000000000000000E+000
  0.000000000000000E+000
  0.000000000000000E+000
  0.000000000000000E+000
  0.000000000000000E+000
  0.000000000000000E+000
  0.000000000000000E+000
  0.000000000000000E+000
  0.000000000000000E+000
  0.000000000000000E+000
  0.000000000000000E+000
  0.000000000000000E+000
  0.000000000000000E+000
  0.000000000000000E+000
  0.000000000000000E+000
  0.000000000000000E+000
  0.000000000000000E+000
  0.000000000000000E+000
  0.000000000000000E+000
  0.000000000000000E+000
  0.000000000000000E+000
  0.000000000000000E+000
  0.000000000000000E+000
  0.000000000000000E+000
  0.000000000000000E+000
  0.000000000000000E+000
  0.000000000000000E+000
  0.000000000000000E+000
  0.000000000000000E+000
  0.000000000000000E+000
  0.000000000000000E+000
  0.000000000000000E+000
  0.000000000000000E+000
  0.000000000000000E+000
  0.000000000000000E+000
  0.000000000000000E+000
  0.000000000000000E+000
  0.000000000000000E+000
  0.000000000000000E+000
  0.000000000000000E+000
  0.000000000000000E+000
  0.000000000000000E+000
  0.000000000000000E+000
  0.000000000000000E+000
  0.000000000000000E+000
  0.000000000000000E+000
  0.000000000000000E+000
  0.000000000000000E+000
  0.000000000000000E+000
  0.000000000000000E+000
  0.000000000000000E+000
  0.000000000000000E+000
  0.000000000000000E+000
  0.000000000000000E+000
  0.000000000000000E+000
  0.000000000000000E+000
  0.000000000000000E+000
  0.000000000000000E+000
  0.000000000000000E+000
  0.000000000000000E+000
  0.000000000000000E+000
  0.000000000000000E+000
  0.000000000000000E+000
  0.000000000000000E+000
  0.000000000000000E+000
  0.000000000000000E+000
  0.000000000000000E+000
  0.000000000000000E+000
  0.000000000000000E+000
  0.000000000000000E+000
  0.000000000000000E+000
  0.000000000000000E+000
  0.000000000000000E+000
  0.000000000000000E+000
  0.000000000000000E+000
  0.000000000000000E+000
  0.000000000000000E+000
  0.000000000000000E+000
  0.000000000000000E+000
  0.000000000000000E+000
  0.000000000000000E+000
  0.000000000000000E+000
  0.000000000000000E+000
  0.000000000000000E+000
  0.000000000000000E+000
  0.000000000000000E+000
  0.000000000000000E+000
  0.000000000000000E+000
  0.000000000000000E+000
  0.000000000000000E+000
  0.000000000000000E+000
  0.000000000000000E+000
  0.000000000000000E+000
  0.000000000000000E+000
  0.000000000000000E+000
  0.000000000000000E+000
  0.000000000000000E+000
  0.000000000000000E+000
  0.000000000000000E+000
  0.000000000000000E+000
  0.000000000000000E+000
  0.000000000000000E+000
  0.000000000000000E+000
  0.000000000000000E+000
  0.000000000000000E+000
  0.000000000000000E+000
  0.000000000000000E+000
  0.000000000000000E+000
  0.000000000000000E+000
  0.000000000000000E+000
  0.000000000000000E+000
  0.000000000000000E+000
  0.000000000000000E+000
  0.000000000000000E+000
  0.000000000000000E+000
  0.000000000000000E+000
  0.000000000000000E+000
  0.000000000000000E+000
  0.000000000000000E+000
  0.000000000000000E+000
  0.000000000000000E+000
  0.000000000000000E+000
  0.000000000000000E+000
  0.000000000000000E+000
  0.000000000000000E+000
  0.000000000000000E+000
  0.000000000000000E+000
  0.000000000000000E+000
  0.000000000000000E+000
  0.000000000000000E+000
  0.000000000000000E+000
  0.000000000000000E+000
  0.000000000000000E+000
  0.000000000000000E+000
  0.000000000000000E+000
  0.000000000000000E+000
  0.000000000000000E+000
  0.000000000000000E+000
  0.000000000000000E+000
  0.000000000000000E+000
  0.000000000000000E+000
  0.000000000000000E+000
  0.000000000000000E+000
  0.000000000000000E+000
  0.000000000000000E+000
  0.000000000000000E+000
  0.000000000000000E+000
  0.000000000000000E+000
  0.000000000000000E+000
  0.000000000000000E+000
  0.000000000000000E+000
  0.000000000000000E+000
  0.000000000000000E+000
  0.000000000000000E+000
  0.000000000000000E+000
  0.000000000000000E+000
  0.000000000000000E+000
  0.000000000000000E+000
  0.000000000000000E+000
  0.000000000000000E+000
  0.000000000000000E+000
  0.000000000000000E+000
  0.000000000000000E+000
  0.000000000000000E+000
  0.000000000000000E+000
  0.000000000000000E+000
  0.000000000000000E+000
  0.000000000000000E+000
  0.000000000000000E+000
  0.000000000000000E+000
  0.000000000000000E+000
  0.000000000000000E+000
  0.000000000000000E+000
  0.000000000000000E+000
  0.000000000000000E+000
  0.000000000000000E+000
  0.000000000000000E+000
  0.000000000000000E+000
  0.000000000000000E+000
  0.000000000000000E+000
  0.000000000000000E+000
  0.000000000000000E+000
  0.000000000000000E+000
  0.000000000000000E+000
  0.000000000000000E+000
  0.000000000000000E+000
  0.000000000000000E+000
  0.000000000000000E+000
  0.000000000000000E+000
  0.000000000000000E+000
  0.000000000000000E+000
  0.000000000000000E+000
  0.000000000000000E+000
  0.000000000000000E+000
  0.000000000000000E+000
  0.000000000000000E+000
  0.000000000000000E+000
  0.000000000000000E+000
  0.000000000000000E+000
  0.000000000000000E+000
  0.000000000000000E+000
  0.000000000000000E+000
  0.000000000000000E+000
  0.000000000000000E+000
  0.000000000000000E+000
  0.000000000000000E+000
  0.000000000000000E+000
  0.000000000000000E+000
  0.000000000000000E+000
  0.000000000000000E+000
  0.000000000000000E+000
  0.000000000000000E+000
  0.000000000000000E+000
  0.000000000000000E+000
  0.000000000000000E+000
  0.000000000000000E+000
  0.000000000000000E+000
  0.000000000000000E+000
  0.000000000000000E+000
  0.000000000000000E+000
  0.000000000000000E+000
  0.000000000000000E+000
  0.000000000000000E+000
  0.000000000000000E+000
  0.000000000000000E+000
  0.000000000000000E+000
  0.000000000000000E+000
  0.000000000000000E+000
  0.000000000000000E+000
  0.000000000000000E+000
  0.000000000000000E+000
  0.000000000000000E+000
  0.000000000000000E+000
  0.000000000000000E+000
  0.000000000000000E+000
  0.000000000000000E+000
  0.000000000000000E+000
  0.000000000000000E+000
  0.000000000000000E+000
  0.000000000000000E+000
  0.000000000000000E+000
  0.000000000000000E+000
  0.000000000000000E+000
  0.000000000000000E+000
  0.000000000000000E+000
  0.000000000000000E+000
  0.000000000000000E+000
  0.000000000000000E+000
  0.000000000000000E+000
  0.000000000000000E+000
  0.000000000000000E+000
  0.000000000000000E+000
  0.000000000000000E+000
  0.000000000000000E+000
  0.000000000000000E+000
  0.000000000000000E+000
  0.000000000000000E+000
  0.000000000000000E+000
  0.000000000000000E+000
  0.000000000000000E+000
  0.000000000000000E+000
  0.000000000000000E+000
  0.000000000000000E+000
  0.000000000000000E+000
  0.000000000000000E+000
  0.000000000000000E+000
  0.000000000000000E+000
  0.000000000000000E+000
  0.000000000000000E+000
  0.000000000000000E+000
  0.000000000000000E+000
  0.000000000000000E+000
  0.000000000000000E+000
  0.000000000000000E+000
  0.000000000000000E+000
  0.000000000000000E+000
  0.000000000000000E+000
  0.000000000000000E+000
  0.000000000000000E+000
  0.000000000000000E+000
  0.000000000000000E+000
  0.000000000000000E+000
  0.000000000000000E+000
  0.000000000000000E+000
  0.000000000000000E+000
  0.000000000000000E+000
  0.000000000000000E+000
  0.000000000000000E+000
  0.000000000000000E+000
  0.000000000000000E+000
  0.000000000000000E+000
  0.000000000000000E+000
  0.000000000000000E+000
  0.000000000000000E+000
  0.000000000000000E+000
  0.000000000000000E+000
  0.000000000000000E+000
  0.000000000000000E+000
  0.000000000000000E+000
  0.000000000000000E+000
  0.000000000000000E+000
  0.000000000000000E+000
  0.000000000000000E+000
  0.000000000000000E+000
  0.000000000000000E+000
  0.000000000000000E+000
  0.000000000000000E+000
  0.000000000000000E+000
  0.000000000000000E+000
  0.000000000000000E+000
  0.000000000000000E+000
  0.000000000000000E+000
  0.000000000000000E+000
  0.000000000000000E+000
  0.000000000000000E+000
  0.000000000000000E+000
  0.000000000000000E+000
  0.000000000000000E+000
  0.000000000000000E+000
  0.000000000000000E+000
  0.000000000000000E+000
  0.000000000000000E+000
  0.000000000000000E+000
  0.000000000000000E+000
  0.000000000000000E+000
  0.000000000000000E+000
  0.000000000000000E+000
  0.000000000000000E+000
  0.000000000000000E+000
  0.000000000000000E+000
  0.000000000000000E+000
  0.000000000000000E+000
  0.000000000000000E+000
  0.000000000000000E+000
  0.000000000000000E+000
  0.000000000000000E+000
  0.000000000000000E+000
  0.000000000000000E+000
  0.000000000000000E+000
  0.000000000000000E+000
  0.000000000000000E+000
  0.000000000000000E+000
  0.000000000000000E+000
  0.000000000000000E+000
  0.000000000000000E+000
  0.000000000000000E+000
  0.000000000000000E+000
  0.000000000000000E+000
  0.000000000000000E+000
  0.000000000000000E+000
  0.000000000000000E+000
  0.000000000000000E+000
  0.000000000000000E+000
  0.000000000000000E+000
  0.000000000000000E+000
  0.000000000000000E+000
  0.000000000000000E+000
  0.000000000000000E+000
  0.000000000000000E+000
  0.000000000000000E+000
  0.000000000000000E+000
  0.000000000000000E+000
  0.000000000000000E+000
  0.000000000000000E+000
  0.000000000000000E+000
  0.000000000000000E+000
  0.000000000000000E+000
  0.000000000000000E+000
  0.000000000000000E+000
  0.000000000000000E+000
  0.000000000000000E+000
  0.000000000000000E+000
  0.000000000000000E+000
  0.000000000000000E+000
  0.000000000000000E+000
  0.000000000000000E+000
  0.000000000000000E+000
  0.000000000000000E+000
  0.000000000000000E+000
  0.000000000000000E+000
  0.000000000000000E+000
  0.000000000000000E+000
  0.000000000000000E+000
  0.000000000000000E+000
  0.000000000000000E+000
  0.000000000000000E+000
  0.000000000000000E+000
  0.000000000000000E+000
  0.000000000000000E+000
  0.000000000000000E+000
  0.000000000000000E+000
  0.000000000000000E+000
  0.000000000000000E+000
  0.000000000000000E+000
  0.000000000000000E+000
  0.000000000000000E+000
  0.000000000000000E+000
  0.000000000000000E+000
  0.000000000000000E+000
  0.000000000000000E+000
  0.000000000000000E+000
  0.000000000000000E+000
  0.000000000000000E+000
  0.000000000000000E+000
  0.000000000000000E+000
  0.000000000000000E+000
  0.000000000000000E+000
  0.000000000000000E+000
  0.000000000000000E+000
  0.000000000000000E+000
  0.000000000000000E+000
  0.000000000000000E+000
  0.000000000000000E+000
  0.000000000000000E+000
  0.000000000000000E+000
  0.000000000000000E+000
  0.000000000000000E+000
  0.000000000000000E+000
  0.000000000000000E+000
  0.000000000000000E+000
  0.000000000000000E+000
  0.000000000000000E+000
  0.000000000000000E+000
  0.000000000000000E+000
  0.000000000000000E+000
  0.000000000000000E+000
  0.000000000000000E+000
  0.000000000000000E+000
  0.000000000000000E+000
  0.000000000000000E+000
  0.000000000000000E+000
  0.000000000000000E+000
  0.000000000000000E+000
  0.000000000000000E+000
  0.000000000000000E+000
  0.000000000000000E+000
  0.000000000000000E+000
  0.000000000000000E+000
  0.000000000000000E+000
  0.000000000000000E+000
  0.000000000000000E+000
  0.000000000000000E+000
  0.000000000000000E+000
  0.000000000000000E+000
  0.000000000000000E+000
  0.000000000000000E+000
  0.000000000000000E+000
  0.000000000000000E+000
  0.000000000000000E+000
  0.000000000000000E+000
  0.000000000000000E+000
  0.000000000000000E+000
  0.000000000000000E+000
  0.000000000000000E+000
  0.000000000000000E+000
  0.000000000000000E+000
  0.000000000000000E+000
  0.000000000000000E+000
  0.000000000000000E+000
  0.000000000000000E+000
  0.000000000000000E+000
  0.000000000000000E+000
  0.000000000000000E+000
  0.000000000000000E+000
  0.000000000000000E+000
  0.000000000000000E+000
  0.000000000000000E+000
  0.000000000000000E+000
  0.000000000000000E+000
  0.000000000000000E+000
  0.000000000000000E+000
  0.000000000000000E+000
  0.000000000000000E+000
  0.000000000000000E+000
  0.000000000000000E+000
  0.000000000000000E+000
  0.000000000000000E+000
  0.000000000000000E+000
  0.000000000000000E+000
  0.000000000000000E+000
  0.000000000000000E+000
  0.000000000000000E+000
  0.000000000000000E+000
  0.000000000000000E+000
  0.000000000000000E+000
  0.000000000000000E+000
  0.000000000000000E+000
  0.000000000000000E+000
  0.000000000000000E+000
  0.000000000000000E+000
  0.000000000000000E+000
  0.000000000000000E+000
  0.000000000000000E+000
  0.000000000000000E+000
  0.000000000000000E+000
  0.000000000000000E+000
  0.000000000000000E+000
  0.000000000000000E+000
  0.000000000000000E+000
  0.000000000000000E+000
  0.000000000000000E+000
  0.000000000000000E+000
  0.000000000000000E+000
  0.000000000000000E+000
  0.000000000000000E+000
  0.000000000000000E+000
  0.000000000000000E+000
  0.000000000000000E+000
  0.000000000000000E+000
  0.000000000000000E+000
  0.000000000000000E+000
  0.000000000000000E+000
  0.000000000000000E+000
  0.000000000000000E+000
  0.000000000000000E+000
  0.000000000000000E+000
  0.000000000000000E+000
  0.000000000000000E+000
  0.000000000000000E+000
  0.000000000000000E+000
  0.000000000000000E+000
  0.000000000000000E+000
  0.000000000000000E+000
  0.000000000000000E+000
  0.000000000000000E+000
  0.000000000000000E+000
  0.000000000000000E+000
  0.000000000000000E+000
  0.000000000000000E+000
  0.000000000000000E+000
  0.000000000000000E+000
  0.000000000000000E+000
  0.000000000000000E+000
  0.000000000000000E+000
  0.000000000000000E+000
  0.000000000000000E+000
  0.000000000000000E+000
  0.000000000000000E+000
  0.000000000000000E+000
  0.000000000000000E+000
  0.000000000000000E+000
  0.000000000000000E+000
  0.000000000000000E+000
  0.000000000000000E+000
  0.000000000000000E+000
  0.000000000000000E+000
  0.000000000000000E+000
  0.000000000000000E+000
  0.000000000000000E+000
  0.000000000000000E+000
  0.000000000000000E+000
  0.000000000000000E+000
  0.000000000000000E+000
  0.000000000000000E+000
  0.000000000000000E+000
  0.000000000000000E+000
  0.000000000000000E+000
  0.000000000000000E+000
  0.000000000000000E+000
  0.000000000000000E+000
  0.000000000000000E+000
  0.000000000000000E+000
  0.000000000000000E+000
  0.000000000000000E+000
  0.000000000000000E+000
  0.000000000000000E+000
  0.000000000000000E+000
  0.000000000000000E+000
  0.000000000000000E+000
  0.000000000000000E+000
  0.000000000000000E+000
  0.000000000000000E+000
  0.000000000000000E+000
  0.000000000000000E+000
  0.000000000000000E+000
  0.000000000000000E+000
  0.000000000000000E+000
  0.000000000000000E+000
  0.000000000000000E+000
  0.000000000000000E+000
  0.000000000000000E+000
  0.000000000000000E+000
  0.000000000000000E+000
  0.000000000000000E+000
  0.000000000000000E+000
  0.000000000000000E+000
  0.000000000000000E+000
  0.000000000000000E+000
  0.000000000000000E+000
  0.000000000000000E+000
  0.000000000000000E+000
  0.000000000000000E+000
  0.000000000000000E+000
  0.000000000000000E+000
  0.000000000000000E+000
  0.000000000000000E+000
  0.000000000000000E+000
  0.000000000000000E+000
  0.000000000000000E+000
  0.000000000000000E+000
  0.000000000000000E+000
  0.000000000000000E+000
  0.000000000000000E+000
  0.000000000000000E+000
  0.000000000000000E+000
  0.000000000000000E+000
  0.000000000000000E+000
  0.000000000000000E+000
  0.000000000000000E+000
  0.000000000000000E+000
  0.000000000000000E+000
  0.000000000000000E+000
  0.000000000000000E+000
  0.000000000000000E+000
  0.000000000000000E+000
  0.000000000000000E+000
  0.000000000000000E+000
  0.000000000000000E+000
  0.000000000000000E+000
  0.000000000000000E+000
  0.000000000000000E+000
  0.000000000000000E+000
  0.000000000000000E+000
  0.000000000000000E+000
  0.000000000000000E+000
  0.000000000000000E+000
  0.000000000000000E+000
  0.000000000000000E+000
  0.000000000000000E+000
  0.000000000000000E+000
  0.000000000000000E+000
  0.000000000000000E+000
  0.000000000000000E+000
  0.000000000000000E+000
  0.000000000000000E+000
  0.000000000000000E+000
  0.000000000000000E+000
  0.000000000000000E+000
  0.000000000000000E+000
  0.000000000000000E+000
  0.000000000000000E+000
  0.000000000000000E+000
  0.000000000000000E+000
  0.000000000000000E+000
  0.000000000000000E+000
  0.000000000000000E+000
  0.000000000000000E+000
  0.000000000000000E+000
  0.000000000000000E+000
  0.000000000000000E+000
  0.000000000000000E+000
  0.000000000000000E+000
  0.000000000000000E+000
  0.000000000000000E+000
  0.000000000000000E+000
  0.000000000000000E+000
  0.000000000000000E+000
  0.000000000000000E+000
  0.000000000000000E+000
  0.000000000000000E+000
  0.000000000000000E+000
  0.000000000000000E+000
  0.000000000000000E+000
  0.000000000000000E+000
  0.000000000000000E+000
  0.000000000000000E+000
  0.000000000000000E+000
  0.000000000000000E+000
  0.000000000000000E+000
  0.000000000000000E+000
  0.000000000000000E+000
  0.000000000000000E+000
  0.000000000000000E+000
  0.000000000000000E+000
  0.000000000000000E+000
  0.000000000000000E+000
  0.000000000000000E+000
  0.000000000000000E+000
  0.000000000000000E+000
  0.000000000000000E+000
  0.000000000000000E+000
  0.000000000000000E+000
  0.000000000000000E+000
  0.000000000000000E+000
  0.000000000000000E+000
  0.000000000000000E+000
  0.000000000000000E+000
  0.000000000000000E+000
  0.000000000000000E+000
  0.000000000000000E+000
  0.000000000000000E+000
  0.000000000000000E+000
  0.000000000000000E+000
  0.000000000000000E+000
  0.000000000000000E+000
  0.000000000000000E+000
  0.000000000000000E+000
  0.000000000000000E+000
  0.000000000000000E+000
  0.000000000000000E+000
