# vtk DataFile Version 3.0
vtk output
ASCII
DATASET UNSTRUCTURED_GRID
POINTS      1225 double 
  0.00000000E+00  2.40000000E+01  0.00000000E+00
  0.00000000E+00  2.30000000E+01  0.00000000E+00
  0.00000000E+00  2.20000000E+01  0.00000000E+00
  0.00000000E+00  2.10000000E+01  0.00000000E+00
  0.00000000E+00  2.00000000E+01  0.00000000E+00
  0.00000000E+00  1.90000000E+01  0.00000000E+00
  0.00000000E+00  1.80000000E+01  0.00000000E+00
  0.00000000E+00  1.70000000E+01  0.00000000E+00
  0.00000000E+00  1.60000000E+01  0.00000000E+00
  0.00000000E+00  1.50000000E+01  0.00000000E+00
  0.00000000E+00  1.40000000E+01  0.00000000E+00
  0.00000000E+00  1.30000000E+01  0.00000000E+00
  0.00000000E+00  1.20000000E+01  0.00000000E+00
  0.00000000E+00  1.10000000E+01  0.00000000E+00
  0.00000000E+00  1.00000000E+01  0.00000000E+00
  0.00000000E+00  9.00000000E+00  0.00000000E+00
  0.00000000E+00  8.00000000E+00  0.00000000E+00
  0.00000000E+00  7.00000000E+00  0.00000000E+00
  0.00000000E+00  6.00000000E+00  0.00000000E+00
  0.00000000E+00  5.00000000E+00  0.00000000E+00
  0.00000000E+00  4.00000000E+00  0.00000000E+00
  0.00000000E+00  3.00000000E+00  0.00000000E+00
  0.00000000E+00  2.00000000E+00  0.00000000E+00
  0.00000000E+00  1.00000000E+00  0.00000000E+00
  0.00000000E+00 -2.66453526E-15  0.00000000E+00
  1.00000000E+00  2.40000000E+01  0.00000000E+00
  1.00000000E+00  2.30000000E+01  0.00000000E+00
  1.00000000E+00  2.20000000E+01  0.00000000E+00
  1.00000000E+00  2.10000000E+01  0.00000000E+00
  1.00000000E+00  2.00000000E+01  0.00000000E+00
  1.00000000E+00  1.90000000E+01  0.00000000E+00
  1.00000000E+00  1.80000000E+01  0.00000000E+00
  1.00000000E+00  1.70000000E+01  0.00000000E+00
  1.00000000E+00  1.60000000E+01  0.00000000E+00
  1.00000000E+00  1.50000000E+01  0.00000000E+00
  1.00000000E+00  1.40000000E+01  0.00000000E+00
  1.00000000E+00  1.30000000E+01  0.00000000E+00
  1.00000000E+00  1.20000000E+01  0.00000000E+00
  1.00000000E+00  1.10000000E+01  0.00000000E+00
  1.00000000E+00  1.00000000E+01  0.00000000E+00
  1.00000000E+00  9.00000000E+00  0.00000000E+00
  1.00000000E+00  8.00000000E+00  0.00000000E+00
  1.00000000E+00  7.00000000E+00  0.00000000E+00
  1.00000000E+00  6.00000000E+00  0.00000000E+00
  1.00000000E+00  5.00000000E+00  0.00000000E+00
  1.00000000E+00  4.00000000E+00  0.00000000E+00
  1.00000000E+00  3.00000000E+00  0.00000000E+00
  1.00000000E+00  2.00000000E+00  0.00000000E+00
  1.00000000E+00  1.00000000E+00  0.00000000E+00
  1.00000000E+00 -2.66453526E-15  0.00000000E+00
  2.00000000E+00  2.40000000E+01  0.00000000E+00
  2.00000000E+00  2.30000000E+01  0.00000000E+00
  2.00000000E+00  2.20000000E+01  0.00000000E+00
  2.00000000E+00  2.10000000E+01  0.00000000E+00
  2.00000000E+00  2.00000000E+01  0.00000000E+00
  2.00000000E+00  1.90000000E+01  0.00000000E+00
  2.00000000E+00  1.80000000E+01  0.00000000E+00
  2.00000000E+00  1.70000000E+01  0.00000000E+00
  2.00000000E+00  1.60000000E+01  0.00000000E+00
  2.00000000E+00  1.50000000E+01  0.00000000E+00
  2.00000000E+00  1.40000000E+01  0.00000000E+00
  2.00000000E+00  1.30000000E+01  0.00000000E+00
  2.00000000E+00  1.20000000E+01  0.00000000E+00
  2.00000000E+00  1.10000000E+01  0.00000000E+00
  2.00000000E+00  1.00000000E+01  0.00000000E+00
  2.00000000E+00  9.00000000E+00  0.00000000E+00
  2.00000000E+00  8.00000000E+00  0.00000000E+00
  2.00000000E+00  7.00000000E+00  0.00000000E+00
  2.00000000E+00  6.00000000E+00  0.00000000E+00
  2.00000000E+00  5.00000000E+00  0.00000000E+00
  2.00000000E+00  4.00000000E+00  0.00000000E+00
  2.00000000E+00  3.00000000E+00  0.00000000E+00
  2.00000000E+00  2.00000000E+00  0.00000000E+00
  2.00000000E+00  1.00000000E+00  0.00000000E+00
  2.00000000E+00 -2.66453526E-15  0.00000000E+00
  3.00000000E+00  2.40000000E+01  0.00000000E+00
  3.00000000E+00  2.30000000E+01  0.00000000E+00
  3.00000000E+00  2.20000000E+01  0.00000000E+00
  3.00000000E+00  2.10000000E+01  0.00000000E+00
  3.00000000E+00  2.00000000E+01  0.00000000E+00
  3.00000000E+00  1.90000000E+01  0.00000000E+00
  3.00000000E+00  1.80000000E+01  0.00000000E+00
  3.00000000E+00  1.70000000E+01  0.00000000E+00
  3.00000000E+00  1.60000000E+01  0.00000000E+00
  3.00000000E+00  1.50000000E+01  0.00000000E+00
  3.00000000E+00  1.40000000E+01  0.00000000E+00
  3.00000000E+00  1.30000000E+01  0.00000000E+00
  3.00000000E+00  1.20000000E+01  0.00000000E+00
  3.00000000E+00  1.10000000E+01  0.00000000E+00
  3.00000000E+00  1.00000000E+01  0.00000000E+00
  3.00000000E+00  9.00000000E+00  0.00000000E+00
  3.00000000E+00  8.00000000E+00  0.00000000E+00
  3.00000000E+00  7.00000000E+00  0.00000000E+00
  3.00000000E+00  6.00000000E+00  0.00000000E+00
  3.00000000E+00  5.00000000E+00  0.00000000E+00
  3.00000000E+00  4.00000000E+00  0.00000000E+00
  3.00000000E+00  3.00000000E+00  0.00000000E+00
  3.00000000E+00  2.00000000E+00  0.00000000E+00
  3.00000000E+00  1.00000000E+00  0.00000000E+00
  3.00000000E+00 -2.66453526E-15  0.00000000E+00
  4.00000000E+00  2.40000000E+01  0.00000000E+00
  4.00000000E+00  2.30000000E+01  0.00000000E+00
  4.00000000E+00  2.20000000E+01  0.00000000E+00
  4.00000000E+00  2.10000000E+01  0.00000000E+00
  4.00000000E+00  2.00000000E+01  0.00000000E+00
  4.00000000E+00  1.90000000E+01  0.00000000E+00
  4.00000000E+00  1.80000000E+01  0.00000000E+00
  4.00000000E+00  1.70000000E+01  0.00000000E+00
  4.00000000E+00  1.60000000E+01  0.00000000E+00
  4.00000000E+00  1.50000000E+01  0.00000000E+00
  4.00000000E+00  1.40000000E+01  0.00000000E+00
  4.00000000E+00  1.30000000E+01  0.00000000E+00
  4.00000000E+00  1.20000000E+01  0.00000000E+00
  4.00000000E+00  1.10000000E+01  0.00000000E+00
  4.00000000E+00  1.00000000E+01  0.00000000E+00
  4.00000000E+00  9.00000000E+00  0.00000000E+00
  4.00000000E+00  8.00000000E+00  0.00000000E+00
  4.00000000E+00  7.00000000E+00  0.00000000E+00
  4.00000000E+00  6.00000000E+00  0.00000000E+00
  4.00000000E+00  5.00000000E+00  0.00000000E+00
  4.00000000E+00  4.00000000E+00  0.00000000E+00
  4.00000000E+00  3.00000000E+00  0.00000000E+00
  4.00000000E+00  2.00000000E+00  0.00000000E+00
  4.00000000E+00  1.00000000E+00  0.00000000E+00
  4.00000000E+00 -2.66453526E-15  0.00000000E+00
  5.00000000E+00  2.40000000E+01  0.00000000E+00
  5.00000000E+00  2.30000000E+01  0.00000000E+00
  5.00000000E+00  2.20000000E+01  0.00000000E+00
  5.00000000E+00  2.10000000E+01  0.00000000E+00
  5.00000000E+00  2.00000000E+01  0.00000000E+00
  5.00000000E+00  1.90000000E+01  0.00000000E+00
  5.00000000E+00  1.80000000E+01  0.00000000E+00
  5.00000000E+00  1.70000000E+01  0.00000000E+00
  5.00000000E+00  1.60000000E+01  0.00000000E+00
  5.00000000E+00  1.50000000E+01  0.00000000E+00
  5.00000000E+00  1.40000000E+01  0.00000000E+00
  5.00000000E+00  1.30000000E+01  0.00000000E+00
  5.00000000E+00  1.20000000E+01  0.00000000E+00
  5.00000000E+00  1.10000000E+01  0.00000000E+00
  5.00000000E+00  1.00000000E+01  0.00000000E+00
  5.00000000E+00  9.00000000E+00  0.00000000E+00
  5.00000000E+00  8.00000000E+00  0.00000000E+00
  5.00000000E+00  7.00000000E+00  0.00000000E+00
  5.00000000E+00  6.00000000E+00  0.00000000E+00
  5.00000000E+00  5.00000000E+00  0.00000000E+00
  5.00000000E+00  4.00000000E+00  0.00000000E+00
  5.00000000E+00  3.00000000E+00  0.00000000E+00
  5.00000000E+00  2.00000000E+00  0.00000000E+00
  5.00000000E+00  1.00000000E+00  0.00000000E+00
  5.00000000E+00 -2.66453526E-15  0.00000000E+00
  6.00000000E+00  2.40000000E+01  0.00000000E+00
  6.00000000E+00  2.30000000E+01  0.00000000E+00
  6.00000000E+00  2.20000000E+01  0.00000000E+00
  6.00000000E+00  2.10000000E+01  0.00000000E+00
  6.00000000E+00  2.00000000E+01  0.00000000E+00
  6.00000000E+00  1.90000000E+01  0.00000000E+00
  6.00000000E+00  1.80000000E+01  0.00000000E+00
  6.00000000E+00  1.70000000E+01  0.00000000E+00
  6.00000000E+00  1.60000000E+01  0.00000000E+00
  6.00000000E+00  1.50000000E+01  0.00000000E+00
  6.00000000E+00  1.40000000E+01  0.00000000E+00
  6.00000000E+00  1.30000000E+01  0.00000000E+00
  6.00000000E+00  1.20000000E+01  0.00000000E+00
  6.00000000E+00  1.10000000E+01  0.00000000E+00
  6.00000000E+00  1.00000000E+01  0.00000000E+00
  6.00000000E+00  9.00000000E+00  0.00000000E+00
  6.00000000E+00  8.00000000E+00  0.00000000E+00
  6.00000000E+00  7.00000000E+00  0.00000000E+00
  6.00000000E+00  6.00000000E+00  0.00000000E+00
  6.00000000E+00  5.00000000E+00  0.00000000E+00
  6.00000000E+00  4.00000000E+00  0.00000000E+00
  6.00000000E+00  3.00000000E+00  0.00000000E+00
  6.00000000E+00  2.00000000E+00  0.00000000E+00
  6.00000000E+00  1.00000000E+00  0.00000000E+00
  6.00000000E+00 -2.66453526E-15  0.00000000E+00
  7.00000000E+00  2.40000000E+01  0.00000000E+00
  7.00000000E+00  2.30000000E+01  0.00000000E+00
  7.00000000E+00  2.20000000E+01  0.00000000E+00
  7.00000000E+00  2.10000000E+01  0.00000000E+00
  7.00000000E+00  2.00000000E+01  0.00000000E+00
  7.00000000E+00  1.90000000E+01  0.00000000E+00
  7.00000000E+00  1.80000000E+01  0.00000000E+00
  7.00000000E+00  1.70000000E+01  0.00000000E+00
  7.00000000E+00  1.60000000E+01  0.00000000E+00
  7.00000000E+00  1.50000000E+01  0.00000000E+00
  7.00000000E+00  1.40000000E+01  0.00000000E+00
  7.00000000E+00  1.30000000E+01  0.00000000E+00
  7.00000000E+00  1.20000000E+01  0.00000000E+00
  7.00000000E+00  1.10000000E+01  0.00000000E+00
  7.00000000E+00  1.00000000E+01  0.00000000E+00
  7.00000000E+00  9.00000000E+00  0.00000000E+00
  7.00000000E+00  8.00000000E+00  0.00000000E+00
  7.00000000E+00  7.00000000E+00  0.00000000E+00
  7.00000000E+00  6.00000000E+00  0.00000000E+00
  7.00000000E+00  5.00000000E+00  0.00000000E+00
  7.00000000E+00  4.00000000E+00  0.00000000E+00
  7.00000000E+00  3.00000000E+00  0.00000000E+00
  7.00000000E+00  2.00000000E+00  0.00000000E+00
  7.00000000E+00  1.00000000E+00  0.00000000E+00
  7.00000000E+00 -2.66453526E-15  0.00000000E+00
  8.00000000E+00  2.40000000E+01  0.00000000E+00
  8.00000000E+00  2.30000000E+01  0.00000000E+00
  8.00000000E+00  2.20000000E+01  0.00000000E+00
  8.00000000E+00  2.10000000E+01  0.00000000E+00
  8.00000000E+00  2.00000000E+01  0.00000000E+00
  8.00000000E+00  1.90000000E+01  0.00000000E+00
  8.00000000E+00  1.80000000E+01  0.00000000E+00
  8.00000000E+00  1.70000000E+01  0.00000000E+00
  8.00000000E+00  1.60000000E+01  0.00000000E+00
  8.00000000E+00  1.50000000E+01  0.00000000E+00
  8.00000000E+00  1.40000000E+01  0.00000000E+00
  8.00000000E+00  1.30000000E+01  0.00000000E+00
  8.00000000E+00  1.20000000E+01  0.00000000E+00
  8.00000000E+00  1.10000000E+01  0.00000000E+00
  8.00000000E+00  1.00000000E+01  0.00000000E+00
  8.00000000E+00  9.00000000E+00  0.00000000E+00
  8.00000000E+00  8.00000000E+00  0.00000000E+00
  8.00000000E+00  7.00000000E+00  0.00000000E+00
  8.00000000E+00  6.00000000E+00  0.00000000E+00
  8.00000000E+00  5.00000000E+00  0.00000000E+00
  8.00000000E+00  4.00000000E+00  0.00000000E+00
  8.00000000E+00  3.00000000E+00  0.00000000E+00
  8.00000000E+00  2.00000000E+00  0.00000000E+00
  8.00000000E+00  1.00000000E+00  0.00000000E+00
  8.00000000E+00 -2.66453526E-15  0.00000000E+00
  9.00000000E+00  2.40000000E+01  0.00000000E+00
  9.00000000E+00  2.30000000E+01  0.00000000E+00
  9.00000000E+00  2.20000000E+01  0.00000000E+00
  9.00000000E+00  2.10000000E+01  0.00000000E+00
  9.00000000E+00  2.00000000E+01  0.00000000E+00
  9.00000000E+00  1.90000000E+01  0.00000000E+00
  9.00000000E+00  1.80000000E+01  0.00000000E+00
  9.00000000E+00  1.70000000E+01  0.00000000E+00
  9.00000000E+00  1.60000000E+01  0.00000000E+00
  9.00000000E+00  1.50000000E+01  0.00000000E+00
  9.00000000E+00  1.40000000E+01  0.00000000E+00
  9.00000000E+00  1.30000000E+01  0.00000000E+00
  9.00000000E+00  1.20000000E+01  0.00000000E+00
  9.00000000E+00  1.10000000E+01  0.00000000E+00
  9.00000000E+00  1.00000000E+01  0.00000000E+00
  9.00000000E+00  9.00000000E+00  0.00000000E+00
  9.00000000E+00  8.00000000E+00  0.00000000E+00
  9.00000000E+00  7.00000000E+00  0.00000000E+00
  9.00000000E+00  6.00000000E+00  0.00000000E+00
  9.00000000E+00  5.00000000E+00  0.00000000E+00
  9.00000000E+00  4.00000000E+00  0.00000000E+00
  9.00000000E+00  3.00000000E+00  0.00000000E+00
  9.00000000E+00  2.00000000E+00  0.00000000E+00
  9.00000000E+00  1.00000000E+00  0.00000000E+00
  9.00000000E+00 -2.66453526E-15  0.00000000E+00
  1.00000000E+01  2.40000000E+01  0.00000000E+00
  1.00000000E+01  2.30000000E+01  0.00000000E+00
  1.00000000E+01  2.20000000E+01  0.00000000E+00
  1.00000000E+01  2.10000000E+01  0.00000000E+00
  1.00000000E+01  2.00000000E+01  0.00000000E+00
  1.00000000E+01  1.90000000E+01  0.00000000E+00
  1.00000000E+01  1.80000000E+01  0.00000000E+00
  1.00000000E+01  1.70000000E+01  0.00000000E+00
  1.00000000E+01  1.60000000E+01  0.00000000E+00
  1.00000000E+01  1.50000000E+01  0.00000000E+00
  1.00000000E+01  1.40000000E+01  0.00000000E+00
  1.00000000E+01  1.30000000E+01  0.00000000E+00
  1.00000000E+01  1.20000000E+01  0.00000000E+00
  1.00000000E+01  1.10000000E+01  0.00000000E+00
  1.00000000E+01  1.00000000E+01  0.00000000E+00
  1.00000000E+01  9.00000000E+00  0.00000000E+00
  1.00000000E+01  8.00000000E+00  0.00000000E+00
  1.00000000E+01  7.00000000E+00  0.00000000E+00
  1.00000000E+01  6.00000000E+00  0.00000000E+00
  1.00000000E+01  5.00000000E+00  0.00000000E+00
  1.00000000E+01  4.00000000E+00  0.00000000E+00
  1.00000000E+01  3.00000000E+00  0.00000000E+00
  1.00000000E+01  2.00000000E+00  0.00000000E+00
  1.00000000E+01  1.00000000E+00  0.00000000E+00
  1.00000000E+01 -2.66453526E-15  0.00000000E+00
  1.10000000E+01  2.40000000E+01  0.00000000E+00
  1.10000000E+01  2.30000000E+01  0.00000000E+00
  1.10000000E+01  2.20000000E+01  0.00000000E+00
  1.10000000E+01  2.10000000E+01  0.00000000E+00
  1.10000000E+01  2.00000000E+01  0.00000000E+00
  1.10000000E+01  1.90000000E+01  0.00000000E+00
  1.10000000E+01  1.80000000E+01  0.00000000E+00
  1.10000000E+01  1.70000000E+01  0.00000000E+00
  1.10000000E+01  1.60000000E+01  0.00000000E+00
  1.10000000E+01  1.50000000E+01  0.00000000E+00
  1.10000000E+01  1.40000000E+01  0.00000000E+00
  1.10000000E+01  1.30000000E+01  0.00000000E+00
  1.10000000E+01  1.20000000E+01  0.00000000E+00
  1.10000000E+01  1.10000000E+01  0.00000000E+00
  1.10000000E+01  1.00000000E+01  0.00000000E+00
  1.10000000E+01  9.00000000E+00  0.00000000E+00
  1.10000000E+01  8.00000000E+00  0.00000000E+00
  1.10000000E+01  7.00000000E+00  0.00000000E+00
  1.10000000E+01  6.00000000E+00  0.00000000E+00
  1.10000000E+01  5.00000000E+00  0.00000000E+00
  1.10000000E+01  4.00000000E+00  0.00000000E+00
  1.10000000E+01  3.00000000E+00  0.00000000E+00
  1.10000000E+01  2.00000000E+00  0.00000000E+00
  1.10000000E+01  1.00000000E+00  0.00000000E+00
  1.10000000E+01 -2.66453526E-15  0.00000000E+00
  1.20000000E+01  2.40000000E+01  0.00000000E+00
  1.20000000E+01  2.30000000E+01  0.00000000E+00
  1.20000000E+01  2.20000000E+01  0.00000000E+00
  1.20000000E+01  2.10000000E+01  0.00000000E+00
  1.20000000E+01  2.00000000E+01  0.00000000E+00
  1.20000000E+01  1.90000000E+01  0.00000000E+00
  1.20000000E+01  1.80000000E+01  0.00000000E+00
  1.20000000E+01  1.70000000E+01  0.00000000E+00
  1.20000000E+01  1.60000000E+01  0.00000000E+00
  1.20000000E+01  1.50000000E+01  0.00000000E+00
  1.20000000E+01  1.40000000E+01  0.00000000E+00
  1.20000000E+01  1.30000000E+01  0.00000000E+00
  1.20000000E+01  1.20000000E+01  0.00000000E+00
  1.20000000E+01  1.10000000E+01  0.00000000E+00
  1.20000000E+01  1.00000000E+01  0.00000000E+00
  1.20000000E+01  9.00000000E+00  0.00000000E+00
  1.20000000E+01  8.00000000E+00  0.00000000E+00
  1.20000000E+01  7.00000000E+00  0.00000000E+00
  1.20000000E+01  6.00000000E+00  0.00000000E+00
  1.20000000E+01  5.00000000E+00  0.00000000E+00
  1.20000000E+01  4.00000000E+00  0.00000000E+00
  1.20000000E+01  3.00000000E+00  0.00000000E+00
  1.20000000E+01  2.00000000E+00  0.00000000E+00
  1.20000000E+01  1.00000000E+00  0.00000000E+00
  1.20000000E+01 -2.66453526E-15  0.00000000E+00
  1.30000000E+01  2.40000000E+01  0.00000000E+00
  1.30000000E+01  2.30000000E+01  0.00000000E+00
  1.30000000E+01  2.20000000E+01  0.00000000E+00
  1.30000000E+01  2.10000000E+01  0.00000000E+00
  1.30000000E+01  2.00000000E+01  0.00000000E+00
  1.30000000E+01  1.90000000E+01  0.00000000E+00
  1.30000000E+01  1.80000000E+01  0.00000000E+00
  1.30000000E+01  1.70000000E+01  0.00000000E+00
  1.30000000E+01  1.60000000E+01  0.00000000E+00
  1.30000000E+01  1.50000000E+01  0.00000000E+00
  1.30000000E+01  1.40000000E+01  0.00000000E+00
  1.30000000E+01  1.30000000E+01  0.00000000E+00
  1.30000000E+01  1.20000000E+01  0.00000000E+00
  1.30000000E+01  1.10000000E+01  0.00000000E+00
  1.30000000E+01  1.00000000E+01  0.00000000E+00
  1.30000000E+01  9.00000000E+00  0.00000000E+00
  1.30000000E+01  8.00000000E+00  0.00000000E+00
  1.30000000E+01  7.00000000E+00  0.00000000E+00
  1.30000000E+01  6.00000000E+00  0.00000000E+00
  1.30000000E+01  5.00000000E+00  0.00000000E+00
  1.30000000E+01  4.00000000E+00  0.00000000E+00
  1.30000000E+01  3.00000000E+00  0.00000000E+00
  1.30000000E+01  2.00000000E+00  0.00000000E+00
  1.30000000E+01  1.00000000E+00  0.00000000E+00
  1.30000000E+01 -2.66453526E-15  0.00000000E+00
  1.40000000E+01  2.40000000E+01  0.00000000E+00
  1.40000000E+01  2.30000000E+01  0.00000000E+00
  1.40000000E+01  2.20000000E+01  0.00000000E+00
  1.40000000E+01  2.10000000E+01  0.00000000E+00
  1.40000000E+01  2.00000000E+01  0.00000000E+00
  1.40000000E+01  1.90000000E+01  0.00000000E+00
  1.40000000E+01  1.80000000E+01  0.00000000E+00
  1.40000000E+01  1.70000000E+01  0.00000000E+00
  1.40000000E+01  1.60000000E+01  0.00000000E+00
  1.40000000E+01  1.50000000E+01  0.00000000E+00
  1.40000000E+01  1.40000000E+01  0.00000000E+00
  1.40000000E+01  1.30000000E+01  0.00000000E+00
  1.40000000E+01  1.20000000E+01  0.00000000E+00
  1.40000000E+01  1.10000000E+01  0.00000000E+00
  1.40000000E+01  1.00000000E+01  0.00000000E+00
  1.40000000E+01  9.00000000E+00  0.00000000E+00
  1.40000000E+01  8.00000000E+00  0.00000000E+00
  1.40000000E+01  7.00000000E+00  0.00000000E+00
  1.40000000E+01  6.00000000E+00  0.00000000E+00
  1.40000000E+01  5.00000000E+00  0.00000000E+00
  1.40000000E+01  4.00000000E+00  0.00000000E+00
  1.40000000E+01  3.00000000E+00  0.00000000E+00
  1.40000000E+01  2.00000000E+00  0.00000000E+00
  1.40000000E+01  1.00000000E+00  0.00000000E+00
  1.40000000E+01 -2.66453526E-15  0.00000000E+00
  1.50000000E+01  2.40000000E+01  0.00000000E+00
  1.50000000E+01  2.30000000E+01  0.00000000E+00
  1.50000000E+01  2.20000000E+01  0.00000000E+00
  1.50000000E+01  2.10000000E+01  0.00000000E+00
  1.50000000E+01  2.00000000E+01  0.00000000E+00
  1.50000000E+01  1.90000000E+01  0.00000000E+00
  1.50000000E+01  1.80000000E+01  0.00000000E+00
  1.50000000E+01  1.70000000E+01  0.00000000E+00
  1.50000000E+01  1.60000000E+01  0.00000000E+00
  1.50000000E+01  1.50000000E+01  0.00000000E+00
  1.50000000E+01  1.40000000E+01  0.00000000E+00
  1.50000000E+01  1.30000000E+01  0.00000000E+00
  1.50000000E+01  1.20000000E+01  0.00000000E+00
  1.50000000E+01  1.10000000E+01  0.00000000E+00
  1.50000000E+01  1.00000000E+01  0.00000000E+00
  1.50000000E+01  9.00000000E+00  0.00000000E+00
  1.50000000E+01  8.00000000E+00  0.00000000E+00
  1.50000000E+01  7.00000000E+00  0.00000000E+00
  1.50000000E+01  6.00000000E+00  0.00000000E+00
  1.50000000E+01  5.00000000E+00  0.00000000E+00
  1.50000000E+01  4.00000000E+00  0.00000000E+00
  1.50000000E+01  3.00000000E+00  0.00000000E+00
  1.50000000E+01  2.00000000E+00  0.00000000E+00
  1.50000000E+01  1.00000000E+00  0.00000000E+00
  1.50000000E+01 -2.66453526E-15  0.00000000E+00
  1.60000000E+01  2.40000000E+01  0.00000000E+00
  1.60000000E+01  2.30000000E+01  0.00000000E+00
  1.60000000E+01  2.20000000E+01  0.00000000E+00
  1.60000000E+01  2.10000000E+01  0.00000000E+00
  1.60000000E+01  2.00000000E+01  0.00000000E+00
  1.60000000E+01  1.90000000E+01  0.00000000E+00
  1.60000000E+01  1.80000000E+01  0.00000000E+00
  1.60000000E+01  1.70000000E+01  0.00000000E+00
  1.60000000E+01  1.60000000E+01  0.00000000E+00
  1.60000000E+01  1.50000000E+01  0.00000000E+00
  1.60000000E+01  1.40000000E+01  0.00000000E+00
  1.60000000E+01  1.30000000E+01  0.00000000E+00
  1.60000000E+01  1.20000000E+01  0.00000000E+00
  1.60000000E+01  1.10000000E+01  0.00000000E+00
  1.60000000E+01  1.00000000E+01  0.00000000E+00
  1.60000000E+01  9.00000000E+00  0.00000000E+00
  1.60000000E+01  8.00000000E+00  0.00000000E+00
  1.60000000E+01  7.00000000E+00  0.00000000E+00
  1.60000000E+01  6.00000000E+00  0.00000000E+00
  1.60000000E+01  5.00000000E+00  0.00000000E+00
  1.60000000E+01  4.00000000E+00  0.00000000E+00
  1.60000000E+01  3.00000000E+00  0.00000000E+00
  1.60000000E+01  2.00000000E+00  0.00000000E+00
  1.60000000E+01  1.00000000E+00  0.00000000E+00
  1.60000000E+01 -2.66453526E-15  0.00000000E+00
  1.70000000E+01  2.40000000E+01  0.00000000E+00
  1.70000000E+01  2.30000000E+01  0.00000000E+00
  1.70000000E+01  2.20000000E+01  0.00000000E+00
  1.70000000E+01  2.10000000E+01  0.00000000E+00
  1.70000000E+01  2.00000000E+01  0.00000000E+00
  1.70000000E+01  1.90000000E+01  0.00000000E+00
  1.70000000E+01  1.80000000E+01  0.00000000E+00
  1.70000000E+01  1.70000000E+01  0.00000000E+00
  1.70000000E+01  1.60000000E+01  0.00000000E+00
  1.70000000E+01  1.50000000E+01  0.00000000E+00
  1.70000000E+01  1.40000000E+01  0.00000000E+00
  1.70000000E+01  1.30000000E+01  0.00000000E+00
  1.70000000E+01  1.20000000E+01  0.00000000E+00
  1.70000000E+01  1.10000000E+01  0.00000000E+00
  1.70000000E+01  1.00000000E+01  0.00000000E+00
  1.70000000E+01  9.00000000E+00  0.00000000E+00
  1.70000000E+01  8.00000000E+00  0.00000000E+00
  1.70000000E+01  7.00000000E+00  0.00000000E+00
  1.70000000E+01  6.00000000E+00  0.00000000E+00
  1.70000000E+01  5.00000000E+00  0.00000000E+00
  1.70000000E+01  4.00000000E+00  0.00000000E+00
  1.70000000E+01  3.00000000E+00  0.00000000E+00
  1.70000000E+01  2.00000000E+00  0.00000000E+00
  1.70000000E+01  1.00000000E+00  0.00000000E+00
  1.70000000E+01 -2.66453526E-15  0.00000000E+00
  1.80000000E+01  2.40000000E+01  0.00000000E+00
  1.80000000E+01  2.30000000E+01  0.00000000E+00
  1.80000000E+01  2.20000000E+01  0.00000000E+00
  1.80000000E+01  2.10000000E+01  0.00000000E+00
  1.80000000E+01  2.00000000E+01  0.00000000E+00
  1.80000000E+01  1.90000000E+01  0.00000000E+00
  1.80000000E+01  1.80000000E+01  0.00000000E+00
  1.80000000E+01  1.70000000E+01  0.00000000E+00
  1.80000000E+01  1.60000000E+01  0.00000000E+00
  1.80000000E+01  1.50000000E+01  0.00000000E+00
  1.80000000E+01  1.40000000E+01  0.00000000E+00
  1.80000000E+01  1.30000000E+01  0.00000000E+00
  1.80000000E+01  1.20000000E+01  0.00000000E+00
  1.80000000E+01  1.10000000E+01  0.00000000E+00
  1.80000000E+01  1.00000000E+01  0.00000000E+00
  1.80000000E+01  9.00000000E+00  0.00000000E+00
  1.80000000E+01  8.00000000E+00  0.00000000E+00
  1.80000000E+01  7.00000000E+00  0.00000000E+00
  1.80000000E+01  6.00000000E+00  0.00000000E+00
  1.80000000E+01  5.00000000E+00  0.00000000E+00
  1.80000000E+01  4.00000000E+00  0.00000000E+00
  1.80000000E+01  3.00000000E+00  0.00000000E+00
  1.80000000E+01  2.00000000E+00  0.00000000E+00
  1.80000000E+01  1.00000000E+00  0.00000000E+00
  1.80000000E+01 -2.66453526E-15  0.00000000E+00
  1.90000000E+01  2.40000000E+01  0.00000000E+00
  1.90000000E+01  2.30000000E+01  0.00000000E+00
  1.90000000E+01  2.20000000E+01  0.00000000E+00
  1.90000000E+01  2.10000000E+01  0.00000000E+00
  1.90000000E+01  2.00000000E+01  0.00000000E+00
  1.90000000E+01  1.90000000E+01  0.00000000E+00
  1.90000000E+01  1.80000000E+01  0.00000000E+00
  1.90000000E+01  1.70000000E+01  0.00000000E+00
  1.90000000E+01  1.60000000E+01  0.00000000E+00
  1.90000000E+01  1.50000000E+01  0.00000000E+00
  1.90000000E+01  1.40000000E+01  0.00000000E+00
  1.90000000E+01  1.30000000E+01  0.00000000E+00
  1.90000000E+01  1.20000000E+01  0.00000000E+00
  1.90000000E+01  1.10000000E+01  0.00000000E+00
  1.90000000E+01  1.00000000E+01  0.00000000E+00
  1.90000000E+01  9.00000000E+00  0.00000000E+00
  1.90000000E+01  8.00000000E+00  0.00000000E+00
  1.90000000E+01  7.00000000E+00  0.00000000E+00
  1.90000000E+01  6.00000000E+00  0.00000000E+00
  1.90000000E+01  5.00000000E+00  0.00000000E+00
  1.90000000E+01  4.00000000E+00  0.00000000E+00
  1.90000000E+01  3.00000000E+00  0.00000000E+00
  1.90000000E+01  2.00000000E+00  0.00000000E+00
  1.90000000E+01  1.00000000E+00  0.00000000E+00
  1.90000000E+01 -2.66453526E-15  0.00000000E+00
  2.00000000E+01  2.40000000E+01  0.00000000E+00
  2.00000000E+01  2.30000000E+01  0.00000000E+00
  2.00000000E+01  2.20000000E+01  0.00000000E+00
  2.00000000E+01  2.10000000E+01  0.00000000E+00
  2.00000000E+01  2.00000000E+01  0.00000000E+00
  2.00000000E+01  1.90000000E+01  0.00000000E+00
  2.00000000E+01  1.80000000E+01  0.00000000E+00
  2.00000000E+01  1.70000000E+01  0.00000000E+00
  2.00000000E+01  1.60000000E+01  0.00000000E+00
  2.00000000E+01  1.50000000E+01  0.00000000E+00
  2.00000000E+01  1.40000000E+01  0.00000000E+00
  2.00000000E+01  1.30000000E+01  0.00000000E+00
  2.00000000E+01  1.20000000E+01  0.00000000E+00
  2.00000000E+01  1.10000000E+01  0.00000000E+00
  2.00000000E+01  1.00000000E+01  0.00000000E+00
  2.00000000E+01  9.00000000E+00  0.00000000E+00
  2.00000000E+01  8.00000000E+00  0.00000000E+00
  2.00000000E+01  7.00000000E+00  0.00000000E+00
  2.00000000E+01  6.00000000E+00  0.00000000E+00
  2.00000000E+01  5.00000000E+00  0.00000000E+00
  2.00000000E+01  4.00000000E+00  0.00000000E+00
  2.00000000E+01  3.00000000E+00  0.00000000E+00
  2.00000000E+01  2.00000000E+00  0.00000000E+00
  2.00000000E+01  1.00000000E+00  0.00000000E+00
  2.00000000E+01 -2.66453526E-15  0.00000000E+00
  2.10000000E+01  2.40000000E+01  0.00000000E+00
  2.10000000E+01  2.30000000E+01  0.00000000E+00
  2.10000000E+01  2.20000000E+01  0.00000000E+00
  2.10000000E+01  2.10000000E+01  0.00000000E+00
  2.10000000E+01  2.00000000E+01  0.00000000E+00
  2.10000000E+01  1.90000000E+01  0.00000000E+00
  2.10000000E+01  1.80000000E+01  0.00000000E+00
  2.10000000E+01  1.70000000E+01  0.00000000E+00
  2.10000000E+01  1.60000000E+01  0.00000000E+00
  2.10000000E+01  1.50000000E+01  0.00000000E+00
  2.10000000E+01  1.40000000E+01  0.00000000E+00
  2.10000000E+01  1.30000000E+01  0.00000000E+00
  2.10000000E+01  1.20000000E+01  0.00000000E+00
  2.10000000E+01  1.10000000E+01  0.00000000E+00
  2.10000000E+01  1.00000000E+01  0.00000000E+00
  2.10000000E+01  9.00000000E+00  0.00000000E+00
  2.10000000E+01  8.00000000E+00  0.00000000E+00
  2.10000000E+01  7.00000000E+00  0.00000000E+00
  2.10000000E+01  6.00000000E+00  0.00000000E+00
  2.10000000E+01  5.00000000E+00  0.00000000E+00
  2.10000000E+01  4.00000000E+00  0.00000000E+00
  2.10000000E+01  3.00000000E+00  0.00000000E+00
  2.10000000E+01  2.00000000E+00  0.00000000E+00
  2.10000000E+01  1.00000000E+00  0.00000000E+00
  2.10000000E+01 -2.66453526E-15  0.00000000E+00
  2.20000000E+01  2.40000000E+01  0.00000000E+00
  2.20000000E+01  2.30000000E+01  0.00000000E+00
  2.20000000E+01  2.20000000E+01  0.00000000E+00
  2.20000000E+01  2.10000000E+01  0.00000000E+00
  2.20000000E+01  2.00000000E+01  0.00000000E+00
  2.20000000E+01  1.90000000E+01  0.00000000E+00
  2.20000000E+01  1.80000000E+01  0.00000000E+00
  2.20000000E+01  1.70000000E+01  0.00000000E+00
  2.20000000E+01  1.60000000E+01  0.00000000E+00
  2.20000000E+01  1.50000000E+01  0.00000000E+00
  2.20000000E+01  1.40000000E+01  0.00000000E+00
  2.20000000E+01  1.30000000E+01  0.00000000E+00
  2.20000000E+01  1.20000000E+01  0.00000000E+00
  2.20000000E+01  1.10000000E+01  0.00000000E+00
  2.20000000E+01  1.00000000E+01  0.00000000E+00
  2.20000000E+01  9.00000000E+00  0.00000000E+00
  2.20000000E+01  8.00000000E+00  0.00000000E+00
  2.20000000E+01  7.00000000E+00  0.00000000E+00
  2.20000000E+01  6.00000000E+00  0.00000000E+00
  2.20000000E+01  5.00000000E+00  0.00000000E+00
  2.20000000E+01  4.00000000E+00  0.00000000E+00
  2.20000000E+01  3.00000000E+00  0.00000000E+00
  2.20000000E+01  2.00000000E+00  0.00000000E+00
  2.20000000E+01  1.00000000E+00  0.00000000E+00
  2.20000000E+01 -2.66453526E-15  0.00000000E+00
  2.30000000E+01  2.40000000E+01  0.00000000E+00
  2.30000000E+01  2.30000000E+01  0.00000000E+00
  2.30000000E+01  2.20000000E+01  0.00000000E+00
  2.30000000E+01  2.10000000E+01  0.00000000E+00
  2.30000000E+01  2.00000000E+01  0.00000000E+00
  2.30000000E+01  1.90000000E+01  0.00000000E+00
  2.30000000E+01  1.80000000E+01  0.00000000E+00
  2.30000000E+01  1.70000000E+01  0.00000000E+00
  2.30000000E+01  1.60000000E+01  0.00000000E+00
  2.30000000E+01  1.50000000E+01  0.00000000E+00
  2.30000000E+01  1.40000000E+01  0.00000000E+00
  2.30000000E+01  1.30000000E+01  0.00000000E+00
  2.30000000E+01  1.20000000E+01  0.00000000E+00
  2.30000000E+01  1.10000000E+01  0.00000000E+00
  2.30000000E+01  1.00000000E+01  0.00000000E+00
  2.30000000E+01  9.00000000E+00  0.00000000E+00
  2.30000000E+01  8.00000000E+00  0.00000000E+00
  2.30000000E+01  7.00000000E+00  0.00000000E+00
  2.30000000E+01  6.00000000E+00  0.00000000E+00
  2.30000000E+01  5.00000000E+00  0.00000000E+00
  2.30000000E+01  4.00000000E+00  0.00000000E+00
  2.30000000E+01  3.00000000E+00  0.00000000E+00
  2.30000000E+01  2.00000000E+00  0.00000000E+00
  2.30000000E+01  1.00000000E+00  0.00000000E+00
  2.30000000E+01 -2.66453526E-15  0.00000000E+00
  2.40000000E+01  2.40000000E+01  0.00000000E+00
  2.40000000E+01  2.30000000E+01  0.00000000E+00
  2.40000000E+01  2.20000000E+01  0.00000000E+00
  2.40000000E+01  2.10000000E+01  0.00000000E+00
  2.40000000E+01  2.00000000E+01  0.00000000E+00
  2.40000000E+01  1.90000000E+01  0.00000000E+00
  2.40000000E+01  1.80000000E+01  0.00000000E+00
  2.40000000E+01  1.70000000E+01  0.00000000E+00
  2.40000000E+01  1.60000000E+01  0.00000000E+00
  2.40000000E+01  1.50000000E+01  0.00000000E+00
  2.40000000E+01  1.40000000E+01  0.00000000E+00
  2.40000000E+01  1.30000000E+01  0.00000000E+00
  2.40000000E+01  1.20000000E+01  0.00000000E+00
  2.40000000E+01  1.10000000E+01  0.00000000E+00
  2.40000000E+01  1.00000000E+01  0.00000000E+00
  2.40000000E+01  9.00000000E+00  0.00000000E+00
  2.40000000E+01  8.00000000E+00  0.00000000E+00
  2.40000000E+01  7.00000000E+00  0.00000000E+00
  2.40000000E+01  6.00000000E+00  0.00000000E+00
  2.40000000E+01  5.00000000E+00  0.00000000E+00
  2.40000000E+01  4.00000000E+00  0.00000000E+00
  2.40000000E+01  3.00000000E+00  0.00000000E+00
  2.40000000E+01  2.00000000E+00  0.00000000E+00
  2.40000000E+01  1.00000000E+00  0.00000000E+00
  2.40000000E+01 -2.66453526E-15  0.00000000E+00
  2.50000000E+01  2.40000000E+01  0.00000000E+00
  2.50000000E+01  2.30000000E+01  0.00000000E+00
  2.50000000E+01  2.20000000E+01  0.00000000E+00
  2.50000000E+01  2.10000000E+01  0.00000000E+00
  2.50000000E+01  2.00000000E+01  0.00000000E+00
  2.50000000E+01  1.90000000E+01  0.00000000E+00
  2.50000000E+01  1.80000000E+01  0.00000000E+00
  2.50000000E+01  1.70000000E+01  0.00000000E+00
  2.50000000E+01  1.60000000E+01  0.00000000E+00
  2.50000000E+01  1.50000000E+01  0.00000000E+00
  2.50000000E+01  1.40000000E+01  0.00000000E+00
  2.50000000E+01  1.30000000E+01  0.00000000E+00
  2.50000000E+01  1.20000000E+01  0.00000000E+00
  2.50000000E+01  1.10000000E+01  0.00000000E+00
  2.50000000E+01  1.00000000E+01  0.00000000E+00
  2.50000000E+01  9.00000000E+00  0.00000000E+00
  2.50000000E+01  8.00000000E+00  0.00000000E+00
  2.50000000E+01  7.00000000E+00  0.00000000E+00
  2.50000000E+01  6.00000000E+00  0.00000000E+00
  2.50000000E+01  5.00000000E+00  0.00000000E+00
  2.50000000E+01  4.00000000E+00  0.00000000E+00
  2.50000000E+01  3.00000000E+00  0.00000000E+00
  2.50000000E+01  2.00000000E+00  0.00000000E+00
  2.50000000E+01  1.00000000E+00  0.00000000E+00
  2.50000000E+01 -2.66453526E-15  0.00000000E+00
  2.60000000E+01  2.40000000E+01  0.00000000E+00
  2.60000000E+01  2.30000000E+01  0.00000000E+00
  2.60000000E+01  2.20000000E+01  0.00000000E+00
  2.60000000E+01  2.10000000E+01  0.00000000E+00
  2.60000000E+01  2.00000000E+01  0.00000000E+00
  2.60000000E+01  1.90000000E+01  0.00000000E+00
  2.60000000E+01  1.80000000E+01  0.00000000E+00
  2.60000000E+01  1.70000000E+01  0.00000000E+00
  2.60000000E+01  1.60000000E+01  0.00000000E+00
  2.60000000E+01  1.50000000E+01  0.00000000E+00
  2.60000000E+01  1.40000000E+01  0.00000000E+00
  2.60000000E+01  1.30000000E+01  0.00000000E+00
  2.60000000E+01  1.20000000E+01  0.00000000E+00
  2.60000000E+01  1.10000000E+01  0.00000000E+00
  2.60000000E+01  1.00000000E+01  0.00000000E+00
  2.60000000E+01  9.00000000E+00  0.00000000E+00
  2.60000000E+01  8.00000000E+00  0.00000000E+00
  2.60000000E+01  7.00000000E+00  0.00000000E+00
  2.60000000E+01  6.00000000E+00  0.00000000E+00
  2.60000000E+01  5.00000000E+00  0.00000000E+00
  2.60000000E+01  4.00000000E+00  0.00000000E+00
  2.60000000E+01  3.00000000E+00  0.00000000E+00
  2.60000000E+01  2.00000000E+00  0.00000000E+00
  2.60000000E+01  1.00000000E+00  0.00000000E+00
  2.60000000E+01 -2.66453526E-15  0.00000000E+00
  2.70000000E+01  2.40000000E+01  0.00000000E+00
  2.70000000E+01  2.30000000E+01  0.00000000E+00
  2.70000000E+01  2.20000000E+01  0.00000000E+00
  2.70000000E+01  2.10000000E+01  0.00000000E+00
  2.70000000E+01  2.00000000E+01  0.00000000E+00
  2.70000000E+01  1.90000000E+01  0.00000000E+00
  2.70000000E+01  1.80000000E+01  0.00000000E+00
  2.70000000E+01  1.70000000E+01  0.00000000E+00
  2.70000000E+01  1.60000000E+01  0.00000000E+00
  2.70000000E+01  1.50000000E+01  0.00000000E+00
  2.70000000E+01  1.40000000E+01  0.00000000E+00
  2.70000000E+01  1.30000000E+01  0.00000000E+00
  2.70000000E+01  1.20000000E+01  0.00000000E+00
  2.70000000E+01  1.10000000E+01  0.00000000E+00
  2.70000000E+01  1.00000000E+01  0.00000000E+00
  2.70000000E+01  9.00000000E+00  0.00000000E+00
  2.70000000E+01  8.00000000E+00  0.00000000E+00
  2.70000000E+01  7.00000000E+00  0.00000000E+00
  2.70000000E+01  6.00000000E+00  0.00000000E+00
  2.70000000E+01  5.00000000E+00  0.00000000E+00
  2.70000000E+01  4.00000000E+00  0.00000000E+00
  2.70000000E+01  3.00000000E+00  0.00000000E+00
  2.70000000E+01  2.00000000E+00  0.00000000E+00
  2.70000000E+01  1.00000000E+00  0.00000000E+00
  2.70000000E+01 -2.66453526E-15  0.00000000E+00
  2.80000000E+01  2.40000000E+01  0.00000000E+00
  2.80000000E+01  2.30000000E+01  0.00000000E+00
  2.80000000E+01  2.20000000E+01  0.00000000E+00
  2.80000000E+01  2.10000000E+01  0.00000000E+00
  2.80000000E+01  2.00000000E+01  0.00000000E+00
  2.80000000E+01  1.90000000E+01  0.00000000E+00
  2.80000000E+01  1.80000000E+01  0.00000000E+00
  2.80000000E+01  1.70000000E+01  0.00000000E+00
  2.80000000E+01  1.60000000E+01  0.00000000E+00
  2.80000000E+01  1.50000000E+01  0.00000000E+00
  2.80000000E+01  1.40000000E+01  0.00000000E+00
  2.80000000E+01  1.30000000E+01  0.00000000E+00
  2.80000000E+01  1.20000000E+01  0.00000000E+00
  2.80000000E+01  1.10000000E+01  0.00000000E+00
  2.80000000E+01  1.00000000E+01  0.00000000E+00
  2.80000000E+01  9.00000000E+00  0.00000000E+00
  2.80000000E+01  8.00000000E+00  0.00000000E+00
  2.80000000E+01  7.00000000E+00  0.00000000E+00
  2.80000000E+01  6.00000000E+00  0.00000000E+00
  2.80000000E+01  5.00000000E+00  0.00000000E+00
  2.80000000E+01  4.00000000E+00  0.00000000E+00
  2.80000000E+01  3.00000000E+00  0.00000000E+00
  2.80000000E+01  2.00000000E+00  0.00000000E+00
  2.80000000E+01  1.00000000E+00  0.00000000E+00
  2.80000000E+01 -2.66453526E-15  0.00000000E+00
  2.90000000E+01  2.40000000E+01  0.00000000E+00
  2.90000000E+01  2.30000000E+01  0.00000000E+00
  2.90000000E+01  2.20000000E+01  0.00000000E+00
  2.90000000E+01  2.10000000E+01  0.00000000E+00
  2.90000000E+01  2.00000000E+01  0.00000000E+00
  2.90000000E+01  1.90000000E+01  0.00000000E+00
  2.90000000E+01  1.80000000E+01  0.00000000E+00
  2.90000000E+01  1.70000000E+01  0.00000000E+00
  2.90000000E+01  1.60000000E+01  0.00000000E+00
  2.90000000E+01  1.50000000E+01  0.00000000E+00
  2.90000000E+01  1.40000000E+01  0.00000000E+00
  2.90000000E+01  1.30000000E+01  0.00000000E+00
  2.90000000E+01  1.20000000E+01  0.00000000E+00
  2.90000000E+01  1.10000000E+01  0.00000000E+00
  2.90000000E+01  1.00000000E+01  0.00000000E+00
  2.90000000E+01  9.00000000E+00  0.00000000E+00
  2.90000000E+01  8.00000000E+00  0.00000000E+00
  2.90000000E+01  7.00000000E+00  0.00000000E+00
  2.90000000E+01  6.00000000E+00  0.00000000E+00
  2.90000000E+01  5.00000000E+00  0.00000000E+00
  2.90000000E+01  4.00000000E+00  0.00000000E+00
  2.90000000E+01  3.00000000E+00  0.00000000E+00
  2.90000000E+01  2.00000000E+00  0.00000000E+00
  2.90000000E+01  1.00000000E+00  0.00000000E+00
  2.90000000E+01 -2.66453526E-15  0.00000000E+00
  3.00000000E+01  2.40000000E+01  0.00000000E+00
  3.00000000E+01  2.30000000E+01  0.00000000E+00
  3.00000000E+01  2.20000000E+01  0.00000000E+00
  3.00000000E+01  2.10000000E+01  0.00000000E+00
  3.00000000E+01  2.00000000E+01  0.00000000E+00
  3.00000000E+01  1.90000000E+01  0.00000000E+00
  3.00000000E+01  1.80000000E+01  0.00000000E+00
  3.00000000E+01  1.70000000E+01  0.00000000E+00
  3.00000000E+01  1.60000000E+01  0.00000000E+00
  3.00000000E+01  1.50000000E+01  0.00000000E+00
  3.00000000E+01  1.40000000E+01  0.00000000E+00
  3.00000000E+01  1.30000000E+01  0.00000000E+00
  3.00000000E+01  1.20000000E+01  0.00000000E+00
  3.00000000E+01  1.10000000E+01  0.00000000E+00
  3.00000000E+01  1.00000000E+01  0.00000000E+00
  3.00000000E+01  9.00000000E+00  0.00000000E+00
  3.00000000E+01  8.00000000E+00  0.00000000E+00
  3.00000000E+01  7.00000000E+00  0.00000000E+00
  3.00000000E+01  6.00000000E+00  0.00000000E+00
  3.00000000E+01  5.00000000E+00  0.00000000E+00
  3.00000000E+01  4.00000000E+00  0.00000000E+00
  3.00000000E+01  3.00000000E+00  0.00000000E+00
  3.00000000E+01  2.00000000E+00  0.00000000E+00
  3.00000000E+01  1.00000000E+00  0.00000000E+00
  3.00000000E+01 -2.66453526E-15  0.00000000E+00
  3.10000000E+01  2.40000000E+01  0.00000000E+00
  3.10000000E+01  2.30000000E+01  0.00000000E+00
  3.10000000E+01  2.20000000E+01  0.00000000E+00
  3.10000000E+01  2.10000000E+01  0.00000000E+00
  3.10000000E+01  2.00000000E+01  0.00000000E+00
  3.10000000E+01  1.90000000E+01  0.00000000E+00
  3.10000000E+01  1.80000000E+01  0.00000000E+00
  3.10000000E+01  1.70000000E+01  0.00000000E+00
  3.10000000E+01  1.60000000E+01  0.00000000E+00
  3.10000000E+01  1.50000000E+01  0.00000000E+00
  3.10000000E+01  1.40000000E+01  0.00000000E+00
  3.10000000E+01  1.30000000E+01  0.00000000E+00
  3.10000000E+01  1.20000000E+01  0.00000000E+00
  3.10000000E+01  1.10000000E+01  0.00000000E+00
  3.10000000E+01  1.00000000E+01  0.00000000E+00
  3.10000000E+01  9.00000000E+00  0.00000000E+00
  3.10000000E+01  8.00000000E+00  0.00000000E+00
  3.10000000E+01  7.00000000E+00  0.00000000E+00
  3.10000000E+01  6.00000000E+00  0.00000000E+00
  3.10000000E+01  5.00000000E+00  0.00000000E+00
  3.10000000E+01  4.00000000E+00  0.00000000E+00
  3.10000000E+01  3.00000000E+00  0.00000000E+00
  3.10000000E+01  2.00000000E+00  0.00000000E+00
  3.10000000E+01  1.00000000E+00  0.00000000E+00
  3.10000000E+01 -2.66453526E-15  0.00000000E+00
  3.20000000E+01  2.40000000E+01  0.00000000E+00
  3.20000000E+01  2.30000000E+01  0.00000000E+00
  3.20000000E+01  2.20000000E+01  0.00000000E+00
  3.20000000E+01  2.10000000E+01  0.00000000E+00
  3.20000000E+01  2.00000000E+01  0.00000000E+00
  3.20000000E+01  1.90000000E+01  0.00000000E+00
  3.20000000E+01  1.80000000E+01  0.00000000E+00
  3.20000000E+01  1.70000000E+01  0.00000000E+00
  3.20000000E+01  1.60000000E+01  0.00000000E+00
  3.20000000E+01  1.50000000E+01  0.00000000E+00
  3.20000000E+01  1.40000000E+01  0.00000000E+00
  3.20000000E+01  1.30000000E+01  0.00000000E+00
  3.20000000E+01  1.20000000E+01  0.00000000E+00
  3.20000000E+01  1.10000000E+01  0.00000000E+00
  3.20000000E+01  1.00000000E+01  0.00000000E+00
  3.20000000E+01  9.00000000E+00  0.00000000E+00
  3.20000000E+01  8.00000000E+00  0.00000000E+00
  3.20000000E+01  7.00000000E+00  0.00000000E+00
  3.20000000E+01  6.00000000E+00  0.00000000E+00
  3.20000000E+01  5.00000000E+00  0.00000000E+00
  3.20000000E+01  4.00000000E+00  0.00000000E+00
  3.20000000E+01  3.00000000E+00  0.00000000E+00
  3.20000000E+01  2.00000000E+00  0.00000000E+00
  3.20000000E+01  1.00000000E+00  0.00000000E+00
  3.20000000E+01 -2.66453526E-15  0.00000000E+00
  3.30000000E+01  2.40000000E+01  0.00000000E+00
  3.30000000E+01  2.30000000E+01  0.00000000E+00
  3.30000000E+01  2.20000000E+01  0.00000000E+00
  3.30000000E+01  2.10000000E+01  0.00000000E+00
  3.30000000E+01  2.00000000E+01  0.00000000E+00
  3.30000000E+01  1.90000000E+01  0.00000000E+00
  3.30000000E+01  1.80000000E+01  0.00000000E+00
  3.30000000E+01  1.70000000E+01  0.00000000E+00
  3.30000000E+01  1.60000000E+01  0.00000000E+00
  3.30000000E+01  1.50000000E+01  0.00000000E+00
  3.30000000E+01  1.40000000E+01  0.00000000E+00
  3.30000000E+01  1.30000000E+01  0.00000000E+00
  3.30000000E+01  1.20000000E+01  0.00000000E+00
  3.30000000E+01  1.10000000E+01  0.00000000E+00
  3.30000000E+01  1.00000000E+01  0.00000000E+00
  3.30000000E+01  9.00000000E+00  0.00000000E+00
  3.30000000E+01  8.00000000E+00  0.00000000E+00
  3.30000000E+01  7.00000000E+00  0.00000000E+00
  3.30000000E+01  6.00000000E+00  0.00000000E+00
  3.30000000E+01  5.00000000E+00  0.00000000E+00
  3.30000000E+01  4.00000000E+00  0.00000000E+00
  3.30000000E+01  3.00000000E+00  0.00000000E+00
  3.30000000E+01  2.00000000E+00  0.00000000E+00
  3.30000000E+01  1.00000000E+00  0.00000000E+00
  3.30000000E+01 -2.66453526E-15  0.00000000E+00
  3.40000000E+01  2.40000000E+01  0.00000000E+00
  3.40000000E+01  2.30000000E+01  0.00000000E+00
  3.40000000E+01  2.20000000E+01  0.00000000E+00
  3.40000000E+01  2.10000000E+01  0.00000000E+00
  3.40000000E+01  2.00000000E+01  0.00000000E+00
  3.40000000E+01  1.90000000E+01  0.00000000E+00
  3.40000000E+01  1.80000000E+01  0.00000000E+00
  3.40000000E+01  1.70000000E+01  0.00000000E+00
  3.40000000E+01  1.60000000E+01  0.00000000E+00
  3.40000000E+01  1.50000000E+01  0.00000000E+00
  3.40000000E+01  1.40000000E+01  0.00000000E+00
  3.40000000E+01  1.30000000E+01  0.00000000E+00
  3.40000000E+01  1.20000000E+01  0.00000000E+00
  3.40000000E+01  1.10000000E+01  0.00000000E+00
  3.40000000E+01  1.00000000E+01  0.00000000E+00
  3.40000000E+01  9.00000000E+00  0.00000000E+00
  3.40000000E+01  8.00000000E+00  0.00000000E+00
  3.40000000E+01  7.00000000E+00  0.00000000E+00
  3.40000000E+01  6.00000000E+00  0.00000000E+00
  3.40000000E+01  5.00000000E+00  0.00000000E+00
  3.40000000E+01  4.00000000E+00  0.00000000E+00
  3.40000000E+01  3.00000000E+00  0.00000000E+00
  3.40000000E+01  2.00000000E+00  0.00000000E+00
  3.40000000E+01  1.00000000E+00  0.00000000E+00
  3.40000000E+01 -2.66453526E-15  0.00000000E+00
  3.50000000E+01  2.40000000E+01  0.00000000E+00
  3.50000000E+01  2.30000000E+01  0.00000000E+00
  3.50000000E+01  2.20000000E+01  0.00000000E+00
  3.50000000E+01  2.10000000E+01  0.00000000E+00
  3.50000000E+01  2.00000000E+01  0.00000000E+00
  3.50000000E+01  1.90000000E+01  0.00000000E+00
  3.50000000E+01  1.80000000E+01  0.00000000E+00
  3.50000000E+01  1.70000000E+01  0.00000000E+00
  3.50000000E+01  1.60000000E+01  0.00000000E+00
  3.50000000E+01  1.50000000E+01  0.00000000E+00
  3.50000000E+01  1.40000000E+01  0.00000000E+00
  3.50000000E+01  1.30000000E+01  0.00000000E+00
  3.50000000E+01  1.20000000E+01  0.00000000E+00
  3.50000000E+01  1.10000000E+01  0.00000000E+00
  3.50000000E+01  1.00000000E+01  0.00000000E+00
  3.50000000E+01  9.00000000E+00  0.00000000E+00
  3.50000000E+01  8.00000000E+00  0.00000000E+00
  3.50000000E+01  7.00000000E+00  0.00000000E+00
  3.50000000E+01  6.00000000E+00  0.00000000E+00
  3.50000000E+01  5.00000000E+00  0.00000000E+00
  3.50000000E+01  4.00000000E+00  0.00000000E+00
  3.50000000E+01  3.00000000E+00  0.00000000E+00
  3.50000000E+01  2.00000000E+00  0.00000000E+00
  3.50000000E+01  1.00000000E+00  0.00000000E+00
  3.50000000E+01 -2.66453526E-15  0.00000000E+00
  3.60000000E+01  2.40000000E+01  0.00000000E+00
  3.60000000E+01  2.30000000E+01  0.00000000E+00
  3.60000000E+01  2.20000000E+01  0.00000000E+00
  3.60000000E+01  2.10000000E+01  0.00000000E+00
  3.60000000E+01  2.00000000E+01  0.00000000E+00
  3.60000000E+01  1.90000000E+01  0.00000000E+00
  3.60000000E+01  1.80000000E+01  0.00000000E+00
  3.60000000E+01  1.70000000E+01  0.00000000E+00
  3.60000000E+01  1.60000000E+01  0.00000000E+00
  3.60000000E+01  1.50000000E+01  0.00000000E+00
  3.60000000E+01  1.40000000E+01  0.00000000E+00
  3.60000000E+01  1.30000000E+01  0.00000000E+00
  3.60000000E+01  1.20000000E+01  0.00000000E+00
  3.60000000E+01  1.10000000E+01  0.00000000E+00
  3.60000000E+01  1.00000000E+01  0.00000000E+00
  3.60000000E+01  9.00000000E+00  0.00000000E+00
  3.60000000E+01  8.00000000E+00  0.00000000E+00
  3.60000000E+01  7.00000000E+00  0.00000000E+00
  3.60000000E+01  6.00000000E+00  0.00000000E+00
  3.60000000E+01  5.00000000E+00  0.00000000E+00
  3.60000000E+01  4.00000000E+00  0.00000000E+00
  3.60000000E+01  3.00000000E+00  0.00000000E+00
  3.60000000E+01  2.00000000E+00  0.00000000E+00
  3.60000000E+01  1.00000000E+00  0.00000000E+00
  3.60000000E+01 -2.66453526E-15  0.00000000E+00
  3.70000000E+01  2.40000000E+01  0.00000000E+00
  3.70000000E+01  2.30000000E+01  0.00000000E+00
  3.70000000E+01  2.20000000E+01  0.00000000E+00
  3.70000000E+01  2.10000000E+01  0.00000000E+00
  3.70000000E+01  2.00000000E+01  0.00000000E+00
  3.70000000E+01  1.90000000E+01  0.00000000E+00
  3.70000000E+01  1.80000000E+01  0.00000000E+00
  3.70000000E+01  1.70000000E+01  0.00000000E+00
  3.70000000E+01  1.60000000E+01  0.00000000E+00
  3.70000000E+01  1.50000000E+01  0.00000000E+00
  3.70000000E+01  1.40000000E+01  0.00000000E+00
  3.70000000E+01  1.30000000E+01  0.00000000E+00
  3.70000000E+01  1.20000000E+01  0.00000000E+00
  3.70000000E+01  1.10000000E+01  0.00000000E+00
  3.70000000E+01  1.00000000E+01  0.00000000E+00
  3.70000000E+01  9.00000000E+00  0.00000000E+00
  3.70000000E+01  8.00000000E+00  0.00000000E+00
  3.70000000E+01  7.00000000E+00  0.00000000E+00
  3.70000000E+01  6.00000000E+00  0.00000000E+00
  3.70000000E+01  5.00000000E+00  0.00000000E+00
  3.70000000E+01  4.00000000E+00  0.00000000E+00
  3.70000000E+01  3.00000000E+00  0.00000000E+00
  3.70000000E+01  2.00000000E+00  0.00000000E+00
  3.70000000E+01  1.00000000E+00  0.00000000E+00
  3.70000000E+01 -2.66453526E-15  0.00000000E+00
  3.80000000E+01  2.40000000E+01  0.00000000E+00
  3.80000000E+01  2.30000000E+01  0.00000000E+00
  3.80000000E+01  2.20000000E+01  0.00000000E+00
  3.80000000E+01  2.10000000E+01  0.00000000E+00
  3.80000000E+01  2.00000000E+01  0.00000000E+00
  3.80000000E+01  1.90000000E+01  0.00000000E+00
  3.80000000E+01  1.80000000E+01  0.00000000E+00
  3.80000000E+01  1.70000000E+01  0.00000000E+00
  3.80000000E+01  1.60000000E+01  0.00000000E+00
  3.80000000E+01  1.50000000E+01  0.00000000E+00
  3.80000000E+01  1.40000000E+01  0.00000000E+00
  3.80000000E+01  1.30000000E+01  0.00000000E+00
  3.80000000E+01  1.20000000E+01  0.00000000E+00
  3.80000000E+01  1.10000000E+01  0.00000000E+00
  3.80000000E+01  1.00000000E+01  0.00000000E+00
  3.80000000E+01  9.00000000E+00  0.00000000E+00
  3.80000000E+01  8.00000000E+00  0.00000000E+00
  3.80000000E+01  7.00000000E+00  0.00000000E+00
  3.80000000E+01  6.00000000E+00  0.00000000E+00
  3.80000000E+01  5.00000000E+00  0.00000000E+00
  3.80000000E+01  4.00000000E+00  0.00000000E+00
  3.80000000E+01  3.00000000E+00  0.00000000E+00
  3.80000000E+01  2.00000000E+00  0.00000000E+00
  3.80000000E+01  1.00000000E+00  0.00000000E+00
  3.80000000E+01 -2.66453526E-15  0.00000000E+00
  3.90000000E+01  2.40000000E+01  0.00000000E+00
  3.90000000E+01  2.30000000E+01  0.00000000E+00
  3.90000000E+01  2.20000000E+01  0.00000000E+00
  3.90000000E+01  2.10000000E+01  0.00000000E+00
  3.90000000E+01  2.00000000E+01  0.00000000E+00
  3.90000000E+01  1.90000000E+01  0.00000000E+00
  3.90000000E+01  1.80000000E+01  0.00000000E+00
  3.90000000E+01  1.70000000E+01  0.00000000E+00
  3.90000000E+01  1.60000000E+01  0.00000000E+00
  3.90000000E+01  1.50000000E+01  0.00000000E+00
  3.90000000E+01  1.40000000E+01  0.00000000E+00
  3.90000000E+01  1.30000000E+01  0.00000000E+00
  3.90000000E+01  1.20000000E+01  0.00000000E+00
  3.90000000E+01  1.10000000E+01  0.00000000E+00
  3.90000000E+01  1.00000000E+01  0.00000000E+00
  3.90000000E+01  9.00000000E+00  0.00000000E+00
  3.90000000E+01  8.00000000E+00  0.00000000E+00
  3.90000000E+01  7.00000000E+00  0.00000000E+00
  3.90000000E+01  6.00000000E+00  0.00000000E+00
  3.90000000E+01  5.00000000E+00  0.00000000E+00
  3.90000000E+01  4.00000000E+00  0.00000000E+00
  3.90000000E+01  3.00000000E+00  0.00000000E+00
  3.90000000E+01  2.00000000E+00  0.00000000E+00
  3.90000000E+01  1.00000000E+00  0.00000000E+00
  3.90000000E+01 -2.66453526E-15  0.00000000E+00
  4.00000000E+01  2.40000000E+01  0.00000000E+00
  4.00000000E+01  2.30000000E+01  0.00000000E+00
  4.00000000E+01  2.20000000E+01  0.00000000E+00
  4.00000000E+01  2.10000000E+01  0.00000000E+00
  4.00000000E+01  2.00000000E+01  0.00000000E+00
  4.00000000E+01  1.90000000E+01  0.00000000E+00
  4.00000000E+01  1.80000000E+01  0.00000000E+00
  4.00000000E+01  1.70000000E+01  0.00000000E+00
  4.00000000E+01  1.60000000E+01  0.00000000E+00
  4.00000000E+01  1.50000000E+01  0.00000000E+00
  4.00000000E+01  1.40000000E+01  0.00000000E+00
  4.00000000E+01  1.30000000E+01  0.00000000E+00
  4.00000000E+01  1.20000000E+01  0.00000000E+00
  4.00000000E+01  1.10000000E+01  0.00000000E+00
  4.00000000E+01  1.00000000E+01  0.00000000E+00
  4.00000000E+01  9.00000000E+00  0.00000000E+00
  4.00000000E+01  8.00000000E+00  0.00000000E+00
  4.00000000E+01  7.00000000E+00  0.00000000E+00
  4.00000000E+01  6.00000000E+00  0.00000000E+00
  4.00000000E+01  5.00000000E+00  0.00000000E+00
  4.00000000E+01  4.00000000E+00  0.00000000E+00
  4.00000000E+01  3.00000000E+00  0.00000000E+00
  4.00000000E+01  2.00000000E+00  0.00000000E+00
  4.00000000E+01  1.00000000E+00  0.00000000E+00
  4.00000000E+01 -2.66453526E-15  0.00000000E+00
  4.10000000E+01  2.40000000E+01  0.00000000E+00
  4.10000000E+01  2.30000000E+01  0.00000000E+00
  4.10000000E+01  2.20000000E+01  0.00000000E+00
  4.10000000E+01  2.10000000E+01  0.00000000E+00
  4.10000000E+01  2.00000000E+01  0.00000000E+00
  4.10000000E+01  1.90000000E+01  0.00000000E+00
  4.10000000E+01  1.80000000E+01  0.00000000E+00
  4.10000000E+01  1.70000000E+01  0.00000000E+00
  4.10000000E+01  1.60000000E+01  0.00000000E+00
  4.10000000E+01  1.50000000E+01  0.00000000E+00
  4.10000000E+01  1.40000000E+01  0.00000000E+00
  4.10000000E+01  1.30000000E+01  0.00000000E+00
  4.10000000E+01  1.20000000E+01  0.00000000E+00
  4.10000000E+01  1.10000000E+01  0.00000000E+00
  4.10000000E+01  1.00000000E+01  0.00000000E+00
  4.10000000E+01  9.00000000E+00  0.00000000E+00
  4.10000000E+01  8.00000000E+00  0.00000000E+00
  4.10000000E+01  7.00000000E+00  0.00000000E+00
  4.10000000E+01  6.00000000E+00  0.00000000E+00
  4.10000000E+01  5.00000000E+00  0.00000000E+00
  4.10000000E+01  4.00000000E+00  0.00000000E+00
  4.10000000E+01  3.00000000E+00  0.00000000E+00
  4.10000000E+01  2.00000000E+00  0.00000000E+00
  4.10000000E+01  1.00000000E+00  0.00000000E+00
  4.10000000E+01 -2.66453526E-15  0.00000000E+00
  4.20000000E+01  2.40000000E+01  0.00000000E+00
  4.20000000E+01  2.30000000E+01  0.00000000E+00
  4.20000000E+01  2.20000000E+01  0.00000000E+00
  4.20000000E+01  2.10000000E+01  0.00000000E+00
  4.20000000E+01  2.00000000E+01  0.00000000E+00
  4.20000000E+01  1.90000000E+01  0.00000000E+00
  4.20000000E+01  1.80000000E+01  0.00000000E+00
  4.20000000E+01  1.70000000E+01  0.00000000E+00
  4.20000000E+01  1.60000000E+01  0.00000000E+00
  4.20000000E+01  1.50000000E+01  0.00000000E+00
  4.20000000E+01  1.40000000E+01  0.00000000E+00
  4.20000000E+01  1.30000000E+01  0.00000000E+00
  4.20000000E+01  1.20000000E+01  0.00000000E+00
  4.20000000E+01  1.10000000E+01  0.00000000E+00
  4.20000000E+01  1.00000000E+01  0.00000000E+00
  4.20000000E+01  9.00000000E+00  0.00000000E+00
  4.20000000E+01  8.00000000E+00  0.00000000E+00
  4.20000000E+01  7.00000000E+00  0.00000000E+00
  4.20000000E+01  6.00000000E+00  0.00000000E+00
  4.20000000E+01  5.00000000E+00  0.00000000E+00
  4.20000000E+01  4.00000000E+00  0.00000000E+00
  4.20000000E+01  3.00000000E+00  0.00000000E+00
  4.20000000E+01  2.00000000E+00  0.00000000E+00
  4.20000000E+01  1.00000000E+00  0.00000000E+00
  4.20000000E+01 -2.66453526E-15  0.00000000E+00
  4.30000000E+01  2.40000000E+01  0.00000000E+00
  4.30000000E+01  2.30000000E+01  0.00000000E+00
  4.30000000E+01  2.20000000E+01  0.00000000E+00
  4.30000000E+01  2.10000000E+01  0.00000000E+00
  4.30000000E+01  2.00000000E+01  0.00000000E+00
  4.30000000E+01  1.90000000E+01  0.00000000E+00
  4.30000000E+01  1.80000000E+01  0.00000000E+00
  4.30000000E+01  1.70000000E+01  0.00000000E+00
  4.30000000E+01  1.60000000E+01  0.00000000E+00
  4.30000000E+01  1.50000000E+01  0.00000000E+00
  4.30000000E+01  1.40000000E+01  0.00000000E+00
  4.30000000E+01  1.30000000E+01  0.00000000E+00
  4.30000000E+01  1.20000000E+01  0.00000000E+00
  4.30000000E+01  1.10000000E+01  0.00000000E+00
  4.30000000E+01  1.00000000E+01  0.00000000E+00
  4.30000000E+01  9.00000000E+00  0.00000000E+00
  4.30000000E+01  8.00000000E+00  0.00000000E+00
  4.30000000E+01  7.00000000E+00  0.00000000E+00
  4.30000000E+01  6.00000000E+00  0.00000000E+00
  4.30000000E+01  5.00000000E+00  0.00000000E+00
  4.30000000E+01  4.00000000E+00  0.00000000E+00
  4.30000000E+01  3.00000000E+00  0.00000000E+00
  4.30000000E+01  2.00000000E+00  0.00000000E+00
  4.30000000E+01  1.00000000E+00  0.00000000E+00
  4.30000000E+01 -2.66453526E-15  0.00000000E+00
  4.40000000E+01  2.40000000E+01  0.00000000E+00
  4.40000000E+01  2.30000000E+01  0.00000000E+00
  4.40000000E+01  2.20000000E+01  0.00000000E+00
  4.40000000E+01  2.10000000E+01  0.00000000E+00
  4.40000000E+01  2.00000000E+01  0.00000000E+00
  4.40000000E+01  1.90000000E+01  0.00000000E+00
  4.40000000E+01  1.80000000E+01  0.00000000E+00
  4.40000000E+01  1.70000000E+01  0.00000000E+00
  4.40000000E+01  1.60000000E+01  0.00000000E+00
  4.40000000E+01  1.50000000E+01  0.00000000E+00
  4.40000000E+01  1.40000000E+01  0.00000000E+00
  4.40000000E+01  1.30000000E+01  0.00000000E+00
  4.40000000E+01  1.20000000E+01  0.00000000E+00
  4.40000000E+01  1.10000000E+01  0.00000000E+00
  4.40000000E+01  1.00000000E+01  0.00000000E+00
  4.40000000E+01  9.00000000E+00  0.00000000E+00
  4.40000000E+01  8.00000000E+00  0.00000000E+00
  4.40000000E+01  7.00000000E+00  0.00000000E+00
  4.40000000E+01  6.00000000E+00  0.00000000E+00
  4.40000000E+01  5.00000000E+00  0.00000000E+00
  4.40000000E+01  4.00000000E+00  0.00000000E+00
  4.40000000E+01  3.00000000E+00  0.00000000E+00
  4.40000000E+01  2.00000000E+00  0.00000000E+00
  4.40000000E+01  1.00000000E+00  0.00000000E+00
  4.40000000E+01 -2.66453526E-15  0.00000000E+00
  4.50000000E+01  2.40000000E+01  0.00000000E+00
  4.50000000E+01  2.30000000E+01  0.00000000E+00
  4.50000000E+01  2.20000000E+01  0.00000000E+00
  4.50000000E+01  2.10000000E+01  0.00000000E+00
  4.50000000E+01  2.00000000E+01  0.00000000E+00
  4.50000000E+01  1.90000000E+01  0.00000000E+00
  4.50000000E+01  1.80000000E+01  0.00000000E+00
  4.50000000E+01  1.70000000E+01  0.00000000E+00
  4.50000000E+01  1.60000000E+01  0.00000000E+00
  4.50000000E+01  1.50000000E+01  0.00000000E+00
  4.50000000E+01  1.40000000E+01  0.00000000E+00
  4.50000000E+01  1.30000000E+01  0.00000000E+00
  4.50000000E+01  1.20000000E+01  0.00000000E+00
  4.50000000E+01  1.10000000E+01  0.00000000E+00
  4.50000000E+01  1.00000000E+01  0.00000000E+00
  4.50000000E+01  9.00000000E+00  0.00000000E+00
  4.50000000E+01  8.00000000E+00  0.00000000E+00
  4.50000000E+01  7.00000000E+00  0.00000000E+00
  4.50000000E+01  6.00000000E+00  0.00000000E+00
  4.50000000E+01  5.00000000E+00  0.00000000E+00
  4.50000000E+01  4.00000000E+00  0.00000000E+00
  4.50000000E+01  3.00000000E+00  0.00000000E+00
  4.50000000E+01  2.00000000E+00  0.00000000E+00
  4.50000000E+01  1.00000000E+00  0.00000000E+00
  4.50000000E+01 -2.66453526E-15  0.00000000E+00
  4.60000000E+01  2.40000000E+01  0.00000000E+00
  4.60000000E+01  2.30000000E+01  0.00000000E+00
  4.60000000E+01  2.20000000E+01  0.00000000E+00
  4.60000000E+01  2.10000000E+01  0.00000000E+00
  4.60000000E+01  2.00000000E+01  0.00000000E+00
  4.60000000E+01  1.90000000E+01  0.00000000E+00
  4.60000000E+01  1.80000000E+01  0.00000000E+00
  4.60000000E+01  1.70000000E+01  0.00000000E+00
  4.60000000E+01  1.60000000E+01  0.00000000E+00
  4.60000000E+01  1.50000000E+01  0.00000000E+00
  4.60000000E+01  1.40000000E+01  0.00000000E+00
  4.60000000E+01  1.30000000E+01  0.00000000E+00
  4.60000000E+01  1.20000000E+01  0.00000000E+00
  4.60000000E+01  1.10000000E+01  0.00000000E+00
  4.60000000E+01  1.00000000E+01  0.00000000E+00
  4.60000000E+01  9.00000000E+00  0.00000000E+00
  4.60000000E+01  8.00000000E+00  0.00000000E+00
  4.60000000E+01  7.00000000E+00  0.00000000E+00
  4.60000000E+01  6.00000000E+00  0.00000000E+00
  4.60000000E+01  5.00000000E+00  0.00000000E+00
  4.60000000E+01  4.00000000E+00  0.00000000E+00
  4.60000000E+01  3.00000000E+00  0.00000000E+00
  4.60000000E+01  2.00000000E+00  0.00000000E+00
  4.60000000E+01  1.00000000E+00  0.00000000E+00
  4.60000000E+01 -2.66453526E-15  0.00000000E+00
  4.70000000E+01  2.40000000E+01  0.00000000E+00
  4.70000000E+01  2.30000000E+01  0.00000000E+00
  4.70000000E+01  2.20000000E+01  0.00000000E+00
  4.70000000E+01  2.10000000E+01  0.00000000E+00
  4.70000000E+01  2.00000000E+01  0.00000000E+00
  4.70000000E+01  1.90000000E+01  0.00000000E+00
  4.70000000E+01  1.80000000E+01  0.00000000E+00
  4.70000000E+01  1.70000000E+01  0.00000000E+00
  4.70000000E+01  1.60000000E+01  0.00000000E+00
  4.70000000E+01  1.50000000E+01  0.00000000E+00
  4.70000000E+01  1.40000000E+01  0.00000000E+00
  4.70000000E+01  1.30000000E+01  0.00000000E+00
  4.70000000E+01  1.20000000E+01  0.00000000E+00
  4.70000000E+01  1.10000000E+01  0.00000000E+00
  4.70000000E+01  1.00000000E+01  0.00000000E+00
  4.70000000E+01  9.00000000E+00  0.00000000E+00
  4.70000000E+01  8.00000000E+00  0.00000000E+00
  4.70000000E+01  7.00000000E+00  0.00000000E+00
  4.70000000E+01  6.00000000E+00  0.00000000E+00
  4.70000000E+01  5.00000000E+00  0.00000000E+00
  4.70000000E+01  4.00000000E+00  0.00000000E+00
  4.70000000E+01  3.00000000E+00  0.00000000E+00
  4.70000000E+01  2.00000000E+00  0.00000000E+00
  4.70000000E+01  1.00000000E+00  0.00000000E+00
  4.70000000E+01 -2.66453526E-15  0.00000000E+00
  4.80000000E+01  2.40000000E+01  0.00000000E+00
  4.80000000E+01  2.30000000E+01  0.00000000E+00
  4.80000000E+01  2.20000000E+01  0.00000000E+00
  4.80000000E+01  2.10000000E+01  0.00000000E+00
  4.80000000E+01  2.00000000E+01  0.00000000E+00
  4.80000000E+01  1.90000000E+01  0.00000000E+00
  4.80000000E+01  1.80000000E+01  0.00000000E+00
  4.80000000E+01  1.70000000E+01  0.00000000E+00
  4.80000000E+01  1.60000000E+01  0.00000000E+00
  4.80000000E+01  1.50000000E+01  0.00000000E+00
  4.80000000E+01  1.40000000E+01  0.00000000E+00
  4.80000000E+01  1.30000000E+01  0.00000000E+00
  4.80000000E+01  1.20000000E+01  0.00000000E+00
  4.80000000E+01  1.10000000E+01  0.00000000E+00
  4.80000000E+01  1.00000000E+01  0.00000000E+00
  4.80000000E+01  9.00000000E+00  0.00000000E+00
  4.80000000E+01  8.00000000E+00  0.00000000E+00
  4.80000000E+01  7.00000000E+00  0.00000000E+00
  4.80000000E+01  6.00000000E+00  0.00000000E+00
  4.80000000E+01  5.00000000E+00  0.00000000E+00
  4.80000000E+01  4.00000000E+00  0.00000000E+00
  4.80000000E+01  3.00000000E+00  0.00000000E+00
  4.80000000E+01  2.00000000E+00  0.00000000E+00
  4.80000000E+01  1.00000000E+00  0.00000000E+00
  4.80000000E+01 -2.66453526E-15  0.00000000E+00
CELLS      1152      5760
         4           0           1          26          25
         4           1           2          27          26
         4           2           3          28          27
         4           3           4          29          28
         4           4           5          30          29
         4           5           6          31          30
         4           6           7          32          31
         4           7           8          33          32
         4           8           9          34          33
         4           9          10          35          34
         4          10          11          36          35
         4          11          12          37          36
         4          12          13          38          37
         4          13          14          39          38
         4          14          15          40          39
         4          15          16          41          40
         4          16          17          42          41
         4          17          18          43          42
         4          18          19          44          43
         4          19          20          45          44
         4          20          21          46          45
         4          21          22          47          46
         4          22          23          48          47
         4          23          24          49          48
         4          25          26          51          50
         4          26          27          52          51
         4          27          28          53          52
         4          28          29          54          53
         4          29          30          55          54
         4          30          31          56          55
         4          31          32          57          56
         4          32          33          58          57
         4          33          34          59          58
         4          34          35          60          59
         4          35          36          61          60
         4          36          37          62          61
         4          37          38          63          62
         4          38          39          64          63
         4          39          40          65          64
         4          40          41          66          65
         4          41          42          67          66
         4          42          43          68          67
         4          43          44          69          68
         4          44          45          70          69
         4          45          46          71          70
         4          46          47          72          71
         4          47          48          73          72
         4          48          49          74          73
         4          50          51          76          75
         4          51          52          77          76
         4          52          53          78          77
         4          53          54          79          78
         4          54          55          80          79
         4          55          56          81          80
         4          56          57          82          81
         4          57          58          83          82
         4          58          59          84          83
         4          59          60          85          84
         4          60          61          86          85
         4          61          62          87          86
         4          62          63          88          87
         4          63          64          89          88
         4          64          65          90          89
         4          65          66          91          90
         4          66          67          92          91
         4          67          68          93          92
         4          68          69          94          93
         4          69          70          95          94
         4          70          71          96          95
         4          71          72          97          96
         4          72          73          98          97
         4          73          74          99          98
         4          75          76         101         100
         4          76          77         102         101
         4          77          78         103         102
         4          78          79         104         103
         4          79          80         105         104
         4          80          81         106         105
         4          81          82         107         106
         4          82          83         108         107
         4          83          84         109         108
         4          84          85         110         109
         4          85          86         111         110
         4          86          87         112         111
         4          87          88         113         112
         4          88          89         114         113
         4          89          90         115         114
         4          90          91         116         115
         4          91          92         117         116
         4          92          93         118         117
         4          93          94         119         118
         4          94          95         120         119
         4          95          96         121         120
         4          96          97         122         121
         4          97          98         123         122
         4          98          99         124         123
         4         100         101         126         125
         4         101         102         127         126
         4         102         103         128         127
         4         103         104         129         128
         4         104         105         130         129
         4         105         106         131         130
         4         106         107         132         131
         4         107         108         133         132
         4         108         109         134         133
         4         109         110         135         134
         4         110         111         136         135
         4         111         112         137         136
         4         112         113         138         137
         4         113         114         139         138
         4         114         115         140         139
         4         115         116         141         140
         4         116         117         142         141
         4         117         118         143         142
         4         118         119         144         143
         4         119         120         145         144
         4         120         121         146         145
         4         121         122         147         146
         4         122         123         148         147
         4         123         124         149         148
         4         125         126         151         150
         4         126         127         152         151
         4         127         128         153         152
         4         128         129         154         153
         4         129         130         155         154
         4         130         131         156         155
         4         131         132         157         156
         4         132         133         158         157
         4         133         134         159         158
         4         134         135         160         159
         4         135         136         161         160
         4         136         137         162         161
         4         137         138         163         162
         4         138         139         164         163
         4         139         140         165         164
         4         140         141         166         165
         4         141         142         167         166
         4         142         143         168         167
         4         143         144         169         168
         4         144         145         170         169
         4         145         146         171         170
         4         146         147         172         171
         4         147         148         173         172
         4         148         149         174         173
         4         150         151         176         175
         4         151         152         177         176
         4         152         153         178         177
         4         153         154         179         178
         4         154         155         180         179
         4         155         156         181         180
         4         156         157         182         181
         4         157         158         183         182
         4         158         159         184         183
         4         159         160         185         184
         4         160         161         186         185
         4         161         162         187         186
         4         162         163         188         187
         4         163         164         189         188
         4         164         165         190         189
         4         165         166         191         190
         4         166         167         192         191
         4         167         168         193         192
         4         168         169         194         193
         4         169         170         195         194
         4         170         171         196         195
         4         171         172         197         196
         4         172         173         198         197
         4         173         174         199         198
         4         175         176         201         200
         4         176         177         202         201
         4         177         178         203         202
         4         178         179         204         203
         4         179         180         205         204
         4         180         181         206         205
         4         181         182         207         206
         4         182         183         208         207
         4         183         184         209         208
         4         184         185         210         209
         4         185         186         211         210
         4         186         187         212         211
         4         187         188         213         212
         4         188         189         214         213
         4         189         190         215         214
         4         190         191         216         215
         4         191         192         217         216
         4         192         193         218         217
         4         193         194         219         218
         4         194         195         220         219
         4         195         196         221         220
         4         196         197         222         221
         4         197         198         223         222
         4         198         199         224         223
         4         200         201         226         225
         4         201         202         227         226
         4         202         203         228         227
         4         203         204         229         228
         4         204         205         230         229
         4         205         206         231         230
         4         206         207         232         231
         4         207         208         233         232
         4         208         209         234         233
         4         209         210         235         234
         4         210         211         236         235
         4         211         212         237         236
         4         212         213         238         237
         4         213         214         239         238
         4         214         215         240         239
         4         215         216         241         240
         4         216         217         242         241
         4         217         218         243         242
         4         218         219         244         243
         4         219         220         245         244
         4         220         221         246         245
         4         221         222         247         246
         4         222         223         248         247
         4         223         224         249         248
         4         225         226         251         250
         4         226         227         252         251
         4         227         228         253         252
         4         228         229         254         253
         4         229         230         255         254
         4         230         231         256         255
         4         231         232         257         256
         4         232         233         258         257
         4         233         234         259         258
         4         234         235         260         259
         4         235         236         261         260
         4         236         237         262         261
         4         237         238         263         262
         4         238         239         264         263
         4         239         240         265         264
         4         240         241         266         265
         4         241         242         267         266
         4         242         243         268         267
         4         243         244         269         268
         4         244         245         270         269
         4         245         246         271         270
         4         246         247         272         271
         4         247         248         273         272
         4         248         249         274         273
         4         250         251         276         275
         4         251         252         277         276
         4         252         253         278         277
         4         253         254         279         278
         4         254         255         280         279
         4         255         256         281         280
         4         256         257         282         281
         4         257         258         283         282
         4         258         259         284         283
         4         259         260         285         284
         4         260         261         286         285
         4         261         262         287         286
         4         262         263         288         287
         4         263         264         289         288
         4         264         265         290         289
         4         265         266         291         290
         4         266         267         292         291
         4         267         268         293         292
         4         268         269         294         293
         4         269         270         295         294
         4         270         271         296         295
         4         271         272         297         296
         4         272         273         298         297
         4         273         274         299         298
         4         275         276         301         300
         4         276         277         302         301
         4         277         278         303         302
         4         278         279         304         303
         4         279         280         305         304
         4         280         281         306         305
         4         281         282         307         306
         4         282         283         308         307
         4         283         284         309         308
         4         284         285         310         309
         4         285         286         311         310
         4         286         287         312         311
         4         287         288         313         312
         4         288         289         314         313
         4         289         290         315         314
         4         290         291         316         315
         4         291         292         317         316
         4         292         293         318         317
         4         293         294         319         318
         4         294         295         320         319
         4         295         296         321         320
         4         296         297         322         321
         4         297         298         323         322
         4         298         299         324         323
         4         300         301         326         325
         4         301         302         327         326
         4         302         303         328         327
         4         303         304         329         328
         4         304         305         330         329
         4         305         306         331         330
         4         306         307         332         331
         4         307         308         333         332
         4         308         309         334         333
         4         309         310         335         334
         4         310         311         336         335
         4         311         312         337         336
         4         312         313         338         337
         4         313         314         339         338
         4         314         315         340         339
         4         315         316         341         340
         4         316         317         342         341
         4         317         318         343         342
         4         318         319         344         343
         4         319         320         345         344
         4         320         321         346         345
         4         321         322         347         346
         4         322         323         348         347
         4         323         324         349         348
         4         325         326         351         350
         4         326         327         352         351
         4         327         328         353         352
         4         328         329         354         353
         4         329         330         355         354
         4         330         331         356         355
         4         331         332         357         356
         4         332         333         358         357
         4         333         334         359         358
         4         334         335         360         359
         4         335         336         361         360
         4         336         337         362         361
         4         337         338         363         362
         4         338         339         364         363
         4         339         340         365         364
         4         340         341         366         365
         4         341         342         367         366
         4         342         343         368         367
         4         343         344         369         368
         4         344         345         370         369
         4         345         346         371         370
         4         346         347         372         371
         4         347         348         373         372
         4         348         349         374         373
         4         350         351         376         375
         4         351         352         377         376
         4         352         353         378         377
         4         353         354         379         378
         4         354         355         380         379
         4         355         356         381         380
         4         356         357         382         381
         4         357         358         383         382
         4         358         359         384         383
         4         359         360         385         384
         4         360         361         386         385
         4         361         362         387         386
         4         362         363         388         387
         4         363         364         389         388
         4         364         365         390         389
         4         365         366         391         390
         4         366         367         392         391
         4         367         368         393         392
         4         368         369         394         393
         4         369         370         395         394
         4         370         371         396         395
         4         371         372         397         396
         4         372         373         398         397
         4         373         374         399         398
         4         375         376         401         400
         4         376         377         402         401
         4         377         378         403         402
         4         378         379         404         403
         4         379         380         405         404
         4         380         381         406         405
         4         381         382         407         406
         4         382         383         408         407
         4         383         384         409         408
         4         384         385         410         409
         4         385         386         411         410
         4         386         387         412         411
         4         387         388         413         412
         4         388         389         414         413
         4         389         390         415         414
         4         390         391         416         415
         4         391         392         417         416
         4         392         393         418         417
         4         393         394         419         418
         4         394         395         420         419
         4         395         396         421         420
         4         396         397         422         421
         4         397         398         423         422
         4         398         399         424         423
         4         400         401         426         425
         4         401         402         427         426
         4         402         403         428         427
         4         403         404         429         428
         4         404         405         430         429
         4         405         406         431         430
         4         406         407         432         431
         4         407         408         433         432
         4         408         409         434         433
         4         409         410         435         434
         4         410         411         436         435
         4         411         412         437         436
         4         412         413         438         437
         4         413         414         439         438
         4         414         415         440         439
         4         415         416         441         440
         4         416         417         442         441
         4         417         418         443         442
         4         418         419         444         443
         4         419         420         445         444
         4         420         421         446         445
         4         421         422         447         446
         4         422         423         448         447
         4         423         424         449         448
         4         425         426         451         450
         4         426         427         452         451
         4         427         428         453         452
         4         428         429         454         453
         4         429         430         455         454
         4         430         431         456         455
         4         431         432         457         456
         4         432         433         458         457
         4         433         434         459         458
         4         434         435         460         459
         4         435         436         461         460
         4         436         437         462         461
         4         437         438         463         462
         4         438         439         464         463
         4         439         440         465         464
         4         440         441         466         465
         4         441         442         467         466
         4         442         443         468         467
         4         443         444         469         468
         4         444         445         470         469
         4         445         446         471         470
         4         446         447         472         471
         4         447         448         473         472
         4         448         449         474         473
         4         450         451         476         475
         4         451         452         477         476
         4         452         453         478         477
         4         453         454         479         478
         4         454         455         480         479
         4         455         456         481         480
         4         456         457         482         481
         4         457         458         483         482
         4         458         459         484         483
         4         459         460         485         484
         4         460         461         486         485
         4         461         462         487         486
         4         462         463         488         487
         4         463         464         489         488
         4         464         465         490         489
         4         465         466         491         490
         4         466         467         492         491
         4         467         468         493         492
         4         468         469         494         493
         4         469         470         495         494
         4         470         471         496         495
         4         471         472         497         496
         4         472         473         498         497
         4         473         474         499         498
         4         475         476         501         500
         4         476         477         502         501
         4         477         478         503         502
         4         478         479         504         503
         4         479         480         505         504
         4         480         481         506         505
         4         481         482         507         506
         4         482         483         508         507
         4         483         484         509         508
         4         484         485         510         509
         4         485         486         511         510
         4         486         487         512         511
         4         487         488         513         512
         4         488         489         514         513
         4         489         490         515         514
         4         490         491         516         515
         4         491         492         517         516
         4         492         493         518         517
         4         493         494         519         518
         4         494         495         520         519
         4         495         496         521         520
         4         496         497         522         521
         4         497         498         523         522
         4         498         499         524         523
         4         500         501         526         525
         4         501         502         527         526
         4         502         503         528         527
         4         503         504         529         528
         4         504         505         530         529
         4         505         506         531         530
         4         506         507         532         531
         4         507         508         533         532
         4         508         509         534         533
         4         509         510         535         534
         4         510         511         536         535
         4         511         512         537         536
         4         512         513         538         537
         4         513         514         539         538
         4         514         515         540         539
         4         515         516         541         540
         4         516         517         542         541
         4         517         518         543         542
         4         518         519         544         543
         4         519         520         545         544
         4         520         521         546         545
         4         521         522         547         546
         4         522         523         548         547
         4         523         524         549         548
         4         525         526         551         550
         4         526         527         552         551
         4         527         528         553         552
         4         528         529         554         553
         4         529         530         555         554
         4         530         531         556         555
         4         531         532         557         556
         4         532         533         558         557
         4         533         534         559         558
         4         534         535         560         559
         4         535         536         561         560
         4         536         537         562         561
         4         537         538         563         562
         4         538         539         564         563
         4         539         540         565         564
         4         540         541         566         565
         4         541         542         567         566
         4         542         543         568         567
         4         543         544         569         568
         4         544         545         570         569
         4         545         546         571         570
         4         546         547         572         571
         4         547         548         573         572
         4         548         549         574         573
         4         550         551         576         575
         4         551         552         577         576
         4         552         553         578         577
         4         553         554         579         578
         4         554         555         580         579
         4         555         556         581         580
         4         556         557         582         581
         4         557         558         583         582
         4         558         559         584         583
         4         559         560         585         584
         4         560         561         586         585
         4         561         562         587         586
         4         562         563         588         587
         4         563         564         589         588
         4         564         565         590         589
         4         565         566         591         590
         4         566         567         592         591
         4         567         568         593         592
         4         568         569         594         593
         4         569         570         595         594
         4         570         571         596         595
         4         571         572         597         596
         4         572         573         598         597
         4         573         574         599         598
         4         575         576         601         600
         4         576         577         602         601
         4         577         578         603         602
         4         578         579         604         603
         4         579         580         605         604
         4         580         581         606         605
         4         581         582         607         606
         4         582         583         608         607
         4         583         584         609         608
         4         584         585         610         609
         4         585         586         611         610
         4         586         587         612         611
         4         587         588         613         612
         4         588         589         614         613
         4         589         590         615         614
         4         590         591         616         615
         4         591         592         617         616
         4         592         593         618         617
         4         593         594         619         618
         4         594         595         620         619
         4         595         596         621         620
         4         596         597         622         621
         4         597         598         623         622
         4         598         599         624         623
         4         600         601         626         625
         4         601         602         627         626
         4         602         603         628         627
         4         603         604         629         628
         4         604         605         630         629
         4         605         606         631         630
         4         606         607         632         631
         4         607         608         633         632
         4         608         609         634         633
         4         609         610         635         634
         4         610         611         636         635
         4         611         612         637         636
         4         612         613         638         637
         4         613         614         639         638
         4         614         615         640         639
         4         615         616         641         640
         4         616         617         642         641
         4         617         618         643         642
         4         618         619         644         643
         4         619         620         645         644
         4         620         621         646         645
         4         621         622         647         646
         4         622         623         648         647
         4         623         624         649         648
         4         625         626         651         650
         4         626         627         652         651
         4         627         628         653         652
         4         628         629         654         653
         4         629         630         655         654
         4         630         631         656         655
         4         631         632         657         656
         4         632         633         658         657
         4         633         634         659         658
         4         634         635         660         659
         4         635         636         661         660
         4         636         637         662         661
         4         637         638         663         662
         4         638         639         664         663
         4         639         640         665         664
         4         640         641         666         665
         4         641         642         667         666
         4         642         643         668         667
         4         643         644         669         668
         4         644         645         670         669
         4         645         646         671         670
         4         646         647         672         671
         4         647         648         673         672
         4         648         649         674         673
         4         650         651         676         675
         4         651         652         677         676
         4         652         653         678         677
         4         653         654         679         678
         4         654         655         680         679
         4         655         656         681         680
         4         656         657         682         681
         4         657         658         683         682
         4         658         659         684         683
         4         659         660         685         684
         4         660         661         686         685
         4         661         662         687         686
         4         662         663         688         687
         4         663         664         689         688
         4         664         665         690         689
         4         665         666         691         690
         4         666         667         692         691
         4         667         668         693         692
         4         668         669         694         693
         4         669         670         695         694
         4         670         671         696         695
         4         671         672         697         696
         4         672         673         698         697
         4         673         674         699         698
         4         675         676         701         700
         4         676         677         702         701
         4         677         678         703         702
         4         678         679         704         703
         4         679         680         705         704
         4         680         681         706         705
         4         681         682         707         706
         4         682         683         708         707
         4         683         684         709         708
         4         684         685         710         709
         4         685         686         711         710
         4         686         687         712         711
         4         687         688         713         712
         4         688         689         714         713
         4         689         690         715         714
         4         690         691         716         715
         4         691         692         717         716
         4         692         693         718         717
         4         693         694         719         718
         4         694         695         720         719
         4         695         696         721         720
         4         696         697         722         721
         4         697         698         723         722
         4         698         699         724         723
         4         700         701         726         725
         4         701         702         727         726
         4         702         703         728         727
         4         703         704         729         728
         4         704         705         730         729
         4         705         706         731         730
         4         706         707         732         731
         4         707         708         733         732
         4         708         709         734         733
         4         709         710         735         734
         4         710         711         736         735
         4         711         712         737         736
         4         712         713         738         737
         4         713         714         739         738
         4         714         715         740         739
         4         715         716         741         740
         4         716         717         742         741
         4         717         718         743         742
         4         718         719         744         743
         4         719         720         745         744
         4         720         721         746         745
         4         721         722         747         746
         4         722         723         748         747
         4         723         724         749         748
         4         725         726         751         750
         4         726         727         752         751
         4         727         728         753         752
         4         728         729         754         753
         4         729         730         755         754
         4         730         731         756         755
         4         731         732         757         756
         4         732         733         758         757
         4         733         734         759         758
         4         734         735         760         759
         4         735         736         761         760
         4         736         737         762         761
         4         737         738         763         762
         4         738         739         764         763
         4         739         740         765         764
         4         740         741         766         765
         4         741         742         767         766
         4         742         743         768         767
         4         743         744         769         768
         4         744         745         770         769
         4         745         746         771         770
         4         746         747         772         771
         4         747         748         773         772
         4         748         749         774         773
         4         750         751         776         775
         4         751         752         777         776
         4         752         753         778         777
         4         753         754         779         778
         4         754         755         780         779
         4         755         756         781         780
         4         756         757         782         781
         4         757         758         783         782
         4         758         759         784         783
         4         759         760         785         784
         4         760         761         786         785
         4         761         762         787         786
         4         762         763         788         787
         4         763         764         789         788
         4         764         765         790         789
         4         765         766         791         790
         4         766         767         792         791
         4         767         768         793         792
         4         768         769         794         793
         4         769         770         795         794
         4         770         771         796         795
         4         771         772         797         796
         4         772         773         798         797
         4         773         774         799         798
         4         775         776         801         800
         4         776         777         802         801
         4         777         778         803         802
         4         778         779         804         803
         4         779         780         805         804
         4         780         781         806         805
         4         781         782         807         806
         4         782         783         808         807
         4         783         784         809         808
         4         784         785         810         809
         4         785         786         811         810
         4         786         787         812         811
         4         787         788         813         812
         4         788         789         814         813
         4         789         790         815         814
         4         790         791         816         815
         4         791         792         817         816
         4         792         793         818         817
         4         793         794         819         818
         4         794         795         820         819
         4         795         796         821         820
         4         796         797         822         821
         4         797         798         823         822
         4         798         799         824         823
         4         800         801         826         825
         4         801         802         827         826
         4         802         803         828         827
         4         803         804         829         828
         4         804         805         830         829
         4         805         806         831         830
         4         806         807         832         831
         4         807         808         833         832
         4         808         809         834         833
         4         809         810         835         834
         4         810         811         836         835
         4         811         812         837         836
         4         812         813         838         837
         4         813         814         839         838
         4         814         815         840         839
         4         815         816         841         840
         4         816         817         842         841
         4         817         818         843         842
         4         818         819         844         843
         4         819         820         845         844
         4         820         821         846         845
         4         821         822         847         846
         4         822         823         848         847
         4         823         824         849         848
         4         825         826         851         850
         4         826         827         852         851
         4         827         828         853         852
         4         828         829         854         853
         4         829         830         855         854
         4         830         831         856         855
         4         831         832         857         856
         4         832         833         858         857
         4         833         834         859         858
         4         834         835         860         859
         4         835         836         861         860
         4         836         837         862         861
         4         837         838         863         862
         4         838         839         864         863
         4         839         840         865         864
         4         840         841         866         865
         4         841         842         867         866
         4         842         843         868         867
         4         843         844         869         868
         4         844         845         870         869
         4         845         846         871         870
         4         846         847         872         871
         4         847         848         873         872
         4         848         849         874         873
         4         850         851         876         875
         4         851         852         877         876
         4         852         853         878         877
         4         853         854         879         878
         4         854         855         880         879
         4         855         856         881         880
         4         856         857         882         881
         4         857         858         883         882
         4         858         859         884         883
         4         859         860         885         884
         4         860         861         886         885
         4         861         862         887         886
         4         862         863         888         887
         4         863         864         889         888
         4         864         865         890         889
         4         865         866         891         890
         4         866         867         892         891
         4         867         868         893         892
         4         868         869         894         893
         4         869         870         895         894
         4         870         871         896         895
         4         871         872         897         896
         4         872         873         898         897
         4         873         874         899         898
         4         875         876         901         900
         4         876         877         902         901
         4         877         878         903         902
         4         878         879         904         903
         4         879         880         905         904
         4         880         881         906         905
         4         881         882         907         906
         4         882         883         908         907
         4         883         884         909         908
         4         884         885         910         909
         4         885         886         911         910
         4         886         887         912         911
         4         887         888         913         912
         4         888         889         914         913
         4         889         890         915         914
         4         890         891         916         915
         4         891         892         917         916
         4         892         893         918         917
         4         893         894         919         918
         4         894         895         920         919
         4         895         896         921         920
         4         896         897         922         921
         4         897         898         923         922
         4         898         899         924         923
         4         900         901         926         925
         4         901         902         927         926
         4         902         903         928         927
         4         903         904         929         928
         4         904         905         930         929
         4         905         906         931         930
         4         906         907         932         931
         4         907         908         933         932
         4         908         909         934         933
         4         909         910         935         934
         4         910         911         936         935
         4         911         912         937         936
         4         912         913         938         937
         4         913         914         939         938
         4         914         915         940         939
         4         915         916         941         940
         4         916         917         942         941
         4         917         918         943         942
         4         918         919         944         943
         4         919         920         945         944
         4         920         921         946         945
         4         921         922         947         946
         4         922         923         948         947
         4         923         924         949         948
         4         925         926         951         950
         4         926         927         952         951
         4         927         928         953         952
         4         928         929         954         953
         4         929         930         955         954
         4         930         931         956         955
         4         931         932         957         956
         4         932         933         958         957
         4         933         934         959         958
         4         934         935         960         959
         4         935         936         961         960
         4         936         937         962         961
         4         937         938         963         962
         4         938         939         964         963
         4         939         940         965         964
         4         940         941         966         965
         4         941         942         967         966
         4         942         943         968         967
         4         943         944         969         968
         4         944         945         970         969
         4         945         946         971         970
         4         946         947         972         971
         4         947         948         973         972
         4         948         949         974         973
         4         950         951         976         975
         4         951         952         977         976
         4         952         953         978         977
         4         953         954         979         978
         4         954         955         980         979
         4         955         956         981         980
         4         956         957         982         981
         4         957         958         983         982
         4         958         959         984         983
         4         959         960         985         984
         4         960         961         986         985
         4         961         962         987         986
         4         962         963         988         987
         4         963         964         989         988
         4         964         965         990         989
         4         965         966         991         990
         4         966         967         992         991
         4         967         968         993         992
         4         968         969         994         993
         4         969         970         995         994
         4         970         971         996         995
         4         971         972         997         996
         4         972         973         998         997
         4         973         974         999         998
         4         975         976        1001        1000
         4         976         977        1002        1001
         4         977         978        1003        1002
         4         978         979        1004        1003
         4         979         980        1005        1004
         4         980         981        1006        1005
         4         981         982        1007        1006
         4         982         983        1008        1007
         4         983         984        1009        1008
         4         984         985        1010        1009
         4         985         986        1011        1010
         4         986         987        1012        1011
         4         987         988        1013        1012
         4         988         989        1014        1013
         4         989         990        1015        1014
         4         990         991        1016        1015
         4         991         992        1017        1016
         4         992         993        1018        1017
         4         993         994        1019        1018
         4         994         995        1020        1019
         4         995         996        1021        1020
         4         996         997        1022        1021
         4         997         998        1023        1022
         4         998         999        1024        1023
         4        1000        1001        1026        1025
         4        1001        1002        1027        1026
         4        1002        1003        1028        1027
         4        1003        1004        1029        1028
         4        1004        1005        1030        1029
         4        1005        1006        1031        1030
         4        1006        1007        1032        1031
         4        1007        1008        1033        1032
         4        1008        1009        1034        1033
         4        1009        1010        1035        1034
         4        1010        1011        1036        1035
         4        1011        1012        1037        1036
         4        1012        1013        1038        1037
         4        1013        1014        1039        1038
         4        1014        1015        1040        1039
         4        1015        1016        1041        1040
         4        1016        1017        1042        1041
         4        1017        1018        1043        1042
         4        1018        1019        1044        1043
         4        1019        1020        1045        1044
         4        1020        1021        1046        1045
         4        1021        1022        1047        1046
         4        1022        1023        1048        1047
         4        1023        1024        1049        1048
         4        1025        1026        1051        1050
         4        1026        1027        1052        1051
         4        1027        1028        1053        1052
         4        1028        1029        1054        1053
         4        1029        1030        1055        1054
         4        1030        1031        1056        1055
         4        1031        1032        1057        1056
         4        1032        1033        1058        1057
         4        1033        1034        1059        1058
         4        1034        1035        1060        1059
         4        1035        1036        1061        1060
         4        1036        1037        1062        1061
         4        1037        1038        1063        1062
         4        1038        1039        1064        1063
         4        1039        1040        1065        1064
         4        1040        1041        1066        1065
         4        1041        1042        1067        1066
         4        1042        1043        1068        1067
         4        1043        1044        1069        1068
         4        1044        1045        1070        1069
         4        1045        1046        1071        1070
         4        1046        1047        1072        1071
         4        1047        1048        1073        1072
         4        1048        1049        1074        1073
         4        1050        1051        1076        1075
         4        1051        1052        1077        1076
         4        1052        1053        1078        1077
         4        1053        1054        1079        1078
         4        1054        1055        1080        1079
         4        1055        1056        1081        1080
         4        1056        1057        1082        1081
         4        1057        1058        1083        1082
         4        1058        1059        1084        1083
         4        1059        1060        1085        1084
         4        1060        1061        1086        1085
         4        1061        1062        1087        1086
         4        1062        1063        1088        1087
         4        1063        1064        1089        1088
         4        1064        1065        1090        1089
         4        1065        1066        1091        1090
         4        1066        1067        1092        1091
         4        1067        1068        1093        1092
         4        1068        1069        1094        1093
         4        1069        1070        1095        1094
         4        1070        1071        1096        1095
         4        1071        1072        1097        1096
         4        1072        1073        1098        1097
         4        1073        1074        1099        1098
         4        1075        1076        1101        1100
         4        1076        1077        1102        1101
         4        1077        1078        1103        1102
         4        1078        1079        1104        1103
         4        1079        1080        1105        1104
         4        1080        1081        1106        1105
         4        1081        1082        1107        1106
         4        1082        1083        1108        1107
         4        1083        1084        1109        1108
         4        1084        1085        1110        1109
         4        1085        1086        1111        1110
         4        1086        1087        1112        1111
         4        1087        1088        1113        1112
         4        1088        1089        1114        1113
         4        1089        1090        1115        1114
         4        1090        1091        1116        1115
         4        1091        1092        1117        1116
         4        1092        1093        1118        1117
         4        1093        1094        1119        1118
         4        1094        1095        1120        1119
         4        1095        1096        1121        1120
         4        1096        1097        1122        1121
         4        1097        1098        1123        1122
         4        1098        1099        1124        1123
         4        1100        1101        1126        1125
         4        1101        1102        1127        1126
         4        1102        1103        1128        1127
         4        1103        1104        1129        1128
         4        1104        1105        1130        1129
         4        1105        1106        1131        1130
         4        1106        1107        1132        1131
         4        1107        1108        1133        1132
         4        1108        1109        1134        1133
         4        1109        1110        1135        1134
         4        1110        1111        1136        1135
         4        1111        1112        1137        1136
         4        1112        1113        1138        1137
         4        1113        1114        1139        1138
         4        1114        1115        1140        1139
         4        1115        1116        1141        1140
         4        1116        1117        1142        1141
         4        1117        1118        1143        1142
         4        1118        1119        1144        1143
         4        1119        1120        1145        1144
         4        1120        1121        1146        1145
         4        1121        1122        1147        1146
         4        1122        1123        1148        1147
         4        1123        1124        1149        1148
         4        1125        1126        1151        1150
         4        1126        1127        1152        1151
         4        1127        1128        1153        1152
         4        1128        1129        1154        1153
         4        1129        1130        1155        1154
         4        1130        1131        1156        1155
         4        1131        1132        1157        1156
         4        1132        1133        1158        1157
         4        1133        1134        1159        1158
         4        1134        1135        1160        1159
         4        1135        1136        1161        1160
         4        1136        1137        1162        1161
         4        1137        1138        1163        1162
         4        1138        1139        1164        1163
         4        1139        1140        1165        1164
         4        1140        1141        1166        1165
         4        1141        1142        1167        1166
         4        1142        1143        1168        1167
         4        1143        1144        1169        1168
         4        1144        1145        1170        1169
         4        1145        1146        1171        1170
         4        1146        1147        1172        1171
         4        1147        1148        1173        1172
         4        1148        1149        1174        1173
         4        1150        1151        1176        1175
         4        1151        1152        1177        1176
         4        1152        1153        1178        1177
         4        1153        1154        1179        1178
         4        1154        1155        1180        1179
         4        1155        1156        1181        1180
         4        1156        1157        1182        1181
         4        1157        1158        1183        1182
         4        1158        1159        1184        1183
         4        1159        1160        1185        1184
         4        1160        1161        1186        1185
         4        1161        1162        1187        1186
         4        1162        1163        1188        1187
         4        1163        1164        1189        1188
         4        1164        1165        1190        1189
         4        1165        1166        1191        1190
         4        1166        1167        1192        1191
         4        1167        1168        1193        1192
         4        1168        1169        1194        1193
         4        1169        1170        1195        1194
         4        1170        1171        1196        1195
         4        1171        1172        1197        1196
         4        1172        1173        1198        1197
         4        1173        1174        1199        1198
         4        1175        1176        1201        1200
         4        1176        1177        1202        1201
         4        1177        1178        1203        1202
         4        1178        1179        1204        1203
         4        1179        1180        1205        1204
         4        1180        1181        1206        1205
         4        1181        1182        1207        1206
         4        1182        1183        1208        1207
         4        1183        1184        1209        1208
         4        1184        1185        1210        1209
         4        1185        1186        1211        1210
         4        1186        1187        1212        1211
         4        1187        1188        1213        1212
         4        1188        1189        1214        1213
         4        1189        1190        1215        1214
         4        1190        1191        1216        1215
         4        1191        1192        1217        1216
         4        1192        1193        1218        1217
         4        1193        1194        1219        1218
         4        1194        1195        1220        1219
         4        1195        1196        1221        1220
         4        1196        1197        1222        1221
         4        1197        1198        1223        1222
         4        1198        1199        1224        1223
CELL_TYPES       1152
9
9
9
9
9
9
9
9
9
9
9
9
9
9
9
9
9
9
9
9
9
9
9
9
9
9
9
9
9
9
9
9
9
9
9
9
9
9
9
9
9
9
9
9
9
9
9
9
9
9
9
9
9
9
9
9
9
9
9
9
9
9
9
9
9
9
9
9
9
9
9
9
9
9
9
9
9
9
9
9
9
9
9
9
9
9
9
9
9
9
9
9
9
9
9
9
9
9
9
9
9
9
9
9
9
9
9
9
9
9
9
9
9
9
9
9
9
9
9
9
9
9
9
9
9
9
9
9
9
9
9
9
9
9
9
9
9
9
9
9
9
9
9
9
9
9
9
9
9
9
9
9
9
9
9
9
9
9
9
9
9
9
9
9
9
9
9
9
9
9
9
9
9
9
9
9
9
9
9
9
9
9
9
9
9
9
9
9
9
9
9
9
9
9
9
9
9
9
9
9
9
9
9
9
9
9
9
9
9
9
9
9
9
9
9
9
9
9
9
9
9
9
9
9
9
9
9
9
9
9
9
9
9
9
9
9
9
9
9
9
9
9
9
9
9
9
9
9
9
9
9
9
9
9
9
9
9
9
9
9
9
9
9
9
9
9
9
9
9
9
9
9
9
9
9
9
9
9
9
9
9
9
9
9
9
9
9
9
9
9
9
9
9
9
9
9
9
9
9
9
9
9
9
9
9
9
9
9
9
9
9
9
9
9
9
9
9
9
9
9
9
9
9
9
9
9
9
9
9
9
9
9
9
9
9
9
9
9
9
9
9
9
9
9
9
9
9
9
9
9
9
9
9
9
9
9
9
9
9
9
9
9
9
9
9
9
9
9
9
9
9
9
9
9
9
9
9
9
9
9
9
9
9
9
9
9
9
9
9
9
9
9
9
9
9
9
9
9
9
9
9
9
9
9
9
9
9
9
9
9
9
9
9
9
9
9
9
9
9
9
9
9
9
9
9
9
9
9
9
9
9
9
9
9
9
9
9
9
9
9
9
9
9
9
9
9
9
9
9
9
9
9
9
9
9
9
9
9
9
9
9
9
9
9
9
9
9
9
9
9
9
9
9
9
9
9
9
9
9
9
9
9
9
9
9
9
9
9
9
9
9
9
9
9
9
9
9
9
9
9
9
9
9
9
9
9
9
9
9
9
9
9
9
9
9
9
9
9
9
9
9
9
9
9
9
9
9
9
9
9
9
9
9
9
9
9
9
9
9
9
9
9
9
9
9
9
9
9
9
9
9
9
9
9
9
9
9
9
9
9
9
9
9
9
9
9
9
9
9
9
9
9
9
9
9
9
9
9
9
9
9
9
9
9
9
9
9
9
9
9
9
9
9
9
9
9
9
9
9
9
9
9
9
9
9
9
9
9
9
9
9
9
9
9
9
9
9
9
9
9
9
9
9
9
9
9
9
9
9
9
9
9
9
9
9
9
9
9
9
9
9
9
9
9
9
9
9
9
9
9
9
9
9
9
9
9
9
9
9
9
9
9
9
9
9
9
9
9
9
9
9
9
9
9
9
9
9
9
9
9
9
9
9
9
9
9
9
9
9
9
9
9
9
9
9
9
9
9
9
9
9
9
9
9
9
9
9
9
9
9
9
9
9
9
9
9
9
9
9
9
9
9
9
9
9
9
9
9
9
9
9
9
9
9
9
9
9
9
9
9
9
9
9
9
9
9
9
9
9
9
9
9
9
9
9
9
9
9
9
9
9
9
9
9
9
9
9
9
9
9
9
9
9
9
9
9
9
9
9
9
9
9
9
9
9
9
9
9
9
9
9
9
9
9
9
9
9
9
9
9
9
9
9
9
9
9
9
9
9
9
9
9
9
9
9
9
9
9
9
9
9
9
9
9
9
9
9
9
9
9
9
9
9
9
9
9
9
9
9
9
9
9
9
9
9
9
9
9
9
9
9
9
9
9
9
9
9
9
9
9
9
9
9
9
9
9
9
9
9
9
9
9
9
9
9
9
9
9
9
9
9
9
9
9
9
9
9
9
9
9
9
9
9
9
9
9
9
9
9
9
9
9
9
9
9
9
9
9
9
9
9
9
9
9
9
9
9
9
9
9
9
9
9
9
9
9
9
9
9
9
9
9
9
9
9
9
9
9
9
9
9
9
9
9
9
9
9
9
9
9
9
9
9
9
9
9
9
9
9
9
9
9
9
9
9
9
9
9
9
9
9
9
9
9
9
9
9
9
9
9
9
9
9
9
9
9
9
9
9
9
9
9
9
9
9
9
9
9
9
9
9
9
9
9
9
9
9
9
9
9
9
9
9
9
9
9
9
9
9
9
9
9
9
9
9
9
9
9
9
9
9
9
9
9
9
9
9
9
9
9
9
9
9
9
9
9
9
9
9
9
9
9
9
9
9
9
9
9
9
9
9
9
9
9
9
9
9
9
9
9
9
9
9
9
9
9
9
9
9
9
9
9
9
9
9
9
9
9
9
9
9
9
9
9
9
9
9
9
9
9
9
9
9
9
9
9
9
9
9
9
9
9
9
9
9
9
9
9
9
9
9
9
9
9
9
9
9
9
9
9
9
9
9
9
9
9
9
9
9
9
9
9
9
9
9
9
9
9
9
9
9
9
POINT_DATA      1225
SCALARS p double 
LOOKUP_TABLE default
   1344.75216405273     
   1423.49352670322     
   1644.59150170215     
   1968.63640981489     
   2359.04621731697     
   2790.42677410862     
   3249.66838737865     
   3728.39356281504     
   4223.98135281317     
   4730.95832807654     
   5239.87489725947     
   5738.72273078870     
   6220.27230750289     
   6679.06442090085     
   7109.89092671812     
   7508.45785501047     
   7871.26228929576     
   8195.67299031829     
   8479.66925471160     
   8721.48867985959     
   8920.22769702416     
   9075.24552195529     
   9185.96879440736     
   9252.17222293929     
   9274.02927550548     
   1258.98198418188     
   1352.83196656982     
   1598.98465851157     
   1948.34057799937     
   2351.40600356391     
   2790.58149418294     
   3255.31108524542     
   3738.52756217686     
   4234.37888229776     
   4738.04413017289     
   5243.33826502091     
   5741.06773549194     
   6221.69889691538     
   6679.11152569840     
   7108.63959938383     
   7505.84857684192     
   7867.32692346119     
   8190.51384059626     
   8473.33729945161     
   8714.30712130663     
   8912.37941820995     
   9066.84266213138     
   9177.14475206599     
   9243.08318815838     
   9264.84648979892     
   981.821324338460     
   1107.12600058779     
   1487.81929360614     
   1895.82793137261     
   2332.32152370489     
   2791.58753568277     
   3269.53007518775     
   3761.80531114667     
   4261.03654666787     
   4760.78630313683     
   5257.67297543807     
   5748.88330619898     
   6225.54260407470     
   6679.13283458922     
   7104.54938297724     
   7497.79902642946     
   7855.44301935276     
   8174.95084928283     
   8454.59167984390     
   8693.02198842877     
   8889.01891901275     
   9041.76308980875     
   9150.77621644450     
   9215.90960417658     
   9237.39219985274     
  0.000000000000000E+000
   850.715777996143     
   1353.48357367258     
   1833.77649844886     
   2311.41248461556     
   2796.40671226533     
   3290.59405217636     
   3792.05721154835     
   4296.28143599257     
   4796.65731782997     
   5287.37950653956     
   5766.83681116614     
   6232.75420648858     
   6678.17356528971     
   7096.58434401677     
   7483.47205872595     
   7835.34400701987     
   8149.51283302967     
   8424.32402609711     
   8658.34193583242     
   8850.59015175350     
   9000.33026154472     
   9107.12951237947     
   9170.90581145476     
   9191.92456743853     
  0.000000000000000E+000
   654.111855236571     
   1251.97892683724     
   1784.95540448285     
   2299.69594288403     
   2809.55511474848     
   3319.59308502275     
   3830.01870844152     
   4337.99792151990     
   4839.16046197803     
   5327.94884405721     
   5799.50650084214     
   6252.47485041901     
   6684.32616577809     
   7090.53295312773     
   7466.77306099427     
   7809.42431164898     
   8115.62967598043     
   8383.17952145865     
   8610.73844688824     
   8797.48945370384     
   8942.87881420609     
   9046.54379496287     
   9108.42785183641     
   9128.81203307544     
  0.000000000000000E+000
   610.445128877691     
   1200.61125401385     
   1763.07002770614     
   2304.16502472402     
   2834.09976433158     
   3357.37983037618     
   3874.88292071205     
   4384.96416018198     
   4884.32135916721     
   5368.97126643407     
   5834.48813590864     
   6277.79843125591     
   6696.76533256889     
   7088.49743717254     
   7450.21186110684     
   7779.41998915064     
   8073.78006933172     
   8331.12675155938     
   8550.08546042389     
   8729.78498457762     
   8869.65289628566     
   8969.36771836836     
   9028.88561162983     
   9048.48697610060     
  0.000000000000000E+000
   601.541135141638     
   1192.67318574050     
   1767.39712731416     
   2325.56417952122     
   2869.90429274902     
   3402.80429874766     
   3924.75914254495     
   4434.55755996960     
   4929.75679526667     
   5407.15520142334     
   5863.34572709058     
   6295.50631080967     
   6701.51119878594     
   7079.17567413308     
   7426.28218863407     
   7740.99466025902     
   8021.74403571447     
   8267.16837153763     
   8476.02331478009     
   8647.43968411109     
   8780.85293273060     
   8875.96149649055     
   8932.73159159648     
   8951.43127501029     
  0.000000000000000E+000
   606.831212652058     
   1204.98206826805     
   1789.88519895447     
   2359.52151810716     
   2913.71317902977     
   3452.76555758888     
   3976.46282495426     
   4483.70341584644     
   4972.58731555134     
   5440.68908877293     
   5885.45815731541     
   6304.63554478307     
   6696.34902916781     
   7058.91060550203     
   7390.77297655757     
   7690.63240912603     
   7957.41679383485     
   8190.17886240780     
   8388.06638313721     
   8550.39692928916     
   8676.70339574912     
   8766.73583545434     
   8820.48073565533     
   8838.19204280647     
  0.000000000000000E+000
   618.008133169727     
   1226.31749434167     
   1821.04272525067     
   2399.57893617245     
   2960.46719659160     
   3502.86573748764     
   4025.98260460386     
   4528.72784175115     
   5009.62568431569     
   5466.92236556748     
   5898.80642838939     
   6303.62799666489     
   6679.98562772695     
   7026.69140734345     
   7342.74086849223     
   7627.31428159127     
   7879.74428150762     
   8099.45354848716     
   8285.92417665060     
   8438.72166972606     
   8557.53329458787     
   8642.19936460626     
   8692.74442434412     
   8709.41201227276     
  0.000000000000000E+000
   630.793297853284     
   1249.94159442065     
   1853.79369912437     
   2439.43569793718     
   3004.77573854308     
   3548.35604657347     
   4069.05137032363     
   4565.80905109979     
   5037.51416688381     
   5482.98613975490     
   5901.06402170674     
   6290.70934857901     
   6651.06324339088     
   6981.44801642838     
   7281.34704980700     
   7550.37848683987     
   7788.25528083428     
   7994.73930121196     
   8169.61448274699     
   8312.69199458259     
   8423.83658307317     
   8503.00086534997     
   8550.26231131628     
   8565.85924782443     
  0.000000000000000E+000
   642.628962800651     
   1271.55979893171     
   1883.09175064734     
   2474.04341655546     
   3041.93164828717     
   3584.94264135163     
   4101.77429087835     
   4591.44784076839     
   5053.16351314488     
   5486.23085755958     
   5890.06324237874     
   6264.20139092847     
   6608.33046161117     
   6922.27572097648     
   7205.98077534647     
   7459.47479909745     
   7682.83261242849     
   7876.13622264260     
   8039.45089032570     
   8172.82324810042     
   8276.29895676878     
   8349.95252375752     
   8393.92254758319     
   8408.44626584609     
  0.000000000000000E+000
   651.960765893905     
   1288.45747794644     
   1905.56209938003     
   2499.80614410371     
   3068.40299457154     
   3609.29694403561     
   4121.08356536779     
   4602.86708282961     
   5054.11570687282     
   5474.55210398698     
   5864.08748650935     
   6222.78685456445     
   6550.84628484487     
   6848.56864959213     
   7116.33298137881     
   7354.55807956449     
   7563.66394963270     
   7744.03766417979     
   7896.01137209024     
   8019.85722730053     
   8115.79873564798     
   8184.03423314721     
   8224.76684309869     
   8238.23508566647     
  0.000000000000000E+000
   657.918895135445     
   1299.07241331952     
   1919.19709441457     
   2514.51012517310     
   3081.95031775393     
   3619.26511491554     
   4124.97233294202     
   4598.24435405086     
   5038.76446449854     
   5446.59257967734     
   5822.05844040567     
   6165.68334129820     
   6478.12209751838     
   6760.11561113456     
   7012.44754846878     
   7235.90273421454     
   7431.22843129931     
   7599.10221019449     
   7740.11077959314     
   7854.74251549201     
   7943.39348383223     
   8006.38414387721     
   8043.98253531935     
   8056.42948078396     
  0.000000000000000E+000
   660.129228886411     
   1302.71000586933     
   1923.08424674178     
   2517.13596452535     
   3081.53800817140     
   3613.85577462723     
   4112.52941487480     
   4576.77241243636     
   5006.42830828918     
   5401.82065479359     
   5763.61839120199     
   6092.72536505140     
   6390.19303665694     
   6657.15097357905     
   6894.74952064719     
   7104.11105930198     
   7286.28890029731     
   7442.23489980098     
   7572.77759365676     
   7678.61190823930     
   7760.29991908671     
   7818.28058551549     
   7852.88553127258     
   7864.35797514616     
  0.000000000000000E+000
   658.574819741395     
   1299.31747479973     
   1917.15179991063     
   2507.62234999299     
   3067.14036413026     
   3593.09275474170     
   4083.83275101767     
   4538.58497106442     
   4957.30153114990     
   5340.50170788874     
   5689.11852211141     
   6004.36498266588     
   6287.62377657318     
   6540.35860785682     
   6764.04321026231     
   6960.10430726749     
   7129.87619249291     
   7274.56602186281     
   7395.22961905123     
   7492.75744346136     
   7567.86968993562     
   7621.11881605267     
   7652.89757981376     
   7663.45113011801     
  0.000000000000000E+000
   653.485058195031     
   1289.29423992718     
   1901.93604151064     
   2486.62162942300     
   3039.50725047062     
   3557.80267077269     
   4039.76356544390     
   4484.59828424407     
   4892.32246873312     
   5263.59180112450     
   5599.53605971126     
   5901.60903598401     
   6171.46094215940     
   6410.83416032431     
   6621.47999175629     
   6805.09304956993     
   6963.26025712944     
   7097.42218744668     
   7208.84507564164     
   7298.60203403430     
   7367.56194244457     
   7416.38449880764     
   7445.52029841916     
   7455.21569101441     
  0.000000000000000E+000
   645.246176751513     
   1273.33409931266     
   1878.37830665199     
   2455.27309021696     
   2999.93079001790     
   3509.38716288225     
   3981.79212322057     
   4416.31551788259     
   4812.99969131432     
   5172.58744488283     
   5496.34786272102     
   5785.91514305574     
   6043.14857608843     
   6270.01625539079     
   6468.50149006406     
   6640.52908842981     
   6787.90820489995     
   6912.28865888521     
   7015.12805085605     
   7097.66737861218     
   7160.91322284050     
   7205.62510480047     
   7232.30749884171     
   7241.20722833479     
  0.000000000000000E+000
   634.330880107176     
   1252.29842207410     
   1847.65702756625     
   2415.00856074856     
   2950.03718389613     
   3449.61105351924     
   3911.77004553591     
   4335.62928246840     
   4721.22943891456     
   5069.36130734723     
   5381.38631671965     
   5659.06809938148     
   5904.42390268464     
   6119.59943104881     
   6306.76698835972     
   6468.04457769791     
   6605.43261628812     
   6720.76472430165     
   6815.66927938695     
   6891.53888398924     
   6949.50553744336     
   6990.42022280464     
   7014.83688896906     
   7023.00235041378     
  0.000000000000000E+000
   621.245298558046     
   1227.11882432846     
   1811.05605879732     
   2367.39625462842     
   2891.61501132882     
   3380.42273460418     
   3831.74917731487     
   4244.64438765701     
   4619.12685191276     
   4956.00565073594     
   5256.69765173744     
   5523.05452094777     
   5757.20849836825     
   5961.44099490951     
   6138.07441431739     
   6289.38521441380     
   6417.53492599677     
   6524.51537375734     
   6612.10443197570     
   6681.82913116593     
   6734.93375858400     
   6772.35179021896     
   6794.68205924112     
   6802.17133812555     
  0.000000000000000E+000
   606.491046764665     
   1198.72633458771     
   1769.86706878285     
   2314.02273826873     
   2826.48275622126     
   3303.81259205556     
   3743.83560585642     
   4145.53164309593     
   4508.88333236724     
   4834.69658216130     
   5124.41579844434     
   5379.94821966225     
   5603.50619540912     
   5797.47159650581     
   5964.28300861902     
   6106.34393531217     
   6225.94880072893     
   6325.22291278990     
   6406.07254414524     
   6470.14178612969     
   6518.77378005954     
   6552.97532277430     
   6573.38563113245     
   6580.25199699922     
  0.000000000000000E+000
   590.539835286913     
   1168.00304713616     
   1725.32165016110     
   2256.40928577727     
   2756.39313365859     
   3221.70875375277     
   3650.07997826145     
   4040.41567083875     
   4392.65462733376     
   4707.58502161221     
   4986.65858178002     
   5231.81353144214     
   5445.31488606750     
   5629.61622453953     
   5787.24364081441     
   5920.70018746518     
   6032.38764691958     
   6124.54176999715     
   6199.17707615204     
   6258.03782700788     
   6302.55282301762     
   6333.79320885860     
   6352.43442285716     
   6358.72550182543     
  0.000000000000000E+000
   573.818026992061     
   1135.75190545966     
   1678.54786819532     
   2195.95715253129     
   2682.96915121776     
   3135.90593265765     
   3552.40101685994     
   3931.29492824039     
   4272.47919828076     
   4576.71527073011     
   4845.44829304479     
   5080.62952978951     
   5284.55572239109     
   5459.72934901704     
   5608.74042298294     
   5734.16813550473     
   5838.49918854520     
   5924.05895917851     
   5992.95159008623     
   6047.00564794433     
   6087.72310150870     
   6116.23101350631     
   6133.23740845318     
   6138.99494805701     
  0.000000000000000E+000
   556.698714228437     
   1102.68041921912     
   1630.54590642002     
   2133.91585068917     
   2607.66589581480     
   3048.02165450359     
   3452.53712859682     
   3819.98967994263     
   4150.22362417693     
   4443.96902507270     
   4702.65557040085     
   4928.23503714159     
   5123.02042115779     
   5289.54548376959     
   5430.44522537112     
   5548.35552833654     
   5645.82879441451     
   5725.26172412229     
   5788.83136447860     
   5838.43613864166     
   5875.63974352759     
   5901.61752543792     
   5917.10709784091     
   5922.36720029575     
  0.000000000000000E+000
   539.499218588900     
   1069.39459468250     
   1582.17793653787     
   2071.36883489697     
   2531.75211737074     
   2959.47392942358     
   3352.02042961988     
   3708.11273175361     
   4027.55052893287     
   4311.03113280869     
   4559.96377211122     
   4776.29249450755     
   4962.33553405386     
   5120.64469749423     
   5253.88512893177     
   5364.73360240803     
   5455.79212723024     
   5529.51301726463     
   5588.13159559381     
   5633.60333961321     
   5667.54350027947     
   5691.16901694768     
   5705.24476503505     
   5710.03845149383     
  0.000000000000000E+000
   522.482295771758     
   1036.39997583783     
   1534.16806419960     
   2009.23172721151     
   2456.30630739874     
   2871.47489064102     
   3252.16775646645     
   3597.05774176052     
   3905.90426198008     
   4179.37288030139     
   4418.85027169820     
   4626.26781364536     
   4803.94149453755     
   4954.43151521102     
   5080.42179468383     
   5184.61742864120     
   5269.65683635983     
   5338.03474822794     
   5392.03225424232     
   5433.65081592592     
   5464.54842285741     
   5485.97791234476     
   5498.72972891183     
   5503.08370262961     
  0.000000000000000E+000
   505.859703378530     
   1004.10733128430     
   1487.10899945829     
   1948.25907606768     
   2382.22282860081     
   2785.03571067370     
   3154.08390078639     
   3488.00042687003     
   3786.50987084844     
   4050.24868592417     
   4280.58099674391     
   4479.42304012745     
   4649.08380547378     
   4792.12510147966     
   4911.24112769447     
   5009.15550377064     
   5088.53244312968     
   5151.89822347390     
   5201.56922322674     
   5239.58352149071     
   5267.63438116192     
   5287.00580948012     
   5298.51267466234     
   5302.45016892245     
  0.000000000000000E+000
   489.797125450995     
   972.841109736086     
   1441.47286041941     
   1889.05650397168     
   2310.22454919131     
   2700.97898783512     
   3058.67312640554     
   3381.90870584384     
   3670.38149668296     
   3924.70252147797     
   4146.21480511007     
   4336.81876338459     
   4498.81369051774     
   4634.75845363609     
   4747.35136219527     
   4839.32708265331     
   4913.36724247333     
   4972.02087799279     
   5017.63104219858     
   5052.26465862030     
   5077.64406515548     
   5095.08059220354     
   5105.41281616802     
   5108.95443724951     
  0.000000000000000E+000
   474.419729407591     
   942.849290705205     
   1397.62418482245     
   1832.09587217081     
   2240.87926757793     
   2619.95564341776     
   2966.65585366809     
   3279.55859189621     
   3558.33701304299     
   3803.58096404840     
   4016.61475353064     
   4199.32354128145     
   4353.99573652370     
   4483.18442240952     
   4589.58768747139     
   4675.94566850845     
   4744.95091617440     
   4799.16824366892     
   4840.96041954225     
   4872.41687095127     
   4895.28394847330     
   4910.89721936801     
   4920.11855292687     
   4923.28305440800     
  0.000000000000000E+000
   459.817856339773     
   914.313666785294     
   1355.83377618471     
   1777.73174364737     
   2174.61793012590     
   2542.46411805241     
   2878.58814596432     
   3181.55337367013     
   3451.01640642691     
   3687.55039112676     
   3892.46383900005     
   4067.62803682244     
   4215.32038462045     
   4338.08661067186     
   4438.62167947641     
   4519.66714865786     
   4583.92156448546     
   4633.96006708683     
   4672.15960949836     
   4700.62702787868     
   4721.12860360383     
   4735.02167899195     
   4743.19117447364     
   4745.99612336523     
  0.000000000000000E+000
   446.052518749148     
   887.359913973894     
   1316.29244886853     
   1726.21795207323     
   2111.75323228986     
   2468.87027992522     
   2794.88227211083     
   3088.34425677675     
   3348.90200662816     
   3577.11640111610     
   3774.28330785905     
   3942.26201295747     
   4083.31950271025     
   4199.99350053381     
   4294.97402924861     
   4371.00122242002     
   4430.77596398736     
   4476.87954295272     
   4511.69876873357     
   4537.35384643285     
   4555.62772506148     
   4567.89754895948     
   4575.07110878502     
   4577.53342439639     
  0.000000000000000E+000
   433.160508242510     
   862.067047594468     
   1279.12407117336     
   1677.72349272437     
   2052.49765608065     
   2399.42695674076     
   2715.82713783011     
   3000.25116325526     
   3252.33919201936     
   3472.64403723491     
   3662.45209044169     
   3823.61275132632     
   3958.38364116270     
   4069.29447242492     
   4159.02931561138     
   4230.32496892708     
   4285.88200967708     
   4328.28473447550     
   4359.92647367699     
   4382.93763259800     
   4399.11522870098     
   4409.85459934982     
   4416.08619317659     
   4418.22255541542     
  0.000000000000000E+000
   421.159007792780     
   838.476037056554     
   1244.39755311585     
   1632.34725773829     
   1996.98034893239     
   2334.29238873702     
   2641.60778687608     
   2917.48280488758     
   3161.55661468030     
   3374.37780424249     
   3557.22631293859     
   3711.94382849570     
   3840.77990792235     
   3946.25667557758     
   4031.05182354069     
   4097.89761373351     
   4149.49246878896     
   4188.42138294404     
   4217.08167640452     
   4237.61149106344     
   4251.81983824888     
   4261.11889612036     
   4266.46145886906     
   4268.28859386275     
  0.000000000000000E+000
   410.049666843600     
   816.597476315022     
   1212.13760260901     
   1590.13136056708     
   1945.26250846913     
   2273.54718818964     
   2572.32348137706     
   2840.15546886320     
   3076.68531929810     
   3282.46079589557     
   3458.75815918474     
   3607.41349019469     
   3730.66968599228     
   3831.04197073391     
   3911.20164184292     
   3973.87575399641     
   4021.75934284065     
   4057.43644674260     
   4083.30648611084     
   4101.51343617497     
   4113.87663252083     
   4121.82391172763     
   4126.32995540871     
   4127.86481340672     
  0.000000000000000E+000
   399.822139695419     
   796.418290498034     
   1182.33419576810     
   1551.07295046639     
   1897.35112254840     
   2217.20959940275     
   2508.00409813457     
   2768.31019515957     
   2997.77637951045     
   3196.95250477510     
   3367.11360779553     
   3510.09211070594     
   3628.12565195134     
   3723.72338619370     
   3799.55047501576     
   3858.32848151871     
   3902.74829072541     
   3935.39184295664     
   3958.65927362653     
   3974.69892676471     
   3985.33909913293     
   3992.02220686385     
   3995.74419069035     
   3997.00403490729     
  0.000000000000000E+000
   390.457113968423     
   777.907512930061     
   1154.95078743058     
   1515.13452280440     
   1853.21104077850     
   2165.24899887135     
   2448.62473908862     
   2701.92819916597     
   2924.81685906612     
   3117.84507607028     
   3282.28876276589     
   3419.97841632050     
   3533.14774122593     
   3624.30070709295     
   3696.09677143156     
   3751.25199612507     
   3792.45270299511     
   3822.27798534947     
   3843.12770050078     
   3857.15343611658     
   3866.19131559985     
   3871.69731192422     
   3874.68781978087     
   3875.69024597791     
  0.000000000000000E+000
   381.928871014848     
   761.021198886155     
   1129.93133767884     
   1482.25279781735     
   1812.77543658645     
   2117.59767274258     
   2394.11856449490     
   2640.94451451511     
   2857.74403578638     
   3045.07790457269     
   3204.22463801531     
   3337.01429624116     
   3445.67784966447     
   3532.71495819579     
   3600.77990431478     
   3652.58342784268     
   3690.80713341795     
   3718.02681730641     
   3736.64136755643     
   3748.80475076255     
   3756.35995146070     
   3760.77550187505     
   3763.08727576968     
   3763.85018170394     
  0.000000000000000E+000
   374.207427422835     
   745.706559278088     
   1107.20625791726     
   1452.34627960625     
   1775.95476941944     
   2074.16097009892     
   2344.38792894851     
   2585.25991198886     
   2796.45791547051     
   2978.55057028630     
   3132.82035800363     
   3261.09812970239     
   3365.61316813496     
   3448.86164738050     
   3513.49324657065     
   3562.21368677354     
   3597.69988861346     
   3622.52412630440     
   3639.08385852581     
   3649.53476535106     
   3655.72585218582     
   3659.13722017484     
   3660.82309452741     
   3661.36461657439     
  0.000000000000000E+000
   367.260308808621     
   731.905403944569     
   1086.69739258839     
   1425.32162680115     
   1742.64438395639     
   2034.82596574872     
   2299.31394336656     
   2534.75120089693     
   2740.83212052085     
   2918.13417213146     
   3067.94480617084     
   3192.09663214322     
   3292.81812405286     
   3372.60271584064     
   3434.09605950295     
   3479.99923722297     
   3512.98465169226     
   3535.62099809109     
   3550.30402194568     
   3559.19060423054     
   3564.13502519397     
   3566.62796391679     
   3567.74073981885     
   3568.07917160565     
  0.000000000000000E+000
   361.054005819744     
   719.556983881124     
   1068.32215494198     
   1401.07897260031     
   1712.73089434355     
   1999.46878280226     
   2258.76460843928     
   2489.28004767077     
   2690.72327230280     
   2863.68115911371     
   3009.44679805125     
   3129.85527291775     
   3227.13495710187     
   3303.77719709300     
   3362.42417317104     
   3405.77275093296     
   3436.49107371111     
   3457.14432545191     
   3470.12638946792     
   3477.59495342673     
   3481.40889948866     
   3483.06849205405     
   3483.66078399755     
   3483.81448915845     
  0.000000000000000E+000
   355.555159006466     
   708.600317181721     
   1051.99693106968     
   1379.51632940244     
   1686.09750175162     
   1967.96072916984     
   2222.60167307468     
   2448.70045897557     
   2645.97900356921     
   2815.03378042829     
   2957.16388265270     
   3074.20734808304     
   3168.39299128813     
   3242.21062495200     
   3298.29947666827     
   3339.35263650696     
   3368.03430997467     
   3386.90633002740     
   3398.36067222408     
   3404.55552979794     
   3407.35377307565     
   3408.26426086025     
   3408.38834162939     
   3408.37567007660     
  0.000000000000000E+000
   350.731514883903     
   698.976076484179     
   1037.63985830461     
   1360.53320530659     
   1662.62838686755     
   1940.17339757855     
   2190.68636966298     
   2412.86507830970     
   2606.44474267492     
   2772.03128530501     
   2910.92988901614     
   3024.98180902113     
   3116.41668633421     
   3187.72325477834     
   3241.53826357491     
   3280.55147139478     
   3307.42350929401     
   3324.71308804668     
   3334.81031022281     
   3339.87364814881     
   3341.76939680072     
   3342.01402564335     
   3341.72168857602     
   3341.56090313823     
  0.000000000000000E+000
   346.552690717137     
   690.628107545887     
   1025.17307387050     
   1344.03354868817     
   1642.21230806153     
   1915.98286891276     
   2162.88417000884     
   2381.63043948183     
   2571.96940857245     
   2734.51600381959     
   2870.58133862818     
   2982.00995479630     
   3071.03256188160     
   3140.13717591188     
   3191.95849431494     
   3229.18338183302     
   3254.46928553878     
   3270.37207392502     
   3279.28007438242     
   3283.35187297984     
   3284.45667019247     
   3284.11757551922     
   3283.46002746620     
   3283.16924548236     
  0.000000000000000E+000
   342.990780708109     
   683.504640031589     
   1014.52451856422     
   1329.92812446433     
   1624.74552284051     
   1895.27314586189     
   2139.06869398456     
   2354.86131018479     
   2542.41014751122     
   2702.33843429564     
   2835.96284147766     
   2945.13109613365     
   3032.07509086595     
   3099.28239895680     
   3149.38604564112     
   3185.07042718181     
   3208.99021418909     
   3223.69875112146     
   3231.58273807994     
   3234.80076041626     
   3235.22444510399     
   3234.38258933859     
   3233.41038252497     
   3233.00753503378     
  0.000000000000000E+000
   340.020831580381     
   677.559243170992     
   1005.62936904357     
   1318.13641258324     
   1610.13413610988     
   1877.93892952934     
   2119.12488906400     
   2332.43424600504     
   2517.63623097515     
   2675.36145341016     
   2806.93158620249     
   2914.19729392887     
   2999.39165593843     
   3065.00200161977     
   3113.66001999664     
   3148.04805002343     
   3170.81840378436     
   3184.52224894092     
   3191.54484629027     
   3194.04470874099     
   3193.89544727507     
   3192.63061634721     
   3191.39362301410     
   3190.89643255624     
  0.000000000000000E+000
   337.621211171288     
   672.751570926031     
   998.431161433895     
   1308.58810635784     
   1598.29596454370     
   1863.88783681857     
   2102.95158405984     
   2314.24046091042     
   2497.53222109788     
   2653.46375320127     
   2783.36102454542     
   2889.07726688655     
   2972.84665656749     
   3037.15641272783     
   3084.63718562338     
   3117.96965368243     
   3139.80419456012     
   3152.69016834696     
   3159.01161661001     
   3160.92694383040     
   3160.31133523300     
   3158.70219559229     
   3157.24962574372     
   3156.67560247677     
  0.000000000000000E+000
   335.773889602290     
   669.047933832933     
   992.882658706654     
   1301.22427588197     
   1589.16199250511     
   1853.04214168394     
   2090.46350534472     
   2300.18810539732     
   2482.00049554427     
   2636.54259590309     
   2765.14383834037     
   2869.65955240479     
   2952.32484567321     
   3015.62690709057     
   3062.19561321367     
   3094.71036566089     
   3115.82003527820     
   3128.07256037377     
   3133.85100867581     
   3135.31366954031     
   3134.33692102368     
   3132.46113421607     
   3130.84159395293     
   3130.20804873744     
  0.000000000000000E+000
   334.464648911093     
   666.421727790428     
   988.946504717495     
   1295.99825008571     
   1582.67748171604     
   1845.34010906182     
   2081.59282902761     
   2290.20402857928     
   2470.96320925400     
   2624.51596358859     
   2752.19426424749     
   2855.85499299870     
   2937.73396418706     
   3000.31837491689     
   3046.23756754447     
   3078.17003976628     
   3098.76358518099     
   3110.56511824974     
   3115.95699752168     
   3117.09741349971     
   3115.86357886168     
   3113.79796731606     
   3112.05955302471     
   3111.38362533786     
  0.000000000000000E+000
   333.683233666677     
   664.853743726422     
   986.595698915570     
   1292.87626004391     
   1578.80278434016     
   1840.73697663246     
   2076.29032820032     
   2284.23508585394     
   2464.36375587103     
   2617.32416542205     
   2744.44983794254     
   2847.59860794088     
   2929.00673040148     
   2991.16141919886     
   3036.69170356852     
   3068.27554213935     
   3088.56008184439     
   3100.09161957825     
   3105.25208297327     
   3106.19959652840     
   3104.81186658757     
   3102.63262167215     
   3100.82304366372     
   3100.12174159799     
  0.000000000000000E+000
   333.423452005352     
   664.332376223405     
   985.813917482162     
   1291.83787589460     
   1577.51389729371     
   1839.20562652867     
   2074.52616053823     
   2282.24903952117     
   2462.16777731732     
   2614.93095115139     
   2741.87260574854     
   2844.85089675408     
   2926.10222878883     
   2988.11382329442     
   3033.51460636785     
   3064.98235750113     
   3085.16400802519     
   3096.60564844126     
   3101.68906184293     
   3102.57234960753     
   3101.13338143477     
   3098.91630296142     
   3097.08303094944     
   3096.37328012507     
VECTORS u double 
    0.00000E+00        -0.69260E+00         0.00000E+00
    0.00000E+00        -0.64979E+00         0.00000E+00
    0.00000E+00        -0.58928E+00         0.00000E+00
    0.00000E+00        -0.52091E+00         0.00000E+00
    0.00000E+00        -0.45309E+00         0.00000E+00
    0.00000E+00        -0.39054E+00         0.00000E+00
    0.00000E+00        -0.33504E+00         0.00000E+00
    0.00000E+00        -0.28674E+00         0.00000E+00
    0.00000E+00        -0.24484E+00         0.00000E+00
    0.00000E+00        -0.20827E+00         0.00000E+00
    0.00000E+00        -0.17617E+00         0.00000E+00
    0.00000E+00        -0.14784E+00         0.00000E+00
    0.00000E+00        -0.12290E+00         0.00000E+00
    0.00000E+00        -0.10111E+00         0.00000E+00
    0.00000E+00        -0.82226E-01         0.00000E+00
    0.00000E+00        -0.66027E-01         0.00000E+00
    0.00000E+00        -0.52254E-01         0.00000E+00
    0.00000E+00        -0.40713E-01         0.00000E+00
    0.00000E+00        -0.31172E-01         0.00000E+00
    0.00000E+00        -0.23304E-01         0.00000E+00
    0.00000E+00        -0.16757E-01         0.00000E+00
    0.00000E+00        -0.11217E-01         0.00000E+00
    0.00000E+00        -0.65957E-02         0.00000E+00
    0.00000E+00        -0.28562E-02         0.00000E+00
    0.00000E+00         0.00000E+00         0.00000E+00
   -0.11119E-01        -0.67060E+00         0.00000E+00
    0.32595E-01        -0.62634E+00         0.00000E+00
    0.58969E-01        -0.56418E+00         0.00000E+00
    0.68413E-01        -0.49798E+00         0.00000E+00
    0.67072E-01        -0.43431E+00         0.00000E+00
    0.60727E-01        -0.37594E+00         0.00000E+00
    0.52811E-01        -0.32388E+00         0.00000E+00
    0.45238E-01        -0.27806E+00         0.00000E+00
    0.38989E-01        -0.23792E+00         0.00000E+00
    0.33963E-01        -0.20270E+00         0.00000E+00
    0.29866E-01        -0.17166E+00         0.00000E+00
    0.26306E-01        -0.14428E+00         0.00000E+00
    0.22949E-01        -0.12017E+00         0.00000E+00
    0.19795E-01        -0.99047E-01         0.00000E+00
    0.16843E-01        -0.80705E-01         0.00000E+00
    0.14109E-01        -0.64935E-01         0.00000E+00
    0.11690E-01        -0.51525E-01         0.00000E+00
    0.93608E-02        -0.40265E-01         0.00000E+00
    0.74719E-02        -0.30887E-01         0.00000E+00
    0.59325E-02        -0.23121E-01         0.00000E+00
    0.46758E-02        -0.16630E-01         0.00000E+00
    0.35180E-02        -0.11133E-01         0.00000E+00
    0.23855E-02        -0.65469E-02         0.00000E+00
    0.12272E-02        -0.28356E-02         0.00000E+00
    0.00000E+00         0.00000E+00         0.00000E+00
   -0.17852E-01        -0.59640E+00         0.00000E+00
    0.79045E-01        -0.54422E+00         0.00000E+00
    0.11986E+00        -0.48461E+00         0.00000E+00
    0.13092E+00        -0.43009E+00         0.00000E+00
    0.12654E+00        -0.37997E+00         0.00000E+00
    0.11478E+00        -0.33379E+00         0.00000E+00
    0.10075E+00        -0.29140E+00         0.00000E+00
    0.87197E-01        -0.25275E+00         0.00000E+00
    0.75378E-01        -0.21786E+00         0.00000E+00
    0.65739E-01        -0.18662E+00         0.00000E+00
    0.57661E-01        -0.15883E+00         0.00000E+00
    0.50626E-01        -0.13419E+00         0.00000E+00
    0.44231E-01        -0.11240E+00         0.00000E+00
    0.38197E-01        -0.93228E-01         0.00000E+00
    0.32548E-01        -0.76465E-01         0.00000E+00
    0.27349E-01        -0.61926E-01         0.00000E+00
    0.22522E-01        -0.49488E-01         0.00000E+00
    0.18238E-01        -0.38952E-01         0.00000E+00
    0.14636E-01        -0.30040E-01         0.00000E+00
    0.11707E-01        -0.22553E-01         0.00000E+00
    0.92504E-02        -0.16235E-01         0.00000E+00
    0.69662E-02        -0.10873E-01         0.00000E+00
    0.47256E-02        -0.63967E-02         0.00000E+00
    0.24320E-02        -0.27724E-02         0.00000E+00
    0.00000E+00         0.00000E+00         0.00000E+00
    0.60045E-02        -0.40654E+00         0.00000E+00
    0.13442E+00        -0.36698E+00         0.00000E+00
    0.17015E+00        -0.34462E+00         0.00000E+00
    0.17848E+00        -0.32140E+00         0.00000E+00
    0.17152E+00        -0.29601E+00         0.00000E+00
    0.15702E+00        -0.26873E+00         0.00000E+00
    0.13976E+00        -0.24069E+00         0.00000E+00
    0.12253E+00        -0.21300E+00         0.00000E+00
    0.10675E+00        -0.18655E+00         0.00000E+00
    0.93087E-01        -0.16193E+00         0.00000E+00
    0.81534E-01        -0.13945E+00         0.00000E+00
    0.71461E-01        -0.11917E+00         0.00000E+00
    0.62352E-01        -0.10098E+00         0.00000E+00
    0.53949E-01        -0.84708E-01         0.00000E+00
    0.46108E-01        -0.70253E-01         0.00000E+00
    0.38870E-01        -0.57535E-01         0.00000E+00
    0.32112E-01        -0.46470E-01         0.00000E+00
    0.26241E-01        -0.36878E-01         0.00000E+00
    0.21295E-01        -0.28615E-01         0.00000E+00
    0.17182E-01        -0.21567E-01         0.00000E+00
    0.13622E-01        -0.15545E-01         0.00000E+00
    0.10272E-01        -0.10421E-01         0.00000E+00
    0.69719E-02        -0.61374E-02         0.00000E+00
    0.35898E-02        -0.26639E-02         0.00000E+00
    0.00000E+00         0.00000E+00         0.00000E+00
    0.83297E-01        -0.13469E+00         0.00000E+00
    0.16063E+00        -0.14163E+00         0.00000E+00
    0.19614E+00        -0.16537E+00         0.00000E+00
    0.20449E+00        -0.18130E+00         0.00000E+00
    0.19890E+00        -0.18694E+00         0.00000E+00
    0.18474E+00        -0.18430E+00         0.00000E+00
    0.16681E+00        -0.17556E+00         0.00000E+00
    0.14806E+00        -0.16288E+00         0.00000E+00
    0.13012E+00        -0.14804E+00         0.00000E+00
    0.11389E+00        -0.13236E+00         0.00000E+00
    0.99746E-01        -0.11676E+00         0.00000E+00
    0.87486E-01        -0.10177E+00         0.00000E+00
    0.76540E-01        -0.87705E-01         0.00000E+00
    0.66495E-01        -0.74707E-01         0.00000E+00
    0.57122E-01        -0.62841E-01         0.00000E+00
    0.48358E-01        -0.52157E-01         0.00000E+00
    0.40328E-01        -0.42594E-01         0.00000E+00
    0.33327E-01        -0.34068E-01         0.00000E+00
    0.27287E-01        -0.26603E-01         0.00000E+00
    0.22235E-01        -0.20131E-01         0.00000E+00
    0.17688E-01        -0.14541E-01         0.00000E+00
    0.13357E-01        -0.97659E-02         0.00000E+00
    0.90722E-02        -0.57641E-02         0.00000E+00
    0.46736E-02        -0.25086E-02         0.00000E+00
    0.00000E+00         0.00000E+00         0.00000E+00
    0.95263E-01        -0.71477E-01         0.00000E+00
    0.14620E+00        -0.68944E-01         0.00000E+00
    0.18146E+00        -0.77679E-01         0.00000E+00
    0.19774E+00        -0.94463E-01         0.00000E+00
    0.19916E+00        -0.10897E+00         0.00000E+00
    0.19063E+00        -0.11793E+00         0.00000E+00
    0.17653E+00        -0.12081E+00         0.00000E+00
    0.15993E+00        -0.11861E+00         0.00000E+00
    0.14289E+00        -0.11268E+00         0.00000E+00
    0.12659E+00        -0.10433E+00         0.00000E+00
    0.11175E+00        -0.94622E-01         0.00000E+00
    0.98543E-01        -0.84373E-01         0.00000E+00
    0.86694E-01        -0.74115E-01         0.00000E+00
    0.75792E-01        -0.64202E-01         0.00000E+00
    0.65551E-01        -0.54832E-01         0.00000E+00
    0.55955E-01        -0.46090E-01         0.00000E+00
    0.47236E-01        -0.37991E-01         0.00000E+00
    0.39402E-01        -0.30616E-01         0.00000E+00
    0.32585E-01        -0.24019E-01         0.00000E+00
    0.26752E-01        -0.18243E-01         0.00000E+00
    0.21350E-01        -0.13227E-01         0.00000E+00
    0.16146E-01        -0.89171E-02         0.00000E+00
    0.10975E-01        -0.52833E-02         0.00000E+00
    0.56561E-02        -0.23096E-02         0.00000E+00
    0.00000E+00         0.00000E+00         0.00000E+00
    0.10724E+00        -0.31104E-01         0.00000E+00
    0.13890E+00        -0.30613E-01         0.00000E+00
    0.16594E+00        -0.34133E-01         0.00000E+00
    0.18246E+00        -0.43668E-01         0.00000E+00
    0.18839E+00        -0.56376E-01         0.00000E+00
    0.18520E+00        -0.67768E-01         0.00000E+00
    0.17586E+00        -0.75676E-01         0.00000E+00
    0.16287E+00        -0.79547E-01         0.00000E+00
    0.14826E+00        -0.79757E-01         0.00000E+00
    0.13335E+00        -0.77082E-01         0.00000E+00
    0.11908E+00        -0.72342E-01         0.00000E+00
    0.10592E+00        -0.66310E-01         0.00000E+00
    0.93850E-01        -0.59611E-01         0.00000E+00
    0.82590E-01        -0.52668E-01         0.00000E+00
    0.72039E-01        -0.45724E-01         0.00000E+00
    0.62172E-01        -0.38917E-01         0.00000E+00
    0.53040E-01        -0.32415E-01         0.00000E+00
    0.44658E-01        -0.26366E-01         0.00000E+00
    0.37164E-01        -0.20877E-01         0.00000E+00
    0.30643E-01        -0.15987E-01         0.00000E+00
    0.24518E-01        -0.11670E-01         0.00000E+00
    0.18573E-01        -0.79169E-02         0.00000E+00
    0.12636E-01        -0.47181E-02         0.00000E+00
    0.65143E-02        -0.20758E-02         0.00000E+00
    0.00000E+00         0.00000E+00         0.00000E+00
    0.11357E+00        -0.68832E-02         0.00000E+00
    0.13490E+00        -0.66540E-02         0.00000E+00
    0.15442E+00        -0.94285E-02         0.00000E+00
    0.16818E+00        -0.14715E-01         0.00000E+00
    0.17487E+00        -0.23592E-01         0.00000E+00
    0.17470E+00        -0.33631E-01         0.00000E+00
    0.16914E+00        -0.42299E-01         0.00000E+00
    0.15966E+00        -0.48567E-01         0.00000E+00
    0.14794E+00        -0.52079E-01         0.00000E+00
    0.13512E+00        -0.53065E-01         0.00000E+00
    0.12219E+00        -0.51957E-01         0.00000E+00
    0.10979E+00        -0.49268E-01         0.00000E+00
    0.98126E-01        -0.45511E-01         0.00000E+00
    0.87119E-01        -0.41096E-01         0.00000E+00
    0.76694E-01        -0.36317E-01         0.00000E+00
    0.66800E-01        -0.31409E-01         0.00000E+00
    0.57478E-01        -0.26553E-01         0.00000E+00
    0.48787E-01        -0.21914E-01         0.00000E+00
    0.40903E-01        -0.17549E-01         0.00000E+00
    0.33840E-01        -0.13567E-01         0.00000E+00
    0.27137E-01        -0.99955E-02         0.00000E+00
    0.20597E-01        -0.68354E-02         0.00000E+00
    0.14028E-01        -0.41044E-02         0.00000E+00
    0.72336E-02        -0.18207E-02         0.00000E+00
    0.00000E+00         0.00000E+00         0.00000E+00
    0.11702E+00         0.90841E-02         0.00000E+00
    0.13164E+00         0.87284E-02         0.00000E+00
    0.14595E+00         0.60416E-02         0.00000E+00
    0.15658E+00         0.21994E-02         0.00000E+00
    0.16233E+00        -0.37618E-02         0.00000E+00
    0.16332E+00        -0.11363E-01         0.00000E+00
    0.15997E+00        -0.19167E-01         0.00000E+00
    0.15315E+00        -0.25783E-01         0.00000E+00
    0.14399E+00        -0.30595E-01         0.00000E+00
    0.13334E+00        -0.33501E-01         0.00000E+00
    0.12210E+00        -0.34617E-01         0.00000E+00
    0.11090E+00        -0.34219E-01         0.00000E+00
    0.10008E+00        -0.32652E-01         0.00000E+00
    0.89625E-01        -0.30282E-01         0.00000E+00
    0.79552E-01        -0.27394E-01         0.00000E+00
    0.69870E-01        -0.24193E-01         0.00000E+00
    0.60571E-01        -0.20869E-01         0.00000E+00
    0.51843E-01        -0.17508E-01         0.00000E+00
    0.43770E-01        -0.14255E-01         0.00000E+00
    0.36316E-01        -0.11184E-01         0.00000E+00
    0.29208E-01        -0.83268E-02         0.00000E+00
    0.22215E-01        -0.57454E-02         0.00000E+00
    0.15146E-01        -0.34801E-02         0.00000E+00
    0.78105E-02        -0.15592E-02         0.00000E+00
    0.00000E+00         0.00000E+00         0.00000E+00
    0.11842E+00         0.19648E-01         0.00000E+00
    0.12850E+00         0.18911E-01         0.00000E+00
    0.13901E+00         0.16381E-01         0.00000E+00
    0.14713E+00         0.12569E-01         0.00000E+00
    0.15172E+00         0.81902E-02         0.00000E+00
    0.15276E+00         0.25783E-02         0.00000E+00
    0.15057E+00        -0.36431E-02         0.00000E+00
    0.14548E+00        -0.96738E-02         0.00000E+00
    0.13828E+00        -0.14699E-01         0.00000E+00
    0.12950E+00        -0.18413E-01         0.00000E+00
    0.11987E+00        -0.20761E-01         0.00000E+00
    0.10995E+00        -0.21832E-01         0.00000E+00
    0.10011E+00        -0.21831E-01         0.00000E+00
    0.90386E-01        -0.21012E-01         0.00000E+00
    0.80832E-01        -0.19616E-01         0.00000E+00
    0.71513E-01        -0.17824E-01         0.00000E+00
    0.62463E-01        -0.15754E-01         0.00000E+00
    0.53845E-01        -0.13561E-01         0.00000E+00
    0.45747E-01        -0.11290E-01         0.00000E+00
    0.38135E-01        -0.89690E-02         0.00000E+00
    0.30766E-01        -0.67475E-02         0.00000E+00
    0.23448E-01        -0.47005E-02         0.00000E+00
    0.16003E-01        -0.28753E-02         0.00000E+00
    0.82512E-02        -0.13032E-02         0.00000E+00
    0.00000E+00         0.00000E+00         0.00000E+00
    0.11823E+00         0.26831E-01         0.00000E+00
    0.12529E+00         0.25768E-01         0.00000E+00
    0.13290E+00         0.23282E-01         0.00000E+00
    0.13913E+00         0.19649E-01         0.00000E+00
    0.14275E+00         0.15480E-01         0.00000E+00
    0.14354E+00         0.11081E-01         0.00000E+00
    0.14176E+00         0.61295E-02         0.00000E+00
    0.13774E+00         0.10893E-02         0.00000E+00
    0.13192E+00        -0.35324E-02         0.00000E+00
    0.12457E+00        -0.74310E-02         0.00000E+00
    0.11636E+00        -0.10319E-01         0.00000E+00
    0.10763E+00        -0.12220E-01         0.00000E+00
    0.98756E-01        -0.13232E-01         0.00000E+00
    0.89807E-01        -0.13534E-01         0.00000E+00
    0.80837E-01        -0.13267E-01         0.00000E+00
    0.72009E-01        -0.12550E-01         0.00000E+00
    0.63289E-01        -0.11563E-01         0.00000E+00
    0.54960E-01        -0.10240E-01         0.00000E+00
    0.47027E-01        -0.86435E-02         0.00000E+00
    0.39379E-01        -0.69582E-02         0.00000E+00
    0.31866E-01        -0.52959E-02         0.00000E+00
    0.24333E-01        -0.37297E-02         0.00000E+00
    0.16621E-01        -0.23082E-02         0.00000E+00
    0.85678E-02        -0.10608E-02         0.00000E+00
    0.00000E+00         0.00000E+00         0.00000E+00
    0.11687E+00         0.31831E-01         0.00000E+00
    0.12187E+00         0.30517E-01         0.00000E+00
    0.12738E+00         0.28099E-01         0.00000E+00
    0.13204E+00         0.24674E-01         0.00000E+00
    0.13489E+00         0.20605E-01         0.00000E+00
    0.13548E+00         0.16375E-01         0.00000E+00
    0.13389E+00         0.12153E-01         0.00000E+00
    0.13048E+00         0.79197E-02         0.00000E+00
    0.12552E+00         0.38142E-02         0.00000E+00
    0.11926E+00         0.10512E-03         0.00000E+00
    0.11217E+00        -0.29312E-02         0.00000E+00
    0.10447E+00        -0.52546E-02         0.00000E+00
    0.96453E-01        -0.68727E-02         0.00000E+00
    0.88265E-01        -0.78952E-02         0.00000E+00
    0.79926E-01        -0.84484E-02         0.00000E+00
    0.71586E-01        -0.85437E-02         0.00000E+00
    0.63429E-01        -0.81226E-02         0.00000E+00
    0.55473E-01        -0.73265E-02         0.00000E+00
    0.47735E-01        -0.63027E-02         0.00000E+00
    0.40135E-01        -0.51575E-02         0.00000E+00
    0.32569E-01        -0.39829E-02         0.00000E+00
    0.24912E-01        -0.28446E-02         0.00000E+00
    0.17028E-01        -0.17870E-02         0.00000E+00
    0.87752E-02        -0.83587E-03         0.00000E+00
    0.00000E+00         0.00000E+00         0.00000E+00
    0.11468E+00         0.35415E-01         0.00000E+00
    0.11828E+00         0.33930E-01         0.00000E+00
    0.12226E+00         0.31574E-01         0.00000E+00
    0.12567E+00         0.28366E-01         0.00000E+00
    0.12778E+00         0.24537E-01         0.00000E+00
    0.12820E+00         0.20388E-01         0.00000E+00
    0.12681E+00         0.16237E-01         0.00000E+00
    0.12383E+00         0.12293E-01         0.00000E+00
    0.11947E+00         0.85497E-02         0.00000E+00
    0.11402E+00         0.51261E-02         0.00000E+00
    0.10778E+00         0.21229E-02         0.00000E+00
    0.10092E+00        -0.39724E-03         0.00000E+00
    0.93653E-01        -0.23912E-02         0.00000E+00
    0.86163E-01        -0.38109E-02         0.00000E+00
    0.78492E-01        -0.46954E-02         0.00000E+00
    0.70770E-01        -0.50976E-02         0.00000E+00
    0.63100E-01        -0.51022E-02         0.00000E+00
    0.55503E-01        -0.47865E-02         0.00000E+00
    0.47979E-01        -0.42406E-02         0.00000E+00
    0.40482E-01        -0.35567E-02         0.00000E+00
    0.32931E-01        -0.28070E-02         0.00000E+00
    0.25225E-01        -0.20467E-02         0.00000E+00
    0.17253E-01        -0.13139E-02         0.00000E+00
    0.88880E-02        -0.62999E-03         0.00000E+00
    0.00000E+00         0.00000E+00         0.00000E+00
    0.11191E+00         0.38070E-01         0.00000E+00
    0.11456E+00         0.36476E-01         0.00000E+00
    0.11743E+00         0.34183E-01         0.00000E+00
    0.11987E+00         0.31181E-01         0.00000E+00
    0.12135E+00         0.27614E-01         0.00000E+00
    0.12153E+00         0.23711E-01         0.00000E+00
    0.12029E+00         0.19714E-01         0.00000E+00
    0.11767E+00         0.15809E-01         0.00000E+00
    0.11384E+00         0.12145E-01         0.00000E+00
    0.10903E+00         0.88134E-02         0.00000E+00
    0.10346E+00         0.58729E-02         0.00000E+00
    0.97302E-01         0.33689E-02         0.00000E+00
    0.90737E-01         0.13305E-02         0.00000E+00
    0.83886E-01        -0.25143E-03         0.00000E+00
    0.76825E-01        -0.13904E-02         0.00000E+00
    0.69639E-01        -0.21164E-02         0.00000E+00
    0.62399E-01        -0.24853E-02         0.00000E+00
    0.55136E-01        -0.25667E-02         0.00000E+00
    0.47842E-01        -0.24300E-02         0.00000E+00
    0.40485E-01        -0.21420E-02         0.00000E+00
    0.33002E-01        -0.17614E-02         0.00000E+00
    0.25312E-01        -0.13331E-02         0.00000E+00
    0.17320E-01        -0.88819E-03         0.00000E+00
    0.89199E-02        -0.44326E-03         0.00000E+00
    0.00000E+00         0.00000E+00         0.00000E+00
    0.10879E+00         0.40093E-01         0.00000E+00
    0.11077E+00         0.38437E-01         0.00000E+00
    0.11283E+00         0.36210E-01         0.00000E+00
    0.11454E+00         0.33393E-01         0.00000E+00
    0.11550E+00         0.30082E-01         0.00000E+00
    0.11545E+00         0.26446E-01         0.00000E+00
    0.11426E+00         0.22673E-01         0.00000E+00
    0.11192E+00         0.18943E-01         0.00000E+00
    0.10854E+00         0.15396E-01         0.00000E+00
    0.10428E+00         0.12136E-01         0.00000E+00
    0.99298E-01         0.92224E-02         0.00000E+00
    0.93756E-01         0.66928E-02         0.00000E+00
    0.87786E-01         0.45615E-02         0.00000E+00
    0.81494E-01         0.28259E-02         0.00000E+00
    0.74957E-01         0.14706E-02         0.00000E+00
    0.68242E-01         0.47054E-03         0.00000E+00
    0.61398E-01        -0.21446E-03         0.00000E+00
    0.54449E-01        -0.63522E-03         0.00000E+00
    0.47394E-01        -0.84592E-03         0.00000E+00
    0.40203E-01        -0.89822E-03         0.00000E+00
    0.32829E-01        -0.83736E-03         0.00000E+00
    0.25206E-01        -0.69910E-03         0.00000E+00
    0.17253E-01        -0.50773E-03         0.00000E+00
    0.88832E-02        -0.27513E-03         0.00000E+00
    0.00000E+00         0.00000E+00         0.00000E+00
    0.10546E+00         0.41667E-01         0.00000E+00
    0.10695E+00         0.39985E-01         0.00000E+00
    0.10842E+00         0.37823E-01         0.00000E+00
    0.10957E+00         0.35167E-01         0.00000E+00
    0.11013E+00         0.32085E-01         0.00000E+00
    0.10988E+00         0.28701E-01         0.00000E+00
    0.10870E+00         0.25167E-01         0.00000E+00
    0.10658E+00         0.21633E-01         0.00000E+00
    0.10356E+00         0.18226E-01         0.00000E+00
    0.99748E-01         0.15045E-01         0.00000E+00
    0.95274E-01         0.12153E-01         0.00000E+00
    0.90256E-01         0.95874E-02         0.00000E+00
    0.84803E-01         0.73651E-02         0.00000E+00
    0.79004E-01         0.54860E-02         0.00000E+00
    0.72929E-01         0.39393E-02         0.00000E+00
    0.66631E-01         0.27042E-02         0.00000E+00
    0.60149E-01         0.17503E-02         0.00000E+00
    0.53502E-01         0.10402E-02         0.00000E+00
    0.46688E-01         0.53309E-03         0.00000E+00
    0.39684E-01         0.18938E-03         0.00000E+00
    0.32452E-01        -0.25671E-04         0.00000E+00
    0.24938E-01        -0.13942E-03         0.00000E+00
    0.17074E-01        -0.16995E-03         0.00000E+00
    0.87886E-02        -0.12481E-03         0.00000E+00
    0.00000E+00         0.00000E+00         0.00000E+00
    0.10202E+00         0.42904E-01         0.00000E+00
    0.10314E+00         0.41220E-01         0.00000E+00
    0.10418E+00         0.39122E-01         0.00000E+00
    0.10492E+00         0.36604E-01         0.00000E+00
    0.10516E+00         0.33717E-01         0.00000E+00
    0.10474E+00         0.30557E-01         0.00000E+00
    0.10356E+00         0.27243E-01         0.00000E+00
    0.10159E+00         0.23897E-01         0.00000E+00
    0.98853E-01         0.20632E-01         0.00000E+00
    0.95417E-01         0.17535E-01         0.00000E+00
    0.91369E-01         0.14670E-01         0.00000E+00
    0.86801E-01         0.12077E-01         0.00000E+00
    0.81799E-01         0.97758E-02         0.00000E+00
    0.76435E-01         0.77719E-02         0.00000E+00
    0.70771E-01         0.60595E-02         0.00000E+00
    0.64849E-01         0.46234E-02         0.00000E+00
    0.58702E-01         0.34416E-02         0.00000E+00
    0.52343E-01         0.24862E-02         0.00000E+00
    0.45772E-01         0.17270E-02         0.00000E+00
    0.38970E-01         0.11345E-02         0.00000E+00
    0.31906E-01         0.68270E-03         0.00000E+00
    0.24534E-01         0.35134E-03         0.00000E+00
    0.16801E-01         0.12785E-03         0.00000E+00
    0.86455E-02         0.86361E-05         0.00000E+00
    0.00000E+00         0.00000E+00         0.00000E+00
    0.98544E-01         0.43874E-01         0.00000E+00
    0.99377E-01         0.42203E-01         0.00000E+00
    0.10008E+00         0.40166E-01         0.00000E+00
    0.10050E+00         0.37765E-01         0.00000E+00
    0.10050E+00         0.35042E-01         0.00000E+00
    0.99949E-01         0.32072E-01         0.00000E+00
    0.98765E-01         0.28950E-01         0.00000E+00
    0.96914E-01         0.25775E-01         0.00000E+00
    0.94402E-01         0.22642E-01         0.00000E+00
    0.91271E-01         0.19630E-01         0.00000E+00
    0.87579E-01         0.16799E-01         0.00000E+00
    0.83395E-01         0.14189E-01         0.00000E+00
    0.78784E-01         0.11826E-01         0.00000E+00
    0.73806E-01         0.97186E-02         0.00000E+00
    0.68509E-01         0.78668E-02         0.00000E+00
    0.62930E-01         0.62616E-02         0.00000E+00
    0.57094E-01         0.48878E-02         0.00000E+00
    0.51012E-01         0.37258E-02         0.00000E+00
    0.44684E-01         0.27537E-02         0.00000E+00
    0.38095E-01         0.19501E-02         0.00000E+00
    0.31219E-01         0.12964E-02         0.00000E+00
    0.24019E-01         0.77844E-03         0.00000E+00
    0.16450E-01         0.38843E-03         0.00000E+00
    0.84621E-02         0.12617E-03         0.00000E+00
    0.00000E+00         0.00000E+00         0.00000E+00
    0.95065E-01         0.44620E-01         0.00000E+00
    0.95667E-01         0.42971E-01         0.00000E+00
    0.96113E-01         0.40991E-01         0.00000E+00
    0.96297E-01         0.38690E-01         0.00000E+00
    0.96109E-01         0.36104E-01         0.00000E+00
    0.95454E-01         0.33293E-01         0.00000E+00
    0.94264E-01         0.30333E-01         0.00000E+00
    0.92506E-01         0.27307E-01         0.00000E+00
    0.90174E-01         0.24294E-01         0.00000E+00
    0.87292E-01         0.21363E-01         0.00000E+00
    0.83899E-01         0.18571E-01         0.00000E+00
    0.80043E-01         0.15957E-01         0.00000E+00
    0.75773E-01         0.13548E-01         0.00000E+00
    0.71135E-01         0.11358E-01         0.00000E+00
    0.66168E-01         0.93924E-02         0.00000E+00
    0.60903E-01         0.76475E-02         0.00000E+00
    0.55358E-01         0.61143E-02         0.00000E+00
    0.49544E-01         0.47798E-02         0.00000E+00
    0.43458E-01         0.36293E-02         0.00000E+00
    0.37090E-01         0.26481E-02         0.00000E+00
    0.30418E-01         0.18236E-02         0.00000E+00
    0.23412E-01         0.11470E-02         0.00000E+00
    0.16035E-01         0.61447E-03         0.00000E+00
    0.82458E-02         0.22879E-03         0.00000E+00
    0.00000E+00         0.00000E+00         0.00000E+00
    0.91613E-01         0.45173E-01         0.00000E+00
    0.92021E-01         0.43550E-01         0.00000E+00
    0.92265E-01         0.41623E-01         0.00000E+00
    0.92263E-01         0.39408E-01         0.00000E+00
    0.91932E-01         0.36936E-01         0.00000E+00
    0.91199E-01         0.34257E-01         0.00000E+00
    0.90007E-01         0.31434E-01         0.00000E+00
    0.88323E-01         0.28536E-01         0.00000E+00
    0.86139E-01         0.25629E-01         0.00000E+00
    0.83463E-01         0.22774E-01         0.00000E+00
    0.80321E-01         0.20022E-01         0.00000E+00
    0.76746E-01         0.17412E-01         0.00000E+00
    0.72774E-01         0.14973E-01         0.00000E+00
    0.68438E-01         0.12721E-01         0.00000E+00
    0.63770E-01         0.10665E-01         0.00000E+00
    0.58793E-01         0.88071E-02         0.00000E+00
    0.53523E-01         0.71435E-02         0.00000E+00
    0.47966E-01         0.56669E-02         0.00000E+00
    0.42122E-01         0.43687E-02         0.00000E+00
    0.35980E-01         0.32396E-02         0.00000E+00
    0.29525E-01         0.22722E-02         0.00000E+00
    0.22730E-01         0.14619E-02         0.00000E+00
    0.15568E-01         0.80864E-03         0.00000E+00
    0.80028E-02         0.31751E-03         0.00000E+00
    0.00000E+00         0.00000E+00         0.00000E+00
    0.88199E-01         0.45555E-01         0.00000E+00
    0.88442E-01         0.43959E-01         0.00000E+00
    0.88522E-01         0.42081E-01         0.00000E+00
    0.88374E-01         0.39940E-01         0.00000E+00
    0.87934E-01         0.37563E-01         0.00000E+00
    0.87142E-01         0.34995E-01         0.00000E+00
    0.85951E-01         0.32288E-01         0.00000E+00
    0.84331E-01         0.29498E-01         0.00000E+00
    0.82269E-01         0.26684E-01         0.00000E+00
    0.79767E-01         0.23899E-01         0.00000E+00
    0.76839E-01         0.21189E-01         0.00000E+00
    0.73507E-01         0.18591E-01         0.00000E+00
    0.69795E-01         0.16134E-01         0.00000E+00
    0.65730E-01         0.13837E-01         0.00000E+00
    0.61333E-01         0.11712E-01         0.00000E+00
    0.56623E-01         0.97645E-02         0.00000E+00
    0.51611E-01         0.79962E-02         0.00000E+00
    0.46303E-01         0.64046E-02         0.00000E+00
    0.40698E-01         0.49856E-02         0.00000E+00
    0.34788E-01         0.37349E-02         0.00000E+00
    0.28558E-01         0.26493E-02         0.00000E+00
    0.21990E-01         0.17279E-02         0.00000E+00
    0.15059E-01         0.97355E-03         0.00000E+00
    0.77384E-02         0.39337E-03         0.00000E+00
    0.00000E+00         0.00000E+00         0.00000E+00
    0.84830E-01         0.45783E-01         0.00000E+00
    0.84929E-01         0.44214E-01         0.00000E+00
    0.84873E-01         0.42381E-01         0.00000E+00
    0.84610E-01         0.40304E-01         0.00000E+00
    0.84084E-01         0.38009E-01         0.00000E+00
    0.83249E-01         0.35534E-01         0.00000E+00
    0.82063E-01         0.32924E-01         0.00000E+00
    0.80498E-01         0.30228E-01         0.00000E+00
    0.78541E-01         0.27496E-01         0.00000E+00
    0.76188E-01         0.24775E-01         0.00000E+00
    0.73445E-01         0.22106E-01         0.00000E+00
    0.70324E-01         0.19526E-01         0.00000E+00
    0.66844E-01         0.17061E-01         0.00000E+00
    0.63021E-01         0.14734E-01         0.00000E+00
    0.58872E-01         0.12558E-01         0.00000E+00
    0.54410E-01         0.10542E-01         0.00000E+00
    0.49644E-01         0.86917E-02         0.00000E+00
    0.44577E-01         0.70087E-02         0.00000E+00
    0.39208E-01         0.54928E-02         0.00000E+00
    0.33532E-01         0.41438E-02         0.00000E+00
    0.27535E-01         0.29620E-02         0.00000E+00
    0.21204E-01         0.19496E-02         0.00000E+00
    0.14518E-01         0.11118E-02         0.00000E+00
    0.74575E-02         0.45740E-03         0.00000E+00
    0.00000E+00         0.00000E+00         0.00000E+00
    0.81503E-01         0.45875E-01         0.00000E+00
    0.81477E-01         0.44330E-01         0.00000E+00
    0.81308E-01         0.42538E-01         0.00000E+00
    0.80951E-01         0.40517E-01         0.00000E+00
    0.80360E-01         0.38292E-01         0.00000E+00
    0.79493E-01         0.35896E-01         0.00000E+00
    0.78316E-01         0.33370E-01         0.00000E+00
    0.76802E-01         0.30755E-01         0.00000E+00
    0.74937E-01         0.28095E-01         0.00000E+00
    0.72713E-01         0.25433E-01         0.00000E+00
    0.70131E-01         0.22805E-01         0.00000E+00
    0.67198E-01         0.20246E-01         0.00000E+00
    0.63925E-01         0.17783E-01         0.00000E+00
    0.60322E-01         0.15438E-01         0.00000E+00
    0.56401E-01         0.13226E-01         0.00000E+00
    0.52170E-01         0.11160E-01         0.00000E+00
    0.47638E-01         0.92480E-02         0.00000E+00
    0.42804E-01         0.74942E-02         0.00000E+00
    0.37669E-01         0.59024E-02         0.00000E+00
    0.32227E-01         0.44756E-02         0.00000E+00
    0.26469E-01         0.32169E-02         0.00000E+00
    0.20382E-01         0.21313E-02         0.00000E+00
    0.13953E-01         0.12258E-02         0.00000E+00
    0.71641E-02         0.51063E-03         0.00000E+00
    0.00000E+00         0.00000E+00         0.00000E+00
    0.78217E-01         0.45843E-01         0.00000E+00
    0.78082E-01         0.44322E-01         0.00000E+00
    0.77818E-01         0.42566E-01         0.00000E+00
    0.77385E-01         0.40594E-01         0.00000E+00
    0.76742E-01         0.38430E-01         0.00000E+00
    0.75854E-01         0.36103E-01         0.00000E+00
    0.74688E-01         0.33649E-01         0.00000E+00
    0.73222E-01         0.31105E-01         0.00000E+00
    0.71439E-01         0.28510E-01         0.00000E+00
    0.69330E-01         0.25902E-01         0.00000E+00
    0.66892E-01         0.23315E-01         0.00000E+00
    0.64127E-01         0.20781E-01         0.00000E+00
    0.61040E-01         0.18326E-01         0.00000E+00
    0.57638E-01         0.15974E-01         0.00000E+00
    0.53928E-01         0.13740E-01         0.00000E+00
    0.49916E-01         0.11639E-01         0.00000E+00
    0.45606E-01         0.96818E-02         0.00000E+00
    0.41000E-01         0.78751E-02         0.00000E+00
    0.36096E-01         0.62256E-02         0.00000E+00
    0.30888E-01         0.47387E-02         0.00000E+00
    0.25372E-01         0.34203E-02         0.00000E+00
    0.19536E-01         0.22772E-02         0.00000E+00
    0.13370E-01         0.13180E-02         0.00000E+00
    0.68616E-02         0.55407E-03         0.00000E+00
    0.00000E+00         0.00000E+00         0.00000E+00
    0.74966E-01         0.45704E-01         0.00000E+00
    0.74736E-01         0.44203E-01         0.00000E+00
    0.74393E-01         0.42480E-01         0.00000E+00
    0.73898E-01         0.40552E-01         0.00000E+00
    0.73216E-01         0.38441E-01         0.00000E+00
    0.72314E-01         0.36175E-01         0.00000E+00
    0.71164E-01         0.33784E-01         0.00000E+00
    0.69743E-01         0.31303E-01         0.00000E+00
    0.68035E-01         0.28767E-01         0.00000E+00
    0.66030E-01         0.26209E-01         0.00000E+00
    0.63721E-01         0.23662E-01         0.00000E+00
    0.61108E-01         0.21155E-01         0.00000E+00
    0.58191E-01         0.18715E-01         0.00000E+00
    0.54975E-01         0.16363E-01         0.00000E+00
    0.51463E-01         0.14119E-01         0.00000E+00
    0.47658E-01         0.11997E-01         0.00000E+00
    0.43562E-01         0.10008E-01         0.00000E+00
    0.39177E-01         0.81643E-02         0.00000E+00
    0.34499E-01         0.64728E-02         0.00000E+00
    0.29527E-01         0.49415E-02         0.00000E+00
    0.24253E-01         0.35781E-02         0.00000E+00
    0.18672E-01         0.23912E-02         0.00000E+00
    0.12774E-01         0.13907E-02         0.00000E+00
    0.65531E-02         0.58873E-03         0.00000E+00
    0.00000E+00         0.00000E+00         0.00000E+00
    0.71746E-01         0.45471E-01         0.00000E+00
    0.71435E-01         0.43988E-01         0.00000E+00
    0.71025E-01         0.42294E-01         0.00000E+00
    0.70481E-01         0.40404E-01         0.00000E+00
    0.69769E-01         0.38341E-01         0.00000E+00
    0.68860E-01         0.36128E-01         0.00000E+00
    0.67728E-01         0.33794E-01         0.00000E+00
    0.66351E-01         0.31370E-01         0.00000E+00
    0.64713E-01         0.28887E-01         0.00000E+00
    0.62803E-01         0.26376E-01         0.00000E+00
    0.60614E-01         0.23869E-01         0.00000E+00
    0.58140E-01         0.21392E-01         0.00000E+00
    0.55381E-01         0.18971E-01         0.00000E+00
    0.52338E-01         0.16628E-01         0.00000E+00
    0.49012E-01         0.14382E-01         0.00000E+00
    0.45404E-01         0.12249E-01         0.00000E+00
    0.41515E-01         0.10242E-01         0.00000E+00
    0.37345E-01         0.83738E-02         0.00000E+00
    0.32891E-01         0.66538E-02         0.00000E+00
    0.28151E-01         0.50914E-02         0.00000E+00
    0.23122E-01         0.36959E-02         0.00000E+00
    0.17797E-01         0.24772E-02         0.00000E+00
    0.12172E-01         0.14463E-02         0.00000E+00
    0.62410E-02         0.61556E-03         0.00000E+00
    0.00000E+00         0.00000E+00         0.00000E+00
    0.68552E-01         0.45156E-01         0.00000E+00
    0.68173E-01         0.43689E-01         0.00000E+00
    0.67708E-01         0.42021E-01         0.00000E+00
    0.67124E-01         0.40167E-01         0.00000E+00
    0.66391E-01         0.38146E-01         0.00000E+00
    0.65480E-01         0.35981E-01         0.00000E+00
    0.64369E-01         0.33698E-01         0.00000E+00
    0.63036E-01         0.31325E-01         0.00000E+00
    0.61465E-01         0.28891E-01         0.00000E+00
    0.59644E-01         0.26426E-01         0.00000E+00
    0.57565E-01         0.23957E-01         0.00000E+00
    0.55221E-01         0.21512E-01         0.00000E+00
    0.52611E-01         0.19114E-01         0.00000E+00
    0.49731E-01         0.16785E-01         0.00000E+00
    0.46581E-01         0.14545E-01         0.00000E+00
    0.43162E-01         0.12411E-01         0.00000E+00
    0.39472E-01         0.10396E-01         0.00000E+00
    0.35512E-01         0.85147E-02         0.00000E+00
    0.31279E-01         0.67775E-02         0.00000E+00
    0.26771E-01         0.51954E-02         0.00000E+00
    0.21985E-01         0.37789E-02         0.00000E+00
    0.16918E-01         0.25388E-02         0.00000E+00
    0.11566E-01         0.14867E-02         0.00000E+00
    0.59275E-02         0.63550E-03         0.00000E+00
    0.00000E+00         0.00000E+00         0.00000E+00
    0.65378E-01         0.44774E-01         0.00000E+00
    0.64943E-01         0.43320E-01         0.00000E+00
    0.64434E-01         0.41675E-01         0.00000E+00
    0.63820E-01         0.39852E-01         0.00000E+00
    0.63073E-01         0.37870E-01         0.00000E+00
    0.62166E-01         0.35748E-01         0.00000E+00
    0.61078E-01         0.33512E-01         0.00000E+00
    0.59789E-01         0.31186E-01         0.00000E+00
    0.58283E-01         0.28798E-01         0.00000E+00
    0.56547E-01         0.26376E-01         0.00000E+00
    0.54572E-01         0.23946E-01         0.00000E+00
    0.52351E-01         0.21533E-01         0.00000E+00
    0.49879E-01         0.19161E-01         0.00000E+00
    0.47154E-01         0.16852E-01         0.00000E+00
    0.44174E-01         0.14624E-01         0.00000E+00
    0.40936E-01         0.12496E-01         0.00000E+00
    0.37440E-01         0.10482E-01         0.00000E+00
    0.33685E-01         0.85969E-02         0.00000E+00
    0.29670E-01         0.68522E-02         0.00000E+00
    0.25391E-01         0.52601E-02         0.00000E+00
    0.20848E-01         0.38319E-02         0.00000E+00
    0.16038E-01         0.25792E-02         0.00000E+00
    0.10961E-01         0.15140E-02         0.00000E+00
    0.56143E-02         0.64942E-03         0.00000E+00
    0.00000E+00         0.00000E+00         0.00000E+00
    0.62221E-01         0.44337E-01         0.00000E+00
    0.61741E-01         0.42894E-01         0.00000E+00
    0.61198E-01         0.41269E-01         0.00000E+00
    0.60562E-01         0.39475E-01         0.00000E+00
    0.59808E-01         0.37527E-01         0.00000E+00
    0.58910E-01         0.35445E-01         0.00000E+00
    0.57848E-01         0.33251E-01         0.00000E+00
    0.56603E-01         0.30969E-01         0.00000E+00
    0.55160E-01         0.28625E-01         0.00000E+00
    0.53506E-01         0.26244E-01         0.00000E+00
    0.51630E-01         0.23852E-01         0.00000E+00
    0.49526E-01         0.21473E-01         0.00000E+00
    0.47188E-01         0.19129E-01         0.00000E+00
    0.44611E-01         0.16843E-01         0.00000E+00
    0.41793E-01         0.14633E-01         0.00000E+00
    0.38732E-01         0.12517E-01         0.00000E+00
    0.35425E-01         0.10511E-01         0.00000E+00
    0.31871E-01         0.86296E-02         0.00000E+00
    0.28069E-01         0.68855E-02         0.00000E+00
    0.24018E-01         0.52914E-02         0.00000E+00
    0.19716E-01         0.38594E-02         0.00000E+00
    0.15163E-01         0.26015E-02         0.00000E+00
    0.10358E-01         0.15301E-02         0.00000E+00
    0.53028E-02         0.65816E-03         0.00000E+00
    0.00000E+00         0.00000E+00         0.00000E+00
    0.59077E-01         0.43856E-01         0.00000E+00
    0.58562E-01         0.42422E-01         0.00000E+00
    0.57994E-01         0.40816E-01         0.00000E+00
    0.57345E-01         0.39047E-01         0.00000E+00
    0.56590E-01         0.37131E-01         0.00000E+00
    0.55706E-01         0.35085E-01         0.00000E+00
    0.54673E-01         0.32930E-01         0.00000E+00
    0.53473E-01         0.30689E-01         0.00000E+00
    0.52092E-01         0.28386E-01         0.00000E+00
    0.50517E-01         0.26045E-01         0.00000E+00
    0.48738E-01         0.23690E-01         0.00000E+00
    0.46747E-01         0.21345E-01         0.00000E+00
    0.44536E-01         0.19032E-01         0.00000E+00
    0.42103E-01         0.16772E-01         0.00000E+00
    0.39442E-01         0.14584E-01         0.00000E+00
    0.36551E-01         0.12485E-01         0.00000E+00
    0.33429E-01         0.10493E-01         0.00000E+00
    0.30073E-01         0.86212E-02         0.00000E+00
    0.26482E-01         0.68842E-02         0.00000E+00
    0.22655E-01         0.52948E-02         0.00000E+00
    0.18592E-01         0.38655E-02         0.00000E+00
    0.14294E-01         0.26086E-02         0.00000E+00
    0.97601E-02         0.15366E-02         0.00000E+00
    0.49942E-02         0.66247E-03         0.00000E+00
    0.00000E+00         0.00000E+00         0.00000E+00
    0.55943E-01         0.43342E-01         0.00000E+00
    0.55404E-01         0.41916E-01         0.00000E+00
    0.54820E-01         0.40326E-01         0.00000E+00
    0.54164E-01         0.38581E-01         0.00000E+00
    0.53414E-01         0.36693E-01         0.00000E+00
    0.52547E-01         0.34681E-01         0.00000E+00
    0.51546E-01         0.32562E-01         0.00000E+00
    0.50394E-01         0.30360E-01         0.00000E+00
    0.49075E-01         0.28096E-01         0.00000E+00
    0.47578E-01         0.25793E-01         0.00000E+00
    0.45892E-01         0.23475E-01         0.00000E+00
    0.44010E-01         0.21164E-01         0.00000E+00
    0.41924E-01         0.18883E-01         0.00000E+00
    0.39629E-01         0.16651E-01         0.00000E+00
    0.37122E-01         0.14487E-01         0.00000E+00
    0.34398E-01         0.12410E-01         0.00000E+00
    0.31456E-01         0.10436E-01         0.00000E+00
    0.28294E-01         0.85791E-02         0.00000E+00
    0.24911E-01         0.68545E-02         0.00000E+00
    0.21307E-01         0.52751E-02         0.00000E+00
    0.17481E-01         0.38538E-02         0.00000E+00
    0.13434E-01         0.26030E-02         0.00000E+00
    0.91691E-02         0.15352E-02         0.00000E+00
    0.46894E-02         0.66309E-03         0.00000E+00
    0.00000E+00         0.00000E+00         0.00000E+00
    0.52817E-01         0.42806E-01         0.00000E+00
    0.52263E-01         0.41387E-01         0.00000E+00
    0.51670E-01         0.39811E-01         0.00000E+00
    0.51015E-01         0.38087E-01         0.00000E+00
    0.50275E-01         0.36225E-01         0.00000E+00
    0.49431E-01         0.34244E-01         0.00000E+00
    0.48464E-01         0.32159E-01         0.00000E+00
    0.47360E-01         0.29992E-01         0.00000E+00
    0.46104E-01         0.27765E-01         0.00000E+00
    0.44684E-01         0.25500E-01         0.00000E+00
    0.43091E-01         0.23218E-01         0.00000E+00
    0.41315E-01         0.20942E-01         0.00000E+00
    0.39350E-01         0.18692E-01         0.00000E+00
    0.37191E-01         0.16490E-01         0.00000E+00
    0.34833E-01         0.14354E-01         0.00000E+00
    0.32273E-01         0.12301E-01         0.00000E+00
    0.29509E-01         0.10348E-01         0.00000E+00
    0.26538E-01         0.85100E-02         0.00000E+00
    0.23360E-01         0.68019E-02         0.00000E+00
    0.19975E-01         0.52369E-02         0.00000E+00
    0.16383E-01         0.38278E-02         0.00000E+00
    0.12586E-01         0.25872E-02         0.00000E+00
    0.85862E-02         0.15273E-02         0.00000E+00
    0.43890E-02         0.66065E-03         0.00000E+00
    0.00000E+00         0.00000E+00         0.00000E+00
    0.49696E-01         0.42256E-01         0.00000E+00
    0.49136E-01         0.40843E-01         0.00000E+00
    0.48542E-01         0.39281E-01         0.00000E+00
    0.47893E-01         0.37575E-01         0.00000E+00
    0.47169E-01         0.35738E-01         0.00000E+00
    0.46351E-01         0.33784E-01         0.00000E+00
    0.45423E-01         0.31731E-01         0.00000E+00
    0.44369E-01         0.29599E-01         0.00000E+00
    0.43176E-01         0.27406E-01         0.00000E+00
    0.41834E-01         0.25176E-01         0.00000E+00
    0.40331E-01         0.22929E-01         0.00000E+00
    0.38660E-01         0.20687E-01         0.00000E+00
    0.36815E-01         0.18471E-01         0.00000E+00
    0.34789E-01         0.16299E-01         0.00000E+00
    0.32578E-01         0.14191E-01         0.00000E+00
    0.30178E-01         0.12165E-01         0.00000E+00
    0.27588E-01         0.10236E-01         0.00000E+00
    0.24806E-01         0.84199E-02         0.00000E+00
    0.21830E-01         0.67315E-02         0.00000E+00
    0.18661E-01         0.51841E-02         0.00000E+00
    0.15300E-01         0.37905E-02         0.00000E+00
    0.11750E-01         0.25632E-02         0.00000E+00
    0.80123E-02         0.15142E-02         0.00000E+00
    0.40936E-02         0.65577E-03         0.00000E+00
    0.00000E+00         0.00000E+00         0.00000E+00
    0.46579E-01         0.41703E-01         0.00000E+00
    0.46021E-01         0.40295E-01         0.00000E+00
    0.45433E-01         0.38743E-01         0.00000E+00
    0.44797E-01         0.37055E-01         0.00000E+00
    0.44094E-01         0.35240E-01         0.00000E+00
    0.43306E-01         0.33313E-01         0.00000E+00
    0.42418E-01         0.31289E-01         0.00000E+00
    0.41416E-01         0.29188E-01         0.00000E+00
    0.40288E-01         0.27029E-01         0.00000E+00
    0.39023E-01         0.24832E-01         0.00000E+00
    0.37611E-01         0.22620E-01         0.00000E+00
    0.36044E-01         0.20411E-01         0.00000E+00
    0.34316E-01         0.18227E-01         0.00000E+00
    0.32421E-01         0.16086E-01         0.00000E+00
    0.30355E-01         0.14008E-01         0.00000E+00
    0.28113E-01         0.12009E-01         0.00000E+00
    0.25695E-01         0.10106E-01         0.00000E+00
    0.23098E-01         0.83142E-02         0.00000E+00
    0.20322E-01         0.66477E-02         0.00000E+00
    0.17367E-01         0.51203E-02         0.00000E+00
    0.14235E-01         0.37446E-02         0.00000E+00
    0.10927E-01         0.25329E-02         0.00000E+00
    0.74481E-02         0.14972E-02         0.00000E+00
    0.38034E-02         0.64897E-03         0.00000E+00
    0.00000E+00         0.00000E+00         0.00000E+00
    0.43466E-01         0.41153E-01         0.00000E+00
    0.42916E-01         0.39749E-01         0.00000E+00
    0.42341E-01         0.38208E-01         0.00000E+00
    0.41723E-01         0.36535E-01         0.00000E+00
    0.41045E-01         0.34741E-01         0.00000E+00
    0.40291E-01         0.32837E-01         0.00000E+00
    0.39447E-01         0.30841E-01         0.00000E+00
    0.38500E-01         0.28769E-01         0.00000E+00
    0.37437E-01         0.26641E-01         0.00000E+00
    0.36250E-01         0.24477E-01         0.00000E+00
    0.34928E-01         0.22297E-01         0.00000E+00
    0.33465E-01         0.20121E-01         0.00000E+00
    0.31853E-01         0.17969E-01         0.00000E+00
    0.30087E-01         0.15860E-01         0.00000E+00
    0.28164E-01         0.13811E-01         0.00000E+00
    0.26079E-01         0.11840E-01         0.00000E+00
    0.23830E-01         0.99643E-02         0.00000E+00
    0.21416E-01         0.81975E-02         0.00000E+00
    0.18837E-01         0.65545E-02         0.00000E+00
    0.16093E-01         0.50486E-02         0.00000E+00
    0.13186E-01         0.36924E-02         0.00000E+00
    0.10118E-01         0.24981E-02         0.00000E+00
    0.68939E-02         0.14771E-02         0.00000E+00
    0.35187E-02         0.64074E-03         0.00000E+00
    0.00000E+00         0.00000E+00         0.00000E+00
    0.40355E-01         0.40614E-01         0.00000E+00
    0.39820E-01         0.39214E-01         0.00000E+00
    0.39263E-01         0.37682E-01         0.00000E+00
    0.38668E-01         0.36023E-01         0.00000E+00
    0.38020E-01         0.34247E-01         0.00000E+00
    0.37304E-01         0.32366E-01         0.00000E+00
    0.36507E-01         0.30395E-01         0.00000E+00
    0.35616E-01         0.28351E-01         0.00000E+00
    0.34621E-01         0.26252E-01         0.00000E+00
    0.33512E-01         0.24119E-01         0.00000E+00
    0.32281E-01         0.21970E-01         0.00000E+00
    0.30920E-01         0.19825E-01         0.00000E+00
    0.29424E-01         0.17704E-01         0.00000E+00
    0.27786E-01         0.15625E-01         0.00000E+00
    0.26004E-01         0.13606E-01         0.00000E+00
    0.24073E-01         0.11664E-01         0.00000E+00
    0.21993E-01         0.98150E-02         0.00000E+00
    0.19760E-01         0.80741E-02         0.00000E+00
    0.17376E-01         0.64553E-02         0.00000E+00
    0.14840E-01         0.49718E-02         0.00000E+00
    0.12155E-01         0.36362E-02         0.00000E+00
    0.93237E-02         0.24603E-02         0.00000E+00
    0.63500E-02         0.14551E-02         0.00000E+00
    0.32396E-02         0.63151E-03         0.00000E+00
    0.00000E+00         0.00000E+00         0.00000E+00
    0.37246E-01         0.40092E-01         0.00000E+00
    0.36731E-01         0.38696E-01         0.00000E+00
    0.36198E-01         0.37172E-01         0.00000E+00
    0.35632E-01         0.35526E-01         0.00000E+00
    0.35018E-01         0.33766E-01         0.00000E+00
    0.34343E-01         0.31905E-01         0.00000E+00
    0.33595E-01         0.29957E-01         0.00000E+00
    0.32762E-01         0.27939E-01         0.00000E+00
    0.31836E-01         0.25868E-01         0.00000E+00
    0.30807E-01         0.23763E-01         0.00000E+00
    0.29667E-01         0.21644E-01         0.00000E+00
    0.28409E-01         0.19529E-01         0.00000E+00
    0.27027E-01         0.17438E-01         0.00000E+00
    0.25517E-01         0.15389E-01         0.00000E+00
    0.23875E-01         0.13399E-01         0.00000E+00
    0.22097E-01         0.11485E-01         0.00000E+00
    0.20182E-01         0.96627E-02         0.00000E+00
    0.18129E-01         0.79476E-02         0.00000E+00
    0.15937E-01         0.63532E-02         0.00000E+00
    0.13607E-01         0.48925E-02         0.00000E+00
    0.11142E-01         0.35779E-02         0.00000E+00
    0.85433E-02         0.24207E-02         0.00000E+00
    0.58161E-02         0.14319E-02         0.00000E+00
    0.29659E-02         0.62167E-03         0.00000E+00
    0.00000E+00         0.00000E+00         0.00000E+00
    0.34138E-01         0.39594E-01         0.00000E+00
    0.33649E-01         0.38200E-01         0.00000E+00
    0.33145E-01         0.36683E-01         0.00000E+00
    0.32611E-01         0.35049E-01         0.00000E+00
    0.32034E-01         0.33305E-01         0.00000E+00
    0.31404E-01         0.31462E-01         0.00000E+00
    0.30708E-01         0.29536E-01         0.00000E+00
    0.29937E-01         0.27541E-01         0.00000E+00
    0.29081E-01         0.25495E-01         0.00000E+00
    0.28132E-01         0.23417E-01         0.00000E+00
    0.27083E-01         0.21325E-01         0.00000E+00
    0.25928E-01         0.19239E-01         0.00000E+00
    0.24661E-01         0.17176E-01         0.00000E+00
    0.23278E-01         0.15155E-01         0.00000E+00
    0.21775E-01         0.13193E-01         0.00000E+00
    0.20149E-01         0.11307E-01         0.00000E+00
    0.18398E-01         0.95110E-02         0.00000E+00
    0.16522E-01         0.78212E-02         0.00000E+00
    0.14521E-01         0.62508E-02         0.00000E+00
    0.12395E-01         0.48128E-02         0.00000E+00
    0.10146E-01         0.35190E-02         0.00000E+00
    0.77767E-02         0.23807E-02         0.00000E+00
    0.52922E-02         0.14082E-02         0.00000E+00
    0.26976E-02         0.61156E-03         0.00000E+00
    0.00000E+00         0.00000E+00         0.00000E+00
    0.31031E-01         0.39123E-01         0.00000E+00
    0.30573E-01         0.37732E-01         0.00000E+00
    0.30102E-01         0.36222E-01         0.00000E+00
    0.29604E-01         0.34598E-01         0.00000E+00
    0.29069E-01         0.32867E-01         0.00000E+00
    0.28486E-01         0.31042E-01         0.00000E+00
    0.27844E-01         0.29134E-01         0.00000E+00
    0.27136E-01         0.27161E-01         0.00000E+00
    0.26352E-01         0.25139E-01         0.00000E+00
    0.25485E-01         0.23086E-01         0.00000E+00
    0.24528E-01         0.21020E-01         0.00000E+00
    0.23476E-01         0.18960E-01         0.00000E+00
    0.22324E-01         0.16924E-01         0.00000E+00
    0.21067E-01         0.14929E-01         0.00000E+00
    0.19702E-01         0.12994E-01         0.00000E+00
    0.18227E-01         0.11133E-01         0.00000E+00
    0.16639E-01         0.93631E-02         0.00000E+00
    0.14939E-01         0.76977E-02         0.00000E+00
    0.13126E-01         0.61507E-02         0.00000E+00
    0.11201E-01         0.47346E-02         0.00000E+00
    0.91657E-02         0.34611E-02         0.00000E+00
    0.70233E-02         0.23411E-02         0.00000E+00
    0.47777E-02         0.13848E-02         0.00000E+00
    0.24344E-02         0.60146E-03         0.00000E+00
    0.00000E+00         0.00000E+00         0.00000E+00
    0.27925E-01         0.38685E-01         0.00000E+00
    0.27502E-01         0.37296E-01         0.00000E+00
    0.27067E-01         0.35792E-01         0.00000E+00
    0.26610E-01         0.34177E-01         0.00000E+00
    0.26119E-01         0.32459E-01         0.00000E+00
    0.25586E-01         0.30648E-01         0.00000E+00
    0.25001E-01         0.28758E-01         0.00000E+00
    0.24358E-01         0.26805E-01         0.00000E+00
    0.23647E-01         0.24804E-01         0.00000E+00
    0.22863E-01         0.22773E-01         0.00000E+00
    0.22000E-01         0.20731E-01         0.00000E+00
    0.21051E-01         0.18696E-01         0.00000E+00
    0.20013E-01         0.16684E-01         0.00000E+00
    0.18882E-01         0.14715E-01         0.00000E+00
    0.17655E-01         0.12804E-01         0.00000E+00
    0.16329E-01         0.10968E-01         0.00000E+00
    0.14904E-01         0.92218E-02         0.00000E+00
    0.13378E-01         0.75796E-02         0.00000E+00
    0.11751E-01         0.60547E-02         0.00000E+00
    0.10025E-01         0.46595E-02         0.00000E+00
    0.82013E-02         0.34054E-02         0.00000E+00
    0.62824E-02         0.23030E-02         0.00000E+00
    0.42723E-02         0.13621E-02         0.00000E+00
    0.21761E-02         0.59164E-03         0.00000E+00
    0.00000E+00         0.00000E+00         0.00000E+00
    0.24819E-01         0.38284E-01         0.00000E+00
    0.24436E-01         0.36897E-01         0.00000E+00
    0.24041E-01         0.35398E-01         0.00000E+00
    0.23626E-01         0.33791E-01         0.00000E+00
    0.23183E-01         0.32084E-01         0.00000E+00
    0.22702E-01         0.30286E-01         0.00000E+00
    0.22177E-01         0.28412E-01         0.00000E+00
    0.21600E-01         0.26476E-01         0.00000E+00
    0.20965E-01         0.24494E-01         0.00000E+00
    0.20265E-01         0.22484E-01         0.00000E+00
    0.19495E-01         0.20464E-01         0.00000E+00
    0.18650E-01         0.18450E-01         0.00000E+00
    0.17727E-01         0.16462E-01         0.00000E+00
    0.16721E-01         0.14515E-01         0.00000E+00
    0.15632E-01         0.12627E-01         0.00000E+00
    0.14455E-01         0.10814E-01         0.00000E+00
    0.13190E-01         0.90897E-02         0.00000E+00
    0.11837E-01         0.74689E-02         0.00000E+00
    0.10396E-01         0.59646E-02         0.00000E+00
    0.88664E-02         0.45889E-02         0.00000E+00
    0.72514E-02         0.33529E-02         0.00000E+00
    0.55532E-02         0.22670E-02         0.00000E+00
    0.37752E-02         0.13406E-02         0.00000E+00
    0.19223E-02         0.58232E-03         0.00000E+00
    0.00000E+00         0.00000E+00         0.00000E+00
    0.21715E-01         0.37923E-01         0.00000E+00
    0.21373E-01         0.36537E-01         0.00000E+00
    0.21021E-01         0.35043E-01         0.00000E+00
    0.20652E-01         0.33443E-01         0.00000E+00
    0.20259E-01         0.31745E-01         0.00000E+00
    0.19833E-01         0.29959E-01         0.00000E+00
    0.19370E-01         0.28099E-01         0.00000E+00
    0.18861E-01         0.26178E-01         0.00000E+00
    0.18301E-01         0.24214E-01         0.00000E+00
    0.17686E-01         0.22222E-01         0.00000E+00
    0.17011E-01         0.20220E-01         0.00000E+00
    0.16270E-01         0.18227E-01         0.00000E+00
    0.15462E-01         0.16259E-01         0.00000E+00
    0.14582E-01         0.14333E-01         0.00000E+00
    0.13629E-01         0.12466E-01         0.00000E+00
    0.12601E-01         0.10673E-01         0.00000E+00
    0.11497E-01         0.89687E-02         0.00000E+00
    0.10315E-01         0.73675E-02         0.00000E+00
    0.90569E-02         0.58819E-02         0.00000E+00
    0.77229E-02         0.45240E-02         0.00000E+00
    0.63147E-02         0.33047E-02         0.00000E+00
    0.48346E-02         0.22339E-02         0.00000E+00
    0.32858E-02         0.13208E-02         0.00000E+00
    0.16726E-02         0.57369E-03         0.00000E+00
    0.00000E+00         0.00000E+00         0.00000E+00
    0.18611E-01         0.37604E-01         0.00000E+00
    0.18313E-01         0.36220E-01         0.00000E+00
    0.18007E-01         0.34729E-01         0.00000E+00
    0.17687E-01         0.33135E-01         0.00000E+00
    0.17345E-01         0.31446E-01         0.00000E+00
    0.16977E-01         0.29670E-01         0.00000E+00
    0.16576E-01         0.27822E-01         0.00000E+00
    0.16137E-01         0.25915E-01         0.00000E+00
    0.15655E-01         0.23965E-01         0.00000E+00
    0.15126E-01         0.21989E-01         0.00000E+00
    0.14546E-01         0.20004E-01         0.00000E+00
    0.13910E-01         0.18028E-01         0.00000E+00
    0.13217E-01         0.16078E-01         0.00000E+00
    0.12463E-01         0.14170E-01         0.00000E+00
    0.11646E-01         0.12322E-01         0.00000E+00
    0.10766E-01         0.10547E-01         0.00000E+00
    0.98203E-02         0.88605E-02         0.00000E+00
    0.88096E-02         0.72767E-02         0.00000E+00
    0.77336E-02         0.58080E-02         0.00000E+00
    0.65932E-02         0.44659E-02         0.00000E+00
    0.53898E-02         0.32614E-02         0.00000E+00
    0.41256E-02         0.22041E-02         0.00000E+00
    0.28033E-02         0.13030E-02         0.00000E+00
    0.14266E-02         0.56591E-03         0.00000E+00
    0.00000E+00         0.00000E+00         0.00000E+00
    0.15508E-01         0.37330E-01         0.00000E+00
    0.15257E-01         0.35948E-01         0.00000E+00
    0.14999E-01         0.34460E-01         0.00000E+00
    0.14728E-01         0.32871E-01         0.00000E+00
    0.14441E-01         0.31189E-01         0.00000E+00
    0.14131E-01         0.29422E-01         0.00000E+00
    0.13795E-01         0.27583E-01         0.00000E+00
    0.13427E-01         0.25688E-01         0.00000E+00
    0.13024E-01         0.23750E-01         0.00000E+00
    0.12581E-01         0.21788E-01         0.00000E+00
    0.12096E-01         0.19818E-01         0.00000E+00
    0.11566E-01         0.17857E-01         0.00000E+00
    0.10988E-01         0.15922E-01         0.00000E+00
    0.10360E-01         0.14030E-01         0.00000E+00
    0.96795E-02         0.12197E-01         0.00000E+00
    0.89464E-02         0.10437E-01         0.00000E+00
    0.81595E-02         0.87667E-02         0.00000E+00
    0.73186E-02         0.71979E-02         0.00000E+00
    0.64237E-02         0.57437E-02         0.00000E+00
    0.54755E-02         0.44154E-02         0.00000E+00
    0.44753E-02         0.32238E-02         0.00000E+00
    0.34249E-02         0.21782E-02         0.00000E+00
    0.23267E-02         0.12875E-02         0.00000E+00
    0.11838E-02         0.55911E-03         0.00000E+00
    0.00000E+00         0.00000E+00         0.00000E+00
    0.12406E-01         0.37104E-01         0.00000E+00
    0.12203E-01         0.35722E-01         0.00000E+00
    0.11994E-01         0.34237E-01         0.00000E+00
    0.11776E-01         0.32653E-01         0.00000E+00
    0.11544E-01         0.30976E-01         0.00000E+00
    0.11294E-01         0.29216E-01         0.00000E+00
    0.11024E-01         0.27386E-01         0.00000E+00
    0.10728E-01         0.25499E-01         0.00000E+00
    0.10404E-01         0.23572E-01         0.00000E+00
    0.10049E-01         0.21621E-01         0.00000E+00
    0.96609E-02         0.19663E-01         0.00000E+00
    0.92362E-02         0.17714E-01         0.00000E+00
    0.87733E-02         0.15792E-01         0.00000E+00
    0.82706E-02         0.13913E-01         0.00000E+00
    0.77267E-02         0.12093E-01         0.00000E+00
    0.71406E-02         0.10346E-01         0.00000E+00
    0.65118E-02         0.86884E-02         0.00000E+00
    0.58399E-02         0.71322E-02         0.00000E+00
    0.51251E-02         0.56900E-02         0.00000E+00
    0.43680E-02         0.43732E-02         0.00000E+00
    0.35696E-02         0.31923E-02         0.00000E+00
    0.27313E-02         0.21566E-02         0.00000E+00
    0.18552E-02         0.12744E-02         0.00000E+00
    0.94370E-03         0.55340E-03         0.00000E+00
    0.00000E+00         0.00000E+00         0.00000E+00
    0.93039E-02         0.36926E-01         0.00000E+00
    0.91503E-02         0.35546E-01         0.00000E+00
    0.89926E-02         0.34063E-01         0.00000E+00
    0.88278E-02         0.32481E-01         0.00000E+00
    0.86528E-02         0.30808E-01         0.00000E+00
    0.84647E-02         0.29054E-01         0.00000E+00
    0.82607E-02         0.27230E-01         0.00000E+00
    0.80382E-02         0.25351E-01         0.00000E+00
    0.77947E-02         0.23432E-01         0.00000E+00
    0.75280E-02         0.21490E-01         0.00000E+00
    0.72361E-02         0.19541E-01         0.00000E+00
    0.69173E-02         0.17601E-01         0.00000E+00
    0.65700E-02         0.15689E-01         0.00000E+00
    0.61929E-02         0.13820E-01         0.00000E+00
    0.57851E-02         0.12010E-01         0.00000E+00
    0.53458E-02         0.10274E-01         0.00000E+00
    0.48745E-02         0.86266E-02         0.00000E+00
    0.43711E-02         0.70802E-02         0.00000E+00
    0.38357E-02         0.56475E-02         0.00000E+00
    0.32687E-02         0.43398E-02         0.00000E+00
    0.26709E-02         0.31674E-02         0.00000E+00
    0.20434E-02         0.21394E-02         0.00000E+00
    0.13877E-02         0.12641E-02         0.00000E+00
    0.70582E-03         0.54888E-03         0.00000E+00
    0.00000E+00         0.00000E+00         0.00000E+00
    0.62024E-02         0.36799E-01         0.00000E+00
    0.60994E-02         0.35418E-01         0.00000E+00
    0.59937E-02         0.33937E-01         0.00000E+00
    0.58833E-02         0.32358E-01         0.00000E+00
    0.57661E-02         0.30688E-01         0.00000E+00
    0.56402E-02         0.28937E-01         0.00000E+00
    0.55038E-02         0.27118E-01         0.00000E+00
    0.53550E-02         0.25244E-01         0.00000E+00
    0.51924E-02         0.23331E-01         0.00000E+00
    0.50143E-02         0.21395E-01         0.00000E+00
    0.48196E-02         0.19452E-01         0.00000E+00
    0.46069E-02         0.17520E-01         0.00000E+00
    0.43752E-02         0.15615E-01         0.00000E+00
    0.41238E-02         0.13754E-01         0.00000E+00
    0.38520E-02         0.11951E-01         0.00000E+00
    0.35592E-02         0.10222E-01         0.00000E+00
    0.32452E-02         0.85819E-02         0.00000E+00
    0.29099E-02         0.70426E-02         0.00000E+00
    0.25532E-02         0.56168E-02         0.00000E+00
    0.21756E-02         0.43157E-02         0.00000E+00
    0.17776E-02         0.31494E-02         0.00000E+00
    0.13598E-02         0.21270E-02         0.00000E+00
    0.92342E-03         0.12567E-02         0.00000E+00
    0.46962E-03         0.54560E-03         0.00000E+00
    0.00000E+00         0.00000E+00         0.00000E+00
    0.31011E-02         0.36722E-01         0.00000E+00
    0.30495E-02         0.35342E-01         0.00000E+00
    0.29964E-02         0.33861E-01         0.00000E+00
    0.29411E-02         0.32283E-01         0.00000E+00
    0.28823E-02         0.30615E-01         0.00000E+00
    0.28192E-02         0.28867E-01         0.00000E+00
    0.27509E-02         0.27051E-01         0.00000E+00
    0.26764E-02         0.25180E-01         0.00000E+00
    0.25950E-02         0.23270E-01         0.00000E+00
    0.25059E-02         0.21338E-01         0.00000E+00
    0.24084E-02         0.19399E-01         0.00000E+00
    0.23020E-02         0.17471E-01         0.00000E+00
    0.21862E-02         0.15571E-01         0.00000E+00
    0.20605E-02         0.13713E-01         0.00000E+00
    0.19246E-02         0.11915E-01         0.00000E+00
    0.17782E-02         0.10191E-01         0.00000E+00
    0.16213E-02         0.85549E-02         0.00000E+00
    0.14537E-02         0.70199E-02         0.00000E+00
    0.12754E-02         0.55983E-02         0.00000E+00
    0.10868E-02         0.43011E-02         0.00000E+00
    0.88789E-03         0.31385E-02         0.00000E+00
    0.67919E-03         0.21194E-02         0.00000E+00
    0.46119E-03         0.12521E-02         0.00000E+00
    0.23453E-03         0.54362E-03         0.00000E+00
    0.00000E+00         0.00000E+00         0.00000E+00
    0.00000E+00         0.36696E-01         0.00000E+00
    0.00000E+00         0.35316E-01         0.00000E+00
    0.00000E+00         0.33836E-01         0.00000E+00
    0.00000E+00         0.32258E-01         0.00000E+00
    0.00000E+00         0.30591E-01         0.00000E+00
    0.00000E+00         0.28844E-01         0.00000E+00
    0.00000E+00         0.27028E-01         0.00000E+00
    0.00000E+00         0.25159E-01         0.00000E+00
    0.00000E+00         0.23250E-01         0.00000E+00
    0.00000E+00         0.21319E-01         0.00000E+00
    0.00000E+00         0.19382E-01         0.00000E+00
    0.00000E+00         0.17455E-01         0.00000E+00
    0.00000E+00         0.15556E-01         0.00000E+00
    0.00000E+00         0.13700E-01         0.00000E+00
    0.00000E+00         0.11903E-01         0.00000E+00
    0.00000E+00         0.10181E-01         0.00000E+00
    0.00000E+00         0.85459E-02         0.00000E+00
    0.00000E+00         0.70124E-02         0.00000E+00
    0.00000E+00         0.55921E-02         0.00000E+00
    0.00000E+00         0.42962E-02         0.00000E+00
    0.00000E+00         0.31348E-02         0.00000E+00
    0.00000E+00         0.21169E-02         0.00000E+00
    0.00000E+00         0.12506E-02         0.00000E+00
    0.00000E+00         0.54295E-03         0.00000E+00
    0.00000E+00         0.00000E+00         0.00000E+00
CELL_DATA       1152
VECTORS vDarcy double 
    0.78216E-03         0.86296E-03         0.00000E+00
    0.58134E-03         0.23363E-02         0.00000E+00
    0.32951E-03         0.33670E-02         0.00000E+00
    0.13968E-03         0.39674E-02         0.00000E+00
    0.37427E-04         0.43528E-02         0.00000E+00
   -0.28987E-04         0.46199E-02         0.00000E+00
   -0.78883E-04         0.48097E-02         0.00000E+00
   -0.10266E-03         0.49572E-02         0.00000E+00
   -0.87417E-04         0.50532E-02         0.00000E+00
   -0.52746E-04         0.50711E-02         0.00000E+00
   -0.29042E-04         0.49829E-02         0.00000E+00
   -0.18858E-04         0.48109E-02         0.00000E+00
   -0.73685E-05         0.45810E-02         0.00000E+00
    0.60211E-05         0.43018E-02         0.00000E+00
    0.19303E-04         0.39789E-02         0.00000E+00
    0.32723E-04         0.36214E-02         0.00000E+00
    0.45473E-04         0.32380E-02         0.00000E+00
    0.57456E-04         0.28341E-02         0.00000E+00
    0.67568E-04         0.24139E-02         0.00000E+00
    0.75149E-04         0.19841E-02         0.00000E+00
    0.81256E-04         0.15474E-02         0.00000E+00
    0.86135E-04         0.11051E-02         0.00000E+00
    0.89565E-04         0.66071E-03         0.00000E+00
    0.91359E-04         0.21810E-03         0.00000E+00
    0.26143E-02         0.10958E-02         0.00000E+00
    0.17844E-02         0.31342E-02         0.00000E+00
    0.81839E-03         0.37868E-02         0.00000E+00
    0.35799E-03         0.41978E-02         0.00000E+00
    0.90392E-04         0.44922E-02         0.00000E+00
   -0.76125E-04         0.47134E-02         0.00000E+00
   -0.18748E-03         0.48775E-02         0.00000E+00
   -0.24968E-03         0.49754E-02         0.00000E+00
   -0.24700E-03         0.50171E-02         0.00000E+00
   -0.18538E-03         0.50109E-02         0.00000E+00
   -0.11075E-03         0.49447E-02         0.00000E+00
   -0.58296E-04         0.47865E-02         0.00000E+00
   -0.19325E-04         0.45550E-02         0.00000E+00
    0.20345E-04         0.42747E-02         0.00000E+00
    0.60699E-04         0.39523E-02         0.00000E+00
    0.99667E-04         0.35956E-02         0.00000E+00
    0.13723E-03         0.32135E-02         0.00000E+00
    0.17154E-03         0.28123E-02         0.00000E+00
    0.20015E-03         0.23970E-02         0.00000E+00
    0.22323E-03         0.19703E-02         0.00000E+00
    0.24220E-03         0.15360E-02         0.00000E+00
    0.25724E-03         0.10966E-02         0.00000E+00
    0.26771E-03         0.65536E-03         0.00000E+00
    0.27314E-03         0.21623E-03         0.00000E+00
    0.61912E-02         0.48801E-02         0.00000E+00
    0.19537E-02         0.44173E-02         0.00000E+00
    0.98194E-03         0.44415E-02         0.00000E+00
    0.41480E-03         0.45706E-02         0.00000E+00
    0.80449E-04         0.47213E-02         0.00000E+00
   -0.12942E-03         0.48606E-02         0.00000E+00
   -0.25658E-03         0.49687E-02         0.00000E+00
   -0.32748E-03         0.50173E-02         0.00000E+00
   -0.35558E-03         0.50006E-02         0.00000E+00
   -0.32789E-03         0.49380E-02         0.00000E+00
   -0.23830E-03         0.48533E-02         0.00000E+00
   -0.12583E-03         0.47129E-02         0.00000E+00
   -0.31262E-04         0.44950E-02         0.00000E+00
    0.44622E-04         0.42191E-02         0.00000E+00
    0.11146E-03         0.39007E-02         0.00000E+00
    0.17213E-03         0.35476E-02         0.00000E+00
    0.22769E-03         0.31684E-02         0.00000E+00
    0.27853E-03         0.27723E-02         0.00000E+00
    0.32474E-03         0.23622E-02         0.00000E+00
    0.36554E-03         0.19412E-02         0.00000E+00
    0.39931E-03         0.15124E-02         0.00000E+00
    0.42540E-03         0.10791E-02         0.00000E+00
    0.44325E-03         0.64455E-03         0.00000E+00
    0.45236E-03         0.21251E-03         0.00000E+00
    0.98302E-03         0.75241E-02         0.00000E+00
    0.14905E-02         0.55032E-02         0.00000E+00
    0.75163E-03         0.50663E-02         0.00000E+00
    0.30269E-03         0.49619E-02         0.00000E+00
   -0.71593E-05         0.49743E-02         0.00000E+00
   -0.21074E-03         0.50211E-02         0.00000E+00
   -0.33480E-03         0.50594E-02         0.00000E+00
   -0.39839E-03         0.50610E-02         0.00000E+00
   -0.42110E-03         0.50077E-02         0.00000E+00
   -0.41536E-03         0.48976E-02         0.00000E+00
   -0.36620E-03         0.47551E-02         0.00000E+00
   -0.26195E-03         0.45944E-02         0.00000E+00
   -0.12937E-03         0.43864E-02         0.00000E+00
   -0.50605E-06         0.41231E-02         0.00000E+00
    0.11375E-03         0.38156E-02         0.00000E+00
    0.21309E-03         0.34726E-02         0.00000E+00
    0.29901E-03         0.31019E-02         0.00000E+00
    0.37514E-03         0.27118E-02         0.00000E+00
    0.44374E-03         0.23079E-02         0.00000E+00
    0.50352E-03         0.18950E-02         0.00000E+00
    0.55276E-03         0.14756E-02         0.00000E+00
    0.59019E-03         0.10523E-02         0.00000E+00
    0.61532E-03         0.62830E-03         0.00000E+00
    0.62795E-03         0.20701E-03         0.00000E+00
    0.21833E-03         0.63228E-02         0.00000E+00
    0.47517E-03         0.59402E-02         0.00000E+00
    0.36627E-03         0.54772E-02         0.00000E+00
    0.87081E-04         0.52792E-02         0.00000E+00
   -0.14507E-03         0.51990E-02         0.00000E+00
   -0.31166E-03         0.51666E-02         0.00000E+00
   -0.41325E-03         0.51396E-02         0.00000E+00
   -0.45915E-03         0.50903E-02         0.00000E+00
   -0.46064E-03         0.50026E-02         0.00000E+00
   -0.43092E-03         0.48672E-02         0.00000E+00
   -0.38002E-03         0.46854E-02         0.00000E+00
   -0.30153E-03         0.44814E-02         0.00000E+00
   -0.18881E-03         0.42541E-02         0.00000E+00
   -0.52018E-04         0.39897E-02         0.00000E+00
    0.92984E-04         0.36898E-02         0.00000E+00
    0.23283E-03         0.33593E-02         0.00000E+00
    0.35927E-03         0.30028E-02         0.00000E+00
    0.46951E-03         0.26245E-02         0.00000E+00
    0.56353E-03         0.22326E-02         0.00000E+00
    0.64179E-03         0.18323E-02         0.00000E+00
    0.70465E-03         0.14263E-02         0.00000E+00
    0.75201E-03         0.10169E-02         0.00000E+00
    0.78359E-03         0.60701E-03         0.00000E+00
    0.79934E-03         0.19993E-03         0.00000E+00
    0.44520E-04         0.60599E-02         0.00000E+00
    0.84210E-04         0.59065E-02         0.00000E+00
    0.18055E-04         0.56859E-02         0.00000E+00
   -0.12863E-03         0.54963E-02         0.00000E+00
   -0.28602E-03         0.53714E-02         0.00000E+00
   -0.40614E-03         0.52809E-02         0.00000E+00
   -0.47650E-03         0.51973E-02         0.00000E+00
   -0.49735E-03         0.50994E-02         0.00000E+00
   -0.47514E-03         0.49728E-02         0.00000E+00
   -0.41810E-03         0.48102E-02         0.00000E+00
   -0.33521E-03         0.46085E-02         0.00000E+00
   -0.23283E-03         0.43774E-02         0.00000E+00
   -0.11227E-03         0.41249E-02         0.00000E+00
    0.22879E-04         0.38470E-02         0.00000E+00
    0.16626E-03         0.35441E-02         0.00000E+00
    0.31178E-03         0.32196E-02         0.00000E+00
    0.45231E-03         0.28755E-02         0.00000E+00
    0.57997E-03         0.25139E-02         0.00000E+00
    0.69010E-03         0.21391E-02         0.00000E+00
    0.78204E-03         0.17556E-02         0.00000E+00
    0.85573E-03         0.13664E-02         0.00000E+00
    0.91103E-03         0.97412E-03         0.00000E+00
    0.94780E-03         0.58144E-03         0.00000E+00
    0.96605E-03         0.19151E-03         0.00000E+00
   -0.26450E-04         0.60419E-02         0.00000E+00
   -0.87995E-04         0.59464E-02         0.00000E+00
   -0.17398E-03         0.57981E-02         0.00000E+00
   -0.28223E-03         0.56390E-02         0.00000E+00
   -0.38883E-03         0.54927E-02         0.00000E+00
   -0.46885E-03         0.53598E-02         0.00000E+00
   -0.50832E-03         0.52283E-02         0.00000E+00
   -0.50425E-03         0.50852E-02         0.00000E+00
   -0.45988E-03         0.49204E-02         0.00000E+00
   -0.38182E-03         0.47275E-02         0.00000E+00
   -0.27823E-03         0.45048E-02         0.00000E+00
   -0.15621E-03         0.42567E-02         0.00000E+00
   -0.19835E-04         0.39886E-02         0.00000E+00
    0.12714E-03         0.37011E-02         0.00000E+00
    0.27887E-03         0.33948E-02         0.00000E+00
    0.42936E-03         0.30729E-02         0.00000E+00
    0.57345E-03         0.27377E-02         0.00000E+00
    0.70658E-03         0.23909E-02         0.00000E+00
    0.82473E-03         0.20337E-02         0.00000E+00
    0.92500E-03         0.16687E-02         0.00000E+00
    0.10060E-02         0.12986E-02         0.00000E+00
    0.10669E-02         0.92571E-03         0.00000E+00
    0.11074E-02         0.55257E-03         0.00000E+00
    0.11275E-02         0.18205E-03         0.00000E+00
   -0.55885E-04         0.61242E-02         0.00000E+00
   -0.16256E-03         0.60323E-02         0.00000E+00
   -0.26246E-03         0.58981E-02         0.00000E+00
   -0.35607E-03         0.57409E-02         0.00000E+00
   -0.43406E-03         0.55754E-02         0.00000E+00
   -0.48427E-03         0.54073E-02         0.00000E+00
   -0.49810E-03         0.52341E-02         0.00000E+00
   -0.47272E-03         0.50499E-02         0.00000E+00
   -0.41031E-03         0.48489E-02         0.00000E+00
   -0.31636E-03         0.46270E-02         0.00000E+00
   -0.19791E-03         0.43833E-02         0.00000E+00
   -0.61704E-04         0.41200E-02         0.00000E+00
    0.86855E-04         0.38404E-02         0.00000E+00
    0.24291E-03         0.35463E-02         0.00000E+00
    0.40126E-03         0.32396E-02         0.00000E+00
    0.55675E-03         0.29222E-02         0.00000E+00
    0.70495E-03         0.25961E-02         0.00000E+00
    0.84199E-03         0.22624E-02         0.00000E+00
    0.96434E-03         0.19218E-02         0.00000E+00
    0.10691E-02         0.15756E-02         0.00000E+00
    0.11542E-02         0.12256E-02         0.00000E+00
    0.12185E-02         0.87349E-03         0.00000E+00
    0.12614E-02         0.52145E-03         0.00000E+00
    0.12826E-02         0.17189E-03         0.00000E+00
   -0.63926E-04         0.62440E-02         0.00000E+00
   -0.18205E-03         0.61373E-02         0.00000E+00
   -0.28188E-03         0.59929E-02         0.00000E+00
   -0.36304E-03         0.58209E-02         0.00000E+00
   -0.42083E-03         0.56311E-02         0.00000E+00
   -0.44899E-03         0.54299E-02         0.00000E+00
   -0.44280E-03         0.52191E-02         0.00000E+00
   -0.40075E-03         0.49975E-02         0.00000E+00
   -0.32485E-03         0.47630E-02         0.00000E+00
   -0.21976E-03         0.45138E-02         0.00000E+00
   -0.91607E-04         0.42498E-02         0.00000E+00
    0.53305E-04         0.39723E-02         0.00000E+00
    0.20921E-03         0.36836E-02         0.00000E+00
    0.37083E-03         0.33855E-02         0.00000E+00
    0.53319E-03         0.30797E-02         0.00000E+00
    0.69165E-03         0.27680E-02         0.00000E+00
    0.84212E-03         0.24515E-02         0.00000E+00
    0.98102E-03         0.21310E-02         0.00000E+00
    0.11051E-02         0.18067E-02         0.00000E+00
    0.12117E-02         0.14794E-02         0.00000E+00
    0.12986E-02         0.11498E-02         0.00000E+00
    0.13645E-02         0.81915E-03         0.00000E+00
    0.14084E-02         0.48903E-03         0.00000E+00
    0.14302E-02         0.16132E-03         0.00000E+00
   -0.59178E-04         0.63671E-02         0.00000E+00
   -0.16727E-03         0.62404E-02         0.00000E+00
   -0.25458E-03         0.60769E-02         0.00000E+00
   -0.31953E-03         0.58830E-02         0.00000E+00
   -0.35882E-03         0.56661E-02         0.00000E+00
   -0.36871E-03         0.54330E-02         0.00000E+00
   -0.34655E-03         0.51876E-02         0.00000E+00
   -0.29181E-03         0.49322E-02         0.00000E+00
   -0.20644E-03         0.46671E-02         0.00000E+00
   -0.94470E-04         0.43927E-02         0.00000E+00
    0.38780E-04         0.41096E-02         0.00000E+00
    0.18754E-03         0.38189E-02         0.00000E+00
    0.34620E-03         0.35224E-02         0.00000E+00
    0.50953E-03         0.32217E-02         0.00000E+00
    0.67269E-03         0.29180E-02         0.00000E+00
    0.83135E-03         0.26126E-02         0.00000E+00
    0.98163E-03         0.23062E-02         0.00000E+00
    0.11201E-02         0.19989E-02         0.00000E+00
    0.12438E-02         0.16909E-02         0.00000E+00
    0.13502E-02         0.13822E-02         0.00000E+00
    0.14370E-02         0.10731E-02         0.00000E+00
    0.15029E-02         0.76409E-03         0.00000E+00
    0.15469E-02         0.45616E-03         0.00000E+00
    0.15688E-02         0.15060E-03         0.00000E+00
   -0.46659E-04         0.64729E-02         0.00000E+00
   -0.13115E-03         0.63271E-02         0.00000E+00
   -0.19684E-03         0.61432E-02         0.00000E+00
   -0.24117E-03         0.59260E-02         0.00000E+00
   -0.26117E-03         0.56824E-02         0.00000E+00
   -0.25413E-03         0.54195E-02         0.00000E+00
   -0.21832E-03         0.51431E-02         0.00000E+00
   -0.15364E-03         0.48573E-02         0.00000E+00
   -0.61857E-04         0.45648E-02         0.00000E+00
    0.53633E-04         0.42675E-02         0.00000E+00
    0.18827E-03         0.39668E-02         0.00000E+00
    0.33695E-03         0.36642E-02         0.00000E+00
    0.49449E-03         0.33609E-02         0.00000E+00
    0.65596E-03         0.30583E-02         0.00000E+00
    0.81677E-03         0.27573E-02         0.00000E+00
    0.97282E-03         0.24586E-02         0.00000E+00
    0.11204E-02         0.21623E-02         0.00000E+00
    0.12563E-02         0.18684E-02         0.00000E+00
    0.13777E-02         0.15764E-02         0.00000E+00
    0.14820E-02         0.12861E-02         0.00000E+00
    0.15673E-02         0.99709E-03         0.00000E+00
    0.16321E-02         0.70945E-03         0.00000E+00
    0.16754E-02         0.42351E-03         0.00000E+00
    0.16968E-02         0.13996E-03         0.00000E+00
   -0.29791E-04         0.65494E-02         0.00000E+00
   -0.82865E-04         0.63883E-02         0.00000E+00
   -0.12125E-03         0.61861E-02         0.00000E+00
   -0.14169E-03         0.59478E-02         0.00000E+00
   -0.14126E-03         0.56802E-02         0.00000E+00
   -0.11758E-03         0.53910E-02         0.00000E+00
   -0.69285E-04         0.50875E-02         0.00000E+00
    0.36698E-05         0.47753E-02         0.00000E+00
    0.99870E-04         0.44588E-02         0.00000E+00
    0.21655E-03         0.41413E-02         0.00000E+00
    0.34994E-03         0.38250E-02         0.00000E+00
    0.49566E-03         0.35116E-02         0.00000E+00
    0.64914E-03         0.32025E-02         0.00000E+00
    0.80589E-03         0.28986E-02         0.00000E+00
    0.96169E-03         0.26005E-02         0.00000E+00
    0.11127E-02         0.23084E-02         0.00000E+00
    0.12555E-02         0.20222E-02         0.00000E+00
    0.13869E-02         0.17412E-02         0.00000E+00
    0.15042E-02         0.14649E-02         0.00000E+00
    0.16051E-02         0.11924E-02         0.00000E+00
    0.16876E-02         0.92296E-03         0.00000E+00
    0.17503E-02         0.65613E-03         0.00000E+00
    0.17922E-02         0.39166E-03         0.00000E+00
    0.18129E-02         0.12958E-03         0.00000E+00
   -0.11052E-04         0.65902E-02         0.00000E+00
   -0.29240E-04         0.64187E-02         0.00000E+00
   -0.37624E-04         0.62025E-02         0.00000E+00
   -0.32565E-04         0.59468E-02         0.00000E+00
   -0.11068E-04         0.56592E-02         0.00000E+00
    0.29108E-04         0.53482E-02         0.00000E+00
    0.89261E-04         0.50219E-02         0.00000E+00
    0.16957E-03         0.46876E-02         0.00000E+00
    0.26904E-03         0.43509E-02         0.00000E+00
    0.38554E-03         0.40161E-02         0.00000E+00
    0.51606E-03         0.36863E-02         0.00000E+00
    0.65699E-03         0.33637E-02         0.00000E+00
    0.80444E-03         0.30495E-02         0.00000E+00
    0.95447E-03         0.27448E-02         0.00000E+00
    0.11033E-02         0.24497E-02         0.00000E+00
    0.12474E-02         0.21641E-02         0.00000E+00
    0.13837E-02         0.18875E-02         0.00000E+00
    0.15090E-02         0.16191E-02         0.00000E+00
    0.16210E-02         0.13578E-02         0.00000E+00
    0.17173E-02         0.11023E-02         0.00000E+00
    0.17961E-02         0.85169E-03         0.00000E+00
    0.18560E-02         0.60486E-03         0.00000E+00
    0.18960E-02         0.36102E-03         0.00000E+00
    0.19158E-02         0.11960E-03         0.00000E+00
    0.77720E-05         0.65935E-02         0.00000E+00
    0.24735E-04         0.64166E-02         0.00000E+00
    0.46625E-04         0.61910E-02         0.00000E+00
    0.77230E-04         0.59226E-02         0.00000E+00
    0.11956E-03         0.56196E-02         0.00000E+00
    0.17580E-03         0.52914E-02         0.00000E+00
    0.24730E-03         0.49471E-02         0.00000E+00
    0.33442E-03         0.45950E-02         0.00000E+00
    0.43657E-03         0.42419E-02         0.00000E+00
    0.55223E-03         0.38930E-02         0.00000E+00
    0.67909E-03         0.35521E-02         0.00000E+00
    0.81430E-03         0.32218E-02         0.00000E+00
    0.95465E-03         0.29036E-02         0.00000E+00
    0.10968E-02         0.25985E-02         0.00000E+00
    0.12375E-02         0.23064E-02         0.00000E+00
    0.13736E-02         0.20271E-02         0.00000E+00
    0.15021E-02         0.17597E-02         0.00000E+00
    0.16204E-02         0.15032E-02         0.00000E+00
    0.17261E-02         0.12560E-02         0.00000E+00
    0.18170E-02         0.10168E-02         0.00000E+00
    0.18914E-02         0.78400E-03         0.00000E+00
    0.19480E-02         0.55615E-03         0.00000E+00
    0.19857E-02         0.33192E-03         0.00000E+00
    0.20045E-02         0.11013E-03         0.00000E+00
    0.25449E-04         0.65603E-02         0.00000E+00
    0.75565E-04         0.63828E-02         0.00000E+00
    0.12619E-03         0.61524E-02         0.00000E+00
    0.18108E-03         0.58758E-02         0.00000E+00
    0.24317E-03         0.55620E-02         0.00000E+00
    0.31462E-03         0.52212E-02         0.00000E+00
    0.39680E-03         0.48635E-02         0.00000E+00
    0.49028E-03         0.44979E-02         0.00000E+00
    0.59483E-03         0.41322E-02         0.00000E+00
    0.70944E-03         0.37723E-02         0.00000E+00
    0.83246E-03         0.34228E-02         0.00000E+00
    0.96169E-03         0.30866E-02         0.00000E+00
    0.10946E-02         0.27656E-02         0.00000E+00
    0.12284E-02         0.24605E-02         0.00000E+00
    0.13604E-02         0.21717E-02         0.00000E+00
    0.14879E-02         0.18984E-02         0.00000E+00
    0.16081E-02         0.16397E-02         0.00000E+00
    0.17188E-02         0.13943E-02         0.00000E+00
    0.18176E-02         0.11604E-02         0.00000E+00
    0.19027E-02         0.93642E-03         0.00000E+00
    0.19723E-02         0.72036E-03         0.00000E+00
    0.20252E-02         0.51036E-03         0.00000E+00
    0.20606E-02         0.30457E-03         0.00000E+00
    0.20781E-02         0.10124E-03         0.00000E+00
    0.41194E-04         0.64937E-02         0.00000E+00
    0.12100E-03         0.63195E-02         0.00000E+00
    0.19759E-03         0.60884E-02         0.00000E+00
    0.27453E-03         0.58079E-02         0.00000E+00
    0.35462E-03         0.54877E-02         0.00000E+00
    0.43996E-03         0.51388E-02         0.00000E+00
    0.53193E-03         0.47718E-02         0.00000E+00
    0.63127E-03         0.43968E-02         0.00000E+00
    0.73803E-03         0.40220E-02         0.00000E+00
    0.85164E-03         0.36543E-02         0.00000E+00
    0.97096E-03         0.32985E-02         0.00000E+00
    0.10944E-02         0.29582E-02         0.00000E+00
    0.12200E-02         0.26354E-02         0.00000E+00
    0.13457E-02         0.23312E-02         0.00000E+00
    0.14690E-02         0.20457E-02         0.00000E+00
    0.15877E-02         0.17782E-02         0.00000E+00
    0.16996E-02         0.15277E-02         0.00000E+00
    0.18024E-02         0.12927E-02         0.00000E+00
    0.18943E-02         0.10713E-02         0.00000E+00
    0.19733E-02         0.86148E-03         0.00000E+00
    0.20379E-02         0.66103E-03         0.00000E+00
    0.20870E-02         0.46767E-03         0.00000E+00
    0.21199E-02         0.27909E-03         0.00000E+00
    0.21361E-02         0.92976E-04         0.00000E+00
    0.54576E-04         0.63979E-02         0.00000E+00
    0.15975E-03         0.62303E-02         0.00000E+00
    0.25878E-03         0.60020E-02         0.00000E+00
    0.35493E-03         0.57212E-02         0.00000E+00
    0.45079E-03         0.53984E-02         0.00000E+00
    0.54835E-03         0.50452E-02         0.00000E+00
    0.64899E-03         0.46728E-02         0.00000E+00
    0.75354E-03         0.42919E-02         0.00000E+00
    0.86228E-03         0.39114E-02         0.00000E+00
    0.97498E-03         0.35386E-02         0.00000E+00
    0.10909E-02         0.31789E-02         0.00000E+00
    0.12090E-02         0.28362E-02         0.00000E+00
    0.13279E-02         0.25129E-02         0.00000E+00
    0.14457E-02         0.22102E-02         0.00000E+00
    0.15608E-02         0.19283E-02         0.00000E+00
    0.16711E-02         0.16665E-02         0.00000E+00
    0.17748E-02         0.14238E-02         0.00000E+00
    0.18700E-02         0.11986E-02         0.00000E+00
    0.19549E-02         0.98872E-03         0.00000E+00
    0.20279E-02         0.79204E-03         0.00000E+00
    0.20877E-02         0.60606E-03         0.00000E+00
    0.21331E-02         0.42813E-03         0.00000E+00
    0.21634E-02         0.25550E-03         0.00000E+00
    0.21784E-02         0.85326E-04         0.00000E+00
    0.65428E-04         0.62779E-02         0.00000E+00
    0.19133E-03         0.61192E-02         0.00000E+00
    0.30890E-03         0.58965E-02         0.00000E+00
    0.42107E-03         0.56185E-02         0.00000E+00
    0.53017E-03         0.52962E-02         0.00000E+00
    0.63805E-03         0.49419E-02         0.00000E+00
    0.74605E-03         0.45674E-02         0.00000E+00
    0.85503E-03         0.41838E-02         0.00000E+00
    0.96544E-03         0.38004E-02         0.00000E+00
    0.10773E-02         0.34251E-02         0.00000E+00
    0.11902E-02         0.30636E-02         0.00000E+00
    0.13035E-02         0.27202E-02         0.00000E+00
    0.14161E-02         0.23975E-02         0.00000E+00
    0.15269E-02         0.20970E-02         0.00000E+00
    0.16343E-02         0.18190E-02         0.00000E+00
    0.17368E-02         0.15629E-02         0.00000E+00
    0.18328E-02         0.13277E-02         0.00000E+00
    0.19207E-02         0.11116E-02         0.00000E+00
    0.19991E-02         0.91247E-03         0.00000E+00
    0.20664E-02         0.72797E-03         0.00000E+00
    0.21214E-02         0.55536E-03         0.00000E+00
    0.21632E-02         0.39166E-03         0.00000E+00
    0.21911E-02         0.23373E-03         0.00000E+00
    0.22049E-02         0.78274E-04         0.00000E+00
    0.73771E-04         0.61387E-02         0.00000E+00
    0.21573E-03         0.59905E-02         0.00000E+00
    0.34791E-03         0.57754E-02         0.00000E+00
    0.47281E-03         0.55025E-02         0.00000E+00
    0.59253E-03         0.51834E-02         0.00000E+00
    0.70871E-03         0.48307E-02         0.00000E+00
    0.82262E-03         0.44567E-02         0.00000E+00
    0.93513E-03         0.40730E-02         0.00000E+00
    0.10468E-02         0.36892E-02         0.00000E+00
    0.11578E-02         0.33135E-02         0.00000E+00
    0.12680E-02         0.29521E-02         0.00000E+00
    0.13769E-02         0.26094E-02         0.00000E+00
    0.14840E-02         0.22886E-02         0.00000E+00
    0.15884E-02         0.19910E-02         0.00000E+00
    0.16888E-02         0.17172E-02         0.00000E+00
    0.17842E-02         0.14669E-02         0.00000E+00
    0.18731E-02         0.12388E-02         0.00000E+00
    0.19544E-02         0.10313E-02         0.00000E+00
    0.20266E-02         0.84219E-03         0.00000E+00
    0.20886E-02         0.66897E-03         0.00000E+00
    0.21392E-02         0.50868E-03         0.00000E+00
    0.21777E-02         0.35810E-03         0.00000E+00
    0.22034E-02         0.21370E-03         0.00000E+00
    0.22161E-02         0.71778E-04         0.00000E+00
    0.79756E-04         0.59852E-02         0.00000E+00
    0.23337E-03         0.58485E-02         0.00000E+00
    0.37634E-03         0.56423E-02         0.00000E+00
    0.51079E-03         0.53762E-02         0.00000E+00
    0.63852E-03         0.50622E-02         0.00000E+00
    0.76097E-03         0.47132E-02         0.00000E+00
    0.87930E-03         0.43420E-02         0.00000E+00
    0.99436E-03         0.39602E-02         0.00000E+00
    0.11067E-02         0.35780E-02         0.00000E+00
    0.12167E-02         0.32037E-02         0.00000E+00
    0.13243E-02         0.28440E-02         0.00000E+00
    0.14295E-02         0.25034E-02         0.00000E+00
    0.15316E-02         0.21853E-02         0.00000E+00
    0.16302E-02         0.18913E-02         0.00000E+00
    0.17245E-02         0.16222E-02         0.00000E+00
    0.18134E-02         0.13776E-02         0.00000E+00
    0.18960E-02         0.11565E-02         0.00000E+00
    0.19712E-02         0.95714E-03         0.00000E+00
    0.20379E-02         0.77742E-03         0.00000E+00
    0.20950E-02         0.61465E-03         0.00000E+00
    0.21416E-02         0.46573E-03         0.00000E+00
    0.21770E-02         0.32721E-03         0.00000E+00
    0.22007E-02         0.19526E-03         0.00000E+00
    0.22124E-02         0.65787E-04         0.00000E+00
    0.83609E-04         0.58218E-02         0.00000E+00
    0.24486E-03         0.56970E-02         0.00000E+00
    0.39512E-03         0.55006E-02         0.00000E+00
    0.53613E-03         0.52425E-02         0.00000E+00
    0.66938E-03         0.49350E-02         0.00000E+00
    0.79613E-03         0.45913E-02         0.00000E+00
    0.91741E-03         0.42243E-02         0.00000E+00
    0.10340E-02         0.38461E-02         0.00000E+00
    0.11465E-02         0.34671E-02         0.00000E+00
    0.12552E-02         0.30958E-02         0.00000E+00
    0.13604E-02         0.27390E-02         0.00000E+00
    0.14620E-02         0.24017E-02         0.00000E+00
    0.15597E-02         0.20871E-02         0.00000E+00
    0.16532E-02         0.17974E-02         0.00000E+00
    0.17420E-02         0.15332E-02         0.00000E+00
    0.18252E-02         0.12944E-02         0.00000E+00
    0.19021E-02         0.10801E-02         0.00000E+00
    0.19719E-02         0.88857E-03         0.00000E+00
    0.20335E-02         0.71764E-03         0.00000E+00
    0.20863E-02         0.56457E-03         0.00000E+00
    0.21293E-02         0.42616E-03         0.00000E+00
    0.21620E-02         0.29874E-03         0.00000E+00
    0.21838E-02         0.17824E-03         0.00000E+00
    0.21946E-02         0.60243E-04         0.00000E+00
    0.85597E-04         0.56526E-02         0.00000E+00
    0.25095E-03         0.55396E-02         0.00000E+00
    0.40537E-03         0.53533E-02         0.00000E+00
    0.55022E-03         0.51039E-02         0.00000E+00
    0.68672E-03         0.48038E-02         0.00000E+00
    0.81594E-03         0.44665E-02         0.00000E+00
    0.93874E-03         0.41051E-02         0.00000E+00
    0.10558E-02         0.37317E-02         0.00000E+00
    0.11678E-02         0.33571E-02         0.00000E+00
    0.12750E-02         0.29899E-02         0.00000E+00
    0.13777E-02         0.26371E-02         0.00000E+00
    0.14759E-02         0.23038E-02         0.00000E+00
    0.15696E-02         0.19936E-02         0.00000E+00
    0.16586E-02         0.17085E-02         0.00000E+00
    0.17424E-02         0.14496E-02         0.00000E+00
    0.18205E-02         0.12167E-02         0.00000E+00
    0.18924E-02         0.10090E-02         0.00000E+00
    0.19573E-02         0.82496E-03         0.00000E+00
    0.20146E-02         0.66231E-03         0.00000E+00
    0.20634E-02         0.51829E-03         0.00000E+00
    0.21033E-02         0.38961E-03         0.00000E+00
    0.21335E-02         0.27243E-03         0.00000E+00
    0.21537E-02         0.16248E-03         0.00000E+00
    0.21638E-02         0.55088E-04         0.00000E+00
    0.85997E-04         0.54810E-02         0.00000E+00
    0.25243E-03         0.53794E-02         0.00000E+00
    0.40827E-03         0.52032E-02         0.00000E+00
    0.55457E-03         0.49628E-02         0.00000E+00
    0.69230E-03         0.46707E-02         0.00000E+00
    0.82231E-03         0.43404E-02         0.00000E+00
    0.94532E-03         0.39853E-02         0.00000E+00
    0.10620E-02         0.36177E-02         0.00000E+00
    0.11728E-02         0.32484E-02         0.00000E+00
    0.12781E-02         0.28861E-02         0.00000E+00
    0.13781E-02         0.25381E-02         0.00000E+00
    0.14732E-02         0.22095E-02         0.00000E+00
    0.15631E-02         0.19041E-02         0.00000E+00
    0.16479E-02         0.16242E-02         0.00000E+00
    0.17273E-02         0.13707E-02         0.00000E+00
    0.18009E-02         0.11438E-02         0.00000E+00
    0.18683E-02         0.94266E-03         0.00000E+00
    0.19289E-02         0.76577E-03         0.00000E+00
    0.19822E-02         0.61094E-03         0.00000E+00
    0.20277E-02         0.47538E-03         0.00000E+00
    0.20646E-02         0.35572E-03         0.00000E+00
    0.20927E-02         0.24802E-03         0.00000E+00
    0.21116E-02         0.14783E-03         0.00000E+00
    0.21210E-02         0.50269E-04         0.00000E+00
    0.85085E-04         0.53099E-02         0.00000E+00
    0.25006E-03         0.52191E-02         0.00000E+00
    0.40502E-03         0.50528E-02         0.00000E+00
    0.55073E-03         0.48213E-02         0.00000E+00
    0.68791E-03         0.45373E-02         0.00000E+00
    0.81722E-03         0.42145E-02         0.00000E+00
    0.93926E-03         0.38662E-02         0.00000E+00
    0.10545E-02         0.35049E-02         0.00000E+00
    0.11635E-02         0.31414E-02         0.00000E+00
    0.12665E-02         0.27847E-02         0.00000E+00
    0.13639E-02         0.24421E-02         0.00000E+00
    0.14557E-02         0.21187E-02         0.00000E+00
    0.15421E-02         0.18186E-02         0.00000E+00
    0.16230E-02         0.15440E-02         0.00000E+00
    0.16984E-02         0.12962E-02         0.00000E+00
    0.17679E-02         0.10752E-02         0.00000E+00
    0.18313E-02         0.88049E-03         0.00000E+00
    0.18881E-02         0.71049E-03         0.00000E+00
    0.19379E-02         0.56308E-03         0.00000E+00
    0.19803E-02         0.43545E-03         0.00000E+00
    0.20147E-02         0.32419E-03         0.00000E+00
    0.20409E-02         0.22528E-03         0.00000E+00
    0.20585E-02         0.13414E-03         0.00000E+00
    0.20673E-02         0.45738E-04         0.00000E+00
    0.83113E-04         0.51417E-02         0.00000E+00
    0.24458E-03         0.50608E-02         0.00000E+00
    0.39676E-03         0.49038E-02         0.00000E+00
    0.54016E-03         0.46811E-02         0.00000E+00
    0.67528E-03         0.44052E-02         0.00000E+00
    0.80261E-03         0.40899E-02         0.00000E+00
    0.92262E-03         0.37487E-02         0.00000E+00
    0.10357E-02         0.33940E-02         0.00000E+00
    0.11423E-02         0.30368E-02         0.00000E+00
    0.12426E-02         0.26860E-02         0.00000E+00
    0.13370E-02         0.23490E-02         0.00000E+00
    0.14256E-02         0.20313E-02         0.00000E+00
    0.15085E-02         0.17367E-02         0.00000E+00
    0.15858E-02         0.14677E-02         0.00000E+00
    0.16574E-02         0.12255E-02         0.00000E+00
    0.17232E-02         0.10106E-02         0.00000E+00
    0.17829E-02         0.82208E-03         0.00000E+00
    0.18363E-02         0.65872E-03         0.00000E+00
    0.18830E-02         0.51834E-03         0.00000E+00
    0.19227E-02         0.39816E-03         0.00000E+00
    0.19549E-02         0.29474E-03         0.00000E+00
    0.19794E-02         0.20400E-03         0.00000E+00
    0.19959E-02         0.12129E-03         0.00000E+00
    0.20043E-02         0.41457E-04         0.00000E+00
    0.80313E-04         0.49783E-02         0.00000E+00
    0.23664E-03         0.49065E-02         0.00000E+00
    0.38451E-03         0.47582E-02         0.00000E+00
    0.52419E-03         0.45437E-02         0.00000E+00
    0.65600E-03         0.42757E-02         0.00000E+00
    0.78028E-03         0.39678E-02         0.00000E+00
    0.89734E-03         0.36337E-02         0.00000E+00
    0.10075E-02         0.32858E-02         0.00000E+00
    0.11111E-02         0.29349E-02         0.00000E+00
    0.12084E-02         0.25903E-02         0.00000E+00
    0.12996E-02         0.22592E-02         0.00000E+00
    0.13849E-02         0.19472E-02         0.00000E+00
    0.14644E-02         0.16583E-02         0.00000E+00
    0.15382E-02         0.13949E-02         0.00000E+00
    0.16063E-02         0.11585E-02         0.00000E+00
    0.16686E-02         0.94945E-03         0.00000E+00
    0.17250E-02         0.76709E-03         0.00000E+00
    0.17752E-02         0.61010E-03         0.00000E+00
    0.18191E-02         0.47641E-03         0.00000E+00
    0.18563E-02         0.36324E-03         0.00000E+00
    0.18865E-02         0.26715E-03         0.00000E+00
    0.19096E-02         0.18404E-03         0.00000E+00
    0.19251E-02         0.10920E-03         0.00000E+00
    0.19330E-02         0.37396E-04         0.00000E+00
    0.76887E-04         0.48211E-02         0.00000E+00
    0.22685E-03         0.47574E-02         0.00000E+00
    0.36920E-03         0.46170E-02         0.00000E+00
    0.50405E-03         0.44103E-02         0.00000E+00
    0.63153E-03         0.41498E-02         0.00000E+00
    0.75184E-03         0.38492E-02         0.00000E+00
    0.86520E-03         0.35220E-02         0.00000E+00
    0.97184E-03         0.31807E-02         0.00000E+00
    0.10720E-02         0.28363E-02         0.00000E+00
    0.11658E-02         0.24978E-02         0.00000E+00
    0.12536E-02         0.21727E-02         0.00000E+00
    0.13355E-02         0.18666E-02         0.00000E+00
    0.14116E-02         0.15833E-02         0.00000E+00
    0.14820E-02         0.13257E-02         0.00000E+00
    0.15467E-02         0.10950E-02         0.00000E+00
    0.16057E-02         0.89167E-03         0.00000E+00
    0.16590E-02         0.71523E-03         0.00000E+00
    0.17063E-02         0.56435E-03         0.00000E+00
    0.17476E-02         0.43701E-03         0.00000E+00
    0.17826E-02         0.33045E-03         0.00000E+00
    0.18110E-02         0.24123E-03         0.00000E+00
    0.18327E-02         0.16525E-03         0.00000E+00
    0.18474E-02         0.97768E-04         0.00000E+00
    0.18548E-02         0.33531E-04         0.00000E+00
    0.73009E-04         0.46712E-02         0.00000E+00
    0.21569E-03         0.46146E-02         0.00000E+00
    0.35163E-03         0.44815E-02         0.00000E+00
    0.48077E-03         0.42818E-02         0.00000E+00
    0.60313E-03         0.40283E-02         0.00000E+00
    0.71876E-03         0.37346E-02         0.00000E+00
    0.82780E-03         0.34141E-02         0.00000E+00
    0.93036E-03         0.30793E-02         0.00000E+00
    0.10266E-02         0.27412E-02         0.00000E+00
    0.11168E-02         0.24089E-02         0.00000E+00
    0.12009E-02         0.20897E-02         0.00000E+00
    0.12792E-02         0.17894E-02         0.00000E+00
    0.13519E-02         0.15118E-02         0.00000E+00
    0.14189E-02         0.12598E-02         0.00000E+00
    0.14803E-02         0.10347E-02         0.00000E+00
    0.15362E-02         0.83702E-03         0.00000E+00
    0.15865E-02         0.66630E-03         0.00000E+00
    0.16312E-02         0.52128E-03         0.00000E+00
    0.16700E-02         0.39996E-03         0.00000E+00
    0.17030E-02         0.29962E-03         0.00000E+00
    0.17297E-02         0.21684E-03         0.00000E+00
    0.17502E-02         0.14753E-03         0.00000E+00
    0.17640E-02         0.86954E-04         0.00000E+00
    0.17711E-02         0.29847E-04         0.00000E+00
    0.68827E-04         0.45294E-02         0.00000E+00
    0.20360E-03         0.44790E-02         0.00000E+00
    0.33248E-03         0.43523E-02         0.00000E+00
    0.45528E-03         0.41591E-02         0.00000E+00
    0.57189E-03         0.39121E-02         0.00000E+00
    0.68229E-03         0.36248E-02         0.00000E+00
    0.78650E-03         0.33107E-02         0.00000E+00
    0.88457E-03         0.29821E-02         0.00000E+00
    0.97662E-03         0.26501E-02         0.00000E+00
    0.10627E-02         0.23237E-02         0.00000E+00
    0.11431E-02         0.20104E-02         0.00000E+00
    0.12177E-02         0.17157E-02         0.00000E+00
    0.12868E-02         0.14437E-02         0.00000E+00
    0.13505E-02         0.11972E-02         0.00000E+00
    0.14087E-02         0.97758E-03         0.00000E+00
    0.14616E-02         0.78536E-03         0.00000E+00
    0.15091E-02         0.62015E-03         0.00000E+00
    0.15511E-02         0.48071E-03         0.00000E+00
    0.15877E-02         0.36509E-03         0.00000E+00
    0.16187E-02         0.27061E-03         0.00000E+00
    0.16439E-02         0.19388E-03         0.00000E+00
    0.16631E-02         0.13081E-03         0.00000E+00
    0.16762E-02         0.76715E-04         0.00000E+00
    0.16829E-02         0.26336E-04         0.00000E+00
    0.64460E-04         0.43961E-02         0.00000E+00
    0.19092E-03         0.43511E-02         0.00000E+00
    0.31231E-03         0.42299E-02         0.00000E+00
    0.42831E-03         0.40426E-02         0.00000E+00
    0.53875E-03         0.38015E-02         0.00000E+00
    0.64349E-03         0.35202E-02         0.00000E+00
    0.74249E-03         0.32121E-02         0.00000E+00
    0.83574E-03         0.28894E-02         0.00000E+00
    0.92328E-03         0.25632E-02         0.00000E+00
    0.10052E-02         0.22426E-02         0.00000E+00
    0.10815E-02         0.19349E-02         0.00000E+00
    0.11524E-02         0.16457E-02         0.00000E+00
    0.12179E-02         0.13791E-02         0.00000E+00
    0.12782E-02         0.11379E-02         0.00000E+00
    0.13332E-02         0.92358E-03         0.00000E+00
    0.13831E-02         0.73661E-03         0.00000E+00
    0.14279E-02         0.57666E-03         0.00000E+00
    0.14674E-02         0.44253E-03         0.00000E+00
    0.15018E-02         0.33230E-03         0.00000E+00
    0.15309E-02         0.24333E-03         0.00000E+00
    0.15546E-02         0.17226E-03         0.00000E+00
    0.15728E-02         0.11505E-03         0.00000E+00
    0.15851E-02         0.67026E-04         0.00000E+00
    0.15915E-02         0.22993E-04         0.00000E+00
    0.60008E-04         0.42716E-02         0.00000E+00
    0.17796E-03         0.42311E-02         0.00000E+00
    0.29159E-03         0.41149E-02         0.00000E+00
    0.40051E-03         0.39327E-02         0.00000E+00
    0.50447E-03         0.36970E-02         0.00000E+00
    0.60326E-03         0.34212E-02         0.00000E+00
    0.69677E-03         0.31186E-02         0.00000E+00
    0.78494E-03         0.28015E-02         0.00000E+00
    0.86775E-03         0.24808E-02         0.00000E+00
    0.94524E-03         0.21656E-02         0.00000E+00
    0.10175E-02         0.18633E-02         0.00000E+00
    0.10845E-02         0.15794E-02         0.00000E+00
    0.11464E-02         0.13180E-02         0.00000E+00
    0.12032E-02         0.10819E-02         0.00000E+00
    0.12551E-02         0.87265E-03         0.00000E+00
    0.13020E-02         0.69071E-03         0.00000E+00
    0.13441E-02         0.53576E-03         0.00000E+00
    0.13813E-02         0.40666E-03         0.00000E+00
    0.14135E-02         0.30151E-03         0.00000E+00
    0.14409E-02         0.21770E-03         0.00000E+00
    0.14631E-02         0.15193E-03         0.00000E+00
    0.14802E-02         0.10019E-03         0.00000E+00
    0.14918E-02         0.57871E-04         0.00000E+00
    0.14978E-02         0.19817E-04         0.00000E+00
    0.55547E-04         0.41560E-02         0.00000E+00
    0.16494E-03         0.41193E-02         0.00000E+00
    0.27069E-03         0.40073E-02         0.00000E+00
    0.37238E-03         0.38297E-02         0.00000E+00
    0.46967E-03         0.35988E-02         0.00000E+00
    0.56232E-03         0.33280E-02         0.00000E+00
    0.65015E-03         0.30305E-02         0.00000E+00
    0.73306E-03         0.27185E-02         0.00000E+00
    0.81099E-03         0.24030E-02         0.00000E+00
    0.88394E-03         0.20930E-02         0.00000E+00
    0.95193E-03         0.17957E-02         0.00000E+00
    0.10150E-02         0.15169E-02         0.00000E+00
    0.10732E-02         0.12605E-02         0.00000E+00
    0.11266E-02         0.10292E-02         0.00000E+00
    0.11753E-02         0.82477E-03         0.00000E+00
    0.12194E-02         0.64760E-03         0.00000E+00
    0.12588E-02         0.49739E-03         0.00000E+00
    0.12936E-02         0.37303E-03         0.00000E+00
    0.13238E-02         0.27265E-03         0.00000E+00
    0.13494E-02         0.19368E-03         0.00000E+00
    0.13702E-02         0.13286E-03         0.00000E+00
    0.13862E-02         0.86232E-04         0.00000E+00
    0.13971E-02         0.49243E-04         0.00000E+00
    0.14028E-02         0.16810E-04         0.00000E+00
    0.51138E-04         0.40494E-02         0.00000E+00
    0.15203E-03         0.40157E-02         0.00000E+00
    0.24991E-03         0.39073E-02         0.00000E+00
    0.34431E-03         0.37337E-02         0.00000E+00
    0.43485E-03         0.35070E-02         0.00000E+00
    0.52124E-03         0.32407E-02         0.00000E+00
    0.60328E-03         0.29479E-02         0.00000E+00
    0.68082E-03         0.26407E-02         0.00000E+00
    0.75377E-03         0.23300E-02         0.00000E+00
    0.82209E-03         0.20248E-02         0.00000E+00
    0.88576E-03         0.17323E-02         0.00000E+00
    0.94483E-03         0.14582E-02         0.00000E+00
    0.99933E-03         0.12064E-02         0.00000E+00
    0.10493E-02         0.97985E-03         0.00000E+00
    0.10948E-02         0.77993E-03         0.00000E+00
    0.11360E-02         0.60726E-03         0.00000E+00
    0.11728E-02         0.46152E-03         0.00000E+00
    0.12053E-02         0.34160E-03         0.00000E+00
    0.12335E-02         0.24569E-03         0.00000E+00
    0.12573E-02         0.17123E-03         0.00000E+00
    0.12768E-02         0.11502E-03         0.00000E+00
    0.12917E-02         0.73152E-04         0.00000E+00
    0.13019E-02         0.41140E-04         0.00000E+00
    0.13072E-02         0.13974E-04         0.00000E+00
    0.46825E-04         0.39514E-02         0.00000E+00
    0.13938E-03         0.39202E-02         0.00000E+00
    0.22947E-03         0.38148E-02         0.00000E+00
    0.31661E-03         0.36446E-02         0.00000E+00
    0.40039E-03         0.34218E-02         0.00000E+00
    0.48050E-03         0.31595E-02         0.00000E+00
    0.55670E-03         0.28709E-02         0.00000E+00
    0.62881E-03         0.25680E-02         0.00000E+00
    0.69671E-03         0.22618E-02         0.00000E+00
    0.76033E-03         0.19610E-02         0.00000E+00
    0.81966E-03         0.16730E-02         0.00000E+00
    0.87469E-03         0.14033E-02         0.00000E+00
    0.92546E-03         0.11560E-02         0.00000E+00
    0.97200E-03         0.93375E-03         0.00000E+00
    0.10144E-02         0.73812E-03         0.00000E+00
    0.10527E-02         0.56967E-03         0.00000E+00
    0.10869E-02         0.42810E-03         0.00000E+00
    0.11170E-02         0.31234E-03         0.00000E+00
    0.11432E-02         0.22059E-03         0.00000E+00
    0.11654E-02         0.15033E-03         0.00000E+00
    0.11835E-02         0.98390E-04         0.00000E+00
    0.11974E-02         0.60946E-04         0.00000E+00
    0.12069E-02         0.33562E-04         0.00000E+00
    0.12119E-02         0.11311E-04         0.00000E+00
    0.42641E-04         0.38619E-02         0.00000E+00
    0.12707E-03         0.38327E-02         0.00000E+00
    0.20953E-03         0.37298E-02         0.00000E+00
    0.28951E-03         0.35625E-02         0.00000E+00
    0.36659E-03         0.33430E-02         0.00000E+00
    0.44043E-03         0.30843E-02         0.00000E+00
    0.51079E-03         0.27995E-02         0.00000E+00
    0.57745E-03         0.25006E-02         0.00000E+00
    0.64028E-03         0.21984E-02         0.00000E+00
    0.69920E-03         0.19018E-02         0.00000E+00
    0.75416E-03         0.16180E-02         0.00000E+00
    0.80514E-03         0.13524E-02         0.00000E+00
    0.85217E-03         0.11092E-02         0.00000E+00
    0.89528E-03         0.89095E-03         0.00000E+00
    0.93451E-03         0.69931E-03         0.00000E+00
    0.96993E-03         0.53479E-03         0.00000E+00
    0.10016E-02         0.39712E-03         0.00000E+00
    0.10295E-02         0.28522E-03         0.00000E+00
    0.10537E-02         0.19732E-03         0.00000E+00
    0.10742E-02         0.13095E-03         0.00000E+00
    0.10909E-02         0.82965E-04         0.00000E+00
    0.11038E-02         0.49608E-04         0.00000E+00
    0.11126E-02         0.26511E-04         0.00000E+00
    0.11172E-02         0.88267E-05         0.00000E+00
    0.38607E-04         0.37807E-02         0.00000E+00
    0.11518E-03         0.37530E-02         0.00000E+00
    0.19020E-03         0.36520E-02         0.00000E+00
    0.26316E-03         0.34873E-02         0.00000E+00
    0.33364E-03         0.32707E-02         0.00000E+00
    0.40129E-03         0.30151E-02         0.00000E+00
    0.46584E-03         0.27337E-02         0.00000E+00
    0.52708E-03         0.24385E-02         0.00000E+00
    0.58485E-03         0.21400E-02         0.00000E+00
    0.63907E-03         0.18471E-02         0.00000E+00
    0.68966E-03         0.15671E-02         0.00000E+00
    0.73660E-03         0.13053E-02         0.00000E+00
    0.77990E-03         0.10659E-02         0.00000E+00
    0.81959E-03         0.85143E-03         0.00000E+00
    0.85570E-03         0.66348E-03         0.00000E+00
    0.88828E-03         0.50262E-03         0.00000E+00
    0.91738E-03         0.36855E-03         0.00000E+00
    0.94305E-03         0.26022E-03         0.00000E+00
    0.96530E-03         0.17587E-03         0.00000E+00
    0.98414E-03         0.11307E-03         0.00000E+00
    0.99952E-03         0.68731E-04         0.00000E+00
    0.10114E-02         0.39135E-04         0.00000E+00
    0.10195E-02         0.19988E-04         0.00000E+00
    0.10237E-02         0.65221E-05         0.00000E+00
    0.34736E-04         0.37073E-02         0.00000E+00
    0.10374E-03         0.36807E-02         0.00000E+00
    0.17155E-03         0.35815E-02         0.00000E+00
    0.23767E-03         0.34188E-02         0.00000E+00
    0.30168E-03         0.32047E-02         0.00000E+00
    0.36323E-03         0.29519E-02         0.00000E+00
    0.42204E-03         0.26736E-02         0.00000E+00
    0.47791E-03         0.23815E-02         0.00000E+00
    0.53067E-03         0.20864E-02         0.00000E+00
    0.58021E-03         0.17970E-02         0.00000E+00
    0.62646E-03         0.15204E-02         0.00000E+00
    0.66939E-03         0.12621E-02         0.00000E+00
    0.70898E-03         0.10262E-02         0.00000E+00
    0.74527E-03         0.81517E-03         0.00000E+00
    0.77828E-03         0.63062E-03         0.00000E+00
    0.80806E-03         0.47312E-03         0.00000E+00
    0.83465E-03         0.34236E-03         0.00000E+00
    0.85809E-03         0.23730E-03         0.00000E+00
    0.87841E-03         0.15621E-03         0.00000E+00
    0.89562E-03         0.96687E-04         0.00000E+00
    0.90967E-03         0.55678E-04         0.00000E+00
    0.92050E-03         0.29522E-04         0.00000E+00
    0.92796E-03         0.13993E-04         0.00000E+00
    0.93184E-03         0.43998E-05         0.00000E+00
    0.31032E-04         0.36416E-02         0.00000E+00
    0.92774E-04         0.36157E-02         0.00000E+00
    0.15362E-03         0.35178E-02         0.00000E+00
    0.21309E-03         0.33569E-02         0.00000E+00
    0.27078E-03         0.31449E-02         0.00000E+00
    0.32635E-03         0.28946E-02         0.00000E+00
    0.37953E-03         0.26189E-02         0.00000E+00
    0.43010E-03         0.23298E-02         0.00000E+00
    0.47790E-03         0.20376E-02         0.00000E+00
    0.52281E-03         0.17513E-02         0.00000E+00
    0.56476E-03         0.14779E-02         0.00000E+00
    0.60370E-03         0.12228E-02         0.00000E+00
    0.63962E-03         0.99001E-03         0.00000E+00
    0.67254E-03         0.78213E-03         0.00000E+00
    0.70249E-03         0.60070E-03         0.00000E+00
    0.72949E-03         0.44626E-03         0.00000E+00
    0.75360E-03         0.31852E-03         0.00000E+00
    0.77485E-03         0.21645E-03         0.00000E+00
    0.79327E-03         0.13833E-03         0.00000E+00
    0.80887E-03         0.81776E-04         0.00000E+00
    0.82161E-03         0.43792E-04         0.00000E+00
    0.83143E-03         0.20763E-04         0.00000E+00
    0.83820E-03         0.85253E-05         0.00000E+00
    0.84172E-03         0.24607E-05         0.00000E+00
    0.27494E-04         0.35830E-02         0.00000E+00
    0.82278E-04         0.35577E-02         0.00000E+00
    0.13641E-03         0.34608E-02         0.00000E+00
    0.18944E-03         0.33014E-02         0.00000E+00
    0.24098E-03         0.30912E-02         0.00000E+00
    0.29071E-03         0.28430E-02         0.00000E+00
    0.33835E-03         0.25697E-02         0.00000E+00
    0.38371E-03         0.22831E-02         0.00000E+00
    0.42662E-03         0.19936E-02         0.00000E+00
    0.46696E-03         0.17101E-02         0.00000E+00
    0.50465E-03         0.14395E-02         0.00000E+00
    0.53965E-03         0.11873E-02         0.00000E+00
    0.57195E-03         0.95733E-03         0.00000E+00
    0.60154E-03         0.75230E-03         0.00000E+00
    0.62846E-03         0.57368E-03         0.00000E+00
    0.65272E-03         0.42201E-03         0.00000E+00
    0.67438E-03         0.29700E-03         0.00000E+00
    0.69347E-03         0.19763E-03         0.00000E+00
    0.71002E-03         0.12218E-03         0.00000E+00
    0.72403E-03         0.68317E-04         0.00000E+00
    0.73547E-03         0.33061E-04         0.00000E+00
    0.74430E-03         0.12850E-04         0.00000E+00
    0.75038E-03         0.35819E-05         0.00000E+00
    0.75356E-03         0.70517E-06         0.00000E+00
    0.24118E-04         0.35314E-02         0.00000E+00
    0.72239E-04         0.35064E-02         0.00000E+00
    0.11991E-03         0.34103E-02         0.00000E+00
    0.16670E-03         0.32521E-02         0.00000E+00
    0.21226E-03         0.30434E-02         0.00000E+00
    0.25628E-03         0.27970E-02         0.00000E+00
    0.29851E-03         0.25258E-02         0.00000E+00
    0.33875E-03         0.22414E-02         0.00000E+00
    0.37685E-03         0.19543E-02         0.00000E+00
    0.41268E-03         0.16732E-02         0.00000E+00
    0.44618E-03         0.14051E-02         0.00000E+00
    0.47730E-03         0.11555E-02         0.00000E+00
    0.50601E-03         0.92810E-03         0.00000E+00
    0.53232E-03         0.72562E-03         0.00000E+00
    0.55624E-03         0.54952E-03         0.00000E+00
    0.57781E-03         0.40033E-03         0.00000E+00
    0.59706E-03         0.27777E-03         0.00000E+00
    0.61402E-03         0.18081E-03         0.00000E+00
    0.62872E-03         0.10776E-03         0.00000E+00
    0.64116E-03         0.56291E-04         0.00000E+00
    0.65133E-03         0.23470E-04         0.00000E+00
    0.65917E-03         0.57756E-05         0.00000E+00
    0.66458E-03        -0.84128E-06         0.00000E+00
    0.66741E-03        -0.86728E-06         0.00000E+00
    0.20894E-04         0.34864E-02         0.00000E+00
    0.62634E-04         0.34616E-02         0.00000E+00
    0.10407E-03         0.33660E-02         0.00000E+00
    0.14483E-03         0.32088E-02         0.00000E+00
    0.18458E-03         0.30014E-02         0.00000E+00
    0.22303E-03         0.27566E-02         0.00000E+00
    0.25996E-03         0.24871E-02         0.00000E+00
    0.29518E-03         0.22046E-02         0.00000E+00
    0.32855E-03         0.19196E-02         0.00000E+00
    0.35995E-03         0.16407E-02         0.00000E+00
    0.38932E-03         0.13748E-02         0.00000E+00
    0.41660E-03         0.11274E-02         0.00000E+00
    0.44178E-03         0.90229E-03         0.00000E+00
    0.46485E-03         0.70206E-03         0.00000E+00
    0.48583E-03         0.52818E-03         0.00000E+00
    0.50474E-03         0.38119E-03         0.00000E+00
    0.52161E-03         0.26079E-03         0.00000E+00
    0.53648E-03         0.16596E-03         0.00000E+00
    0.54936E-03         0.95026E-04         0.00000E+00
    0.56026E-03         0.45676E-04         0.00000E+00
    0.56917E-03         0.15003E-04         0.00000E+00
    0.57605E-03        -0.47233E-06         0.00000E+00
    0.58079E-03        -0.47494E-05         0.00000E+00
    0.58327E-03        -0.22578E-05         0.00000E+00
    0.17810E-04         0.34477E-02         0.00000E+00
    0.53427E-04         0.34229E-02         0.00000E+00
    0.88860E-04         0.33278E-02         0.00000E+00
    0.12377E-03         0.31713E-02         0.00000E+00
    0.15786E-03         0.29650E-02         0.00000E+00
    0.19088E-03         0.27215E-02         0.00000E+00
    0.22263E-03         0.24535E-02         0.00000E+00
    0.25292E-03         0.21727E-02         0.00000E+00
    0.28164E-03         0.18894E-02         0.00000E+00
    0.30868E-03         0.16124E-02         0.00000E+00
    0.33398E-03         0.13484E-02         0.00000E+00
    0.35749E-03         0.11030E-02         0.00000E+00
    0.37918E-03         0.87983E-03         0.00000E+00
    0.39906E-03         0.68156E-03         0.00000E+00
    0.41714E-03         0.50962E-03         0.00000E+00
    0.43343E-03         0.36455E-03         0.00000E+00
    0.44796E-03         0.24603E-03         0.00000E+00
    0.46076E-03         0.15306E-03         0.00000E+00
    0.47185E-03         0.83960E-04         0.00000E+00
    0.48124E-03         0.36449E-04         0.00000E+00
    0.48892E-03         0.76424E-05         0.00000E+00
    0.49484E-03        -0.59048E-05         0.00000E+00
    0.49892E-03        -0.81488E-05         0.00000E+00
    0.50106E-03        -0.34681E-05         0.00000E+00
    0.14850E-04         0.34151E-02         0.00000E+00
    0.44577E-04         0.33903E-02         0.00000E+00
    0.74203E-04         0.32955E-02         0.00000E+00
    0.10343E-03         0.31396E-02         0.00000E+00
    0.13202E-03         0.29341E-02         0.00000E+00
    0.15973E-03         0.26917E-02         0.00000E+00
    0.18639E-03         0.24249E-02         0.00000E+00
    0.21185E-03         0.21455E-02         0.00000E+00
    0.23600E-03         0.18638E-02         0.00000E+00
    0.25875E-03         0.15883E-02         0.00000E+00
    0.28004E-03         0.13260E-02         0.00000E+00
    0.29983E-03         0.10822E-02         0.00000E+00
    0.31809E-03         0.86069E-03         0.00000E+00
    0.33482E-03         0.66409E-03         0.00000E+00
    0.35003E-03         0.49381E-03         0.00000E+00
    0.36374E-03         0.35036E-03         0.00000E+00
    0.37597E-03         0.23345E-03         0.00000E+00
    0.38674E-03         0.14206E-03         0.00000E+00
    0.39607E-03         0.74533E-04         0.00000E+00
    0.40397E-03         0.28589E-04         0.00000E+00
    0.41043E-03         0.13721E-05         0.00000E+00
    0.41540E-03        -0.10533E-04         0.00000E+00
    0.41884E-03        -0.11046E-04         0.00000E+00
    0.42064E-03        -0.45002E-05         0.00000E+00
    0.11998E-04         0.33882E-02         0.00000E+00
    0.36036E-04         0.33633E-02         0.00000E+00
    0.60029E-04         0.32687E-02         0.00000E+00
    0.83733E-04         0.31133E-02         0.00000E+00
    0.10693E-03         0.29085E-02         0.00000E+00
    0.12945E-03         0.26670E-02         0.00000E+00
    0.15112E-03         0.24012E-02         0.00000E+00
    0.17184E-03         0.21230E-02         0.00000E+00
    0.19149E-03         0.18425E-02         0.00000E+00
    0.21001E-03         0.15683E-02         0.00000E+00
    0.22734E-03         0.13073E-02         0.00000E+00
    0.24345E-03         0.10649E-02         0.00000E+00
    0.25833E-03         0.84482E-03         0.00000E+00
    0.27195E-03         0.64960E-03         0.00000E+00
    0.28434E-03         0.48069E-03         0.00000E+00
    0.29551E-03         0.33860E-03         0.00000E+00
    0.30546E-03         0.22302E-03         0.00000E+00
    0.31423E-03         0.13295E-03         0.00000E+00
    0.32183E-03         0.66720E-04         0.00000E+00
    0.32825E-03         0.22076E-04         0.00000E+00
    0.33351E-03        -0.38244E-05         0.00000E+00
    0.33756E-03        -0.14370E-04         0.00000E+00
    0.34036E-03        -0.13448E-04         0.00000E+00
    0.34182E-03        -0.53561E-05         0.00000E+00
    0.92366E-05         0.33670E-02         0.00000E+00
    0.27755E-04         0.33420E-02         0.00000E+00
    0.46261E-04         0.32476E-02         0.00000E+00
    0.64562E-04         0.30925E-02         0.00000E+00
    0.82489E-04         0.28882E-02         0.00000E+00
    0.99898E-04         0.26474E-02         0.00000E+00
    0.11667E-03         0.23824E-02         0.00000E+00
    0.13270E-03         0.21051E-02         0.00000E+00
    0.14792E-03         0.18255E-02         0.00000E+00
    0.16226E-03         0.15524E-02         0.00000E+00
    0.17569E-03         0.12925E-02         0.00000E+00
    0.18817E-03         0.10512E-02         0.00000E+00
    0.19970E-03         0.83217E-03         0.00000E+00
    0.21026E-03         0.63806E-03         0.00000E+00
    0.21986E-03         0.47025E-03         0.00000E+00
    0.22850E-03         0.32924E-03         0.00000E+00
    0.23622E-03         0.21472E-03         0.00000E+00
    0.24301E-03         0.12569E-03         0.00000E+00
    0.24889E-03         0.60499E-04         0.00000E+00
    0.25387E-03         0.16890E-04         0.00000E+00
    0.25794E-03        -0.79618E-05         0.00000E+00
    0.26108E-03        -0.17425E-04         0.00000E+00
    0.26325E-03        -0.15361E-04         0.00000E+00
    0.26438E-03        -0.60378E-05         0.00000E+00
    0.65462E-05         0.33512E-02         0.00000E+00
    0.19677E-04         0.33262E-02         0.00000E+00
    0.32812E-04         0.32318E-02         0.00000E+00
    0.45811E-04         0.30770E-02         0.00000E+00
    0.58553E-04         0.28731E-02         0.00000E+00
    0.70933E-04         0.26327E-02         0.00000E+00
    0.82864E-04         0.23684E-02         0.00000E+00
    0.94274E-04         0.20917E-02         0.00000E+00
    0.10511E-03         0.18129E-02         0.00000E+00
    0.11532E-03         0.15405E-02         0.00000E+00
    0.12488E-03         0.12814E-02         0.00000E+00
    0.13377E-03         0.10409E-02         0.00000E+00
    0.14198E-03         0.82272E-03         0.00000E+00
    0.14950E-03         0.62943E-03         0.00000E+00
    0.15633E-03         0.46244E-03         0.00000E+00
    0.16249E-03         0.32224E-03         0.00000E+00
    0.16798E-03         0.20852E-03         0.00000E+00
    0.17282E-03         0.12027E-03         0.00000E+00
    0.17701E-03         0.55852E-04         0.00000E+00
    0.18055E-03         0.13015E-04         0.00000E+00
    0.18345E-03        -0.11053E-04         0.00000E+00
    0.18568E-03        -0.19707E-04         0.00000E+00
    0.18723E-03        -0.16790E-04         0.00000E+00
    0.18803E-03        -0.65474E-05         0.00000E+00
    0.39071E-05         0.33407E-02         0.00000E+00
    0.11747E-04         0.33156E-02         0.00000E+00
    0.19594E-04         0.32213E-02         0.00000E+00
    0.27364E-04         0.30667E-02         0.00000E+00
    0.34983E-04         0.28630E-02         0.00000E+00
    0.42389E-04         0.26230E-02         0.00000E+00
    0.49528E-04         0.23590E-02         0.00000E+00
    0.56357E-04         0.20828E-02         0.00000E+00
    0.62842E-04         0.18044E-02         0.00000E+00
    0.68956E-04         0.15326E-02         0.00000E+00
    0.74681E-04         0.12740E-02         0.00000E+00
    0.80004E-04         0.10340E-02         0.00000E+00
    0.84918E-04         0.81644E-03         0.00000E+00
    0.89421E-04         0.62370E-03         0.00000E+00
    0.93514E-04         0.45725E-03         0.00000E+00
    0.97202E-04         0.31758E-03         0.00000E+00
    0.10049E-03         0.20439E-03         0.00000E+00
    0.10339E-03         0.11667E-03         0.00000E+00
    0.10589E-03         0.52762E-04         0.00000E+00
    0.10801E-03         0.10440E-04         0.00000E+00
    0.10975E-03        -0.13108E-04         0.00000E+00
    0.11109E-03        -0.21224E-04         0.00000E+00
    0.11201E-03        -0.17740E-04         0.00000E+00
    0.11249E-03        -0.68861E-05         0.00000E+00
    0.12989E-05         0.33355E-02         0.00000E+00
    0.39057E-05         0.33104E-02         0.00000E+00
    0.65157E-05         0.32161E-02         0.00000E+00
    0.91008E-05         0.30615E-02         0.00000E+00
    0.11636E-04         0.28580E-02         0.00000E+00
    0.14101E-04         0.26181E-02         0.00000E+00
    0.16478E-04         0.23544E-02         0.00000E+00
    0.18751E-04         0.20783E-02         0.00000E+00
    0.20910E-04         0.18002E-02         0.00000E+00
    0.22946E-04         0.15286E-02         0.00000E+00
    0.24852E-04         0.12703E-02         0.00000E+00
    0.26625E-04         0.10306E-02         0.00000E+00
    0.28261E-04         0.81330E-03         0.00000E+00
    0.29760E-04         0.62083E-03         0.00000E+00
    0.31123E-04         0.45466E-03         0.00000E+00
    0.32351E-04         0.31526E-03         0.00000E+00
    0.33446E-04         0.20233E-03         0.00000E+00
    0.34410E-04         0.11487E-03         0.00000E+00
    0.35245E-04         0.51219E-04         0.00000E+00
    0.35951E-04         0.91540E-05         0.00000E+00
    0.36529E-04        -0.14133E-04         0.00000E+00
    0.36974E-04        -0.21982E-04         0.00000E+00
    0.37282E-04        -0.18214E-04         0.00000E+00
    0.37442E-04        -0.70553E-05         0.00000E+00
POINT_DATA       1225
VECTORS vDarcyNodal double 
    0.85770E-03         0.78741E-03         0.00000E+00
    0.70662E-03         0.14992E-02         0.00000E+00
    0.45607E-03         0.27257E-02         0.00000E+00
    0.20296E-03         0.35723E-02         0.00000E+00
    0.76402E-04         0.41090E-02         0.00000E+00
   -0.15472E-05         0.44531E-02         0.00000E+00
   -0.56427E-04         0.46898E-02         0.00000E+00
   -0.10134E-03         0.48716E-02         0.00000E+00
   -0.10398E-03         0.50128E-02         0.00000E+00
   -0.70858E-04         0.50795E-02         0.00000E+00
   -0.34634E-04         0.50388E-02         0.00000E+00
   -0.23450E-04         0.49020E-02         0.00000E+00
   -0.14266E-04         0.47017E-02         0.00000E+00
   -0.47105E-06         0.44481E-02         0.00000E+00
    0.12513E-04         0.41470E-02         0.00000E+00
    0.26093E-04         0.38069E-02         0.00000E+00
    0.39354E-04         0.34361E-02         0.00000E+00
    0.51591E-04         0.30420E-02         0.00000E+00
    0.63320E-04         0.26291E-02         0.00000E+00
    0.71816E-04         0.22028E-02         0.00000E+00
    0.78483E-04         0.17688E-02         0.00000E+00
    0.84029E-04         0.13287E-02         0.00000E+00
    0.88240E-04         0.88463E-03         0.00000E+00
    0.90890E-04         0.44030E-03         0.00000E+00
    0.91828E-04         0.21857E-03         0.00000E+00
    0.18147E-02         0.93850E-03         0.00000E+00
    0.15818E-02         0.17000E-02         0.00000E+00
    0.78386E-03         0.29775E-02         0.00000E+00
    0.36404E-03         0.37621E-02         0.00000E+00
    0.13362E-03         0.42112E-02         0.00000E+00
   -0.58038E-05         0.45195E-02         0.00000E+00
   -0.99308E-04         0.47397E-02         0.00000E+00
   -0.16706E-03         0.48953E-02         0.00000E+00
   -0.18528E-03         0.49976E-02         0.00000E+00
   -0.14914E-03         0.50448E-02         0.00000E+00
   -0.88990E-04         0.50151E-02         0.00000E+00
   -0.50803E-04         0.48918E-02         0.00000E+00
   -0.26351E-04         0.46902E-02         0.00000E+00
   -0.34207E-06         0.44347E-02         0.00000E+00
    0.26708E-04         0.41337E-02         0.00000E+00
    0.53294E-04         0.37934E-02         0.00000E+00
    0.79096E-04         0.34233E-02         0.00000E+00
    0.10361E-03         0.30301E-02         0.00000E+00
    0.12539E-03         0.26190E-02         0.00000E+00
    0.14233E-03         0.21952E-02         0.00000E+00
    0.15604E-03         0.17627E-02         0.00000E+00
    0.16741E-03         0.13238E-02         0.00000E+00
    0.17596E-03         0.88120E-03         0.00000E+00
    0.18131E-03         0.43851E-03         0.00000E+00
    0.18319E-03         0.21763E-03         0.00000E+00
    0.62949E-02         0.12530E-02         0.00000E+00
    0.25106E-02         0.25300E-02         0.00000E+00
    0.12275E-02         0.39435E-02         0.00000E+00
    0.57282E-03         0.42225E-02         0.00000E+00
    0.19997E-03         0.44788E-02         0.00000E+00
   -0.29126E-04         0.46860E-02         0.00000E+00
   -0.17641E-03         0.48511E-02         0.00000E+00
   -0.26765E-03         0.49575E-02         0.00000E+00
   -0.30951E-03         0.49949E-02         0.00000E+00
   -0.29307E-03         0.49832E-02         0.00000E+00
   -0.22021E-03         0.49405E-02         0.00000E+00
   -0.12885E-03         0.48393E-02         0.00000E+00
   -0.55277E-04         0.46512E-02         0.00000E+00
    0.46898E-05         0.43950E-02         0.00000E+00
    0.60276E-04         0.40933E-02         0.00000E+00
    0.11188E-03         0.37545E-02         0.00000E+00
    0.15991E-03         0.33858E-02         0.00000E+00
    0.20501E-03         0.29957E-02         0.00000E+00
    0.24507E-03         0.25904E-02         0.00000E+00
    0.27983E-03         0.21721E-02         0.00000E+00
    0.30895E-03         0.17437E-02         0.00000E+00
    0.33256E-03         0.13088E-02         0.00000E+00
    0.35008E-03         0.87073E-03         0.00000E+00
    0.36089E-03         0.43308E-03         0.00000E+00
    0.36461E-03         0.21483E-03         0.00000E+00
    0.49091E-02         0.85072E-02         0.00000E+00
    0.22651E-02         0.67674E-02         0.00000E+00
    0.11792E-02         0.49153E-02         0.00000E+00
    0.55436E-03         0.47896E-02         0.00000E+00
    0.16313E-03         0.48132E-02         0.00000E+00
   -0.89838E-04         0.48959E-02         0.00000E+00
   -0.25032E-03         0.49783E-02         0.00000E+00
   -0.34107E-03         0.50284E-02         0.00000E+00
   -0.38481E-03         0.50230E-02         0.00000E+00
   -0.39187E-03         0.49555E-02         0.00000E+00
   -0.35138E-03         0.48509E-02         0.00000E+00
   -0.25312E-03         0.47269E-02         0.00000E+00
   -0.13466E-03         0.45567E-02         0.00000E+00
   -0.25967E-04         0.43192E-02         0.00000E+00
    0.70082E-04         0.40265E-02         0.00000E+00
    0.15513E-03         0.36938E-02         0.00000E+00
    0.23009E-03         0.33302E-02         0.00000E+00
    0.29661E-03         0.29449E-02         0.00000E+00
    0.35706E-03         0.25441E-02         0.00000E+00
    0.41142E-03         0.21313E-02         0.00000E+00
    0.45765E-03         0.17099E-02         0.00000E+00
    0.49442E-03         0.12827E-02         0.00000E+00
    0.52116E-03         0.85288E-03         0.00000E+00
    0.53741E-03         0.42398E-03         0.00000E+00
    0.54290E-03         0.21019E-03         0.00000E+00
    0.00000E+00         0.65411E-02         0.00000E+00
    0.12014E-02         0.62599E-02         0.00000E+00
    0.76436E-03         0.56542E-02         0.00000E+00
    0.35353E-03         0.52386E-02         0.00000E+00
    0.36237E-04         0.51230E-02         0.00000E+00
   -0.18847E-03         0.50995E-02         0.00000E+00
   -0.33393E-03         0.51023E-02         0.00000E+00
   -0.41413E-03         0.50920E-02         0.00000E+00
   -0.44341E-03         0.50457E-02         0.00000E+00
   -0.43832E-03         0.49498E-02         0.00000E+00
   -0.40796E-03         0.48017E-02         0.00000E+00
   -0.33826E-03         0.46226E-02         0.00000E+00
   -0.22522E-03         0.44241E-02         0.00000E+00
   -0.92959E-04         0.41903E-02         0.00000E+00
    0.40435E-04         0.39122E-02         0.00000E+00
    0.16630E-03         0.35945E-02         0.00000E+00
    0.27962E-03         0.32443E-02         0.00000E+00
    0.37866E-03         0.28688E-02         0.00000E+00
    0.46599E-03         0.24755E-02         0.00000E+00
    0.54128E-03         0.20715E-02         0.00000E+00
    0.60403E-03         0.16607E-02         0.00000E+00
    0.65339E-03         0.12453E-02         0.00000E+00
    0.68881E-03         0.82775E-03         0.00000E+00
    0.71010E-03         0.41134E-03         0.00000E+00
    0.71719E-03         0.20384E-03         0.00000E+00
    0.00000E+00         0.61045E-02         0.00000E+00
    0.26285E-03         0.60031E-02         0.00000E+00
    0.29653E-03         0.57631E-02         0.00000E+00
    0.87791E-04         0.55178E-02         0.00000E+00
   -0.12934E-03         0.53551E-02         0.00000E+00
   -0.30175E-03         0.52661E-02         0.00000E+00
   -0.41606E-03         0.52039E-02         0.00000E+00
   -0.47370E-03         0.51379E-02         0.00000E+00
   -0.48280E-03         0.50472E-02         0.00000E+00
   -0.45298E-03         0.49200E-02         0.00000E+00
   -0.39603E-03         0.47508E-02         0.00000E+00
   -0.31920E-03         0.45441E-02         0.00000E+00
   -0.21516E-03         0.43114E-02         0.00000E+00
   -0.85925E-04         0.40535E-02         0.00000E+00
    0.56786E-04         0.37672E-02         0.00000E+00
    0.20245E-03         0.34546E-02         0.00000E+00
    0.34215E-03         0.31178E-02         0.00000E+00
    0.46943E-03         0.27585E-02         0.00000E+00
    0.58006E-03         0.23815E-02         0.00000E+00
    0.67358E-03         0.19933E-02         0.00000E+00
    0.75025E-03         0.15978E-02         0.00000E+00
    0.81013E-03         0.11979E-02         0.00000E+00
    0.85291E-03         0.79616E-03         0.00000E+00
    0.87848E-03         0.39560E-03         0.00000E+00
    0.88690E-03         0.19601E-03         0.00000E+00
    0.10686E-16         0.60154E-02         0.00000E+00
    0.18070E-04         0.59634E-02         0.00000E+00
   -0.21854E-04         0.58293E-02         0.00000E+00
   -0.13408E-03         0.56645E-02         0.00000E+00
   -0.27678E-03         0.55125E-02         0.00000E+00
   -0.39807E-03         0.53862E-02         0.00000E+00
   -0.47693E-03         0.52743E-02         0.00000E+00
   -0.50790E-03         0.51588E-02         0.00000E+00
   -0.49370E-03         0.50250E-02         0.00000E+00
   -0.44133E-03         0.48630E-02         0.00000E+00
   -0.35859E-03         0.46679E-02         0.00000E+00
   -0.25485E-03         0.44418E-02         0.00000E+00
   -0.13419E-03         0.41908E-02         0.00000E+00
    0.20815E-05         0.39183E-02         0.00000E+00
    0.14793E-03         0.36239E-02         0.00000E+00
    0.29719E-03         0.33091E-02         0.00000E+00
    0.44394E-03         0.29773E-02         0.00000E+00
    0.58182E-03         0.26309E-02         0.00000E+00
    0.70474E-03         0.22714E-02         0.00000E+00
    0.81010E-03         0.19014E-02         0.00000E+00
    0.89694E-03         0.15241E-02         0.00000E+00
    0.96475E-03         0.11426E-02         0.00000E+00
    0.10132E-02         0.75939E-03         0.00000E+00
    0.10420E-02         0.37735E-03         0.00000E+00
    0.10515E-02         0.18700E-03         0.00000E+00
    0.00000E+00         0.60683E-02         0.00000E+00
   -0.82335E-04         0.60249E-02         0.00000E+00
   -0.16822E-03         0.59153E-02         0.00000E+00
   -0.26823E-03         0.57727E-02         0.00000E+00
   -0.37007E-03         0.56191E-02         0.00000E+00
   -0.45281E-03         0.54662E-02         0.00000E+00
   -0.50031E-03         0.53137E-02         0.00000E+00
   -0.50612E-03         0.51547E-02         0.00000E+00
   -0.47085E-03         0.49806E-02         0.00000E+00
   -0.39934E-03         0.47849E-02         0.00000E+00
   -0.29884E-03         0.45644E-02         0.00000E+00
   -0.17730E-03         0.43197E-02         0.00000E+00
   -0.40608E-04         0.40545E-02         0.00000E+00
    0.10763E-03         0.37714E-02         0.00000E+00
    0.26242E-03         0.34721E-02         0.00000E+00
    0.41771E-03         0.31586E-02         0.00000E+00
    0.56840E-03         0.28332E-02         0.00000E+00
    0.71000E-03         0.24977E-02         0.00000E+00
    0.83857E-03         0.21532E-02         0.00000E+00
    0.95050E-03         0.18011E-02         0.00000E+00
    0.10436E-02         0.14432E-02         0.00000E+00
    0.11166E-02         0.10817E-02         0.00000E+00
    0.11688E-02         0.71889E-03         0.00000E+00
    0.11999E-02         0.35728E-03         0.00000E+00
    0.12101E-02         0.17711E-03         0.00000E+00
   -0.21956E-16         0.61801E-02         0.00000E+00
   -0.11981E-03         0.61316E-02         0.00000E+00
   -0.22480E-03         0.60152E-02         0.00000E+00
   -0.31954E-03         0.58663E-02         0.00000E+00
   -0.39957E-03         0.56971E-02         0.00000E+00
   -0.45531E-03         0.55164E-02         0.00000E+00
   -0.47795E-03         0.53276E-02         0.00000E+00
   -0.46294E-03         0.51293E-02         0.00000E+00
   -0.41053E-03         0.49182E-02         0.00000E+00
   -0.32463E-03         0.46910E-02         0.00000E+00
   -0.21149E-03         0.44459E-02         0.00000E+00
   -0.78029E-04         0.41835E-02         0.00000E+00
    0.69631E-04         0.39059E-02         0.00000E+00
    0.22643E-03         0.36153E-02         0.00000E+00
    0.38731E-03         0.33138E-02         0.00000E+00
    0.54713E-03         0.30031E-02         0.00000E+00
    0.70127E-03         0.26850E-02         0.00000E+00
    0.84581E-03         0.23607E-02         0.00000E+00
    0.97720E-03         0.20309E-02         0.00000E+00
    0.10923E-02         0.16963E-02         0.00000E+00
    0.11885E-02         0.13580E-02         0.00000E+00
    0.12643E-02         0.10174E-02         0.00000E+00
    0.13187E-02         0.67606E-03         0.00000E+00
    0.13511E-02         0.33606E-03         0.00000E+00
    0.13617E-02         0.16668E-03         0.00000E+00
    0.20030E-31         0.63079E-02         0.00000E+00
   -0.12310E-03         0.62497E-02         0.00000E+00
   -0.22621E-03         0.61150E-02         0.00000E+00
   -0.31025E-03         0.59475E-02         0.00000E+00
   -0.37232E-03         0.57549E-02         0.00000E+00
   -0.40732E-03         0.55446E-02         0.00000E+00
   -0.41038E-03         0.53214E-02         0.00000E+00
   -0.37896E-03         0.50873E-02         0.00000E+00
   -0.31360E-03         0.48423E-02         0.00000E+00
   -0.21769E-03         0.45859E-02         0.00000E+00
   -0.96542E-04         0.43177E-02         0.00000E+00
    0.43716E-04         0.40386E-02         0.00000E+00
    0.19713E-03         0.37500E-02         0.00000E+00
    0.35828E-03         0.34537E-02         0.00000E+00
    0.52208E-03         0.31514E-02         0.00000E+00
    0.68380E-03         0.28447E-02         0.00000E+00
    0.83920E-03         0.25345E-02         0.00000E+00
    0.98456E-03         0.22218E-02         0.00000E+00
    0.11166E-02         0.19068E-02         0.00000E+00
    0.12324E-02         0.15898E-02         0.00000E+00
    0.13295E-02         0.12711E-02         0.00000E+00
    0.14062E-02         0.95154E-03         0.00000E+00
    0.14612E-02         0.63213E-03         0.00000E+00
    0.14941E-02         0.31429E-03         0.00000E+00
    0.15048E-02         0.15597E-03         0.00000E+00
    0.11415E-16         0.64263E-02         0.00000E+00
   -0.10584E-03         0.63578E-02         0.00000E+00
   -0.19258E-03         0.62023E-02         0.00000E+00
   -0.25884E-03         0.60124E-02         0.00000E+00
   -0.30185E-03         0.57942E-02         0.00000E+00
   -0.31814E-03         0.55545E-02         0.00000E+00
   -0.30470E-03         0.52992E-02         0.00000E+00
   -0.26016E-03         0.50325E-02         0.00000E+00
   -0.18529E-03         0.47569E-02         0.00000E+00
   -0.83008E-04         0.44739E-02         0.00000E+00
    0.42170E-04         0.41845E-02         0.00000E+00
    0.18488E-03         0.38899E-02         0.00000E+00
    0.33961E-03         0.35913E-02         0.00000E+00
    0.50108E-03         0.32904E-02         0.00000E+00
    0.66440E-03         0.29883E-02         0.00000E+00
    0.82507E-03         0.26860E-02         0.00000E+00
    0.97910E-03         0.23843E-02         0.00000E+00
    0.11230E-02         0.20833E-02         0.00000E+00
    0.12535E-02         0.17831E-02         0.00000E+00
    0.13680E-02         0.14834E-02         0.00000E+00
    0.14642E-02         0.11842E-02         0.00000E+00
    0.15402E-02         0.88565E-03         0.00000E+00
    0.15948E-02         0.58812E-03         0.00000E+00
    0.16275E-02         0.29247E-03         0.00000E+00
    0.16381E-02         0.14524E-03         0.00000E+00
    0.00000E+00         0.65196E-02         0.00000E+00
   -0.76450E-04         0.64423E-02         0.00000E+00
   -0.13756E-03         0.62680E-02         0.00000E+00
   -0.18053E-03         0.60567E-02         0.00000E+00
   -0.20233E-03         0.58142E-02         0.00000E+00
   -0.20009E-03         0.55475E-02         0.00000E+00
   -0.17161E-03         0.52634E-02         0.00000E+00
   -0.11599E-03         0.49679E-02         0.00000E+00
   -0.33983E-04         0.46652E-02         0.00000E+00
    0.71995E-04         0.43584E-02         0.00000E+00
    0.19819E-03         0.40499E-02         0.00000E+00
    0.34002E-03         0.37412E-02         0.00000E+00
    0.49259E-03         0.34338E-02         0.00000E+00
    0.65104E-03         0.31289E-02         0.00000E+00
    0.81080E-03         0.28274E-02         0.00000E+00
    0.96767E-03         0.25299E-02         0.00000E+00
    0.11179E-02         0.22367E-02         0.00000E+00
    0.12580E-02         0.19474E-02         0.00000E+00
    0.13852E-02         0.16617E-02         0.00000E+00
    0.14967E-02         0.13791E-02         0.00000E+00
    0.15904E-02         0.10989E-02         0.00000E+00
    0.16645E-02         0.82089E-03         0.00000E+00
    0.17178E-02         0.54484E-03         0.00000E+00
    0.17497E-02         0.27100E-03         0.00000E+00
    0.17601E-02         0.13468E-03         0.00000E+00
    0.00000E+00         0.65792E-02         0.00000E+00
   -0.40842E-04         0.64954E-02         0.00000E+00
   -0.71263E-04         0.63064E-02         0.00000E+00
   -0.87611E-04         0.60772E-02         0.00000E+00
   -0.86649E-04         0.58138E-02         0.00000E+00
   -0.65675E-04         0.55238E-02         0.00000E+00
   -0.22794E-04         0.52151E-02         0.00000E+00
    0.42771E-04         0.48949E-02         0.00000E+00
    0.13047E-03         0.45690E-02         0.00000E+00
    0.23844E-03         0.42417E-02         0.00000E+00
    0.36366E-03         0.39165E-02         0.00000E+00
    0.50235E-03         0.35955E-02         0.00000E+00
    0.65031E-03         0.32803E-02         0.00000E+00
    0.80327E-03         0.29722E-02         0.00000E+00
    0.95709E-03         0.26716E-02         0.00000E+00
    0.11079E-02         0.23789E-02         0.00000E+00
    0.12522E-02         0.20939E-02         0.00000E+00
    0.13869E-02         0.18160E-02         0.00000E+00
    0.15090E-02         0.15444E-02         0.00000E+00
    0.16162E-02         0.12782E-02         0.00000E+00
    0.17062E-02         0.10164E-02         0.00000E+00
    0.17775E-02         0.75821E-03         0.00000E+00
    0.18288E-02         0.50295E-03         0.00000E+00
    0.18594E-02         0.25023E-03         0.00000E+00
    0.18694E-02         0.12447E-03         0.00000E+00
    0.00000E+00         0.66013E-02         0.00000E+00
   -0.32796E-05         0.65136E-02         0.00000E+00
   -0.12253E-05         0.63148E-02         0.00000E+00
    0.10226E-04         0.60721E-02         0.00000E+00
    0.34439E-04         0.57923E-02         0.00000E+00
    0.74050E-04         0.54836E-02         0.00000E+00
    0.13086E-03         0.51550E-02         0.00000E+00
    0.20570E-03         0.48146E-02         0.00000E+00
    0.29830E-03         0.44695E-02         0.00000E+00
    0.40731E-03         0.41252E-02         0.00000E+00
    0.53045E-03         0.37860E-02         0.00000E+00
    0.66470E-03         0.34545E-02         0.00000E+00
    0.80659E-03         0.31329E-02         0.00000E+00
    0.95249E-03         0.28221E-02         0.00000E+00
    0.10988E-02         0.25228E-02         0.00000E+00
    0.12420E-02         0.22348E-02         0.00000E+00
    0.13790E-02         0.19577E-02         0.00000E+00
    0.15068E-02         0.16906E-02         0.00000E+00
    0.16227E-02         0.14324E-02         0.00000E+00
    0.17244E-02         0.11819E-02         0.00000E+00
    0.18099E-02         0.93761E-03         0.00000E+00
    0.18776E-02         0.69834E-03         0.00000E+00
    0.19263E-02         0.46293E-03         0.00000E+00
    0.19554E-02         0.23039E-03         0.00000E+00
    0.19649E-02         0.11472E-03         0.00000E+00
    0.00000E+00         0.65857E-02         0.00000E+00
    0.33221E-04         0.64966E-02         0.00000E+00
    0.67079E-04         0.62929E-02         0.00000E+00
    0.10574E-03         0.60415E-02         0.00000E+00
    0.15257E-03         0.57499E-02         0.00000E+00
    0.21015E-03         0.54274E-02         0.00000E+00
    0.28027E-03         0.50835E-02         0.00000E+00
    0.36383E-03         0.47275E-02         0.00000E+00
    0.46087E-03         0.43673E-02         0.00000E+00
    0.57053E-03         0.40096E-02         0.00000E+00
    0.69114E-03         0.36591E-02         0.00000E+00
    0.82041E-03         0.33193E-02         0.00000E+00
    0.95558E-03         0.29925E-02         0.00000E+00
    0.10937E-02         0.26800E-02         0.00000E+00
    0.12316E-02         0.23821E-02         0.00000E+00
    0.13663E-02         0.20987E-02         0.00000E+00
    0.14951E-02         0.18292E-02         0.00000E+00
    0.16151E-02         0.15723E-02         0.00000E+00
    0.17241E-02         0.13268E-02         0.00000E+00
    0.18197E-02         0.10910E-02         0.00000E+00
    0.19000E-02         0.86320E-03         0.00000E+00
    0.19637E-02         0.64181E-03         0.00000E+00
    0.20095E-02         0.42514E-03         0.00000E+00
    0.20368E-02         0.21166E-03         0.00000E+00
    0.20457E-02         0.10554E-03         0.00000E+00
    0.00000E+00         0.65349E-02         0.00000E+00
    0.66643E-04         0.64465E-02         0.00000E+00
    0.12992E-03         0.62423E-02         0.00000E+00
    0.19387E-03         0.59866E-02         0.00000E+00
    0.26175E-03         0.56879E-02         0.00000E+00
    0.33605E-03         0.53559E-02         0.00000E+00
    0.41853E-03         0.50013E-02         0.00000E+00
    0.51020E-03         0.46340E-02         0.00000E+00
    0.61135E-03         0.42628E-02         0.00000E+00
    0.72151E-03         0.38950E-02         0.00000E+00
    0.83957E-03         0.35361E-02         0.00000E+00
    0.96385E-03         0.31901E-02         0.00000E+00
    0.10922E-02         0.28596E-02         0.00000E+00
    0.12224E-02         0.25461E-02         0.00000E+00
    0.13517E-02         0.22501E-02         0.00000E+00
    0.14777E-02         0.19713E-02         0.00000E+00
    0.15979E-02         0.17089E-02         0.00000E+00
    0.17098E-02         0.14616E-02         0.00000E+00
    0.18114E-02         0.12279E-02         0.00000E+00
    0.19005E-02         0.10059E-02         0.00000E+00
    0.19755E-02         0.79358E-03         0.00000E+00
    0.20348E-02         0.58891E-03         0.00000E+00
    0.20775E-02         0.38979E-03         0.00000E+00
    0.21030E-02         0.19416E-03         0.00000E+00
    0.21112E-02         0.96954E-04         0.00000E+00
    0.00000E+00         0.64525E-02         0.00000E+00
    0.95771E-04         0.63667E-02         0.00000E+00
    0.18498E-03         0.61657E-02         0.00000E+00
    0.27140E-03         0.59097E-02         0.00000E+00
    0.35807E-03         0.56078E-02         0.00000E+00
    0.44735E-03         0.52706E-02         0.00000E+00
    0.54096E-03         0.49093E-02         0.00000E+00
    0.63997E-03         0.45346E-02         0.00000E+00
    0.74485E-03         0.41560E-02         0.00000E+00
    0.85547E-03         0.37814E-02         0.00000E+00
    0.97115E-03         0.34167E-02         0.00000E+00
    0.10907E-02         0.30666E-02         0.00000E+00
    0.12127E-02         0.27340E-02         0.00000E+00
    0.13352E-02         0.24205E-02         0.00000E+00
    0.14562E-02         0.21268E-02         0.00000E+00
    0.15736E-02         0.18526E-02         0.00000E+00
    0.16852E-02         0.15970E-02         0.00000E+00
    0.17891E-02         0.13588E-02         0.00000E+00
    0.18833E-02         0.11361E-02         0.00000E+00
    0.19659E-02         0.92689E-03         0.00000E+00
    0.20353E-02         0.72893E-03         0.00000E+00
    0.20903E-02         0.53979E-03         0.00000E+00
    0.21298E-02         0.35697E-03         0.00000E+00
    0.21534E-02         0.17791E-03         0.00000E+00
    0.21611E-02         0.88997E-04         0.00000E+00
    0.00000E+00         0.63433E-02         0.00000E+00
    0.12000E-03         0.62615E-02         0.00000E+00
    0.23108E-03         0.60666E-02         0.00000E+00
    0.33661E-03         0.58136E-02         0.00000E+00
    0.43938E-03         0.55119E-02         0.00000E+00
    0.54158E-03         0.51730E-02         0.00000E+00
    0.64482E-03         0.48087E-02         0.00000E+00
    0.75021E-03         0.44301E-02         0.00000E+00
    0.85836E-03         0.40473E-02         0.00000E+00
    0.96936E-03         0.36687E-02         0.00000E+00
    0.10829E-02         0.33008E-02         0.00000E+00
    0.11983E-02         0.29485E-02         0.00000E+00
    0.13143E-02         0.26152E-02         0.00000E+00
    0.14297E-02         0.23027E-02         0.00000E+00
    0.15429E-02         0.20117E-02         0.00000E+00
    0.16521E-02         0.17422E-02         0.00000E+00
    0.17557E-02         0.14933E-02         0.00000E+00
    0.18519E-02         0.12636E-02         0.00000E+00
    0.19389E-02         0.10512E-02         0.00000E+00
    0.20151E-02         0.85387E-03         0.00000E+00
    0.20792E-02         0.66918E-03         0.00000E+00
    0.21299E-02         0.49441E-03         0.00000E+00
    0.21664E-02         0.32666E-03         0.00000E+00
    0.21881E-02         0.16291E-03         0.00000E+00
    0.21952E-02         0.81655E-04         0.00000E+00
    0.00000E+00         0.62125E-02         0.00000E+00
    0.13920E-03         0.61356E-02         0.00000E+00
    0.26786E-03         0.59491E-02         0.00000E+00
    0.38895E-03         0.57014E-02         0.00000E+00
    0.50493E-03         0.54028E-02         0.00000E+00
    0.61777E-03         0.50651E-02         0.00000E+00
    0.72899E-03         0.47007E-02         0.00000E+00
    0.83967E-03         0.43211E-02         0.00000E+00
    0.95049E-03         0.39369E-02         0.00000E+00
    0.10617E-02         0.35568E-02         0.00000E+00
    0.11733E-02         0.31879E-02         0.00000E+00
    0.12849E-02         0.28352E-02         0.00000E+00
    0.13956E-02         0.25026E-02         0.00000E+00
    0.15046E-02         0.21919E-02         0.00000E+00
    0.16106E-02         0.19043E-02         0.00000E+00
    0.17124E-02         0.16397E-02         0.00000E+00
    0.18085E-02         0.13973E-02         0.00000E+00
    0.18974E-02         0.11757E-02         0.00000E+00
    0.19777E-02         0.97285E-03         0.00000E+00
    0.20480E-02         0.78657E-03         0.00000E+00
    0.21070E-02         0.61415E-03         0.00000E+00
    0.21537E-02         0.45261E-03         0.00000E+00
    0.21872E-02         0.29874E-03         0.00000E+00
    0.22073E-02         0.14910E-03         0.00000E+00
    0.22138E-02         0.74893E-04         0.00000E+00
    0.00000E+00         0.60649E-02         0.00000E+00
    0.15353E-03         0.59936E-02         0.00000E+00
    0.29558E-03         0.58169E-02         0.00000E+00
    0.42867E-03         0.55765E-02         0.00000E+00
    0.55493E-03         0.52831E-02         0.00000E+00
    0.67611E-03         0.49489E-02         0.00000E+00
    0.79357E-03         0.45868E-02         0.00000E+00
    0.90835E-03         0.42086E-02         0.00000E+00
    0.10211E-02         0.38252E-02         0.00000E+00
    0.11324E-02         0.34458E-02         0.00000E+00
    0.12421E-02         0.30777E-02         0.00000E+00
    0.13502E-02         0.27263E-02         0.00000E+00
    0.14562E-02         0.23955E-02         0.00000E+00
    0.15595E-02         0.20876E-02         0.00000E+00
    0.16591E-02         0.18039E-02         0.00000E+00
    0.17542E-02         0.15444E-02         0.00000E+00
    0.18434E-02         0.13083E-02         0.00000E+00
    0.19257E-02         0.10944E-02         0.00000E+00
    0.19999E-02         0.90062E-03         0.00000E+00
    0.20646E-02         0.72459E-03         0.00000E+00
    0.21190E-02         0.56351E-03         0.00000E+00
    0.21619E-02         0.41417E-03         0.00000E+00
    0.21928E-02         0.27306E-03         0.00000E+00
    0.22112E-02         0.13638E-03         0.00000E+00
    0.22172E-02         0.68664E-04         0.00000E+00
    0.00000E+00         0.59054E-02         0.00000E+00
    0.16337E-03         0.58400E-02         0.00000E+00
    0.31487E-03         0.56739E-02         0.00000E+00
    0.45660E-03         0.54420E-02         0.00000E+00
    0.59033E-03         0.51554E-02         0.00000E+00
    0.71757E-03         0.48265E-02         0.00000E+00
    0.83953E-03         0.44684E-02         0.00000E+00
    0.95717E-03         0.40935E-02         0.00000E+00
    0.10712E-02         0.37129E-02         0.00000E+00
    0.11820E-02         0.33358E-02         0.00000E+00
    0.12899E-02         0.29700E-02         0.00000E+00
    0.13948E-02         0.26211E-02         0.00000E+00
    0.14966E-02         0.22933E-02         0.00000E+00
    0.15948E-02         0.19890E-02         0.00000E+00
    0.16887E-02         0.17096E-02         0.00000E+00
    0.17777E-02         0.14554E-02         0.00000E+00
    0.18609E-02         0.12257E-02         0.00000E+00
    0.19372E-02         0.10192E-02         0.00000E+00
    0.20058E-02         0.83395E-03         0.00000E+00
    0.20656E-02         0.66748E-03         0.00000E+00
    0.21157E-02         0.51688E-03         0.00000E+00
    0.21553E-02         0.37878E-03         0.00000E+00
    0.21837E-02         0.24941E-03         0.00000E+00
    0.22007E-02         0.12466E-03         0.00000E+00
    0.22063E-02         0.62911E-04         0.00000E+00
    0.00000E+00         0.57382E-02         0.00000E+00
    0.16921E-03         0.56788E-02         0.00000E+00
    0.32661E-03         0.55236E-02         0.00000E+00
    0.47388E-03         0.53010E-02         0.00000E+00
    0.61247E-03         0.50221E-02         0.00000E+00
    0.74364E-03         0.46997E-02         0.00000E+00
    0.86844E-03         0.43472E-02         0.00000E+00
    0.98771E-03         0.39769E-02         0.00000E+00
    0.11021E-02         0.36004E-02         0.00000E+00
    0.12122E-02         0.32271E-02         0.00000E+00
    0.13181E-02         0.28648E-02         0.00000E+00
    0.14200E-02         0.25196E-02         0.00000E+00
    0.15179E-02         0.21955E-02         0.00000E+00
    0.16115E-02         0.18955E-02         0.00000E+00
    0.17004E-02         0.16209E-02         0.00000E+00
    0.17840E-02         0.13722E-02         0.00000E+00
    0.18617E-02         0.11488E-02         0.00000E+00
    0.19328E-02         0.94945E-03         0.00000E+00
    0.19964E-02         0.77226E-03         0.00000E+00
    0.20517E-02         0.61473E-03         0.00000E+00
    0.20980E-02         0.47386E-03         0.00000E+00
    0.21346E-02         0.34613E-03         0.00000E+00
    0.21609E-02         0.22757E-03         0.00000E+00
    0.21766E-02         0.11382E-03         0.00000E+00
    0.21818E-02         0.57575E-04         0.00000E+00
    0.00000E+00         0.55670E-02         0.00000E+00
    0.17159E-03         0.55134E-02         0.00000E+00
    0.33179E-03         0.53692E-02         0.00000E+00
    0.48185E-03         0.51562E-02         0.00000E+00
    0.62294E-03         0.48856E-02         0.00000E+00
    0.75609E-03         0.45705E-02         0.00000E+00
    0.88216E-03         0.42244E-02         0.00000E+00
    0.10019E-02         0.38598E-02         0.00000E+00
    0.11159E-02         0.34884E-02         0.00000E+00
    0.12246E-02         0.31199E-02         0.00000E+00
    0.13284E-02         0.27622E-02         0.00000E+00
    0.14274E-02         0.24213E-02         0.00000E+00
    0.15217E-02         0.21018E-02         0.00000E+00
    0.16111E-02         0.18066E-02         0.00000E+00
    0.16954E-02         0.15371E-02         0.00000E+00
    0.17743E-02         0.12941E-02         0.00000E+00
    0.18472E-02         0.10769E-02         0.00000E+00
    0.19135E-02         0.88453E-03         0.00000E+00
    0.19727E-02         0.71501E-03         0.00000E+00
    0.20241E-02         0.56587E-03         0.00000E+00
    0.20670E-02         0.43404E-03         0.00000E+00
    0.21009E-02         0.31591E-03         0.00000E+00
    0.21253E-02         0.20734E-03         0.00000E+00
    0.21400E-02         0.10375E-03         0.00000E+00
    0.21448E-02         0.52601E-04         0.00000E+00
    0.00000E+00         0.53950E-02         0.00000E+00
    0.17108E-03         0.53470E-02         0.00000E+00
    0.33140E-03         0.52134E-02         0.00000E+00
    0.48189E-03         0.50099E-02         0.00000E+00
    0.62342E-03         0.47479E-02         0.00000E+00
    0.75680E-03         0.44405E-02         0.00000E+00
    0.88273E-03         0.41013E-02         0.00000E+00
    0.10018E-02         0.37432E-02         0.00000E+00
    0.11147E-02         0.33777E-02         0.00000E+00
    0.12216E-02         0.30146E-02         0.00000E+00
    0.13230E-02         0.26621E-02         0.00000E+00
    0.14190E-02         0.23263E-02         0.00000E+00
    0.15098E-02         0.20119E-02         0.00000E+00
    0.15954E-02         0.17218E-02         0.00000E+00
    0.16756E-02         0.14577E-02         0.00000E+00
    0.17501E-02         0.12204E-02         0.00000E+00
    0.18187E-02         0.10095E-02         0.00000E+00
    0.18809E-02         0.82390E-03         0.00000E+00
    0.19361E-02         0.66170E-03         0.00000E+00
    0.19840E-02         0.52045E-03         0.00000E+00
    0.20239E-02         0.39706E-03         0.00000E+00
    0.20555E-02         0.28783E-03         0.00000E+00
    0.20782E-02         0.18851E-03         0.00000E+00
    0.20919E-02         0.94347E-04         0.00000E+00
    0.20964E-02         0.47937E-04         0.00000E+00
    0.00000E+00         0.52248E-02         0.00000E+00
    0.16820E-03         0.51820E-02         0.00000E+00
    0.32644E-03         0.50584E-02         0.00000E+00
    0.47534E-03         0.48642E-02         0.00000E+00
    0.61555E-03         0.46107E-02         0.00000E+00
    0.74765E-03         0.43112E-02         0.00000E+00
    0.87219E-03         0.39793E-02         0.00000E+00
    0.98968E-03         0.36279E-02         0.00000E+00
    0.11006E-02         0.32687E-02         0.00000E+00
    0.12052E-02         0.29116E-02         0.00000E+00
    0.13039E-02         0.25647E-02         0.00000E+00
    0.13969E-02         0.22345E-02         0.00000E+00
    0.14843E-02         0.19255E-02         0.00000E+00
    0.15663E-02         0.16408E-02         0.00000E+00
    0.16426E-02         0.13824E-02         0.00000E+00
    0.17132E-02         0.11509E-02         0.00000E+00
    0.17779E-02         0.94618E-03         0.00000E+00
    0.18363E-02         0.76709E-03         0.00000E+00
    0.18881E-02         0.61188E-03         0.00000E+00
    0.19328E-02         0.47808E-03         0.00000E+00
    0.19701E-02         0.36258E-03         0.00000E+00
    0.19995E-02         0.26164E-03         0.00000E+00
    0.20208E-02         0.17091E-03         0.00000E+00
    0.20337E-02         0.85529E-04         0.00000E+00
    0.20379E-02         0.43540E-04         0.00000E+00
    0.00000E+00         0.50586E-02         0.00000E+00
    0.16343E-03         0.50205E-02         0.00000E+00
    0.31779E-03         0.49062E-02         0.00000E+00
    0.46348E-03         0.47208E-02         0.00000E+00
    0.60088E-03         0.44756E-02         0.00000E+00
    0.73041E-03         0.41839E-02         0.00000E+00
    0.85248E-03         0.38593E-02         0.00000E+00
    0.96747E-03         0.35148E-02         0.00000E+00
    0.10757E-02         0.31621E-02         0.00000E+00
    0.11776E-02         0.28112E-02         0.00000E+00
    0.12734E-02         0.24704E-02         0.00000E+00
    0.13632E-02         0.21459E-02         0.00000E+00
    0.14472E-02         0.18425E-02         0.00000E+00
    0.15256E-02         0.15635E-02         0.00000E+00
    0.15984E-02         0.13108E-02         0.00000E+00
    0.16654E-02         0.10852E-02         0.00000E+00
    0.17265E-02         0.88646E-03         0.00000E+00
    0.17814E-02         0.71371E-03         0.00000E+00
    0.18301E-02         0.56518E-03         0.00000E+00
    0.18720E-02         0.43843E-03         0.00000E+00
    0.19069E-02         0.33033E-03         0.00000E+00
    0.19345E-02         0.23711E-03         0.00000E+00
    0.19545E-02         0.15439E-03         0.00000E+00
    0.19666E-02         0.77222E-04         0.00000E+00
    0.19706E-02         0.39375E-04         0.00000E+00
    0.00000E+00         0.48980E-02         0.00000E+00
    0.15720E-03         0.48642E-02         0.00000E+00
    0.30629E-03         0.47584E-02         0.00000E+00
    0.44742E-03         0.45811E-02         0.00000E+00
    0.58082E-03         0.43438E-02         0.00000E+00
    0.70672E-03         0.40596E-02         0.00000E+00
    0.82540E-03         0.37422E-02         0.00000E+00
    0.93714E-03         0.34046E-02         0.00000E+00
    0.10422E-02         0.30585E-02         0.00000E+00
    0.11409E-02         0.27140E-02         0.00000E+00
    0.12333E-02         0.23792E-02         0.00000E+00
    0.13198E-02         0.20606E-02         0.00000E+00
    0.14005E-02         0.17630E-02         0.00000E+00
    0.14754E-02         0.14897E-02         0.00000E+00
    0.15447E-02         0.12427E-02         0.00000E+00
    0.16083E-02         0.10228E-02         0.00000E+00
    0.16660E-02         0.83008E-03         0.00000E+00
    0.17179E-02         0.66347E-03         0.00000E+00
    0.17636E-02         0.52132E-03         0.00000E+00
    0.18030E-02         0.40122E-03         0.00000E+00
    0.18358E-02         0.30007E-03         0.00000E+00
    0.18618E-02         0.21408E-03         0.00000E+00
    0.18805E-02         0.13884E-03         0.00000E+00
    0.18920E-02         0.69369E-04         0.00000E+00
    0.18958E-02         0.35416E-04         0.00000E+00
    0.00000E+00         0.47442E-02         0.00000E+00
    0.14990E-03         0.47142E-02         0.00000E+00
    0.29264E-03         0.46160E-02         0.00000E+00
    0.42820E-03         0.44462E-02         0.00000E+00
    0.55662E-03         0.42163E-02         0.00000E+00
    0.67803E-03         0.39393E-02         0.00000E+00
    0.79257E-03         0.36289E-02         0.00000E+00
    0.90042E-03         0.32980E-02         0.00000E+00
    0.10018E-02         0.29584E-02         0.00000E+00
    0.10968E-02         0.26201E-02         0.00000E+00
    0.11858E-02         0.22914E-02         0.00000E+00
    0.12688E-02         0.19787E-02         0.00000E+00
    0.13460E-02         0.16869E-02         0.00000E+00
    0.14175E-02         0.14193E-02         0.00000E+00
    0.14834E-02         0.11780E-02         0.00000E+00
    0.15436E-02         0.96381E-03         0.00000E+00
    0.15983E-02         0.77682E-03         0.00000E+00
    0.16472E-02         0.61611E-03         0.00000E+00
    0.16903E-02         0.48005E-03         0.00000E+00
    0.17274E-02         0.36624E-03         0.00000E+00
    0.17582E-02         0.27162E-03         0.00000E+00
    0.17826E-02         0.19240E-03         0.00000E+00
    0.18003E-02         0.12417E-03         0.00000E+00
    0.18111E-02         0.61929E-04         0.00000E+00
    0.18148E-02         0.31645E-04         0.00000E+00
    0.00000E+00         0.45982E-02         0.00000E+00
    0.14184E-03         0.45716E-02         0.00000E+00
    0.27745E-03         0.44801E-02         0.00000E+00
    0.40666E-03         0.43171E-02         0.00000E+00
    0.52939E-03         0.40939E-02         0.00000E+00
    0.64563E-03         0.38237E-02         0.00000E+00
    0.75543E-03         0.35199E-02         0.00000E+00
    0.85887E-03         0.31954E-02         0.00000E+00
    0.95607E-03         0.28621E-02         0.00000E+00
    0.10472E-02         0.25300E-02         0.00000E+00
    0.11323E-02         0.22072E-02         0.00000E+00
    0.12117E-02         0.19004E-02         0.00000E+00
    0.12853E-02         0.16143E-02         0.00000E+00
    0.13534E-02         0.13523E-02         0.00000E+00
    0.14160E-02         0.11165E-02         0.00000E+00
    0.14731E-02         0.90790E-03         0.00000E+00
    0.15247E-02         0.72650E-03         0.00000E+00
    0.15709E-02         0.57146E-03         0.00000E+00
    0.16114E-02         0.44119E-03         0.00000E+00
    0.16463E-02         0.33333E-03         0.00000E+00
    0.16753E-02         0.24484E-03         0.00000E+00
    0.16983E-02         0.17197E-03         0.00000E+00
    0.17150E-02         0.11031E-03         0.00000E+00
    0.17252E-02         0.54872E-04         0.00000E+00
    0.17287E-02         0.28049E-04         0.00000E+00
    0.00000E+00         0.44605E-02         0.00000E+00
    0.13329E-03         0.44368E-02         0.00000E+00
    0.26123E-03         0.43512E-02         0.00000E+00
    0.38355E-03         0.41943E-02         0.00000E+00
    0.50004E-03         0.39773E-02         0.00000E+00
    0.61060E-03         0.37133E-02         0.00000E+00
    0.71519E-03         0.34156E-02         0.00000E+00
    0.81381E-03         0.30974E-02         0.00000E+00
    0.90651E-03         0.27701E-02         0.00000E+00
    0.99339E-03         0.24439E-02         0.00000E+00
    0.10745E-02         0.21269E-02         0.00000E+00
    0.11501E-02         0.18257E-02         0.00000E+00
    0.12201E-02         0.15452E-02         0.00000E+00
    0.12847E-02         0.12887E-02         0.00000E+00
    0.13440E-02         0.10583E-02         0.00000E+00
    0.13980E-02         0.85504E-03         0.00000E+00
    0.14467E-02         0.67901E-03         0.00000E+00
    0.14902E-02         0.52939E-03         0.00000E+00
    0.15284E-02         0.40461E-03         0.00000E+00
    0.15612E-02         0.30237E-03         0.00000E+00
    0.15884E-02         0.21964E-03         0.00000E+00
    0.16101E-02         0.15272E-03         0.00000E+00
    0.16258E-02         0.97217E-04         0.00000E+00
    0.16355E-02         0.48179E-04         0.00000E+00
    0.16389E-02         0.24623E-04         0.00000E+00
    0.00000E+00         0.43316E-02         0.00000E+00
    0.12447E-03         0.43103E-02         0.00000E+00
    0.24442E-03         0.42298E-02         0.00000E+00
    0.35947E-03         0.40783E-02         0.00000E+00
    0.46935E-03         0.38669E-02         0.00000E+00
    0.57386E-03         0.36085E-02         0.00000E+00
    0.67289E-03         0.33166E-02         0.00000E+00
    0.76637E-03         0.30041E-02         0.00000E+00
    0.85431E-03         0.26826E-02         0.00000E+00
    0.93673E-03         0.23620E-02         0.00000E+00
    0.10137E-02         0.20506E-02         0.00000E+00
    0.10853E-02         0.17548E-02         0.00000E+00
    0.11516E-02         0.14797E-02         0.00000E+00
    0.12127E-02         0.12284E-02         0.00000E+00
    0.12687E-02         0.10032E-02         0.00000E+00
    0.13196E-02         0.80515E-03         0.00000E+00
    0.13655E-02         0.63426E-03         0.00000E+00
    0.14064E-02         0.48980E-03         0.00000E+00
    0.14423E-02         0.37022E-03         0.00000E+00
    0.14731E-02         0.27326E-03         0.00000E+00
    0.14987E-02         0.19594E-03         0.00000E+00
    0.15190E-02         0.13458E-03         0.00000E+00
    0.15339E-02         0.84855E-04         0.00000E+00
    0.15430E-02         0.41840E-04         0.00000E+00
    0.15462E-02         0.21364E-04         0.00000E+00
    0.00000E+00         0.42116E-02         0.00000E+00
    0.11555E-03         0.41924E-02         0.00000E+00
    0.22735E-03         0.41162E-02         0.00000E+00
    0.33493E-03         0.39694E-02         0.00000E+00
    0.43796E-03         0.37629E-02         0.00000E+00
    0.53618E-03         0.35097E-02         0.00000E+00
    0.62940E-03         0.32231E-02         0.00000E+00
    0.71752E-03         0.29160E-02         0.00000E+00
    0.80048E-03         0.25997E-02         0.00000E+00
    0.87827E-03         0.22845E-02         0.00000E+00
    0.95092E-03         0.19783E-02         0.00000E+00
    0.10185E-02         0.16878E-02         0.00000E+00
    0.10810E-02         0.14178E-02         0.00000E+00
    0.11386E-02         0.11716E-02         0.00000E+00
    0.11913E-02         0.95136E-03         0.00000E+00
    0.12391E-02         0.75820E-03         0.00000E+00
    0.12822E-02         0.59220E-03         0.00000E+00
    0.13206E-02         0.45262E-03         0.00000E+00
    0.13542E-02         0.33795E-03         0.00000E+00
    0.13831E-02         0.24595E-03         0.00000E+00
    0.14071E-02         0.17369E-03         0.00000E+00
    0.14262E-02         0.11754E-03         0.00000E+00
    0.14402E-02         0.73208E-04         0.00000E+00
    0.14488E-02         0.35848E-04         0.00000E+00
    0.14518E-02         0.18271E-04         0.00000E+00
    0.00000E+00         0.41005E-02         0.00000E+00
    0.10668E-03         0.40830E-02         0.00000E+00
    0.21029E-03         0.40104E-02         0.00000E+00
    0.31032E-03         0.38677E-02         0.00000E+00
    0.40637E-03         0.36656E-02         0.00000E+00
    0.49815E-03         0.34171E-02         0.00000E+00
    0.58541E-03         0.31353E-02         0.00000E+00
    0.66802E-03         0.28330E-02         0.00000E+00
    0.74586E-03         0.25218E-02         0.00000E+00
    0.81890E-03         0.22115E-02         0.00000E+00
    0.88713E-03         0.19104E-02         0.00000E+00
    0.95056E-03         0.16248E-02         0.00000E+00
    0.10093E-02         0.13596E-02         0.00000E+00
    0.10633E-02         0.11181E-02         0.00000E+00
    0.11127E-02         0.90266E-03         0.00000E+00
    0.11575E-02         0.71417E-03         0.00000E+00
    0.11978E-02         0.55279E-03         0.00000E+00
    0.12337E-02         0.41780E-03         0.00000E+00
    0.12651E-02         0.30774E-03         0.00000E+00
    0.12921E-02         0.22038E-03         0.00000E+00
    0.13146E-02         0.15285E-03         0.00000E+00
    0.13324E-02         0.10155E-03         0.00000E+00
    0.13455E-02         0.62267E-04         0.00000E+00
    0.13536E-02         0.30205E-04         0.00000E+00
    0.13564E-02         0.15349E-04         0.00000E+00
    0.00000E+00         0.39982E-02         0.00000E+00
    0.97963E-04         0.39821E-02         0.00000E+00
    0.19345E-03         0.39126E-02         0.00000E+00
    0.28593E-03         0.37733E-02         0.00000E+00
    0.37498E-03         0.35751E-02         0.00000E+00
    0.46026E-03         0.33307E-02         0.00000E+00
    0.54149E-03         0.30533E-02         0.00000E+00
    0.61849E-03         0.27555E-02         0.00000E+00
    0.69114E-03         0.24489E-02         0.00000E+00
    0.75934E-03         0.21432E-02         0.00000E+00
    0.82308E-03         0.18467E-02         0.00000E+00
    0.88235E-03         0.15657E-02         0.00000E+00
    0.93718E-03         0.13051E-02         0.00000E+00
    0.98761E-03         0.10682E-02         0.00000E+00
    0.10337E-02         0.85712E-03         0.00000E+00
    0.10755E-02         0.67303E-03         0.00000E+00
    0.11131E-02         0.51599E-03         0.00000E+00
    0.11465E-02         0.38532E-03         0.00000E+00
    0.11758E-02         0.27955E-03         0.00000E+00
    0.12009E-02         0.19654E-03         0.00000E+00
    0.12218E-02         0.13340E-03         0.00000E+00
    0.12384E-02         0.86616E-04         0.00000E+00
    0.12506E-02         0.52025E-04         0.00000E+00
    0.12582E-02         0.24909E-04         0.00000E+00
    0.12609E-02         0.12598E-04         0.00000E+00
    0.00000E+00         0.39046E-02         0.00000E+00
    0.89466E-04         0.38895E-02         0.00000E+00
    0.17699E-03         0.38225E-02         0.00000E+00
    0.26201E-03         0.36861E-02         0.00000E+00
    0.34410E-03         0.34913E-02         0.00000E+00
    0.42288E-03         0.32506E-02         0.00000E+00
    0.49806E-03         0.29771E-02         0.00000E+00
    0.56943E-03         0.26834E-02         0.00000E+00
    0.63683E-03         0.23810E-02         0.00000E+00
    0.70016E-03         0.20796E-02         0.00000E+00
    0.75937E-03         0.17874E-02         0.00000E+00
    0.81444E-03         0.15107E-02         0.00000E+00
    0.86539E-03         0.12543E-02         0.00000E+00
    0.91224E-03         0.10216E-02         0.00000E+00
    0.95504E-03         0.81475E-03         0.00000E+00
    0.99385E-03         0.63476E-03         0.00000E+00
    0.10287E-02         0.48178E-03         0.00000E+00
    0.10597E-02         0.35513E-03         0.00000E+00
    0.10868E-02         0.25337E-03         0.00000E+00
    0.11101E-02         0.17438E-03         0.00000E+00
    0.11295E-02         0.11532E-03         0.00000E+00
    0.11449E-02         0.72719E-04         0.00000E+00
    0.11562E-02         0.42483E-04         0.00000E+00
    0.11633E-02         0.19965E-04         0.00000E+00
    0.11658E-02         0.10024E-04         0.00000E+00
    0.67844E-17         0.38193E-02         0.00000E+00
    0.81248E-04         0.38051E-02         0.00000E+00
    0.16100E-03         0.37400E-02         0.00000E+00
    0.23872E-03         0.36062E-02         0.00000E+00
    0.31394E-03         0.34142E-02         0.00000E+00
    0.38628E-03         0.31767E-02         0.00000E+00
    0.45544E-03         0.29067E-02         0.00000E+00
    0.52118E-03         0.26167E-02         0.00000E+00
    0.58334E-03         0.23181E-02         0.00000E+00
    0.64179E-03         0.20207E-02         0.00000E+00
    0.69647E-03         0.17324E-02         0.00000E+00
    0.74734E-03         0.14597E-02         0.00000E+00
    0.79440E-03         0.12073E-02         0.00000E+00
    0.83767E-03         0.97850E-03         0.00000E+00
    0.87720E-03         0.77551E-03         0.00000E+00
    0.91302E-03         0.59934E-03         0.00000E+00
    0.94519E-03         0.45014E-03         0.00000E+00
    0.97376E-03         0.32722E-03         0.00000E+00
    0.99877E-03         0.22917E-03         0.00000E+00
    0.10202E-02         0.15389E-03         0.00000E+00
    0.10381E-02         0.98593E-04         0.00000E+00
    0.10523E-02         0.59854E-04         0.00000E+00
    0.10628E-02         0.33637E-04         0.00000E+00
    0.10693E-02         0.15373E-04         0.00000E+00
    0.10716E-02         0.76291E-05         0.00000E+00
    0.95526E-31         0.37421E-02         0.00000E+00
    0.73343E-04         0.37285E-02         0.00000E+00
    0.14558E-03         0.36650E-02         0.00000E+00
    0.21617E-03         0.35332E-02         0.00000E+00
    0.28466E-03         0.33437E-02         0.00000E+00
    0.35066E-03         0.31091E-02         0.00000E+00
    0.41386E-03         0.28422E-02         0.00000E+00
    0.47402E-03         0.25555E-02         0.00000E+00
    0.53097E-03         0.22603E-02         0.00000E+00
    0.58456E-03         0.19665E-02         0.00000E+00
    0.63472E-03         0.16818E-02         0.00000E+00
    0.68140E-03         0.14127E-02         0.00000E+00
    0.72459E-03         0.11640E-02         0.00000E+00
    0.76430E-03         0.93882E-03         0.00000E+00
    0.80056E-03         0.73940E-03         0.00000E+00
    0.83342E-03         0.56676E-03         0.00000E+00
    0.86292E-03         0.42103E-03         0.00000E+00
    0.88911E-03         0.30155E-03         0.00000E+00
    0.91203E-03         0.20692E-03         0.00000E+00
    0.93169E-03         0.13505E-03         0.00000E+00
    0.94807E-03         0.83210E-04         0.00000E+00
    0.96112E-03         0.48012E-04         0.00000E+00
    0.97074E-03         0.25486E-04         0.00000E+00
    0.97673E-03         0.11137E-04         0.00000E+00
    0.97886E-03         0.54152E-05         0.00000E+00
   -0.65239E-17         0.36726E-02         0.00000E+00
    0.65767E-04         0.36595E-02         0.00000E+00
    0.13075E-03         0.35972E-02         0.00000E+00
    0.19442E-03         0.34671E-02         0.00000E+00
    0.25634E-03         0.32797E-02         0.00000E+00
    0.31612E-03         0.30475E-02         0.00000E+00
    0.37346E-03         0.27833E-02         0.00000E+00
    0.42812E-03         0.24996E-02         0.00000E+00
    0.47990E-03         0.22076E-02         0.00000E+00
    0.52867E-03         0.19169E-02         0.00000E+00
    0.57435E-03         0.16356E-02         0.00000E+00
    0.61687E-03         0.13698E-02         0.00000E+00
    0.65621E-03         0.11244E-02         0.00000E+00
    0.69239E-03         0.90253E-03         0.00000E+00
    0.72542E-03         0.70639E-03         0.00000E+00
    0.75535E-03         0.53698E-03         0.00000E+00
    0.78220E-03         0.39444E-03         0.00000E+00
    0.80604E-03         0.27811E-03         0.00000E+00
    0.82690E-03         0.18660E-03         0.00000E+00
    0.84479E-03         0.11785E-03         0.00000E+00
    0.85970E-03         0.69155E-04         0.00000E+00
    0.87158E-03         0.37187E-04         0.00000E+00
    0.88034E-03         0.18029E-04         0.00000E+00
    0.88581E-03         0.72560E-05         0.00000E+00
    0.88775E-03         0.33843E-05         0.00000E+00
    0.00000E+00         0.36105E-02         0.00000E+00
    0.58526E-04         0.35978E-02         0.00000E+00
    0.11653E-03         0.35363E-02         0.00000E+00
    0.17350E-03         0.34076E-02         0.00000E+00
    0.22903E-03         0.32220E-02         0.00000E+00
    0.28273E-03         0.29919E-02         0.00000E+00
    0.33433E-03         0.27302E-02         0.00000E+00
    0.38356E-03         0.24491E-02         0.00000E+00
    0.43025E-03         0.21598E-02         0.00000E+00
    0.47427E-03         0.18720E-02         0.00000E+00
    0.51550E-03         0.15936E-02         0.00000E+00
    0.55390E-03         0.13309E-02         0.00000E+00
    0.58945E-03         0.10884E-02         0.00000E+00
    0.62213E-03         0.86961E-03         0.00000E+00
    0.65196E-03         0.67645E-03         0.00000E+00
    0.67898E-03         0.50998E-03         0.00000E+00
    0.70323E-03         0.37033E-03         0.00000E+00
    0.72475E-03         0.25686E-03         0.00000E+00
    0.74357E-03         0.16818E-03         0.00000E+00
    0.75972E-03         0.10225E-03         0.00000E+00
    0.77318E-03         0.56413E-04         0.00000E+00
    0.78391E-03         0.27368E-04         0.00000E+00
    0.79182E-03         0.11259E-04         0.00000E+00
    0.79676E-03         0.37300E-05         0.00000E+00
    0.79852E-03         0.15371E-05         0.00000E+00
    0.00000E+00         0.35556E-02         0.00000E+00
    0.51612E-04         0.35430E-02         0.00000E+00
    0.10290E-03         0.34822E-02         0.00000E+00
    0.15341E-03         0.33546E-02         0.00000E+00
    0.20273E-03         0.31705E-02         0.00000E+00
    0.25051E-03         0.29422E-02         0.00000E+00
    0.29648E-03         0.26825E-02         0.00000E+00
    0.34039E-03         0.24037E-02         0.00000E+00
    0.38207E-03         0.21169E-02         0.00000E+00
    0.42139E-03         0.18317E-02         0.00000E+00
    0.45825E-03         0.15559E-02         0.00000E+00
    0.49258E-03         0.12959E-02         0.00000E+00
    0.52437E-03         0.10561E-02         0.00000E+00
    0.55359E-03         0.84002E-03         0.00000E+00
    0.58027E-03         0.64953E-03         0.00000E+00
    0.60443E-03         0.48571E-03         0.00000E+00
    0.62611E-03         0.34867E-03         0.00000E+00
    0.64534E-03         0.23777E-03         0.00000E+00
    0.66216E-03         0.15163E-03         0.00000E+00
    0.67658E-03         0.88246E-04         0.00000E+00
    0.68861E-03         0.44966E-04         0.00000E+00
    0.69820E-03         0.18544E-04         0.00000E+00
    0.70527E-03         0.51728E-05         0.00000E+00
    0.70970E-03         0.55705E-06         0.00000E+00
    0.71127E-03        -0.12672E-06         0.00000E+00
    0.00000E+00         0.35073E-02         0.00000E+00
    0.45012E-04         0.34949E-02         0.00000E+00
    0.89861E-04         0.34345E-02         0.00000E+00
    0.13412E-03         0.33078E-02         0.00000E+00
    0.17741E-03         0.31249E-02         0.00000E+00
    0.21943E-03         0.28982E-02         0.00000E+00
    0.25989E-03         0.26403E-02         0.00000E+00
    0.29859E-03         0.23635E-02         0.00000E+00
    0.33535E-03         0.20788E-02         0.00000E+00
    0.37005E-03         0.17958E-02         0.00000E+00
    0.40259E-03         0.15224E-02         0.00000E+00
    0.43291E-03         0.12648E-02         0.00000E+00
    0.46099E-03         0.10274E-02         0.00000E+00
    0.48680E-03         0.81371E-03         0.00000E+00
    0.51037E-03         0.62561E-03         0.00000E+00
    0.53170E-03         0.46414E-03         0.00000E+00
    0.55085E-03         0.32943E-03         0.00000E+00
    0.56783E-03         0.22081E-03         0.00000E+00
    0.58267E-03         0.13693E-03         0.00000E+00
    0.59540E-03         0.75803E-04         0.00000E+00
    0.60602E-03         0.34795E-04         0.00000E+00
    0.61449E-03         0.10702E-04         0.00000E+00
    0.62073E-03        -0.23854E-06         0.00000E+00
    0.62464E-03        -0.22656E-05         0.00000E+00
    0.62603E-03        -0.16079E-05         0.00000E+00
    0.00000E+00         0.34655E-02         0.00000E+00
    0.38704E-04         0.34531E-02         0.00000E+00
    0.77357E-04         0.33931E-02         0.00000E+00
    0.11558E-03         0.32670E-02         0.00000E+00
    0.15303E-03         0.30852E-02         0.00000E+00
    0.18941E-03         0.28597E-02         0.00000E+00
    0.22450E-03         0.26034E-02         0.00000E+00
    0.25809E-03         0.23282E-02         0.00000E+00
    0.29002E-03         0.20454E-02         0.00000E+00
    0.32017E-03         0.17644E-02         0.00000E+00
    0.34846E-03         0.14931E-02         0.00000E+00
    0.37484E-03         0.12375E-02         0.00000E+00
    0.39925E-03         0.10023E-02         0.00000E+00
    0.42171E-03         0.79064E-03         0.00000E+00
    0.44220E-03         0.60463E-03         0.00000E+00
    0.46076E-03         0.44523E-03         0.00000E+00
    0.47741E-03         0.31255E-03         0.00000E+00
    0.49217E-03         0.20594E-03         0.00000E+00
    0.50507E-03         0.12405E-03         0.00000E+00
    0.51614E-03         0.64899E-04         0.00000E+00
    0.52536E-03         0.25883E-04         0.00000E+00
    0.53272E-03         0.38285E-05         0.00000E+00
    0.53816E-03        -0.49832E-05         0.00000E+00
    0.54156E-03        -0.47417E-05         0.00000E+00
    0.54277E-03        -0.29078E-05         0.00000E+00
    0.00000E+00         0.34299E-02         0.00000E+00
    0.32659E-04         0.34175E-02         0.00000E+00
    0.65344E-04         0.33577E-02         0.00000E+00
    0.97719E-04         0.32321E-02         0.00000E+00
    0.12949E-03         0.30511E-02         0.00000E+00
    0.16039E-03         0.28267E-02         0.00000E+00
    0.19022E-03         0.25716E-02         0.00000E+00
    0.21880E-03         0.22979E-02         0.00000E+00
    0.24598E-03         0.20167E-02         0.00000E+00
    0.27167E-03         0.17374E-02         0.00000E+00
    0.29577E-03         0.14678E-02         0.00000E+00
    0.31825E-03         0.12140E-02         0.00000E+00
    0.33906E-03         0.98056E-03         0.00000E+00
    0.35820E-03         0.77076E-03         0.00000E+00
    0.37568E-03         0.58655E-03         0.00000E+00
    0.39149E-03         0.42894E-03         0.00000E+00
    0.40568E-03         0.29802E-03         0.00000E+00
    0.41825E-03         0.19314E-03         0.00000E+00
    0.42925E-03         0.11296E-03         0.00000E+00
    0.43868E-03         0.55510E-04         0.00000E+00
    0.44654E-03         0.18209E-04         0.00000E+00
    0.45281E-03        -0.20909E-05         0.00000E+00
    0.45743E-03        -0.90703E-05         0.00000E+00
    0.46033E-03        -0.68753E-05         0.00000E+00
    0.46136E-03        -0.40285E-05         0.00000E+00
    0.00000E+00         0.34002E-02         0.00000E+00
    0.26848E-04         0.33878E-02         0.00000E+00
    0.53765E-04         0.33280E-02         0.00000E+00
    0.80467E-04         0.32029E-02         0.00000E+00
    0.10670E-03         0.30225E-02         0.00000E+00
    0.13225E-03         0.27990E-02         0.00000E+00
    0.15693E-03         0.25450E-02         0.00000E+00
    0.18059E-03         0.22725E-02         0.00000E+00
    0.20310E-03         0.19926E-02         0.00000E+00
    0.22439E-03         0.17146E-02         0.00000E+00
    0.24437E-03         0.14465E-02         0.00000E+00
    0.26301E-03         0.11942E-02         0.00000E+00
    0.28027E-03         0.96230E-03         0.00000E+00
    0.29614E-03         0.75402E-03         0.00000E+00
    0.31063E-03         0.57134E-03         0.00000E+00
    0.32374E-03         0.41523E-03         0.00000E+00
    0.33550E-03         0.28579E-03         0.00000E+00
    0.34593E-03         0.18237E-03         0.00000E+00
    0.35504E-03         0.10363E-03         0.00000E+00
    0.36286E-03         0.47612E-04         0.00000E+00
    0.36937E-03         0.11753E-04         0.00000E+00
    0.37457E-03        -0.70705E-05         0.00000E+00
    0.37840E-03        -0.12509E-04         0.00000E+00
    0.38080E-03        -0.86709E-05         0.00000E+00
    0.38166E-03        -0.49719E-05         0.00000E+00
    0.00000E+00         0.33762E-02         0.00000E+00
    0.21235E-04         0.33638E-02         0.00000E+00
    0.42557E-04         0.33040E-02         0.00000E+00
    0.63734E-04         0.31792E-02         0.00000E+00
    0.84561E-04         0.29993E-02         0.00000E+00
    0.10486E-03         0.27765E-02         0.00000E+00
    0.12448E-03         0.25233E-02         0.00000E+00
    0.14331E-03         0.22518E-02         0.00000E+00
    0.16123E-03         0.19729E-02         0.00000E+00
    0.17818E-03         0.16961E-02         0.00000E+00
    0.19409E-03         0.14291E-02         0.00000E+00
    0.20894E-03         0.11781E-02         0.00000E+00
    0.22269E-03         0.94743E-03         0.00000E+00
    0.23533E-03         0.74040E-03         0.00000E+00
    0.24688E-03         0.55895E-03         0.00000E+00
    0.25732E-03         0.40407E-03         0.00000E+00
    0.26669E-03         0.27584E-03         0.00000E+00
    0.27499E-03         0.17360E-03         0.00000E+00
    0.28225E-03         0.96037E-04         0.00000E+00
    0.28847E-03         0.41184E-04         0.00000E+00
    0.29366E-03         0.64986E-05         0.00000E+00
    0.29779E-03        -0.11124E-04         0.00000E+00
    0.30085E-03        -0.15309E-04         0.00000E+00
    0.30276E-03        -0.10133E-04         0.00000E+00
    0.30344E-03        -0.57402E-05         0.00000E+00
    0.00000E+00         0.33577E-02         0.00000E+00
    0.15783E-04         0.33452E-02         0.00000E+00
    0.31649E-04         0.32855E-02         0.00000E+00
    0.47423E-04         0.31609E-02         0.00000E+00
    0.62949E-04         0.29814E-02         0.00000E+00
    0.78092E-04         0.27591E-02         0.00000E+00
    0.92739E-04         0.25065E-02         0.00000E+00
    0.10679E-03         0.22357E-02         0.00000E+00
    0.12018E-03         0.19577E-02         0.00000E+00
    0.13285E-03         0.16818E-02         0.00000E+00
    0.14474E-03         0.14157E-02         0.00000E+00
    0.15583E-03         0.11656E-02         0.00000E+00
    0.16611E-03         0.93591E-03         0.00000E+00
    0.17556E-03         0.72984E-03         0.00000E+00
    0.18419E-03         0.54935E-03         0.00000E+00
    0.19200E-03         0.39542E-03         0.00000E+00
    0.19900E-03         0.26812E-03         0.00000E+00
    0.20520E-03         0.16681E-03         0.00000E+00
    0.21063E-03         0.90155E-04         0.00000E+00
    0.21527E-03         0.36206E-04         0.00000E+00
    0.21915E-03         0.24296E-05         0.00000E+00
    0.22224E-03        -0.14263E-04         0.00000E+00
    0.22452E-03        -0.17477E-04         0.00000E+00
    0.22595E-03        -0.11265E-04         0.00000E+00
    0.22646E-03        -0.63355E-05         0.00000E+00
    0.00000E+00         0.33446E-02         0.00000E+00
    0.10453E-04         0.33321E-02         0.00000E+00
    0.20971E-04         0.32724E-02         0.00000E+00
    0.31435E-04         0.31479E-02         0.00000E+00
    0.41740E-04         0.29687E-02         0.00000E+00
    0.51796E-04         0.27467E-02         0.00000E+00
    0.61526E-04         0.24946E-02         0.00000E+00
    0.70866E-04         0.22243E-02         0.00000E+00
    0.79765E-04         0.19469E-02         0.00000E+00
    0.88184E-04         0.16716E-02         0.00000E+00
    0.96092E-04         0.14062E-02         0.00000E+00
    0.10347E-03         0.11567E-02         0.00000E+00
    0.11030E-03         0.92770E-03         0.00000E+00
    0.11659E-03         0.72232E-03         0.00000E+00
    0.12233E-03         0.54252E-03         0.00000E+00
    0.12752E-03         0.38926E-03         0.00000E+00
    0.13217E-03         0.26263E-03         0.00000E+00
    0.13630E-03         0.16198E-03         0.00000E+00
    0.13990E-03         0.85967E-04         0.00000E+00
    0.14299E-03         0.32661E-04         0.00000E+00
    0.14557E-03        -0.46709E-06         0.00000E+00
    0.14763E-03        -0.16497E-04         0.00000E+00
    0.14914E-03        -0.19020E-04         0.00000E+00
    0.15009E-03        -0.12072E-04         0.00000E+00
    0.15043E-03        -0.67593E-05         0.00000E+00
    0.00000E+00         0.33368E-02         0.00000E+00
    0.52060E-05         0.33243E-02         0.00000E+00
    0.10447E-04         0.32646E-02         0.00000E+00
    0.15663E-04         0.31401E-02         0.00000E+00
    0.20802E-04         0.29610E-02         0.00000E+00
    0.25818E-04         0.27393E-02         0.00000E+00
    0.30672E-04         0.24874E-02         0.00000E+00
    0.35333E-04         0.22175E-02         0.00000E+00
    0.39775E-04         0.19404E-02         0.00000E+00
    0.43977E-04         0.16654E-02         0.00000E+00
    0.47925E-04         0.14004E-02         0.00000E+00
    0.51608E-04         0.11514E-02         0.00000E+00
    0.55020E-04         0.92278E-03         0.00000E+00
    0.58159E-04         0.71781E-03         0.00000E+00
    0.61023E-04         0.53842E-03         0.00000E+00
    0.63615E-04         0.38557E-03         0.00000E+00
    0.65938E-04         0.25934E-03         0.00000E+00
    0.67998E-04         0.15908E-03         0.00000E+00
    0.69797E-04         0.83460E-04         0.00000E+00
    0.71340E-04         0.30540E-04         0.00000E+00
    0.72625E-04        -0.22011E-05         0.00000E+00
    0.73651E-04        -0.17835E-04         0.00000E+00
    0.74408E-04        -0.19944E-04         0.00000E+00
    0.74883E-04        -0.12554E-04         0.00000E+00
    0.75052E-04        -0.70130E-05         0.00000E+00
    0.00000E+00         0.33342E-02         0.00000E+00
    0.25978E-05         0.33217E-02         0.00000E+00
    0.52137E-05         0.32620E-02         0.00000E+00
    0.78178E-05         0.31375E-02         0.00000E+00
    0.10384E-04         0.29585E-02         0.00000E+00
    0.12889E-04         0.27368E-02         0.00000E+00
    0.15314E-04         0.24851E-02         0.00000E+00
    0.17642E-04         0.22152E-02         0.00000E+00
    0.19860E-04         0.19382E-02         0.00000E+00
    0.21960E-04         0.16634E-02         0.00000E+00
    0.23932E-04         0.13985E-02         0.00000E+00
    0.25772E-04         0.11496E-02         0.00000E+00
    0.27477E-04         0.92115E-03         0.00000E+00
    0.29045E-04         0.71631E-03         0.00000E+00
    0.30476E-04         0.53706E-03         0.00000E+00
    0.31771E-04         0.38434E-03         0.00000E+00
    0.32932E-04         0.25825E-03         0.00000E+00
    0.33961E-04         0.15812E-03         0.00000E+00
    0.34860E-04         0.82625E-04         0.00000E+00
    0.35630E-04         0.29834E-04         0.00000E+00
    0.36272E-04        -0.27784E-05         0.00000E+00
    0.36785E-04        -0.18280E-04         0.00000E+00
    0.37163E-04        -0.20252E-04         0.00000E+00
    0.37400E-04        -0.12715E-04         0.00000E+00
    0.37485E-04        -0.70975E-05         0.00000E+00
CELL_DATA       1152
TENSORS stressef double 
   -0.48191E+05         0.36799E+03         0.00000E+00
    0.36799E+03        -0.98875E+05         0.00000E+00
    0.00000E+00         0.00000E+00        -0.55162E+05
 
   -0.38535E+05         0.26479E+04         0.00000E+00
    0.26479E+04        -0.95393E+05         0.00000E+00
    0.00000E+00         0.00000E+00        -0.64726E+05
 
   -0.32938E+05         0.38035E+04         0.00000E+00
    0.38035E+04        -0.87165E+05         0.00000E+00
    0.00000E+00         0.00000E+00        -0.62088E+05
 
   -0.27681E+05         0.40463E+04         0.00000E+00
    0.40463E+04        -0.78361E+05         0.00000E+00
    0.00000E+00         0.00000E+00        -0.56262E+05
 
   -0.22734E+05         0.38842E+04         0.00000E+00
    0.38842E+04        -0.70141E+05         0.00000E+00
    0.00000E+00         0.00000E+00        -0.49908E+05
 
   -0.18223E+05         0.35783E+04         0.00000E+00
    0.35783E+04        -0.62588E+05         0.00000E+00
    0.00000E+00         0.00000E+00        -0.43693E+05
 
   -0.14114E+05         0.32045E+04         0.00000E+00
    0.32045E+04        -0.55727E+05         0.00000E+00
    0.00000E+00         0.00000E+00        -0.37855E+05
 
   -0.10823E+05         0.27828E+04         0.00000E+00
    0.27828E+04        -0.49519E+05         0.00000E+00
    0.00000E+00         0.00000E+00        -0.32686E+05
 
   -0.80411E+04         0.24153E+04         0.00000E+00
    0.24153E+04        -0.43974E+05         0.00000E+00
    0.00000E+00         0.00000E+00        -0.28172E+05
 
   -0.55774E+04         0.20710E+04         0.00000E+00
    0.20710E+04        -0.39081E+05         0.00000E+00
    0.00000E+00         0.00000E+00        -0.24255E+05
 
   -0.35877E+04         0.17911E+04         0.00000E+00
    0.17911E+04        -0.34738E+05         0.00000E+00
    0.00000E+00         0.00000E+00        -0.20925E+05
 
   -0.17561E+04         0.16041E+04         0.00000E+00
    0.16041E+04        -0.30892E+05         0.00000E+00
    0.00000E+00         0.00000E+00        -0.17941E+05
 
   -0.98270E+02         0.14381E+04         0.00000E+00
    0.14381E+04        -0.27445E+05         0.00000E+00
    0.00000E+00         0.00000E+00        -0.15223E+05
 
    0.14237E+04         0.12954E+04         0.00000E+00
    0.12954E+04        -0.24313E+05         0.00000E+00
    0.00000E+00         0.00000E+00        -0.12701E+05
 
    0.28233E+04         0.11555E+04         0.00000E+00
    0.11555E+04        -0.21487E+05         0.00000E+00
    0.00000E+00         0.00000E+00        -0.10334E+05
 
    0.41186E+04         0.10518E+04         0.00000E+00
    0.10518E+04        -0.18933E+05         0.00000E+00
    0.00000E+00         0.00000E+00        -0.80764E+04
 
    0.52962E+04         0.91039E+03         0.00000E+00
    0.91039E+03        -0.16672E+05         0.00000E+00
    0.00000E+00         0.00000E+00        -0.59269E+04
 
    0.63566E+04         0.80574E+03         0.00000E+00
    0.80574E+03        -0.14688E+05         0.00000E+00
    0.00000E+00         0.00000E+00        -0.39920E+04
 
    0.71985E+04         0.70444E+03         0.00000E+00
    0.70444E+03        -0.12946E+05         0.00000E+00
    0.00000E+00         0.00000E+00        -0.22424E+04
 
    0.67588E+04         0.60295E+03         0.00000E+00
    0.60295E+03        -0.11430E+05         0.00000E+00
    0.00000E+00         0.00000E+00        -0.14013E+04
 
    0.46624E+04         0.52682E+03         0.00000E+00
    0.52682E+03        -0.10131E+05         0.00000E+00
    0.00000E+00         0.00000E+00        -0.16405E+04
 
    0.26350E+04         0.48680E+03         0.00000E+00
    0.48680E+03        -0.89889E+04         0.00000E+00
    0.00000E+00         0.00000E+00        -0.19062E+04
 
    0.56471E+03         0.47222E+03         0.00000E+00
    0.47222E+03        -0.79457E+04         0.00000E+00
    0.00000E+00         0.00000E+00        -0.22143E+04
 
   -0.16317E+04         0.47994E+03         0.00000E+00
    0.47994E+03        -0.69540E+04         0.00000E+00
    0.00000E+00         0.00000E+00        -0.25757E+04
 
   -0.44875E+05         0.27413E+04         0.00000E+00
    0.27413E+04        -0.98438E+05         0.00000E+00
    0.00000E+00         0.00000E+00        -0.58067E+05
 
   -0.35293E+05         0.97123E+04         0.00000E+00
    0.97123E+04        -0.87479E+05         0.00000E+00
    0.00000E+00         0.00000E+00        -0.62756E+05
 
   -0.31596E+05         0.11691E+05         0.00000E+00
    0.11691E+05        -0.78628E+05         0.00000E+00
    0.00000E+00         0.00000E+00        -0.58344E+05
 
   -0.27716E+05         0.11859E+05         0.00000E+00
    0.11859E+05        -0.71197E+05         0.00000E+00
    0.00000E+00         0.00000E+00        -0.53101E+05
 
   -0.23334E+05         0.11164E+05         0.00000E+00
    0.11164E+05        -0.64094E+05         0.00000E+00
    0.00000E+00         0.00000E+00        -0.47344E+05
 
   -0.18991E+05         0.10152E+05         0.00000E+00
    0.10152E+05        -0.57596E+05         0.00000E+00
    0.00000E+00         0.00000E+00        -0.41681E+05
 
   -0.15033E+05         0.90233E+04         0.00000E+00
    0.90233E+04        -0.51725E+05         0.00000E+00
    0.00000E+00         0.00000E+00        -0.36410E+05
 
   -0.11605E+05         0.79091E+04         0.00000E+00
    0.79091E+04        -0.46495E+05         0.00000E+00
    0.00000E+00         0.00000E+00        -0.31673E+05
 
   -0.87454E+04         0.68917E+04         0.00000E+00
    0.68917E+04        -0.41734E+05         0.00000E+00
    0.00000E+00         0.00000E+00        -0.27474E+05
 
   -0.62001E+04         0.59999E+04         0.00000E+00
    0.59999E+04        -0.37352E+05         0.00000E+00
    0.00000E+00         0.00000E+00        -0.23707E+05
 
   -0.39702E+04         0.52833E+04         0.00000E+00
    0.52833E+04        -0.33405E+05         0.00000E+00
    0.00000E+00         0.00000E+00        -0.20380E+05
 
   -0.21089E+04         0.47078E+04         0.00000E+00
    0.47078E+04        -0.29765E+05         0.00000E+00
    0.00000E+00         0.00000E+00        -0.17464E+05
 
   -0.40594E+03         0.42249E+04         0.00000E+00
    0.42249E+04        -0.26452E+05         0.00000E+00
    0.00000E+00         0.00000E+00        -0.14796E+05
 
    0.11453E+04         0.38037E+04         0.00000E+00
    0.38037E+04        -0.23502E+05         0.00000E+00
    0.00000E+00         0.00000E+00        -0.12326E+05
 
    0.25682E+04         0.34130E+04         0.00000E+00
    0.34130E+04        -0.20836E+05         0.00000E+00
    0.00000E+00         0.00000E+00        -0.10024E+05
 
    0.38676E+04         0.30403E+04         0.00000E+00
    0.30403E+04        -0.18460E+05         0.00000E+00
    0.00000E+00         0.00000E+00        -0.78621E+04
 
    0.50450E+04         0.26928E+04         0.00000E+00
    0.26928E+04        -0.16332E+05         0.00000E+00
    0.00000E+00         0.00000E+00        -0.57699E+04
 
    0.61429E+04         0.23745E+04         0.00000E+00
    0.23745E+04        -0.14426E+05         0.00000E+00
    0.00000E+00         0.00000E+00        -0.38704E+04
 
    0.69941E+04         0.20806E+04         0.00000E+00
    0.20806E+04        -0.12757E+05         0.00000E+00
    0.00000E+00         0.00000E+00        -0.21877E+04
 
    0.65415E+04         0.17984E+04         0.00000E+00
    0.17984E+04        -0.11272E+05         0.00000E+00
    0.00000E+00         0.00000E+00        -0.14193E+04
 
    0.45352E+04         0.15759E+04         0.00000E+00
    0.15759E+04        -0.99894E+04         0.00000E+00
    0.00000E+00         0.00000E+00        -0.16363E+04
 
    0.25639E+04         0.14551E+04         0.00000E+00
    0.14551E+04        -0.88594E+04         0.00000E+00
    0.00000E+00         0.00000E+00        -0.18886E+04
 
    0.53982E+03         0.14097E+04         0.00000E+00
    0.14097E+04        -0.78298E+04         0.00000E+00
    0.00000E+00         0.00000E+00        -0.21870E+04
 
   -0.16136E+04         0.14317E+04         0.00000E+00
    0.14317E+04        -0.68541E+04         0.00000E+00
    0.00000E+00         0.00000E+00        -0.25403E+04
 
   -0.32723E+05         0.16161E+05         0.00000E+00
    0.16161E+05        -0.74649E+05         0.00000E+00
    0.00000E+00         0.00000E+00        -0.55017E+05
 
   -0.31685E+05         0.18379E+05         0.00000E+00
    0.18379E+05        -0.63167E+05         0.00000E+00
    0.00000E+00         0.00000E+00        -0.51970E+05
 
   -0.31745E+05         0.18910E+05         0.00000E+00
    0.18910E+05        -0.60318E+05         0.00000E+00
    0.00000E+00         0.00000E+00        -0.50492E+05
 
   -0.28693E+05         0.17928E+05         0.00000E+00
    0.17928E+05        -0.56335E+05         0.00000E+00
    0.00000E+00         0.00000E+00        -0.46724E+05
 
   -0.24767E+05         0.16540E+05         0.00000E+00
    0.16540E+05        -0.52459E+05         0.00000E+00
    0.00000E+00         0.00000E+00        -0.42530E+05
 
   -0.20518E+05         0.14939E+05         0.00000E+00
    0.14939E+05        -0.48468E+05         0.00000E+00
    0.00000E+00         0.00000E+00        -0.38082E+05
 
   -0.16515E+05         0.13327E+05         0.00000E+00
    0.13327E+05        -0.44548E+05         0.00000E+00
    0.00000E+00         0.00000E+00        -0.33746E+05
 
   -0.12978E+05         0.11822E+05         0.00000E+00
    0.11822E+05        -0.40751E+05         0.00000E+00
    0.00000E+00         0.00000E+00        -0.29661E+05
 
   -0.99035E+04         0.10535E+05         0.00000E+00
    0.10535E+05        -0.37153E+05         0.00000E+00
    0.00000E+00         0.00000E+00        -0.25897E+05
 
   -0.71633E+04         0.93685E+04         0.00000E+00
    0.93685E+04        -0.33700E+05         0.00000E+00
    0.00000E+00         0.00000E+00        -0.22448E+05
 
   -0.47992E+04         0.83326E+04         0.00000E+00
    0.83326E+04        -0.30373E+05         0.00000E+00
    0.00000E+00         0.00000E+00        -0.19291E+05
 
   -0.27546E+04         0.74630E+04         0.00000E+00
    0.74630E+04        -0.27358E+05         0.00000E+00
    0.00000E+00         0.00000E+00        -0.16460E+05
 
   -0.98166E+03         0.67112E+04         0.00000E+00
    0.67112E+04        -0.24606E+05         0.00000E+00
    0.00000E+00         0.00000E+00        -0.13927E+05
 
    0.60168E+03         0.60269E+04         0.00000E+00
    0.60269E+04        -0.22058E+05         0.00000E+00
    0.00000E+00         0.00000E+00        -0.11604E+05
 
    0.20658E+04         0.54297E+04         0.00000E+00
    0.54297E+04        -0.19729E+05         0.00000E+00
    0.00000E+00         0.00000E+00        -0.94043E+04
 
    0.33887E+04         0.48516E+04         0.00000E+00
    0.48516E+04        -0.17614E+05         0.00000E+00
    0.00000E+00         0.00000E+00        -0.73197E+04
 
    0.46192E+04         0.43221E+04         0.00000E+00
    0.43221E+04        -0.15693E+05         0.00000E+00
    0.00000E+00         0.00000E+00        -0.53952E+04
 
    0.56963E+04         0.38269E+04         0.00000E+00
    0.38269E+04        -0.13939E+05         0.00000E+00
    0.00000E+00         0.00000E+00        -0.36542E+04
 
    0.66295E+04         0.33849E+04         0.00000E+00
    0.33849E+04        -0.12343E+05         0.00000E+00
    0.00000E+00         0.00000E+00        -0.20727E+04
 
    0.61352E+04         0.29587E+04         0.00000E+00
    0.29587E+04        -0.10931E+05         0.00000E+00
    0.00000E+00         0.00000E+00        -0.14386E+04
 
    0.42840E+04         0.26059E+04         0.00000E+00
    0.26059E+04        -0.96876E+04         0.00000E+00
    0.00000E+00         0.00000E+00        -0.16211E+04
 
    0.24199E+04         0.24044E+04         0.00000E+00
    0.24044E+04        -0.85886E+04         0.00000E+00
    0.00000E+00         0.00000E+00        -0.18506E+04
 
    0.48743E+03         0.23244E+04         0.00000E+00
    0.23244E+04        -0.75910E+04         0.00000E+00
    0.00000E+00         0.00000E+00        -0.21311E+04
 
   -0.15777E+04         0.23578E+04         0.00000E+00
    0.23578E+04        -0.66501E+04         0.00000E+00
    0.00000E+00         0.00000E+00        -0.24684E+04
 
   -0.12441E+05         0.14268E+05         0.00000E+00
    0.14268E+05        -0.27143E+05         0.00000E+00
    0.00000E+00         0.00000E+00        -0.24216E+05
 
   -0.31784E+05         0.19992E+05         0.00000E+00
    0.19992E+05        -0.36845E+05         0.00000E+00
    0.00000E+00         0.00000E+00        -0.40324E+05
 
   -0.32138E+05         0.19625E+05         0.00000E+00
    0.19625E+05        -0.36235E+05         0.00000E+00
    0.00000E+00         0.00000E+00        -0.39587E+05
 
   -0.30005E+05         0.19140E+05         0.00000E+00
    0.19140E+05        -0.36747E+05         0.00000E+00
    0.00000E+00         0.00000E+00        -0.38376E+05
 
   -0.26290E+05         0.18191E+05         0.00000E+00
    0.18191E+05        -0.36414E+05         0.00000E+00
    0.00000E+00         0.00000E+00        -0.35923E+05
 
   -0.22178E+05         0.17001E+05         0.00000E+00
    0.17001E+05        -0.35548E+05         0.00000E+00
    0.00000E+00         0.00000E+00        -0.32982E+05
 
   -0.18144E+05         0.15644E+05         0.00000E+00
    0.15644E+05        -0.34126E+05         0.00000E+00
    0.00000E+00         0.00000E+00        -0.29775E+05
 
   -0.14460E+05         0.14253E+05         0.00000E+00
    0.14253E+05        -0.32318E+05         0.00000E+00
    0.00000E+00         0.00000E+00        -0.26529E+05
 
   -0.11246E+05         0.12925E+05         0.00000E+00
    0.12925E+05        -0.30318E+05         0.00000E+00
    0.00000E+00         0.00000E+00        -0.23372E+05
 
   -0.83430E+04         0.11735E+05         0.00000E+00
    0.11735E+05        -0.28277E+05         0.00000E+00
    0.00000E+00         0.00000E+00        -0.20342E+05
 
   -0.58162E+04         0.10618E+05         0.00000E+00
    0.10618E+05        -0.26184E+05         0.00000E+00
    0.00000E+00         0.00000E+00        -0.17536E+05
 
   -0.36678E+04         0.95528E+04         0.00000E+00
    0.95528E+04        -0.24026E+05         0.00000E+00
    0.00000E+00         0.00000E+00        -0.14987E+05
 
   -0.17795E+04         0.86229E+04         0.00000E+00
    0.86229E+04        -0.21937E+05         0.00000E+00
    0.00000E+00         0.00000E+00        -0.12671E+05
 
   -0.11332E+03         0.78123E+04         0.00000E+00
    0.78123E+04        -0.19949E+05         0.00000E+00
    0.00000E+00         0.00000E+00        -0.10560E+05
 
    0.13936E+04         0.70587E+04         0.00000E+00
    0.70587E+04        -0.18093E+05         0.00000E+00
    0.00000E+00         0.00000E+00        -0.85736E+04
 
    0.27487E+04         0.63651E+04         0.00000E+00
    0.63651E+04        -0.16366E+05         0.00000E+00
    0.00000E+00         0.00000E+00        -0.67216E+04
 
    0.39940E+04         0.57381E+04         0.00000E+00
    0.57381E+04        -0.14688E+05         0.00000E+00
    0.00000E+00         0.00000E+00        -0.50045E+04
 
    0.51379E+04         0.51308E+04         0.00000E+00
    0.51308E+04        -0.13131E+05         0.00000E+00
    0.00000E+00         0.00000E+00        -0.33891E+04
 
    0.61336E+04         0.45953E+04         0.00000E+00
    0.45953E+04        -0.11700E+05         0.00000E+00
    0.00000E+00         0.00000E+00        -0.19143E+04
 
    0.55768E+04         0.40566E+04         0.00000E+00
    0.40566E+04        -0.10370E+05         0.00000E+00
    0.00000E+00         0.00000E+00        -0.14381E+04
 
    0.39163E+04         0.35922E+04         0.00000E+00
    0.35922E+04        -0.91998E+04         0.00000E+00
    0.00000E+00         0.00000E+00        -0.15851E+04
 
    0.22013E+04         0.33128E+04         0.00000E+00
    0.33128E+04        -0.81612E+04         0.00000E+00
    0.00000E+00         0.00000E+00        -0.17880E+04
 
    0.40426E+03         0.31959E+04         0.00000E+00
    0.31959E+04        -0.72213E+04         0.00000E+00
    0.00000E+00         0.00000E+00        -0.20451E+04
 
   -0.15252E+04         0.32379E+04         0.00000E+00
    0.32379E+04        -0.63377E+04         0.00000E+00
    0.00000E+00         0.00000E+00        -0.23589E+04
 
   -0.41740E+04         0.32405E+04         0.00000E+00
    0.32405E+04         0.39875E+04         0.00000E+00
    0.00000E+00         0.00000E+00         0.67853E+03
 
   -0.25680E+05         0.11091E+05         0.00000E+00
    0.11091E+05        -0.87772E+04         0.00000E+00
    0.00000E+00         0.00000E+00        -0.19101E+05
 
   -0.30493E+05         0.14171E+05         0.00000E+00
    0.14171E+05        -0.16192E+05         0.00000E+00
    0.00000E+00         0.00000E+00        -0.26734E+05
 
   -0.29160E+05         0.15541E+05         0.00000E+00
    0.15541E+05        -0.19949E+05         0.00000E+00
    0.00000E+00         0.00000E+00        -0.28054E+05
 
   -0.26374E+05         0.16124E+05         0.00000E+00
    0.16124E+05        -0.22417E+05         0.00000E+00
    0.00000E+00         0.00000E+00        -0.27755E+05
 
   -0.22827E+05         0.16044E+05         0.00000E+00
    0.16044E+05        -0.23759E+05         0.00000E+00
    0.00000E+00         0.00000E+00        -0.26374E+05
 
   -0.19123E+05         0.15508E+05         0.00000E+00
    0.15508E+05        -0.24301E+05         0.00000E+00
    0.00000E+00         0.00000E+00        -0.24438E+05
 
   -0.15574E+05         0.14682E+05         0.00000E+00
    0.14682E+05        -0.24211E+05         0.00000E+00
    0.00000E+00         0.00000E+00        -0.22217E+05
 
   -0.12350E+05         0.13720E+05         0.00000E+00
    0.13720E+05        -0.23635E+05         0.00000E+00
    0.00000E+00         0.00000E+00        -0.19892E+05
 
   -0.94383E+04         0.12717E+05         0.00000E+00
    0.12717E+05        -0.22730E+05         0.00000E+00
    0.00000E+00         0.00000E+00        -0.17555E+05
 
   -0.68627E+04         0.11735E+05         0.00000E+00
    0.11735E+05        -0.21661E+05         0.00000E+00
    0.00000E+00         0.00000E+00        -0.15297E+05
 
   -0.46154E+04         0.10799E+05         0.00000E+00
    0.10799E+05        -0.20444E+05         0.00000E+00
    0.00000E+00         0.00000E+00        -0.13173E+05
 
   -0.26327E+04         0.99138E+04         0.00000E+00
    0.99138E+04        -0.19050E+05         0.00000E+00
    0.00000E+00         0.00000E+00        -0.11183E+05
 
   -0.92658E+03         0.90730E+04         0.00000E+00
    0.90730E+04        -0.17623E+05         0.00000E+00
    0.00000E+00         0.00000E+00        -0.93530E+04
 
    0.63948E+03         0.82679E+04         0.00000E+00
    0.82679E+04        -0.16217E+05         0.00000E+00
    0.00000E+00         0.00000E+00        -0.76439E+04
 
    0.20405E+04         0.75650E+04         0.00000E+00
    0.75650E+04        -0.14775E+05         0.00000E+00
    0.00000E+00         0.00000E+00        -0.60583E+04
 
    0.33149E+04         0.69064E+04         0.00000E+00
    0.69064E+04        -0.13404E+05         0.00000E+00
    0.00000E+00         0.00000E+00        -0.45560E+04
 
    0.44871E+04         0.62704E+04         0.00000E+00
    0.62704E+04        -0.12081E+05         0.00000E+00
    0.00000E+00         0.00000E+00        -0.30825E+04
 
    0.55544E+04         0.56899E+04         0.00000E+00
    0.56899E+04        -0.10772E+05         0.00000E+00
    0.00000E+00         0.00000E+00        -0.17112E+04
 
    0.48909E+04         0.50580E+04         0.00000E+00
    0.50580E+04        -0.95597E+04         0.00000E+00
    0.00000E+00         0.00000E+00        -0.14006E+04
 
    0.34430E+04         0.44985E+04         0.00000E+00
    0.44985E+04        -0.85078E+04         0.00000E+00
    0.00000E+00         0.00000E+00        -0.15194E+04
 
    0.19103E+04         0.41486E+04         0.00000E+00
    0.41486E+04        -0.75720E+04         0.00000E+00
    0.00000E+00         0.00000E+00        -0.16985E+04
 
    0.29001E+03         0.39989E+04         0.00000E+00
    0.39989E+04        -0.67210E+04         0.00000E+00
    0.00000E+00         0.00000E+00        -0.19293E+04
 
   -0.14571E+04         0.40495E+04         0.00000E+00
    0.40495E+04        -0.59192E+04         0.00000E+00
    0.00000E+00         0.00000E+00        -0.22129E+04
 
    0.15038E+04        -0.11826E+04         0.00000E+00
   -0.11826E+04        -0.13808E+04         0.00000E+00
    0.00000E+00         0.00000E+00         0.27690E+03
 
   -0.22873E+05         0.58158E+04         0.00000E+00
    0.58158E+04        -0.22115E+04         0.00000E+00
    0.00000E+00         0.00000E+00        -0.93384E+04
 
   -0.27267E+05         0.95622E+04         0.00000E+00
    0.95622E+04        -0.77323E+04         0.00000E+00
    0.00000E+00         0.00000E+00        -0.17394E+05
 
   -0.27366E+05         0.11855E+05         0.00000E+00
    0.11855E+05        -0.11447E+05         0.00000E+00
    0.00000E+00         0.00000E+00        -0.20622E+05
 
   -0.25305E+05         0.13271E+05         0.00000E+00
    0.13271E+05        -0.14020E+05         0.00000E+00
    0.00000E+00         0.00000E+00        -0.21431E+05
 
   -0.22490E+05         0.13994E+05         0.00000E+00
    0.13994E+05        -0.15826E+05         0.00000E+00
    0.00000E+00         0.00000E+00        -0.21022E+05
 
   -0.19306E+05         0.14181E+05         0.00000E+00
    0.14181E+05        -0.16994E+05         0.00000E+00
    0.00000E+00         0.00000E+00        -0.19935E+05
 
   -0.16100E+05         0.13964E+05         0.00000E+00
    0.13964E+05        -0.17612E+05         0.00000E+00
    0.00000E+00         0.00000E+00        -0.18449E+05
 
   -0.13063E+05         0.13483E+05         0.00000E+00
    0.13483E+05        -0.17781E+05         0.00000E+00
    0.00000E+00         0.00000E+00        -0.16761E+05
 
   -0.10259E+05         0.12835E+05         0.00000E+00
    0.12835E+05        -0.17589E+05         0.00000E+00
    0.00000E+00         0.00000E+00        -0.14975E+05
 
   -0.77166E+04         0.12083E+05         0.00000E+00
    0.12083E+05        -0.17117E+05         0.00000E+00
    0.00000E+00         0.00000E+00        -0.13176E+05
 
   -0.54301E+04         0.11354E+05         0.00000E+00
    0.11354E+05        -0.16444E+05         0.00000E+00
    0.00000E+00         0.00000E+00        -0.11399E+05
 
   -0.34449E+04         0.10599E+05         0.00000E+00
    0.10599E+05        -0.15681E+05         0.00000E+00
    0.00000E+00         0.00000E+00        -0.97414E+04
 
   -0.16988E+04         0.98534E+04         0.00000E+00
    0.98534E+04        -0.14788E+05         0.00000E+00
    0.00000E+00         0.00000E+00        -0.81913E+04
 
   -0.12683E+03         0.91533E+04         0.00000E+00
    0.91533E+04        -0.13733E+05         0.00000E+00
    0.00000E+00         0.00000E+00        -0.67384E+04
 
    0.13332E+04         0.84599E+04         0.00000E+00
    0.84599E+04        -0.12650E+05         0.00000E+00
    0.00000E+00         0.00000E+00        -0.53312E+04
 
    0.26180E+04         0.77938E+04         0.00000E+00
    0.77938E+04        -0.11585E+05         0.00000E+00
    0.00000E+00         0.00000E+00        -0.39846E+04
 
    0.38572E+04         0.72108E+04         0.00000E+00
    0.72108E+04        -0.10530E+05         0.00000E+00
    0.00000E+00         0.00000E+00        -0.26312E+04
 
    0.48716E+04         0.66545E+04         0.00000E+00
    0.66545E+04        -0.94586E+04         0.00000E+00
    0.00000E+00         0.00000E+00        -0.14727E+04
 
    0.41179E+04         0.59001E+04         0.00000E+00
    0.59001E+04        -0.84908E+04         0.00000E+00
    0.00000E+00         0.00000E+00        -0.13119E+04
 
    0.28786E+04         0.52714E+04         0.00000E+00
    0.52714E+04        -0.76273E+04         0.00000E+00
    0.00000E+00         0.00000E+00        -0.14246E+04
 
    0.15603E+04         0.48746E+04         0.00000E+00
    0.48746E+04        -0.68395E+04         0.00000E+00
    0.00000E+00         0.00000E+00        -0.15838E+04
 
    0.15096E+03         0.47073E+04         0.00000E+00
    0.47073E+04        -0.61069E+04         0.00000E+00
    0.00000E+00         0.00000E+00        -0.17868E+04
 
   -0.13748E+04         0.47709E+04         0.00000E+00
    0.47709E+04        -0.54083E+04         0.00000E+00
    0.00000E+00         0.00000E+00        -0.20349E+04
 
    0.21220E+04        -0.16988E+04         0.00000E+00
   -0.16988E+04         0.35063E+03         0.00000E+00
    0.00000E+00         0.00000E+00         0.79303E+03
 
   -0.17251E+05         0.80805E+03         0.00000E+00
    0.80805E+03        -0.47548E+03         0.00000E+00
    0.00000E+00         0.00000E+00        -0.53180E+04
 
   -0.25065E+05         0.61235E+04         0.00000E+00
    0.61235E+04        -0.35080E+04         0.00000E+00
    0.00000E+00         0.00000E+00        -0.11243E+05
 
   -0.25082E+05         0.88569E+04         0.00000E+00
    0.88569E+04        -0.62646E+04         0.00000E+00
    0.00000E+00         0.00000E+00        -0.14574E+05
 
   -0.23844E+05         0.10695E+05         0.00000E+00
    0.10695E+05        -0.86122E+04         0.00000E+00
    0.00000E+00         0.00000E+00        -0.16063E+05
 
   -0.21580E+05         0.11922E+05         0.00000E+00
    0.11922E+05        -0.10417E+05         0.00000E+00
    0.00000E+00         0.00000E+00        -0.16342E+05
 
   -0.18927E+05         0.12572E+05         0.00000E+00
    0.12572E+05        -0.11685E+05         0.00000E+00
    0.00000E+00         0.00000E+00        -0.15885E+05
 
   -0.16109E+05         0.12801E+05         0.00000E+00
    0.12801E+05        -0.12548E+05         0.00000E+00
    0.00000E+00         0.00000E+00        -0.14964E+05
 
   -0.13353E+05         0.12710E+05         0.00000E+00
    0.12710E+05        -0.13052E+05         0.00000E+00
    0.00000E+00         0.00000E+00        -0.13782E+05
 
   -0.10747E+05         0.12399E+05         0.00000E+00
    0.12399E+05        -0.13262E+05         0.00000E+00
    0.00000E+00         0.00000E+00        -0.12445E+05
 
   -0.82964E+04         0.11967E+05         0.00000E+00
    0.11967E+05        -0.13211E+05         0.00000E+00
    0.00000E+00         0.00000E+00        -0.11006E+05
 
   -0.60729E+04         0.11426E+05         0.00000E+00
    0.11426E+05        -0.12956E+05         0.00000E+00
    0.00000E+00         0.00000E+00        -0.95619E+04
 
   -0.41195E+04         0.10853E+05         0.00000E+00
    0.10853E+05        -0.12498E+05         0.00000E+00
    0.00000E+00         0.00000E+00        -0.81917E+04
 
   -0.23698E+04         0.10256E+05         0.00000E+00
    0.10256E+05        -0.11891E+05         0.00000E+00
    0.00000E+00         0.00000E+00        -0.68902E+04
 
   -0.79565E+03         0.96585E+04         0.00000E+00
    0.96585E+04        -0.11233E+05         0.00000E+00
    0.00000E+00         0.00000E+00        -0.56617E+04
 
    0.65137E+03         0.90615E+04         0.00000E+00
    0.90615E+04        -0.10511E+05         0.00000E+00
    0.00000E+00         0.00000E+00        -0.44378E+04
 
    0.19839E+04         0.84790E+04         0.00000E+00
    0.84790E+04        -0.96969E+04         0.00000E+00
    0.00000E+00         0.00000E+00        -0.32316E+04
 
    0.32299E+04         0.79392E+04         0.00000E+00
    0.79392E+04        -0.88092E+04         0.00000E+00
    0.00000E+00         0.00000E+00        -0.21243E+04
 
    0.40776E+04         0.73574E+04         0.00000E+00
    0.73574E+04        -0.79447E+04         0.00000E+00
    0.00000E+00         0.00000E+00        -0.11978E+04
 
    0.32800E+04         0.65088E+04         0.00000E+00
    0.65088E+04        -0.72622E+04         0.00000E+00
    0.00000E+00         0.00000E+00        -0.11947E+04
 
    0.22632E+04         0.58619E+04         0.00000E+00
    0.58619E+04        -0.66273E+04         0.00000E+00
    0.00000E+00         0.00000E+00        -0.13092E+04
 
    0.11790E+04         0.54621E+04         0.00000E+00
    0.54621E+04        -0.60109E+04         0.00000E+00
    0.00000E+00         0.00000E+00        -0.14496E+04
 
    0.78411E+00         0.53018E+04         0.00000E+00
    0.53018E+04        -0.54129E+04         0.00000E+00
    0.00000E+00         0.00000E+00        -0.16236E+04
 
   -0.12797E+04         0.53857E+04         0.00000E+00
    0.53857E+04        -0.48303E+04         0.00000E+00
    0.00000E+00         0.00000E+00        -0.18330E+04
 
    0.32239E+03        -0.17657E+04         0.00000E+00
   -0.17657E+04         0.27715E+03         0.00000E+00
    0.00000E+00         0.00000E+00         0.17986E+03
 
   -0.12651E+05        -0.11482E+04         0.00000E+00
   -0.11482E+04         0.57965E+03         0.00000E+00
    0.00000E+00         0.00000E+00        -0.36214E+04
 
   -0.21620E+05         0.29631E+04         0.00000E+00
    0.29631E+04         0.15479E+02         0.00000E+00
    0.00000E+00         0.00000E+00        -0.67118E+04
 
   -0.22989E+05         0.62328E+04         0.00000E+00
    0.62328E+04        -0.26313E+04         0.00000E+00
    0.00000E+00         0.00000E+00        -0.10214E+05
 
   -0.22103E+05         0.83748E+04         0.00000E+00
    0.83748E+04        -0.44895E+04         0.00000E+00
    0.00000E+00         0.00000E+00        -0.11829E+05
 
   -0.20343E+05         0.99168E+04         0.00000E+00
    0.99168E+04        -0.61380E+04         0.00000E+00
    0.00000E+00         0.00000E+00        -0.12335E+05
 
   -0.18192E+05         0.10940E+05         0.00000E+00
    0.10940E+05        -0.75172E+04         0.00000E+00
    0.00000E+00         0.00000E+00        -0.12300E+05
 
   -0.15764E+05         0.11509E+05         0.00000E+00
    0.11509E+05        -0.85089E+04         0.00000E+00
    0.00000E+00         0.00000E+00        -0.11776E+05
 
   -0.13318E+05         0.11733E+05         0.00000E+00
    0.11733E+05        -0.91783E+04         0.00000E+00
    0.00000E+00         0.00000E+00        -0.10986E+05
 
   -0.10916E+05         0.11710E+05         0.00000E+00
    0.11710E+05        -0.95657E+04         0.00000E+00
    0.00000E+00         0.00000E+00        -0.99993E+04
 
   -0.86265E+04         0.11522E+05         0.00000E+00
    0.11522E+05        -0.97181E+04         0.00000E+00
    0.00000E+00         0.00000E+00        -0.88916E+04
 
   -0.65174E+04         0.11217E+05         0.00000E+00
    0.11217E+05        -0.96647E+04         0.00000E+00
    0.00000E+00         0.00000E+00        -0.77386E+04
 
   -0.46281E+04         0.10817E+05         0.00000E+00
    0.10817E+05        -0.94797E+04         0.00000E+00
    0.00000E+00         0.00000E+00        -0.66283E+04
 
   -0.29200E+04         0.10372E+05         0.00000E+00
    0.10372E+05        -0.91826E+04         0.00000E+00
    0.00000E+00         0.00000E+00        -0.55566E+04
 
   -0.13610E+04         0.99020E+04         0.00000E+00
    0.99020E+04        -0.87482E+04         0.00000E+00
    0.00000E+00         0.00000E+00        -0.45136E+04
 
    0.60056E+02         0.94227E+04         0.00000E+00
    0.94227E+04        -0.82108E+04         0.00000E+00
    0.00000E+00         0.00000E+00        -0.35213E+04
 
    0.14059E+04         0.89451E+04         0.00000E+00
    0.89451E+04        -0.76142E+04         0.00000E+00
    0.00000E+00         0.00000E+00        -0.25298E+04
 
    0.26474E+04         0.84699E+04         0.00000E+00
    0.84699E+04        -0.69585E+04         0.00000E+00
    0.00000E+00         0.00000E+00        -0.15610E+04
 
    0.31241E+04         0.77666E+04         0.00000E+00
    0.77666E+04        -0.64119E+04         0.00000E+00
    0.00000E+00         0.00000E+00        -0.98633E+03
 
    0.24127E+04         0.68706E+04         0.00000E+00
    0.68706E+04        -0.60297E+04         0.00000E+00
    0.00000E+00         0.00000E+00        -0.10851E+04
 
    0.16528E+04         0.62660E+04         0.00000E+00
    0.62660E+04        -0.56010E+04         0.00000E+00
    0.00000E+00         0.00000E+00        -0.11845E+04
 
    0.80043E+03         0.59045E+04         0.00000E+00
    0.59045E+04        -0.51473E+04         0.00000E+00
    0.00000E+00         0.00000E+00        -0.13041E+04
 
   -0.14367E+03         0.57755E+04         0.00000E+00
    0.57755E+04        -0.46820E+04         0.00000E+00
    0.00000E+00         0.00000E+00        -0.14477E+04
 
   -0.11733E+04         0.58868E+04         0.00000E+00
    0.58868E+04        -0.42170E+04         0.00000E+00
    0.00000E+00         0.00000E+00        -0.16171E+04
 
   -0.17070E+04        -0.15201E+04         0.00000E+00
   -0.15201E+04         0.46919E+03         0.00000E+00
    0.00000E+00         0.00000E+00        -0.37133E+03
 
   -0.10549E+05        -0.16536E+04         0.00000E+00
   -0.16536E+04         0.12109E+04         0.00000E+00
    0.00000E+00         0.00000E+00        -0.28014E+04
 
   -0.17644E+05         0.75104E+03         0.00000E+00
    0.75104E+03         0.85001E+03         0.00000E+00
    0.00000E+00         0.00000E+00        -0.50383E+04
 
   -0.20656E+05         0.40732E+04         0.00000E+00
    0.40732E+04         0.64108E+02         0.00000E+00
    0.00000E+00         0.00000E+00        -0.68599E+04
 
   -0.20274E+05         0.64074E+04         0.00000E+00
    0.64074E+04        -0.14658E+04         0.00000E+00
    0.00000E+00         0.00000E+00        -0.85127E+04
 
   -0.18937E+05         0.80737E+04         0.00000E+00
    0.80737E+04        -0.27190E+04         0.00000E+00
    0.00000E+00         0.00000E+00        -0.92345E+04
 
   -0.17196E+05         0.92983E+04         0.00000E+00
    0.92983E+04        -0.38682E+04         0.00000E+00
    0.00000E+00         0.00000E+00        -0.93340E+04
 
   -0.15147E+05         0.10160E+05         0.00000E+00
    0.10160E+05        -0.48698E+04         0.00000E+00
    0.00000E+00         0.00000E+00        -0.90687E+04
 
   -0.13031E+05         0.10653E+05         0.00000E+00
    0.10653E+05        -0.56424E+04         0.00000E+00
    0.00000E+00         0.00000E+00        -0.85430E+04
 
   -0.10847E+05         0.10882E+05         0.00000E+00
    0.10882E+05        -0.61696E+04         0.00000E+00
    0.00000E+00         0.00000E+00        -0.78173E+04
 
   -0.87341E+04         0.10923E+05         0.00000E+00
    0.10923E+05        -0.64966E+04         0.00000E+00
    0.00000E+00         0.00000E+00        -0.69642E+04
 
   -0.67718E+04         0.10810E+05         0.00000E+00
    0.10810E+05        -0.66547E+04         0.00000E+00
    0.00000E+00         0.00000E+00        -0.60620E+04
 
   -0.49855E+04         0.10584E+05         0.00000E+00
    0.10584E+05        -0.66508E+04         0.00000E+00
    0.00000E+00         0.00000E+00        -0.51758E+04
 
   -0.33363E+04         0.10294E+05         0.00000E+00
    0.10294E+05        -0.65009E+04         0.00000E+00
    0.00000E+00         0.00000E+00        -0.43029E+04
 
   -0.18159E+04         0.99563E+04         0.00000E+00
    0.99563E+04        -0.62716E+04         0.00000E+00
    0.00000E+00         0.00000E+00        -0.34410E+04
 
   -0.42995E+03         0.95829E+04         0.00000E+00
    0.95829E+04        -0.59741E+04         0.00000E+00
    0.00000E+00         0.00000E+00        -0.26148E+04
 
    0.89628E+03         0.91967E+04         0.00000E+00
    0.91967E+04        -0.55611E+04         0.00000E+00
    0.00000E+00         0.00000E+00        -0.17639E+04
 
    0.20300E+04         0.87677E+04         0.00000E+00
    0.87677E+04        -0.51740E+04         0.00000E+00
    0.00000E+00         0.00000E+00        -0.98619E+03
 
    0.19983E+04         0.77862E+04         0.00000E+00
    0.77862E+04        -0.50692E+04         0.00000E+00
    0.00000E+00         0.00000E+00        -0.92128E+03
 
    0.16150E+04         0.70276E+04         0.00000E+00
    0.70276E+04        -0.48884E+04         0.00000E+00
    0.00000E+00         0.00000E+00        -0.98203E+03
 
    0.10861E+04         0.65135E+04         0.00000E+00
    0.65135E+04        -0.46207E+04         0.00000E+00
    0.00000E+00         0.00000E+00        -0.10604E+04
 
    0.45292E+03         0.62165E+04         0.00000E+00
    0.62165E+04        -0.43008E+04         0.00000E+00
    0.00000E+00         0.00000E+00        -0.11544E+04
 
   -0.26899E+03         0.61340E+04         0.00000E+00
    0.61340E+04        -0.39538E+04         0.00000E+00
    0.00000E+00         0.00000E+00        -0.12668E+04
 
   -0.10582E+04         0.62760E+04         0.00000E+00
    0.62760E+04        -0.35990E+04         0.00000E+00
    0.00000E+00         0.00000E+00        -0.13972E+04
 
   -0.35422E+04        -0.11903E+04         0.00000E+00
   -0.11903E+04         0.45893E+03         0.00000E+00
    0.00000E+00         0.00000E+00        -0.92497E+03
 
   -0.96629E+04        -0.16784E+04         0.00000E+00
   -0.16784E+04         0.13702E+04         0.00000E+00
    0.00000E+00         0.00000E+00        -0.24878E+04
 
   -0.14701E+05        -0.14361E+03         0.00000E+00
   -0.14361E+03         0.18816E+04         0.00000E+00
    0.00000E+00         0.00000E+00        -0.38459E+04
 
   -0.17919E+05         0.23696E+04         0.00000E+00
    0.23696E+04         0.17129E+04         0.00000E+00
    0.00000E+00         0.00000E+00        -0.48619E+04
 
   -0.18414E+05         0.47628E+04         0.00000E+00
    0.47628E+04         0.84207E+03         0.00000E+00
    0.00000E+00         0.00000E+00        -0.58791E+04
 
   -0.17481E+05         0.65389E+04         0.00000E+00
    0.65389E+04        -0.19040E+03         0.00000E+00
    0.00000E+00         0.00000E+00        -0.66422E+04
 
   -0.16060E+05         0.78562E+04         0.00000E+00
    0.78562E+04        -0.10777E+04         0.00000E+00
    0.00000E+00         0.00000E+00        -0.68998E+04
 
   -0.14339E+05         0.88376E+04         0.00000E+00
    0.88376E+04        -0.18865E+04         0.00000E+00
    0.00000E+00         0.00000E+00        -0.67982E+04
 
   -0.12519E+05         0.95396E+04         0.00000E+00
    0.95396E+04        -0.25988E+04         0.00000E+00
    0.00000E+00         0.00000E+00        -0.64484E+04
 
   -0.10581E+05         0.99762E+04         0.00000E+00
    0.99762E+04        -0.31824E+04         0.00000E+00
    0.00000E+00         0.00000E+00        -0.59320E+04
 
   -0.86669E+04         0.10206E+05         0.00000E+00
    0.10206E+05        -0.35890E+04         0.00000E+00
    0.00000E+00         0.00000E+00        -0.52817E+04
 
   -0.68672E+04         0.10263E+05         0.00000E+00
    0.10263E+05        -0.38522E+04         0.00000E+00
    0.00000E+00         0.00000E+00        -0.45721E+04
 
   -0.51886E+04         0.10201E+05         0.00000E+00
    0.10201E+05        -0.40046E+04         0.00000E+00
    0.00000E+00         0.00000E+00        -0.38315E+04
 
   -0.36235E+04         0.10053E+05         0.00000E+00
    0.10053E+05        -0.40770E+04         0.00000E+00
    0.00000E+00         0.00000E+00        -0.31252E+04
 
   -0.21642E+04         0.98437E+04         0.00000E+00
    0.98437E+04        -0.39960E+04         0.00000E+00
    0.00000E+00         0.00000E+00        -0.24071E+04
 
   -0.84135E+03         0.95670E+04         0.00000E+00
    0.95670E+04        -0.38097E+04         0.00000E+00
    0.00000E+00         0.00000E+00        -0.17153E+04
 
    0.46622E+03         0.92896E+04         0.00000E+00
    0.92896E+04        -0.36673E+04         0.00000E+00
    0.00000E+00         0.00000E+00        -0.10033E+04
 
    0.99418E+03         0.84610E+04         0.00000E+00
    0.84610E+04        -0.38233E+04         0.00000E+00
    0.00000E+00         0.00000E+00        -0.84875E+03
 
    0.10865E+04         0.76605E+04         0.00000E+00
    0.76605E+04        -0.39370E+04         0.00000E+00
    0.00000E+00         0.00000E+00        -0.85515E+03
 
    0.91549E+03         0.70555E+04         0.00000E+00
    0.70555E+04        -0.38756E+04         0.00000E+00
    0.00000E+00         0.00000E+00        -0.88804E+03
 
    0.58886E+03         0.66436E+04         0.00000E+00
    0.66436E+04        -0.37182E+04         0.00000E+00
    0.00000E+00         0.00000E+00        -0.93879E+03
 
    0.15042E+03         0.64210E+04         0.00000E+00
    0.64210E+04        -0.35033E+04         0.00000E+00
    0.00000E+00         0.00000E+00        -0.10059E+04
 
   -0.36832E+03         0.63902E+04         0.00000E+00
    0.63902E+04        -0.32562E+04         0.00000E+00
    0.00000E+00         0.00000E+00        -0.10874E+04
 
   -0.93758E+03         0.65621E+04         0.00000E+00
    0.65621E+04        -0.29996E+04         0.00000E+00
    0.00000E+00         0.00000E+00        -0.11812E+04
 
   -0.50557E+04        -0.88682E+03         0.00000E+00
   -0.88682E+03         0.44448E+03         0.00000E+00
    0.00000E+00         0.00000E+00        -0.13834E+04
 
   -0.91989E+04        -0.13665E+04         0.00000E+00
   -0.13665E+04         0.14471E+04         0.00000E+00
    0.00000E+00         0.00000E+00        -0.23255E+04
 
   -0.12910E+05        -0.40558E+03         0.00000E+00
   -0.40558E+03         0.22232E+04         0.00000E+00
    0.00000E+00         0.00000E+00        -0.32060E+04
 
   -0.15383E+05         0.14176E+04         0.00000E+00
    0.14176E+04         0.24599E+04         0.00000E+00
    0.00000E+00         0.00000E+00        -0.38769E+04
 
   -0.16456E+05         0.34769E+04         0.00000E+00
    0.34769E+04         0.24295E+04         0.00000E+00
    0.00000E+00         0.00000E+00        -0.42081E+04
 
   -0.15999E+05         0.52205E+04         0.00000E+00
    0.52205E+04         0.18409E+04         0.00000E+00
    0.00000E+00         0.00000E+00        -0.46066E+04
 
   -0.14886E+05         0.66171E+04         0.00000E+00
    0.66171E+04         0.10851E+04         0.00000E+00
    0.00000E+00         0.00000E+00        -0.48653E+04
 
   -0.13447E+05         0.76861E+04         0.00000E+00
    0.76861E+04         0.42461E+03         0.00000E+00
    0.00000E+00         0.00000E+00        -0.48565E+04
 
   -0.11860E+05         0.84621E+04         0.00000E+00
    0.84621E+04        -0.19131E+03         0.00000E+00
    0.00000E+00         0.00000E+00        -0.46615E+04
 
   -0.10167E+05         0.90613E+04         0.00000E+00
    0.90613E+04        -0.69979E+03         0.00000E+00
    0.00000E+00         0.00000E+00        -0.42457E+04
 
   -0.84532E+04         0.94346E+04         0.00000E+00
    0.94346E+04        -0.11445E+04         0.00000E+00
    0.00000E+00         0.00000E+00        -0.37487E+04
 
   -0.68175E+04         0.96514E+04         0.00000E+00
    0.96514E+04        -0.14966E+04         0.00000E+00
    0.00000E+00         0.00000E+00        -0.31909E+04
 
   -0.52717E+04         0.97129E+04         0.00000E+00
    0.97129E+04        -0.17102E+04         0.00000E+00
    0.00000E+00         0.00000E+00        -0.26103E+04
 
   -0.37881E+04         0.96884E+04         0.00000E+00
    0.96884E+04        -0.17843E+04         0.00000E+00
    0.00000E+00         0.00000E+00        -0.20101E+04
 
   -0.24488E+04         0.95949E+04         0.00000E+00
    0.95949E+04        -0.18796E+04         0.00000E+00
    0.00000E+00         0.00000E+00        -0.14382E+04
 
   -0.11931E+04         0.93552E+04         0.00000E+00
    0.93552E+04        -0.20584E+04         0.00000E+00
    0.00000E+00         0.00000E+00        -0.97544E+03
 
   -0.34379E+03         0.87073E+04         0.00000E+00
    0.87073E+04        -0.24761E+04         0.00000E+00
    0.00000E+00         0.00000E+00        -0.84597E+03
 
    0.13217E+03         0.80482E+04         0.00000E+00
    0.80482E+04        -0.28229E+04         0.00000E+00
    0.00000E+00         0.00000E+00        -0.80722E+03
 
    0.33860E+03         0.74576E+04         0.00000E+00
    0.74576E+04        -0.29653E+04         0.00000E+00
    0.00000E+00         0.00000E+00        -0.78800E+03
 
    0.32750E+03         0.69970E+04         0.00000E+00
    0.69970E+04        -0.29772E+04         0.00000E+00
    0.00000E+00         0.00000E+00        -0.79490E+03
 
    0.16519E+03         0.66880E+04         0.00000E+00
    0.66880E+04        -0.29010E+04         0.00000E+00
    0.00000E+00         0.00000E+00        -0.82075E+03
 
   -0.10278E+03         0.65391E+04         0.00000E+00
    0.65391E+04        -0.27685E+04         0.00000E+00
    0.00000E+00         0.00000E+00        -0.86139E+03
 
   -0.44101E+03         0.65586E+04         0.00000E+00
    0.65586E+04        -0.26049E+04         0.00000E+00
    0.00000E+00         0.00000E+00        -0.91379E+03
 
   -0.81508E+03         0.67569E+04         0.00000E+00
    0.67569E+04        -0.24335E+04         0.00000E+00
    0.00000E+00         0.00000E+00        -0.97459E+03
 
   -0.61764E+04        -0.61816E+03         0.00000E+00
   -0.61816E+03         0.42878E+03         0.00000E+00
    0.00000E+00         0.00000E+00        -0.17243E+04
 
   -0.89718E+04        -0.99744E+03         0.00000E+00
   -0.99744E+03         0.14018E+04         0.00000E+00
    0.00000E+00         0.00000E+00        -0.22710E+04
 
   -0.11645E+05        -0.34674E+03         0.00000E+00
   -0.34674E+03         0.22975E+04         0.00000E+00
    0.00000E+00         0.00000E+00        -0.28044E+04
 
   -0.13581E+05         0.10223E+04         0.00000E+00
    0.10223E+04         0.28592E+04         0.00000E+00
    0.00000E+00         0.00000E+00        -0.32166E+04
 
   -0.14525E+05         0.26696E+04         0.00000E+00
    0.26696E+04         0.29818E+04         0.00000E+00
    0.00000E+00         0.00000E+00        -0.34631E+04
 
   -0.14490E+05         0.42576E+04         0.00000E+00
    0.42576E+04         0.29907E+04         0.00000E+00
    0.00000E+00         0.00000E+00        -0.34498E+04
 
   -0.13723E+05         0.56052E+04         0.00000E+00
    0.56052E+04         0.28104E+04         0.00000E+00
    0.00000E+00         0.00000E+00        -0.33487E+04
 
   -0.12534E+05         0.66539E+04         0.00000E+00
    0.66539E+04         0.23111E+04         0.00000E+00
    0.00000E+00         0.00000E+00        -0.33140E+04
 
   -0.11140E+05         0.75310E+04         0.00000E+00
    0.75310E+04         0.18264E+04         0.00000E+00
    0.00000E+00         0.00000E+00        -0.31379E+04
 
   -0.96461E+04         0.81936E+04         0.00000E+00
    0.81936E+04         0.13691E+04         0.00000E+00
    0.00000E+00         0.00000E+00        -0.28253E+04
 
   -0.81298E+04         0.86650E+04         0.00000E+00
    0.86650E+04         0.98310E+03         0.00000E+00
    0.00000E+00         0.00000E+00        -0.24339E+04
 
   -0.66579E+04         0.89796E+04         0.00000E+00
    0.89796E+04         0.65262E+03         0.00000E+00
    0.00000E+00         0.00000E+00        -0.19832E+04
 
   -0.52529E+04         0.91919E+04         0.00000E+00
    0.91919E+04         0.32948E+03         0.00000E+00
    0.00000E+00         0.00000E+00        -0.15249E+04
 
   -0.39322E+04         0.91689E+04         0.00000E+00
    0.91689E+04        -0.10728E+03         0.00000E+00
    0.00000E+00         0.00000E+00        -0.12129E+04
 
   -0.27423E+04         0.89466E+04         0.00000E+00
    0.89466E+04        -0.62857E+03         0.00000E+00
    0.00000E+00         0.00000E+00        -0.10113E+04
 
   -0.17820E+04         0.85745E+04         0.00000E+00
    0.85745E+04        -0.12214E+04         0.00000E+00
    0.00000E+00         0.00000E+00        -0.90101E+03
 
   -0.10448E+04         0.81207E+04         0.00000E+00
    0.81207E+04        -0.16695E+04         0.00000E+00
    0.00000E+00         0.00000E+00        -0.81429E+03
 
   -0.53853E+03         0.76401E+04         0.00000E+00
    0.76401E+04        -0.19557E+04         0.00000E+00
    0.00000E+00         0.00000E+00        -0.74828E+03
 
   -0.26140E+03         0.72154E+04         0.00000E+00
    0.72154E+04        -0.21220E+04         0.00000E+00
    0.00000E+00         0.00000E+00        -0.71501E+03
 
   -0.15730E+03         0.68822E+04         0.00000E+00
    0.68822E+04        -0.21821E+04         0.00000E+00
    0.00000E+00         0.00000E+00        -0.70183E+03
 
   -0.18649E+03         0.66678E+04         0.00000E+00
    0.66678E+04        -0.21661E+04         0.00000E+00
    0.00000E+00         0.00000E+00        -0.70579E+03
 
   -0.30893E+03         0.65875E+04         0.00000E+00
    0.65875E+04        -0.21000E+04         0.00000E+00
    0.00000E+00         0.00000E+00        -0.72267E+03
 
   -0.48958E+03         0.66525E+04         0.00000E+00
    0.66525E+04        -0.20065E+04         0.00000E+00
    0.00000E+00         0.00000E+00        -0.74884E+03
 
   -0.69382E+03         0.68727E+04         0.00000E+00
    0.68727E+04        -0.19082E+04         0.00000E+00
    0.00000E+00         0.00000E+00        -0.78060E+03
 
   -0.69472E+04        -0.40488E+03         0.00000E+00
   -0.40488E+03         0.40632E+03         0.00000E+00
    0.00000E+00         0.00000E+00        -0.19623E+04
 
   -0.88255E+04        -0.64948E+03         0.00000E+00
   -0.64948E+03         0.13267E+04         0.00000E+00
    0.00000E+00         0.00000E+00        -0.22496E+04
 
   -0.10719E+05        -0.16417E+03         0.00000E+00
   -0.16417E+03         0.22294E+04         0.00000E+00
    0.00000E+00         0.00000E+00        -0.25468E+04
 
   -0.12190E+05         0.88097E+03         0.00000E+00
    0.88097E+03         0.29044E+04         0.00000E+00
    0.00000E+00         0.00000E+00        -0.27857E+04
 
   -0.12982E+05         0.22340E+04         0.00000E+00
    0.22340E+04         0.32838E+04         0.00000E+00
    0.00000E+00         0.00000E+00        -0.29095E+04
 
   -0.13050E+05         0.36251E+04         0.00000E+00
    0.36251E+04         0.33604E+04         0.00000E+00
    0.00000E+00         0.00000E+00        -0.29069E+04
 
   -0.12545E+05         0.48438E+04         0.00000E+00
    0.48438E+04         0.32501E+04         0.00000E+00
    0.00000E+00         0.00000E+00        -0.27883E+04
 
   -0.11599E+05         0.58871E+04         0.00000E+00
    0.58871E+04         0.31679E+04         0.00000E+00
    0.00000E+00         0.00000E+00        -0.25293E+04
 
   -0.10407E+05         0.67459E+04         0.00000E+00
    0.67459E+04         0.29637E+04         0.00000E+00
    0.00000E+00         0.00000E+00        -0.22330E+04
 
   -0.91112E+04         0.74073E+04         0.00000E+00
    0.74073E+04         0.26267E+04         0.00000E+00
    0.00000E+00         0.00000E+00        -0.19453E+04
 
   -0.77831E+04         0.78952E+04         0.00000E+00
    0.78952E+04         0.21854E+04         0.00000E+00
    0.00000E+00         0.00000E+00        -0.16793E+04
 
   -0.64658E+04         0.81993E+04         0.00000E+00
    0.81993E+04         0.16601E+04         0.00000E+00
    0.00000E+00         0.00000E+00        -0.14417E+04
 
   -0.52598E+04         0.83160E+04         0.00000E+00
    0.83160E+04         0.10443E+04         0.00000E+00
    0.00000E+00         0.00000E+00        -0.12647E+04
 
   -0.41430E+04         0.83064E+04         0.00000E+00
    0.83064E+04         0.44809E+03         0.00000E+00
    0.00000E+00         0.00000E+00        -0.11085E+04
 
   -0.31166E+04         0.81517E+04         0.00000E+00
    0.81517E+04        -0.95974E+02         0.00000E+00
    0.00000E+00         0.00000E+00        -0.96378E+03
 
   -0.22509E+04         0.78875E+04         0.00000E+00
    0.78875E+04        -0.55432E+03         0.00000E+00
    0.00000E+00         0.00000E+00        -0.84157E+03
 
   -0.15727E+04         0.75760E+04         0.00000E+00
    0.75760E+04        -0.93138E+03         0.00000E+00
    0.00000E+00         0.00000E+00        -0.75121E+03
 
   -0.10711E+04         0.72491E+04         0.00000E+00
    0.72491E+04        -0.12092E+04         0.00000E+00
    0.00000E+00         0.00000E+00        -0.68409E+03
 
   -0.73906E+03         0.69537E+04         0.00000E+00
    0.69537E+04        -0.13847E+04         0.00000E+00
    0.00000E+00         0.00000E+00        -0.63712E+03
 
   -0.55102E+03         0.67286E+04         0.00000E+00
    0.67286E+04        -0.14783E+04         0.00000E+00
    0.00000E+00         0.00000E+00        -0.60881E+03
 
   -0.47290E+03         0.65979E+04         0.00000E+00
    0.65979E+04        -0.15088E+04         0.00000E+00
    0.00000E+00         0.00000E+00        -0.59450E+03
 
   -0.47255E+03         0.65787E+04         0.00000E+00
    0.65787E+04        -0.14967E+04         0.00000E+00
    0.00000E+00         0.00000E+00        -0.59078E+03
 
   -0.51783E+03         0.66834E+04         0.00000E+00
    0.66834E+04        -0.14624E+04         0.00000E+00
    0.00000E+00         0.00000E+00        -0.59408E+03
 
   -0.57619E+03         0.69210E+04         0.00000E+00
    0.69210E+04        -0.14263E+04         0.00000E+00
    0.00000E+00         0.00000E+00        -0.60076E+03
 
   -0.74320E+04        -0.24441E+03         0.00000E+00
   -0.24441E+03         0.38582E+03         0.00000E+00
    0.00000E+00         0.00000E+00        -0.21139E+04
 
   -0.86908E+04        -0.36119E+03         0.00000E+00
   -0.36119E+03         0.12426E+04         0.00000E+00
    0.00000E+00         0.00000E+00        -0.22344E+04
 
   -0.10016E+05         0.33680E+02         0.00000E+00
    0.33680E+02         0.21015E+04         0.00000E+00
    0.00000E+00         0.00000E+00        -0.23742E+04
 
   -0.11090E+05         0.85865E+03         0.00000E+00
    0.85865E+03         0.28057E+04         0.00000E+00
    0.00000E+00         0.00000E+00        -0.24851E+04
 
   -0.11713E+05         0.19507E+04         0.00000E+00
    0.19507E+04         0.32648E+04         0.00000E+00
    0.00000E+00         0.00000E+00        -0.25345E+04
 
   -0.11822E+05         0.31265E+04         0.00000E+00
    0.31265E+04         0.34720E+04         0.00000E+00
    0.00000E+00         0.00000E+00        -0.25049E+04
 
   -0.11452E+05         0.42495E+04         0.00000E+00
    0.42495E+04         0.34831E+04         0.00000E+00
    0.00000E+00         0.00000E+00        -0.23907E+04
 
   -0.10707E+05         0.52297E+04         0.00000E+00
    0.52297E+04         0.33335E+04         0.00000E+00
    0.00000E+00         0.00000E+00        -0.22121E+04
 
   -0.97178E+04         0.60189E+04         0.00000E+00
    0.60189E+04         0.30799E+04         0.00000E+00
    0.00000E+00         0.00000E+00        -0.19914E+04
 
   -0.86122E+04         0.66252E+04         0.00000E+00
    0.66252E+04         0.27419E+04         0.00000E+00
    0.00000E+00         0.00000E+00        -0.17611E+04
 
   -0.74661E+04         0.70650E+04         0.00000E+00
    0.70650E+04         0.23317E+04         0.00000E+00
    0.00000E+00         0.00000E+00        -0.15403E+04
 
   -0.63400E+04         0.73425E+04         0.00000E+00
    0.73425E+04         0.18650E+04         0.00000E+00
    0.00000E+00         0.00000E+00        -0.13425E+04
 
   -0.52782E+04         0.74814E+04         0.00000E+00
    0.74814E+04         0.13835E+04         0.00000E+00
    0.00000E+00         0.00000E+00        -0.11684E+04
 
   -0.42953E+04         0.75138E+04         0.00000E+00
    0.75138E+04         0.90012E+03         0.00000E+00
    0.00000E+00         0.00000E+00        -0.10186E+04
 
   -0.33987E+04         0.74421E+04         0.00000E+00
    0.74421E+04         0.44020E+03         0.00000E+00
    0.00000E+00         0.00000E+00        -0.88755E+03
 
   -0.26208E+04         0.72852E+04         0.00000E+00
    0.72852E+04         0.34842E+02         0.00000E+00
    0.00000E+00         0.00000E+00        -0.77580E+03
 
   -0.19828E+04         0.70825E+04         0.00000E+00
    0.70825E+04        -0.29785E+03         0.00000E+00
    0.00000E+00         0.00000E+00        -0.68420E+03
 
   -0.14859E+04         0.68709E+04         0.00000E+00
    0.68709E+04        -0.55554E+03         0.00000E+00
    0.00000E+00         0.00000E+00        -0.61242E+03
 
   -0.11198E+04         0.66828E+04         0.00000E+00
    0.66828E+04        -0.73890E+03         0.00000E+00
    0.00000E+00         0.00000E+00        -0.55760E+03
 
   -0.86665E+03         0.65480E+04         0.00000E+00
    0.65480E+04        -0.85657E+03         0.00000E+00
    0.00000E+00         0.00000E+00        -0.51697E+03
 
   -0.70222E+03         0.64891E+04         0.00000E+00
    0.64891E+04        -0.92353E+03         0.00000E+00
    0.00000E+00         0.00000E+00        -0.48772E+03
 
   -0.59926E+03         0.65228E+04         0.00000E+00
    0.65228E+04        -0.95604E+03         0.00000E+00
    0.00000E+00         0.00000E+00        -0.46659E+03
 
   -0.52963E+03         0.66610E+04         0.00000E+00
    0.66610E+04        -0.97153E+03         0.00000E+00
    0.00000E+00         0.00000E+00        -0.45035E+03
 
   -0.46391E+03         0.69120E+04         0.00000E+00
    0.69120E+04        -0.98826E+03         0.00000E+00
    0.00000E+00         0.00000E+00        -0.43565E+03
 
   -0.76994E+04        -0.12932E+03         0.00000E+00
   -0.12932E+03         0.36715E+03         0.00000E+00
    0.00000E+00         0.00000E+00        -0.21997E+04
 
   -0.85431E+04        -0.14266E+03         0.00000E+00
   -0.14266E+03         0.11623E+04         0.00000E+00
    0.00000E+00         0.00000E+00        -0.22142E+04
 
   -0.94571E+04         0.20186E+03         0.00000E+00
    0.20186E+03         0.19612E+04         0.00000E+00
    0.00000E+00         0.00000E+00        -0.22488E+04
 
   -0.10221E+05         0.86723E+03         0.00000E+00
    0.86723E+03         0.26444E+04         0.00000E+00
    0.00000E+00         0.00000E+00        -0.22730E+04
 
   -0.10682E+05         0.17535E+04         0.00000E+00
    0.17535E+04         0.31369E+04         0.00000E+00
    0.00000E+00         0.00000E+00        -0.22635E+04
 
   -0.10769E+05         0.27387E+04         0.00000E+00
    0.27387E+04         0.34141E+04         0.00000E+00
    0.00000E+00         0.00000E+00        -0.22065E+04
 
   -0.10489E+05         0.37101E+04         0.00000E+00
    0.37101E+04         0.34883E+04         0.00000E+00
    0.00000E+00         0.00000E+00        -0.21002E+04
 
   -0.99012E+04         0.45841E+04         0.00000E+00
    0.45841E+04         0.33969E+04         0.00000E+00
    0.00000E+00         0.00000E+00        -0.19513E+04
 
   -0.90970E+04         0.53124E+04         0.00000E+00
    0.53124E+04         0.31805E+04         0.00000E+00
    0.00000E+00         0.00000E+00        -0.17750E+04
 
   -0.81684E+04         0.58824E+04         0.00000E+00
    0.58824E+04         0.28788E+04         0.00000E+00
    0.00000E+00         0.00000E+00        -0.15869E+04
 
   -0.71899E+04         0.63018E+04         0.00000E+00
    0.63018E+04         0.25174E+04         0.00000E+00
    0.00000E+00         0.00000E+00        -0.14018E+04
 
   -0.62151E+04         0.65850E+04         0.00000E+00
    0.65850E+04         0.21206E+04         0.00000E+00
    0.00000E+00         0.00000E+00        -0.12283E+04
 
   -0.52808E+04         0.67520E+04         0.00000E+00
    0.67520E+04         0.17089E+04         0.00000E+00
    0.00000E+00         0.00000E+00        -0.10716E+04
 
   -0.44070E+04         0.68233E+04         0.00000E+00
    0.68233E+04         0.13003E+04         0.00000E+00
    0.00000E+00         0.00000E+00        -0.93200E+03
 
   -0.36086E+04         0.68136E+04         0.00000E+00
    0.68136E+04         0.90977E+03         0.00000E+00
    0.00000E+00         0.00000E+00        -0.80966E+03
 
   -0.29027E+04         0.67402E+04         0.00000E+00
    0.67402E+04         0.55689E+03         0.00000E+00
    0.00000E+00         0.00000E+00        -0.70374E+03
 
   -0.23024E+04         0.66292E+04         0.00000E+00
    0.66292E+04         0.25598E+03         0.00000E+00
    0.00000E+00         0.00000E+00        -0.61392E+03
 
   -0.18104E+04         0.65094E+04         0.00000E+00
    0.65094E+04         0.12968E+02         0.00000E+00
    0.00000E+00         0.00000E+00        -0.53922E+03
 
   -0.14199E+04         0.64078E+04         0.00000E+00
    0.64078E+04        -0.17337E+03         0.00000E+00
    0.00000E+00         0.00000E+00        -0.47799E+03
 
   -0.11171E+04         0.63481E+04         0.00000E+00
    0.63481E+04        -0.30931E+03         0.00000E+00
    0.00000E+00         0.00000E+00        -0.42791E+03
 
   -0.88278E+03         0.63499E+04         0.00000E+00
    0.63499E+04        -0.40527E+03         0.00000E+00
    0.00000E+00         0.00000E+00        -0.38642E+03
 
   -0.69474E+03         0.64281E+04         0.00000E+00
    0.64281E+04        -0.47449E+03         0.00000E+00
    0.00000E+00         0.00000E+00        -0.35077E+03
 
   -0.52851E+03         0.65939E+04         0.00000E+00
    0.65939E+04        -0.53172E+03         0.00000E+00
    0.00000E+00         0.00000E+00        -0.31807E+03
 
   -0.35813E+03         0.68546E+04         0.00000E+00
    0.68546E+04        -0.59298E+03         0.00000E+00
    0.00000E+00         0.00000E+00        -0.28533E+03
 
   -0.78115E+04        -0.50764E+02         0.00000E+00
   -0.50764E+02         0.35066E+03         0.00000E+00
    0.00000E+00         0.00000E+00        -0.22383E+04
 
   -0.83777E+04         0.11407E+02         0.00000E+00
    0.11407E+02         0.10910E+04         0.00000E+00
    0.00000E+00         0.00000E+00        -0.21860E+04
 
   -0.90002E+04         0.32396E+03         0.00000E+00
    0.32396E+03         0.18285E+04         0.00000E+00
    0.00000E+00         0.00000E+00        -0.21515E+04
 
   -0.95279E+04         0.87364E+03         0.00000E+00
    0.87364E+03         0.24758E+04         0.00000E+00
    0.00000E+00         0.00000E+00        -0.21156E+04
 
   -0.98473E+04         0.15997E+04         0.00000E+00
    0.15997E+04         0.29709E+04         0.00000E+00
    0.00000E+00         0.00000E+00        -0.20629E+04
 
   -0.98973E+04         0.24181E+04         0.00000E+00
    0.24181E+04         0.32840E+04         0.00000E+00
    0.00000E+00         0.00000E+00        -0.19840E+04
 
   -0.96692E+04         0.32445E+04         0.00000E+00
    0.32445E+04         0.34165E+04         0.00000E+00
    0.00000E+00         0.00000E+00        -0.18758E+04
 
   -0.91969E+04         0.40099E+04         0.00000E+00
    0.40099E+04         0.33902E+04         0.00000E+00
    0.00000E+00         0.00000E+00        -0.17420E+04
 
   -0.85397E+04         0.46694E+04         0.00000E+00
    0.46694E+04         0.32394E+04         0.00000E+00
    0.00000E+00         0.00000E+00        -0.15901E+04
 
   -0.77644E+04         0.52039E+04         0.00000E+00
    0.52039E+04         0.29986E+04         0.00000E+00
    0.00000E+00         0.00000E+00        -0.14297E+04
 
   -0.69308E+04         0.56126E+04         0.00000E+00
    0.56126E+04         0.26984E+04         0.00000E+00
    0.00000E+00         0.00000E+00        -0.12697E+04
 
   -0.60858E+04         0.59060E+04         0.00000E+00
    0.59060E+04         0.23627E+04         0.00000E+00
    0.00000E+00         0.00000E+00        -0.11169E+04
 
   -0.52627E+04         0.60996E+04         0.00000E+00
    0.60996E+04         0.20115E+04         0.00000E+00
    0.00000E+00         0.00000E+00        -0.97537E+03
 
   -0.44835E+04         0.62101E+04         0.00000E+00
    0.62101E+04         0.16600E+04         0.00000E+00
    0.00000E+00         0.00000E+00        -0.84703E+03
 
   -0.37636E+04         0.62533E+04         0.00000E+00
    0.62533E+04         0.13224E+04         0.00000E+00
    0.00000E+00         0.00000E+00        -0.73237E+03
 
   -0.31157E+04         0.62461E+04         0.00000E+00
    0.62461E+04         0.10116E+04         0.00000E+00
    0.00000E+00         0.00000E+00        -0.63125E+03
 
   -0.25481E+04         0.62088E+04         0.00000E+00
    0.62088E+04         0.73817E+03         0.00000E+00
    0.00000E+00         0.00000E+00        -0.54299E+03
 
   -0.20628E+04         0.61637E+04         0.00000E+00
    0.61637E+04         0.50749E+03         0.00000E+00
    0.00000E+00         0.00000E+00        -0.46659E+03
 
   -0.16547E+04         0.61324E+04         0.00000E+00
    0.61324E+04         0.31962E+03         0.00000E+00
    0.00000E+00         0.00000E+00        -0.40053E+03
 
   -0.13131E+04         0.61346E+04         0.00000E+00
    0.61346E+04         0.17008E+03         0.00000E+00
    0.00000E+00         0.00000E+00        -0.34290E+03
 
   -0.10225E+04         0.61867E+04         0.00000E+00
    0.61867E+04         0.50928E+02         0.00000E+00
    0.00000E+00         0.00000E+00        -0.29147E+03
 
   -0.76431E+03         0.63018E+04         0.00000E+00
    0.63018E+04        -0.48418E+02         0.00000E+00
    0.00000E+00         0.00000E+00        -0.24382E+03
 
   -0.51757E+03         0.64896E+04         0.00000E+00
    0.64896E+04        -0.14042E+03         0.00000E+00
    0.00000E+00         0.00000E+00        -0.19740E+03
 
   -0.25966E+03         0.67567E+04         0.00000E+00
    0.67567E+04        -0.23894E+03         0.00000E+00
    0.00000E+00         0.00000E+00        -0.14958E+03
 
   -0.78192E+04        -0.31771E-02         0.00000E+00
   -0.31771E-02         0.33614E+03         0.00000E+00
    0.00000E+00         0.00000E+00        -0.22449E+04
 
   -0.81997E+04         0.11192E+03         0.00000E+00
    0.11192E+03         0.10299E+04         0.00000E+00
    0.00000E+00         0.00000E+00        -0.21509E+04
 
   -0.86166E+04         0.40084E+03         0.00000E+00
    0.40084E+03         0.17125E+04         0.00000E+00
    0.00000E+00         0.00000E+00        -0.20712E+04
 
   -0.89685E+04         0.86457E+03         0.00000E+00
    0.86457E+03         0.23206E+04         0.00000E+00
    0.00000E+00         0.00000E+00        -0.19944E+04
 
   -0.91737E+04         0.14659E+04         0.00000E+00
    0.14659E+04         0.28049E+04         0.00000E+00
    0.00000E+00         0.00000E+00        -0.19107E+04
 
   -0.91832E+04         0.21477E+04         0.00000E+00
    0.21477E+04         0.31380E+04         0.00000E+00
    0.00000E+00         0.00000E+00        -0.18136E+04
 
   -0.89837E+04         0.28480E+04         0.00000E+00
    0.28480E+04         0.33149E+04         0.00000E+00
    0.00000E+00         0.00000E+00        -0.17006E+04
 
   -0.85926E+04         0.35131E+04         0.00000E+00
    0.35131E+04         0.33487E+04         0.00000E+00
    0.00000E+00         0.00000E+00        -0.15732E+04
 
   -0.80480E+04         0.41044E+04         0.00000E+00
    0.41044E+04         0.32639E+04         0.00000E+00
    0.00000E+00         0.00000E+00        -0.14352E+04
 
   -0.73969E+04         0.46010E+04         0.00000E+00
    0.46010E+04         0.30893E+04         0.00000E+00
    0.00000E+00         0.00000E+00        -0.12923E+04
 
   -0.66851E+04         0.49974E+04         0.00000E+00
    0.49974E+04         0.28519E+04         0.00000E+00
    0.00000E+00         0.00000E+00        -0.11500E+04
 
   -0.59514E+04         0.52983E+04         0.00000E+00
    0.52983E+04         0.25754E+04         0.00000E+00
    0.00000E+00         0.00000E+00        -0.10128E+04
 
   -0.52252E+04         0.55148E+04         0.00000E+00
    0.55148E+04         0.22785E+04         0.00000E+00
    0.00000E+00         0.00000E+00        -0.88401E+03
 
   -0.45277E+04         0.56600E+04         0.00000E+00
    0.56600E+04         0.19764E+04         0.00000E+00
    0.00000E+00         0.00000E+00        -0.76539E+03
 
   -0.38738E+04         0.57484E+04         0.00000E+00
    0.57484E+04         0.16817E+04         0.00000E+00
    0.00000E+00         0.00000E+00        -0.65764E+03
 
   -0.32741E+04         0.57954E+04         0.00000E+00
    0.57954E+04         0.14052E+04         0.00000E+00
    0.00000E+00         0.00000E+00        -0.56069E+03
 
   -0.27347E+04         0.58176E+04         0.00000E+00
    0.58176E+04         0.11549E+04         0.00000E+00
    0.00000E+00         0.00000E+00        -0.47395E+03
 
   -0.22567E+04         0.58329E+04         0.00000E+00
    0.58329E+04         0.93533E+03         0.00000E+00
    0.00000E+00         0.00000E+00        -0.39641E+03
 
   -0.18361E+04         0.58589E+04         0.00000E+00
    0.58589E+04         0.74718E+03         0.00000E+00
    0.00000E+00         0.00000E+00        -0.32669E+03
 
   -0.14642E+04         0.59116E+04         0.00000E+00
    0.59116E+04         0.58737E+03         0.00000E+00
    0.00000E+00         0.00000E+00        -0.26305E+03
 
   -0.11283E+04         0.60048E+04         0.00000E+00
    0.60048E+04         0.44978E+03         0.00000E+00
    0.00000E+00         0.00000E+00        -0.20356E+03
 
   -0.81272E+03         0.61497E+04         0.00000E+00
    0.61497E+04         0.32586E+03         0.00000E+00
    0.00000E+00         0.00000E+00        -0.14606E+03
 
   -0.49948E+03         0.63546E+04         0.00000E+00
    0.63546E+04         0.20514E+03         0.00000E+00
    0.00000E+00         0.00000E+00        -0.88303E+02
 
   -0.16899E+03         0.66250E+04         0.00000E+00
    0.66250E+04         0.75710E+02         0.00000E+00
    0.00000E+00         0.00000E+00        -0.27985E+02
 
   -0.77614E+04         0.30513E+02         0.00000E+00
    0.30513E+02         0.32323E+03         0.00000E+00
    0.00000E+00         0.00000E+00        -0.22314E+04
 
   -0.80165E+04         0.17123E+03         0.00000E+00
    0.17123E+03         0.97810E+03         0.00000E+00
    0.00000E+00         0.00000E+00        -0.21115E+04
 
   -0.82889E+04         0.43960E+03         0.00000E+00
    0.43960E+03         0.16143E+04         0.00000E+00
    0.00000E+00         0.00000E+00        -0.20024E+04
 
   -0.85118E+04         0.83762E+03         0.00000E+00
    0.83762E+03         0.21859E+04         0.00000E+00
    0.00000E+00         0.00000E+00        -0.18978E+04
 
   -0.86280E+04         0.13423E+04         0.00000E+00
    0.13423E+04         0.26551E+04         0.00000E+00
    0.00000E+00         0.00000E+00        -0.17919E+04
 
   -0.86002E+04         0.19146E+04         0.00000E+00
    0.19146E+04         0.29982E+04         0.00000E+00
    0.00000E+00         0.00000E+00        -0.16806E+04
 
   -0.84148E+04         0.25101E+04         0.00000E+00
    0.25101E+04         0.32079E+04         0.00000E+00
    0.00000E+00         0.00000E+00        -0.15621E+04
 
   -0.80799E+04         0.30875E+04         0.00000E+00
    0.30875E+04         0.32911E+04         0.00000E+00
    0.00000E+00         0.00000E+00        -0.14366E+04
 
   -0.76195E+04         0.36151E+04         0.00000E+00
    0.36151E+04         0.32650E+04         0.00000E+00
    0.00000E+00         0.00000E+00        -0.13064E+04
 
   -0.70663E+04         0.40732E+04         0.00000E+00
    0.40732E+04         0.31516E+04         0.00000E+00
    0.00000E+00         0.00000E+00        -0.11744E+04
 
   -0.64543E+04         0.44537E+04         0.00000E+00
    0.44537E+04         0.29738E+04         0.00000E+00
    0.00000E+00         0.00000E+00        -0.10441E+04
 
   -0.58142E+04         0.47575E+04         0.00000E+00
    0.47575E+04         0.27526E+04         0.00000E+00
    0.00000E+00         0.00000E+00        -0.91849E+03
 
   -0.51712E+04         0.49912E+04         0.00000E+00
    0.49912E+04         0.25056E+04         0.00000E+00
    0.00000E+00         0.00000E+00        -0.79968E+03
 
   -0.45442E+04         0.51650E+04         0.00000E+00
    0.51650E+04         0.22474E+04         0.00000E+00
    0.00000E+00         0.00000E+00        -0.68902E+03
 
   -0.39468E+04         0.52909E+04         0.00000E+00
    0.52909E+04         0.19899E+04         0.00000E+00
    0.00000E+00         0.00000E+00        -0.58707E+03
 
   -0.33882E+04         0.53820E+04         0.00000E+00
    0.53820E+04         0.17424E+04         0.00000E+00
    0.00000E+00         0.00000E+00        -0.49374E+03
 
   -0.28734E+04         0.54523E+04         0.00000E+00
    0.54523E+04         0.15120E+04         0.00000E+00
    0.00000E+00         0.00000E+00        -0.40841E+03
 
   -0.24031E+04         0.55165E+04         0.00000E+00
    0.55165E+04         0.13026E+04         0.00000E+00
    0.00000E+00         0.00000E+00        -0.33012E+03
 
   -0.19738E+04         0.55888E+04         0.00000E+00
    0.55888E+04         0.11153E+04         0.00000E+00
    0.00000E+00         0.00000E+00        -0.25756E+03
 
   -0.15784E+04         0.56823E+04         0.00000E+00
    0.56823E+04         0.94791E+03         0.00000E+00
    0.00000E+00         0.00000E+00        -0.18916E+03
 
   -0.12063E+04         0.58085E+04         0.00000E+00
    0.58085E+04         0.79580E+03         0.00000E+00
    0.00000E+00         0.00000E+00        -0.12315E+03
 
   -0.84409E+03         0.59769E+04         0.00000E+00
    0.59769E+04         0.65202E+03         0.00000E+00
    0.00000E+00         0.00000E+00        -0.57620E+02
 
   -0.47645E+03         0.61944E+04         0.00000E+00
    0.61944E+04         0.50783E+03         0.00000E+00
    0.00000E+00         0.00000E+00         0.94151E+01
 
   -0.86410E+02         0.64656E+04         0.00000E+00
    0.64656E+04         0.35303E+03         0.00000E+00
    0.00000E+00         0.00000E+00         0.79985E+02
 
   -0.76667E+04         0.46886E+02         0.00000E+00
    0.46886E+02         0.31156E+03         0.00000E+00
    0.00000E+00         0.00000E+00        -0.22065E+04
 
   -0.78354E+04         0.20057E+03         0.00000E+00
    0.20057E+03         0.93391E+03         0.00000E+00
    0.00000E+00         0.00000E+00        -0.20704E+04
 
   -0.80057E+04         0.44916E+03         0.00000E+00
    0.44916E+03         0.15319E+04         0.00000E+00
    0.00000E+00         0.00000E+00        -0.19421E+04
 
   -0.81346E+04         0.79543E+03         0.00000E+00
    0.79543E+03         0.20722E+04         0.00000E+00
    0.00000E+00         0.00000E+00        -0.18187E+04
 
   -0.81830E+04         0.12247E+04         0.00000E+00
    0.12247E+04         0.25258E+04         0.00000E+00
    0.00000E+00         0.00000E+00        -0.16972E+04
 
   -0.81234E+04         0.17103E+04         0.00000E+00
    0.17103E+04         0.28730E+04         0.00000E+00
    0.00000E+00         0.00000E+00        -0.15751E+04
 
   -0.79438E+04         0.22201E+04         0.00000E+00
    0.22201E+04         0.31062E+04         0.00000E+00
    0.00000E+00         0.00000E+00        -0.14513E+04
 
   -0.76475E+04         0.27229E+04         0.00000E+00
    0.27229E+04         0.32282E+04         0.00000E+00
    0.00000E+00         0.00000E+00        -0.13258E+04
 
   -0.72495E+04         0.31935E+04         0.00000E+00
    0.31935E+04         0.32508E+04         0.00000E+00
    0.00000E+00         0.00000E+00        -0.11996E+04
 
   -0.67721E+04         0.36143E+04         0.00000E+00
    0.36143E+04         0.31906E+04         0.00000E+00
    0.00000E+00         0.00000E+00        -0.10745E+04
 
   -0.62403E+04         0.39765E+04         0.00000E+00
    0.39765E+04         0.30659E+04         0.00000E+00
    0.00000E+00         0.00000E+00        -0.95231E+03
 
   -0.56777E+04         0.42784E+04         0.00000E+00
    0.42784E+04         0.28947E+04         0.00000E+00
    0.00000E+00         0.00000E+00        -0.83489E+03
 
   -0.51049E+04         0.45236E+04         0.00000E+00
    0.45236E+04         0.26930E+04         0.00000E+00
    0.00000E+00         0.00000E+00        -0.72358E+03
 
   -0.45381E+04         0.47193E+04         0.00000E+00
    0.47193E+04         0.24742E+04         0.00000E+00
    0.00000E+00         0.00000E+00        -0.61916E+03
 
   -0.39892E+04         0.48751E+04         0.00000E+00
    0.48751E+04         0.22495E+04         0.00000E+00
    0.00000E+00         0.00000E+00        -0.52189E+03
 
   -0.34661E+04         0.50016E+04         0.00000E+00
    0.50016E+04         0.20276E+04         0.00000E+00
    0.00000E+00         0.00000E+00        -0.43154E+03
 
   -0.29731E+04         0.51106E+04         0.00000E+00
    0.51106E+04         0.18148E+04         0.00000E+00
    0.00000E+00         0.00000E+00        -0.34746E+03
 
   -0.25106E+04         0.52138E+04         0.00000E+00
    0.52138E+04         0.16150E+04         0.00000E+00
    0.00000E+00         0.00000E+00        -0.26867E+03
 
   -0.20757E+04         0.53231E+04         0.00000E+00
    0.53231E+04         0.14294E+04         0.00000E+00
    0.00000E+00         0.00000E+00        -0.19390E+03
 
   -0.16624E+04         0.54492E+04         0.00000E+00
    0.54492E+04         0.12567E+04         0.00000E+00
    0.00000E+00         0.00000E+00        -0.12171E+03
 
   -0.12615E+04         0.56016E+04         0.00000E+00
    0.56016E+04         0.10933E+04         0.00000E+00
    0.00000E+00         0.00000E+00        -0.50476E+02
 
   -0.86191E+03         0.57880E+04         0.00000E+00
    0.57880E+04         0.93368E+03         0.00000E+00
    0.00000E+00         0.00000E+00         0.21531E+02
 
   -0.45028E+03         0.60141E+04         0.00000E+00
    0.60141E+04         0.77055E+03         0.00000E+00
    0.00000E+00         0.00000E+00         0.96081E+02
 
   -0.12006E+02         0.62836E+04         0.00000E+00
    0.62836E+04         0.59518E+03         0.00000E+00
    0.00000E+00         0.00000E+00         0.17495E+03
 
   -0.75550E+04         0.53769E+02         0.00000E+00
    0.53769E+02         0.30080E+03         0.00000E+00
    0.00000E+00         0.00000E+00        -0.21763E+04
 
   -0.76622E+04         0.20921E+03         0.00000E+00
    0.20921E+03         0.89562E+03         0.00000E+00
    0.00000E+00         0.00000E+00        -0.20300E+04
 
   -0.77596E+04         0.43805E+03         0.00000E+00
    0.43805E+03         0.14625E+04         0.00000E+00
    0.00000E+00         0.00000E+00        -0.18891E+04
 
   -0.78199E+04         0.74230E+03         0.00000E+00
    0.74230E+03         0.19766E+04         0.00000E+00
    0.00000E+00         0.00000E+00        -0.17530E+04
 
   -0.78170E+04         0.11121E+04         0.00000E+00
    0.11121E+04         0.24157E+04         0.00000E+00
    0.00000E+00         0.00000E+00        -0.16204E+04
 
   -0.77313E+04         0.15287E+04         0.00000E+00
    0.15287E+04         0.27638E+04         0.00000E+00
    0.00000E+00         0.00000E+00        -0.14903E+04
 
   -0.75533E+04         0.19690E+04         0.00000E+00
    0.19690E+04         0.30134E+04         0.00000E+00
    0.00000E+00         0.00000E+00        -0.13620E+04
 
   -0.72836E+04         0.24096E+04         0.00000E+00
    0.24096E+04         0.31653E+04         0.00000E+00
    0.00000E+00         0.00000E+00        -0.12355E+04
 
   -0.69315E+04         0.28302E+04         0.00000E+00
    0.28302E+04         0.32271E+04         0.00000E+00
    0.00000E+00         0.00000E+00        -0.11113E+04
 
   -0.65123E+04         0.32162E+04         0.00000E+00
    0.32162E+04         0.32112E+04         0.00000E+00
    0.00000E+00         0.00000E+00        -0.99033E+03
 
   -0.60440E+04         0.35589E+04         0.00000E+00
    0.35589E+04         0.31322E+04         0.00000E+00
    0.00000E+00         0.00000E+00        -0.87356E+03
 
   -0.55446E+04         0.38553E+04         0.00000E+00
    0.38553E+04         0.30049E+04         0.00000E+00
    0.00000E+00         0.00000E+00        -0.76192E+03
 
   -0.50303E+04         0.41067E+04         0.00000E+00
    0.41067E+04         0.28433E+04         0.00000E+00
    0.00000E+00         0.00000E+00        -0.65610E+03
 
   -0.45144E+04         0.43182E+04         0.00000E+00
    0.43182E+04         0.26597E+04         0.00000E+00
    0.00000E+00         0.00000E+00        -0.55641E+03
 
   -0.40069E+04         0.44967E+04         0.00000E+00
    0.44967E+04         0.24643E+04         0.00000E+00
    0.00000E+00         0.00000E+00        -0.46279E+03
 
   -0.35146E+04         0.46510E+04         0.00000E+00
    0.46510E+04         0.22651E+04         0.00000E+00
    0.00000E+00         0.00000E+00        -0.37483E+03
 
   -0.30409E+04         0.47903E+04         0.00000E+00
    0.47903E+04         0.20683E+04         0.00000E+00
    0.00000E+00         0.00000E+00        -0.29178E+03
 
   -0.25864E+04         0.49245E+04         0.00000E+00
    0.49245E+04         0.18776E+04         0.00000E+00
    0.00000E+00         0.00000E+00        -0.21263E+03
 
   -0.21483E+04         0.50629E+04         0.00000E+00
    0.50629E+04         0.16944E+04         0.00000E+00
    0.00000E+00         0.00000E+00        -0.13616E+03
 
   -0.17215E+04         0.52145E+04         0.00000E+00
    0.52145E+04         0.15183E+04         0.00000E+00
    0.00000E+00         0.00000E+00        -0.60983E+02
 
   -0.12984E+04         0.53869E+04         0.00000E+00
    0.53869E+04         0.13464E+04         0.00000E+00
    0.00000E+00         0.00000E+00         0.14409E+02
 
   -0.86911E+03         0.55864E+04         0.00000E+00
    0.55864E+04         0.11744E+04         0.00000E+00
    0.00000E+00         0.00000E+00         0.91586E+02
 
   -0.42243E+03         0.58177E+04         0.00000E+00
    0.58177E+04         0.99621E+03         0.00000E+00
    0.00000E+00         0.00000E+00         0.17214E+03
 
    0.54289E+02         0.60835E+04         0.00000E+00
    0.60835E+04         0.80446E+03         0.00000E+00
    0.00000E+00         0.00000E+00         0.25762E+03
 
   -0.74394E+04         0.54574E+02         0.00000E+00
    0.54574E+02         0.29071E+03         0.00000E+00
    0.00000E+00         0.00000E+00        -0.21446E+04
 
   -0.75009E+04         0.20433E+03         0.00000E+00
    0.20433E+03         0.86178E+03         0.00000E+00
    0.00000E+00         0.00000E+00        -0.19917E+04
 
   -0.75451E+04         0.41341E+03         0.00000E+00
    0.41341E+03         0.14030E+04         0.00000E+00
    0.00000E+00         0.00000E+00        -0.18426E+04
 
   -0.75549E+04         0.68257E+03         0.00000E+00
    0.68257E+03         0.18955E+04         0.00000E+00
    0.00000E+00         0.00000E+00        -0.16978E+04
 
   -0.75134E+04         0.10046E+04         0.00000E+00
    0.10046E+04         0.23218E+04         0.00000E+00
    0.00000E+00         0.00000E+00        -0.15575E+04
 
   -0.74068E+04         0.13661E+04         0.00000E+00
    0.13661E+04         0.26689E+04         0.00000E+00
    0.00000E+00         0.00000E+00        -0.14214E+04
 
   -0.72281E+04         0.17500E+04         0.00000E+00
    0.17500E+04         0.29300E+04         0.00000E+00
    0.00000E+00         0.00000E+00        -0.12894E+04
 
   -0.69767E+04         0.21387E+04         0.00000E+00
    0.21387E+04         0.31045E+04         0.00000E+00
    0.00000E+00         0.00000E+00        -0.11617E+04
 
   -0.66585E+04         0.25163E+04         0.00000E+00
    0.25163E+04         0.31973E+04         0.00000E+00
    0.00000E+00         0.00000E+00        -0.10383E+04
 
   -0.62838E+04         0.28707E+04         0.00000E+00
    0.28707E+04         0.32176E+04         0.00000E+00
    0.00000E+00         0.00000E+00        -0.91985E+03
 
   -0.58655E+04         0.31938E+04         0.00000E+00
    0.31938E+04         0.31768E+04         0.00000E+00
    0.00000E+00         0.00000E+00        -0.80661E+03
 
   -0.54170E+04         0.34820E+04         0.00000E+00
    0.34820E+04         0.30871E+04         0.00000E+00
    0.00000E+00         0.00000E+00        -0.69896E+03
 
   -0.49507E+04         0.37354E+04         0.00000E+00
    0.37354E+04         0.29604E+04         0.00000E+00
    0.00000E+00         0.00000E+00        -0.59708E+03
 
   -0.44774E+04         0.39571E+04         0.00000E+00
    0.39571E+04         0.28077E+04         0.00000E+00
    0.00000E+00         0.00000E+00        -0.50089E+03
 
   -0.40050E+04         0.41523E+04         0.00000E+00
    0.41523E+04         0.26382E+04         0.00000E+00
    0.00000E+00         0.00000E+00        -0.41004E+03
 
   -0.35393E+04         0.43274E+04         0.00000E+00
    0.43274E+04         0.24595E+04         0.00000E+00
    0.00000E+00         0.00000E+00        -0.32393E+03
 
   -0.30830E+04         0.44901E+04         0.00000E+00
    0.44901E+04         0.22773E+04         0.00000E+00
    0.00000E+00         0.00000E+00        -0.24170E+03
 
   -0.26363E+04         0.46480E+04         0.00000E+00
    0.46480E+04         0.20953E+04         0.00000E+00
    0.00000E+00         0.00000E+00        -0.16230E+03
 
   -0.21970E+04         0.48089E+04         0.00000E+00
    0.48089E+04         0.19152E+04         0.00000E+00
    0.00000E+00         0.00000E+00        -0.84521E+02
 
   -0.17605E+04         0.49799E+04         0.00000E+00
    0.49799E+04         0.17372E+04         0.00000E+00
    0.00000E+00         0.00000E+00        -0.70130E+01
 
   -0.13203E+04         0.51671E+04         0.00000E+00
    0.51671E+04         0.15591E+04         0.00000E+00
    0.00000E+00         0.00000E+00         0.71634E+02
 
   -0.86809E+03         0.53756E+04         0.00000E+00
    0.53756E+04         0.13777E+04         0.00000E+00
    0.00000E+00         0.00000E+00         0.15287E+03
 
   -0.39403E+03         0.56090E+04         0.00000E+00
    0.56090E+04         0.11878E+04         0.00000E+00
    0.00000E+00         0.00000E+00         0.23812E+03
 
    0.11268E+03         0.58692E+04         0.00000E+00
    0.58692E+04         0.98321E+03         0.00000E+00
    0.00000E+00         0.00000E+00         0.32877E+03
 
   -0.73282E+04         0.51718E+02         0.00000E+00
    0.51718E+02         0.28114E+03         0.00000E+00
    0.00000E+00         0.00000E+00        -0.21141E+04
 
   -0.73540E+04         0.19124E+03         0.00000E+00
    0.19124E+03         0.83125E+03         0.00000E+00
    0.00000E+00         0.00000E+00        -0.19568E+04
 
   -0.73581E+04         0.38086E+03         0.00000E+00
    0.38086E+03         0.13511E+04         0.00000E+00
    0.00000E+00         0.00000E+00        -0.18021E+04
 
   -0.73302E+04         0.62003E+03         0.00000E+00
    0.62003E+03         0.18256E+04         0.00000E+00
    0.00000E+00         0.00000E+00        -0.16514E+04
 
   -0.72592E+04         0.90304E+03         0.00000E+00
    0.90304E+03         0.22408E+04         0.00000E+00
    0.00000E+00         0.00000E+00        -0.15055E+04
 
   -0.71361E+04         0.12199E+04         0.00000E+00
    0.12199E+04         0.25860E+04         0.00000E+00
    0.00000E+00         0.00000E+00        -0.13650E+04
 
   -0.69556E+04         0.15578E+04         0.00000E+00
    0.15578E+04         0.28549E+04         0.00000E+00
    0.00000E+00         0.00000E+00        -0.12302E+04
 
   -0.67169E+04         0.19033E+04         0.00000E+00
    0.19033E+04         0.30463E+04         0.00000E+00
    0.00000E+00         0.00000E+00        -0.11012E+04
 
   -0.64237E+04         0.22440E+04         0.00000E+00
    0.22440E+04         0.31634E+04         0.00000E+00
    0.00000E+00         0.00000E+00        -0.97809E+03
 
   -0.60829E+04         0.25699E+04         0.00000E+00
    0.25699E+04         0.32128E+04         0.00000E+00
    0.00000E+00         0.00000E+00        -0.86104E+03
 
   -0.57037E+04         0.28740E+04         0.00000E+00
    0.28740E+04         0.32034E+04         0.00000E+00
    0.00000E+00         0.00000E+00        -0.75008E+03
 
   -0.52958E+04         0.31525E+04         0.00000E+00
    0.31525E+04         0.31453E+04         0.00000E+00
    0.00000E+00         0.00000E+00        -0.64515E+03
 
   -0.48687E+04         0.34045E+04         0.00000E+00
    0.34045E+04         0.30486E+04         0.00000E+00
    0.00000E+00         0.00000E+00        -0.54606E+03
 
   -0.44307E+04         0.36319E+04         0.00000E+00
    0.36319E+04         0.29226E+04         0.00000E+00
    0.00000E+00         0.00000E+00        -0.45241E+03
 
   -0.39880E+04         0.38383E+04         0.00000E+00
    0.38383E+04         0.27759E+04         0.00000E+00
    0.00000E+00         0.00000E+00        -0.36362E+03
 
   -0.35451E+04         0.40285E+04         0.00000E+00
    0.40285E+04         0.26154E+04         0.00000E+00
    0.00000E+00         0.00000E+00        -0.27890E+03
 
   -0.31042E+04         0.42084E+04         0.00000E+00
    0.42084E+04         0.24464E+04         0.00000E+00
    0.00000E+00         0.00000E+00        -0.19732E+03
 
   -0.26652E+04         0.43841E+04         0.00000E+00
    0.43841E+04         0.22727E+04         0.00000E+00
    0.00000E+00         0.00000E+00        -0.11774E+03
 
   -0.22262E+04         0.45616E+04         0.00000E+00
    0.45616E+04         0.20963E+04         0.00000E+00
    0.00000E+00         0.00000E+00        -0.38967E+02
 
   -0.17832E+04         0.47467E+04         0.00000E+00
    0.47467E+04         0.19176E+04         0.00000E+00
    0.00000E+00         0.00000E+00         0.40321E+02
 
   -0.13305E+04         0.49442E+04         0.00000E+00
    0.49442E+04         0.17353E+04         0.00000E+00
    0.00000E+00         0.00000E+00         0.12146E+03
 
   -0.86084E+03         0.51580E+04         0.00000E+00
    0.51580E+04         0.15468E+04         0.00000E+00
    0.00000E+00         0.00000E+00         0.20580E+03
 
   -0.36596E+03         0.53909E+04         0.00000E+00
    0.53909E+04         0.13481E+04         0.00000E+00
    0.00000E+00         0.00000E+00         0.29464E+03
 
    0.16348E+03         0.56442E+04         0.00000E+00
    0.56442E+04         0.11338E+04         0.00000E+00
    0.00000E+00         0.00000E+00         0.38919E+03
 
   -0.72260E+04         0.46867E+02         0.00000E+00
    0.46867E+02         0.27200E+03         0.00000E+00
    0.00000E+00         0.00000E+00        -0.20862E+04
 
   -0.72226E+04         0.17375E+03         0.00000E+00
    0.17375E+03         0.80322E+03         0.00000E+00
    0.00000E+00         0.00000E+00        -0.19258E+04
 
   -0.71954E+04         0.34453E+03         0.00000E+00
    0.34453E+03         0.13048E+04         0.00000E+00
    0.00000E+00         0.00000E+00        -0.17672E+04
 
   -0.71384E+04         0.55762E+03         0.00000E+00
    0.55762E+03         0.17642E+04         0.00000E+00
    0.00000E+00         0.00000E+00        -0.16123E+04
 
   -0.70447E+04         0.80813E+03         0.00000E+00
    0.80813E+03         0.21697E+04         0.00000E+00
    0.00000E+00         0.00000E+00        -0.14625E+04
 
   -0.69083E+04         0.10882E+04         0.00000E+00
    0.10882E+04         0.25123E+04         0.00000E+00
    0.00000E+00         0.00000E+00        -0.13188E+04
 
   -0.67256E+04         0.13882E+04         0.00000E+00
    0.13882E+04         0.27865E+04         0.00000E+00
    0.00000E+00         0.00000E+00        -0.11817E+04
 
   -0.64957E+04         0.16976E+04         0.00000E+00
    0.16976E+04         0.29905E+04         0.00000E+00
    0.00000E+00         0.00000E+00        -0.10515E+04
 
   -0.62209E+04         0.20068E+04         0.00000E+00
    0.20068E+04         0.31264E+04         0.00000E+00
    0.00000E+00         0.00000E+00        -0.92836E+03
 
   -0.59060E+04         0.23073E+04         0.00000E+00
    0.23073E+04         0.31989E+04         0.00000E+00
    0.00000E+00         0.00000E+00        -0.81211E+03
 
   -0.55572E+04         0.25932E+04         0.00000E+00
    0.25932E+04         0.32151E+04         0.00000E+00
    0.00000E+00         0.00000E+00        -0.70261E+03
 
   -0.51816E+04         0.28610E+04         0.00000E+00
    0.28610E+04         0.31832E+04         0.00000E+00
    0.00000E+00         0.00000E+00        -0.59951E+03
 
   -0.47862E+04         0.31092E+04         0.00000E+00
    0.31092E+04         0.31117E+04         0.00000E+00
    0.00000E+00         0.00000E+00        -0.50237E+03
 
   -0.43772E+04         0.33386E+04         0.00000E+00
    0.33386E+04         0.30087E+04         0.00000E+00
    0.00000E+00         0.00000E+00        -0.41054E+03
 
   -0.39593E+04         0.35517E+04         0.00000E+00
    0.35517E+04         0.28818E+04         0.00000E+00
    0.00000E+00         0.00000E+00        -0.32326E+03
 
   -0.35360E+04         0.37520E+04         0.00000E+00
    0.37520E+04         0.27373E+04         0.00000E+00
    0.00000E+00         0.00000E+00        -0.23960E+03
 
   -0.31087E+04         0.39439E+04         0.00000E+00
    0.39439E+04         0.25803E+04         0.00000E+00
    0.00000E+00         0.00000E+00        -0.15850E+03
 
   -0.26772E+04         0.41321E+04         0.00000E+00
    0.41321E+04         0.24145E+04         0.00000E+00
    0.00000E+00         0.00000E+00        -0.78826E+02
 
   -0.22398E+04         0.43214E+04         0.00000E+00
    0.43214E+04         0.22420E+04         0.00000E+00
    0.00000E+00         0.00000E+00         0.67355E+00
 
   -0.17927E+04         0.45160E+04         0.00000E+00
    0.45160E+04         0.20636E+04         0.00000E+00
    0.00000E+00         0.00000E+00         0.81274E+02
 
   -0.13312E+04         0.47200E+04         0.00000E+00
    0.47200E+04         0.18787E+04         0.00000E+00
    0.00000E+00         0.00000E+00         0.16426E+03
 
   -0.84895E+03         0.49361E+04         0.00000E+00
    0.49361E+04         0.16853E+04         0.00000E+00
    0.00000E+00         0.00000E+00         0.25090E+03
 
   -0.33884E+03         0.51663E+04         0.00000E+00
    0.51663E+04         0.14801E+04         0.00000E+00
    0.00000E+00         0.00000E+00         0.34237E+03
 
    0.20709E+03         0.54112E+04         0.00000E+00
    0.54112E+04         0.12588E+04         0.00000E+00
    0.00000E+00         0.00000E+00         0.43976E+03
 
   -0.71353E+04         0.41129E+02         0.00000E+00
    0.41129E+02         0.26325E+03         0.00000E+00
    0.00000E+00         0.00000E+00        -0.20616E+04
 
   -0.71067E+04         0.15444E+03         0.00000E+00
    0.15444E+03         0.77715E+03         0.00000E+00
    0.00000E+00         0.00000E+00        -0.18989E+04
 
   -0.70540E+04         0.30735E+03         0.00000E+00
    0.30735E+03         0.12628E+04         0.00000E+00
    0.00000E+00         0.00000E+00        -0.17374E+04
 
   -0.69740E+04         0.49750E+03         0.00000E+00
    0.49750E+03         0.17091E+04         0.00000E+00
    0.00000E+00         0.00000E+00        -0.15795E+04
 
   -0.68623E+04         0.72049E+03         0.00000E+00
    0.72049E+03         0.21061E+04         0.00000E+00
    0.00000E+00         0.00000E+00        -0.14269E+04
 
   -0.67151E+04         0.96997E+03         0.00000E+00
    0.96997E+03         0.24458E+04         0.00000E+00
    0.00000E+00         0.00000E+00        -0.12808E+04
 
   -0.65299E+04         0.12383E+04         0.00000E+00
    0.12383E+04         0.27233E+04         0.00000E+00
    0.00000E+00         0.00000E+00        -0.11420E+04
 
   -0.63060E+04         0.15173E+04         0.00000E+00
    0.15173E+04         0.29366E+04         0.00000E+00
    0.00000E+00         0.00000E+00        -0.10108E+04
 
   -0.60448E+04         0.17991E+04         0.00000E+00
    0.17991E+04         0.30869E+04         0.00000E+00
    0.00000E+00         0.00000E+00        -0.88738E+03
 
   -0.57494E+04         0.20770E+04         0.00000E+00
    0.20770E+04         0.31776E+04         0.00000E+00
    0.00000E+00         0.00000E+00        -0.77154E+03
 
   -0.54242E+04         0.23459E+04         0.00000E+00
    0.23459E+04         0.32145E+04         0.00000E+00
    0.00000E+00         0.00000E+00        -0.66294E+03
 
   -0.50742E+04         0.26024E+04         0.00000E+00
    0.26024E+04         0.32040E+04         0.00000E+00
    0.00000E+00         0.00000E+00        -0.56107E+03
 
   -0.47043E+04         0.28448E+04         0.00000E+00
    0.28448E+04         0.31534E+04         0.00000E+00
    0.00000E+00         0.00000E+00        -0.46527E+03
 
   -0.43190E+04         0.30734E+04         0.00000E+00
    0.30734E+04         0.30699E+04         0.00000E+00
    0.00000E+00         0.00000E+00        -0.37475E+03
 
   -0.39219E+04         0.32896E+04         0.00000E+00
    0.32896E+04         0.29600E+04         0.00000E+00
    0.00000E+00         0.00000E+00        -0.28857E+03
 
   -0.35152E+04         0.34958E+04         0.00000E+00
    0.34958E+04         0.28295E+04         0.00000E+00
    0.00000E+00         0.00000E+00        -0.20570E+03
 
   -0.30999E+04         0.36953E+04         0.00000E+00
    0.36953E+04         0.26832E+04         0.00000E+00
    0.00000E+00         0.00000E+00        -0.12501E+03
 
   -0.26757E+04         0.38917E+04         0.00000E+00
    0.38917E+04         0.25248E+04         0.00000E+00
    0.00000E+00         0.00000E+00        -0.45292E+02
 
   -0.22407E+04         0.40884E+04         0.00000E+00
    0.40884E+04         0.23564E+04         0.00000E+00
    0.00000E+00         0.00000E+00         0.34691E+02
 
   -0.17918E+04         0.42888E+04         0.00000E+00
    0.42888E+04         0.21791E+04         0.00000E+00
    0.00000E+00         0.00000E+00         0.11620E+03
 
   -0.13246E+04         0.44959E+04         0.00000E+00
    0.44959E+04         0.19929E+04         0.00000E+00
    0.00000E+00         0.00000E+00         0.20049E+03
 
   -0.83374E+03         0.47116E+04         0.00000E+00
    0.47116E+04         0.17962E+04         0.00000E+00
    0.00000E+00         0.00000E+00         0.28873E+03
 
   -0.31315E+03         0.49372E+04         0.00000E+00
    0.49372E+04         0.15865E+04         0.00000E+00
    0.00000E+00         0.00000E+00         0.38202E+03
 
    0.24399E+03         0.51729E+04         0.00000E+00
    0.51729E+04         0.13604E+04         0.00000E+00
    0.00000E+00         0.00000E+00         0.48132E+03
 
   -0.70568E+04         0.35218E+02         0.00000E+00
    0.35218E+02         0.25486E+03         0.00000E+00
    0.00000E+00         0.00000E+00        -0.20406E+04
 
   -0.70057E+04         0.13502E+03         0.00000E+00
    0.13502E+03         0.75269E+03         0.00000E+00
    0.00000E+00         0.00000E+00        -0.18759E+04
 
   -0.69315E+04         0.27126E+03         0.00000E+00
    0.27126E+03         0.12241E+04         0.00000E+00
    0.00000E+00         0.00000E+00        -0.17122E+04
 
   -0.68325E+04         0.44109E+03         0.00000E+00
    0.44109E+03         0.16589E+04         0.00000E+00
    0.00000E+00         0.00000E+00        -0.15521E+04
 
   -0.67061E+04         0.64043E+03         0.00000E+00
    0.64043E+03         0.20481E+04         0.00000E+00
    0.00000E+00         0.00000E+00        -0.13974E+04
 
   -0.65497E+04         0.86397E+03         0.00000E+00
    0.86397E+03         0.23847E+04         0.00000E+00
    0.00000E+00         0.00000E+00        -0.12495E+04
 
   -0.63619E+04         0.11055E+04         0.00000E+00
    0.11055E+04         0.26640E+04         0.00000E+00
    0.00000E+00         0.00000E+00        -0.11094E+04
 
   -0.61419E+04         0.13585E+04         0.00000E+00
    0.13585E+04         0.28840E+04         0.00000E+00
    0.00000E+00         0.00000E+00        -0.97737E+03
 
   -0.58907E+04         0.16166E+04         0.00000E+00
    0.16166E+04         0.30452E+04         0.00000E+00
    0.00000E+00         0.00000E+00        -0.85365E+03
 
   -0.56102E+04         0.18743E+04         0.00000E+00
    0.18743E+04         0.31502E+04         0.00000E+00
    0.00000E+00         0.00000E+00        -0.73799E+03
 
   -0.53033E+04         0.21272E+04         0.00000E+00
    0.21272E+04         0.32034E+04         0.00000E+00
    0.00000E+00         0.00000E+00        -0.62995E+03
 
   -0.49733E+04         0.23721E+04         0.00000E+00
    0.23721E+04         0.32104E+04         0.00000E+00
    0.00000E+00         0.00000E+00        -0.52889E+03
 
   -0.46239E+04         0.26075E+04         0.00000E+00
    0.26075E+04         0.31771E+04         0.00000E+00
    0.00000E+00         0.00000E+00        -0.43403E+03
 
   -0.42579E+04         0.28329E+04         0.00000E+00
    0.28329E+04         0.31098E+04         0.00000E+00
    0.00000E+00         0.00000E+00        -0.34444E+03
 
   -0.38779E+04         0.30491E+04         0.00000E+00
    0.30491E+04         0.30143E+04         0.00000E+00
    0.00000E+00         0.00000E+00        -0.25907E+03
 
   -0.34854E+04         0.32579E+04         0.00000E+00
    0.32579E+04         0.28960E+04         0.00000E+00
    0.00000E+00         0.00000E+00        -0.17681E+03
 
   -0.30808E+04         0.34613E+04         0.00000E+00
    0.34613E+04         0.27593E+04         0.00000E+00
    0.00000E+00         0.00000E+00        -0.96467E+02
 
   -0.26635E+04         0.36621E+04         0.00000E+00
    0.36621E+04         0.26075E+04         0.00000E+00
    0.00000E+00         0.00000E+00        -0.16795E+02
 
   -0.22317E+04         0.38627E+04         0.00000E+00
    0.38627E+04         0.24432E+04         0.00000E+00
    0.00000E+00         0.00000E+00         0.63458E+02
 
   -0.17826E+04         0.40657E+04         0.00000E+00
    0.40657E+04         0.22677E+04         0.00000E+00
    0.00000E+00         0.00000E+00         0.14554E+03
 
   -0.13123E+04         0.42730E+04         0.00000E+00
    0.42730E+04         0.20811E+04         0.00000E+00
    0.00000E+00         0.00000E+00         0.23064E+03
 
   -0.81625E+03         0.44861E+04         0.00000E+00
    0.44861E+04         0.18826E+04         0.00000E+00
    0.00000E+00         0.00000E+00         0.31990E+03
 
   -0.28918E+03         0.47056E+04         0.00000E+00
    0.47056E+04         0.16702E+04         0.00000E+00
    0.00000E+00         0.00000E+00         0.41431E+03
 
    0.27469E+03         0.49312E+04         0.00000E+00
    0.49312E+04         0.14411E+04         0.00000E+00
    0.00000E+00         0.00000E+00         0.51474E+03
 
   -0.69901E+04         0.29572E+02         0.00000E+00
    0.29572E+02         0.24684E+03         0.00000E+00
    0.00000E+00         0.00000E+00        -0.20230E+04
 
   -0.69185E+04         0.11657E+03         0.00000E+00
    0.11657E+03         0.72963E+03         0.00000E+00
    0.00000E+00         0.00000E+00        -0.18567E+04
 
   -0.68256E+04         0.23749E+03         0.00000E+00
    0.23749E+03         0.11880E+04         0.00000E+00
    0.00000E+00         0.00000E+00        -0.16913E+04
 
   -0.67104E+04         0.38926E+03         0.00000E+00
    0.38926E+03         0.16123E+04         0.00000E+00
    0.00000E+00         0.00000E+00        -0.15294E+04
 
   -0.65714E+04         0.56804E+03         0.00000E+00
    0.56804E+03         0.19944E+04         0.00000E+00
    0.00000E+00         0.00000E+00        -0.13731E+04
 
   -0.64072E+04         0.76928E+03         0.00000E+00
    0.76928E+03         0.23277E+04         0.00000E+00
    0.00000E+00         0.00000E+00        -0.12239E+04
 
   -0.62165E+04         0.98784E+03         0.00000E+00
    0.98784E+03         0.26077E+04         0.00000E+00
    0.00000E+00         0.00000E+00        -0.10826E+04
 
   -0.59989E+04         0.12184E+04         0.00000E+00
    0.12184E+04         0.28323E+04         0.00000E+00
    0.00000E+00         0.00000E+00        -0.94998E+03
 
   -0.57548E+04         0.14556E+04         0.00000E+00
    0.14556E+04         0.30016E+04         0.00000E+00
    0.00000E+00         0.00000E+00        -0.82596E+03
 
   -0.54854E+04         0.16951E+04         0.00000E+00
    0.16951E+04         0.31176E+04         0.00000E+00
    0.00000E+00         0.00000E+00        -0.71035E+03
 
   -0.51926E+04         0.19329E+04         0.00000E+00
    0.19329E+04         0.31838E+04         0.00000E+00
    0.00000E+00         0.00000E+00        -0.60264E+03
 
   -0.48785E+04         0.21662E+04         0.00000E+00
    0.21662E+04         0.32047E+04         0.00000E+00
    0.00000E+00         0.00000E+00        -0.50213E+03
 
   -0.45453E+04         0.23935E+04         0.00000E+00
    0.23935E+04         0.31856E+04         0.00000E+00
    0.00000E+00         0.00000E+00        -0.40792E+03
 
   -0.41951E+04         0.26140E+04         0.00000E+00
    0.26140E+04         0.31317E+04         0.00000E+00
    0.00000E+00         0.00000E+00        -0.31901E+03
 
   -0.38293E+04         0.28279E+04         0.00000E+00
    0.28279E+04         0.30484E+04         0.00000E+00
    0.00000E+00         0.00000E+00        -0.23426E+03
 
   -0.34488E+04         0.30364E+04         0.00000E+00
    0.30364E+04         0.29405E+04         0.00000E+00
    0.00000E+00         0.00000E+00        -0.15250E+03
 
   -0.30537E+04         0.32407E+04         0.00000E+00
    0.32407E+04         0.28121E+04         0.00000E+00
    0.00000E+00         0.00000E+00        -0.72477E+02
 
   -0.26429E+04         0.34428E+04         0.00000E+00
    0.34428E+04         0.26665E+04         0.00000E+00
    0.00000E+00         0.00000E+00         0.70678E+01
 
   -0.22149E+04         0.36443E+04         0.00000E+00
    0.36443E+04         0.25062E+04         0.00000E+00
    0.00000E+00         0.00000E+00         0.87397E+02
 
   -0.17670E+04         0.38471E+04         0.00000E+00
    0.38471E+04         0.23328E+04         0.00000E+00
    0.00000E+00         0.00000E+00         0.16974E+03
 
   -0.12958E+04         0.40524E+04         0.00000E+00
    0.40524E+04         0.21466E+04         0.00000E+00
    0.00000E+00         0.00000E+00         0.25526E+03
 
   -0.79732E+03         0.42610E+04         0.00000E+00
    0.42610E+04         0.19474E+04         0.00000E+00
    0.00000E+00         0.00000E+00         0.34503E+03
 
   -0.26710E+03         0.44731E+04         0.00000E+00
    0.44731E+04         0.17337E+04         0.00000E+00
    0.00000E+00         0.00000E+00         0.43999E+03
 
    0.29973E+03         0.46879E+04         0.00000E+00
    0.46879E+04         0.15033E+04         0.00000E+00
    0.00000E+00         0.00000E+00         0.54089E+03
 
   -0.69344E+04         0.24434E+02         0.00000E+00
    0.24434E+02         0.23921E+03         0.00000E+00
    0.00000E+00         0.00000E+00        -0.20086E+04
 
   -0.68439E+04         0.99688E+02         0.00000E+00
    0.99688E+02         0.70783E+03         0.00000E+00
    0.00000E+00         0.00000E+00        -0.18408E+04
 
   -0.67341E+04         0.20672E+03         0.00000E+00
    0.20672E+03         0.11541E+04         0.00000E+00
    0.00000E+00         0.00000E+00        -0.16740E+04
 
   -0.66047E+04         0.34240E+03         0.00000E+00
    0.34240E+03         0.15688E+04         0.00000E+00
    0.00000E+00         0.00000E+00        -0.15108E+04
 
   -0.64548E+04         0.50315E+03         0.00000E+00
    0.50315E+03         0.19441E+04         0.00000E+00
    0.00000E+00         0.00000E+00        -0.13532E+04
 
   -0.62833E+04         0.68499E+03         0.00000E+00
    0.68499E+03         0.22738E+04         0.00000E+00
    0.00000E+00         0.00000E+00        -0.12029E+04
 
   -0.60896E+04         0.88355E+03         0.00000E+00
    0.88355E+03         0.25535E+04         0.00000E+00
    0.00000E+00         0.00000E+00        -0.10608E+04
 
   -0.58731E+04         0.10944E+04         0.00000E+00
    0.10944E+04         0.27811E+04         0.00000E+00
    0.00000E+00         0.00000E+00        -0.92759E+03
 
   -0.56340E+04         0.13131E+04         0.00000E+00
    0.13131E+04         0.29564E+04         0.00000E+00
    0.00000E+00         0.00000E+00        -0.80328E+03
 
   -0.53730E+04         0.15359E+04         0.00000E+00
    0.15359E+04         0.30808E+04         0.00000E+00
    0.00000E+00         0.00000E+00        -0.68765E+03
 
   -0.50909E+04         0.17595E+04         0.00000E+00
    0.17595E+04         0.31571E+04         0.00000E+00
    0.00000E+00         0.00000E+00        -0.58015E+03
 
   -0.47891E+04         0.19813E+04         0.00000E+00
    0.19813E+04         0.31891E+04         0.00000E+00
    0.00000E+00         0.00000E+00        -0.48001E+03
 
   -0.44689E+04         0.21997E+04         0.00000E+00
    0.21997E+04         0.31814E+04         0.00000E+00
    0.00000E+00         0.00000E+00        -0.38628E+03
 
   -0.41315E+04         0.24139E+04         0.00000E+00
    0.24139E+04         0.31386E+04         0.00000E+00
    0.00000E+00         0.00000E+00        -0.29787E+03
 
   -0.37775E+04         0.26237E+04         0.00000E+00
    0.26237E+04         0.30654E+04         0.00000E+00
    0.00000E+00         0.00000E+00        -0.21362E+03
 
   -0.34073E+04         0.28295E+04         0.00000E+00
    0.28295E+04         0.29663E+04         0.00000E+00
    0.00000E+00         0.00000E+00        -0.13229E+03
 
   -0.30204E+04         0.30322E+04         0.00000E+00
    0.30322E+04         0.28451E+04         0.00000E+00
    0.00000E+00         0.00000E+00        -0.52597E+02
 
   -0.26159E+04         0.32330E+04         0.00000E+00
    0.32330E+04         0.27051E+04         0.00000E+00
    0.00000E+00         0.00000E+00         0.26732E+02
 
   -0.21921E+04         0.34331E+04         0.00000E+00
    0.34331E+04         0.25486E+04         0.00000E+00
    0.00000E+00         0.00000E+00         0.10696E+03
 
   -0.17465E+04         0.36333E+04         0.00000E+00
    0.36333E+04         0.23775E+04         0.00000E+00
    0.00000E+00         0.00000E+00         0.18931E+03
 
   -0.12761E+04         0.38346E+04         0.00000E+00
    0.38346E+04         0.21925E+04         0.00000E+00
    0.00000E+00         0.00000E+00         0.27490E+03
 
   -0.77760E+03         0.40373E+04         0.00000E+00
    0.40373E+04         0.19935E+04         0.00000E+00
    0.00000E+00         0.00000E+00         0.36477E+03
 
   -0.24701E+03         0.42409E+04         0.00000E+00
    0.42409E+04         0.17796E+04         0.00000E+00
    0.00000E+00         0.00000E+00         0.45977E+03
 
    0.31967E+03         0.44445E+04         0.00000E+00
    0.44445E+04         0.15490E+04         0.00000E+00
    0.00000E+00         0.00000E+00         0.56060E+03
 
   -0.68885E+04         0.19924E+02         0.00000E+00
    0.19924E+02         0.23197E+03         0.00000E+00
    0.00000E+00         0.00000E+00        -0.19970E+04
 
   -0.67803E+04         0.84674E+02         0.00000E+00
    0.84674E+02         0.68725E+03         0.00000E+00
    0.00000E+00         0.00000E+00        -0.18279E+04
 
   -0.66552E+04         0.17925E+03         0.00000E+00
    0.17925E+03         0.11222E+04         0.00000E+00
    0.00000E+00         0.00000E+00        -0.16599E+04
 
   -0.65130E+04         0.30059E+03         0.00000E+00
    0.30059E+03         0.15279E+04         0.00000E+00
    0.00000E+00         0.00000E+00        -0.14955E+04
 
   -0.63531E+04         0.44541E+03         0.00000E+00
    0.44541E+03         0.18967E+04         0.00000E+00
    0.00000E+00         0.00000E+00        -0.13369E+04
 
   -0.61749E+04         0.61016E+03         0.00000E+00
    0.61016E+03         0.22225E+04         0.00000E+00
    0.00000E+00         0.00000E+00        -0.11857E+04
 
   -0.59779E+04         0.79111E+03         0.00000E+00
    0.79111E+03         0.25012E+04         0.00000E+00
    0.00000E+00         0.00000E+00        -0.10430E+04
 
   -0.57616E+04         0.98445E+03         0.00000E+00
    0.98445E+03         0.27305E+04         0.00000E+00
    0.00000E+00         0.00000E+00        -0.90934E+03
 
   -0.55259E+04         0.11865E+04         0.00000E+00
    0.11865E+04         0.29099E+04         0.00000E+00
    0.00000E+00         0.00000E+00        -0.78478E+03
 
   -0.52708E+04         0.13941E+04         0.00000E+00
    0.13941E+04         0.30405E+04         0.00000E+00
    0.00000E+00         0.00000E+00        -0.66910E+03
 
   -0.49970E+04         0.16041E+04         0.00000E+00
    0.16041E+04         0.31245E+04         0.00000E+00
    0.00000E+00         0.00000E+00        -0.56173E+03
 
   -0.47048E+04         0.18145E+04         0.00000E+00
    0.18145E+04         0.31653E+04         0.00000E+00
    0.00000E+00         0.00000E+00        -0.46185E+03
 
   -0.43949E+04         0.20235E+04         0.00000E+00
    0.20235E+04         0.31667E+04         0.00000E+00
    0.00000E+00         0.00000E+00        -0.36847E+03
 
   -0.40678E+04         0.22303E+04         0.00000E+00
    0.22303E+04         0.31328E+04         0.00000E+00
    0.00000E+00         0.00000E+00        -0.28048E+03
 
   -0.37236E+04         0.24343E+04         0.00000E+00
    0.24343E+04         0.30681E+04         0.00000E+00
    0.00000E+00         0.00000E+00        -0.19665E+03
 
   -0.33621E+04         0.26357E+04         0.00000E+00
    0.26357E+04         0.29764E+04         0.00000E+00
    0.00000E+00         0.00000E+00        -0.11572E+03
 
   -0.29827E+04         0.28348E+04         0.00000E+00
    0.28348E+04         0.28614E+04         0.00000E+00
    0.00000E+00         0.00000E+00        -0.36382E+02
 
   -0.25841E+04         0.30322E+04         0.00000E+00
    0.30322E+04         0.27263E+04         0.00000E+00
    0.00000E+00         0.00000E+00         0.42642E+02
 
   -0.21648E+04         0.32286E+04         0.00000E+00
    0.32286E+04         0.25735E+04         0.00000E+00
    0.00000E+00         0.00000E+00         0.12262E+03
 
   -0.17224E+04         0.34246E+04         0.00000E+00
    0.34246E+04         0.24049E+04         0.00000E+00
    0.00000E+00         0.00000E+00         0.20474E+03
 
   -0.12543E+04         0.36203E+04         0.00000E+00
    0.36203E+04         0.22214E+04         0.00000E+00
    0.00000E+00         0.00000E+00         0.29011E+03
 
   -0.75760E+03         0.38157E+04         0.00000E+00
    0.38157E+04         0.20233E+04         0.00000E+00
    0.00000E+00         0.00000E+00         0.37971E+03
 
   -0.22892E+03         0.40101E+04         0.00000E+00
    0.40101E+04         0.18101E+04         0.00000E+00
    0.00000E+00         0.00000E+00         0.47436E+03
 
    0.33507E+03         0.42023E+04         0.00000E+00
    0.42023E+04         0.15805E+04         0.00000E+00
    0.00000E+00         0.00000E+00         0.57467E+03
 
   -0.68511E+04         0.16075E+02         0.00000E+00
    0.16075E+02         0.22513E+03         0.00000E+00
    0.00000E+00         0.00000E+00        -0.19878E+04
 
   -0.67264E+04         0.71609E+02         0.00000E+00
    0.71609E+02         0.66783E+03         0.00000E+00
    0.00000E+00         0.00000E+00        -0.18176E+04
 
   -0.65872E+04         0.15510E+03         0.00000E+00
    0.15510E+03         0.10922E+04         0.00000E+00
    0.00000E+00         0.00000E+00        -0.16485E+04
 
   -0.64332E+04         0.26368E+03         0.00000E+00
    0.26368E+03         0.14893E+04         0.00000E+00
    0.00000E+00         0.00000E+00        -0.14832E+04
 
   -0.62641E+04         0.39433E+03         0.00000E+00
    0.39433E+03         0.18516E+04         0.00000E+00
    0.00000E+00         0.00000E+00        -0.13237E+04
 
   -0.60796E+04         0.54390E+03         0.00000E+00
    0.54390E+03         0.21734E+04         0.00000E+00
    0.00000E+00         0.00000E+00        -0.11719E+04
 
   -0.58790E+04         0.70913E+03         0.00000E+00
    0.70913E+03         0.24504E+04         0.00000E+00
    0.00000E+00         0.00000E+00        -0.10286E+04
 
   -0.56620E+04         0.88678E+03         0.00000E+00
    0.88678E+03         0.26803E+04         0.00000E+00
    0.00000E+00         0.00000E+00        -0.89452E+03
 
   -0.54283E+04         0.10737E+04         0.00000E+00
    0.10737E+04         0.28624E+04         0.00000E+00
    0.00000E+00         0.00000E+00        -0.76975E+03
 
   -0.51776E+04         0.12670E+04         0.00000E+00
    0.12670E+04         0.29975E+04         0.00000E+00
    0.00000E+00         0.00000E+00        -0.65402E+03
 
   -0.49098E+04         0.14642E+04         0.00000E+00
    0.14642E+04         0.30874E+04         0.00000E+00
    0.00000E+00         0.00000E+00        -0.54673E+03
 
   -0.46251E+04         0.16632E+04         0.00000E+00
    0.16632E+04         0.31349E+04         0.00000E+00
    0.00000E+00         0.00000E+00        -0.44705E+03
 
   -0.43233E+04         0.18625E+04         0.00000E+00
    0.18625E+04         0.31435E+04         0.00000E+00
    0.00000E+00         0.00000E+00        -0.35397E+03
 
   -0.40046E+04         0.20610E+04         0.00000E+00
    0.20610E+04         0.31168E+04         0.00000E+00
    0.00000E+00         0.00000E+00        -0.26632E+03
 
   -0.36685E+04         0.22580E+04         0.00000E+00
    0.22580E+04         0.30589E+04         0.00000E+00
    0.00000E+00         0.00000E+00        -0.18287E+03
 
   -0.33145E+04         0.24535E+04         0.00000E+00
    0.24535E+04         0.29734E+04         0.00000E+00
    0.00000E+00         0.00000E+00        -0.10233E+03
 
   -0.29417E+04         0.26473E+04         0.00000E+00
    0.26473E+04         0.28638E+04         0.00000E+00
    0.00000E+00         0.00000E+00        -0.23396E+02
 
   -0.25489E+04         0.28396E+04         0.00000E+00
    0.28396E+04         0.27330E+04         0.00000E+00
    0.00000E+00         0.00000E+00         0.55237E+02
 
   -0.21342E+04         0.30308E+04         0.00000E+00
    0.30308E+04         0.25836E+04         0.00000E+00
    0.00000E+00         0.00000E+00         0.13482E+03
 
   -0.16958E+04         0.32208E+04         0.00000E+00
    0.32208E+04         0.24175E+04         0.00000E+00
    0.00000E+00         0.00000E+00         0.21652E+03
 
   -0.12311E+04         0.34097E+04         0.00000E+00
    0.34097E+04         0.22359E+04         0.00000E+00
    0.00000E+00         0.00000E+00         0.30143E+03
 
   -0.73771E+03         0.35969E+04         0.00000E+00
    0.35969E+04         0.20393E+04         0.00000E+00
    0.00000E+00         0.00000E+00         0.39048E+03
 
   -0.21277E+03         0.37815E+04         0.00000E+00
    0.37815E+04         0.18275E+04         0.00000E+00
    0.00000E+00         0.00000E+00         0.48443E+03
 
    0.34646E+03         0.39621E+04         0.00000E+00
    0.39621E+04         0.15997E+04         0.00000E+00
    0.00000E+00         0.00000E+00         0.58386E+03
 
   -0.68208E+04         0.12868E+02         0.00000E+00
    0.12868E+02         0.21871E+03         0.00000E+00
    0.00000E+00         0.00000E+00        -0.19806E+04
 
   -0.66808E+04         0.60438E+02         0.00000E+00
    0.60438E+02         0.64957E+03         0.00000E+00
    0.00000E+00         0.00000E+00        -0.18094E+04
 
   -0.65284E+04         0.13415E+03         0.00000E+00
    0.13415E+03         0.10639E+04         0.00000E+00
    0.00000E+00         0.00000E+00        -0.16394E+04
 
   -0.63635E+04         0.23136E+03         0.00000E+00
    0.23136E+03         0.14527E+04         0.00000E+00
    0.00000E+00         0.00000E+00        -0.14732E+04
 
   -0.61858E+04         0.34934E+03         0.00000E+00
    0.34934E+03         0.18088E+04         0.00000E+00
    0.00000E+00         0.00000E+00        -0.13131E+04
 
   -0.59951E+04         0.48530E+03         0.00000E+00
    0.48530E+03         0.21263E+04         0.00000E+00
    0.00000E+00         0.00000E+00        -0.11606E+04
 
   -0.57909E+04         0.63638E+03         0.00000E+00
    0.63638E+03         0.24011E+04         0.00000E+00
    0.00000E+00         0.00000E+00        -0.10169E+04
 
   -0.55726E+04         0.79976E+03         0.00000E+00
    0.79976E+03         0.26308E+04         0.00000E+00
    0.00000E+00         0.00000E+00        -0.88254E+03
 
   -0.53398E+04         0.97270E+03         0.00000E+00
    0.97270E+03         0.28144E+04         0.00000E+00
    0.00000E+00         0.00000E+00        -0.75760E+03
 
   -0.50919E+04         0.11527E+04         0.00000E+00
    0.11527E+04         0.29525E+04         0.00000E+00
    0.00000E+00         0.00000E+00        -0.64182E+03
 
   -0.48287E+04         0.13375E+04         0.00000E+00
    0.13375E+04         0.30467E+04         0.00000E+00
    0.00000E+00         0.00000E+00        -0.53460E+03
 
   -0.45496E+04         0.15253E+04         0.00000E+00
    0.15253E+04         0.30993E+04         0.00000E+00
    0.00000E+00         0.00000E+00        -0.43509E+03
 
   -0.42543E+04         0.17145E+04         0.00000E+00
    0.17145E+04         0.31134E+04         0.00000E+00
    0.00000E+00         0.00000E+00        -0.34226E+03
 
   -0.39423E+04         0.19041E+04         0.00000E+00
    0.19041E+04         0.30926E+04         0.00000E+00
    0.00000E+00         0.00000E+00        -0.25493E+03
 
   -0.36130E+04         0.20933E+04         0.00000E+00
    0.20933E+04         0.30402E+04         0.00000E+00
    0.00000E+00         0.00000E+00        -0.17185E+03
 
   -0.32655E+04         0.22816E+04         0.00000E+00
    0.22816E+04         0.29598E+04         0.00000E+00
    0.00000E+00         0.00000E+00        -0.91722E+02
 
   -0.28987E+04         0.24687E+04         0.00000E+00
    0.24687E+04         0.28546E+04         0.00000E+00
    0.00000E+00         0.00000E+00        -0.13221E+02
 
   -0.25112E+04         0.26547E+04         0.00000E+00
    0.26547E+04         0.27277E+04         0.00000E+00
    0.00000E+00         0.00000E+00         0.64940E+02
 
   -0.21015E+04         0.28392E+04         0.00000E+00
    0.28392E+04         0.25815E+04         0.00000E+00
    0.00000E+00         0.00000E+00         0.14400E+03
 
   -0.16675E+04         0.30222E+04         0.00000E+00
    0.30222E+04         0.24179E+04         0.00000E+00
    0.00000E+00         0.00000E+00         0.22513E+03
 
   -0.12071E+04         0.32031E+04         0.00000E+00
    0.32031E+04         0.22384E+04         0.00000E+00
    0.00000E+00         0.00000E+00         0.30937E+03
 
   -0.71823E+03         0.33813E+04         0.00000E+00
    0.33813E+04         0.20437E+04         0.00000E+00
    0.00000E+00         0.00000E+00         0.39763E+03
 
   -0.19848E+03         0.35557E+04         0.00000E+00
    0.35557E+04         0.18339E+04         0.00000E+00
    0.00000E+00         0.00000E+00         0.49062E+03
 
    0.35439E+03         0.37247E+04         0.00000E+00
    0.37247E+04         0.16085E+04         0.00000E+00
    0.00000E+00         0.00000E+00         0.58888E+03
 
   -0.67965E+04         0.10252E+02         0.00000E+00
    0.10252E+02         0.21270E+03         0.00000E+00
    0.00000E+00         0.00000E+00        -0.19751E+04
 
   -0.66422E+04         0.51022E+02         0.00000E+00
    0.51022E+02         0.63246E+03         0.00000E+00
    0.00000E+00         0.00000E+00        -0.18029E+04
 
   -0.64776E+04         0.11613E+03         0.00000E+00
    0.11613E+03         0.10372E+04         0.00000E+00
    0.00000E+00         0.00000E+00        -0.16321E+04
 
   -0.63024E+04         0.20321E+03         0.00000E+00
    0.20321E+03         0.14182E+04         0.00000E+00
    0.00000E+00         0.00000E+00        -0.14653E+04
 
   -0.61167E+04         0.30983E+03         0.00000E+00
    0.30983E+03         0.17682E+04         0.00000E+00
    0.00000E+00         0.00000E+00        -0.13046E+04
 
   -0.59200E+04         0.43350E+03         0.00000E+00
    0.43350E+03         0.20812E+04         0.00000E+00
    0.00000E+00         0.00000E+00        -0.11516E+04
 
   -0.57119E+04         0.57171E+03         0.00000E+00
    0.57171E+03         0.23534E+04         0.00000E+00
    0.00000E+00         0.00000E+00        -0.10075E+04
 
   -0.54917E+04         0.72199E+03         0.00000E+00
    0.72199E+03         0.25821E+04         0.00000E+00
    0.00000E+00         0.00000E+00        -0.87291E+03
 
   -0.52590E+04         0.88195E+03         0.00000E+00
    0.88195E+03         0.27663E+04         0.00000E+00
    0.00000E+00         0.00000E+00        -0.74782E+03
 
   -0.50130E+04         0.10494E+04         0.00000E+00
    0.10494E+04         0.29062E+04         0.00000E+00
    0.00000E+00         0.00000E+00        -0.63201E+03
 
   -0.47529E+04         0.12223E+04         0.00000E+00
    0.12223E+04         0.30034E+04         0.00000E+00
    0.00000E+00         0.00000E+00        -0.52486E+03
 
   -0.44781E+04         0.13989E+04         0.00000E+00
    0.13989E+04         0.30598E+04         0.00000E+00
    0.00000E+00         0.00000E+00        -0.42551E+03
 
   -0.41879E+04         0.15779E+04         0.00000E+00
    0.15779E+04         0.30782E+04         0.00000E+00
    0.00000E+00         0.00000E+00        -0.33292E+03
 
   -0.38814E+04         0.17581E+04         0.00000E+00
    0.17581E+04         0.30618E+04         0.00000E+00
    0.00000E+00         0.00000E+00        -0.24590E+03
 
   -0.35578E+04         0.19386E+04         0.00000E+00
    0.19386E+04         0.30138E+04         0.00000E+00
    0.00000E+00         0.00000E+00        -0.16319E+03
 
   -0.32159E+04         0.21188E+04         0.00000E+00
    0.21188E+04         0.29376E+04         0.00000E+00
    0.00000E+00         0.00000E+00        -0.83486E+02
 
   -0.28545E+04         0.22983E+04         0.00000E+00
    0.22983E+04         0.28363E+04         0.00000E+00
    0.00000E+00         0.00000E+00        -0.54666E+01
 
   -0.24722E+04         0.24767E+04         0.00000E+00
    0.24767E+04         0.27127E+04         0.00000E+00
    0.00000E+00         0.00000E+00         0.72152E+02
 
   -0.20673E+04         0.26535E+04         0.00000E+00
    0.26535E+04         0.25693E+04         0.00000E+00
    0.00000E+00         0.00000E+00         0.15060E+03
 
   -0.16382E+04         0.28284E+04         0.00000E+00
    0.28284E+04         0.24082E+04         0.00000E+00
    0.00000E+00         0.00000E+00         0.23102E+03
 
   -0.11828E+04         0.30007E+04         0.00000E+00
    0.30007E+04         0.22309E+04         0.00000E+00
    0.00000E+00         0.00000E+00         0.31443E+03
 
   -0.69939E+03         0.31694E+04         0.00000E+00
    0.31694E+04         0.20384E+04         0.00000E+00
    0.00000E+00         0.00000E+00         0.40171E+03
 
   -0.18593E+03         0.33333E+04         0.00000E+00
    0.33333E+04         0.18311E+04         0.00000E+00
    0.00000E+00         0.00000E+00         0.49354E+03
 
    0.35934E+03         0.34908E+04         0.00000E+00
    0.34908E+04         0.16087E+04         0.00000E+00
    0.00000E+00         0.00000E+00         0.59040E+03
 
   -0.67770E+04         0.81600E+01         0.00000E+00
    0.81600E+01         0.20711E+03         0.00000E+00
    0.00000E+00         0.00000E+00        -0.19710E+04
 
   -0.66096E+04         0.43178E+02         0.00000E+00
    0.43178E+02         0.61648E+03         0.00000E+00
    0.00000E+00         0.00000E+00        -0.17979E+04
 
   -0.64335E+04         0.10076E+03         0.00000E+00
    0.10076E+03         0.10122E+04         0.00000E+00
    0.00000E+00         0.00000E+00        -0.16264E+04
 
   -0.62489E+04         0.17880E+03         0.00000E+00
    0.17880E+03         0.13857E+04         0.00000E+00
    0.00000E+00         0.00000E+00        -0.14589E+04
 
   -0.60554E+04         0.27517E+03         0.00000E+00
    0.27517E+03         0.17296E+04         0.00000E+00
    0.00000E+00         0.00000E+00        -0.12977E+04
 
   -0.58528E+04         0.38767E+03         0.00000E+00
    0.38767E+03         0.20381E+04         0.00000E+00
    0.00000E+00         0.00000E+00        -0.11444E+04
 
   -0.56407E+04         0.51408E+03         0.00000E+00
    0.51408E+03         0.23073E+04         0.00000E+00
    0.00000E+00         0.00000E+00        -0.10000E+04
 
   -0.54184E+04         0.65224E+03         0.00000E+00
    0.65224E+03         0.25344E+04         0.00000E+00
    0.00000E+00         0.00000E+00        -0.86520E+03
 
   -0.51851E+04         0.80003E+03         0.00000E+00
    0.80003E+03         0.27184E+04         0.00000E+00
    0.00000E+00         0.00000E+00        -0.74001E+03
 
   -0.49400E+04         0.95549E+03         0.00000E+00
    0.95549E+03         0.28593E+04         0.00000E+00
    0.00000E+00         0.00000E+00        -0.62419E+03
 
   -0.46821E+04         0.11168E+04         0.00000E+00
    0.11168E+04         0.29584E+04         0.00000E+00
    0.00000E+00         0.00000E+00        -0.51711E+03
 
   -0.44105E+04         0.12825E+04         0.00000E+00
    0.12825E+04         0.30174E+04         0.00000E+00
    0.00000E+00         0.00000E+00        -0.41793E+03
 
   -0.41242E+04         0.14510E+04         0.00000E+00
    0.14510E+04         0.30390E+04         0.00000E+00
    0.00000E+00         0.00000E+00        -0.32557E+03
 
   -0.38222E+04         0.16214E+04         0.00000E+00
    0.16214E+04         0.30260E+04         0.00000E+00
    0.00000E+00         0.00000E+00        -0.23886E+03
 
   -0.35033E+04         0.17927E+04         0.00000E+00
    0.17927E+04         0.29816E+04         0.00000E+00
    0.00000E+00         0.00000E+00        -0.15653E+03
 
   -0.31663E+04         0.19642E+04         0.00000E+00
    0.19642E+04         0.29088E+04         0.00000E+00
    0.00000E+00         0.00000E+00        -0.77269E+02
 
   -0.28098E+04         0.21351E+04         0.00000E+00
    0.21351E+04         0.28106E+04         0.00000E+00
    0.00000E+00         0.00000E+00         0.22925E+00
 
   -0.24324E+04         0.23051E+04         0.00000E+00
    0.23051E+04         0.26899E+04         0.00000E+00
    0.00000E+00         0.00000E+00         0.77245E+02
 
   -0.20325E+04         0.24734E+04         0.00000E+00
    0.24734E+04         0.25492E+04         0.00000E+00
    0.00000E+00         0.00000E+00         0.15499E+03
 
   -0.16085E+04         0.26395E+04         0.00000E+00
    0.26395E+04         0.23905E+04         0.00000E+00
    0.00000E+00         0.00000E+00         0.23460E+03
 
   -0.11586E+04         0.28025E+04         0.00000E+00
    0.28025E+04         0.22155E+04         0.00000E+00
    0.00000E+00         0.00000E+00         0.31706E+03
 
   -0.68133E+03         0.29613E+04         0.00000E+00
    0.29613E+04         0.20254E+04         0.00000E+00
    0.00000E+00         0.00000E+00         0.40322E+03
 
   -0.17499E+03         0.31146E+04         0.00000E+00
    0.31146E+04         0.18207E+04         0.00000E+00
    0.00000E+00         0.00000E+00         0.49373E+03
 
    0.36178E+03         0.32606E+04         0.00000E+00
    0.32606E+04         0.16017E+04         0.00000E+00
    0.00000E+00         0.00000E+00         0.58903E+03
 
   -0.67613E+04         0.65177E+01         0.00000E+00
    0.65177E+01         0.20193E+03         0.00000E+00
    0.00000E+00         0.00000E+00        -0.19678E+04
 
   -0.65818E+04         0.36699E+02         0.00000E+00
    0.36699E+02         0.60163E+03         0.00000E+00
    0.00000E+00         0.00000E+00        -0.17940E+04
 
   -0.63952E+04         0.87681E+02         0.00000E+00
    0.87681E+02         0.98890E+03         0.00000E+00
    0.00000E+00         0.00000E+00        -0.16219E+04
 
   -0.62016E+04         0.15765E+03         0.00000E+00
    0.15765E+03         0.13551E+04         0.00000E+00
    0.00000E+00         0.00000E+00        -0.14539E+04
 
   -0.60009E+04         0.24474E+03         0.00000E+00
    0.24474E+03         0.16931E+04         0.00000E+00
    0.00000E+00         0.00000E+00        -0.12923E+04
 
   -0.57926E+04         0.34701E+03         0.00000E+00
    0.34701E+03         0.19971E+04         0.00000E+00
    0.00000E+00         0.00000E+00        -0.11387E+04
 
   -0.55765E+04         0.46253E+03         0.00000E+00
    0.46253E+03         0.22630E+04         0.00000E+00
    0.00000E+00         0.00000E+00        -0.99405E+03
 
   -0.53516E+04         0.58938E+03         0.00000E+00
    0.58938E+03         0.24881E+04         0.00000E+00
    0.00000E+00         0.00000E+00        -0.85906E+03
 
   -0.51172E+04         0.72569E+03         0.00000E+00
    0.72569E+03         0.26712E+04         0.00000E+00
    0.00000E+00         0.00000E+00        -0.73380E+03
 
   -0.48724E+04         0.86971E+03         0.00000E+00
    0.86971E+03         0.28124E+04         0.00000E+00
    0.00000E+00         0.00000E+00        -0.61799E+03
 
   -0.46159E+04         0.10198E+04         0.00000E+00
    0.10198E+04         0.29125E+04         0.00000E+00
    0.00000E+00         0.00000E+00        -0.51101E+03
 
   -0.43466E+04         0.11746E+04         0.00000E+00
    0.11746E+04         0.29733E+04         0.00000E+00
    0.00000E+00         0.00000E+00        -0.41199E+03
 
   -0.40634E+04         0.13326E+04         0.00000E+00
    0.13326E+04         0.29972E+04         0.00000E+00
    0.00000E+00         0.00000E+00        -0.31987E+03
 
   -0.37650E+04         0.14930E+04         0.00000E+00
    0.14930E+04         0.29867E+04         0.00000E+00
    0.00000E+00         0.00000E+00        -0.23348E+03
 
   -0.34501E+04         0.16546E+04         0.00000E+00
    0.16546E+04         0.29450E+04         0.00000E+00
    0.00000E+00         0.00000E+00        -0.15154E+03
 
   -0.31174E+04         0.18167E+04         0.00000E+00
    0.18167E+04         0.28749E+04         0.00000E+00
    0.00000E+00         0.00000E+00        -0.72748E+02
 
   -0.27654E+04         0.19785E+04         0.00000E+00
    0.19785E+04         0.27794E+04         0.00000E+00
    0.00000E+00         0.00000E+00         0.41965E+01
 
   -0.23927E+04         0.21394E+04         0.00000E+00
    0.21394E+04         0.26612E+04         0.00000E+00
    0.00000E+00         0.00000E+00         0.80561E+02
 
   -0.19977E+04         0.22985E+04         0.00000E+00
    0.22985E+04         0.25228E+04         0.00000E+00
    0.00000E+00         0.00000E+00         0.15755E+03
 
   -0.15789E+04         0.24552E+04         0.00000E+00
    0.24552E+04         0.23665E+04         0.00000E+00
    0.00000E+00         0.00000E+00         0.23626E+03
 
   -0.11349E+04         0.26085E+04         0.00000E+00
    0.26085E+04         0.21938E+04         0.00000E+00
    0.00000E+00         0.00000E+00         0.31768E+03
 
   -0.66418E+03         0.27572E+04         0.00000E+00
    0.27572E+04         0.20062E+04         0.00000E+00
    0.00000E+00         0.00000E+00         0.40261E+03
 
   -0.16551E+03         0.28998E+04         0.00000E+00
    0.28998E+04         0.18045E+04         0.00000E+00
    0.00000E+00         0.00000E+00         0.49170E+03
 
    0.36215E+03         0.30347E+04         0.00000E+00
    0.30347E+04         0.15890E+04         0.00000E+00
    0.00000E+00         0.00000E+00         0.58534E+03
 
   -0.67487E+04         0.52505E+01         0.00000E+00
    0.52505E+01         0.19717E+03         0.00000E+00
    0.00000E+00         0.00000E+00        -0.19655E+04
 
   -0.65581E+04         0.31379E+02         0.00000E+00
    0.31379E+02         0.58788E+03         0.00000E+00
    0.00000E+00         0.00000E+00        -0.17911E+04
 
   -0.63618E+04         0.76578E+02         0.00000E+00
    0.76578E+02         0.96719E+03         0.00000E+00
    0.00000E+00         0.00000E+00        -0.16184E+04
 
   -0.61599E+04         0.13931E+03         0.00000E+00
    0.13931E+03         0.13266E+04         0.00000E+00
    0.00000E+00         0.00000E+00        -0.14500E+04
 
   -0.59522E+04         0.21795E+03         0.00000E+00
    0.21795E+03         0.16588E+04         0.00000E+00
    0.00000E+00         0.00000E+00        -0.12880E+04
 
   -0.57385E+04         0.31081E+03         0.00000E+00
    0.31081E+03         0.19582E+04         0.00000E+00
    0.00000E+00         0.00000E+00        -0.11341E+04
 
   -0.55183E+04         0.41620E+03         0.00000E+00
    0.41620E+03         0.22206E+04         0.00000E+00
    0.00000E+00         0.00000E+00        -0.98931E+03
 
   -0.52907E+04         0.53243E+03         0.00000E+00
    0.53243E+03         0.24434E+04         0.00000E+00
    0.00000E+00         0.00000E+00        -0.85421E+03
 
   -0.50549E+04         0.65784E+03         0.00000E+00
    0.65784E+03         0.26252E+04         0.00000E+00
    0.00000E+00         0.00000E+00        -0.72891E+03
 
   -0.48097E+04         0.79086E+03         0.00000E+00
    0.79086E+03         0.27660E+04         0.00000E+00
    0.00000E+00         0.00000E+00        -0.61313E+03
 
   -0.45540E+04         0.93002E+03         0.00000E+00
    0.93002E+03         0.28665E+04         0.00000E+00
    0.00000E+00         0.00000E+00        -0.50625E+03
 
   -0.42864E+04         0.10740E+04         0.00000E+00
    0.10740E+04         0.29283E+04         0.00000E+00
    0.00000E+00         0.00000E+00        -0.40741E+03
 
   -0.40055E+04         0.12215E+04         0.00000E+00
    0.12215E+04         0.29537E+04         0.00000E+00
    0.00000E+00         0.00000E+00        -0.31554E+03
 
   -0.37101E+04         0.13716E+04         0.00000E+00
    0.13716E+04         0.29451E+04         0.00000E+00
    0.00000E+00         0.00000E+00        -0.22947E+03
 
   -0.33986E+04         0.15232E+04         0.00000E+00
    0.15232E+04         0.29055E+04         0.00000E+00
    0.00000E+00         0.00000E+00        -0.14794E+03
 
   -0.30696E+04         0.16755E+04         0.00000E+00
    0.16755E+04         0.28375E+04         0.00000E+00
    0.00000E+00         0.00000E+00        -0.69631E+02
 
   -0.27217E+04         0.18277E+04         0.00000E+00
    0.18277E+04         0.27442E+04         0.00000E+00
    0.00000E+00         0.00000E+00         0.67338E+01
 
   -0.23535E+04         0.19789E+04         0.00000E+00
    0.19789E+04         0.26282E+04         0.00000E+00
    0.00000E+00         0.00000E+00         0.82413E+02
 
   -0.19633E+04         0.21285E+04         0.00000E+00
    0.21285E+04         0.24920E+04         0.00000E+00
    0.00000E+00         0.00000E+00         0.15859E+03
 
   -0.15499E+04         0.22754E+04         0.00000E+00
    0.22754E+04         0.23378E+04         0.00000E+00
    0.00000E+00         0.00000E+00         0.23636E+03
 
   -0.11119E+04         0.24187E+04         0.00000E+00
    0.24187E+04         0.21674E+04         0.00000E+00
    0.00000E+00         0.00000E+00         0.31667E+03
 
   -0.64801E+03         0.25570E+04         0.00000E+00
    0.25570E+04         0.19824E+04         0.00000E+00
    0.00000E+00         0.00000E+00         0.40032E+03
 
   -0.15736E+03         0.26891E+04         0.00000E+00
    0.26891E+04         0.17837E+04         0.00000E+00
    0.00000E+00         0.00000E+00         0.48791E+03
 
    0.36084E+03         0.28131E+04         0.00000E+00
    0.28131E+04         0.15719E+04         0.00000E+00
    0.00000E+00         0.00000E+00         0.57982E+03
 
   -0.67384E+04         0.42874E+01         0.00000E+00
    0.42874E+01         0.19280E+03         0.00000E+00
    0.00000E+00         0.00000E+00        -0.19637E+04
 
   -0.65377E+04         0.27017E+02         0.00000E+00
    0.27017E+02         0.57523E+03         0.00000E+00
    0.00000E+00         0.00000E+00        -0.17888E+04
 
   -0.63326E+04         0.67128E+02         0.00000E+00
    0.67128E+02         0.94709E+03         0.00000E+00
    0.00000E+00         0.00000E+00        -0.16156E+04
 
   -0.61229E+04         0.12333E+03         0.00000E+00
    0.12333E+03         0.12999E+04         0.00000E+00
    0.00000E+00         0.00000E+00        -0.14469E+04
 
   -0.59088E+04         0.19424E+03         0.00000E+00
    0.19424E+03         0.16266E+04         0.00000E+00
    0.00000E+00         0.00000E+00        -0.12847E+04
 
   -0.56899E+04         0.27840E+03         0.00000E+00
    0.27840E+03         0.19215E+04         0.00000E+00
    0.00000E+00         0.00000E+00        -0.11305E+04
 
   -0.54656E+04         0.37431E+03         0.00000E+00
    0.37431E+03         0.21803E+04         0.00000E+00
    0.00000E+00         0.00000E+00        -0.98558E+03
 
   -0.52352E+04         0.48050E+03         0.00000E+00
    0.48050E+03         0.24005E+04         0.00000E+00
    0.00000E+00         0.00000E+00        -0.85040E+03
 
   -0.49977E+04         0.59551E+03         0.00000E+00
    0.59551E+03         0.25807E+04         0.00000E+00
    0.00000E+00         0.00000E+00        -0.72509E+03
 
   -0.47518E+04         0.71791E+03         0.00000E+00
    0.71791E+03         0.27206E+04         0.00000E+00
    0.00000E+00         0.00000E+00        -0.60936E+03
 
   -0.44963E+04         0.84639E+03         0.00000E+00
    0.84639E+03         0.28210E+04         0.00000E+00
    0.00000E+00         0.00000E+00        -0.50260E+03
 
   -0.42298E+04         0.97970E+03         0.00000E+00
    0.97970E+03         0.28833E+04         0.00000E+00
    0.00000E+00         0.00000E+00        -0.40394E+03
 
   -0.39507E+04         0.11167E+04         0.00000E+00
    0.11167E+04         0.29096E+04         0.00000E+00
    0.00000E+00         0.00000E+00        -0.31234E+03
 
   -0.36576E+04         0.12564E+04         0.00000E+00
    0.12564E+04         0.29023E+04         0.00000E+00
    0.00000E+00         0.00000E+00        -0.22660E+03
 
   -0.33490E+04         0.13977E+04         0.00000E+00
    0.13977E+04         0.28642E+04         0.00000E+00
    0.00000E+00         0.00000E+00        -0.14547E+03
 
   -0.30234E+04         0.15399E+04         0.00000E+00
    0.15399E+04         0.27979E+04         0.00000E+00
    0.00000E+00         0.00000E+00        -0.67660E+02
 
   -0.26793E+04         0.16821E+04         0.00000E+00
    0.16821E+04         0.27064E+04         0.00000E+00
    0.00000E+00         0.00000E+00         0.81086E+01
 
   -0.23153E+04         0.18234E+04         0.00000E+00
    0.18234E+04         0.25922E+04         0.00000E+00
    0.00000E+00         0.00000E+00         0.83082E+02
 
   -0.19298E+04         0.19629E+04         0.00000E+00
    0.19629E+04         0.24579E+04         0.00000E+00
    0.00000E+00         0.00000E+00         0.15843E+03
 
   -0.15217E+04         0.20997E+04         0.00000E+00
    0.20997E+04         0.23058E+04         0.00000E+00
    0.00000E+00         0.00000E+00         0.23522E+03
 
   -0.10897E+04         0.22328E+04         0.00000E+00
    0.22328E+04         0.21377E+04         0.00000E+00
    0.00000E+00         0.00000E+00         0.31440E+03
 
   -0.63288E+03         0.23609E+04         0.00000E+00
    0.23609E+04         0.19553E+04         0.00000E+00
    0.00000E+00         0.00000E+00         0.39672E+03
 
   -0.15039E+03         0.24824E+04         0.00000E+00
    0.24824E+04         0.17597E+04         0.00000E+00
    0.00000E+00         0.00000E+00         0.48279E+03
 
    0.35821E+03         0.25958E+04         0.00000E+00
    0.25958E+04         0.15516E+04         0.00000E+00
    0.00000E+00         0.00000E+00         0.57294E+03
 
   -0.67299E+04         0.35636E+01         0.00000E+00
    0.35636E+01         0.18882E+03         0.00000E+00
    0.00000E+00         0.00000E+00        -0.19623E+04
 
   -0.65202E+04         0.23429E+02         0.00000E+00
    0.23429E+02         0.56364E+03         0.00000E+00
    0.00000E+00         0.00000E+00        -0.17870E+04
 
   -0.63069E+04         0.59037E+02         0.00000E+00
    0.59037E+02         0.92858E+03         0.00000E+00
    0.00000E+00         0.00000E+00        -0.16135E+04
 
   -0.60902E+04         0.10932E+03         0.00000E+00
    0.10932E+03         0.12753E+04         0.00000E+00
    0.00000E+00         0.00000E+00        -0.14445E+04
 
   -0.58700E+04         0.17312E+03         0.00000E+00
    0.17312E+03         0.15966E+04         0.00000E+00
    0.00000E+00         0.00000E+00        -0.12820E+04
 
   -0.56460E+04         0.24916E+03         0.00000E+00
    0.24916E+03         0.18871E+04         0.00000E+00
    0.00000E+00         0.00000E+00        -0.11277E+04
 
   -0.54178E+04         0.33617E+03         0.00000E+00
    0.33617E+03         0.21424E+04         0.00000E+00
    0.00000E+00         0.00000E+00        -0.98265E+03
 
   -0.51846E+04         0.43283E+03         0.00000E+00
    0.43283E+03         0.23598E+04         0.00000E+00
    0.00000E+00         0.00000E+00        -0.84742E+03
 
   -0.49452E+04         0.53786E+03         0.00000E+00
    0.53786E+03         0.25381E+04         0.00000E+00
    0.00000E+00         0.00000E+00        -0.72212E+03
 
   -0.46983E+04         0.64998E+03         0.00000E+00
    0.64998E+03         0.26768E+04         0.00000E+00
    0.00000E+00         0.00000E+00        -0.60647E+03
 
   -0.44427E+04         0.76800E+03         0.00000E+00
    0.76800E+03         0.27766E+04         0.00000E+00
    0.00000E+00         0.00000E+00        -0.49984E+03
 
   -0.41768E+04         0.89078E+03         0.00000E+00
    0.89078E+03         0.28389E+04         0.00000E+00
    0.00000E+00         0.00000E+00        -0.40138E+03
 
   -0.38991E+04         0.10173E+04         0.00000E+00
    0.10173E+04         0.28657E+04         0.00000E+00
    0.00000E+00         0.00000E+00        -0.31003E+03
 
   -0.36080E+04         0.11464E+04         0.00000E+00
    0.11464E+04         0.28592E+04         0.00000E+00
    0.00000E+00         0.00000E+00        -0.22463E+03
 
   -0.33019E+04         0.12774E+04         0.00000E+00
    0.12774E+04         0.28222E+04         0.00000E+00
    0.00000E+00         0.00000E+00        -0.14391E+03
 
   -0.29792E+04         0.14092E+04         0.00000E+00
    0.14092E+04         0.27572E+04         0.00000E+00
    0.00000E+00         0.00000E+00        -0.66608E+02
 
   -0.26386E+04         0.15411E+04         0.00000E+00
    0.15411E+04         0.26671E+04         0.00000E+00
    0.00000E+00         0.00000E+00         0.85588E+01
 
   -0.22785E+04         0.16722E+04         0.00000E+00
    0.16722E+04         0.25545E+04         0.00000E+00
    0.00000E+00         0.00000E+00         0.82818E+02
 
   -0.18976E+04         0.18015E+04         0.00000E+00
    0.18015E+04         0.24220E+04         0.00000E+00
    0.00000E+00         0.00000E+00         0.15733E+03
 
   -0.14947E+04         0.19281E+04         0.00000E+00
    0.19281E+04         0.22718E+04         0.00000E+00
    0.00000E+00         0.00000E+00         0.23313E+03
 
   -0.10687E+04         0.20508E+04         0.00000E+00
    0.20508E+04         0.21059E+04         0.00000E+00
    0.00000E+00         0.00000E+00         0.31116E+03
 
   -0.61881E+03         0.21686E+04         0.00000E+00
    0.21686E+04         0.19260E+04         0.00000E+00
    0.00000E+00         0.00000E+00         0.39216E+03
 
   -0.14446E+03         0.22798E+04         0.00000E+00
    0.22798E+04         0.17334E+04         0.00000E+00
    0.00000E+00         0.00000E+00         0.47669E+03
 
    0.35460E+03         0.23830E+04         0.00000E+00
    0.23830E+04         0.15291E+04         0.00000E+00
    0.00000E+00         0.00000E+00         0.56511E+03
 
   -0.67227E+04         0.30217E+01         0.00000E+00
    0.30217E+01         0.18521E+03         0.00000E+00
    0.00000E+00         0.00000E+00        -0.19612E+04
 
   -0.65049E+04         0.20450E+02         0.00000E+00
    0.20450E+02         0.55310E+03         0.00000E+00
    0.00000E+00         0.00000E+00        -0.17855E+04
 
   -0.62843E+04         0.52039E+02         0.00000E+00
    0.52039E+02         0.91165E+03         0.00000E+00
    0.00000E+00         0.00000E+00        -0.16118E+04
 
   -0.60611E+04         0.96926E+02         0.00000E+00
    0.96926E+02         0.12526E+04         0.00000E+00
    0.00000E+00         0.00000E+00        -0.14425E+04
 
   -0.58352E+04         0.15413E+03         0.00000E+00
    0.15413E+03         0.15689E+04         0.00000E+00
    0.00000E+00         0.00000E+00        -0.12799E+04
 
   -0.56066E+04         0.22258E+03         0.00000E+00
    0.22258E+03         0.18550E+04         0.00000E+00
    0.00000E+00         0.00000E+00        -0.11255E+04
 
   -0.53747E+04         0.30116E+03         0.00000E+00
    0.30116E+03         0.21068E+04         0.00000E+00
    0.00000E+00         0.00000E+00        -0.98036E+03
 
   -0.51385E+04         0.38873E+03         0.00000E+00
    0.38873E+03         0.23215E+04         0.00000E+00
    0.00000E+00         0.00000E+00        -0.84511E+03
 
   -0.48971E+04         0.48415E+03         0.00000E+00
    0.48415E+03         0.24976E+04         0.00000E+00
    0.00000E+00         0.00000E+00        -0.71985E+03
 
   -0.46492E+04         0.58628E+03         0.00000E+00
    0.58628E+03         0.26349E+04         0.00000E+00
    0.00000E+00         0.00000E+00        -0.60428E+03
 
   -0.43932E+04         0.69406E+03         0.00000E+00
    0.69406E+03         0.27339E+04         0.00000E+00
    0.00000E+00         0.00000E+00        -0.49779E+03
 
   -0.41276E+04         0.80643E+03         0.00000E+00
    0.80643E+03         0.27958E+04         0.00000E+00
    0.00000E+00         0.00000E+00        -0.39953E+03
 
   -0.38509E+04         0.92242E+03         0.00000E+00
    0.92242E+03         0.28227E+04         0.00000E+00
    0.00000E+00         0.00000E+00        -0.30845E+03
 
   -0.35613E+04         0.10411E+04         0.00000E+00
    0.10411E+04         0.28167E+04         0.00000E+00
    0.00000E+00         0.00000E+00        -0.22338E+03
 
   -0.32573E+04         0.11615E+04         0.00000E+00
    0.11615E+04         0.27804E+04         0.00000E+00
    0.00000E+00         0.00000E+00        -0.14308E+03
 
   -0.29373E+04         0.12829E+04         0.00000E+00
    0.12829E+04         0.27164E+04         0.00000E+00
    0.00000E+00         0.00000E+00        -0.66274E+02
 
   -0.25998E+04         0.14043E+04         0.00000E+00
    0.14043E+04         0.26275E+04         0.00000E+00
    0.00000E+00         0.00000E+00         0.82946E+01
 
   -0.22434E+04         0.15249E+04         0.00000E+00
    0.15249E+04         0.25163E+04         0.00000E+00
    0.00000E+00         0.00000E+00         0.81845E+02
 
   -0.18669E+04         0.16438E+04         0.00000E+00
    0.16438E+04         0.23853E+04         0.00000E+00
    0.00000E+00         0.00000E+00         0.15552E+03
 
   -0.14690E+04         0.17600E+04         0.00000E+00
    0.17600E+04         0.22368E+04         0.00000E+00
    0.00000E+00         0.00000E+00         0.23035E+03
 
   -0.10489E+04         0.18725E+04         0.00000E+00
    0.18725E+04         0.20730E+04         0.00000E+00
    0.00000E+00         0.00000E+00         0.30724E+03
 
   -0.60583E+03         0.19800E+04         0.00000E+00
    0.19800E+04         0.18956E+04         0.00000E+00
    0.00000E+00         0.00000E+00         0.38693E+03
 
   -0.13945E+03         0.20812E+04         0.00000E+00
    0.20812E+04         0.17060E+04         0.00000E+00
    0.00000E+00         0.00000E+00         0.46997E+03
 
    0.35029E+03         0.21744E+04         0.00000E+00
    0.21744E+04         0.15053E+04         0.00000E+00
    0.00000E+00         0.00000E+00         0.55668E+03
 
   -0.67166E+04         0.26127E+01         0.00000E+00
    0.26127E+01         0.18196E+03         0.00000E+00
    0.00000E+00         0.00000E+00        -0.19604E+04
 
   -0.64916E+04         0.17937E+02         0.00000E+00
    0.17937E+02         0.54357E+03         0.00000E+00
    0.00000E+00         0.00000E+00        -0.17844E+04
 
   -0.62644E+04         0.45902E+02         0.00000E+00
    0.45902E+02         0.89626E+03         0.00000E+00
    0.00000E+00         0.00000E+00        -0.16104E+04
 
   -0.60352E+04         0.85819E+02         0.00000E+00
    0.85819E+02         0.12319E+04         0.00000E+00
    0.00000E+00         0.00000E+00        -0.14410E+04
 
   -0.58043E+04         0.13688E+03         0.00000E+00
    0.13688E+03         0.15435E+04         0.00000E+00
    0.00000E+00         0.00000E+00        -0.12782E+04
 
   -0.55713E+04         0.19817E+03         0.00000E+00
    0.19817E+03         0.18255E+04         0.00000E+00
    0.00000E+00         0.00000E+00        -0.11237E+04
 
   -0.53357E+04         0.26874E+03         0.00000E+00
    0.26874E+03         0.20738E+04         0.00000E+00
    0.00000E+00         0.00000E+00        -0.97857E+03
 
   -0.50968E+04         0.34760E+03         0.00000E+00
    0.34760E+03         0.22857E+04         0.00000E+00
    0.00000E+00         0.00000E+00        -0.84334E+03
 
   -0.48534E+04         0.43373E+03         0.00000E+00
    0.43373E+03         0.24597E+04         0.00000E+00
    0.00000E+00         0.00000E+00        -0.71812E+03
 
   -0.46042E+04         0.52615E+03         0.00000E+00
    0.52615E+03         0.25954E+04         0.00000E+00
    0.00000E+00         0.00000E+00        -0.60265E+03
 
   -0.43477E+04         0.62387E+03         0.00000E+00
    0.62387E+03         0.26933E+04         0.00000E+00
    0.00000E+00         0.00000E+00        -0.49631E+03
 
   -0.40822E+04         0.72596E+03         0.00000E+00
    0.72596E+03         0.27547E+04         0.00000E+00
    0.00000E+00         0.00000E+00        -0.39826E+03
 
   -0.38061E+04         0.83150E+03         0.00000E+00
    0.83150E+03         0.27813E+04         0.00000E+00
    0.00000E+00         0.00000E+00        -0.30744E+03
 
   -0.35178E+04         0.93963E+03         0.00000E+00
    0.93963E+03         0.27755E+04         0.00000E+00
    0.00000E+00         0.00000E+00        -0.22270E+03
 
   -0.32156E+04         0.10495E+04         0.00000E+00
    0.10495E+04         0.27396E+04         0.00000E+00
    0.00000E+00         0.00000E+00        -0.14280E+03
 
   -0.28980E+04         0.11603E+04         0.00000E+00
    0.11603E+04         0.26764E+04         0.00000E+00
    0.00000E+00         0.00000E+00        -0.66484E+02
 
   -0.25634E+04         0.12711E+04         0.00000E+00
    0.12711E+04         0.25884E+04         0.00000E+00
    0.00000E+00         0.00000E+00         0.75000E+01
 
   -0.22105E+04         0.13812E+04         0.00000E+00
    0.13812E+04         0.24783E+04         0.00000E+00
    0.00000E+00         0.00000E+00         0.80358E+02
 
   -0.18380E+04         0.14896E+04         0.00000E+00
    0.14896E+04         0.23487E+04         0.00000E+00
    0.00000E+00         0.00000E+00         0.15322E+03
 
   -0.14449E+04         0.15954E+04         0.00000E+00
    0.15954E+04         0.22019E+04         0.00000E+00
    0.00000E+00         0.00000E+00         0.22710E+03
 
   -0.10304E+04         0.16976E+04         0.00000E+00
    0.16976E+04         0.20401E+04         0.00000E+00
    0.00000E+00         0.00000E+00         0.30289E+03
 
   -0.59394E+03         0.17950E+04         0.00000E+00
    0.17950E+04         0.18650E+04         0.00000E+00
    0.00000E+00         0.00000E+00         0.38132E+03
 
   -0.13525E+03         0.18863E+04         0.00000E+00
    0.18863E+04         0.16783E+04         0.00000E+00
    0.00000E+00         0.00000E+00         0.46291E+03
 
    0.34554E+03         0.19700E+04         0.00000E+00
    0.19700E+04         0.14811E+04         0.00000E+00
    0.00000E+00         0.00000E+00         0.54798E+03
 
   -0.67112E+04         0.22952E+01         0.00000E+00
    0.22952E+01         0.17906E+03         0.00000E+00
    0.00000E+00         0.00000E+00        -0.19597E+04
 
   -0.64800E+04         0.15767E+02         0.00000E+00
    0.15767E+02         0.53502E+03         0.00000E+00
    0.00000E+00         0.00000E+00        -0.17835E+04
 
   -0.62469E+04         0.40426E+02         0.00000E+00
    0.40426E+02         0.88239E+03         0.00000E+00
    0.00000E+00         0.00000E+00        -0.16093E+04
 
   -0.60124E+04         0.75730E+02         0.00000E+00
    0.75730E+02         0.12131E+04         0.00000E+00
    0.00000E+00         0.00000E+00        -0.14398E+04
 
   -0.57767E+04         0.12102E+03         0.00000E+00
    0.12102E+03         0.15203E+04         0.00000E+00
    0.00000E+00         0.00000E+00        -0.12769E+04
 
   -0.55397E+04         0.17553E+03         0.00000E+00
    0.17553E+03         0.17985E+04         0.00000E+00
    0.00000E+00         0.00000E+00        -0.11224E+04
 
   -0.53008E+04         0.23845E+03         0.00000E+00
    0.23845E+03         0.20435E+04         0.00000E+00
    0.00000E+00         0.00000E+00        -0.97719E+03
 
   -0.50593E+04         0.30891E+03         0.00000E+00
    0.30891E+03         0.22527E+04         0.00000E+00
    0.00000E+00         0.00000E+00        -0.84198E+03
 
   -0.48139E+04         0.38605E+03         0.00000E+00
    0.38605E+03         0.24245E+04         0.00000E+00
    0.00000E+00         0.00000E+00        -0.71683E+03
 
   -0.45634E+04         0.46898E+03         0.00000E+00
    0.46898E+03         0.25585E+04         0.00000E+00
    0.00000E+00         0.00000E+00        -0.60146E+03
 
   -0.43061E+04         0.55683E+03         0.00000E+00
    0.55683E+03         0.26552E+04         0.00000E+00
    0.00000E+00         0.00000E+00        -0.49528E+03
 
   -0.40406E+04         0.64876E+03         0.00000E+00
    0.64876E+03         0.27158E+04         0.00000E+00
    0.00000E+00         0.00000E+00        -0.39742E+03
 
   -0.37650E+04         0.74393E+03         0.00000E+00
    0.74393E+03         0.27421E+04         0.00000E+00
    0.00000E+00         0.00000E+00        -0.30686E+03
 
   -0.34777E+04         0.84154E+03         0.00000E+00
    0.84154E+03         0.27363E+04         0.00000E+00
    0.00000E+00         0.00000E+00        -0.22244E+03
 
   -0.31771E+04         0.94080E+03         0.00000E+00
    0.94080E+03         0.27006E+04         0.00000E+00
    0.00000E+00         0.00000E+00        -0.14293E+03
 
   -0.28615E+04         0.10409E+04         0.00000E+00
    0.10409E+04         0.26379E+04         0.00000E+00
    0.00000E+00         0.00000E+00        -0.67087E+02
 
   -0.25295E+04         0.11411E+04         0.00000E+00
    0.11411E+04         0.25507E+04         0.00000E+00
    0.00000E+00         0.00000E+00         0.63353E+01
 
   -0.21798E+04         0.12406E+04         0.00000E+00
    0.12406E+04         0.24416E+04         0.00000E+00
    0.00000E+00         0.00000E+00         0.78529E+02
 
   -0.18111E+04         0.13385E+04         0.00000E+00
    0.13385E+04         0.23132E+04         0.00000E+00
    0.00000E+00         0.00000E+00         0.15061E+03
 
   -0.14226E+04         0.14340E+04         0.00000E+00
    0.14340E+04         0.21679E+04         0.00000E+00
    0.00000E+00         0.00000E+00         0.22358E+03
 
   -0.10134E+04         0.15260E+04         0.00000E+00
    0.15260E+04         0.20078E+04         0.00000E+00
    0.00000E+00         0.00000E+00         0.29833E+03
 
   -0.58316E+03         0.16134E+04         0.00000E+00
    0.16134E+04         0.18350E+04         0.00000E+00
    0.00000E+00         0.00000E+00         0.37555E+03
 
   -0.13174E+03         0.16950E+04         0.00000E+00
    0.16950E+04         0.16510E+04         0.00000E+00
    0.00000E+00         0.00000E+00         0.45577E+03
 
    0.34058E+03         0.17695E+04         0.00000E+00
    0.17695E+04         0.14571E+04         0.00000E+00
    0.00000E+00         0.00000E+00         0.53929E+03
 
   -0.67066E+04         0.20361E+01         0.00000E+00
    0.20361E+01         0.17650E+03         0.00000E+00
    0.00000E+00         0.00000E+00        -0.19590E+04
 
   -0.64698E+04         0.13842E+02         0.00000E+00
    0.13842E+02         0.52743E+03         0.00000E+00
    0.00000E+00         0.00000E+00        -0.17827E+04
 
   -0.62315E+04         0.35443E+02         0.00000E+00
    0.35443E+02         0.87002E+03         0.00000E+00
    0.00000E+00         0.00000E+00        -0.16084E+04
 
   -0.59923E+04         0.66426E+02         0.00000E+00
    0.66426E+02         0.11963E+04         0.00000E+00
    0.00000E+00         0.00000E+00        -0.14388E+04
 
   -0.57524E+04         0.10625E+03         0.00000E+00
    0.10625E+03         0.14995E+04         0.00000E+00
    0.00000E+00         0.00000E+00        -0.12759E+04
 
   -0.55117E+04         0.15430E+03         0.00000E+00
    0.15430E+03         0.17741E+04         0.00000E+00
    0.00000E+00         0.00000E+00        -0.11213E+04
 
   -0.52698E+04         0.20987E+03         0.00000E+00
    0.20987E+03         0.20160E+04         0.00000E+00
    0.00000E+00         0.00000E+00        -0.97613E+03
 
   -0.50257E+04         0.27223E+03         0.00000E+00
    0.27223E+03         0.22226E+04         0.00000E+00
    0.00000E+00         0.00000E+00        -0.84095E+03
 
   -0.47785E+04         0.34062E+03         0.00000E+00
    0.34062E+03         0.23922E+04         0.00000E+00
    0.00000E+00         0.00000E+00        -0.71587E+03
 
   -0.45266E+04         0.41427E+03         0.00000E+00
    0.41427E+03         0.25246E+04         0.00000E+00
    0.00000E+00         0.00000E+00        -0.60061E+03
 
   -0.42686E+04         0.49241E+03         0.00000E+00
    0.49241E+03         0.26200E+04         0.00000E+00
    0.00000E+00         0.00000E+00        -0.49458E+03
 
   -0.40029E+04         0.57429E+03         0.00000E+00
    0.57429E+03         0.26798E+04         0.00000E+00
    0.00000E+00         0.00000E+00        -0.39692E+03
 
   -0.37276E+04         0.65917E+03         0.00000E+00
    0.65917E+03         0.27056E+04         0.00000E+00
    0.00000E+00         0.00000E+00        -0.30660E+03
 
   -0.34412E+04         0.74630E+03         0.00000E+00
    0.74630E+03         0.26995E+04         0.00000E+00
    0.00000E+00         0.00000E+00        -0.22249E+03
 
   -0.31419E+04         0.83496E+03         0.00000E+00
    0.83496E+03         0.26640E+04         0.00000E+00
    0.00000E+00         0.00000E+00        -0.14335E+03
 
   -0.28281E+04         0.92444E+03         0.00000E+00
    0.92444E+03         0.26016E+04         0.00000E+00
    0.00000E+00         0.00000E+00        -0.67953E+02
 
   -0.24985E+04         0.10140E+04         0.00000E+00
    0.10140E+04         0.25149E+04         0.00000E+00
    0.00000E+00         0.00000E+00         0.49391E+01
 
   -0.21517E+04         0.11029E+04         0.00000E+00
    0.11029E+04         0.24067E+04         0.00000E+00
    0.00000E+00         0.00000E+00         0.76506E+02
 
   -0.17865E+04         0.11903E+04         0.00000E+00
    0.11903E+04         0.22794E+04         0.00000E+00
    0.00000E+00         0.00000E+00         0.14785E+03
 
   -0.14021E+04         0.12754E+04         0.00000E+00
    0.12754E+04         0.21354E+04         0.00000E+00
    0.00000E+00         0.00000E+00         0.21997E+03
 
   -0.99791E+03         0.13572E+04         0.00000E+00
    0.13572E+04         0.19770E+04         0.00000E+00
    0.00000E+00         0.00000E+00         0.29373E+03
 
   -0.57347E+03         0.14348E+04         0.00000E+00
    0.14348E+04         0.18062E+04         0.00000E+00
    0.00000E+00         0.00000E+00         0.36983E+03
 
   -0.12884E+03         0.15071E+04         0.00000E+00
    0.15071E+04         0.16247E+04         0.00000E+00
    0.00000E+00         0.00000E+00         0.44877E+03
 
    0.33561E+03         0.15727E+04         0.00000E+00
    0.15727E+04         0.14339E+04         0.00000E+00
    0.00000E+00         0.00000E+00         0.53085E+03
 
   -0.67024E+04         0.18093E+01         0.00000E+00
    0.18093E+01         0.17425E+03         0.00000E+00
    0.00000E+00         0.00000E+00        -0.19585E+04
 
   -0.64609E+04         0.12078E+02         0.00000E+00
    0.12078E+02         0.52076E+03         0.00000E+00
    0.00000E+00         0.00000E+00        -0.17820E+04
 
   -0.62181E+04         0.30818E+02         0.00000E+00
    0.30818E+02         0.85911E+03         0.00000E+00
    0.00000E+00         0.00000E+00        -0.16077E+04
 
   -0.59747E+04         0.57715E+02         0.00000E+00
    0.57715E+02         0.11814E+04         0.00000E+00
    0.00000E+00         0.00000E+00        -0.14380E+04
 
   -0.57311E+04         0.92343E+02         0.00000E+00
    0.92343E+02         0.14810E+04         0.00000E+00
    0.00000E+00         0.00000E+00        -0.12750E+04
 
   -0.54871E+04         0.13419E+03         0.00000E+00
    0.13419E+03         0.17523E+04         0.00000E+00
    0.00000E+00         0.00000E+00        -0.11205E+04
 
   -0.52424E+04         0.18267E+03         0.00000E+00
    0.18267E+03         0.19914E+04         0.00000E+00
    0.00000E+00         0.00000E+00        -0.97531E+03
 
   -0.49961E+04         0.23716E+03         0.00000E+00
    0.23716E+03         0.21955E+04         0.00000E+00
    0.00000E+00         0.00000E+00        -0.84017E+03
 
   -0.47471E+04         0.29702E+03         0.00000E+00
    0.29702E+03         0.23631E+04         0.00000E+00
    0.00000E+00         0.00000E+00        -0.71517E+03
 
   -0.44939E+04         0.36158E+03         0.00000E+00
    0.36158E+03         0.24939E+04         0.00000E+00
    0.00000E+00         0.00000E+00        -0.60002E+03
 
   -0.42352E+04         0.43016E+03         0.00000E+00
    0.43016E+03         0.25881E+04         0.00000E+00
    0.00000E+00         0.00000E+00        -0.49413E+03
 
   -0.39691E+04         0.50211E+03         0.00000E+00
    0.50211E+03         0.26470E+04         0.00000E+00
    0.00000E+00         0.00000E+00        -0.39666E+03
 
   -0.36941E+04         0.57676E+03         0.00000E+00
    0.57676E+03         0.26722E+04         0.00000E+00
    0.00000E+00         0.00000E+00        -0.30658E+03
 
   -0.34083E+04         0.65346E+03         0.00000E+00
    0.65346E+03         0.26658E+04         0.00000E+00
    0.00000E+00         0.00000E+00        -0.22275E+03
 
   -0.31101E+04         0.73155E+03         0.00000E+00
    0.73155E+03         0.26303E+04         0.00000E+00
    0.00000E+00         0.00000E+00        -0.14396E+03
 
   -0.27980E+04         0.81038E+03         0.00000E+00
    0.81038E+03         0.25681E+04         0.00000E+00
    0.00000E+00         0.00000E+00        -0.68971E+02
 
   -0.24704E+04         0.88928E+03         0.00000E+00
    0.88928E+03         0.24819E+04         0.00000E+00
    0.00000E+00         0.00000E+00         0.34300E+01
 
   -0.21262E+04         0.96756E+03         0.00000E+00
    0.96756E+03         0.23743E+04         0.00000E+00
    0.00000E+00         0.00000E+00         0.74418E+02
 
   -0.17643E+04         0.10445E+04         0.00000E+00
    0.10445E+04         0.22479E+04         0.00000E+00
    0.00000E+00         0.00000E+00         0.14509E+03
 
   -0.13837E+04         0.11193E+04         0.00000E+00
    0.11193E+04         0.21051E+04         0.00000E+00
    0.00000E+00         0.00000E+00         0.21642E+03
 
   -0.98400E+03         0.11911E+04         0.00000E+00
    0.11911E+04         0.19483E+04         0.00000E+00
    0.00000E+00         0.00000E+00         0.28928E+03
 
   -0.56488E+03         0.12591E+04         0.00000E+00
    0.12591E+04         0.17793E+04         0.00000E+00
    0.00000E+00         0.00000E+00         0.36434E+03
 
   -0.12645E+03         0.13222E+04         0.00000E+00
    0.13222E+04         0.16001E+04         0.00000E+00
    0.00000E+00         0.00000E+00         0.44210E+03
 
    0.33079E+03         0.13793E+04         0.00000E+00
    0.13793E+04         0.14121E+04         0.00000E+00
    0.00000E+00         0.00000E+00         0.52287E+03
 
   -0.66988E+04         0.15954E+01         0.00000E+00
    0.15954E+01         0.17232E+03         0.00000E+00
    0.00000E+00         0.00000E+00        -0.19579E+04
 
   -0.64532E+04         0.10415E+02         0.00000E+00
    0.10415E+02         0.51500E+03         0.00000E+00
    0.00000E+00         0.00000E+00        -0.17815E+04
 
   -0.62065E+04         0.26440E+02         0.00000E+00
    0.26440E+02         0.84964E+03         0.00000E+00
    0.00000E+00         0.00000E+00        -0.16071E+04
 
   -0.59596E+04         0.49439E+02         0.00000E+00
    0.49439E+02         0.11685E+04         0.00000E+00
    0.00000E+00         0.00000E+00        -0.14373E+04
 
   -0.57127E+04         0.79080E+02         0.00000E+00
    0.79080E+02         0.14648E+04         0.00000E+00
    0.00000E+00         0.00000E+00        -0.12744E+04
 
   -0.54658E+04         0.11494E+03         0.00000E+00
    0.11494E+03         0.17332E+04         0.00000E+00
    0.00000E+00         0.00000E+00        -0.11198E+04
 
   -0.52186E+04         0.15655E+03         0.00000E+00
    0.15655E+03         0.19697E+04         0.00000E+00
    0.00000E+00         0.00000E+00        -0.97468E+03
 
   -0.49703E+04         0.20339E+03         0.00000E+00
    0.20339E+03         0.21716E+04         0.00000E+00
    0.00000E+00         0.00000E+00        -0.83960E+03
 
   -0.47196E+04         0.25490E+03         0.00000E+00
    0.25490E+03         0.23374E+04         0.00000E+00
    0.00000E+00         0.00000E+00        -0.71467E+03
 
   -0.44653E+04         0.31052E+03         0.00000E+00
    0.31052E+03         0.24666E+04         0.00000E+00
    0.00000E+00         0.00000E+00        -0.59963E+03
 
   -0.42058E+04         0.36969E+03         0.00000E+00
    0.36969E+03         0.25596E+04         0.00000E+00
    0.00000E+00         0.00000E+00        -0.49387E+03
 
   -0.39395E+04         0.43181E+03         0.00000E+00
    0.43181E+03         0.26176E+04         0.00000E+00
    0.00000E+00         0.00000E+00        -0.39657E+03
 
   -0.36645E+04         0.49632E+03         0.00000E+00
    0.49632E+03         0.26422E+04         0.00000E+00
    0.00000E+00         0.00000E+00        -0.30670E+03
 
   -0.33793E+04         0.56264E+03         0.00000E+00
    0.56264E+03         0.26355E+04         0.00000E+00
    0.00000E+00         0.00000E+00        -0.22313E+03
 
   -0.30820E+04         0.63019E+03         0.00000E+00
    0.63019E+03         0.25998E+04         0.00000E+00
    0.00000E+00         0.00000E+00        -0.14466E+03
 
   -0.27713E+04         0.69840E+03         0.00000E+00
    0.69840E+03         0.25378E+04         0.00000E+00
    0.00000E+00         0.00000E+00        -0.70047E+02
 
   -0.24455E+04         0.76667E+03         0.00000E+00
    0.76667E+03         0.24519E+04         0.00000E+00
    0.00000E+00         0.00000E+00         0.19087E+01
 
   -0.21037E+04         0.83437E+03         0.00000E+00
    0.83437E+03         0.23449E+04         0.00000E+00
    0.00000E+00         0.00000E+00         0.72373E+02
 
   -0.17445E+04         0.90087E+03         0.00000E+00
    0.90087E+03         0.22193E+04         0.00000E+00
    0.00000E+00         0.00000E+00         0.14243E+03
 
   -0.13674E+04         0.96548E+03         0.00000E+00
    0.96548E+03         0.20776E+04         0.00000E+00
    0.00000E+00         0.00000E+00         0.21306E+03
 
   -0.97173E+03         0.10274E+04         0.00000E+00
    0.10274E+04         0.19221E+04         0.00000E+00
    0.00000E+00         0.00000E+00         0.28510E+03
 
   -0.55738E+03         0.10860E+04         0.00000E+00
    0.10860E+04         0.17548E+04         0.00000E+00
    0.00000E+00         0.00000E+00         0.35923E+03
 
   -0.12451E+03         0.11401E+04         0.00000E+00
    0.11401E+04         0.15776E+04         0.00000E+00
    0.00000E+00         0.00000E+00         0.43594E+03
 
    0.32628E+03         0.11890E+04         0.00000E+00
    0.11890E+04         0.13921E+04         0.00000E+00
    0.00000E+00         0.00000E+00         0.51553E+03
 
   -0.66957E+04         0.13808E+01         0.00000E+00
    0.13808E+01         0.17068E+03         0.00000E+00
    0.00000E+00         0.00000E+00        -0.19575E+04
 
   -0.64467E+04         0.88055E+01         0.00000E+00
    0.88055E+01         0.51011E+03         0.00000E+00
    0.00000E+00         0.00000E+00        -0.17810E+04
 
   -0.61968E+04         0.22225E+02         0.00000E+00
    0.22225E+02         0.84158E+03         0.00000E+00
    0.00000E+00         0.00000E+00        -0.16066E+04
 
   -0.59467E+04         0.41475E+02         0.00000E+00
    0.41475E+02         0.11574E+04         0.00000E+00
    0.00000E+00         0.00000E+00        -0.14368E+04
 
   -0.56970E+04         0.66298E+02         0.00000E+00
    0.66298E+02         0.14509E+04         0.00000E+00
    0.00000E+00         0.00000E+00        -0.12738E+04
 
   -0.54477E+04         0.96363E+02         0.00000E+00
    0.96363E+02         0.17168E+04         0.00000E+00
    0.00000E+00         0.00000E+00        -0.11193E+04
 
   -0.51984E+04         0.13128E+03         0.00000E+00
    0.13128E+03         0.19510E+04         0.00000E+00
    0.00000E+00         0.00000E+00        -0.97420E+03
 
   -0.49482E+04         0.17063E+03         0.00000E+00
    0.17063E+03         0.21510E+04         0.00000E+00
    0.00000E+00         0.00000E+00        -0.83917E+03
 
   -0.46961E+04         0.21396E+03         0.00000E+00
    0.21396E+03         0.23151E+04         0.00000E+00
    0.00000E+00         0.00000E+00        -0.71432E+03
 
   -0.44408E+04         0.26079E+03         0.00000E+00
    0.26079E+03         0.24429E+04         0.00000E+00
    0.00000E+00         0.00000E+00        -0.59937E+03
 
   -0.41806E+04         0.31065E+03         0.00000E+00
    0.31065E+03         0.25348E+04         0.00000E+00
    0.00000E+00         0.00000E+00        -0.49374E+03
 
   -0.39139E+04         0.36304E+03         0.00000E+00
    0.36304E+03         0.25919E+04         0.00000E+00
    0.00000E+00         0.00000E+00        -0.39660E+03
 
   -0.36390E+04         0.41748E+03         0.00000E+00
    0.41748E+03         0.26159E+04         0.00000E+00
    0.00000E+00         0.00000E+00        -0.30692E+03
 
   -0.33542E+04         0.47348E+03         0.00000E+00
    0.47348E+03         0.26089E+04         0.00000E+00
    0.00000E+00         0.00000E+00        -0.22358E+03
 
   -0.30577E+04         0.53054E+03         0.00000E+00
    0.53054E+03         0.25731E+04         0.00000E+00
    0.00000E+00         0.00000E+00        -0.14538E+03
 
   -0.27481E+04         0.58816E+03         0.00000E+00
    0.58816E+03         0.25111E+04         0.00000E+00
    0.00000E+00         0.00000E+00        -0.71103E+02
 
   -0.24240E+04         0.64583E+03         0.00000E+00
    0.64583E+03         0.24255E+04         0.00000E+00
    0.00000E+00         0.00000E+00         0.45939E+00
 
   -0.20841E+04         0.70301E+03         0.00000E+00
    0.70301E+03         0.23190E+04         0.00000E+00
    0.00000E+00         0.00000E+00         0.70462E+02
 
   -0.17274E+04         0.75914E+03         0.00000E+00
    0.75914E+03         0.21940E+04         0.00000E+00
    0.00000E+00         0.00000E+00         0.13998E+03
 
   -0.13533E+04         0.81362E+03         0.00000E+00
    0.81362E+03         0.20532E+04         0.00000E+00
    0.00000E+00         0.00000E+00         0.20999E+03
 
   -0.96115E+03         0.86582E+03         0.00000E+00
    0.86582E+03         0.18988E+04         0.00000E+00
    0.00000E+00         0.00000E+00         0.28131E+03
 
   -0.55096E+03         0.91503E+03         0.00000E+00
    0.91503E+03         0.17330E+04         0.00000E+00
    0.00000E+00         0.00000E+00         0.35462E+03
 
   -0.12296E+03         0.96049E+03         0.00000E+00
    0.96049E+03         0.15577E+04         0.00000E+00
    0.00000E+00         0.00000E+00         0.43042E+03
 
    0.32220E+03         0.10014E+04         0.00000E+00
    0.10014E+04         0.13744E+04         0.00000E+00
    0.00000E+00         0.00000E+00         0.50897E+03
 
   -0.66930E+04         0.11572E+01         0.00000E+00
    0.11572E+01         0.16934E+03         0.00000E+00
    0.00000E+00         0.00000E+00        -0.19571E+04
 
   -0.64412E+04         0.72175E+01         0.00000E+00
    0.72175E+01         0.50607E+03         0.00000E+00
    0.00000E+00         0.00000E+00        -0.17805E+04
 
   -0.61887E+04         0.18112E+02         0.00000E+00
    0.18112E+02         0.83490E+03         0.00000E+00
    0.00000E+00         0.00000E+00        -0.16061E+04
 
   -0.59361E+04         0.33726E+02         0.00000E+00
    0.33726E+02         0.11482E+04         0.00000E+00
    0.00000E+00         0.00000E+00        -0.14364E+04
 
   -0.56841E+04         0.53867E+02         0.00000E+00
    0.53867E+02         0.14393E+04         0.00000E+00
    0.00000E+00         0.00000E+00        -0.12734E+04
 
   -0.54327E+04         0.78279E+02         0.00000E+00
    0.78279E+02         0.17031E+04         0.00000E+00
    0.00000E+00         0.00000E+00        -0.11189E+04
 
   -0.51815E+04         0.10666E+03         0.00000E+00
    0.10666E+03         0.19354E+04         0.00000E+00
    0.00000E+00         0.00000E+00        -0.97384E+03
 
   -0.49298E+04         0.13867E+03         0.00000E+00
    0.13867E+03         0.21336E+04         0.00000E+00
    0.00000E+00         0.00000E+00        -0.83886E+03
 
   -0.46766E+04         0.17394E+03         0.00000E+00
    0.17394E+03         0.22963E+04         0.00000E+00
    0.00000E+00         0.00000E+00        -0.71408E+03
 
   -0.44203E+04         0.21209E+03         0.00000E+00
    0.21209E+03         0.24229E+04         0.00000E+00
    0.00000E+00         0.00000E+00        -0.59922E+03
 
   -0.41595E+04         0.25274E+03         0.00000E+00
    0.25274E+03         0.25139E+04         0.00000E+00
    0.00000E+00         0.00000E+00        -0.49370E+03
 
   -0.38925E+04         0.29549E+03         0.00000E+00
    0.29549E+03         0.25703E+04         0.00000E+00
    0.00000E+00         0.00000E+00        -0.39668E+03
 
   -0.36176E+04         0.33993E+03         0.00000E+00
    0.33993E+03         0.25937E+04         0.00000E+00
    0.00000E+00         0.00000E+00        -0.30717E+03
 
   -0.33331E+04         0.38566E+03         0.00000E+00
    0.38566E+03         0.25863E+04         0.00000E+00
    0.00000E+00         0.00000E+00        -0.22403E+03
 
   -0.30373E+04         0.43227E+03         0.00000E+00
    0.43227E+03         0.25504E+04         0.00000E+00
    0.00000E+00         0.00000E+00        -0.14607E+03
 
   -0.27287E+04         0.47935E+03         0.00000E+00
    0.47935E+03         0.24884E+04         0.00000E+00
    0.00000E+00         0.00000E+00        -0.72076E+02
 
   -0.24058E+04         0.52646E+03         0.00000E+00
    0.52646E+03         0.24030E+04         0.00000E+00
    0.00000E+00         0.00000E+00        -0.84838E+00
 
   -0.20676E+04         0.57316E+03         0.00000E+00
    0.57316E+03         0.22968E+04         0.00000E+00
    0.00000E+00         0.00000E+00         0.68761E+02
 
   -0.17130E+04         0.61898E+03         0.00000E+00
    0.61898E+03         0.21724E+04         0.00000E+00
    0.00000E+00         0.00000E+00         0.13782E+03
 
   -0.13414E+04         0.66343E+03         0.00000E+00
    0.66343E+03         0.20324E+04         0.00000E+00
    0.00000E+00         0.00000E+00         0.20730E+03
 
   -0.95227E+03         0.70597E+03         0.00000E+00
    0.70597E+03         0.18790E+04         0.00000E+00
    0.00000E+00         0.00000E+00         0.27801E+03
 
   -0.54562E+03         0.74601E+03         0.00000E+00
    0.74601E+03         0.17144E+04         0.00000E+00
    0.00000E+00         0.00000E+00         0.35063E+03
 
   -0.12174E+03         0.78294E+03         0.00000E+00
    0.78294E+03         0.15406E+04         0.00000E+00
    0.00000E+00         0.00000E+00         0.42565E+03
 
    0.31865E+03         0.81606E+03         0.00000E+00
    0.81606E+03         0.13591E+04         0.00000E+00
    0.00000E+00         0.00000E+00         0.50333E+03
 
   -0.66908E+04         0.92033E+00         0.00000E+00
    0.92033E+00         0.16827E+03         0.00000E+00
    0.00000E+00         0.00000E+00        -0.19568E+04
 
   -0.64369E+04         0.56307E+01         0.00000E+00
    0.56307E+01         0.50286E+03         0.00000E+00
    0.00000E+00         0.00000E+00        -0.17802E+04
 
   -0.61822E+04         0.14056E+02         0.00000E+00
    0.14056E+02         0.82958E+03         0.00000E+00
    0.00000E+00         0.00000E+00        -0.16058E+04
 
   -0.59277E+04         0.26120E+02         0.00000E+00
    0.26120E+02         0.11408E+04         0.00000E+00
    0.00000E+00         0.00000E+00        -0.14360E+04
 
   -0.56738E+04         0.41684E+02         0.00000E+00
    0.41684E+02         0.14301E+04         0.00000E+00
    0.00000E+00         0.00000E+00        -0.12731E+04
 
   -0.54207E+04         0.60558E+02         0.00000E+00
    0.60558E+02         0.16921E+04         0.00000E+00
    0.00000E+00         0.00000E+00        -0.11186E+04
 
   -0.51681E+04         0.82513E+02         0.00000E+00
    0.82513E+02         0.19229E+04         0.00000E+00
    0.00000E+00         0.00000E+00        -0.97357E+03
 
   -0.49152E+04         0.10729E+03         0.00000E+00
    0.10729E+03         0.21197E+04         0.00000E+00
    0.00000E+00         0.00000E+00        -0.83864E+03
 
   -0.46609E+04         0.13462E+03         0.00000E+00
    0.13462E+03         0.22812E+04         0.00000E+00
    0.00000E+00         0.00000E+00        -0.71391E+03
 
   -0.44039E+04         0.16419E+03         0.00000E+00
    0.16419E+03         0.24068E+04         0.00000E+00
    0.00000E+00         0.00000E+00        -0.59913E+03
 
   -0.41426E+04         0.19572E+03         0.00000E+00
    0.19572E+03         0.24969E+04         0.00000E+00
    0.00000E+00         0.00000E+00        -0.49370E+03
 
   -0.38754E+04         0.22889E+03         0.00000E+00
    0.22889E+03         0.25527E+04         0.00000E+00
    0.00000E+00         0.00000E+00        -0.39679E+03
 
   -0.36004E+04         0.26339E+03         0.00000E+00
    0.26339E+03         0.25757E+04         0.00000E+00
    0.00000E+00         0.00000E+00        -0.30742E+03
 
   -0.33161E+04         0.29890E+03         0.00000E+00
    0.29890E+03         0.25680E+04         0.00000E+00
    0.00000E+00         0.00000E+00        -0.22444E+03
 
   -0.30208E+04         0.33511E+03         0.00000E+00
    0.33511E+03         0.25319E+04         0.00000E+00
    0.00000E+00         0.00000E+00        -0.14667E+03
 
   -0.27130E+04         0.37167E+03         0.00000E+00
    0.37167E+03         0.24699E+04         0.00000E+00
    0.00000E+00         0.00000E+00        -0.72912E+02
 
   -0.23912E+04         0.40827E+03         0.00000E+00
    0.40827E+03         0.23847E+04         0.00000E+00
    0.00000E+00         0.00000E+00        -0.19588E+01
 
   -0.20543E+04         0.44453E+03         0.00000E+00
    0.44453E+03         0.22788E+04         0.00000E+00
    0.00000E+00         0.00000E+00         0.67330E+02
 
   -0.17014E+04         0.48011E+03         0.00000E+00
    0.48011E+03         0.21548E+04         0.00000E+00
    0.00000E+00         0.00000E+00         0.13602E+03
 
   -0.13318E+04         0.51459E+03         0.00000E+00
    0.51459E+03         0.20154E+04         0.00000E+00
    0.00000E+00         0.00000E+00         0.20506E+03
 
   -0.94515E+03         0.54757E+03         0.00000E+00
    0.54757E+03         0.18628E+04         0.00000E+00
    0.00000E+00         0.00000E+00         0.27528E+03
 
   -0.54136E+03         0.57858E+03         0.00000E+00
    0.57858E+03         0.16992E+04         0.00000E+00
    0.00000E+00         0.00000E+00         0.34734E+03
 
   -0.12081E+03         0.60713E+03         0.00000E+00
    0.60713E+03         0.15266E+04         0.00000E+00
    0.00000E+00         0.00000E+00         0.42172E+03
 
    0.31572E+03         0.63269E+03         0.00000E+00
    0.63269E+03         0.13466E+04         0.00000E+00
    0.00000E+00         0.00000E+00         0.49870E+03
 
   -0.66891E+04         0.66960E+00         0.00000E+00
    0.66960E+00         0.16747E+03         0.00000E+00
    0.00000E+00         0.00000E+00        -0.19565E+04
 
   -0.64336E+04         0.40349E+01         0.00000E+00
    0.40349E+01         0.50047E+03         0.00000E+00
    0.00000E+00         0.00000E+00        -0.17800E+04
 
   -0.61774E+04         0.10029E+02         0.00000E+00
    0.10029E+02         0.82561E+03         0.00000E+00
    0.00000E+00         0.00000E+00        -0.16055E+04
 
   -0.59214E+04         0.18606E+02         0.00000E+00
    0.18606E+02         0.11354E+04         0.00000E+00
    0.00000E+00         0.00000E+00        -0.14358E+04
 
   -0.56661E+04         0.29670E+02         0.00000E+00
    0.29670E+02         0.14232E+04         0.00000E+00
    0.00000E+00         0.00000E+00        -0.12729E+04
 
   -0.54118E+04         0.43092E+02         0.00000E+00
    0.43092E+02         0.16839E+04         0.00000E+00
    0.00000E+00         0.00000E+00        -0.11184E+04
 
   -0.51581E+04         0.58712E+02         0.00000E+00
    0.58712E+02         0.19134E+04         0.00000E+00
    0.00000E+00         0.00000E+00        -0.97339E+03
 
   -0.49042E+04         0.76349E+02         0.00000E+00
    0.76349E+02         0.21092E+04         0.00000E+00
    0.00000E+00         0.00000E+00        -0.83849E+03
 
   -0.46492E+04         0.95808E+02         0.00000E+00
    0.95808E+02         0.22698E+04         0.00000E+00
    0.00000E+00         0.00000E+00        -0.71381E+03
 
   -0.43916E+04         0.11688E+03         0.00000E+00
    0.11688E+03         0.23947E+04         0.00000E+00
    0.00000E+00         0.00000E+00        -0.59908E+03
 
   -0.41299E+04         0.13935E+03         0.00000E+00
    0.13935E+03         0.24842E+04         0.00000E+00
    0.00000E+00         0.00000E+00        -0.49372E+03
 
   -0.38624E+04         0.16300E+03         0.00000E+00
    0.16300E+03         0.25394E+04         0.00000E+00
    0.00000E+00         0.00000E+00        -0.39690E+03
 
   -0.35875E+04         0.18761E+03         0.00000E+00
    0.18761E+03         0.25621E+04         0.00000E+00
    0.00000E+00         0.00000E+00        -0.30763E+03
 
   -0.33034E+04         0.21295E+03         0.00000E+00
    0.21295E+03         0.25541E+04         0.00000E+00
    0.00000E+00         0.00000E+00        -0.22478E+03
 
   -0.30084E+04         0.23878E+03         0.00000E+00
    0.23878E+03         0.25179E+04         0.00000E+00
    0.00000E+00         0.00000E+00        -0.14716E+03
 
   -0.27011E+04         0.26487E+03         0.00000E+00
    0.26487E+03         0.24559E+04         0.00000E+00
    0.00000E+00         0.00000E+00        -0.73574E+02
 
   -0.23802E+04         0.29098E+03         0.00000E+00
    0.29098E+03         0.23707E+04         0.00000E+00
    0.00000E+00         0.00000E+00        -0.28284E+01
 
   -0.20443E+04         0.31686E+03         0.00000E+00
    0.31686E+03         0.22650E+04         0.00000E+00
    0.00000E+00         0.00000E+00         0.66217E+02
 
   -0.16927E+04         0.34223E+03         0.00000E+00
    0.34223E+03         0.21414E+04         0.00000E+00
    0.00000E+00         0.00000E+00         0.13462E+03
 
   -0.13246E+04         0.36681E+03         0.00000E+00
    0.36681E+03         0.20024E+04         0.00000E+00
    0.00000E+00         0.00000E+00         0.20334E+03
 
   -0.93978E+03         0.39030E+03         0.00000E+00
    0.39030E+03         0.18504E+04         0.00000E+00
    0.00000E+00         0.00000E+00         0.27318E+03
 
   -0.53816E+03         0.41238E+03         0.00000E+00
    0.41238E+03         0.16876E+04         0.00000E+00
    0.00000E+00         0.00000E+00         0.34482E+03
 
   -0.12014E+03         0.43269E+03         0.00000E+00
    0.43269E+03         0.15159E+04         0.00000E+00
    0.00000E+00         0.00000E+00         0.41872E+03
 
    0.31346E+03         0.45083E+03         0.00000E+00
    0.45083E+03         0.13371E+04         0.00000E+00
    0.00000E+00         0.00000E+00         0.49516E+03
 
   -0.66880E+04         0.40703E+00         0.00000E+00
    0.40703E+00         0.16695E+03         0.00000E+00
    0.00000E+00         0.00000E+00        -0.19563E+04
 
   -0.64315E+04         0.24272E+01         0.00000E+00
    0.24272E+01         0.49888E+03         0.00000E+00
    0.00000E+00         0.00000E+00        -0.17798E+04
 
   -0.61742E+04         0.60150E+01         0.00000E+00
    0.60150E+01         0.82297E+03         0.00000E+00
    0.00000E+00         0.00000E+00        -0.16054E+04
 
   -0.59172E+04         0.11145E+02         0.00000E+00
    0.11145E+02         0.11317E+04         0.00000E+00
    0.00000E+00         0.00000E+00        -0.14356E+04
 
   -0.56610E+04         0.17763E+02         0.00000E+00
    0.17763E+02         0.14186E+04         0.00000E+00
    0.00000E+00         0.00000E+00        -0.12727E+04
 
   -0.54058E+04         0.25792E+02         0.00000E+00
    0.25792E+02         0.16784E+04         0.00000E+00
    0.00000E+00         0.00000E+00        -0.11182E+04
 
   -0.51514E+04         0.35140E+02         0.00000E+00
    0.35140E+02         0.19071E+04         0.00000E+00
    0.00000E+00         0.00000E+00        -0.97327E+03
 
   -0.48969E+04         0.45698E+02         0.00000E+00
    0.45698E+02         0.21022E+04         0.00000E+00
    0.00000E+00         0.00000E+00        -0.83840E+03
 
   -0.46414E+04         0.57350E+02         0.00000E+00
    0.57350E+02         0.22622E+04         0.00000E+00
    0.00000E+00         0.00000E+00        -0.71375E+03
 
   -0.43834E+04         0.69972E+02         0.00000E+00
    0.69972E+02         0.23865E+04         0.00000E+00
    0.00000E+00         0.00000E+00        -0.59906E+03
 
   -0.41214E+04         0.83437E+02         0.00000E+00
    0.83437E+02         0.24756E+04         0.00000E+00
    0.00000E+00         0.00000E+00        -0.49374E+03
 
   -0.38538E+04         0.97611E+02         0.00000E+00
    0.97611E+02         0.25305E+04         0.00000E+00
    0.00000E+00         0.00000E+00        -0.39699E+03
 
   -0.35789E+04         0.11236E+03         0.00000E+00
    0.11236E+03         0.25529E+04         0.00000E+00
    0.00000E+00         0.00000E+00        -0.30778E+03
 
   -0.32948E+04         0.12755E+03         0.00000E+00
    0.12755E+03         0.25448E+04         0.00000E+00
    0.00000E+00         0.00000E+00        -0.22501E+03
 
   -0.30001E+04         0.14304E+03         0.00000E+00
    0.14304E+03         0.25085E+04         0.00000E+00
    0.00000E+00         0.00000E+00        -0.14750E+03
 
   -0.26932E+04         0.15868E+03         0.00000E+00
    0.15868E+03         0.24465E+04         0.00000E+00
    0.00000E+00         0.00000E+00        -0.74031E+02
 
   -0.23728E+04         0.17434E+03         0.00000E+00
    0.17434E+03         0.23614E+04         0.00000E+00
    0.00000E+00         0.00000E+00        -0.34254E+01
 
   -0.20376E+04         0.18985E+03         0.00000E+00
    0.18985E+03         0.22558E+04         0.00000E+00
    0.00000E+00         0.00000E+00         0.65456E+02
 
   -0.16868E+04         0.20505E+03         0.00000E+00
    0.20505E+03         0.21324E+04         0.00000E+00
    0.00000E+00         0.00000E+00         0.13367E+03
 
   -0.13198E+04         0.21978E+03         0.00000E+00
    0.21978E+03         0.19937E+04         0.00000E+00
    0.00000E+00         0.00000E+00         0.20217E+03
 
   -0.93620E+03         0.23386E+03         0.00000E+00
    0.23386E+03         0.18421E+04         0.00000E+00
    0.00000E+00         0.00000E+00         0.27176E+03
 
   -0.53603E+03         0.24707E+03         0.00000E+00
    0.24707E+03         0.16797E+04         0.00000E+00
    0.00000E+00         0.00000E+00         0.34311E+03
 
   -0.11971E+03         0.25922E+03         0.00000E+00
    0.25922E+03         0.15087E+04         0.00000E+00
    0.00000E+00         0.00000E+00         0.41669E+03
 
    0.31193E+03         0.27006E+03         0.00000E+00
    0.27006E+03         0.13306E+04         0.00000E+00
    0.00000E+00         0.00000E+00         0.49277E+03
 
   -0.66875E+04         0.13659E+00         0.00000E+00
    0.13659E+00         0.16668E+03         0.00000E+00
    0.00000E+00         0.00000E+00        -0.19562E+04
 
   -0.64304E+04         0.81022E+00         0.00000E+00
    0.81022E+00         0.49809E+03         0.00000E+00
    0.00000E+00         0.00000E+00        -0.17797E+04
 
   -0.61726E+04         0.20047E+01         0.00000E+00
    0.20047E+01         0.82165E+03         0.00000E+00
    0.00000E+00         0.00000E+00        -0.16053E+04
 
   -0.59151E+04         0.37121E+01         0.00000E+00
    0.37121E+01         0.11299E+04         0.00000E+00
    0.00000E+00         0.00000E+00        -0.14356E+04
 
   -0.56584E+04         0.59146E+01         0.00000E+00
    0.59146E+01         0.14163E+04         0.00000E+00
    0.00000E+00         0.00000E+00        -0.12726E+04
 
   -0.54029E+04         0.85873E+01         0.00000E+00
    0.85873E+01         0.16756E+04         0.00000E+00
    0.00000E+00         0.00000E+00        -0.11182E+04
 
   -0.51480E+04         0.11699E+02         0.00000E+00
    0.11699E+02         0.19040E+04         0.00000E+00
    0.00000E+00         0.00000E+00        -0.97321E+03
 
   -0.48933E+04         0.15214E+02         0.00000E+00
    0.15214E+02         0.20987E+04         0.00000E+00
    0.00000E+00         0.00000E+00        -0.83836E+03
 
   -0.46374E+04         0.19094E+02         0.00000E+00
    0.19094E+02         0.22584E+04         0.00000E+00
    0.00000E+00         0.00000E+00        -0.71372E+03
 
   -0.43793E+04         0.23298E+02         0.00000E+00
    0.23298E+02         0.23824E+04         0.00000E+00
    0.00000E+00         0.00000E+00        -0.59905E+03
 
   -0.41172E+04         0.27783E+02         0.00000E+00
    0.27783E+02         0.24713E+04         0.00000E+00
    0.00000E+00         0.00000E+00        -0.49376E+03
 
   -0.38495E+04         0.32505E+02         0.00000E+00
    0.32505E+02         0.25261E+04         0.00000E+00
    0.00000E+00         0.00000E+00        -0.39703E+03
 
   -0.35745E+04         0.37419E+02         0.00000E+00
    0.37419E+02         0.25483E+04         0.00000E+00
    0.00000E+00         0.00000E+00        -0.30786E+03
 
   -0.32906E+04         0.42480E+02         0.00000E+00
    0.42480E+02         0.25401E+04         0.00000E+00
    0.00000E+00         0.00000E+00        -0.22514E+03
 
   -0.29960E+04         0.47640E+02         0.00000E+00
    0.47640E+02         0.25037E+04         0.00000E+00
    0.00000E+00         0.00000E+00        -0.14767E+03
 
   -0.26893E+04         0.52853E+02         0.00000E+00
    0.52853E+02         0.24417E+04         0.00000E+00
    0.00000E+00         0.00000E+00        -0.74264E+02
 
   -0.23691E+04         0.58070E+02         0.00000E+00
    0.58070E+02         0.23566E+04         0.00000E+00
    0.00000E+00         0.00000E+00        -0.37291E+01
 
   -0.20343E+04         0.63238E+02         0.00000E+00
    0.63238E+02         0.22512E+04         0.00000E+00
    0.00000E+00         0.00000E+00         0.65070E+02
 
   -0.16839E+04         0.68304E+02         0.00000E+00
    0.68304E+02         0.21279E+04         0.00000E+00
    0.00000E+00         0.00000E+00         0.13319E+03
 
   -0.13174E+04         0.73211E+02         0.00000E+00
    0.73211E+02         0.19893E+04         0.00000E+00
    0.00000E+00         0.00000E+00         0.20157E+03
 
   -0.93440E+03         0.77898E+02         0.00000E+00
    0.77898E+02         0.18379E+04         0.00000E+00
    0.00000E+00         0.00000E+00         0.27104E+03
 
   -0.53497E+03         0.82298E+02         0.00000E+00
    0.82298E+02         0.16758E+04         0.00000E+00
    0.00000E+00         0.00000E+00         0.34225E+03
 
   -0.11950E+03         0.86340E+02         0.00000E+00
    0.86340E+02         0.15051E+04         0.00000E+00
    0.00000E+00         0.00000E+00         0.41566E+03
 
    0.31116E+03         0.89947E+02         0.00000E+00
    0.89947E+02         0.13274E+04         0.00000E+00
    0.00000E+00         0.00000E+00         0.49157E+03
 
TENSORS stresstot double 
   -0.49536E+05         0.36799E+03         0.00000E+00
    0.36799E+03        -0.10022E+06         0.00000E+00
    0.00000E+00         0.00000E+00        -0.56507E+05
 
   -0.40040E+05         0.26479E+04         0.00000E+00
    0.26479E+04        -0.96898E+05         0.00000E+00
    0.00000E+00         0.00000E+00        -0.66231E+05
 
   -0.34728E+05         0.38035E+04         0.00000E+00
    0.38035E+04        -0.88955E+05         0.00000E+00
    0.00000E+00         0.00000E+00        -0.63879E+05
 
   -0.29837E+05         0.40463E+04         0.00000E+00
    0.40463E+04        -0.80518E+05         0.00000E+00
    0.00000E+00         0.00000E+00        -0.58419E+05
 
   -0.25307E+05         0.38842E+04         0.00000E+00
    0.38842E+04        -0.72713E+05         0.00000E+00
    0.00000E+00         0.00000E+00        -0.52481E+05
 
   -0.21244E+05         0.35783E+04         0.00000E+00
    0.35783E+04        -0.65610E+05         0.00000E+00
    0.00000E+00         0.00000E+00        -0.46715E+05
 
   -0.17607E+05         0.32045E+04         0.00000E+00
    0.32045E+04        -0.59220E+05         0.00000E+00
    0.00000E+00         0.00000E+00        -0.41348E+05
 
   -0.14805E+05         0.27828E+04         0.00000E+00
    0.27828E+04        -0.53500E+05         0.00000E+00
    0.00000E+00         0.00000E+00        -0.36667E+05
 
   -0.12523E+05         0.24153E+04         0.00000E+00
    0.24153E+04        -0.48455E+05         0.00000E+00
    0.00000E+00         0.00000E+00        -0.32654E+05
 
   -0.10566E+05         0.20710E+04         0.00000E+00
    0.20710E+04        -0.44069E+05         0.00000E+00
    0.00000E+00         0.00000E+00        -0.29244E+05
 
   -0.90784E+04         0.17911E+04         0.00000E+00
    0.17911E+04        -0.40229E+05         0.00000E+00
    0.00000E+00         0.00000E+00        -0.26415E+05
 
   -0.77365E+04         0.16041E+04         0.00000E+00
    0.16041E+04        -0.36873E+05         0.00000E+00
    0.00000E+00         0.00000E+00        -0.23921E+05
 
   -0.65483E+04         0.14381E+04         0.00000E+00
    0.14381E+04        -0.33895E+05         0.00000E+00
    0.00000E+00         0.00000E+00        -0.21673E+05
 
   -0.54704E+04         0.12954E+04         0.00000E+00
    0.12954E+04        -0.31207E+05         0.00000E+00
    0.00000E+00         0.00000E+00        -0.19596E+05
 
   -0.44849E+04         0.11555E+04         0.00000E+00
    0.11555E+04        -0.28795E+05         0.00000E+00
    0.00000E+00         0.00000E+00        -0.17643E+05
 
   -0.35696E+04         0.10518E+04         0.00000E+00
    0.10518E+04        -0.26621E+05         0.00000E+00
    0.00000E+00         0.00000E+00        -0.15765E+05
 
   -0.27350E+04         0.91039E+03         0.00000E+00
    0.91039E+03        -0.24703E+05         0.00000E+00
    0.00000E+00         0.00000E+00        -0.13958E+05
 
   -0.19782E+04         0.80574E+03         0.00000E+00
    0.80574E+03        -0.23022E+05         0.00000E+00
    0.00000E+00         0.00000E+00        -0.12327E+05
 
   -0.13987E+04         0.70444E+03         0.00000E+00
    0.70444E+03        -0.21543E+05         0.00000E+00
    0.00000E+00         0.00000E+00        -0.10840E+05
 
   -0.20583E+04         0.60295E+03         0.00000E+00
    0.60295E+03        -0.20247E+05         0.00000E+00
    0.00000E+00         0.00000E+00        -0.10218E+05
 
   -0.43313E+04         0.52682E+03         0.00000E+00
    0.52682E+03        -0.19124E+05         0.00000E+00
    0.00000E+00         0.00000E+00        -0.10634E+05
 
   -0.64913E+04         0.48680E+03         0.00000E+00
    0.48680E+03        -0.18115E+05         0.00000E+00
    0.00000E+00         0.00000E+00        -0.11032E+05
 
   -0.86499E+04         0.47222E+03         0.00000E+00
    0.47222E+03        -0.17160E+05         0.00000E+00
    0.00000E+00         0.00000E+00        -0.11429E+05
 
   -0.10890E+05         0.47994E+03         0.00000E+00
    0.47994E+03        -0.16212E+05         0.00000E+00
    0.00000E+00         0.00000E+00        -0.11834E+05
 
   -0.46051E+05         0.27413E+04         0.00000E+00
    0.27413E+04        -0.99613E+05         0.00000E+00
    0.00000E+00         0.00000E+00        -0.59243E+05
 
   -0.36680E+05         0.97123E+04         0.00000E+00
    0.97123E+04        -0.88866E+05         0.00000E+00
    0.00000E+00         0.00000E+00        -0.64143E+05
 
   -0.33328E+05         0.11691E+05         0.00000E+00
    0.11691E+05        -0.80361E+05         0.00000E+00
    0.00000E+00         0.00000E+00        -0.60077E+05
 
   -0.29848E+05         0.11859E+05         0.00000E+00
    0.11859E+05        -0.73329E+05         0.00000E+00
    0.00000E+00         0.00000E+00        -0.55233E+05
 
   -0.25900E+05         0.11164E+05         0.00000E+00
    0.11164E+05        -0.66661E+05         0.00000E+00
    0.00000E+00         0.00000E+00        -0.49910E+05
 
   -0.22017E+05         0.10152E+05         0.00000E+00
    0.10152E+05        -0.60623E+05         0.00000E+00
    0.00000E+00         0.00000E+00        -0.44708E+05
 
   -0.18539E+05         0.90233E+04         0.00000E+00
    0.90233E+04        -0.55231E+05         0.00000E+00
    0.00000E+00         0.00000E+00        -0.39916E+05
 
   -0.15604E+05         0.79091E+04         0.00000E+00
    0.79091E+04        -0.50494E+05         0.00000E+00
    0.00000E+00         0.00000E+00        -0.35672E+05
 
   -0.13244E+05         0.68917E+04         0.00000E+00
    0.68917E+04        -0.46233E+05         0.00000E+00
    0.00000E+00         0.00000E+00        -0.31973E+05
 
   -0.11200E+05         0.59999E+04         0.00000E+00
    0.59999E+04        -0.42352E+05         0.00000E+00
    0.00000E+00         0.00000E+00        -0.28707E+05
 
   -0.94679E+04         0.52833E+04         0.00000E+00
    0.52833E+04        -0.38903E+05         0.00000E+00
    0.00000E+00         0.00000E+00        -0.25877E+05
 
   -0.80932E+04         0.47078E+04         0.00000E+00
    0.47078E+04        -0.35750E+05         0.00000E+00
    0.00000E+00         0.00000E+00        -0.23448E+05
 
   -0.68573E+04         0.42249E+04         0.00000E+00
    0.42249E+04        -0.32904E+05         0.00000E+00
    0.00000E+00         0.00000E+00        -0.21248E+05
 
   -0.57476E+04         0.38037E+04         0.00000E+00
    0.38037E+04        -0.30395E+05         0.00000E+00
    0.00000E+00         0.00000E+00        -0.19219E+05
 
   -0.47360E+04         0.34130E+04         0.00000E+00
    0.34130E+04        -0.28140E+05         0.00000E+00
    0.00000E+00         0.00000E+00        -0.17328E+05
 
   -0.38140E+04         0.30403E+04         0.00000E+00
    0.30403E+04        -0.26142E+05         0.00000E+00
    0.00000E+00         0.00000E+00        -0.15544E+05
 
   -0.29771E+04         0.26928E+04         0.00000E+00
    0.26928E+04        -0.24354E+05         0.00000E+00
    0.00000E+00         0.00000E+00        -0.13792E+05
 
   -0.21805E+04         0.23745E+04         0.00000E+00
    0.23745E+04        -0.22750E+05         0.00000E+00
    0.00000E+00         0.00000E+00        -0.12194E+05
 
   -0.15897E+04         0.20806E+04         0.00000E+00
    0.20806E+04        -0.21341E+05         0.00000E+00
    0.00000E+00         0.00000E+00        -0.10772E+05
 
   -0.22607E+04         0.17984E+04         0.00000E+00
    0.17984E+04        -0.20075E+05         0.00000E+00
    0.00000E+00         0.00000E+00        -0.10221E+05
 
   -0.44424E+04         0.15759E+04         0.00000E+00
    0.15759E+04        -0.18967E+05         0.00000E+00
    0.00000E+00         0.00000E+00        -0.10614E+05
 
   -0.65452E+04         0.14551E+04         0.00000E+00
    0.14551E+04        -0.17968E+05         0.00000E+00
    0.00000E+00         0.00000E+00        -0.10998E+05
 
   -0.86569E+04         0.14097E+04         0.00000E+00
    0.14097E+04        -0.17027E+05         0.00000E+00
    0.00000E+00         0.00000E+00        -0.11384E+05
 
   -0.10854E+05         0.14317E+04         0.00000E+00
    0.14317E+04        -0.16094E+05         0.00000E+00
    0.00000E+00         0.00000E+00        -0.11781E+05
 
   -0.33458E+05         0.16161E+05         0.00000E+00
    0.16161E+05        -0.75384E+05         0.00000E+00
    0.00000E+00         0.00000E+00        -0.55751E+05
 
   -0.32885E+05         0.18379E+05         0.00000E+00
    0.18379E+05        -0.64367E+05         0.00000E+00
    0.00000E+00         0.00000E+00        -0.53170E+05
 
   -0.33388E+05         0.18910E+05         0.00000E+00
    0.18910E+05        -0.61961E+05         0.00000E+00
    0.00000E+00         0.00000E+00        -0.52135E+05
 
   -0.30787E+05         0.17928E+05         0.00000E+00
    0.17928E+05        -0.58428E+05         0.00000E+00
    0.00000E+00         0.00000E+00        -0.48817E+05
 
   -0.27325E+05         0.16540E+05         0.00000E+00
    0.16540E+05        -0.55017E+05         0.00000E+00
    0.00000E+00         0.00000E+00        -0.45088E+05
 
   -0.23555E+05         0.14939E+05         0.00000E+00
    0.14939E+05        -0.51505E+05         0.00000E+00
    0.00000E+00         0.00000E+00        -0.41119E+05
 
   -0.20044E+05         0.13327E+05         0.00000E+00
    0.13327E+05        -0.48077E+05         0.00000E+00
    0.00000E+00         0.00000E+00        -0.37275E+05
 
   -0.17006E+05         0.11822E+05         0.00000E+00
    0.11822E+05        -0.44779E+05         0.00000E+00
    0.00000E+00         0.00000E+00        -0.33689E+05
 
   -0.14432E+05         0.10535E+05         0.00000E+00
    0.10535E+05        -0.41681E+05         0.00000E+00
    0.00000E+00         0.00000E+00        -0.30426E+05
 
   -0.12189E+05         0.93685E+04         0.00000E+00
    0.93685E+04        -0.38726E+05         0.00000E+00
    0.00000E+00         0.00000E+00        -0.27474E+05
 
   -0.10314E+05         0.83326E+04         0.00000E+00
    0.83326E+04        -0.35888E+05         0.00000E+00
    0.00000E+00         0.00000E+00        -0.24806E+05
 
   -0.87481E+04         0.74630E+04         0.00000E+00
    0.74630E+04        -0.33351E+05         0.00000E+00
    0.00000E+00         0.00000E+00        -0.22454E+05
 
   -0.74356E+04         0.67112E+04         0.00000E+00
    0.67112E+04        -0.31060E+05         0.00000E+00
    0.00000E+00         0.00000E+00        -0.20381E+05
 
   -0.62879E+04         0.60269E+04         0.00000E+00
    0.60269E+04        -0.28948E+05         0.00000E+00
    0.00000E+00         0.00000E+00        -0.18494E+05
 
   -0.52298E+04         0.54297E+04         0.00000E+00
    0.54297E+04        -0.27024E+05         0.00000E+00
    0.00000E+00         0.00000E+00        -0.16700E+05
 
   -0.42794E+04         0.48516E+04         0.00000E+00
    0.48516E+04        -0.25282E+05         0.00000E+00
    0.00000E+00         0.00000E+00        -0.14988E+05
 
   -0.33847E+04         0.43221E+04         0.00000E+00
    0.43221E+04        -0.23697E+05         0.00000E+00
    0.00000E+00         0.00000E+00        -0.13399E+05
 
   -0.26046E+04         0.38269E+04         0.00000E+00
    0.38269E+04        -0.22239E+05         0.00000E+00
    0.00000E+00         0.00000E+00        -0.11955E+05
 
   -0.19280E+04         0.33849E+04         0.00000E+00
    0.33849E+04        -0.20901E+05         0.00000E+00
    0.00000E+00         0.00000E+00        -0.10630E+05
 
   -0.26375E+04         0.29587E+04         0.00000E+00
    0.29587E+04        -0.19703E+05         0.00000E+00
    0.00000E+00         0.00000E+00        -0.10211E+05
 
   -0.46614E+04         0.26059E+04         0.00000E+00
    0.26059E+04        -0.18633E+05         0.00000E+00
    0.00000E+00         0.00000E+00        -0.10567E+05
 
   -0.66551E+04         0.24044E+04         0.00000E+00
    0.24044E+04        -0.17664E+05         0.00000E+00
    0.00000E+00         0.00000E+00        -0.10926E+05
 
   -0.86737E+04         0.23244E+04         0.00000E+00
    0.23244E+04        -0.16752E+05         0.00000E+00
    0.00000E+00         0.00000E+00        -0.11292E+05
 
   -0.10782E+05         0.23578E+04         0.00000E+00
    0.23578E+04        -0.15854E+05         0.00000E+00
    0.00000E+00         0.00000E+00        -0.11672E+05
 
   -0.12817E+05         0.14268E+05         0.00000E+00
    0.14268E+05        -0.27519E+05         0.00000E+00
    0.00000E+00         0.00000E+00        -0.24592E+05
 
   -0.32812E+05         0.19992E+05         0.00000E+00
    0.19992E+05        -0.37872E+05         0.00000E+00
    0.00000E+00         0.00000E+00        -0.41352E+05
 
   -0.33694E+05         0.19625E+05         0.00000E+00
    0.19625E+05        -0.37791E+05         0.00000E+00
    0.00000E+00         0.00000E+00        -0.41143E+05
 
   -0.32063E+05         0.19140E+05         0.00000E+00
    0.19140E+05        -0.38804E+05         0.00000E+00
    0.00000E+00         0.00000E+00        -0.40434E+05
 
   -0.28844E+05         0.18191E+05         0.00000E+00
    0.18191E+05        -0.38968E+05         0.00000E+00
    0.00000E+00         0.00000E+00        -0.38477E+05
 
   -0.25232E+05         0.17001E+05         0.00000E+00
    0.17001E+05        -0.38602E+05         0.00000E+00
    0.00000E+00         0.00000E+00        -0.36036E+05
 
   -0.21702E+05         0.15644E+05         0.00000E+00
    0.15644E+05        -0.37684E+05         0.00000E+00
    0.00000E+00         0.00000E+00        -0.33333E+05
 
   -0.18524E+05         0.14253E+05         0.00000E+00
    0.14253E+05        -0.36382E+05         0.00000E+00
    0.00000E+00         0.00000E+00        -0.30593E+05
 
   -0.15813E+05         0.12925E+05         0.00000E+00
    0.12925E+05        -0.34886E+05         0.00000E+00
    0.00000E+00         0.00000E+00        -0.27940E+05
 
   -0.13406E+05         0.11735E+05         0.00000E+00
    0.11735E+05        -0.33340E+05         0.00000E+00
    0.00000E+00         0.00000E+00        -0.25405E+05
 
   -0.11362E+05         0.10618E+05         0.00000E+00
    0.10618E+05        -0.31730E+05         0.00000E+00
    0.00000E+00         0.00000E+00        -0.23081E+05
 
   -0.96807E+04         0.95528E+04         0.00000E+00
    0.95528E+04        -0.30039E+05         0.00000E+00
    0.00000E+00         0.00000E+00        -0.21000E+05
 
   -0.82415E+04         0.86229E+04         0.00000E+00
    0.86229E+04        -0.28399E+05         0.00000E+00
    0.00000E+00         0.00000E+00        -0.19133E+05
 
   -0.70007E+04         0.78123E+04         0.00000E+00
    0.78123E+04        -0.26836E+05         0.00000E+00
    0.00000E+00         0.00000E+00        -0.17447E+05
 
   -0.58908E+04         0.70587E+04         0.00000E+00
    0.70587E+04        -0.25378E+05         0.00000E+00
    0.00000E+00         0.00000E+00        -0.15858E+05
 
   -0.49000E+04         0.63651E+04         0.00000E+00
    0.63651E+04        -0.24014E+05         0.00000E+00
    0.00000E+00         0.00000E+00        -0.14370E+05
 
   -0.39835E+04         0.57381E+04         0.00000E+00
    0.57381E+04        -0.22665E+05         0.00000E+00
    0.00000E+00         0.00000E+00        -0.12982E+05
 
   -0.31303E+04         0.51308E+04         0.00000E+00
    0.51308E+04        -0.21399E+05         0.00000E+00
    0.00000E+00         0.00000E+00        -0.11657E+05
 
   -0.23855E+04         0.45953E+04         0.00000E+00
    0.45953E+04        -0.20219E+05         0.00000E+00
    0.00000E+00         0.00000E+00        -0.10433E+05
 
   -0.31525E+04         0.40566E+04         0.00000E+00
    0.40566E+04        -0.19100E+05         0.00000E+00
    0.00000E+00         0.00000E+00        -0.10167E+05
 
   -0.49815E+04         0.35922E+04         0.00000E+00
    0.35922E+04        -0.18098E+05         0.00000E+00
    0.00000E+00         0.00000E+00        -0.10483E+05
 
   -0.68229E+04         0.33128E+04         0.00000E+00
    0.33128E+04        -0.17185E+05         0.00000E+00
    0.00000E+00         0.00000E+00        -0.10812E+05
 
   -0.87040E+04         0.31959E+04         0.00000E+00
    0.31959E+04        -0.16330E+05         0.00000E+00
    0.00000E+00         0.00000E+00        -0.11153E+05
 
   -0.10675E+05         0.32379E+04         0.00000E+00
    0.32379E+04        -0.15488E+05         0.00000E+00
    0.00000E+00         0.00000E+00        -0.11509E+05
 
   -0.44902E+04         0.32405E+04         0.00000E+00
    0.32405E+04         0.36714E+04         0.00000E+00
    0.00000E+00         0.00000E+00         0.36240E+03
 
   -0.26609E+05         0.11091E+05         0.00000E+00
    0.11091E+05        -0.97065E+04         0.00000E+00
    0.00000E+00         0.00000E+00        -0.20031E+05
 
   -0.31994E+05         0.14171E+05         0.00000E+00
    0.14171E+05        -0.17693E+05         0.00000E+00
    0.00000E+00         0.00000E+00        -0.28234E+05
 
   -0.31198E+05         0.15541E+05         0.00000E+00
    0.15541E+05        -0.21987E+05         0.00000E+00
    0.00000E+00         0.00000E+00        -0.30092E+05
 
   -0.28936E+05         0.16124E+05         0.00000E+00
    0.16124E+05        -0.24978E+05         0.00000E+00
    0.00000E+00         0.00000E+00        -0.30317E+05
 
   -0.25907E+05         0.16044E+05         0.00000E+00
    0.16044E+05        -0.26839E+05         0.00000E+00
    0.00000E+00         0.00000E+00        -0.29454E+05
 
   -0.22718E+05         0.15508E+05         0.00000E+00
    0.15508E+05        -0.27896E+05         0.00000E+00
    0.00000E+00         0.00000E+00        -0.28033E+05
 
   -0.19681E+05         0.14682E+05         0.00000E+00
    0.14682E+05        -0.28318E+05         0.00000E+00
    0.00000E+00         0.00000E+00        -0.26324E+05
 
   -0.16962E+05         0.13720E+05         0.00000E+00
    0.13720E+05        -0.28247E+05         0.00000E+00
    0.00000E+00         0.00000E+00        -0.24503E+05
 
   -0.14543E+05         0.12717E+05         0.00000E+00
    0.12717E+05        -0.27835E+05         0.00000E+00
    0.00000E+00         0.00000E+00        -0.22660E+05
 
   -0.12445E+05         0.11735E+05         0.00000E+00
    0.11735E+05        -0.27244E+05         0.00000E+00
    0.00000E+00         0.00000E+00        -0.20880E+05
 
   -0.10656E+05         0.10799E+05         0.00000E+00
    0.10799E+05        -0.26485E+05         0.00000E+00
    0.00000E+00         0.00000E+00        -0.19214E+05
 
   -0.91106E+04         0.99138E+04         0.00000E+00
    0.99138E+04        -0.25527E+05         0.00000E+00
    0.00000E+00         0.00000E+00        -0.17661E+05
 
   -0.78166E+04         0.90730E+04         0.00000E+00
    0.90730E+04        -0.24513E+05         0.00000E+00
    0.00000E+00         0.00000E+00        -0.16243E+05
 
   -0.66345E+04         0.82679E+04         0.00000E+00
    0.82679E+04        -0.23491E+05         0.00000E+00
    0.00000E+00         0.00000E+00        -0.14918E+05
 
   -0.55859E+04         0.75650E+04         0.00000E+00
    0.75650E+04        -0.22402E+05         0.00000E+00
    0.00000E+00         0.00000E+00        -0.13685E+05
 
   -0.46297E+04         0.69064E+04         0.00000E+00
    0.69064E+04        -0.21349E+05         0.00000E+00
    0.00000E+00         0.00000E+00        -0.12501E+05
 
   -0.37388E+04         0.62704E+04         0.00000E+00
    0.62704E+04        -0.20307E+05         0.00000E+00
    0.00000E+00         0.00000E+00        -0.11308E+05
 
   -0.29144E+04         0.56899E+04         0.00000E+00
    0.56899E+04        -0.19240E+05         0.00000E+00
    0.00000E+00         0.00000E+00        -0.10180E+05
 
   -0.37811E+04         0.50580E+04         0.00000E+00
    0.50580E+04        -0.18232E+05         0.00000E+00
    0.00000E+00         0.00000E+00        -0.10073E+05
 
   -0.53919E+04         0.44985E+04         0.00000E+00
    0.44985E+04        -0.17343E+05         0.00000E+00
    0.00000E+00         0.00000E+00        -0.10354E+05
 
   -0.70468E+04         0.41486E+04         0.00000E+00
    0.41486E+04        -0.16529E+05         0.00000E+00
    0.00000E+00         0.00000E+00        -0.10656E+05
 
   -0.87483E+04         0.39989E+04         0.00000E+00
    0.39989E+04        -0.15759E+05         0.00000E+00
    0.00000E+00         0.00000E+00        -0.10968E+05
 
   -0.10536E+05         0.40495E+04         0.00000E+00
    0.40495E+04        -0.14998E+05         0.00000E+00
    0.00000E+00         0.00000E+00        -0.11292E+05
 
    0.12008E+04        -0.11826E+04         0.00000E+00
   -0.11826E+04        -0.16838E+04         0.00000E+00
    0.00000E+00         0.00000E+00        -0.26093E+02
 
   -0.23774E+05         0.58158E+04         0.00000E+00
    0.58158E+04        -0.31128E+04         0.00000E+00
    0.00000E+00         0.00000E+00        -0.10240E+05
 
   -0.28748E+05         0.95622E+04         0.00000E+00
    0.95622E+04        -0.92133E+04         0.00000E+00
    0.00000E+00         0.00000E+00        -0.18875E+05
 
   -0.29406E+05         0.11855E+05         0.00000E+00
    0.11855E+05        -0.13487E+05         0.00000E+00
    0.00000E+00         0.00000E+00        -0.22662E+05
 
   -0.27888E+05         0.13271E+05         0.00000E+00
    0.13271E+05        -0.16604E+05         0.00000E+00
    0.00000E+00         0.00000E+00        -0.24015E+05
 
   -0.25606E+05         0.13994E+05         0.00000E+00
    0.13994E+05        -0.18942E+05         0.00000E+00
    0.00000E+00         0.00000E+00        -0.24138E+05
 
   -0.22946E+05         0.14181E+05         0.00000E+00
    0.14181E+05        -0.20634E+05         0.00000E+00
    0.00000E+00         0.00000E+00        -0.23575E+05
 
   -0.20255E+05         0.13964E+05         0.00000E+00
    0.13964E+05        -0.21766E+05         0.00000E+00
    0.00000E+00         0.00000E+00        -0.22604E+05
 
   -0.17722E+05         0.13483E+05         0.00000E+00
    0.13483E+05        -0.22439E+05         0.00000E+00
    0.00000E+00         0.00000E+00        -0.21419E+05
 
   -0.15406E+05         0.12835E+05         0.00000E+00
    0.12835E+05        -0.22737E+05         0.00000E+00
    0.00000E+00         0.00000E+00        -0.20123E+05
 
   -0.13335E+05         0.12083E+05         0.00000E+00
    0.12083E+05        -0.22736E+05         0.00000E+00
    0.00000E+00         0.00000E+00        -0.18794E+05
 
   -0.11498E+05         0.11354E+05         0.00000E+00
    0.11354E+05        -0.22512E+05         0.00000E+00
    0.00000E+00         0.00000E+00        -0.17467E+05
 
   -0.99378E+04         0.10599E+05         0.00000E+00
    0.10599E+05        -0.22174E+05         0.00000E+00
    0.00000E+00         0.00000E+00        -0.16234E+05
 
   -0.85903E+04         0.98534E+04         0.00000E+00
    0.98534E+04        -0.21679E+05         0.00000E+00
    0.00000E+00         0.00000E+00        -0.15083E+05
 
   -0.73879E+04         0.91533E+04         0.00000E+00
    0.91533E+04        -0.20994E+05         0.00000E+00
    0.00000E+00         0.00000E+00        -0.13999E+05
 
   -0.62661E+04         0.84599E+04         0.00000E+00
    0.84599E+04        -0.20249E+05         0.00000E+00
    0.00000E+00         0.00000E+00        -0.12930E+05
 
   -0.52860E+04         0.77938E+04         0.00000E+00
    0.77938E+04        -0.19489E+05         0.00000E+00
    0.00000E+00         0.00000E+00        -0.11889E+05
 
   -0.43163E+04         0.72108E+04         0.00000E+00
    0.72108E+04        -0.18704E+05         0.00000E+00
    0.00000E+00         0.00000E+00        -0.10805E+05
 
   -0.35345E+04         0.66545E+04         0.00000E+00
    0.66545E+04        -0.17865E+05         0.00000E+00
    0.00000E+00         0.00000E+00        -0.98788E+04
 
   -0.44829E+04         0.59001E+04         0.00000E+00
    0.59001E+04        -0.17092E+05         0.00000E+00
    0.00000E+00         0.00000E+00        -0.99127E+04
 
   -0.58784E+04         0.52714E+04         0.00000E+00
    0.52714E+04        -0.16384E+05         0.00000E+00
    0.00000E+00         0.00000E+00        -0.10182E+05
 
   -0.73137E+04         0.48746E+04         0.00000E+00
    0.48746E+04        -0.15713E+05         0.00000E+00
    0.00000E+00         0.00000E+00        -0.10458E+05
 
   -0.88008E+04         0.47073E+04         0.00000E+00
    0.47073E+04        -0.15059E+05         0.00000E+00
    0.00000E+00         0.00000E+00        -0.10739E+05
 
   -0.10365E+05         0.47709E+04         0.00000E+00
    0.47709E+04        -0.14399E+05         0.00000E+00
    0.00000E+00         0.00000E+00        -0.11025E+05
 
    0.18199E+04        -0.16988E+04         0.00000E+00
   -0.16988E+04         0.48539E+02         0.00000E+00
    0.00000E+00         0.00000E+00         0.49094E+03
 
   -0.18153E+05         0.80805E+03         0.00000E+00
    0.80805E+03        -0.13770E+04         0.00000E+00
    0.00000E+00         0.00000E+00        -0.62195E+04
 
   -0.26554E+05         0.61235E+04         0.00000E+00
    0.61235E+04        -0.49967E+04         0.00000E+00
    0.00000E+00         0.00000E+00        -0.12731E+05
 
   -0.27142E+05         0.88569E+04         0.00000E+00
    0.88569E+04        -0.83252E+04         0.00000E+00
    0.00000E+00         0.00000E+00        -0.16635E+05
 
   -0.26461E+05         0.10695E+05         0.00000E+00
    0.10695E+05        -0.11229E+05         0.00000E+00
    0.00000E+00         0.00000E+00        -0.18680E+05
 
   -0.24740E+05         0.11922E+05         0.00000E+00
    0.11922E+05        -0.13577E+05         0.00000E+00
    0.00000E+00         0.00000E+00        -0.19501E+05
 
   -0.22616E+05         0.12572E+05         0.00000E+00
    0.12572E+05        -0.15374E+05         0.00000E+00
    0.00000E+00         0.00000E+00        -0.19574E+05
 
   -0.20314E+05         0.12801E+05         0.00000E+00
    0.12801E+05        -0.16753E+05         0.00000E+00
    0.00000E+00         0.00000E+00        -0.19169E+05
 
   -0.18058E+05         0.12710E+05         0.00000E+00
    0.12710E+05        -0.17758E+05         0.00000E+00
    0.00000E+00         0.00000E+00        -0.18487E+05
 
   -0.15935E+05         0.12399E+05         0.00000E+00
    0.12399E+05        -0.18450E+05         0.00000E+00
    0.00000E+00         0.00000E+00        -0.17632E+05
 
   -0.13946E+05         0.11967E+05         0.00000E+00
    0.11967E+05        -0.18860E+05         0.00000E+00
    0.00000E+00         0.00000E+00        -0.16655E+05
 
   -0.12160E+05         0.11426E+05         0.00000E+00
    0.11426E+05        -0.19043E+05         0.00000E+00
    0.00000E+00         0.00000E+00        -0.15649E+05
 
   -0.10619E+05         0.10853E+05         0.00000E+00
    0.10853E+05        -0.18997E+05         0.00000E+00
    0.00000E+00         0.00000E+00        -0.14691E+05
 
   -0.92538E+04         0.10256E+05         0.00000E+00
    0.10256E+05        -0.18775E+05         0.00000E+00
    0.00000E+00         0.00000E+00        -0.13774E+05
 
   -0.80344E+04         0.96585E+04         0.00000E+00
    0.96585E+04        -0.18472E+05         0.00000E+00
    0.00000E+00         0.00000E+00        -0.12901E+05
 
   -0.69108E+04         0.90615E+04         0.00000E+00
    0.90615E+04        -0.18073E+05         0.00000E+00
    0.00000E+00         0.00000E+00        -0.12000E+05
 
   -0.58688E+04         0.84790E+04         0.00000E+00
    0.84790E+04        -0.17550E+05         0.00000E+00
    0.00000E+00         0.00000E+00        -0.11084E+05
 
   -0.48793E+04         0.79392E+04         0.00000E+00
    0.79392E+04        -0.16918E+05         0.00000E+00
    0.00000E+00         0.00000E+00        -0.10233E+05
 
   -0.42527E+04         0.73574E+04         0.00000E+00
    0.73574E+04        -0.16275E+05         0.00000E+00
    0.00000E+00         0.00000E+00        -0.95282E+04
 
   -0.52355E+04         0.65088E+04         0.00000E+00
    0.65088E+04        -0.15778E+05         0.00000E+00
    0.00000E+00         0.00000E+00        -0.97102E+04
 
   -0.64007E+04         0.58619E+04         0.00000E+00
    0.58619E+04        -0.15291E+05         0.00000E+00
    0.00000E+00         0.00000E+00        -0.99731E+04
 
   -0.75961E+04         0.54621E+04         0.00000E+00
    0.54621E+04        -0.14786E+05         0.00000E+00
    0.00000E+00         0.00000E+00        -0.10225E+05
 
   -0.88482E+04         0.53018E+04         0.00000E+00
    0.53018E+04        -0.14262E+05         0.00000E+00
    0.00000E+00         0.00000E+00        -0.10473E+05
 
   -0.10165E+05         0.53857E+04         0.00000E+00
    0.53857E+04        -0.13716E+05         0.00000E+00
    0.00000E+00         0.00000E+00        -0.10719E+05
 
    0.16178E+02        -0.17657E+04         0.00000E+00
   -0.17657E+04        -0.29063E+02         0.00000E+00
    0.00000E+00         0.00000E+00        -0.12635E+03
 
   -0.13565E+05        -0.11482E+04         0.00000E+00
   -0.11482E+04        -0.33438E+03         0.00000E+00
    0.00000E+00         0.00000E+00        -0.45354E+04
 
   -0.23130E+05         0.29631E+04         0.00000E+00
    0.29631E+04        -0.14951E+04         0.00000E+00
    0.00000E+00         0.00000E+00        -0.82224E+04
 
   -0.25082E+05         0.62328E+04         0.00000E+00
    0.62328E+04        -0.47238E+04         0.00000E+00
    0.00000E+00         0.00000E+00        -0.12306E+05
 
   -0.24761E+05         0.83748E+04         0.00000E+00
    0.83748E+04        -0.71478E+04         0.00000E+00
    0.00000E+00         0.00000E+00        -0.14487E+05
 
   -0.23550E+05         0.99168E+04         0.00000E+00
    0.99168E+04        -0.93455E+04         0.00000E+00
    0.00000E+00         0.00000E+00        -0.15543E+05
 
   -0.21931E+05         0.10940E+05         0.00000E+00
    0.10940E+05        -0.11257E+05         0.00000E+00
    0.00000E+00         0.00000E+00        -0.16040E+05
 
   -0.20018E+05         0.11509E+05         0.00000E+00
    0.11509E+05        -0.12763E+05         0.00000E+00
    0.00000E+00         0.00000E+00        -0.16030E+05
 
   -0.18067E+05         0.11733E+05         0.00000E+00
    0.11733E+05        -0.13927E+05         0.00000E+00
    0.00000E+00         0.00000E+00        -0.15735E+05
 
   -0.16139E+05         0.11710E+05         0.00000E+00
    0.11710E+05        -0.14788E+05         0.00000E+00
    0.00000E+00         0.00000E+00        -0.15222E+05
 
   -0.14299E+05         0.11522E+05         0.00000E+00
    0.11522E+05        -0.15391E+05         0.00000E+00
    0.00000E+00         0.00000E+00        -0.14565E+05
 
   -0.12616E+05         0.11217E+05         0.00000E+00
    0.11217E+05        -0.15763E+05         0.00000E+00
    0.00000E+00         0.00000E+00        -0.13837E+05
 
   -0.11124E+05         0.10817E+05         0.00000E+00
    0.10817E+05        -0.15976E+05         0.00000E+00
    0.00000E+00         0.00000E+00        -0.13124E+05
 
   -0.97855E+04         0.10372E+05         0.00000E+00
    0.10372E+05        -0.16048E+05         0.00000E+00
    0.00000E+00         0.00000E+00        -0.12422E+05
 
   -0.85658E+04         0.99020E+04         0.00000E+00
    0.99020E+04        -0.15953E+05         0.00000E+00
    0.00000E+00         0.00000E+00        -0.11718E+05
 
   -0.74528E+04         0.94227E+04         0.00000E+00
    0.94227E+04        -0.15724E+05         0.00000E+00
    0.00000E+00         0.00000E+00        -0.11034E+05
 
   -0.63829E+04         0.89451E+04         0.00000E+00
    0.89451E+04        -0.15403E+05         0.00000E+00
    0.00000E+00         0.00000E+00        -0.10319E+05
 
   -0.53843E+04         0.84699E+04         0.00000E+00
    0.84699E+04        -0.14990E+05         0.00000E+00
    0.00000E+00         0.00000E+00        -0.95927E+04
 
   -0.51168E+04         0.77666E+04         0.00000E+00
    0.77666E+04        -0.14653E+05         0.00000E+00
    0.00000E+00         0.00000E+00        -0.92272E+04
 
   -0.60030E+04         0.68706E+04         0.00000E+00
    0.68706E+04        -0.14446E+05         0.00000E+00
    0.00000E+00         0.00000E+00        -0.95009E+04
 
   -0.69030E+04         0.62660E+04         0.00000E+00
    0.62660E+04        -0.14157E+05         0.00000E+00
    0.00000E+00         0.00000E+00        -0.97403E+04
 
   -0.78604E+04         0.59045E+04         0.00000E+00
    0.59045E+04        -0.13808E+05         0.00000E+00
    0.00000E+00         0.00000E+00        -0.99649E+04
 
   -0.88742E+04         0.57755E+04         0.00000E+00
    0.57755E+04        -0.13413E+05         0.00000E+00
    0.00000E+00         0.00000E+00        -0.10178E+05
 
   -0.99385E+04         0.58868E+04         0.00000E+00
    0.58868E+04        -0.12982E+05         0.00000E+00
    0.00000E+00         0.00000E+00        -0.10382E+05
 
   -0.20192E+04        -0.15201E+04         0.00000E+00
   -0.15201E+04         0.15699E+03         0.00000E+00
    0.00000E+00         0.00000E+00        -0.68353E+03
 
   -0.11480E+05        -0.16536E+04         0.00000E+00
   -0.16536E+04         0.27966E+03         0.00000E+00
    0.00000E+00         0.00000E+00        -0.37326E+04
 
   -0.19182E+05         0.75104E+03         0.00000E+00
    0.75104E+03        -0.68776E+03         0.00000E+00
    0.00000E+00         0.00000E+00        -0.65761E+04
 
   -0.22784E+05         0.40732E+04         0.00000E+00
    0.40732E+04        -0.20644E+04         0.00000E+00
    0.00000E+00         0.00000E+00        -0.89884E+04
 
   -0.22975E+05         0.64074E+04         0.00000E+00
    0.64074E+04        -0.41669E+04         0.00000E+00
    0.00000E+00         0.00000E+00        -0.11214E+05
 
   -0.22191E+05         0.80737E+04         0.00000E+00
    0.80737E+04        -0.59731E+04         0.00000E+00
    0.00000E+00         0.00000E+00        -0.12489E+05
 
   -0.20983E+05         0.92983E+04         0.00000E+00
    0.92983E+04        -0.76547E+04         0.00000E+00
    0.00000E+00         0.00000E+00        -0.13121E+05
 
   -0.19445E+05         0.10160E+05         0.00000E+00
    0.10160E+05        -0.91672E+04         0.00000E+00
    0.00000E+00         0.00000E+00        -0.13366E+05
 
   -0.17816E+05         0.10653E+05         0.00000E+00
    0.10653E+05        -0.10428E+05         0.00000E+00
    0.00000E+00         0.00000E+00        -0.13328E+05
 
   -0.16096E+05         0.10882E+05         0.00000E+00
    0.10882E+05        -0.11419E+05         0.00000E+00
    0.00000E+00         0.00000E+00        -0.13067E+05
 
   -0.14422E+05         0.10923E+05         0.00000E+00
    0.10923E+05        -0.12184E+05         0.00000E+00
    0.00000E+00         0.00000E+00        -0.12652E+05
 
   -0.12870E+05         0.10810E+05         0.00000E+00
    0.10810E+05        -0.12753E+05         0.00000E+00
    0.00000E+00         0.00000E+00        -0.12161E+05
 
   -0.11467E+05         0.10584E+05         0.00000E+00
    0.10584E+05        -0.13132E+05         0.00000E+00
    0.00000E+00         0.00000E+00        -0.11657E+05
 
   -0.10171E+05         0.10294E+05         0.00000E+00
    0.10294E+05        -0.13336E+05         0.00000E+00
    0.00000E+00         0.00000E+00        -0.11138E+05
 
   -0.89739E+04         0.99563E+04         0.00000E+00
    0.99563E+04        -0.13430E+05         0.00000E+00
    0.00000E+00         0.00000E+00        -0.10599E+05
 
   -0.78804E+04         0.95829E+04         0.00000E+00
    0.95829E+04        -0.13425E+05         0.00000E+00
    0.00000E+00         0.00000E+00        -0.10065E+05
 
   -0.68151E+04         0.91967E+04         0.00000E+00
    0.91967E+04        -0.13273E+05         0.00000E+00
    0.00000E+00         0.00000E+00        -0.94753E+04
 
   -0.59105E+04         0.87677E+04         0.00000E+00
    0.87677E+04        -0.13115E+05         0.00000E+00
    0.00000E+00         0.00000E+00        -0.89267E+04
 
   -0.61392E+04         0.77862E+04         0.00000E+00
    0.77862E+04        -0.13207E+05         0.00000E+00
    0.00000E+00         0.00000E+00        -0.90587E+04
 
   -0.66868E+04         0.70276E+04         0.00000E+00
    0.70276E+04        -0.13190E+05         0.00000E+00
    0.00000E+00         0.00000E+00        -0.92838E+04
 
   -0.73471E+04         0.65135E+04         0.00000E+00
    0.65135E+04        -0.13054E+05         0.00000E+00
    0.00000E+00         0.00000E+00        -0.94936E+04
 
   -0.80787E+04         0.62165E+04         0.00000E+00
    0.62165E+04        -0.12832E+05         0.00000E+00
    0.00000E+00         0.00000E+00        -0.96860E+04
 
   -0.88660E+04         0.61340E+04         0.00000E+00
    0.61340E+04        -0.12551E+05         0.00000E+00
    0.00000E+00         0.00000E+00        -0.98639E+04
 
   -0.96877E+04         0.62760E+04         0.00000E+00
    0.62760E+04        -0.12229E+05         0.00000E+00
    0.00000E+00         0.00000E+00        -0.10027E+05
 
   -0.38605E+04        -0.11903E+04         0.00000E+00
   -0.11903E+04         0.14058E+03         0.00000E+00
    0.00000E+00         0.00000E+00        -0.12433E+04
 
   -0.10612E+05        -0.16784E+04         0.00000E+00
   -0.16784E+04         0.42149E+03         0.00000E+00
    0.00000E+00         0.00000E+00        -0.34365E+04
 
   -0.16266E+05        -0.14361E+03         0.00000E+00
   -0.14361E+03         0.31699E+03         0.00000E+00
    0.00000E+00         0.00000E+00        -0.54105E+04
 
   -0.20082E+05         0.23696E+04         0.00000E+00
    0.23696E+04        -0.44965E+03         0.00000E+00
    0.00000E+00         0.00000E+00        -0.70245E+04
 
   -0.21154E+05         0.47628E+04         0.00000E+00
    0.47628E+04        -0.18980E+04         0.00000E+00
    0.00000E+00         0.00000E+00        -0.86191E+04
 
   -0.20776E+05         0.65389E+04         0.00000E+00
    0.65389E+04        -0.34854E+04         0.00000E+00
    0.00000E+00         0.00000E+00        -0.99372E+04
 
   -0.19886E+05         0.78562E+04         0.00000E+00
    0.78562E+04        -0.49037E+04         0.00000E+00
    0.00000E+00         0.00000E+00        -0.10726E+05
 
   -0.18671E+05         0.88376E+04         0.00000E+00
    0.88376E+04        -0.62185E+04         0.00000E+00
    0.00000E+00         0.00000E+00        -0.11130E+05
 
   -0.17331E+05         0.95396E+04         0.00000E+00
    0.95396E+04        -0.74108E+04         0.00000E+00
    0.00000E+00         0.00000E+00        -0.11260E+05
 
   -0.15846E+05         0.99762E+04         0.00000E+00
    0.99762E+04        -0.84473E+04         0.00000E+00
    0.00000E+00         0.00000E+00        -0.11197E+05
 
   -0.14357E+05         0.10206E+05         0.00000E+00
    0.10206E+05        -0.92791E+04         0.00000E+00
    0.00000E+00         0.00000E+00        -0.10972E+05
 
   -0.12954E+05         0.10263E+05         0.00000E+00
    0.10263E+05        -0.99387E+04         0.00000E+00
    0.00000E+00         0.00000E+00        -0.10659E+05
 
   -0.11642E+05         0.10201E+05         0.00000E+00
    0.10201E+05        -0.10458E+05         0.00000E+00
    0.00000E+00         0.00000E+00        -0.10285E+05
 
   -0.10414E+05         0.10053E+05         0.00000E+00
    0.10053E+05        -0.10868E+05         0.00000E+00
    0.00000E+00         0.00000E+00        -0.99160E+04
 
   -0.92619E+04         0.98437E+04         0.00000E+00
    0.98437E+04        -0.11094E+05         0.00000E+00
    0.00000E+00         0.00000E+00        -0.95049E+04
 
   -0.82156E+04         0.95670E+04         0.00000E+00
    0.95670E+04        -0.11184E+05         0.00000E+00
    0.00000E+00         0.00000E+00        -0.90896E+04
 
   -0.71540E+04         0.92896E+04         0.00000E+00
    0.92896E+04        -0.11287E+05         0.00000E+00
    0.00000E+00         0.00000E+00        -0.86235E+04
 
   -0.68413E+04         0.84610E+04         0.00000E+00
    0.84610E+04        -0.11659E+05         0.00000E+00
    0.00000E+00         0.00000E+00        -0.86842E+04
 
   -0.69335E+04         0.76605E+04         0.00000E+00
    0.76605E+04        -0.11957E+05         0.00000E+00
    0.00000E+00         0.00000E+00        -0.88751E+04
 
   -0.72582E+04         0.70555E+04         0.00000E+00
    0.70555E+04        -0.12049E+05         0.00000E+00
    0.00000E+00         0.00000E+00        -0.90617E+04
 
   -0.77075E+04         0.66436E+04         0.00000E+00
    0.66436E+04        -0.12015E+05         0.00000E+00
    0.00000E+00         0.00000E+00        -0.92352E+04
 
   -0.82379E+04         0.64210E+04         0.00000E+00
    0.64210E+04        -0.11892E+05         0.00000E+00
    0.00000E+00         0.00000E+00        -0.93942E+04
 
   -0.88176E+04         0.63902E+04         0.00000E+00
    0.63902E+04        -0.11705E+05         0.00000E+00
    0.00000E+00         0.00000E+00        -0.95366E+04
 
   -0.94172E+04         0.65621E+04         0.00000E+00
    0.65621E+04        -0.11479E+05         0.00000E+00
    0.00000E+00         0.00000E+00        -0.96608E+04
 
   -0.53794E+04        -0.88682E+03         0.00000E+00
   -0.88682E+03         0.12083E+03         0.00000E+00
    0.00000E+00         0.00000E+00        -0.17070E+04
 
   -0.10163E+05        -0.13665E+04         0.00000E+00
   -0.13665E+04         0.48343E+03         0.00000E+00
    0.00000E+00         0.00000E+00        -0.32892E+04
 
   -0.14497E+05        -0.40558E+03         0.00000E+00
   -0.40558E+03         0.63605E+03         0.00000E+00
    0.00000E+00         0.00000E+00        -0.47931E+04
 
   -0.17573E+05         0.14176E+04         0.00000E+00
    0.14176E+04         0.26926E+03         0.00000E+00
    0.00000E+00         0.00000E+00        -0.60675E+04
 
   -0.19227E+05         0.34769E+04         0.00000E+00
    0.34769E+04        -0.34150E+03         0.00000E+00
    0.00000E+00         0.00000E+00        -0.69791E+04
 
   -0.19325E+05         0.52205E+04         0.00000E+00
    0.52205E+04        -0.14852E+04         0.00000E+00
    0.00000E+00         0.00000E+00        -0.79328E+04
 
   -0.18740E+05         0.66171E+04         0.00000E+00
    0.66171E+04        -0.27691E+04         0.00000E+00
    0.00000E+00         0.00000E+00        -0.87195E+04
 
   -0.17801E+05         0.76861E+04         0.00000E+00
    0.76861E+04        -0.39297E+04         0.00000E+00
    0.00000E+00         0.00000E+00        -0.92108E+04
 
   -0.16685E+05         0.84621E+04         0.00000E+00
    0.84621E+04        -0.50167E+04         0.00000E+00
    0.00000E+00         0.00000E+00        -0.94869E+04
 
   -0.15434E+05         0.90613E+04         0.00000E+00
    0.90613E+04        -0.59668E+04         0.00000E+00
    0.00000E+00         0.00000E+00        -0.95127E+04
 
   -0.14132E+05         0.94346E+04         0.00000E+00
    0.94346E+04        -0.68232E+04         0.00000E+00
    0.00000E+00         0.00000E+00        -0.94274E+04
 
   -0.12878E+05         0.96514E+04         0.00000E+00
    0.96514E+04        -0.75569E+04         0.00000E+00
    0.00000E+00         0.00000E+00        -0.92512E+04
 
   -0.11683E+05         0.97129E+04         0.00000E+00
    0.97129E+04        -0.81217E+04         0.00000E+00
    0.00000E+00         0.00000E+00        -0.90218E+04
 
   -0.10521E+05         0.96884E+04         0.00000E+00
    0.96884E+04        -0.85168E+04         0.00000E+00
    0.00000E+00         0.00000E+00        -0.87426E+04
 
   -0.94721E+04         0.95949E+04         0.00000E+00
    0.95949E+04        -0.89029E+04         0.00000E+00
    0.00000E+00         0.00000E+00        -0.84615E+04
 
   -0.84772E+04         0.93552E+04         0.00000E+00
    0.93552E+04        -0.93425E+04         0.00000E+00
    0.00000E+00         0.00000E+00        -0.82595E+04
 
   -0.78589E+04         0.87073E+04         0.00000E+00
    0.87073E+04        -0.99912E+04         0.00000E+00
    0.00000E+00         0.00000E+00        -0.83611E+04
 
   -0.75845E+04         0.80482E+04         0.00000E+00
    0.80482E+04        -0.10540E+05         0.00000E+00
    0.00000E+00         0.00000E+00        -0.85239E+04
 
   -0.75503E+04         0.74576E+04         0.00000E+00
    0.74576E+04        -0.10854E+05         0.00000E+00
    0.00000E+00         0.00000E+00        -0.86769E+04
 
   -0.77045E+04         0.69970E+04         0.00000E+00
    0.69970E+04        -0.11009E+05         0.00000E+00
    0.00000E+00         0.00000E+00        -0.88269E+04
 
   -0.79810E+04         0.66880E+04         0.00000E+00
    0.66880E+04        -0.11047E+05         0.00000E+00
    0.00000E+00         0.00000E+00        -0.89669E+04
 
   -0.83343E+04         0.65391E+04         0.00000E+00
    0.65391E+04        -0.11000E+05         0.00000E+00
    0.00000E+00         0.00000E+00        -0.90929E+04
 
   -0.87292E+04         0.65586E+04         0.00000E+00
    0.65586E+04        -0.10893E+05         0.00000E+00
    0.00000E+00         0.00000E+00        -0.92020E+04
 
   -0.91314E+04         0.67569E+04         0.00000E+00
    0.67569E+04        -0.10750E+05         0.00000E+00
    0.00000E+00         0.00000E+00        -0.92909E+04
 
   -0.65038E+04        -0.61816E+03         0.00000E+00
   -0.61816E+03         0.10131E+03         0.00000E+00
    0.00000E+00         0.00000E+00        -0.20517E+04
 
   -0.99462E+04        -0.99744E+03         0.00000E+00
   -0.99744E+03         0.42746E+03         0.00000E+00
    0.00000E+00         0.00000E+00        -0.32454E+04
 
   -0.13249E+05        -0.34674E+03         0.00000E+00
   -0.34674E+03         0.69439E+03         0.00000E+00
    0.00000E+00         0.00000E+00        -0.44075E+04
 
   -0.15791E+05         0.10223E+04         0.00000E+00
    0.10223E+04         0.64946E+03         0.00000E+00
    0.00000E+00         0.00000E+00        -0.54264E+04
 
   -0.17317E+05         0.26696E+04         0.00000E+00
    0.26696E+04         0.19059E+03         0.00000E+00
    0.00000E+00         0.00000E+00        -0.62543E+04
 
   -0.17835E+05         0.42576E+04         0.00000E+00
    0.42576E+04        -0.35403E+03         0.00000E+00
    0.00000E+00         0.00000E+00        -0.67945E+04
 
   -0.17592E+05         0.56052E+04         0.00000E+00
    0.56052E+04        -0.10583E+04         0.00000E+00
    0.00000E+00         0.00000E+00        -0.72173E+04
 
   -0.16896E+05         0.66539E+04         0.00000E+00
    0.66539E+04        -0.20506E+04         0.00000E+00
    0.00000E+00         0.00000E+00        -0.76758E+04
 
   -0.15963E+05         0.75310E+04         0.00000E+00
    0.75310E+04        -0.29971E+04         0.00000E+00
    0.00000E+00         0.00000E+00        -0.79614E+04
 
   -0.14900E+05         0.81936E+04         0.00000E+00
    0.81936E+04        -0.38844E+04         0.00000E+00
    0.00000E+00         0.00000E+00        -0.80788E+04
 
   -0.13782E+05         0.86650E+04         0.00000E+00
    0.86650E+04        -0.46687E+04         0.00000E+00
    0.00000E+00         0.00000E+00        -0.80857E+04
 
   -0.12677E+05         0.89796E+04         0.00000E+00
    0.89796E+04        -0.53660E+04         0.00000E+00
    0.00000E+00         0.00000E+00        -0.80019E+04
 
   -0.11607E+05         0.91919E+04         0.00000E+00
    0.91919E+04        -0.60249E+04         0.00000E+00
    0.00000E+00         0.00000E+00        -0.78793E+04
 
   -0.10592E+05         0.91689E+04         0.00000E+00
    0.91689E+04        -0.67667E+04         0.00000E+00
    0.00000E+00         0.00000E+00        -0.78723E+04
 
   -0.96766E+04         0.89466E+04         0.00000E+00
    0.89466E+04        -0.75629E+04         0.00000E+00
    0.00000E+00         0.00000E+00        -0.79456E+04
 
   -0.89618E+04         0.85745E+04         0.00000E+00
    0.85745E+04        -0.84012E+04         0.00000E+00
    0.00000E+00         0.00000E+00        -0.80808E+04
 
   -0.84411E+04         0.81207E+04         0.00000E+00
    0.81207E+04        -0.90659E+04         0.00000E+00
    0.00000E+00         0.00000E+00        -0.82106E+04
 
   -0.81230E+04         0.76401E+04         0.00000E+00
    0.76401E+04        -0.95402E+04         0.00000E+00
    0.00000E+00         0.00000E+00        -0.83328E+04
 
   -0.80062E+04         0.72154E+04         0.00000E+00
    0.72154E+04        -0.98668E+04         0.00000E+00
    0.00000E+00         0.00000E+00        -0.84598E+04
 
   -0.80350E+04         0.68822E+04         0.00000E+00
    0.68822E+04        -0.10060E+05         0.00000E+00
    0.00000E+00         0.00000E+00        -0.85795E+04
 
   -0.81699E+04         0.66678E+04         0.00000E+00
    0.66678E+04        -0.10150E+05         0.00000E+00
    0.00000E+00         0.00000E+00        -0.86892E+04
 
   -0.83713E+04         0.65875E+04         0.00000E+00
    0.65875E+04        -0.10162E+05         0.00000E+00
    0.00000E+00         0.00000E+00        -0.87851E+04
 
   -0.86044E+04         0.66525E+04         0.00000E+00
    0.66525E+04        -0.10121E+05         0.00000E+00
    0.00000E+00         0.00000E+00        -0.88636E+04
 
   -0.88347E+04         0.68727E+04         0.00000E+00
    0.68727E+04        -0.10049E+05         0.00000E+00
    0.00000E+00         0.00000E+00        -0.89215E+04
 
   -0.72767E+04        -0.40488E+03         0.00000E+00
   -0.40488E+03         0.76806E+02         0.00000E+00
    0.00000E+00         0.00000E+00        -0.22918E+04
 
   -0.98055E+04        -0.64948E+03         0.00000E+00
   -0.64948E+03         0.34676E+03         0.00000E+00
    0.00000E+00         0.00000E+00        -0.32296E+04
 
   -0.12330E+05        -0.16417E+03         0.00000E+00
   -0.16417E+03         0.61840E+03         0.00000E+00
    0.00000E+00         0.00000E+00        -0.41578E+04
 
   -0.14409E+05         0.88097E+03         0.00000E+00
    0.88097E+03         0.68589E+03         0.00000E+00
    0.00000E+00         0.00000E+00        -0.50042E+04
 
   -0.15781E+05         0.22340E+04         0.00000E+00
    0.22340E+04         0.48505E+03         0.00000E+00
    0.00000E+00         0.00000E+00        -0.57083E+04
 
   -0.16399E+05         0.36251E+04         0.00000E+00
    0.36251E+04         0.11273E+02         0.00000E+00
    0.00000E+00         0.00000E+00        -0.62561E+04
 
   -0.16412E+05         0.48438E+04         0.00000E+00
    0.48438E+04        -0.61752E+03         0.00000E+00
    0.00000E+00         0.00000E+00        -0.66560E+04
 
   -0.15952E+05         0.58871E+04         0.00000E+00
    0.58871E+04        -0.11852E+04         0.00000E+00
    0.00000E+00         0.00000E+00        -0.68824E+04
 
   -0.15212E+05         0.67459E+04         0.00000E+00
    0.67459E+04        -0.18413E+04         0.00000E+00
    0.00000E+00         0.00000E+00        -0.70380E+04
 
   -0.14335E+05         0.74073E+04         0.00000E+00
    0.74073E+04        -0.25967E+04         0.00000E+00
    0.00000E+00         0.00000E+00        -0.71687E+04
 
   -0.13392E+05         0.78952E+04         0.00000E+00
    0.78952E+04        -0.34231E+04         0.00000E+00
    0.00000E+00         0.00000E+00        -0.72878E+04
 
   -0.12427E+05         0.81993E+04         0.00000E+00
    0.81993E+04        -0.43009E+04         0.00000E+00
    0.00000E+00         0.00000E+00        -0.74027E+04
 
   -0.11542E+05         0.83160E+04         0.00000E+00
    0.83160E+04        -0.52374E+04         0.00000E+00
    0.00000E+00         0.00000E+00        -0.75463E+04
 
   -0.10714E+05         0.83064E+04         0.00000E+00
    0.83064E+04        -0.61233E+04         0.00000E+00
    0.00000E+00         0.00000E+00        -0.76799E+04
 
   -0.99477E+04         0.81517E+04         0.00000E+00
    0.81517E+04        -0.69271E+04         0.00000E+00
    0.00000E+00         0.00000E+00        -0.77949E+04
 
   -0.93127E+04         0.78875E+04         0.00000E+00
    0.78875E+04        -0.76161E+04         0.00000E+00
    0.00000E+00         0.00000E+00        -0.79034E+04
 
   -0.88370E+04         0.75760E+04         0.00000E+00
    0.75760E+04        -0.81958E+04         0.00000E+00
    0.00000E+00         0.00000E+00        -0.80156E+04
 
   -0.85108E+04         0.72491E+04         0.00000E+00
    0.72491E+04        -0.86489E+04         0.00000E+00
    0.00000E+00         0.00000E+00        -0.81238E+04
 
   -0.83276E+04         0.69537E+04         0.00000E+00
    0.69537E+04        -0.89732E+04         0.00000E+00
    0.00000E+00         0.00000E+00        -0.82257E+04
 
   -0.82626E+04         0.67286E+04         0.00000E+00
    0.67286E+04        -0.91899E+04         0.00000E+00
    0.00000E+00         0.00000E+00        -0.83204E+04
 
   -0.82822E+04         0.65979E+04         0.00000E+00
    0.65979E+04        -0.93180E+04         0.00000E+00
    0.00000E+00         0.00000E+00        -0.84038E+04
 
   -0.83546E+04         0.65787E+04         0.00000E+00
    0.65787E+04        -0.93788E+04         0.00000E+00
    0.00000E+00         0.00000E+00        -0.84729E+04
 
   -0.84482E+04         0.66834E+04         0.00000E+00
    0.66834E+04        -0.93928E+04         0.00000E+00
    0.00000E+00         0.00000E+00        -0.85245E+04
 
   -0.85306E+04         0.69210E+04         0.00000E+00
    0.69210E+04        -0.93807E+04         0.00000E+00
    0.00000E+00         0.00000E+00        -0.85552E+04
 
   -0.77617E+04        -0.24441E+03         0.00000E+00
   -0.24441E+03         0.56140E+02         0.00000E+00
    0.00000E+00         0.00000E+00        -0.24435E+04
 
   -0.96709E+04        -0.36119E+03         0.00000E+00
   -0.36119E+03         0.26244E+03         0.00000E+00
    0.00000E+00         0.00000E+00        -0.32146E+04
 
   -0.11626E+05         0.33680E+02         0.00000E+00
    0.33680E+02         0.49095E+03         0.00000E+00
    0.00000E+00         0.00000E+00        -0.39848E+04
 
   -0.13306E+05         0.85865E+03         0.00000E+00
    0.85865E+03         0.58948E+03         0.00000E+00
    0.00000E+00         0.00000E+00        -0.47014E+04
 
   -0.14506E+05         0.19507E+04         0.00000E+00
    0.19507E+04         0.47142E+03         0.00000E+00
    0.00000E+00         0.00000E+00        -0.53278E+04
 
   -0.15161E+05         0.31265E+04         0.00000E+00
    0.31265E+04         0.13313E+03         0.00000E+00
    0.00000E+00         0.00000E+00        -0.58438E+04
 
   -0.15303E+05         0.42495E+04         0.00000E+00
    0.42495E+04        -0.36776E+03         0.00000E+00
    0.00000E+00         0.00000E+00        -0.62415E+04
 
   -0.15035E+05         0.52297E+04         0.00000E+00
    0.52297E+04        -0.99441E+03         0.00000E+00
    0.00000E+00         0.00000E+00        -0.65400E+04
 
   -0.14488E+05         0.60189E+04         0.00000E+00
    0.60189E+04        -0.16899E+04         0.00000E+00
    0.00000E+00         0.00000E+00        -0.67611E+04
 
   -0.13789E+05         0.66252E+04         0.00000E+00
    0.66252E+04        -0.24346E+04         0.00000E+00
    0.00000E+00         0.00000E+00        -0.69376E+04
 
   -0.13015E+05         0.70650E+04         0.00000E+00
    0.70650E+04        -0.32171E+04         0.00000E+00
    0.00000E+00         0.00000E+00        -0.70891E+04
 
   -0.12227E+05         0.73425E+04         0.00000E+00
    0.73425E+04        -0.40225E+04         0.00000E+00
    0.00000E+00         0.00000E+00        -0.72300E+04
 
   -0.11472E+05         0.74814E+04         0.00000E+00
    0.74814E+04        -0.48102E+04         0.00000E+00
    0.00000E+00         0.00000E+00        -0.73621E+04
 
   -0.10764E+05         0.75138E+04         0.00000E+00
    0.75138E+04        -0.55687E+04         0.00000E+00
    0.00000E+00         0.00000E+00        -0.74874E+04
 
   -0.10113E+05         0.74421E+04         0.00000E+00
    0.74421E+04        -0.62739E+04         0.00000E+00
    0.00000E+00         0.00000E+00        -0.76016E+04
 
   -0.95516E+04         0.72852E+04         0.00000E+00
    0.72852E+04        -0.68959E+04         0.00000E+00
    0.00000E+00         0.00000E+00        -0.77065E+04
 
   -0.91029E+04         0.70825E+04         0.00000E+00
    0.70825E+04        -0.74179E+04         0.00000E+00
    0.00000E+00         0.00000E+00        -0.78043E+04
 
   -0.87691E+04         0.68709E+04         0.00000E+00
    0.68709E+04        -0.78388E+04         0.00000E+00
    0.00000E+00         0.00000E+00        -0.78957E+04
 
   -0.85410E+04         0.66828E+04         0.00000E+00
    0.66828E+04        -0.81601E+04         0.00000E+00
    0.00000E+00         0.00000E+00        -0.79788E+04
 
   -0.84015E+04         0.65480E+04         0.00000E+00
    0.65480E+04        -0.83914E+04         0.00000E+00
    0.00000E+00         0.00000E+00        -0.80518E+04
 
   -0.83271E+04         0.64891E+04         0.00000E+00
    0.64891E+04        -0.85484E+04         0.00000E+00
    0.00000E+00         0.00000E+00        -0.81126E+04
 
   -0.82912E+04         0.65228E+04         0.00000E+00
    0.65228E+04        -0.86479E+04         0.00000E+00
    0.00000E+00         0.00000E+00        -0.81585E+04
 
   -0.82659E+04         0.66610E+04         0.00000E+00
    0.66610E+04        -0.87078E+04         0.00000E+00
    0.00000E+00         0.00000E+00        -0.81866E+04
 
   -0.82223E+04         0.69120E+04         0.00000E+00
    0.69120E+04        -0.87467E+04         0.00000E+00
    0.00000E+00         0.00000E+00        -0.81940E+04
 
   -0.80274E+04        -0.12932E+03         0.00000E+00
   -0.12932E+03         0.39139E+02         0.00000E+00
    0.00000E+00         0.00000E+00        -0.25277E+04
 
   -0.95183E+04        -0.14266E+03         0.00000E+00
   -0.14266E+03         0.18709E+03         0.00000E+00
    0.00000E+00         0.00000E+00        -0.31894E+04
 
   -0.11059E+05         0.20186E+03         0.00000E+00
    0.20186E+03         0.35923E+03         0.00000E+00
    0.00000E+00         0.00000E+00        -0.38507E+04
 
   -0.12424E+05         0.86723E+03         0.00000E+00
    0.86723E+03         0.44111E+03         0.00000E+00
    0.00000E+00         0.00000E+00        -0.44763E+04
 
   -0.13457E+05         0.17535E+04         0.00000E+00
    0.17535E+04         0.36164E+03         0.00000E+00
    0.00000E+00         0.00000E+00        -0.50387E+04
 
   -0.14084E+05         0.27387E+04         0.00000E+00
    0.27387E+04         0.99693E+02         0.00000E+00
    0.00000E+00         0.00000E+00        -0.55209E+04
 
   -0.14308E+05         0.37101E+04         0.00000E+00
    0.37101E+04        -0.33036E+03         0.00000E+00
    0.00000E+00         0.00000E+00        -0.59189E+04
 
   -0.14188E+05         0.45841E+04         0.00000E+00
    0.45841E+04        -0.88982E+03         0.00000E+00
    0.00000E+00         0.00000E+00        -0.62380E+04
 
   -0.13815E+05         0.53124E+04         0.00000E+00
    0.53124E+04        -0.15377E+04         0.00000E+00
    0.00000E+00         0.00000E+00        -0.64932E+04
 
   -0.13282E+05         0.58824E+04         0.00000E+00
    0.58824E+04        -0.22346E+04         0.00000E+00
    0.00000E+00         0.00000E+00        -0.67003E+04
 
   -0.12663E+05         0.63018E+04         0.00000E+00
    0.63018E+04        -0.29557E+04         0.00000E+00
    0.00000E+00         0.00000E+00        -0.68749E+04
 
   -0.12014E+05         0.65850E+04         0.00000E+00
    0.65850E+04        -0.36780E+04         0.00000E+00
    0.00000E+00         0.00000E+00        -0.70270E+04
 
   -0.11372E+05         0.67520E+04         0.00000E+00
    0.67520E+04        -0.43823E+04         0.00000E+00
    0.00000E+00         0.00000E+00        -0.71628E+04
 
   -0.10760E+05         0.68233E+04         0.00000E+00
    0.68233E+04        -0.50523E+04         0.00000E+00
    0.00000E+00         0.00000E+00        -0.72846E+04
 
   -0.10193E+05         0.68136E+04         0.00000E+00
    0.68136E+04        -0.56744E+04         0.00000E+00
    0.00000E+00         0.00000E+00        -0.73938E+04
 
   -0.96904E+04         0.67402E+04         0.00000E+00
    0.67402E+04        -0.62308E+04         0.00000E+00
    0.00000E+00         0.00000E+00        -0.74914E+04
 
   -0.92669E+04         0.66292E+04         0.00000E+00
    0.66292E+04        -0.67086E+04         0.00000E+00
    0.00000E+00         0.00000E+00        -0.75785E+04
 
   -0.89267E+04         0.65094E+04         0.00000E+00
    0.65094E+04        -0.71033E+04         0.00000E+00
    0.00000E+00         0.00000E+00        -0.76555E+04
 
   -0.86639E+04         0.64078E+04         0.00000E+00
    0.64078E+04        -0.74174E+04         0.00000E+00
    0.00000E+00         0.00000E+00        -0.77220E+04
 
   -0.84659E+04         0.63481E+04         0.00000E+00
    0.63481E+04        -0.76582E+04         0.00000E+00
    0.00000E+00         0.00000E+00        -0.77768E+04
 
   -0.83145E+04         0.63499E+04         0.00000E+00
    0.63499E+04        -0.78370E+04         0.00000E+00
    0.00000E+00         0.00000E+00        -0.78181E+04
 
   -0.81880E+04         0.64281E+04         0.00000E+00
    0.64281E+04        -0.79677E+04         0.00000E+00
    0.00000E+00         0.00000E+00        -0.78440E+04
 
   -0.80625E+04         0.65939E+04         0.00000E+00
    0.65939E+04        -0.80657E+04         0.00000E+00
    0.00000E+00         0.00000E+00        -0.78520E+04
 
   -0.79124E+04         0.68546E+04         0.00000E+00
    0.68546E+04        -0.81472E+04         0.00000E+00
    0.00000E+00         0.00000E+00        -0.78396E+04
 
   -0.81362E+04        -0.50764E+02         0.00000E+00
   -0.50764E+02         0.25972E+02         0.00000E+00
    0.00000E+00         0.00000E+00        -0.25630E+04
 
   -0.93430E+04         0.11407E+02         0.00000E+00
    0.11407E+02         0.12569E+03         0.00000E+00
    0.00000E+00         0.00000E+00        -0.31513E+04
 
   -0.10586E+05         0.32396E+03         0.00000E+00
    0.32396E+03         0.24274E+03         0.00000E+00
    0.00000E+00         0.00000E+00        -0.37372E+04
 
   -0.11708E+05         0.87364E+03         0.00000E+00
    0.87364E+03         0.29526E+03         0.00000E+00
    0.00000E+00         0.00000E+00        -0.42962E+04
 
   -0.12593E+05         0.15997E+04         0.00000E+00
    0.15997E+04         0.22553E+03         0.00000E+00
    0.00000E+00         0.00000E+00        -0.48083E+04
 
   -0.13174E+05         0.24181E+04         0.00000E+00
    0.24181E+04         0.73799E+01         0.00000E+00
    0.00000E+00         0.00000E+00        -0.52606E+04
 
   -0.13441E+05         0.32445E+04         0.00000E+00
    0.32445E+04        -0.35573E+03         0.00000E+00
    0.00000E+00         0.00000E+00        -0.56480E+04
 
   -0.13428E+05         0.40099E+04         0.00000E+00
    0.40099E+04        -0.84043E+03         0.00000E+00
    0.00000E+00         0.00000E+00        -0.59726E+04
 
   -0.13191E+05         0.46694E+04         0.00000E+00
    0.46694E+04        -0.14122E+04         0.00000E+00
    0.00000E+00         0.00000E+00        -0.62417E+04
 
   -0.12800E+05         0.52039E+04         0.00000E+00
    0.52039E+04        -0.20368E+04         0.00000E+00
    0.00000E+00         0.00000E+00        -0.64651E+04
 
   -0.12314E+05         0.56126E+04         0.00000E+00
    0.56126E+04        -0.26847E+04         0.00000E+00
    0.00000E+00         0.00000E+00        -0.66527E+04
 
   -0.11782E+05         0.59060E+04         0.00000E+00
    0.59060E+04        -0.33331E+04         0.00000E+00
    0.00000E+00         0.00000E+00        -0.68128E+04
 
   -0.11238E+05         0.60996E+04         0.00000E+00
    0.60996E+04        -0.39641E+04         0.00000E+00
    0.00000E+00         0.00000E+00        -0.69509E+04
 
   -0.10707E+05         0.62101E+04         0.00000E+00
    0.62101E+04        -0.45638E+04         0.00000E+00
    0.00000E+00         0.00000E+00        -0.70709E+04
 
   -0.10206E+05         0.62533E+04         0.00000E+00
    0.62533E+04        -0.51203E+04         0.00000E+00
    0.00000E+00         0.00000E+00        -0.71751E+04
 
   -0.97496E+04         0.62461E+04         0.00000E+00
    0.62461E+04        -0.56223E+04         0.00000E+00
    0.00000E+00         0.00000E+00        -0.72651E+04
 
   -0.93473E+04         0.62088E+04         0.00000E+00
    0.62088E+04        -0.60610E+04         0.00000E+00
    0.00000E+00         0.00000E+00        -0.73422E+04
 
   -0.90030E+04         0.61637E+04         0.00000E+00
    0.61637E+04        -0.64327E+04         0.00000E+00
    0.00000E+00         0.00000E+00        -0.74068E+04
 
   -0.87131E+04         0.61324E+04         0.00000E+00
    0.61324E+04        -0.67388E+04         0.00000E+00
    0.00000E+00         0.00000E+00        -0.74590E+04
 
   -0.84681E+04         0.61346E+04         0.00000E+00
    0.61346E+04        -0.69850E+04         0.00000E+00
    0.00000E+00         0.00000E+00        -0.74980E+04
 
   -0.82537E+04         0.61867E+04         0.00000E+00
    0.61867E+04        -0.71803E+04         0.00000E+00
    0.00000E+00         0.00000E+00        -0.75227E+04
 
   -0.80519E+04         0.63018E+04         0.00000E+00
    0.63018E+04        -0.73360E+04         0.00000E+00
    0.00000E+00         0.00000E+00        -0.75314E+04
 
   -0.78425E+04         0.64896E+04         0.00000E+00
    0.64896E+04        -0.74654E+04         0.00000E+00
    0.00000E+00         0.00000E+00        -0.75224E+04
 
   -0.76032E+04         0.67567E+04         0.00000E+00
    0.67567E+04        -0.75825E+04         0.00000E+00
    0.00000E+00         0.00000E+00        -0.74931E+04
 
   -0.81391E+04        -0.31771E-02         0.00000E+00
   -0.31771E-02         0.16248E+02         0.00000E+00
    0.00000E+00         0.00000E+00        -0.25648E+04
 
   -0.91510E+04         0.11192E+03         0.00000E+00
    0.11192E+03         0.78615E+02         0.00000E+00
    0.00000E+00         0.00000E+00        -0.31022E+04
 
   -0.10180E+05         0.40084E+03         0.00000E+00
    0.40084E+03         0.14956E+03         0.00000E+00
    0.00000E+00         0.00000E+00        -0.36342E+04
 
   -0.11118E+05         0.86457E+03         0.00000E+00
    0.86457E+03         0.17147E+03         0.00000E+00
    0.00000E+00         0.00000E+00        -0.41435E+04
 
   -0.11879E+05         0.14659E+04         0.00000E+00
    0.14659E+04         0.99813E+02         0.00000E+00
    0.00000E+00         0.00000E+00        -0.46157E+04
 
   -0.12410E+05         0.21477E+04         0.00000E+00
    0.21477E+04        -0.89239E+02         0.00000E+00
    0.00000E+00         0.00000E+00        -0.50408E+04
 
   -0.12697E+05         0.28480E+04         0.00000E+00
    0.28480E+04        -0.39829E+03         0.00000E+00
    0.00000E+00         0.00000E+00        -0.54138E+04
 
   -0.12754E+05         0.35131E+04         0.00000E+00
    0.35131E+04        -0.81271E+03         0.00000E+00
    0.00000E+00         0.00000E+00        -0.57345E+04
 
   -0.12620E+05         0.41044E+04         0.00000E+00
    0.41044E+04        -0.13076E+04         0.00000E+00
    0.00000E+00         0.00000E+00        -0.60068E+04
 
   -0.12341E+05         0.46010E+04         0.00000E+00
    0.46010E+04        -0.18548E+04         0.00000E+00
    0.00000E+00         0.00000E+00        -0.62363E+04
 
   -0.11965E+05         0.49974E+04         0.00000E+00
    0.49974E+04        -0.24280E+04         0.00000E+00
    0.00000E+00         0.00000E+00        -0.64299E+04
 
   -0.11532E+05         0.52983E+04         0.00000E+00
    0.52983E+04        -0.30053E+04         0.00000E+00
    0.00000E+00         0.00000E+00        -0.65935E+04
 
   -0.11073E+05         0.55148E+04         0.00000E+00
    0.55148E+04        -0.35697E+04         0.00000E+00
    0.00000E+00         0.00000E+00        -0.67322E+04
 
   -0.10612E+05         0.56600E+04         0.00000E+00
    0.56600E+04        -0.41079E+04         0.00000E+00
    0.00000E+00         0.00000E+00        -0.68497E+04
 
   -0.10165E+05         0.57484E+04         0.00000E+00
    0.57484E+04        -0.46095E+04         0.00000E+00
    0.00000E+00         0.00000E+00        -0.69489E+04
 
   -0.97451E+04         0.57954E+04         0.00000E+00
    0.57954E+04        -0.50658E+04         0.00000E+00
    0.00000E+00         0.00000E+00        -0.70316E+04
 
   -0.93602E+04         0.58176E+04         0.00000E+00
    0.58176E+04        -0.54706E+04         0.00000E+00
    0.00000E+00         0.00000E+00        -0.70994E+04
 
   -0.90133E+04         0.58329E+04         0.00000E+00
    0.58329E+04        -0.58213E+04         0.00000E+00
    0.00000E+00         0.00000E+00        -0.71530E+04
 
   -0.87021E+04         0.58589E+04         0.00000E+00
    0.58589E+04        -0.61188E+04         0.00000E+00
    0.00000E+00         0.00000E+00        -0.71926E+04
 
   -0.84192E+04         0.59116E+04         0.00000E+00
    0.59116E+04        -0.63676E+04         0.00000E+00
    0.00000E+00         0.00000E+00        -0.72181E+04
 
   -0.81532E+04         0.60048E+04         0.00000E+00
    0.60048E+04        -0.65751E+04         0.00000E+00
    0.00000E+00         0.00000E+00        -0.72285E+04
 
   -0.78893E+04         0.61497E+04         0.00000E+00
    0.61497E+04        -0.67508E+04         0.00000E+00
    0.00000E+00         0.00000E+00        -0.72227E+04
 
   -0.76103E+04         0.63546E+04         0.00000E+00
    0.63546E+04        -0.69057E+04         0.00000E+00
    0.00000E+00         0.00000E+00        -0.71991E+04
 
   -0.72968E+04         0.66250E+04         0.00000E+00
    0.66250E+04        -0.70521E+04         0.00000E+00
    0.00000E+00         0.00000E+00        -0.71558E+04
 
   -0.80753E+04         0.30513E+02         0.00000E+00
    0.30513E+02         0.93406E+01         0.00000E+00
    0.00000E+00         0.00000E+00        -0.25453E+04
 
   -0.89502E+04         0.17123E+03         0.00000E+00
    0.17123E+03         0.44354E+02         0.00000E+00
    0.00000E+00         0.00000E+00        -0.30453E+04
 
   -0.98234E+04         0.43960E+03         0.00000E+00
    0.43960E+03         0.79732E+02         0.00000E+00
    0.00000E+00         0.00000E+00        -0.35369E+04
 
   -0.10622E+05         0.83762E+03         0.00000E+00
    0.83762E+03         0.75659E+02         0.00000E+00
    0.00000E+00         0.00000E+00        -0.40080E+04
 
   -0.11284E+05         0.13423E+04         0.00000E+00
    0.13423E+04        -0.87349E+00         0.00000E+00
    0.00000E+00         0.00000E+00        -0.44479E+04
 
   -0.11768E+05         0.19146E+04         0.00000E+00
    0.19146E+04        -0.16967E+03         0.00000E+00
    0.00000E+00         0.00000E+00        -0.48485E+04
 
   -0.12058E+05         0.25101E+04         0.00000E+00
    0.25101E+04        -0.43547E+03         0.00000E+00
    0.00000E+00         0.00000E+00        -0.52055E+04
 
   -0.12161E+05         0.30875E+04         0.00000E+00
    0.30875E+04        -0.78982E+03         0.00000E+00
    0.00000E+00         0.00000E+00        -0.55176E+04
 
   -0.12100E+05         0.36151E+04         0.00000E+00
    0.36151E+04        -0.12152E+04         0.00000E+00
    0.00000E+00         0.00000E+00        -0.57865E+04
 
   -0.11908E+05         0.40732E+04         0.00000E+00
    0.40732E+04        -0.16899E+04         0.00000E+00
    0.00000E+00         0.00000E+00        -0.60159E+04
 
   -0.11620E+05         0.44537E+04         0.00000E+00
    0.44537E+04        -0.21920E+04         0.00000E+00
    0.00000E+00         0.00000E+00        -0.62100E+04
 
   -0.11269E+05         0.47575E+04         0.00000E+00
    0.47575E+04        -0.27025E+04         0.00000E+00
    0.00000E+00         0.00000E+00        -0.63735E+04
 
   -0.10882E+05         0.49912E+04         0.00000E+00
    0.49912E+04        -0.32053E+04         0.00000E+00
    0.00000E+00         0.00000E+00        -0.65106E+04
 
   -0.10480E+05         0.51650E+04         0.00000E+00
    0.51650E+04        -0.36882E+04         0.00000E+00
    0.00000E+00         0.00000E+00        -0.66247E+04
 
   -0.10078E+05         0.52909E+04         0.00000E+00
    0.52909E+04        -0.41416E+04         0.00000E+00
    0.00000E+00         0.00000E+00        -0.67185E+04
 
   -0.96888E+04         0.53820E+04         0.00000E+00
    0.53820E+04        -0.45581E+04         0.00000E+00
    0.00000E+00         0.00000E+00        -0.67943E+04
 
   -0.93185E+04         0.54523E+04         0.00000E+00
    0.54523E+04        -0.49331E+04         0.00000E+00
    0.00000E+00         0.00000E+00        -0.68535E+04
 
   -0.89701E+04         0.55165E+04         0.00000E+00
    0.55165E+04        -0.52644E+04         0.00000E+00
    0.00000E+00         0.00000E+00        -0.68972E+04
 
   -0.86421E+04         0.55888E+04         0.00000E+00
    0.55888E+04        -0.55530E+04         0.00000E+00
    0.00000E+00         0.00000E+00        -0.69258E+04
 
   -0.83287E+04         0.56823E+04         0.00000E+00
    0.56823E+04        -0.58024E+04         0.00000E+00
    0.00000E+00         0.00000E+00        -0.69394E+04
 
   -0.80207E+04         0.58085E+04         0.00000E+00
    0.58085E+04        -0.60187E+04         0.00000E+00
    0.00000E+00         0.00000E+00        -0.69376E+04
 
   -0.77059E+04         0.59769E+04         0.00000E+00
    0.59769E+04        -0.62098E+04         0.00000E+00
    0.00000E+00         0.00000E+00        -0.69194E+04
 
   -0.73695E+04         0.61944E+04         0.00000E+00
    0.61944E+04        -0.63852E+04         0.00000E+00
    0.00000E+00         0.00000E+00        -0.68837E+04
 
   -0.69951E+04         0.64656E+04         0.00000E+00
    0.64656E+04        -0.65556E+04         0.00000E+00
    0.00000E+00         0.00000E+00        -0.68287E+04
 
   -0.79736E+04         0.46886E+02         0.00000E+00
    0.46886E+02         0.46279E+01         0.00000E+00
    0.00000E+00         0.00000E+00        -0.25135E+04
 
   -0.87488E+04         0.20057E+03         0.00000E+00
    0.20057E+03         0.20514E+02         0.00000E+00
    0.00000E+00         0.00000E+00        -0.29838E+04
 
   -0.95074E+04         0.44916E+03         0.00000E+00
    0.44916E+03         0.30212E+02         0.00000E+00
    0.00000E+00         0.00000E+00        -0.34438E+04
 
   -0.10200E+05         0.79543E+03         0.00000E+00
    0.79543E+03         0.66210E+01         0.00000E+00
    0.00000E+00         0.00000E+00        -0.38843E+04
 
   -0.10783E+05         0.12247E+04         0.00000E+00
    0.12247E+04        -0.74116E+02         0.00000E+00
    0.00000E+00         0.00000E+00        -0.42970E+04
 
   -0.11224E+05         0.17103E+04         0.00000E+00
    0.17103E+04        -0.22754E+03         0.00000E+00
    0.00000E+00         0.00000E+00        -0.46757E+04
 
   -0.11509E+05         0.22201E+04         0.00000E+00
    0.22201E+04        -0.45879E+03         0.00000E+00
    0.00000E+00         0.00000E+00        -0.50163E+04
 
   -0.11639E+05         0.27229E+04         0.00000E+00
    0.27229E+04        -0.76319E+03         0.00000E+00
    0.00000E+00         0.00000E+00        -0.53172E+04
 
   -0.11629E+05         0.31935E+04         0.00000E+00
    0.31935E+04        -0.11287E+04         0.00000E+00
    0.00000E+00         0.00000E+00        -0.55792E+04
 
   -0.11502E+05         0.36143E+04         0.00000E+00
    0.36143E+04        -0.15391E+04         0.00000E+00
    0.00000E+00         0.00000E+00        -0.58041E+04
 
   -0.11283E+05         0.39765E+04         0.00000E+00
    0.39765E+04        -0.19770E+04         0.00000E+00
    0.00000E+00         0.00000E+00        -0.59953E+04
 
   -0.10999E+05         0.42784E+04         0.00000E+00
    0.42784E+04        -0.24263E+04         0.00000E+00
    0.00000E+00         0.00000E+00        -0.61559E+04
 
   -0.10671E+05         0.45236E+04         0.00000E+00
    0.45236E+04        -0.28729E+04         0.00000E+00
    0.00000E+00         0.00000E+00        -0.62895E+04
 
   -0.10318E+05         0.47193E+04         0.00000E+00
    0.47193E+04        -0.33057E+04         0.00000E+00
    0.00000E+00         0.00000E+00        -0.63991E+04
 
   -0.99545E+04         0.48751E+04         0.00000E+00
    0.48751E+04        -0.37158E+04         0.00000E+00
    0.00000E+00         0.00000E+00        -0.64872E+04
 
   -0.95906E+04         0.50016E+04         0.00000E+00
    0.50016E+04        -0.40969E+04         0.00000E+00
    0.00000E+00         0.00000E+00        -0.65561E+04
 
   -0.92329E+04         0.51106E+04         0.00000E+00
    0.51106E+04        -0.44450E+04         0.00000E+00
    0.00000E+00         0.00000E+00        -0.66073E+04
 
   -0.88839E+04         0.52138E+04         0.00000E+00
    0.52138E+04        -0.47583E+04         0.00000E+00
    0.00000E+00         0.00000E+00        -0.66420E+04
 
   -0.85427E+04         0.53231E+04         0.00000E+00
    0.53231E+04        -0.50376E+04         0.00000E+00
    0.00000E+00         0.00000E+00        -0.66609E+04
 
   -0.82049E+04         0.54492E+04         0.00000E+00
    0.54492E+04        -0.52859E+04         0.00000E+00
    0.00000E+00         0.00000E+00        -0.66643E+04
 
   -0.78630E+04         0.56016E+04         0.00000E+00
    0.56016E+04        -0.55081E+04         0.00000E+00
    0.00000E+00         0.00000E+00        -0.66519E+04
 
   -0.75067E+04         0.57880E+04         0.00000E+00
    0.57880E+04        -0.57111E+04         0.00000E+00
    0.00000E+00         0.00000E+00        -0.66232E+04
 
   -0.71236E+04         0.60141E+04         0.00000E+00
    0.60141E+04        -0.59028E+04         0.00000E+00
    0.00000E+00         0.00000E+00        -0.65773E+04
 
   -0.66996E+04         0.62836E+04         0.00000E+00
    0.62836E+04        -0.60924E+04         0.00000E+00
    0.00000E+00         0.00000E+00        -0.65127E+04
 
   -0.78542E+04         0.53769E+02         0.00000E+00
    0.53769E+02         0.15420E+01         0.00000E+00
    0.00000E+00         0.00000E+00        -0.24755E+04
 
   -0.85531E+04         0.20921E+03         0.00000E+00
    0.20921E+03         0.46842E+01         0.00000E+00
    0.00000E+00         0.00000E+00        -0.29209E+04
 
   -0.92251E+04         0.43805E+03         0.00000E+00
    0.43805E+03        -0.30188E+01         0.00000E+00
    0.00000E+00         0.00000E+00        -0.33546E+04
 
   -0.98363E+04         0.74230E+03         0.00000E+00
    0.74230E+03        -0.39828E+02         0.00000E+00
    0.00000E+00         0.00000E+00        -0.37694E+04
 
   -0.10355E+05         0.11121E+04         0.00000E+00
    0.11121E+04        -0.12267E+03         0.00000E+00
    0.00000E+00         0.00000E+00        -0.41587E+04
 
   -0.10758E+05         0.15287E+04         0.00000E+00
    0.15287E+04        -0.26332E+03         0.00000E+00
    0.00000E+00         0.00000E+00        -0.45174E+04
 
   -0.11033E+05         0.19690E+04         0.00000E+00
    0.19690E+04        -0.46646E+03         0.00000E+00
    0.00000E+00         0.00000E+00        -0.48418E+04
 
   -0.11179E+05         0.24096E+04         0.00000E+00
    0.24096E+04        -0.72967E+03         0.00000E+00
    0.00000E+00         0.00000E+00        -0.51304E+04
 
   -0.11203E+05         0.28302E+04         0.00000E+00
    0.28302E+04        -0.10447E+04         0.00000E+00
    0.00000E+00         0.00000E+00        -0.53832E+04
 
   -0.11123E+05         0.32162E+04         0.00000E+00
    0.32162E+04        -0.13997E+04         0.00000E+00
    0.00000E+00         0.00000E+00        -0.56013E+04
 
   -0.10957E+05         0.35589E+04         0.00000E+00
    0.35589E+04        -0.17812E+04         0.00000E+00
    0.00000E+00         0.00000E+00        -0.57869E+04
 
   -0.10725E+05         0.38553E+04         0.00000E+00
    0.38553E+04        -0.21758E+04         0.00000E+00
    0.00000E+00         0.00000E+00        -0.59426E+04
 
   -0.10445E+05         0.41067E+04         0.00000E+00
    0.41067E+04        -0.25718E+04         0.00000E+00
    0.00000E+00         0.00000E+00        -0.60712E+04
 
   -0.10133E+05         0.43182E+04         0.00000E+00
    0.43182E+04        -0.29593E+04         0.00000E+00
    0.00000E+00         0.00000E+00        -0.61754E+04
 
   -0.98015E+04         0.44967E+04         0.00000E+00
    0.44967E+04        -0.33304E+04         0.00000E+00
    0.00000E+00         0.00000E+00        -0.62574E+04
 
   -0.94592E+04         0.46510E+04         0.00000E+00
    0.46510E+04        -0.36795E+04         0.00000E+00
    0.00000E+00         0.00000E+00        -0.63195E+04
 
   -0.91123E+04         0.47903E+04         0.00000E+00
    0.47903E+04        -0.40030E+04         0.00000E+00
    0.00000E+00         0.00000E+00        -0.63631E+04
 
   -0.87634E+04         0.49245E+04         0.00000E+00
    0.49245E+04        -0.42994E+04         0.00000E+00
    0.00000E+00         0.00000E+00        -0.63897E+04
 
   -0.84121E+04         0.50629E+04         0.00000E+00
    0.50629E+04        -0.45693E+04         0.00000E+00
    0.00000E+00         0.00000E+00        -0.63999E+04
 
   -0.80549E+04         0.52145E+04         0.00000E+00
    0.52145E+04        -0.48151E+04         0.00000E+00
    0.00000E+00         0.00000E+00        -0.63943E+04
 
   -0.76857E+04         0.53869E+04         0.00000E+00
    0.53869E+04        -0.50410E+04         0.00000E+00
    0.00000E+00         0.00000E+00        -0.63730E+04
 
   -0.72961E+04         0.55864E+04         0.00000E+00
    0.55864E+04        -0.52526E+04         0.00000E+00
    0.00000E+00         0.00000E+00        -0.63354E+04
 
   -0.68756E+04         0.58177E+04         0.00000E+00
    0.58177E+04        -0.54569E+04         0.00000E+00
    0.00000E+00         0.00000E+00        -0.62810E+04
 
   -0.64119E+04         0.60835E+04         0.00000E+00
    0.60835E+04        -0.56617E+04         0.00000E+00
    0.00000E+00         0.00000E+00        -0.62086E+04
 
   -0.77305E+04         0.54574E+02         0.00000E+00
    0.54574E+02        -0.37756E+00         0.00000E+00
    0.00000E+00         0.00000E+00        -0.24357E+04
 
   -0.83679E+04         0.20433E+03         0.00000E+00
    0.20433E+03        -0.52485E+01         0.00000E+00
    0.00000E+00         0.00000E+00        -0.28588E+04
 
   -0.89720E+04         0.41341E+03         0.00000E+00
    0.41341E+03        -0.23891E+02         0.00000E+00
    0.00000E+00         0.00000E+00        -0.32695E+04
 
   -0.95190E+04         0.68257E+03         0.00000E+00
    0.68257E+03        -0.68564E+02         0.00000E+00
    0.00000E+00         0.00000E+00        -0.36619E+04
 
   -0.99863E+04         0.10046E+04         0.00000E+00
    0.10046E+04        -0.15114E+03         0.00000E+00
    0.00000E+00         0.00000E+00        -0.40304E+04
 
   -0.10356E+05         0.13661E+04         0.00000E+00
    0.13661E+04        -0.28032E+03         0.00000E+00
    0.00000E+00         0.00000E+00        -0.43706E+04
 
   -0.10618E+05         0.17500E+04         0.00000E+00
    0.17500E+04        -0.46002E+03         0.00000E+00
    0.00000E+00         0.00000E+00        -0.46794E+04
 
   -0.10770E+05         0.21387E+04         0.00000E+00
    0.21387E+04        -0.68907E+03         0.00000E+00
    0.00000E+00         0.00000E+00        -0.49552E+04
 
   -0.10818E+05         0.25163E+04         0.00000E+00
    0.25163E+04        -0.96188E+03         0.00000E+00
    0.00000E+00         0.00000E+00        -0.51976E+04
 
   -0.10771E+05         0.28707E+04         0.00000E+00
    0.28707E+04        -0.12697E+04         0.00000E+00
    0.00000E+00         0.00000E+00        -0.54072E+04
 
   -0.10645E+05         0.31938E+04         0.00000E+00
    0.31938E+04        -0.16023E+04         0.00000E+00
    0.00000E+00         0.00000E+00        -0.55857E+04
 
   -0.10453E+05         0.34820E+04         0.00000E+00
    0.34820E+04        -0.19491E+04         0.00000E+00
    0.00000E+00         0.00000E+00        -0.57351E+04
 
   -0.10211E+05         0.37354E+04         0.00000E+00
    0.37354E+04        -0.23001E+04         0.00000E+00
    0.00000E+00         0.00000E+00        -0.58577E+04
 
   -0.99322E+04         0.39571E+04         0.00000E+00
    0.39571E+04        -0.26471E+04         0.00000E+00
    0.00000E+00         0.00000E+00        -0.59557E+04
 
   -0.96264E+04         0.41523E+04         0.00000E+00
    0.41523E+04        -0.29831E+04         0.00000E+00
    0.00000E+00         0.00000E+00        -0.60314E+04
 
   -0.93020E+04         0.43274E+04         0.00000E+00
    0.43274E+04        -0.33032E+04         0.00000E+00
    0.00000E+00         0.00000E+00        -0.60866E+04
 
   -0.89644E+04         0.44901E+04         0.00000E+00
    0.44901E+04        -0.36041E+04         0.00000E+00
    0.00000E+00         0.00000E+00        -0.61231E+04
 
   -0.86162E+04         0.46480E+04         0.00000E+00
    0.46480E+04        -0.38846E+04         0.00000E+00
    0.00000E+00         0.00000E+00        -0.61422E+04
 
   -0.82572E+04         0.48089E+04         0.00000E+00
    0.48089E+04        -0.41449E+04         0.00000E+00
    0.00000E+00         0.00000E+00        -0.61447E+04
 
   -0.78848E+04         0.49799E+04         0.00000E+00
    0.49799E+04        -0.43871E+04         0.00000E+00
    0.00000E+00         0.00000E+00        -0.61313E+04
 
   -0.74942E+04         0.51671E+04         0.00000E+00
    0.51671E+04        -0.46147E+04         0.00000E+00
    0.00000E+00         0.00000E+00        -0.61022E+04
 
   -0.70782E+04         0.53756E+04         0.00000E+00
    0.53756E+04        -0.48324E+04         0.00000E+00
    0.00000E+00         0.00000E+00        -0.60572E+04
 
   -0.66280E+04         0.56090E+04         0.00000E+00
    0.56090E+04        -0.50462E+04         0.00000E+00
    0.00000E+00         0.00000E+00        -0.59958E+04
 
   -0.61332E+04         0.58692E+04         0.00000E+00
    0.58692E+04        -0.52626E+04         0.00000E+00
    0.00000E+00         0.00000E+00        -0.59171E+04
 
   -0.76108E+04         0.51718E+02         0.00000E+00
    0.51718E+02        -0.14859E+01         0.00000E+00
    0.00000E+00         0.00000E+00        -0.23967E+04
 
   -0.81963E+04         0.19124E+03         0.00000E+00
    0.19124E+03        -0.10990E+02         0.00000E+00
    0.00000E+00         0.00000E+00        -0.27991E+04
 
   -0.87450E+04         0.38086E+03         0.00000E+00
    0.38086E+03        -0.35778E+02         0.00000E+00
    0.00000E+00         0.00000E+00        -0.31890E+04
 
   -0.92399E+04         0.62003E+03         0.00000E+00
    0.62003E+03        -0.84123E+02         0.00000E+00
    0.00000E+00         0.00000E+00        -0.35611E+04
 
   -0.96643E+04         0.90304E+03         0.00000E+00
    0.90304E+03        -0.16431E+03         0.00000E+00
    0.00000E+00         0.00000E+00        -0.39106E+04
 
   -0.10005E+05         0.12199E+04         0.00000E+00
    0.12199E+04        -0.28268E+03         0.00000E+00
    0.00000E+00         0.00000E+00        -0.42337E+04
 
   -0.10253E+05         0.15578E+04         0.00000E+00
    0.15578E+04        -0.44233E+03         0.00000E+00
    0.00000E+00         0.00000E+00        -0.45274E+04
 
   -0.10406E+05         0.19033E+04         0.00000E+00
    0.19033E+04        -0.64275E+03         0.00000E+00
    0.00000E+00         0.00000E+00        -0.47902E+04
 
   -0.10467E+05         0.22440E+04         0.00000E+00
    0.22440E+04        -0.88011E+03         0.00000E+00
    0.00000E+00         0.00000E+00        -0.50216E+04
 
   -0.10444E+05         0.25699E+04         0.00000E+00
    0.25699E+04        -0.11481E+04         0.00000E+00
    0.00000E+00         0.00000E+00        -0.52219E+04
 
   -0.10346E+05         0.28740E+04         0.00000E+00
    0.28740E+04        -0.14388E+04         0.00000E+00
    0.00000E+00         0.00000E+00        -0.53923E+04
 
   -0.10185E+05         0.31525E+04         0.00000E+00
    0.31525E+04        -0.17439E+04         0.00000E+00
    0.00000E+00         0.00000E+00        -0.55344E+04
 
   -0.99729E+04         0.34045E+04         0.00000E+00
    0.34045E+04        -0.20556E+04         0.00000E+00
    0.00000E+00         0.00000E+00        -0.56502E+04
 
   -0.97199E+04         0.36319E+04         0.00000E+00
    0.36319E+04        -0.23666E+04         0.00000E+00
    0.00000E+00         0.00000E+00        -0.57416E+04
 
   -0.94351E+04         0.38383E+04         0.00000E+00
    0.38383E+04        -0.26712E+04         0.00000E+00
    0.00000E+00         0.00000E+00        -0.58107E+04
 
   -0.91255E+04         0.40285E+04         0.00000E+00
    0.40285E+04        -0.29650E+04         0.00000E+00
    0.00000E+00         0.00000E+00        -0.58593E+04
 
   -0.87959E+04         0.42084E+04         0.00000E+00
    0.42084E+04        -0.32453E+04         0.00000E+00
    0.00000E+00         0.00000E+00        -0.58890E+04
 
   -0.84486E+04         0.43841E+04         0.00000E+00
    0.43841E+04        -0.35107E+04         0.00000E+00
    0.00000E+00         0.00000E+00        -0.59012E+04
 
   -0.80840E+04         0.45616E+04         0.00000E+00
    0.45616E+04        -0.37614E+04         0.00000E+00
    0.00000E+00         0.00000E+00        -0.58967E+04
 
   -0.77000E+04         0.47467E+04         0.00000E+00
    0.47467E+04        -0.39992E+04         0.00000E+00
    0.00000E+00         0.00000E+00        -0.58765E+04
 
   -0.72927E+04         0.49442E+04         0.00000E+00
    0.49442E+04        -0.42269E+04         0.00000E+00
    0.00000E+00         0.00000E+00        -0.58407E+04
 
   -0.68561E+04         0.51580E+04         0.00000E+00
    0.51580E+04        -0.44485E+04         0.00000E+00
    0.00000E+00         0.00000E+00        -0.57895E+04
 
   -0.63830E+04         0.53909E+04         0.00000E+00
    0.53909E+04        -0.46690E+04         0.00000E+00
    0.00000E+00         0.00000E+00        -0.57224E+04
 
   -0.58644E+04         0.56442E+04         0.00000E+00
    0.56442E+04        -0.48941E+04         0.00000E+00
    0.00000E+00         0.00000E+00        -0.56387E+04
 
   -0.75001E+04         0.46867E+02         0.00000E+00
    0.46867E+02        -0.20462E+01         0.00000E+00
    0.00000E+00         0.00000E+00        -0.23603E+04
 
   -0.80397E+04         0.17375E+03         0.00000E+00
    0.17375E+03        -0.13848E+02         0.00000E+00
    0.00000E+00         0.00000E+00        -0.27429E+04
 
   -0.85416E+04         0.34453E+03         0.00000E+00
    0.34453E+03        -0.41375E+02         0.00000E+00
    0.00000E+00         0.00000E+00        -0.31134E+04
 
   -0.89929E+04         0.55762E+03         0.00000E+00
    0.55762E+03        -0.90305E+02         0.00000E+00
    0.00000E+00         0.00000E+00        -0.34668E+04
 
   -0.93809E+04         0.80813E+03         0.00000E+00
    0.80813E+03        -0.16645E+03         0.00000E+00
    0.00000E+00         0.00000E+00        -0.37987E+04
 
   -0.96951E+04         0.10882E+04         0.00000E+00
    0.10882E+04        -0.27439E+03         0.00000E+00
    0.00000E+00         0.00000E+00        -0.41055E+04
 
   -0.99286E+04         0.13882E+04         0.00000E+00
    0.13882E+04        -0.41650E+03         0.00000E+00
    0.00000E+00         0.00000E+00        -0.43847E+04
 
   -0.10079E+05         0.16976E+04         0.00000E+00
    0.16976E+04        -0.59262E+03         0.00000E+00
    0.00000E+00         0.00000E+00        -0.46347E+04
 
   -0.10147E+05         0.20068E+04         0.00000E+00
    0.20068E+04        -0.80009E+03         0.00000E+00
    0.00000E+00         0.00000E+00        -0.48548E+04
 
   -0.10139E+05         0.23073E+04         0.00000E+00
    0.23073E+04        -0.10343E+04         0.00000E+00
    0.00000E+00         0.00000E+00        -0.50453E+04
 
   -0.10062E+05         0.25932E+04         0.00000E+00
    0.25932E+04        -0.12893E+04         0.00000E+00
    0.00000E+00         0.00000E+00        -0.52070E+04
 
   -0.99234E+04         0.28610E+04         0.00000E+00
    0.28610E+04        -0.15586E+04         0.00000E+00
    0.00000E+00         0.00000E+00        -0.53413E+04
 
   -0.97337E+04         0.31092E+04         0.00000E+00
    0.31092E+04        -0.18358E+04         0.00000E+00
    0.00000E+00         0.00000E+00        -0.54498E+04
 
   -0.95010E+04         0.33386E+04         0.00000E+00
    0.33386E+04        -0.21152E+04         0.00000E+00
    0.00000E+00         0.00000E+00        -0.55344E+04
 
   -0.92329E+04         0.35517E+04         0.00000E+00
    0.35517E+04        -0.23918E+04         0.00000E+00
    0.00000E+00         0.00000E+00        -0.55969E+04
 
   -0.89353E+04         0.37520E+04         0.00000E+00
    0.37520E+04        -0.26620E+04         0.00000E+00
    0.00000E+00         0.00000E+00        -0.56389E+04
 
   -0.86123E+04         0.39439E+04         0.00000E+00
    0.39439E+04        -0.29234E+04         0.00000E+00
    0.00000E+00         0.00000E+00        -0.56622E+04
 
   -0.82663E+04         0.41321E+04         0.00000E+00
    0.41321E+04        -0.31746E+04         0.00000E+00
    0.00000E+00         0.00000E+00        -0.56679E+04
 
   -0.78977E+04         0.43214E+04         0.00000E+00
    0.43214E+04        -0.34159E+04         0.00000E+00
    0.00000E+00         0.00000E+00        -0.56573E+04
 
   -0.75050E+04         0.45160E+04         0.00000E+00
    0.45160E+04        -0.36486E+04         0.00000E+00
    0.00000E+00         0.00000E+00        -0.56310E+04
 
   -0.70850E+04         0.47200E+04         0.00000E+00
    0.47200E+04        -0.38751E+04         0.00000E+00
    0.00000E+00         0.00000E+00        -0.55895E+04
 
   -0.66329E+04         0.49361E+04         0.00000E+00
    0.49361E+04        -0.40987E+04         0.00000E+00
    0.00000E+00         0.00000E+00        -0.55331E+04
 
   -0.61426E+04         0.51663E+04         0.00000E+00
    0.51663E+04        -0.43237E+04         0.00000E+00
    0.00000E+00         0.00000E+00        -0.54614E+04
 
   -0.56066E+04         0.54112E+04         0.00000E+00
    0.54112E+04        -0.45549E+04         0.00000E+00
    0.00000E+00         0.00000E+00        -0.53739E+04
 
   -0.74008E+04         0.41129E+02         0.00000E+00
    0.41129E+02        -0.22484E+01         0.00000E+00
    0.00000E+00         0.00000E+00        -0.23271E+04
 
   -0.78986E+04         0.15444E+03         0.00000E+00
    0.15444E+03        -0.14793E+02         0.00000E+00
    0.00000E+00         0.00000E+00        -0.26908E+04
 
   -0.83596E+04         0.30735E+03         0.00000E+00
    0.30735E+03        -0.42739E+02         0.00000E+00
    0.00000E+00         0.00000E+00        -0.30429E+04
 
   -0.87732E+04         0.49750E+03         0.00000E+00
    0.49750E+03        -0.90116E+02         0.00000E+00
    0.00000E+00         0.00000E+00        -0.33787E+04
 
   -0.91294E+04         0.72049E+03         0.00000E+00
    0.72049E+03        -0.16107E+03         0.00000E+00
    0.00000E+00         0.00000E+00        -0.36940E+04
 
   -0.94198E+04         0.96997E+03         0.00000E+00
    0.96997E+03        -0.25891E+03         0.00000E+00
    0.00000E+00         0.00000E+00        -0.39855E+04
 
   -0.96386E+04         0.12383E+04         0.00000E+00
    0.12383E+04        -0.38546E+03         0.00000E+00
    0.00000E+00         0.00000E+00        -0.42507E+04
 
   -0.97833E+04         0.15173E+04         0.00000E+00
    0.15173E+04        -0.54071E+03         0.00000E+00
    0.00000E+00         0.00000E+00        -0.44881E+04
 
   -0.98544E+04         0.17991E+04         0.00000E+00
    0.17991E+04        -0.72279E+03         0.00000E+00
    0.00000E+00         0.00000E+00        -0.46970E+04
 
   -0.98554E+04         0.20770E+04         0.00000E+00
    0.20770E+04        -0.92833E+03         0.00000E+00
    0.00000E+00         0.00000E+00        -0.48775E+04
 
   -0.97916E+04         0.23459E+04         0.00000E+00
    0.23459E+04        -0.11529E+04         0.00000E+00
    0.00000E+00         0.00000E+00        -0.50302E+04
 
   -0.96696E+04         0.26024E+04         0.00000E+00
    0.26024E+04        -0.13914E+04         0.00000E+00
    0.00000E+00         0.00000E+00        -0.51564E+04
 
   -0.94965E+04         0.28448E+04         0.00000E+00
    0.28448E+04        -0.16388E+04         0.00000E+00
    0.00000E+00         0.00000E+00        -0.52575E+04
 
   -0.92794E+04         0.30734E+04         0.00000E+00
    0.30734E+04        -0.18905E+04         0.00000E+00
    0.00000E+00         0.00000E+00        -0.53351E+04
 
   -0.90242E+04         0.32896E+04         0.00000E+00
    0.32896E+04        -0.21424E+04         0.00000E+00
    0.00000E+00         0.00000E+00        -0.53909E+04
 
   -0.87361E+04         0.34958E+04         0.00000E+00
    0.34958E+04        -0.23914E+04         0.00000E+00
    0.00000E+00         0.00000E+00        -0.54266E+04
 
   -0.84186E+04         0.36953E+04         0.00000E+00
    0.36953E+04        -0.26355E+04         0.00000E+00
    0.00000E+00         0.00000E+00        -0.54437E+04
 
   -0.80740E+04         0.38917E+04         0.00000E+00
    0.38917E+04        -0.28735E+04         0.00000E+00
    0.00000E+00         0.00000E+00        -0.54435E+04
 
   -0.77026E+04         0.40884E+04         0.00000E+00
    0.40884E+04        -0.31056E+04         0.00000E+00
    0.00000E+00         0.00000E+00        -0.54272E+04
 
   -0.73036E+04         0.42888E+04         0.00000E+00
    0.42888E+04        -0.33327E+04         0.00000E+00
    0.00000E+00         0.00000E+00        -0.53957E+04
 
   -0.68744E+04         0.44959E+04         0.00000E+00
    0.44959E+04        -0.35570E+04         0.00000E+00
    0.00000E+00         0.00000E+00        -0.53493E+04
 
   -0.64111E+04         0.47116E+04         0.00000E+00
    0.47116E+04        -0.37811E+04         0.00000E+00
    0.00000E+00         0.00000E+00        -0.52886E+04
 
   -0.59084E+04         0.49372E+04         0.00000E+00
    0.49372E+04        -0.40087E+04         0.00000E+00
    0.00000E+00         0.00000E+00        -0.52133E+04
 
   -0.53603E+04         0.51729E+04         0.00000E+00
    0.51729E+04        -0.42439E+04         0.00000E+00
    0.00000E+00         0.00000E+00        -0.51230E+04
 
   -0.73138E+04         0.35218E+02         0.00000E+00
    0.35218E+02        -0.22259E+01         0.00000E+00
    0.00000E+00         0.00000E+00        -0.22977E+04
 
   -0.77729E+04         0.13502E+03         0.00000E+00
    0.13502E+03        -0.14521E+02         0.00000E+00
    0.00000E+00         0.00000E+00        -0.26431E+04
 
   -0.81970E+04         0.27126E+03         0.00000E+00
    0.27126E+03        -0.41388E+02         0.00000E+00
    0.00000E+00         0.00000E+00        -0.29777E+04
 
   -0.85772E+04         0.44109E+03         0.00000E+00
    0.44109E+03        -0.85835E+02         0.00000E+00
    0.00000E+00         0.00000E+00        -0.32968E+04
 
   -0.89051E+04         0.64043E+03         0.00000E+00
    0.64043E+03        -0.15090E+03         0.00000E+00
    0.00000E+00         0.00000E+00        -0.35964E+04
 
   -0.91735E+04         0.86397E+03         0.00000E+00
    0.86397E+03        -0.23905E+03         0.00000E+00
    0.00000E+00         0.00000E+00        -0.38733E+04
 
   -0.93776E+04         0.11055E+04         0.00000E+00
    0.11055E+04        -0.35166E+03         0.00000E+00
    0.00000E+00         0.00000E+00        -0.41250E+04
 
   -0.95147E+04         0.13585E+04         0.00000E+00
    0.13585E+04        -0.48880E+03         0.00000E+00
    0.00000E+00         0.00000E+00        -0.43502E+04
 
   -0.95851E+04         0.16166E+04         0.00000E+00
    0.16166E+04        -0.64918E+03         0.00000E+00
    0.00000E+00         0.00000E+00        -0.45480E+04
 
   -0.95907E+04         0.18743E+04         0.00000E+00
    0.18743E+04        -0.83031E+03         0.00000E+00
    0.00000E+00         0.00000E+00        -0.47185E+04
 
   -0.95355E+04         0.21272E+04         0.00000E+00
    0.21272E+04        -0.10288E+04         0.00000E+00
    0.00000E+00         0.00000E+00        -0.48622E+04
 
   -0.94246E+04         0.23721E+04         0.00000E+00
    0.23721E+04        -0.12409E+04         0.00000E+00
    0.00000E+00         0.00000E+00        -0.49802E+04
 
   -0.92635E+04         0.26075E+04         0.00000E+00
    0.26075E+04        -0.14626E+04         0.00000E+00
    0.00000E+00         0.00000E+00        -0.50737E+04
 
   -0.90578E+04         0.28329E+04         0.00000E+00
    0.28329E+04        -0.16901E+04         0.00000E+00
    0.00000E+00         0.00000E+00        -0.51443E+04
 
   -0.88125E+04         0.30491E+04         0.00000E+00
    0.30491E+04        -0.19202E+04         0.00000E+00
    0.00000E+00         0.00000E+00        -0.51936E+04
 
   -0.85318E+04         0.32579E+04         0.00000E+00
    0.32579E+04        -0.21503E+04         0.00000E+00
    0.00000E+00         0.00000E+00        -0.52232E+04
 
   -0.82188E+04         0.34613E+04         0.00000E+00
    0.34613E+04        -0.23787E+04         0.00000E+00
    0.00000E+00         0.00000E+00        -0.52345E+04
 
   -0.78755E+04         0.36621E+04         0.00000E+00
    0.36621E+04        -0.26045E+04         0.00000E+00
    0.00000E+00         0.00000E+00        -0.52288E+04
 
   -0.75026E+04         0.38627E+04         0.00000E+00
    0.38627E+04        -0.28277E+04         0.00000E+00
    0.00000E+00         0.00000E+00        -0.52074E+04
 
   -0.70993E+04         0.40657E+04         0.00000E+00
    0.40657E+04        -0.30490E+04         0.00000E+00
    0.00000E+00         0.00000E+00        -0.51712E+04
 
   -0.66636E+04         0.42730E+04         0.00000E+00
    0.42730E+04        -0.32703E+04         0.00000E+00
    0.00000E+00         0.00000E+00        -0.51207E+04
 
   -0.61925E+04         0.44861E+04         0.00000E+00
    0.44861E+04        -0.34937E+04         0.00000E+00
    0.00000E+00         0.00000E+00        -0.50564E+04
 
   -0.56817E+04         0.47056E+04         0.00000E+00
    0.47056E+04        -0.37223E+04         0.00000E+00
    0.00000E+00         0.00000E+00        -0.49782E+04
 
   -0.51260E+04         0.49312E+04         0.00000E+00
    0.49312E+04        -0.39596E+04         0.00000E+00
    0.00000E+00         0.00000E+00        -0.48860E+04
 
   -0.72390E+04         0.29572E+02         0.00000E+00
    0.29572E+02        -0.20711E+01         0.00000E+00
    0.00000E+00         0.00000E+00        -0.22719E+04
 
   -0.76617E+04         0.11657E+03         0.00000E+00
    0.11657E+03        -0.13524E+02         0.00000E+00
    0.00000E+00         0.00000E+00        -0.25998E+04
 
   -0.80520E+04         0.23749E+03         0.00000E+00
    0.23749E+03        -0.38415E+02         0.00000E+00
    0.00000E+00         0.00000E+00        -0.29177E+04
 
   -0.84019E+04         0.38926E+03         0.00000E+00
    0.38926E+03        -0.79137E+02         0.00000E+00
    0.00000E+00         0.00000E+00        -0.32209E+04
 
   -0.87039E+04         0.56804E+03         0.00000E+00
    0.56804E+03        -0.13803E+03         0.00000E+00
    0.00000E+00         0.00000E+00        -0.35055E+04
 
   -0.89518E+04         0.76928E+03         0.00000E+00
    0.76928E+03        -0.21696E+03         0.00000E+00
    0.00000E+00         0.00000E+00        -0.37685E+04
 
   -0.91412E+04         0.98784E+03         0.00000E+00
    0.98784E+03        -0.31704E+03         0.00000E+00
    0.00000E+00         0.00000E+00        -0.40073E+04
 
   -0.92695E+04         0.12184E+04         0.00000E+00
    0.12184E+04        -0.43838E+03         0.00000E+00
    0.00000E+00         0.00000E+00        -0.42206E+04
 
   -0.93365E+04         0.14556E+04         0.00000E+00
    0.14556E+04        -0.58008E+03         0.00000E+00
    0.00000E+00         0.00000E+00        -0.44077E+04
 
   -0.93434E+04         0.16951E+04         0.00000E+00
    0.16951E+04        -0.74034E+03         0.00000E+00
    0.00000E+00         0.00000E+00        -0.45683E+04
 
   -0.92930E+04         0.19329E+04         0.00000E+00
    0.19329E+04        -0.91664E+03         0.00000E+00
    0.00000E+00         0.00000E+00        -0.47031E+04
 
   -0.91892E+04         0.21662E+04         0.00000E+00
    0.21662E+04        -0.11060E+04         0.00000E+00
    0.00000E+00         0.00000E+00        -0.48129E+04
 
   -0.90363E+04         0.23935E+04         0.00000E+00
    0.23935E+04        -0.13055E+04         0.00000E+00
    0.00000E+00         0.00000E+00        -0.48990E+04
 
   -0.88388E+04         0.26140E+04         0.00000E+00
    0.26140E+04        -0.15120E+04         0.00000E+00
    0.00000E+00         0.00000E+00        -0.49627E+04
 
   -0.86007E+04         0.28279E+04         0.00000E+00
    0.28279E+04        -0.17229E+04         0.00000E+00
    0.00000E+00         0.00000E+00        -0.50056E+04
 
   -0.83256E+04         0.30364E+04         0.00000E+00
    0.30364E+04        -0.19363E+04         0.00000E+00
    0.00000E+00         0.00000E+00        -0.50293E+04
 
   -0.80163E+04         0.32407E+04         0.00000E+00
    0.32407E+04        -0.21505E+04         0.00000E+00
    0.00000E+00         0.00000E+00        -0.50351E+04
 
   -0.76744E+04         0.34428E+04         0.00000E+00
    0.34428E+04        -0.23650E+04         0.00000E+00
    0.00000E+00         0.00000E+00        -0.50244E+04
 
   -0.73007E+04         0.36443E+04         0.00000E+00
    0.36443E+04        -0.25796E+04         0.00000E+00
    0.00000E+00         0.00000E+00        -0.49984E+04
 
   -0.68947E+04         0.38471E+04         0.00000E+00
    0.38471E+04        -0.27950E+04         0.00000E+00
    0.00000E+00         0.00000E+00        -0.49580E+04
 
   -0.64551E+04         0.40524E+04         0.00000E+00
    0.40524E+04        -0.30126E+04         0.00000E+00
    0.00000E+00         0.00000E+00        -0.49040E+04
 
   -0.59792E+04         0.42610E+04         0.00000E+00
    0.42610E+04        -0.32344E+04         0.00000E+00
    0.00000E+00         0.00000E+00        -0.48368E+04
 
   -0.54636E+04         0.44731E+04         0.00000E+00
    0.44731E+04        -0.34628E+04         0.00000E+00
    0.00000E+00         0.00000E+00        -0.47565E+04
 
   -0.49041E+04         0.46879E+04         0.00000E+00
    0.46879E+04        -0.37006E+04         0.00000E+00
    0.00000E+00         0.00000E+00        -0.46629E+04
 
   -0.71754E+04         0.24434E+02         0.00000E+00
    0.24434E+02        -0.18465E+01         0.00000E+00
    0.00000E+00         0.00000E+00        -0.22496E+04
 
   -0.75638E+04         0.99688E+02         0.00000E+00
    0.99688E+02        -0.12142E+02         0.00000E+00
    0.00000E+00         0.00000E+00        -0.25608E+04
 
   -0.79228E+04         0.20672E+03         0.00000E+00
    0.20672E+03        -0.34586E+02         0.00000E+00
    0.00000E+00         0.00000E+00        -0.28627E+04
 
   -0.82448E+04         0.34240E+03         0.00000E+00
    0.34240E+03        -0.71217E+02         0.00000E+00
    0.00000E+00         0.00000E+00        -0.31508E+04
 
   -0.85228E+04         0.50315E+03         0.00000E+00
    0.50315E+03        -0.12393E+03         0.00000E+00
    0.00000E+00         0.00000E+00        -0.34213E+04
 
   -0.87513E+04         0.68499E+03         0.00000E+00
    0.68499E+03        -0.19425E+03         0.00000E+00
    0.00000E+00         0.00000E+00        -0.36709E+04
 
   -0.89261E+04         0.88355E+03         0.00000E+00
    0.88355E+03        -0.28306E+03         0.00000E+00
    0.00000E+00         0.00000E+00        -0.38974E+04
 
   -0.90448E+04         0.10944E+04         0.00000E+00
    0.10944E+04        -0.39056E+03         0.00000E+00
    0.00000E+00         0.00000E+00        -0.40993E+04
 
   -0.91066E+04         0.13131E+04         0.00000E+00
    0.13131E+04        -0.51613E+03         0.00000E+00
    0.00000E+00         0.00000E+00        -0.42758E+04
 
   -0.91122E+04         0.15359E+04         0.00000E+00
    0.15359E+04        -0.65847E+03         0.00000E+00
    0.00000E+00         0.00000E+00        -0.44269E+04
 
   -0.90637E+04         0.17595E+04         0.00000E+00
    0.17595E+04        -0.81572E+03         0.00000E+00
    0.00000E+00         0.00000E+00        -0.45529E+04
 
   -0.89639E+04         0.19813E+04         0.00000E+00
    0.19813E+04        -0.98564E+03         0.00000E+00
    0.00000E+00         0.00000E+00        -0.46548E+04
 
   -0.88162E+04         0.21997E+04         0.00000E+00
    0.21997E+04        -0.11659E+04         0.00000E+00
    0.00000E+00         0.00000E+00        -0.47335E+04
 
   -0.86242E+04         0.24139E+04         0.00000E+00
    0.24139E+04        -0.13541E+04         0.00000E+00
    0.00000E+00         0.00000E+00        -0.47906E+04
 
   -0.83912E+04         0.26237E+04         0.00000E+00
    0.26237E+04        -0.15483E+04         0.00000E+00
    0.00000E+00         0.00000E+00        -0.48273E+04
 
   -0.81203E+04         0.28295E+04         0.00000E+00
    0.28295E+04        -0.17468E+04         0.00000E+00
    0.00000E+00         0.00000E+00        -0.48453E+04
 
   -0.78138E+04         0.30322E+04         0.00000E+00
    0.30322E+04        -0.19483E+04         0.00000E+00
    0.00000E+00         0.00000E+00        -0.48460E+04
 
   -0.74733E+04         0.32330E+04         0.00000E+00
    0.32330E+04        -0.21523E+04         0.00000E+00
    0.00000E+00         0.00000E+00        -0.48306E+04
 
   -0.70995E+04         0.34331E+04         0.00000E+00
    0.34331E+04        -0.23588E+04         0.00000E+00
    0.00000E+00         0.00000E+00        -0.48005E+04
 
   -0.66923E+04         0.36333E+04         0.00000E+00
    0.36333E+04        -0.25683E+04         0.00000E+00
    0.00000E+00         0.00000E+00        -0.47565E+04
 
   -0.62505E+04         0.38346E+04         0.00000E+00
    0.38346E+04        -0.27819E+04         0.00000E+00
    0.00000E+00         0.00000E+00        -0.46995E+04
 
   -0.57723E+04         0.40373E+04         0.00000E+00
    0.40373E+04        -0.30012E+04         0.00000E+00
    0.00000E+00         0.00000E+00        -0.46300E+04
 
   -0.52549E+04         0.42409E+04         0.00000E+00
    0.42409E+04        -0.32283E+04         0.00000E+00
    0.00000E+00         0.00000E+00        -0.45481E+04
 
   -0.46948E+04         0.44445E+04         0.00000E+00
    0.44445E+04        -0.34654E+04         0.00000E+00
    0.00000E+00         0.00000E+00        -0.44538E+04
 
   -0.71220E+04         0.19924E+02         0.00000E+00
    0.19924E+02        -0.15935E+01         0.00000E+00
    0.00000E+00         0.00000E+00        -0.22305E+04
 
   -0.74782E+04         0.84674E+02         0.00000E+00
    0.84674E+02        -0.10601E+02         0.00000E+00
    0.00000E+00         0.00000E+00        -0.25258E+04
 
   -0.78079E+04         0.17925E+03         0.00000E+00
    0.17925E+03        -0.30425E+02         0.00000E+00
    0.00000E+00         0.00000E+00        -0.28126E+04
 
   -0.81038E+04         0.30059E+03         0.00000E+00
    0.30059E+03        -0.62903E+02         0.00000E+00
    0.00000E+00         0.00000E+00        -0.30863E+04
 
   -0.83594E+04         0.44541E+03         0.00000E+00
    0.44541E+03        -0.10967E+03         0.00000E+00
    0.00000E+00         0.00000E+00        -0.33433E+04
 
   -0.85694E+04         0.61016E+03         0.00000E+00
    0.61016E+03        -0.17203E+03         0.00000E+00
    0.00000E+00         0.00000E+00        -0.35802E+04
 
   -0.87298E+04         0.79111E+03         0.00000E+00
    0.79111E+03        -0.25076E+03         0.00000E+00
    0.00000E+00         0.00000E+00        -0.37949E+04
 
   -0.88382E+04         0.98445E+03         0.00000E+00
    0.98445E+03        -0.34611E+03         0.00000E+00
    0.00000E+00         0.00000E+00        -0.39859E+04
 
   -0.88935E+04         0.11865E+04         0.00000E+00
    0.11865E+04        -0.45771E+03         0.00000E+00
    0.00000E+00         0.00000E+00        -0.41524E+04
 
   -0.88960E+04         0.13941E+04         0.00000E+00
    0.13941E+04        -0.58463E+03         0.00000E+00
    0.00000E+00         0.00000E+00        -0.42942E+04
 
   -0.88470E+04         0.16041E+04         0.00000E+00
    0.16041E+04        -0.72552E+03         0.00000E+00
    0.00000E+00         0.00000E+00        -0.44118E+04
 
   -0.87488E+04         0.18145E+04         0.00000E+00
    0.18145E+04        -0.87872E+03         0.00000E+00
    0.00000E+00         0.00000E+00        -0.45059E+04
 
   -0.86040E+04         0.20235E+04         0.00000E+00
    0.20235E+04        -0.10424E+04         0.00000E+00
    0.00000E+00         0.00000E+00        -0.45775E+04
 
   -0.84154E+04         0.22303E+04         0.00000E+00
    0.22303E+04        -0.12148E+04         0.00000E+00
    0.00000E+00         0.00000E+00        -0.46281E+04
 
   -0.81859E+04         0.24343E+04         0.00000E+00
    0.24343E+04        -0.13943E+04         0.00000E+00
    0.00000E+00         0.00000E+00        -0.46590E+04
 
   -0.79180E+04         0.26357E+04         0.00000E+00
    0.26357E+04        -0.15796E+04         0.00000E+00
    0.00000E+00         0.00000E+00        -0.46717E+04
 
   -0.76138E+04         0.28348E+04         0.00000E+00
    0.28348E+04        -0.17697E+04         0.00000E+00
    0.00000E+00         0.00000E+00        -0.46675E+04
 
   -0.72746E+04         0.30322E+04         0.00000E+00
    0.30322E+04        -0.19642E+04         0.00000E+00
    0.00000E+00         0.00000E+00        -0.46479E+04
 
   -0.69014E+04         0.32286E+04         0.00000E+00
    0.32286E+04        -0.21630E+04         0.00000E+00
    0.00000E+00         0.00000E+00        -0.46139E+04
 
   -0.64939E+04         0.34246E+04         0.00000E+00
    0.34246E+04        -0.23667E+04         0.00000E+00
    0.00000E+00         0.00000E+00        -0.45668E+04
 
   -0.60517E+04         0.36203E+04         0.00000E+00
    0.36203E+04        -0.25760E+04         0.00000E+00
    0.00000E+00         0.00000E+00        -0.45073E+04
 
   -0.55732E+04         0.38157E+04         0.00000E+00
    0.38157E+04        -0.27923E+04         0.00000E+00
    0.00000E+00         0.00000E+00        -0.44359E+04
 
   -0.50562E+04         0.40101E+04         0.00000E+00
    0.40101E+04        -0.30172E+04         0.00000E+00
    0.00000E+00         0.00000E+00        -0.43530E+04
 
   -0.44981E+04         0.42023E+04         0.00000E+00
    0.42023E+04        -0.32526E+04         0.00000E+00
    0.00000E+00         0.00000E+00        -0.42585E+04
 
   -0.70775E+04         0.16075E+02         0.00000E+00
    0.16075E+02        -0.13386E+01         0.00000E+00
    0.00000E+00         0.00000E+00        -0.22142E+04
 
   -0.74033E+04         0.71609E+02         0.00000E+00
    0.71609E+02        -0.90518E+01         0.00000E+00
    0.00000E+00         0.00000E+00        -0.24945E+04
 
   -0.77056E+04         0.15510E+03         0.00000E+00
    0.15510E+03        -0.26277E+02         0.00000E+00
    0.00000E+00         0.00000E+00        -0.27669E+04
 
   -0.79772E+04         0.26368E+03         0.00000E+00
    0.26368E+03        -0.54748E+02         0.00000E+00
    0.00000E+00         0.00000E+00        -0.30272E+04
 
   -0.82117E+04         0.39433E+03         0.00000E+00
    0.39433E+03        -0.95956E+02         0.00000E+00
    0.00000E+00         0.00000E+00        -0.32713E+04
 
   -0.84040E+04         0.54390E+03         0.00000E+00
    0.54390E+03        -0.15106E+03         0.00000E+00
    0.00000E+00         0.00000E+00        -0.34963E+04
 
   -0.85502E+04         0.70913E+03         0.00000E+00
    0.70913E+03        -0.22082E+03         0.00000E+00
    0.00000E+00         0.00000E+00        -0.36998E+04
 
   -0.86479E+04         0.88678E+03         0.00000E+00
    0.88678E+03        -0.30553E+03         0.00000E+00
    0.00000E+00         0.00000E+00        -0.38804E+04
 
   -0.86957E+04         0.10737E+04         0.00000E+00
    0.10737E+04        -0.40501E+03         0.00000E+00
    0.00000E+00         0.00000E+00        -0.40372E+04
 
   -0.86937E+04         0.12670E+04         0.00000E+00
    0.12670E+04        -0.51865E+03         0.00000E+00
    0.00000E+00         0.00000E+00        -0.41702E+04
 
   -0.86427E+04         0.14642E+04         0.00000E+00
    0.14642E+04        -0.64548E+03         0.00000E+00
    0.00000E+00         0.00000E+00        -0.42796E+04
 
   -0.85442E+04         0.16632E+04         0.00000E+00
    0.16632E+04        -0.78427E+03         0.00000E+00
    0.00000E+00         0.00000E+00        -0.43662E+04
 
   -0.84005E+04         0.18625E+04         0.00000E+00
    0.18625E+04        -0.93368E+03         0.00000E+00
    0.00000E+00         0.00000E+00        -0.44311E+04
 
   -0.82138E+04         0.20610E+04         0.00000E+00
    0.20610E+04        -0.10923E+04         0.00000E+00
    0.00000E+00         0.00000E+00        -0.44755E+04
 
   -0.79864E+04         0.22580E+04         0.00000E+00
    0.22580E+04        -0.12590E+04         0.00000E+00
    0.00000E+00         0.00000E+00        -0.45008E+04
 
   -0.77206E+04         0.24535E+04         0.00000E+00
    0.24535E+04        -0.14327E+04         0.00000E+00
    0.00000E+00         0.00000E+00        -0.45084E+04
 
   -0.74181E+04         0.26473E+04         0.00000E+00
    0.26473E+04        -0.16126E+04         0.00000E+00
    0.00000E+00         0.00000E+00        -0.44997E+04
 
   -0.70803E+04         0.28396E+04         0.00000E+00
    0.28396E+04        -0.17984E+04         0.00000E+00
    0.00000E+00         0.00000E+00        -0.44761E+04
 
   -0.67079E+04         0.30308E+04         0.00000E+00
    0.30308E+04        -0.19901E+04         0.00000E+00
    0.00000E+00         0.00000E+00        -0.44389E+04
 
   -0.63012E+04         0.32208E+04         0.00000E+00
    0.32208E+04        -0.21879E+04         0.00000E+00
    0.00000E+00         0.00000E+00        -0.43889E+04
 
   -0.58598E+04         0.34097E+04         0.00000E+00
    0.34097E+04        -0.23928E+04         0.00000E+00
    0.00000E+00         0.00000E+00        -0.43273E+04
 
   -0.53826E+04         0.35969E+04         0.00000E+00
    0.35969E+04        -0.26056E+04         0.00000E+00
    0.00000E+00         0.00000E+00        -0.42544E+04
 
   -0.48681E+04         0.37815E+04         0.00000E+00
    0.37815E+04        -0.28278E+04         0.00000E+00
    0.00000E+00         0.00000E+00        -0.41709E+04
 
   -0.43140E+04         0.39621E+04         0.00000E+00
    0.39621E+04        -0.30607E+04         0.00000E+00
    0.00000E+00         0.00000E+00        -0.40766E+04
 
   -0.70406E+04         0.12868E+02         0.00000E+00
    0.12868E+02        -0.10982E+01         0.00000E+00
    0.00000E+00         0.00000E+00        -0.22004E+04
 
   -0.73380E+04         0.60438E+02         0.00000E+00
    0.60438E+02        -0.75853E+01         0.00000E+00
    0.00000E+00         0.00000E+00        -0.24665E+04
 
   -0.76146E+04         0.13415E+03         0.00000E+00
    0.13415E+03        -0.22360E+02         0.00000E+00
    0.00000E+00         0.00000E+00        -0.27256E+04
 
   -0.78633E+04         0.23136E+03         0.00000E+00
    0.23136E+03        -0.47103E+02         0.00000E+00
    0.00000E+00         0.00000E+00        -0.29731E+04
 
   -0.80779E+04         0.34934E+03         0.00000E+00
    0.34934E+03        -0.83224E+02         0.00000E+00
    0.00000E+00         0.00000E+00        -0.32051E+04
 
   -0.82532E+04         0.48530E+03         0.00000E+00
    0.48530E+03        -0.13182E+03         0.00000E+00
    0.00000E+00         0.00000E+00        -0.34188E+04
 
   -0.83856E+04         0.63638E+03         0.00000E+00
    0.63638E+03        -0.19364E+03         0.00000E+00
    0.00000E+00         0.00000E+00        -0.36117E+04
 
   -0.84724E+04         0.79976E+03         0.00000E+00
    0.79976E+03        -0.26906E+03         0.00000E+00
    0.00000E+00         0.00000E+00        -0.37824E+04
 
   -0.85122E+04         0.97270E+03         0.00000E+00
    0.97270E+03        -0.35804E+03         0.00000E+00
    0.00000E+00         0.00000E+00        -0.39301E+04
 
   -0.85047E+04         0.11527E+04         0.00000E+00
    0.11527E+04        -0.46023E+03         0.00000E+00
    0.00000E+00         0.00000E+00        -0.40546E+04
 
   -0.84503E+04         0.13375E+04         0.00000E+00
    0.13375E+04        -0.57497E+03         0.00000E+00
    0.00000E+00         0.00000E+00        -0.41562E+04
 
   -0.83502E+04         0.15253E+04         0.00000E+00
    0.15253E+04        -0.70137E+03         0.00000E+00
    0.00000E+00         0.00000E+00        -0.42357E+04
 
   -0.82062E+04         0.17145E+04         0.00000E+00
    0.17145E+04        -0.83844E+03         0.00000E+00
    0.00000E+00         0.00000E+00        -0.42942E+04
 
   -0.80201E+04         0.19041E+04         0.00000E+00
    0.19041E+04        -0.98518E+03         0.00000E+00
    0.00000E+00         0.00000E+00        -0.43327E+04
 
   -0.77938E+04         0.20933E+04         0.00000E+00
    0.20933E+04        -0.11406E+04         0.00000E+00
    0.00000E+00         0.00000E+00        -0.43527E+04
 
   -0.75293E+04         0.22816E+04         0.00000E+00
    0.22816E+04        -0.13041E+04         0.00000E+00
    0.00000E+00         0.00000E+00        -0.43556E+04
 
   -0.72282E+04         0.24687E+04         0.00000E+00
    0.24687E+04        -0.14749E+04         0.00000E+00
    0.00000E+00         0.00000E+00        -0.43427E+04
 
   -0.68917E+04         0.26547E+04         0.00000E+00
    0.26547E+04        -0.16527E+04         0.00000E+00
    0.00000E+00         0.00000E+00        -0.43155E+04
 
   -0.65207E+04         0.28392E+04         0.00000E+00
    0.28392E+04        -0.18377E+04         0.00000E+00
    0.00000E+00         0.00000E+00        -0.42752E+04
 
   -0.61154E+04         0.30222E+04         0.00000E+00
    0.30222E+04        -0.20301E+04         0.00000E+00
    0.00000E+00         0.00000E+00        -0.42228E+04
 
   -0.56759E+04         0.32031E+04         0.00000E+00
    0.32031E+04        -0.22304E+04         0.00000E+00
    0.00000E+00         0.00000E+00        -0.41594E+04
 
   -0.52014E+04         0.33813E+04         0.00000E+00
    0.33813E+04        -0.24395E+04         0.00000E+00
    0.00000E+00         0.00000E+00        -0.40855E+04
 
   -0.46907E+04         0.35557E+04         0.00000E+00
    0.35557E+04        -0.26583E+04         0.00000E+00
    0.00000E+00         0.00000E+00        -0.40016E+04
 
   -0.41423E+04         0.37247E+04         0.00000E+00
    0.37247E+04        -0.28882E+04         0.00000E+00
    0.00000E+00         0.00000E+00        -0.39078E+04
 
   -0.70101E+04         0.10252E+02         0.00000E+00
    0.10252E+02        -0.88142E+00         0.00000E+00
    0.00000E+00         0.00000E+00        -0.21887E+04
 
   -0.72809E+04         0.51022E+02         0.00000E+00
    0.51022E+02        -0.62555E+01         0.00000E+00
    0.00000E+00         0.00000E+00        -0.24416E+04
 
   -0.75336E+04         0.11613E+03         0.00000E+00
    0.11613E+03        -0.18802E+02         0.00000E+00
    0.00000E+00         0.00000E+00        -0.26881E+04
 
   -0.77608E+04         0.20321E+03         0.00000E+00
    0.20321E+03        -0.40171E+02         0.00000E+00
    0.00000E+00         0.00000E+00        -0.29237E+04
 
   -0.79566E+04         0.30983E+03         0.00000E+00
    0.30983E+03        -0.71732E+02         0.00000E+00
    0.00000E+00         0.00000E+00        -0.31444E+04
 
   -0.81158E+04         0.43350E+03         0.00000E+00
    0.43350E+03        -0.11456E+03         0.00000E+00
    0.00000E+00         0.00000E+00        -0.33474E+04
 
   -0.82346E+04         0.57171E+03         0.00000E+00
    0.57171E+03        -0.16942E+03         0.00000E+00
    0.00000E+00         0.00000E+00        -0.35303E+04
 
   -0.83105E+04         0.72199E+03         0.00000E+00
    0.72199E+03        -0.23674E+03         0.00000E+00
    0.00000E+00         0.00000E+00        -0.36917E+04
 
   -0.83419E+04         0.88195E+03         0.00000E+00
    0.88195E+03        -0.31665E+03         0.00000E+00
    0.00000E+00         0.00000E+00        -0.38307E+04
 
   -0.83282E+04         0.10494E+04         0.00000E+00
    0.10494E+04        -0.40898E+03         0.00000E+00
    0.00000E+00         0.00000E+00        -0.39472E+04
 
   -0.82696E+04         0.12223E+04         0.00000E+00
    0.12223E+04        -0.51332E+03         0.00000E+00
    0.00000E+00         0.00000E+00        -0.40415E+04
 
   -0.81669E+04         0.13989E+04         0.00000E+00
    0.13989E+04        -0.62906E+03         0.00000E+00
    0.00000E+00         0.00000E+00        -0.41143E+04
 
   -0.80216E+04         0.15779E+04         0.00000E+00
    0.15779E+04        -0.75550E+03         0.00000E+00
    0.00000E+00         0.00000E+00        -0.41666E+04
 
   -0.78351E+04         0.17581E+04         0.00000E+00
    0.17581E+04        -0.89191E+03         0.00000E+00
    0.00000E+00         0.00000E+00        -0.41996E+04
 
   -0.76092E+04         0.19386E+04         0.00000E+00
    0.19386E+04        -0.10376E+04         0.00000E+00
    0.00000E+00         0.00000E+00        -0.42146E+04
 
   -0.73455E+04         0.21188E+04         0.00000E+00
    0.21188E+04        -0.11920E+04         0.00000E+00
    0.00000E+00         0.00000E+00        -0.42131E+04
 
   -0.70454E+04         0.22983E+04         0.00000E+00
    0.22983E+04        -0.13546E+04         0.00000E+00
    0.00000E+00         0.00000E+00        -0.41964E+04
 
   -0.67102E+04         0.24767E+04         0.00000E+00
    0.24767E+04        -0.15254E+04         0.00000E+00
    0.00000E+00         0.00000E+00        -0.41659E+04
 
   -0.63407E+04         0.26535E+04         0.00000E+00
    0.26535E+04        -0.17041E+04         0.00000E+00
    0.00000E+00         0.00000E+00        -0.41228E+04
 
   -0.59376E+04         0.28284E+04         0.00000E+00
    0.28284E+04        -0.18912E+04         0.00000E+00
    0.00000E+00         0.00000E+00        -0.40684E+04
 
   -0.55007E+04         0.30007E+04         0.00000E+00
    0.30007E+04        -0.20869E+04         0.00000E+00
    0.00000E+00         0.00000E+00        -0.40034E+04
 
   -0.50299E+04         0.31694E+04         0.00000E+00
    0.31694E+04        -0.22921E+04         0.00000E+00
    0.00000E+00         0.00000E+00        -0.39288E+04
 
   -0.45243E+04         0.33333E+04         0.00000E+00
    0.33333E+04        -0.25073E+04         0.00000E+00
    0.00000E+00         0.00000E+00        -0.38448E+04
 
   -0.39829E+04         0.34908E+04         0.00000E+00
    0.34908E+04        -0.27336E+04         0.00000E+00
    0.00000E+00         0.00000E+00        -0.37519E+04
 
   -0.69848E+04         0.81600E+01         0.00000E+00
    0.81600E+01        -0.69274E+00         0.00000E+00
    0.00000E+00         0.00000E+00        -0.21788E+04
 
   -0.72311E+04         0.43178E+02         0.00000E+00
    0.43178E+02        -0.50891E+01         0.00000E+00
    0.00000E+00         0.00000E+00        -0.24195E+04
 
   -0.74614E+04         0.10076E+03         0.00000E+00
    0.10076E+03        -0.15666E+02         0.00000E+00
    0.00000E+00         0.00000E+00        -0.26543E+04
 
   -0.76686E+04         0.17880E+03         0.00000E+00
    0.17880E+03        -0.34052E+02         0.00000E+00
    0.00000E+00         0.00000E+00        -0.28787E+04
 
   -0.78466E+04         0.27517E+03         0.00000E+00
    0.27517E+03        -0.61597E+02         0.00000E+00
    0.00000E+00         0.00000E+00        -0.30889E+04
 
   -0.79904E+04         0.38767E+03         0.00000E+00
    0.38767E+03        -0.99372E+02         0.00000E+00
    0.00000E+00         0.00000E+00        -0.32819E+04
 
   -0.80962E+04         0.51408E+03         0.00000E+00
    0.51408E+03        -0.14817E+03         0.00000E+00
    0.00000E+00         0.00000E+00        -0.34555E+04
 
   -0.81613E+04         0.65224E+03         0.00000E+00
    0.65224E+03        -0.20849E+03         0.00000E+00
    0.00000E+00         0.00000E+00        -0.36081E+04
 
   -0.81841E+04         0.80003E+03         0.00000E+00
    0.80003E+03        -0.28058E+03         0.00000E+00
    0.00000E+00         0.00000E+00        -0.37390E+04
 
   -0.81637E+04         0.95549E+03         0.00000E+00
    0.95549E+03        -0.36444E+03         0.00000E+00
    0.00000E+00         0.00000E+00        -0.38480E+04
 
   -0.81003E+04         0.11168E+04         0.00000E+00
    0.11168E+04        -0.45984E+03         0.00000E+00
    0.00000E+00         0.00000E+00        -0.39353E+04
 
   -0.79943E+04         0.12825E+04         0.00000E+00
    0.12825E+04        -0.56641E+03         0.00000E+00
    0.00000E+00         0.00000E+00        -0.40018E+04
 
   -0.78469E+04         0.14510E+04         0.00000E+00
    0.14510E+04        -0.68369E+03         0.00000E+00
    0.00000E+00         0.00000E+00        -0.40483E+04
 
   -0.76594E+04         0.16214E+04         0.00000E+00
    0.16214E+04        -0.81116E+03         0.00000E+00
    0.00000E+00         0.00000E+00        -0.40760E+04
 
   -0.74332E+04         0.17927E+04         0.00000E+00
    0.17927E+04        -0.94832E+03         0.00000E+00
    0.00000E+00         0.00000E+00        -0.40864E+04
 
   -0.71698E+04         0.19642E+04         0.00000E+00
    0.19642E+04        -0.10948E+04         0.00000E+00
    0.00000E+00         0.00000E+00        -0.40808E+04
 
   -0.68706E+04         0.21351E+04         0.00000E+00
    0.21351E+04        -0.12502E+04         0.00000E+00
    0.00000E+00         0.00000E+00        -0.40605E+04
 
   -0.65367E+04         0.23051E+04         0.00000E+00
    0.23051E+04        -0.14144E+04         0.00000E+00
    0.00000E+00         0.00000E+00        -0.40270E+04
 
   -0.61691E+04         0.24734E+04         0.00000E+00
    0.24734E+04        -0.15874E+04         0.00000E+00
    0.00000E+00         0.00000E+00        -0.39816E+04
 
   -0.57684E+04         0.26395E+04         0.00000E+00
    0.26395E+04        -0.17694E+04         0.00000E+00
    0.00000E+00         0.00000E+00        -0.39253E+04
 
   -0.53349E+04         0.28025E+04         0.00000E+00
    0.28025E+04        -0.19607E+04         0.00000E+00
    0.00000E+00         0.00000E+00        -0.38591E+04
 
   -0.48685E+04         0.29613E+04         0.00000E+00
    0.29613E+04        -0.21618E+04         0.00000E+00
    0.00000E+00         0.00000E+00        -0.37839E+04
 
   -0.43689E+04         0.31146E+04         0.00000E+00
    0.31146E+04        -0.23732E+04         0.00000E+00
    0.00000E+00         0.00000E+00        -0.37002E+04
 
   -0.38355E+04         0.32606E+04         0.00000E+00
    0.32606E+04        -0.25956E+04         0.00000E+00
    0.00000E+00         0.00000E+00        -0.36082E+04
 
   -0.69638E+04         0.65177E+01         0.00000E+00
    0.65177E+01        -0.53345E+00         0.00000E+00
    0.00000E+00         0.00000E+00        -0.21703E+04
 
   -0.71875E+04         0.36699E+02         0.00000E+00
    0.36699E+02        -0.40945E+01         0.00000E+00
    0.00000E+00         0.00000E+00        -0.23998E+04
 
   -0.73971E+04         0.87681E+02         0.00000E+00
    0.87681E+02        -0.12973E+02         0.00000E+00
    0.00000E+00         0.00000E+00        -0.26238E+04
 
   -0.75855E+04         0.15765E+03         0.00000E+00
    0.15765E+03        -0.28776E+02         0.00000E+00
    0.00000E+00         0.00000E+00        -0.28379E+04
 
   -0.77468E+04         0.24474E+03         0.00000E+00
    0.24474E+03        -0.52840E+02         0.00000E+00
    0.00000E+00         0.00000E+00        -0.30383E+04
 
   -0.78760E+04         0.34701E+03         0.00000E+00
    0.34701E+03        -0.86244E+02         0.00000E+00
    0.00000E+00         0.00000E+00        -0.32220E+04
 
   -0.79692E+04         0.46253E+03         0.00000E+00
    0.46253E+03        -0.12981E+03         0.00000E+00
    0.00000E+00         0.00000E+00        -0.33868E+04
 
   -0.80238E+04         0.58938E+03         0.00000E+00
    0.58938E+03        -0.18411E+03         0.00000E+00
    0.00000E+00         0.00000E+00        -0.35313E+04
 
   -0.80380E+04         0.72569E+03         0.00000E+00
    0.72569E+03        -0.24950E+03         0.00000E+00
    0.00000E+00         0.00000E+00        -0.36545E+04
 
   -0.80108E+04         0.86971E+03         0.00000E+00
    0.86971E+03        -0.32608E+03         0.00000E+00
    0.00000E+00         0.00000E+00        -0.37565E+04
 
   -0.79422E+04         0.10198E+04         0.00000E+00
    0.10198E+04        -0.41383E+03         0.00000E+00
    0.00000E+00         0.00000E+00        -0.38373E+04
 
   -0.78324E+04         0.11746E+04         0.00000E+00
    0.11746E+04        -0.51254E+03         0.00000E+00
    0.00000E+00         0.00000E+00        -0.38978E+04
 
   -0.76825E+04         0.13326E+04         0.00000E+00
    0.13326E+04        -0.62192E+03         0.00000E+00
    0.00000E+00         0.00000E+00        -0.39389E+04
 
   -0.74934E+04         0.14930E+04         0.00000E+00
    0.14930E+04        -0.74165E+03         0.00000E+00
    0.00000E+00         0.00000E+00        -0.39619E+04
 
   -0.72665E+04         0.16546E+04         0.00000E+00
    0.16546E+04        -0.87138E+03         0.00000E+00
    0.00000E+00         0.00000E+00        -0.39679E+04
 
   -0.70031E+04         0.18167E+04         0.00000E+00
    0.18167E+04        -0.10108E+04         0.00000E+00
    0.00000E+00         0.00000E+00        -0.39585E+04
 
   -0.67046E+04         0.19785E+04         0.00000E+00
    0.19785E+04        -0.11598E+04         0.00000E+00
    0.00000E+00         0.00000E+00        -0.39350E+04
 
   -0.63720E+04         0.21394E+04         0.00000E+00
    0.21394E+04        -0.13181E+04         0.00000E+00
    0.00000E+00         0.00000E+00        -0.38988E+04
 
   -0.60064E+04         0.22985E+04         0.00000E+00
    0.22985E+04        -0.14858E+04         0.00000E+00
    0.00000E+00         0.00000E+00        -0.38512E+04
 
   -0.56085E+04         0.24552E+04         0.00000E+00
    0.24552E+04        -0.16631E+04         0.00000E+00
    0.00000E+00         0.00000E+00        -0.37933E+04
 
   -0.51788E+04         0.26085E+04         0.00000E+00
    0.26085E+04        -0.18500E+04         0.00000E+00
    0.00000E+00         0.00000E+00        -0.37262E+04
 
   -0.47174E+04         0.27572E+04         0.00000E+00
    0.27572E+04        -0.20470E+04         0.00000E+00
    0.00000E+00         0.00000E+00        -0.36507E+04
 
   -0.42245E+04         0.28998E+04         0.00000E+00
    0.28998E+04        -0.22545E+04         0.00000E+00
    0.00000E+00         0.00000E+00        -0.35673E+04
 
   -0.36996E+04         0.30347E+04         0.00000E+00
    0.30347E+04        -0.24728E+04         0.00000E+00
    0.00000E+00         0.00000E+00        -0.34764E+04
 
   -0.69463E+04         0.52505E+01         0.00000E+00
    0.52505E+01        -0.40280E+00         0.00000E+00
    0.00000E+00         0.00000E+00        -0.21630E+04
 
   -0.71492E+04         0.31379E+02         0.00000E+00
    0.31379E+02        -0.32684E+01         0.00000E+00
    0.00000E+00         0.00000E+00        -0.23822E+04
 
   -0.73397E+04         0.76578E+02         0.00000E+00
    0.76578E+02        -0.10715E+02         0.00000E+00
    0.00000E+00         0.00000E+00        -0.25963E+04
 
   -0.75108E+04         0.13931E+03         0.00000E+00
    0.13931E+03        -0.24322E+02         0.00000E+00
    0.00000E+00         0.00000E+00        -0.28009E+04
 
   -0.76564E+04         0.21795E+03         0.00000E+00
    0.21795E+03        -0.45416E+02         0.00000E+00
    0.00000E+00         0.00000E+00        -0.29922E+04
 
   -0.77718E+04         0.31081E+03         0.00000E+00
    0.31081E+03        -0.75083E+02         0.00000E+00
    0.00000E+00         0.00000E+00        -0.31674E+04
 
   -0.78531E+04         0.41620E+03         0.00000E+00
    0.41620E+03        -0.11418E+03         0.00000E+00
    0.00000E+00         0.00000E+00        -0.33241E+04
 
   -0.78975E+04         0.53243E+03         0.00000E+00
    0.53243E+03        -0.16334E+03         0.00000E+00
    0.00000E+00         0.00000E+00        -0.34609E+04
 
   -0.79031E+04         0.65784E+03         0.00000E+00
    0.65784E+03        -0.22299E+03         0.00000E+00
    0.00000E+00         0.00000E+00        -0.35771E+04
 
   -0.78691E+04         0.79086E+03         0.00000E+00
    0.79086E+03        -0.29338E+03         0.00000E+00
    0.00000E+00         0.00000E+00        -0.36725E+04
 
   -0.77950E+04         0.93002E+03         0.00000E+00
    0.93002E+03        -0.37458E+03         0.00000E+00
    0.00000E+00         0.00000E+00        -0.37473E+04
 
   -0.76812E+04         0.10740E+04         0.00000E+00
    0.10740E+04        -0.46654E+03         0.00000E+00
    0.00000E+00         0.00000E+00        -0.38023E+04
 
   -0.75283E+04         0.12215E+04         0.00000E+00
    0.12215E+04        -0.56914E+03         0.00000E+00
    0.00000E+00         0.00000E+00        -0.38384E+04
 
   -0.73374E+04         0.13716E+04         0.00000E+00
    0.13716E+04        -0.68218E+03         0.00000E+00
    0.00000E+00         0.00000E+00        -0.38568E+04
 
   -0.71095E+04         0.15232E+04         0.00000E+00
    0.15232E+04        -0.80546E+03         0.00000E+00
    0.00000E+00         0.00000E+00        -0.38589E+04
 
   -0.68459E+04         0.16755E+04         0.00000E+00
    0.16755E+04        -0.93878E+03         0.00000E+00
    0.00000E+00         0.00000E+00        -0.38459E+04
 
   -0.65479E+04         0.18277E+04         0.00000E+00
    0.18277E+04        -0.10820E+04         0.00000E+00
    0.00000E+00         0.00000E+00        -0.38195E+04
 
   -0.62167E+04         0.19789E+04         0.00000E+00
    0.19789E+04        -0.12350E+04         0.00000E+00
    0.00000E+00         0.00000E+00        -0.37808E+04
 
   -0.58532E+04         0.21285E+04         0.00000E+00
    0.21285E+04        -0.13979E+04         0.00000E+00
    0.00000E+00         0.00000E+00        -0.37313E+04
 
   -0.54583E+04         0.22754E+04         0.00000E+00
    0.22754E+04        -0.15706E+04         0.00000E+00
    0.00000E+00         0.00000E+00        -0.36720E+04
 
   -0.50327E+04         0.24187E+04         0.00000E+00
    0.24187E+04        -0.17534E+04         0.00000E+00
    0.00000E+00         0.00000E+00        -0.36042E+04
 
   -0.45768E+04         0.25570E+04         0.00000E+00
    0.25570E+04        -0.19464E+04         0.00000E+00
    0.00000E+00         0.00000E+00        -0.35285E+04
 
   -0.40909E+04         0.26891E+04         0.00000E+00
    0.26891E+04        -0.21498E+04         0.00000E+00
    0.00000E+00         0.00000E+00        -0.34456E+04
 
   -0.35749E+04         0.28131E+04         0.00000E+00
    0.28131E+04        -0.23639E+04         0.00000E+00
    0.00000E+00         0.00000E+00        -0.33560E+04
 
   -0.69315E+04         0.42874E+01         0.00000E+00
    0.42874E+01        -0.29875E+00         0.00000E+00
    0.00000E+00         0.00000E+00        -0.21568E+04
 
   -0.71156E+04         0.27017E+02         0.00000E+00
    0.27017E+02        -0.26000E+01         0.00000E+00
    0.00000E+00         0.00000E+00        -0.23666E+04
 
   -0.72885E+04         0.67128E+02         0.00000E+00
    0.67128E+02        -0.88652E+01         0.00000E+00
    0.00000E+00         0.00000E+00        -0.25716E+04
 
   -0.74435E+04         0.12333E+03         0.00000E+00
    0.12333E+03        -0.20639E+02         0.00000E+00
    0.00000E+00         0.00000E+00        -0.27675E+04
 
   -0.75746E+04         0.19424E+03         0.00000E+00
    0.19424E+03        -0.39235E+02         0.00000E+00
    0.00000E+00         0.00000E+00        -0.29505E+04
 
   -0.76771E+04         0.27840E+03         0.00000E+00
    0.27840E+03        -0.65748E+02         0.00000E+00
    0.00000E+00         0.00000E+00        -0.31177E+04
 
   -0.77470E+04         0.37431E+03         0.00000E+00
    0.37431E+03        -0.10106E+03         0.00000E+00
    0.00000E+00         0.00000E+00        -0.32670E+04
 
   -0.77816E+04         0.48050E+03         0.00000E+00
    0.48050E+03        -0.14586E+03         0.00000E+00
    0.00000E+00         0.00000E+00        -0.33968E+04
 
   -0.77790E+04         0.59551E+03         0.00000E+00
    0.59551E+03        -0.20065E+03         0.00000E+00
    0.00000E+00         0.00000E+00        -0.35064E+04
 
   -0.77382E+04         0.71791E+03         0.00000E+00
    0.71791E+03        -0.26576E+03         0.00000E+00
    0.00000E+00         0.00000E+00        -0.35957E+04
 
   -0.76587E+04         0.84639E+03         0.00000E+00
    0.84639E+03        -0.34138E+03         0.00000E+00
    0.00000E+00         0.00000E+00        -0.36650E+04
 
   -0.75406E+04         0.97970E+03         0.00000E+00
    0.97970E+03        -0.42759E+03         0.00000E+00
    0.00000E+00         0.00000E+00        -0.37148E+04
 
   -0.73847E+04         0.11167E+04         0.00000E+00
    0.11167E+04        -0.52437E+03         0.00000E+00
    0.00000E+00         0.00000E+00        -0.37463E+04
 
   -0.71916E+04         0.12564E+04         0.00000E+00
    0.12564E+04        -0.63165E+03         0.00000E+00
    0.00000E+00         0.00000E+00        -0.37606E+04
 
   -0.69625E+04         0.13977E+04         0.00000E+00
    0.13977E+04        -0.74932E+03         0.00000E+00
    0.00000E+00         0.00000E+00        -0.37589E+04
 
   -0.66986E+04         0.15399E+04         0.00000E+00
    0.15399E+04        -0.87727E+03         0.00000E+00
    0.00000E+00         0.00000E+00        -0.37428E+04
 
   -0.64011E+04         0.16821E+04         0.00000E+00
    0.16821E+04        -0.10154E+04         0.00000E+00
    0.00000E+00         0.00000E+00        -0.37137E+04
 
   -0.60712E+04         0.18234E+04         0.00000E+00
    0.18234E+04        -0.11637E+04         0.00000E+00
    0.00000E+00         0.00000E+00        -0.36728E+04
 
   -0.57098E+04         0.19629E+04         0.00000E+00
    0.19629E+04        -0.13221E+04         0.00000E+00
    0.00000E+00         0.00000E+00        -0.36216E+04
 
   -0.53181E+04         0.20997E+04         0.00000E+00
    0.20997E+04        -0.14906E+04         0.00000E+00
    0.00000E+00         0.00000E+00        -0.35612E+04
 
   -0.48969E+04         0.22328E+04         0.00000E+00
    0.22328E+04        -0.16694E+04         0.00000E+00
    0.00000E+00         0.00000E+00        -0.34927E+04
 
   -0.44466E+04         0.23609E+04         0.00000E+00
    0.23609E+04        -0.18585E+04         0.00000E+00
    0.00000E+00         0.00000E+00        -0.34170E+04
 
   -0.39679E+04         0.24824E+04         0.00000E+00
    0.24824E+04        -0.20579E+04         0.00000E+00
    0.00000E+00         0.00000E+00        -0.33348E+04
 
   -0.34611E+04         0.25958E+04         0.00000E+00
    0.25958E+04        -0.22677E+04         0.00000E+00
    0.00000E+00         0.00000E+00        -0.32464E+04
 
   -0.69189E+04         0.35636E+01         0.00000E+00
    0.35636E+01        -0.21857E+00         0.00000E+00
    0.00000E+00         0.00000E+00        -0.21513E+04
 
   -0.70859E+04         0.23429E+02         0.00000E+00
    0.23429E+02        -0.20739E+01         0.00000E+00
    0.00000E+00         0.00000E+00        -0.23527E+04
 
   -0.72429E+04         0.59037E+02         0.00000E+00
    0.59037E+02        -0.73856E+01         0.00000E+00
    0.00000E+00         0.00000E+00        -0.25495E+04
 
   -0.73831E+04         0.10932E+03         0.00000E+00
    0.10932E+03        -0.17657E+02         0.00000E+00
    0.00000E+00         0.00000E+00        -0.27374E+04
 
   -0.75008E+04         0.17312E+03         0.00000E+00
    0.17312E+03        -0.34185E+02         0.00000E+00
    0.00000E+00         0.00000E+00        -0.29128E+04
 
   -0.75912E+04         0.24916E+03         0.00000E+00
    0.24916E+03        -0.58066E+02         0.00000E+00
    0.00000E+00         0.00000E+00        -0.30728E+04
 
   -0.76504E+04         0.33617E+03         0.00000E+00
    0.33617E+03        -0.90207E+02         0.00000E+00
    0.00000E+00         0.00000E+00        -0.32152E+04
 
   -0.76757E+04         0.43283E+03         0.00000E+00
    0.43283E+03        -0.13134E+03         0.00000E+00
    0.00000E+00         0.00000E+00        -0.33386E+04
 
   -0.76653E+04         0.53786E+03         0.00000E+00
    0.53786E+03        -0.18202E+03         0.00000E+00
    0.00000E+00         0.00000E+00        -0.34422E+04
 
   -0.76178E+04         0.64998E+03         0.00000E+00
    0.64998E+03        -0.24267E+03         0.00000E+00
    0.00000E+00         0.00000E+00        -0.35259E+04
 
   -0.75329E+04         0.76800E+03         0.00000E+00
    0.76800E+03        -0.31357E+03         0.00000E+00
    0.00000E+00         0.00000E+00        -0.35900E+04
 
   -0.74106E+04         0.89078E+03         0.00000E+00
    0.89078E+03        -0.39488E+03         0.00000E+00
    0.00000E+00         0.00000E+00        -0.36352E+04
 
   -0.72515E+04         0.10173E+04         0.00000E+00
    0.10173E+04        -0.48668E+03         0.00000E+00
    0.00000E+00         0.00000E+00        -0.36624E+04
 
   -0.70562E+04         0.11464E+04         0.00000E+00
    0.11464E+04        -0.58900E+03         0.00000E+00
    0.00000E+00         0.00000E+00        -0.36728E+04
 
   -0.68258E+04         0.12774E+04         0.00000E+00
    0.12774E+04        -0.70181E+03         0.00000E+00
    0.00000E+00         0.00000E+00        -0.36679E+04
 
   -0.65615E+04         0.14092E+04         0.00000E+00
    0.14092E+04        -0.82506E+03         0.00000E+00
    0.00000E+00         0.00000E+00        -0.36489E+04
 
   -0.62644E+04         0.15411E+04         0.00000E+00
    0.15411E+04        -0.95872E+03         0.00000E+00
    0.00000E+00         0.00000E+00        -0.36173E+04
 
   -0.59357E+04         0.16722E+04         0.00000E+00
    0.16722E+04        -0.11027E+04         0.00000E+00
    0.00000E+00         0.00000E+00        -0.35744E+04
 
   -0.55766E+04         0.18015E+04         0.00000E+00
    0.18015E+04        -0.12571E+04         0.00000E+00
    0.00000E+00         0.00000E+00        -0.35217E+04
 
   -0.51882E+04         0.19281E+04         0.00000E+00
    0.19281E+04        -0.14217E+04         0.00000E+00
    0.00000E+00         0.00000E+00        -0.34604E+04
 
   -0.47713E+04         0.20508E+04         0.00000E+00
    0.20508E+04        -0.15967E+04         0.00000E+00
    0.00000E+00         0.00000E+00        -0.33914E+04
 
   -0.43268E+04         0.21686E+04         0.00000E+00
    0.21686E+04        -0.17820E+04         0.00000E+00
    0.00000E+00         0.00000E+00        -0.33158E+04
 
   -0.38554E+04         0.22798E+04         0.00000E+00
    0.22798E+04        -0.19775E+04         0.00000E+00
    0.00000E+00         0.00000E+00        -0.32343E+04
 
   -0.33577E+04         0.23830E+04         0.00000E+00
    0.23830E+04        -0.21832E+04         0.00000E+00
    0.00000E+00         0.00000E+00        -0.31472E+04
 
   -0.69081E+04         0.30217E+01         0.00000E+00
    0.30217E+01        -0.15914E+00         0.00000E+00
    0.00000E+00         0.00000E+00        -0.21466E+04
 
   -0.70597E+04         0.20450E+02         0.00000E+00
    0.20450E+02        -0.16728E+01         0.00000E+00
    0.00000E+00         0.00000E+00        -0.23403E+04
 
   -0.72022E+04         0.52039E+02         0.00000E+00
    0.52039E+02        -0.62328E+01         0.00000E+00
    0.00000E+00         0.00000E+00        -0.25297E+04
 
   -0.73289E+04         0.96926E+02         0.00000E+00
    0.96926E+02        -0.15297E+02         0.00000E+00
    0.00000E+00         0.00000E+00        -0.27104E+04
 
   -0.74343E+04         0.15413E+03         0.00000E+00
    0.15413E+03        -0.30137E+02         0.00000E+00
    0.00000E+00         0.00000E+00        -0.28790E+04
 
   -0.75135E+04         0.22258E+03         0.00000E+00
    0.22258E+03        -0.51850E+02         0.00000E+00
    0.00000E+00         0.00000E+00        -0.30324E+04
 
   -0.75628E+04         0.30116E+03         0.00000E+00
    0.30116E+03        -0.81362E+02         0.00000E+00
    0.00000E+00         0.00000E+00        -0.31685E+04
 
   -0.75795E+04         0.38873E+03         0.00000E+00
    0.38873E+03        -0.11944E+03         0.00000E+00
    0.00000E+00         0.00000E+00        -0.32860E+04
 
   -0.75615E+04         0.48415E+03         0.00000E+00
    0.48415E+03        -0.16668E+03         0.00000E+00
    0.00000E+00         0.00000E+00        -0.33842E+04
 
   -0.75077E+04         0.58628E+03         0.00000E+00
    0.58628E+03        -0.22358E+03         0.00000E+00
    0.00000E+00         0.00000E+00        -0.34628E+04
 
   -0.74175E+04         0.69406E+03         0.00000E+00
    0.69406E+03        -0.29049E+03         0.00000E+00
    0.00000E+00         0.00000E+00        -0.35222E+04
 
   -0.72911E+04         0.80643E+03         0.00000E+00
    0.80643E+03        -0.36764E+03         0.00000E+00
    0.00000E+00         0.00000E+00        -0.35630E+04
 
   -0.71288E+04         0.92242E+03         0.00000E+00
    0.92242E+03        -0.45521E+03         0.00000E+00
    0.00000E+00         0.00000E+00        -0.35864E+04
 
   -0.69313E+04         0.10411E+04         0.00000E+00
    0.10411E+04        -0.55328E+03         0.00000E+00
    0.00000E+00         0.00000E+00        -0.35934E+04
 
   -0.66996E+04         0.11615E+04         0.00000E+00
    0.11615E+04        -0.66189E+03         0.00000E+00
    0.00000E+00         0.00000E+00        -0.35853E+04
 
   -0.64348E+04         0.12829E+04         0.00000E+00
    0.12829E+04        -0.78105E+03         0.00000E+00
    0.00000E+00         0.00000E+00        -0.35637E+04
 
   -0.61381E+04         0.14043E+04         0.00000E+00
    0.14043E+04        -0.91074E+03         0.00000E+00
    0.00000E+00         0.00000E+00        -0.35299E+04
 
   -0.58107E+04         0.15249E+04         0.00000E+00
    0.15249E+04        -0.10509E+04         0.00000E+00
    0.00000E+00         0.00000E+00        -0.34854E+04
 
   -0.54538E+04         0.16438E+04         0.00000E+00
    0.16438E+04        -0.12016E+04         0.00000E+00
    0.00000E+00         0.00000E+00        -0.34314E+04
 
   -0.50685E+04         0.17600E+04         0.00000E+00
    0.17600E+04        -0.13627E+04         0.00000E+00
    0.00000E+00         0.00000E+00        -0.33692E+04
 
   -0.46560E+04         0.18725E+04         0.00000E+00
    0.18725E+04        -0.15341E+04         0.00000E+00
    0.00000E+00         0.00000E+00        -0.32999E+04
 
   -0.42172E+04         0.19800E+04         0.00000E+00
    0.19800E+04        -0.17158E+04         0.00000E+00
    0.00000E+00         0.00000E+00        -0.32245E+04
 
   -0.37530E+04         0.20812E+04         0.00000E+00
    0.20812E+04        -0.19076E+04         0.00000E+00
    0.00000E+00         0.00000E+00        -0.31436E+04
 
   -0.32642E+04         0.21744E+04         0.00000E+00
    0.21744E+04        -0.21092E+04         0.00000E+00
    0.00000E+00         0.00000E+00        -0.30578E+04
 
   -0.68986E+04         0.26127E+01         0.00000E+00
    0.26127E+01        -0.11726E+00         0.00000E+00
    0.00000E+00         0.00000E+00        -0.21425E+04
 
   -0.70365E+04         0.17937E+02         0.00000E+00
    0.17937E+02        -0.13783E+01         0.00000E+00
    0.00000E+00         0.00000E+00        -0.23294E+04
 
   -0.71660E+04         0.45902E+02         0.00000E+00
    0.45902E+02        -0.53613E+01         0.00000E+00
    0.00000E+00         0.00000E+00        -0.25121E+04
 
   -0.72806E+04         0.85819E+02         0.00000E+00
    0.85819E+02        -0.13473E+02         0.00000E+00
    0.00000E+00         0.00000E+00        -0.26864E+04
 
   -0.73747E+04         0.13688E+03         0.00000E+00
    0.13688E+03        -0.26960E+02         0.00000E+00
    0.00000E+00         0.00000E+00        -0.28487E+04
 
   -0.74437E+04         0.19817E+03         0.00000E+00
    0.19817E+03        -0.46912E+02         0.00000E+00
    0.00000E+00         0.00000E+00        -0.29961E+04
 
   -0.74838E+04         0.26874E+03         0.00000E+00
    0.26874E+03        -0.74265E+02         0.00000E+00
    0.00000E+00         0.00000E+00        -0.31267E+04
 
   -0.74924E+04         0.34760E+03         0.00000E+00
    0.34760E+03        -0.10981E+03         0.00000E+00
    0.00000E+00         0.00000E+00        -0.32389E+04
 
   -0.74673E+04         0.43373E+03         0.00000E+00
    0.43373E+03        -0.15421E+03         0.00000E+00
    0.00000E+00         0.00000E+00        -0.33320E+04
 
   -0.74075E+04         0.52615E+03         0.00000E+00
    0.52615E+03        -0.20797E+03         0.00000E+00
    0.00000E+00         0.00000E+00        -0.34060E+04
 
   -0.73125E+04         0.62387E+03         0.00000E+00
    0.62387E+03        -0.27153E+03         0.00000E+00
    0.00000E+00         0.00000E+00        -0.34611E+04
 
   -0.71820E+04         0.72596E+03         0.00000E+00
    0.72596E+03        -0.34518E+03         0.00000E+00
    0.00000E+00         0.00000E+00        -0.34981E+04
 
   -0.70166E+04         0.83150E+03         0.00000E+00
    0.83150E+03        -0.42915E+03         0.00000E+00
    0.00000E+00         0.00000E+00        -0.35179E+04
 
   -0.68169E+04         0.93963E+03         0.00000E+00
    0.93963E+03        -0.52359E+03         0.00000E+00
    0.00000E+00         0.00000E+00        -0.35218E+04
 
   -0.65839E+04         0.10495E+04         0.00000E+00
    0.10495E+04        -0.62859E+03         0.00000E+00
    0.00000E+00         0.00000E+00        -0.35110E+04
 
   -0.63186E+04         0.11603E+04         0.00000E+00
    0.11603E+04        -0.74419E+03         0.00000E+00
    0.00000E+00         0.00000E+00        -0.34871E+04
 
   -0.60222E+04         0.12711E+04         0.00000E+00
    0.12711E+04        -0.87042E+03         0.00000E+00
    0.00000E+00         0.00000E+00        -0.34513E+04
 
   -0.56960E+04         0.13812E+04         0.00000E+00
    0.13812E+04        -0.10072E+04         0.00000E+00
    0.00000E+00         0.00000E+00        -0.34052E+04
 
   -0.53413E+04         0.14896E+04         0.00000E+00
    0.14896E+04        -0.11546E+04         0.00000E+00
    0.00000E+00         0.00000E+00        -0.33501E+04
 
   -0.49592E+04         0.15954E+04         0.00000E+00
    0.15954E+04        -0.13124E+04         0.00000E+00
    0.00000E+00         0.00000E+00        -0.32872E+04
 
   -0.45510E+04         0.16976E+04         0.00000E+00
    0.16976E+04        -0.14805E+04         0.00000E+00
    0.00000E+00         0.00000E+00        -0.32177E+04
 
   -0.41178E+04         0.17950E+04         0.00000E+00
    0.17950E+04        -0.16588E+04         0.00000E+00
    0.00000E+00         0.00000E+00        -0.31425E+04
 
   -0.36605E+04         0.18863E+04         0.00000E+00
    0.18863E+04        -0.18470E+04         0.00000E+00
    0.00000E+00         0.00000E+00        -0.30624E+04
 
   -0.31803E+04         0.19700E+04         0.00000E+00
    0.19700E+04        -0.20447E+04         0.00000E+00
    0.00000E+00         0.00000E+00        -0.29778E+04
 
   -0.68904E+04         0.22952E+01         0.00000E+00
    0.22952E+01        -0.89792E-01         0.00000E+00
    0.00000E+00         0.00000E+00        -0.21388E+04
 
   -0.70161E+04         0.15767E+02         0.00000E+00
    0.15767E+02        -0.11725E+01         0.00000E+00
    0.00000E+00         0.00000E+00        -0.23197E+04
 
   -0.71340E+04         0.40426E+02         0.00000E+00
    0.40426E+02        -0.47257E+01         0.00000E+00
    0.00000E+00         0.00000E+00        -0.24965E+04
 
   -0.72376E+04         0.75730E+02         0.00000E+00
    0.75730E+02        -0.12104E+02         0.00000E+00
    0.00000E+00         0.00000E+00        -0.26650E+04
 
   -0.73216E+04         0.12102E+03         0.00000E+00
    0.12102E+03        -0.24523E+02         0.00000E+00
    0.00000E+00         0.00000E+00        -0.28218E+04
 
   -0.73813E+04         0.17553E+03         0.00000E+00
    0.17553E+03        -0.43063E+02         0.00000E+00
    0.00000E+00         0.00000E+00        -0.29639E+04
 
   -0.74130E+04         0.23845E+03         0.00000E+00
    0.23845E+03        -0.68667E+02         0.00000E+00
    0.00000E+00         0.00000E+00        -0.30894E+04
 
   -0.74141E+04         0.30891E+03         0.00000E+00
    0.30891E+03        -0.10215E+03         0.00000E+00
    0.00000E+00         0.00000E+00        -0.31968E+04
 
   -0.73826E+04         0.38605E+03         0.00000E+00
    0.38605E+03        -0.14419E+03         0.00000E+00
    0.00000E+00         0.00000E+00        -0.32855E+04
 
   -0.73172E+04         0.46898E+03         0.00000E+00
    0.46898E+03        -0.19536E+03         0.00000E+00
    0.00000E+00         0.00000E+00        -0.33553E+04
 
   -0.72175E+04         0.55683E+03         0.00000E+00
    0.55683E+03        -0.25612E+03         0.00000E+00
    0.00000E+00         0.00000E+00        -0.34066E+04
 
   -0.70832E+04         0.64876E+03         0.00000E+00
    0.64876E+03        -0.32683E+03         0.00000E+00
    0.00000E+00         0.00000E+00        -0.34401E+04
 
   -0.69149E+04         0.74393E+03         0.00000E+00
    0.74393E+03        -0.40777E+03         0.00000E+00
    0.00000E+00         0.00000E+00        -0.34568E+04
 
   -0.67131E+04         0.84154E+03         0.00000E+00
    0.84154E+03        -0.49912E+03         0.00000E+00
    0.00000E+00         0.00000E+00        -0.34578E+04
 
   -0.64788E+04         0.94080E+03         0.00000E+00
    0.94080E+03        -0.60103E+03         0.00000E+00
    0.00000E+00         0.00000E+00        -0.34446E+04
 
   -0.62130E+04         0.10409E+04         0.00000E+00
    0.10409E+04        -0.71357E+03         0.00000E+00
    0.00000E+00         0.00000E+00        -0.34185E+04
 
   -0.59170E+04         0.11411E+04         0.00000E+00
    0.11411E+04        -0.83676E+03         0.00000E+00
    0.00000E+00         0.00000E+00        -0.33811E+04
 
   -0.55919E+04         0.12406E+04         0.00000E+00
    0.12406E+04        -0.97058E+03         0.00000E+00
    0.00000E+00         0.00000E+00        -0.33336E+04
 
   -0.52393E+04         0.13385E+04         0.00000E+00
    0.13385E+04        -0.11150E+04         0.00000E+00
    0.00000E+00         0.00000E+00        -0.32775E+04
 
   -0.48602E+04         0.14340E+04         0.00000E+00
    0.14340E+04        -0.12698E+04         0.00000E+00
    0.00000E+00         0.00000E+00        -0.32141E+04
 
   -0.44561E+04         0.15260E+04         0.00000E+00
    0.15260E+04        -0.14349E+04         0.00000E+00
    0.00000E+00         0.00000E+00        -0.31444E+04
 
   -0.40282E+04         0.16134E+04         0.00000E+00
    0.16134E+04        -0.16100E+04         0.00000E+00
    0.00000E+00         0.00000E+00        -0.30695E+04
 
   -0.35776E+04         0.16950E+04         0.00000E+00
    0.16950E+04        -0.17949E+04         0.00000E+00
    0.00000E+00         0.00000E+00        -0.29901E+04
 
   -0.31055E+04         0.17695E+04         0.00000E+00
    0.17695E+04        -0.19890E+04         0.00000E+00
    0.00000E+00         0.00000E+00        -0.29068E+04
 
   -0.68831E+04         0.20361E+01         0.00000E+00
    0.20361E+01        -0.73760E-01         0.00000E+00
    0.00000E+00         0.00000E+00        -0.21356E+04
 
   -0.69982E+04         0.13842E+02         0.00000E+00
    0.13842E+02        -0.10380E+01         0.00000E+00
    0.00000E+00         0.00000E+00        -0.23112E+04
 
   -0.71058E+04         0.35443E+02         0.00000E+00
    0.35443E+02        -0.42828E+01         0.00000E+00
    0.00000E+00         0.00000E+00        -0.24827E+04
 
   -0.71997E+04         0.66426E+02         0.00000E+00
    0.66426E+02        -0.11109E+02         0.00000E+00
    0.00000E+00         0.00000E+00        -0.26462E+04
 
   -0.72746E+04         0.10625E+03         0.00000E+00
    0.10625E+03        -0.22703E+02         0.00000E+00
    0.00000E+00         0.00000E+00        -0.27981E+04
 
   -0.73259E+04         0.15430E+03         0.00000E+00
    0.15430E+03        -0.40128E+02         0.00000E+00
    0.00000E+00         0.00000E+00        -0.29355E+04
 
   -0.73501E+04         0.20987E+03         0.00000E+00
    0.20987E+03        -0.64331E+02         0.00000E+00
    0.00000E+00         0.00000E+00        -0.30565E+04
 
   -0.73445E+04         0.27223E+03         0.00000E+00
    0.27223E+03        -0.96138E+02         0.00000E+00
    0.00000E+00         0.00000E+00        -0.31597E+04
 
   -0.73070E+04         0.34062E+03         0.00000E+00
    0.34062E+03        -0.13626E+03         0.00000E+00
    0.00000E+00         0.00000E+00        -0.32444E+04
 
   -0.72365E+04         0.41427E+03         0.00000E+00
    0.41427E+03        -0.18530E+03         0.00000E+00
    0.00000E+00         0.00000E+00        -0.33105E+04
 
   -0.71324E+04         0.49241E+03         0.00000E+00
    0.49241E+03        -0.24375E+03         0.00000E+00
    0.00000E+00         0.00000E+00        -0.33584E+04
 
   -0.69947E+04         0.57429E+03         0.00000E+00
    0.57429E+03        -0.31201E+03         0.00000E+00
    0.00000E+00         0.00000E+00        -0.33887E+04
 
   -0.68236E+04         0.65917E+03         0.00000E+00
    0.65917E+03        -0.39040E+03         0.00000E+00
    0.00000E+00         0.00000E+00        -0.34026E+04
 
   -0.66198E+04         0.74630E+03         0.00000E+00
    0.74630E+03        -0.47915E+03         0.00000E+00
    0.00000E+00         0.00000E+00        -0.34012E+04
 
   -0.63843E+04         0.83496E+03         0.00000E+00
    0.83496E+03        -0.57843E+03         0.00000E+00
    0.00000E+00         0.00000E+00        -0.33858E+04
 
   -0.61180E+04         0.92444E+03         0.00000E+00
    0.92444E+03        -0.68833E+03         0.00000E+00
    0.00000E+00         0.00000E+00        -0.33579E+04
 
   -0.58223E+04         0.10140E+04         0.00000E+00
    0.10140E+04        -0.80889E+03         0.00000E+00
    0.00000E+00         0.00000E+00        -0.33189E+04
 
   -0.54984E+04         0.11029E+04         0.00000E+00
    0.11029E+04        -0.94009E+03         0.00000E+00
    0.00000E+00         0.00000E+00        -0.32703E+04
 
   -0.51477E+04         0.11903E+04         0.00000E+00
    0.11903E+04        -0.10818E+04         0.00000E+00
    0.00000E+00         0.00000E+00        -0.32133E+04
 
   -0.47715E+04         0.12754E+04         0.00000E+00
    0.12754E+04        -0.12340E+04         0.00000E+00
    0.00000E+00         0.00000E+00        -0.31494E+04
 
   -0.43713E+04         0.13572E+04         0.00000E+00
    0.13572E+04        -0.13964E+04         0.00000E+00
    0.00000E+00         0.00000E+00        -0.30797E+04
 
   -0.39483E+04         0.14348E+04         0.00000E+00
    0.14348E+04        -0.15686E+04         0.00000E+00
    0.00000E+00         0.00000E+00        -0.30050E+04
 
   -0.35039E+04         0.15071E+04         0.00000E+00
    0.15071E+04        -0.17504E+04         0.00000E+00
    0.00000E+00         0.00000E+00        -0.29263E+04
 
   -0.30394E+04         0.15727E+04         0.00000E+00
    0.15727E+04        -0.19411E+04         0.00000E+00
    0.00000E+00         0.00000E+00        -0.28442E+04
 
   -0.68768E+04         0.18093E+01         0.00000E+00
    0.18093E+01        -0.66436E-01         0.00000E+00
    0.00000E+00         0.00000E+00        -0.21328E+04
 
   -0.69826E+04         0.12078E+02         0.00000E+00
    0.12078E+02        -0.95907E+00         0.00000E+00
    0.00000E+00         0.00000E+00        -0.23038E+04
 
   -0.70812E+04         0.30818E+02         0.00000E+00
    0.30818E+02        -0.39925E+01         0.00000E+00
    0.00000E+00         0.00000E+00        -0.24708E+04
 
   -0.71666E+04         0.57715E+02         0.00000E+00
    0.57715E+02        -0.10416E+02         0.00000E+00
    0.00000E+00         0.00000E+00        -0.26298E+04
 
   -0.72335E+04         0.92343E+02         0.00000E+00
    0.92343E+02        -0.21383E+02         0.00000E+00
    0.00000E+00         0.00000E+00        -0.27774E+04
 
   -0.72774E+04         0.13419E+03         0.00000E+00
    0.13419E+03        -0.37943E+02         0.00000E+00
    0.00000E+00         0.00000E+00        -0.29107E+04
 
   -0.72948E+04         0.18267E+03         0.00000E+00
    0.18267E+03        -0.61039E+02         0.00000E+00
    0.00000E+00         0.00000E+00        -0.30277E+04
 
   -0.72831E+04         0.23716E+03         0.00000E+00
    0.23716E+03        -0.91508E+02         0.00000E+00
    0.00000E+00         0.00000E+00        -0.31272E+04
 
   -0.72403E+04         0.29702E+03         0.00000E+00
    0.29702E+03        -0.13008E+03         0.00000E+00
    0.00000E+00         0.00000E+00        -0.32084E+04
 
   -0.71652E+04         0.36158E+03         0.00000E+00
    0.36158E+03        -0.17738E+03         0.00000E+00
    0.00000E+00         0.00000E+00        -0.32713E+04
 
   -0.70572E+04         0.43016E+03         0.00000E+00
    0.43016E+03        -0.23393E+03         0.00000E+00
    0.00000E+00         0.00000E+00        -0.33161E+04
 
   -0.69163E+04         0.50211E+03         0.00000E+00
    0.50211E+03        -0.30017E+03         0.00000E+00
    0.00000E+00         0.00000E+00        -0.33438E+04
 
   -0.67427E+04         0.57676E+03         0.00000E+00
    0.57676E+03        -0.37645E+03         0.00000E+00
    0.00000E+00         0.00000E+00        -0.33552E+04
 
   -0.65371E+04         0.65346E+03         0.00000E+00
    0.65346E+03        -0.46302E+03         0.00000E+00
    0.00000E+00         0.00000E+00        -0.33516E+04
 
   -0.63004E+04         0.73155E+03         0.00000E+00
    0.73155E+03        -0.56008E+03         0.00000E+00
    0.00000E+00         0.00000E+00        -0.33343E+04
 
   -0.60338E+04         0.81038E+03         0.00000E+00
    0.81038E+03        -0.66774E+03         0.00000E+00
    0.00000E+00         0.00000E+00        -0.33048E+04
 
   -0.57383E+04         0.88928E+03         0.00000E+00
    0.88928E+03        -0.78604E+03         0.00000E+00
    0.00000E+00         0.00000E+00        -0.32645E+04
 
   -0.54155E+04         0.96756E+03         0.00000E+00
    0.96756E+03        -0.91496E+03         0.00000E+00
    0.00000E+00         0.00000E+00        -0.32148E+04
 
   -0.50666E+04         0.10445E+04         0.00000E+00
    0.10445E+04        -0.10544E+04         0.00000E+00
    0.00000E+00         0.00000E+00        -0.31572E+04
 
   -0.46930E+04         0.11193E+04         0.00000E+00
    0.11193E+04        -0.12042E+04         0.00000E+00
    0.00000E+00         0.00000E+00        -0.30929E+04
 
   -0.42964E+04         0.11911E+04         0.00000E+00
    0.11911E+04        -0.13641E+04         0.00000E+00
    0.00000E+00         0.00000E+00        -0.30231E+04
 
   -0.38780E+04         0.12591E+04         0.00000E+00
    0.12591E+04        -0.15338E+04         0.00000E+00
    0.00000E+00         0.00000E+00        -0.29488E+04
 
   -0.34393E+04         0.13222E+04         0.00000E+00
    0.13222E+04        -0.17127E+04         0.00000E+00
    0.00000E+00         0.00000E+00        -0.28707E+04
 
   -0.29817E+04         0.13793E+04         0.00000E+00
    0.13793E+04        -0.19004E+04         0.00000E+00
    0.00000E+00         0.00000E+00        -0.27896E+04
 
   -0.68712E+04         0.15954E+01         0.00000E+00
    0.15954E+01        -0.65369E-01         0.00000E+00
    0.00000E+00         0.00000E+00        -0.21303E+04
 
   -0.69691E+04         0.10415E+02         0.00000E+00
    0.10415E+02        -0.92141E+00         0.00000E+00
    0.00000E+00         0.00000E+00        -0.22974E+04
 
   -0.70600E+04         0.26440E+02         0.00000E+00
    0.26440E+02        -0.38185E+01         0.00000E+00
    0.00000E+00         0.00000E+00        -0.24605E+04
 
   -0.71380E+04         0.49439E+02         0.00000E+00
    0.49439E+02        -0.99575E+01         0.00000E+00
    0.00000E+00         0.00000E+00        -0.26158E+04
 
   -0.71979E+04         0.79080E+02         0.00000E+00
    0.79080E+02        -0.20460E+02         0.00000E+00
    0.00000E+00         0.00000E+00        -0.27596E+04
 
   -0.72354E+04         0.11494E+03         0.00000E+00
    0.11494E+03        -0.36359E+02         0.00000E+00
    0.00000E+00         0.00000E+00        -0.28893E+04
 
   -0.72469E+04         0.15655E+03         0.00000E+00
    0.15655E+03        -0.58594E+02         0.00000E+00
    0.00000E+00         0.00000E+00        -0.30030E+04
 
   -0.72299E+04         0.20339E+03         0.00000E+00
    0.20339E+03        -0.88007E+02         0.00000E+00
    0.00000E+00         0.00000E+00        -0.30992E+04
 
   -0.71823E+04         0.25490E+03         0.00000E+00
    0.25490E+03        -0.12534E+03         0.00000E+00
    0.00000E+00         0.00000E+00        -0.31774E+04
 
   -0.71031E+04         0.31052E+03         0.00000E+00
    0.31052E+03        -0.17124E+03         0.00000E+00
    0.00000E+00         0.00000E+00        -0.32374E+04
 
   -0.69917E+04         0.36969E+03         0.00000E+00
    0.36969E+03        -0.22626E+03         0.00000E+00
    0.00000E+00         0.00000E+00        -0.32797E+04
 
   -0.68479E+04         0.43181E+03         0.00000E+00
    0.43181E+03        -0.29085E+03         0.00000E+00
    0.00000E+00         0.00000E+00        -0.33050E+04
 
   -0.66721E+04         0.49632E+03         0.00000E+00
    0.49632E+03        -0.36539E+03         0.00000E+00
    0.00000E+00         0.00000E+00        -0.33143E+04
 
   -0.64649E+04         0.56264E+03         0.00000E+00
    0.56264E+03        -0.45016E+03         0.00000E+00
    0.00000E+00         0.00000E+00        -0.33088E+04
 
   -0.62272E+04         0.63019E+03         0.00000E+00
    0.63019E+03        -0.54536E+03         0.00000E+00
    0.00000E+00         0.00000E+00        -0.32898E+04
 
   -0.59602E+04         0.69840E+03         0.00000E+00
    0.69840E+03        -0.65113E+03         0.00000E+00
    0.00000E+00         0.00000E+00        -0.32589E+04
 
   -0.56650E+04         0.76667E+03         0.00000E+00
    0.76667E+03        -0.76752E+03         0.00000E+00
    0.00000E+00         0.00000E+00        -0.32175E+04
 
   -0.53430E+04         0.83437E+03         0.00000E+00
    0.83437E+03        -0.89449E+03         0.00000E+00
    0.00000E+00         0.00000E+00        -0.31670E+04
 
   -0.49958E+04         0.90087E+03         0.00000E+00
    0.90087E+03        -0.10319E+04         0.00000E+00
    0.00000E+00         0.00000E+00        -0.31088E+04
 
   -0.46246E+04         0.96548E+03         0.00000E+00
    0.96548E+03        -0.11797E+04         0.00000E+00
    0.00000E+00         0.00000E+00        -0.30442E+04
 
   -0.42312E+04         0.10274E+04         0.00000E+00
    0.10274E+04        -0.13374E+04         0.00000E+00
    0.00000E+00         0.00000E+00        -0.29744E+04
 
   -0.38169E+04         0.10860E+04         0.00000E+00
    0.10860E+04        -0.15048E+04         0.00000E+00
    0.00000E+00         0.00000E+00        -0.29003E+04
 
   -0.33834E+04         0.11401E+04         0.00000E+00
    0.11401E+04        -0.16812E+04         0.00000E+00
    0.00000E+00         0.00000E+00        -0.28229E+04
 
   -0.29320E+04         0.11890E+04         0.00000E+00
    0.11890E+04        -0.18661E+04         0.00000E+00
    0.00000E+00         0.00000E+00        -0.27427E+04
 
   -0.68664E+04         0.13808E+01         0.00000E+00
    0.13808E+01        -0.68410E-01         0.00000E+00
    0.00000E+00         0.00000E+00        -0.21282E+04
 
   -0.69577E+04         0.88055E+01         0.00000E+00
    0.88055E+01        -0.91242E+00         0.00000E+00
    0.00000E+00         0.00000E+00        -0.22920E+04
 
   -0.70421E+04         0.22225E+02         0.00000E+00
    0.22225E+02        -0.37288E+01         0.00000E+00
    0.00000E+00         0.00000E+00        -0.24519E+04
 
   -0.71138E+04         0.41475E+02         0.00000E+00
    0.41475E+02        -0.96742E+01         0.00000E+00
    0.00000E+00         0.00000E+00        -0.26039E+04
 
   -0.71678E+04         0.66298E+02         0.00000E+00
    0.66298E+02        -0.19841E+02         0.00000E+00
    0.00000E+00         0.00000E+00        -0.27446E+04
 
   -0.71997E+04         0.96363E+02         0.00000E+00
    0.96363E+02        -0.35246E+02         0.00000E+00
    0.00000E+00         0.00000E+00        -0.28713E+04
 
   -0.72062E+04         0.13128E+03         0.00000E+00
    0.13128E+03        -0.56823E+02         0.00000E+00
    0.00000E+00         0.00000E+00        -0.29820E+04
 
   -0.71846E+04         0.17063E+03         0.00000E+00
    0.17063E+03        -0.85415E+02         0.00000E+00
    0.00000E+00         0.00000E+00        -0.30755E+04
 
   -0.71330E+04         0.21396E+03         0.00000E+00
    0.21396E+03        -0.12178E+03         0.00000E+00
    0.00000E+00         0.00000E+00        -0.31512E+04
 
   -0.70502E+04         0.26079E+03         0.00000E+00
    0.26079E+03        -0.16657E+03         0.00000E+00
    0.00000E+00         0.00000E+00        -0.32088E+04
 
   -0.69358E+04         0.31065E+03         0.00000E+00
    0.31065E+03        -0.22036E+03         0.00000E+00
    0.00000E+00         0.00000E+00        -0.32489E+04
 
   -0.67895E+04         0.36304E+03         0.00000E+00
    0.36304E+03        -0.28362E+03         0.00000E+00
    0.00000E+00         0.00000E+00        -0.32722E+04
 
   -0.66117E+04         0.41748E+03         0.00000E+00
    0.41748E+03        -0.35675E+03         0.00000E+00
    0.00000E+00         0.00000E+00        -0.32796E+04
 
   -0.64031E+04         0.47348E+03         0.00000E+00
    0.47348E+03        -0.44005E+03         0.00000E+00
    0.00000E+00         0.00000E+00        -0.32725E+04
 
   -0.61645E+04         0.53054E+03         0.00000E+00
    0.53054E+03        -0.53373E+03         0.00000E+00
    0.00000E+00         0.00000E+00        -0.32522E+04
 
   -0.58972E+04         0.58816E+03         0.00000E+00
    0.58816E+03        -0.63794E+03         0.00000E+00
    0.00000E+00         0.00000E+00        -0.32201E+04
 
   -0.56022E+04         0.64583E+03         0.00000E+00
    0.64583E+03        -0.75273E+03         0.00000E+00
    0.00000E+00         0.00000E+00        -0.31778E+04
 
   -0.52811E+04         0.70301E+03         0.00000E+00
    0.70301E+03        -0.87806E+03         0.00000E+00
    0.00000E+00         0.00000E+00        -0.31265E+04
 
   -0.49353E+04         0.75914E+03         0.00000E+00
    0.75914E+03        -0.10138E+04         0.00000E+00
    0.00000E+00         0.00000E+00        -0.30679E+04
 
   -0.45663E+04         0.81362E+03         0.00000E+00
    0.81362E+03        -0.11598E+04         0.00000E+00
    0.00000E+00         0.00000E+00        -0.30030E+04
 
   -0.41756E+04         0.86582E+03         0.00000E+00
    0.86582E+03        -0.13157E+04         0.00000E+00
    0.00000E+00         0.00000E+00        -0.29332E+04
 
   -0.37650E+04         0.91503E+03         0.00000E+00
    0.91503E+03        -0.14810E+04         0.00000E+00
    0.00000E+00         0.00000E+00        -0.28594E+04
 
   -0.33359E+04         0.96049E+03         0.00000E+00
    0.96049E+03        -0.16553E+04         0.00000E+00
    0.00000E+00         0.00000E+00        -0.27825E+04
 
   -0.28900E+04         0.10014E+04         0.00000E+00
    0.10014E+04        -0.18378E+04         0.00000E+00
    0.00000E+00         0.00000E+00        -0.27032E+04
 
   -0.68624E+04         0.11572E+01         0.00000E+00
    0.11572E+01        -0.73722E-01         0.00000E+00
    0.00000E+00         0.00000E+00        -0.21265E+04
 
   -0.69482E+04         0.72175E+01         0.00000E+00
    0.72175E+01        -0.92131E+00         0.00000E+00
    0.00000E+00         0.00000E+00        -0.22875E+04
 
   -0.70272E+04         0.18112E+02         0.00000E+00
    0.18112E+02        -0.36960E+01         0.00000E+00
    0.00000E+00         0.00000E+00        -0.24447E+04
 
   -0.70938E+04         0.33726E+02         0.00000E+00
    0.33726E+02        -0.95157E+01         0.00000E+00
    0.00000E+00         0.00000E+00        -0.25941E+04
 
   -0.71429E+04         0.53867E+02         0.00000E+00
    0.53867E+02        -0.19447E+02         0.00000E+00
    0.00000E+00         0.00000E+00        -0.27322E+04
 
   -0.71703E+04         0.78279E+02         0.00000E+00
    0.78279E+02        -0.34491E+02         0.00000E+00
    0.00000E+00         0.00000E+00        -0.28564E+04
 
   -0.71725E+04         0.10666E+03         0.00000E+00
    0.10666E+03        -0.55575E+02         0.00000E+00
    0.00000E+00         0.00000E+00        -0.29648E+04
 
   -0.71470E+04         0.13867E+03         0.00000E+00
    0.13867E+03        -0.83545E+02         0.00000E+00
    0.00000E+00         0.00000E+00        -0.30560E+04
 
   -0.70920E+04         0.17394E+03         0.00000E+00
    0.17394E+03        -0.11916E+03         0.00000E+00
    0.00000E+00         0.00000E+00        -0.31295E+04
 
   -0.70063E+04         0.21209E+03         0.00000E+00
    0.21209E+03        -0.16309E+03         0.00000E+00
    0.00000E+00         0.00000E+00        -0.31852E+04
 
   -0.68893E+04         0.25274E+03         0.00000E+00
    0.25274E+03        -0.21592E+03         0.00000E+00
    0.00000E+00         0.00000E+00        -0.32235E+04
 
   -0.67409E+04         0.29549E+03         0.00000E+00
    0.29549E+03        -0.27814E+03         0.00000E+00
    0.00000E+00         0.00000E+00        -0.32451E+04
 
   -0.65615E+04         0.33993E+03         0.00000E+00
    0.33993E+03        -0.35015E+03         0.00000E+00
    0.00000E+00         0.00000E+00        -0.32510E+04
 
   -0.63517E+04         0.38566E+03         0.00000E+00
    0.38566E+03        -0.43227E+03         0.00000E+00
    0.00000E+00         0.00000E+00        -0.32426E+04
 
   -0.61124E+04         0.43227E+03         0.00000E+00
    0.43227E+03        -0.52474E+03         0.00000E+00
    0.00000E+00         0.00000E+00        -0.32212E+04
 
   -0.58447E+04         0.47935E+03         0.00000E+00
    0.47935E+03        -0.62768E+03         0.00000E+00
    0.00000E+00         0.00000E+00        -0.31882E+04
 
   -0.55500E+04         0.52646E+03         0.00000E+00
    0.52646E+03        -0.74116E+03         0.00000E+00
    0.00000E+00         0.00000E+00        -0.31450E+04
 
   -0.52296E+04         0.57316E+03         0.00000E+00
    0.57316E+03        -0.86515E+03         0.00000E+00
    0.00000E+00         0.00000E+00        -0.30932E+04
 
   -0.48850E+04         0.61898E+03         0.00000E+00
    0.61898E+03        -0.99950E+03         0.00000E+00
    0.00000E+00         0.00000E+00        -0.30341E+04
 
   -0.45178E+04         0.66343E+03         0.00000E+00
    0.66343E+03        -0.11440E+04         0.00000E+00
    0.00000E+00         0.00000E+00        -0.29691E+04
 
   -0.41296E+04         0.70597E+03         0.00000E+00
    0.70597E+03        -0.12983E+04         0.00000E+00
    0.00000E+00         0.00000E+00        -0.28993E+04
 
   -0.37220E+04         0.74601E+03         0.00000E+00
    0.74601E+03        -0.14620E+04         0.00000E+00
    0.00000E+00         0.00000E+00        -0.28258E+04
 
   -0.32967E+04         0.78294E+03         0.00000E+00
    0.78294E+03        -0.16344E+04         0.00000E+00
    0.00000E+00         0.00000E+00        -0.27493E+04
 
   -0.28554E+04         0.81606E+03         0.00000E+00
    0.81606E+03        -0.18149E+04         0.00000E+00
    0.00000E+00         0.00000E+00        -0.26707E+04
 
   -0.68592E+04         0.92033E+00         0.00000E+00
    0.92033E+00        -0.79783E-01         0.00000E+00
    0.00000E+00         0.00000E+00        -0.21251E+04
 
   -0.69407E+04         0.56307E+01         0.00000E+00
    0.56307E+01        -0.93912E+00         0.00000E+00
    0.00000E+00         0.00000E+00        -0.22840E+04
 
   -0.70155E+04         0.14056E+02         0.00000E+00
    0.14056E+02        -0.36970E+01         0.00000E+00
    0.00000E+00         0.00000E+00        -0.24391E+04
 
   -0.70779E+04         0.26120E+02         0.00000E+00
    0.26120E+02        -0.94395E+01         0.00000E+00
    0.00000E+00         0.00000E+00        -0.25863E+04
 
   -0.71231E+04         0.41684E+02         0.00000E+00
    0.41684E+02        -0.19211E+02         0.00000E+00
    0.00000E+00         0.00000E+00        -0.27224E+04
 
   -0.71468E+04         0.60558E+02         0.00000E+00
    0.60558E+02        -0.34000E+02         0.00000E+00
    0.00000E+00         0.00000E+00        -0.28447E+04
 
   -0.71457E+04         0.82513E+02         0.00000E+00
    0.82513E+02        -0.54727E+02         0.00000E+00
    0.00000E+00         0.00000E+00        -0.29512E+04
 
   -0.71172E+04         0.10729E+03         0.00000E+00
    0.10729E+03        -0.82237E+02         0.00000E+00
    0.00000E+00         0.00000E+00        -0.30406E+04
 
   -0.70594E+04         0.13462E+03         0.00000E+00
    0.13462E+03        -0.11729E+03         0.00000E+00
    0.00000E+00         0.00000E+00        -0.31124E+04
 
   -0.69713E+04         0.16419E+03         0.00000E+00
    0.16419E+03        -0.16058E+03         0.00000E+00
    0.00000E+00         0.00000E+00        -0.31665E+04
 
   -0.68522E+04         0.19572E+03         0.00000E+00
    0.19572E+03        -0.21268E+03         0.00000E+00
    0.00000E+00         0.00000E+00        -0.32033E+04
 
   -0.67022E+04         0.22889E+03         0.00000E+00
    0.22889E+03        -0.27410E+03         0.00000E+00
    0.00000E+00         0.00000E+00        -0.32236E+04
 
   -0.65214E+04         0.26339E+03         0.00000E+00
    0.26339E+03        -0.34526E+03         0.00000E+00
    0.00000E+00         0.00000E+00        -0.32284E+04
 
   -0.63106E+04         0.29890E+03         0.00000E+00
    0.29890E+03        -0.42647E+03         0.00000E+00
    0.00000E+00         0.00000E+00        -0.32189E+04
 
   -0.60707E+04         0.33511E+03         0.00000E+00
    0.33511E+03        -0.51799E+03         0.00000E+00
    0.00000E+00         0.00000E+00        -0.31966E+04
 
   -0.58028E+04         0.37167E+03         0.00000E+00
    0.37167E+03        -0.61995E+03         0.00000E+00
    0.00000E+00         0.00000E+00        -0.31628E+04
 
   -0.55083E+04         0.40827E+03         0.00000E+00
    0.40827E+03        -0.73241E+03         0.00000E+00
    0.00000E+00         0.00000E+00        -0.31190E+04
 
   -0.51884E+04         0.44453E+03         0.00000E+00
    0.44453E+03        -0.85533E+03         0.00000E+00
    0.00000E+00         0.00000E+00        -0.30668E+04
 
   -0.48448E+04         0.48011E+03         0.00000E+00
    0.48011E+03        -0.98858E+03         0.00000E+00
    0.00000E+00         0.00000E+00        -0.30074E+04
 
   -0.44791E+04         0.51459E+03         0.00000E+00
    0.51459E+03        -0.11319E+04         0.00000E+00
    0.00000E+00         0.00000E+00        -0.29422E+04
 
   -0.40929E+04         0.54757E+03         0.00000E+00
    0.54757E+03        -0.12850E+04         0.00000E+00
    0.00000E+00         0.00000E+00        -0.28724E+04
 
   -0.36878E+04         0.57858E+03         0.00000E+00
    0.57858E+03        -0.14473E+04         0.00000E+00
    0.00000E+00         0.00000E+00        -0.27991E+04
 
   -0.32656E+04         0.60713E+03         0.00000E+00
    0.60713E+03        -0.16183E+04         0.00000E+00
    0.00000E+00         0.00000E+00        -0.27231E+04
 
   -0.28280E+04         0.63269E+03         0.00000E+00
    0.63269E+03        -0.17971E+04         0.00000E+00
    0.00000E+00         0.00000E+00        -0.26450E+04
 
   -0.68567E+04         0.66960E+00         0.00000E+00
    0.66960E+00        -0.85380E-01         0.00000E+00
    0.00000E+00         0.00000E+00        -0.21241E+04
 
   -0.69351E+04         0.40349E+01         0.00000E+00
    0.40349E+01        -0.95870E+00         0.00000E+00
    0.00000E+00         0.00000E+00        -0.22814E+04
 
   -0.70067E+04         0.10029E+02         0.00000E+00
    0.10029E+02        -0.37138E+01         0.00000E+00
    0.00000E+00         0.00000E+00        -0.24349E+04
 
   -0.70661E+04         0.18606E+02         0.00000E+00
    0.18606E+02        -0.94119E+01         0.00000E+00
    0.00000E+00         0.00000E+00        -0.25806E+04
 
   -0.71084E+04         0.29670E+02         0.00000E+00
    0.29670E+02        -0.19081E+02         0.00000E+00
    0.00000E+00         0.00000E+00        -0.27151E+04
 
   -0.71293E+04         0.43092E+02         0.00000E+00
    0.43092E+02        -0.33697E+02         0.00000E+00
    0.00000E+00         0.00000E+00        -0.28359E+04
 
   -0.71257E+04         0.58712E+02         0.00000E+00
    0.58712E+02        -0.54178E+02         0.00000E+00
    0.00000E+00         0.00000E+00        -0.29410E+04
 
   -0.70948E+04         0.76349E+02         0.00000E+00
    0.76349E+02        -0.81366E+02         0.00000E+00
    0.00000E+00         0.00000E+00        -0.30291E+04
 
   -0.70350E+04         0.95808E+02         0.00000E+00
    0.95808E+02        -0.11603E+03         0.00000E+00
    0.00000E+00         0.00000E+00        -0.30996E+04
 
   -0.69451E+04         0.11688E+03         0.00000E+00
    0.11688E+03        -0.15885E+03         0.00000E+00
    0.00000E+00         0.00000E+00        -0.31526E+04
 
   -0.68245E+04         0.13935E+03         0.00000E+00
    0.13935E+03        -0.21043E+03         0.00000E+00
    0.00000E+00         0.00000E+00        -0.31883E+04
 
   -0.66732E+04         0.16300E+03         0.00000E+00
    0.16300E+03        -0.27128E+03         0.00000E+00
    0.00000E+00         0.00000E+00        -0.32076E+04
 
   -0.64914E+04         0.18761E+03         0.00000E+00
    0.18761E+03        -0.34181E+03         0.00000E+00
    0.00000E+00         0.00000E+00        -0.32115E+04
 
   -0.62799E+04         0.21295E+03         0.00000E+00
    0.21295E+03        -0.42237E+03         0.00000E+00
    0.00000E+00         0.00000E+00        -0.32013E+04
 
   -0.60395E+04         0.23878E+03         0.00000E+00
    0.23878E+03        -0.51319E+03         0.00000E+00
    0.00000E+00         0.00000E+00        -0.31783E+04
 
   -0.57715E+04         0.26487E+03         0.00000E+00
    0.26487E+03        -0.61443E+03         0.00000E+00
    0.00000E+00         0.00000E+00        -0.31439E+04
 
   -0.54770E+04         0.29098E+03         0.00000E+00
    0.29098E+03        -0.72613E+03         0.00000E+00
    0.00000E+00         0.00000E+00        -0.30997E+04
 
   -0.51576E+04         0.31686E+03         0.00000E+00
    0.31686E+03        -0.84827E+03         0.00000E+00
    0.00000E+00         0.00000E+00        -0.30471E+04
 
   -0.48148E+04         0.34223E+03         0.00000E+00
    0.34223E+03        -0.98068E+03         0.00000E+00
    0.00000E+00         0.00000E+00        -0.29875E+04
 
   -0.44502E+04         0.36681E+03         0.00000E+00
    0.36681E+03        -0.11231E+04         0.00000E+00
    0.00000E+00         0.00000E+00        -0.29222E+04
 
   -0.40654E+04         0.39030E+03         0.00000E+00
    0.39030E+03        -0.12753E+04         0.00000E+00
    0.00000E+00         0.00000E+00        -0.28525E+04
 
   -0.36623E+04         0.41238E+03         0.00000E+00
    0.41238E+03        -0.14366E+04         0.00000E+00
    0.00000E+00         0.00000E+00        -0.27793E+04
 
   -0.32424E+04         0.43269E+03         0.00000E+00
    0.43269E+03        -0.16064E+04         0.00000E+00
    0.00000E+00         0.00000E+00        -0.27036E+04
 
   -0.28077E+04         0.45083E+03         0.00000E+00
    0.45083E+03        -0.17841E+04         0.00000E+00
    0.00000E+00         0.00000E+00        -0.26260E+04
 
   -0.68551E+04         0.40703E+00         0.00000E+00
    0.40703E+00        -0.89611E-01         0.00000E+00
    0.00000E+00         0.00000E+00        -0.21234E+04
 
   -0.69313E+04         0.24272E+01         0.00000E+00
    0.24272E+01        -0.97470E+00         0.00000E+00
    0.00000E+00         0.00000E+00        -0.22796E+04
 
   -0.70009E+04         0.60150E+01         0.00000E+00
    0.60150E+01        -0.37326E+01         0.00000E+00
    0.00000E+00         0.00000E+00        -0.24321E+04
 
   -0.70583E+04         0.11145E+02         0.00000E+00
    0.11145E+02        -0.94076E+01         0.00000E+00
    0.00000E+00         0.00000E+00        -0.25767E+04
 
   -0.70986E+04         0.17763E+02         0.00000E+00
    0.17763E+02        -0.19016E+02         0.00000E+00
    0.00000E+00         0.00000E+00        -0.27103E+04
 
   -0.71177E+04         0.25792E+02         0.00000E+00
    0.25792E+02        -0.33527E+02         0.00000E+00
    0.00000E+00         0.00000E+00        -0.28301E+04
 
   -0.71124E+04         0.35140E+02         0.00000E+00
    0.35140E+02        -0.53853E+02         0.00000E+00
    0.00000E+00         0.00000E+00        -0.29343E+04
 
   -0.70800E+04         0.45698E+02         0.00000E+00
    0.45698E+02        -0.80838E+02         0.00000E+00
    0.00000E+00         0.00000E+00        -0.30215E+04
 
   -0.70188E+04         0.57350E+02         0.00000E+00
    0.57350E+02        -0.11525E+03         0.00000E+00
    0.00000E+00         0.00000E+00        -0.30912E+04
 
   -0.69277E+04         0.69972E+02         0.00000E+00
    0.69972E+02        -0.15778E+03         0.00000E+00
    0.00000E+00         0.00000E+00        -0.31433E+04
 
   -0.68060E+04         0.83437E+02         0.00000E+00
    0.83437E+02        -0.20902E+03         0.00000E+00
    0.00000E+00         0.00000E+00        -0.31784E+04
 
   -0.66538E+04         0.97611E+02         0.00000E+00
    0.97611E+02        -0.26949E+03         0.00000E+00
    0.00000E+00         0.00000E+00        -0.31970E+04
 
   -0.64714E+04         0.11236E+03         0.00000E+00
    0.11236E+03        -0.33962E+03         0.00000E+00
    0.00000E+00         0.00000E+00        -0.32003E+04
 
   -0.62594E+04         0.12755E+03         0.00000E+00
    0.12755E+03        -0.41975E+03         0.00000E+00
    0.00000E+00         0.00000E+00        -0.31896E+04
 
   -0.60187E+04         0.14304E+03         0.00000E+00
    0.14304E+03        -0.51012E+03         0.00000E+00
    0.00000E+00         0.00000E+00        -0.31661E+04
 
   -0.57506E+04         0.15868E+03         0.00000E+00
    0.15868E+03        -0.61088E+03         0.00000E+00
    0.00000E+00         0.00000E+00        -0.31314E+04
 
   -0.54562E+04         0.17434E+03         0.00000E+00
    0.17434E+03        -0.72209E+03         0.00000E+00
    0.00000E+00         0.00000E+00        -0.30869E+04
 
   -0.51371E+04         0.18985E+03         0.00000E+00
    0.18985E+03        -0.84370E+03         0.00000E+00
    0.00000E+00         0.00000E+00        -0.30340E+04
 
   -0.47948E+04         0.20505E+03         0.00000E+00
    0.20505E+03        -0.97557E+03         0.00000E+00
    0.00000E+00         0.00000E+00        -0.29743E+04
 
   -0.44309E+04         0.21978E+03         0.00000E+00
    0.21978E+03        -0.11174E+04         0.00000E+00
    0.00000E+00         0.00000E+00        -0.29090E+04
 
   -0.40472E+04         0.23386E+03         0.00000E+00
    0.23386E+03        -0.12689E+04         0.00000E+00
    0.00000E+00         0.00000E+00        -0.28392E+04
 
   -0.36453E+04         0.24707E+03         0.00000E+00
    0.24707E+03        -0.14295E+04         0.00000E+00
    0.00000E+00         0.00000E+00        -0.27662E+04
 
   -0.32270E+04         0.25922E+03         0.00000E+00
    0.25922E+03        -0.15987E+04         0.00000E+00
    0.00000E+00         0.00000E+00        -0.26906E+04
 
   -0.27942E+04         0.27006E+03         0.00000E+00
    0.27006E+03        -0.17755E+04         0.00000E+00
    0.00000E+00         0.00000E+00        -0.26133E+04
 
   -0.68542E+04         0.13659E+00         0.00000E+00
    0.13659E+00        -0.91876E-01         0.00000E+00
    0.00000E+00         0.00000E+00        -0.21230E+04
 
   -0.69295E+04         0.81022E+00         0.00000E+00
    0.81022E+00        -0.98359E+00         0.00000E+00
    0.00000E+00         0.00000E+00        -0.22788E+04
 
   -0.69980E+04         0.20047E+01         0.00000E+00
    0.20047E+01        -0.37442E+01         0.00000E+00
    0.00000E+00         0.00000E+00        -0.24307E+04
 
   -0.70543E+04         0.37121E+01         0.00000E+00
    0.37121E+01        -0.94096E+01         0.00000E+00
    0.00000E+00         0.00000E+00        -0.25748E+04
 
   -0.70937E+04         0.59146E+01         0.00000E+00
    0.59146E+01        -0.18990E+02         0.00000E+00
    0.00000E+00         0.00000E+00        -0.27079E+04
 
   -0.71119E+04         0.85873E+01         0.00000E+00
    0.85873E+01        -0.33451E+02         0.00000E+00
    0.00000E+00         0.00000E+00        -0.28272E+04
 
   -0.71057E+04         0.11699E+02         0.00000E+00
    0.11699E+02        -0.53703E+02         0.00000E+00
    0.00000E+00         0.00000E+00        -0.29309E+04
 
   -0.70726E+04         0.15214E+02         0.00000E+00
    0.15214E+02        -0.80590E+02         0.00000E+00
    0.00000E+00         0.00000E+00        -0.30177E+04
 
   -0.70107E+04         0.19094E+02         0.00000E+00
    0.19094E+02        -0.11488E+03         0.00000E+00
    0.00000E+00         0.00000E+00        -0.30870E+04
 
   -0.69190E+04         0.23298E+02         0.00000E+00
    0.23298E+02        -0.15726E+03         0.00000E+00
    0.00000E+00         0.00000E+00        -0.31387E+04
 
   -0.67968E+04         0.27783E+02         0.00000E+00
    0.27783E+02        -0.20834E+03         0.00000E+00
    0.00000E+00         0.00000E+00        -0.31734E+04
 
   -0.66442E+04         0.32505E+02         0.00000E+00
    0.32505E+02        -0.26863E+03         0.00000E+00
    0.00000E+00         0.00000E+00        -0.31917E+04
 
   -0.64614E+04         0.37419E+02         0.00000E+00
    0.37419E+02        -0.33856E+03         0.00000E+00
    0.00000E+00         0.00000E+00        -0.31948E+04
 
   -0.62492E+04         0.42480E+02         0.00000E+00
    0.42480E+02        -0.41848E+03         0.00000E+00
    0.00000E+00         0.00000E+00        -0.31837E+04
 
   -0.60084E+04         0.47640E+02         0.00000E+00
    0.47640E+02        -0.50862E+03         0.00000E+00
    0.00000E+00         0.00000E+00        -0.31600E+04
 
   -0.57401E+04         0.52853E+02         0.00000E+00
    0.52853E+02        -0.60914E+03         0.00000E+00
    0.00000E+00         0.00000E+00        -0.31251E+04
 
   -0.54458E+04         0.58070E+02         0.00000E+00
    0.58070E+02        -0.72010E+03         0.00000E+00
    0.00000E+00         0.00000E+00        -0.30805E+04
 
   -0.51269E+04         0.63238E+02         0.00000E+00
    0.63238E+02        -0.84145E+03         0.00000E+00
    0.00000E+00         0.00000E+00        -0.30275E+04
 
   -0.47848E+04         0.68304E+02         0.00000E+00
    0.68304E+02        -0.97305E+03         0.00000E+00
    0.00000E+00         0.00000E+00        -0.29677E+04
 
   -0.44213E+04         0.73211E+02         0.00000E+00
    0.73211E+02        -0.11146E+04         0.00000E+00
    0.00000E+00         0.00000E+00        -0.29024E+04
 
   -0.40381E+04         0.77898E+02         0.00000E+00
    0.77898E+02        -0.12658E+04         0.00000E+00
    0.00000E+00         0.00000E+00        -0.28326E+04
 
   -0.36368E+04         0.82298E+02         0.00000E+00
    0.82298E+02        -0.14261E+04         0.00000E+00
    0.00000E+00         0.00000E+00        -0.27596E+04
 
   -0.32194E+04         0.86340E+02         0.00000E+00
    0.86340E+02        -0.15948E+04         0.00000E+00
    0.00000E+00         0.00000E+00        -0.26842E+04
 
   -0.27874E+04         0.89947E+02         0.00000E+00
    0.89947E+02        -0.17712E+04         0.00000E+00
    0.00000E+00         0.00000E+00        -0.26070E+04
 
SCALARS stresss double 
LOOKUP_TABLE default
  -68754.3666392600     
  -67722.9914944736     
  -62520.3301723707     
  -56258.2784533771     
  -50167.1990796171     
  -44522.8974447481     
  -39391.6778759219     
  -34990.7350793268     
  -31210.7031254337     
  -27959.4849725429     
  -25240.9393650522     
  -22843.3389092903     
  -20705.2720387641     
  -18757.7783291173     
  -16974.1183124683     
  -15318.3425660877     
  -13798.8502349798     
  -12442.4411782961     
  -11260.4296946674     
  -10841.2547630177     
  -11363.3033054878     
  -11879.6633175899     
  -12413.0270255675     
  -12978.9815670001     
  -68302.1110889461     
  -63229.4201867751     
  -57922.0801288047     
  -52803.0477735406     
  -47490.3615590130     
  -42449.2836404593     
  -37895.5726042729     
  -33923.3694921960     
  -30483.1988190430     
  -27419.6690034381     
  -24749.3188703733     
  -22430.2210151718     
  -20336.2654194105     
  -18453.6886112878     
  -16734.7723994106     
  -15166.4565832003     
  -13707.5949673348     
  -12374.6778843672     
  -11234.1362263286     
  -10852.2336435112     
  -11341.0152894657     
  -11837.1464162658     
  -12355.7269872810     
  -12909.6233315967     
  -54864.3135482173     
  -50140.5450756918     
  -49161.0769861129     
  -46010.7652468245     
  -42476.4181371801     
  -38726.4995246597     
  -35131.7066458230     
  -31824.4479763210     
  -28846.3869803342     
  -26129.6409482414     
  -23669.4395408683     
  -21517.6570196231     
  -19625.5459033536     
  -17909.8651219490     
  -16318.0216512547     
  -14849.7778672540     
  -13493.5563090715     
  -12266.3187832105     
  -11153.0746134860     
  -10850.7015742045     
  -11287.0051694287     
  -11748.1033587281     
  -12239.3953605582     
  -12769.4325127387     
  -21642.6980389959     
  -37345.3374309046     
  -37542.5878092206     
  -37100.1868127283     
  -35429.7089033579     
  -33289.9971991261     
  -30906.2110169670     
  -28499.7422080045     
  -26212.8542449352     
  -24050.1781392589     
  -22057.6102051934     
  -20239.8389930373     
  -18591.1528642252     
  -17094.5481453615     
  -15708.7308805771     
  -14428.2685067127     
  -13210.1862445990     
  -12062.2989711551     
  -11012.8341231883     
  -10806.4881378281     
  -11187.3454215693     
  -11606.8557113296     
  -12062.2934338582     
  -12557.2782100966     
  -152.142188048841     
  -18782.0256214813     
  -25973.5673956888     
  -27758.7935902044     
  -28077.0549529464     
  -27399.8787566488     
  -26215.7302807401     
  -24774.2033556539     
  -23237.3206501994     
  -21679.5191909038     
  -20189.6539333886     
  -18785.1948629064     
  -17433.0152031371     
  -16190.9966178194     
  -15014.3901739304     
  -13890.8388028741     
  -12826.3197577695     
  -11784.5799803055     
  -10778.2723030127     
  -10695.1733500452     
  -11029.6881420551     
  -11410.4793608803     
  -11825.0674402897     
  -12275.0646981210     
  -169.715491537589     
  -12375.4743853275     
  -18945.3924510987     
  -21851.6844566334     
  -22835.5614653340     
  -22894.9587013926     
  -22385.1651128034     
  -21541.4851825712     
  -20526.7069436645     
  -19422.0382634932     
  -18288.3372206505     
  -17158.8181978794     
  -16115.3189675931     
  -15117.3706392289     
  -14127.1626818126     
  -13148.4594755899     
  -12221.1146638769     
  -11274.8731142170     
  -10426.0272658406     
  -10495.7553679954     
  -10814.7186133547     
  -11161.6073014312     
  -11532.6288817395     
  -11929.7422808146     
   786.455013887235     
  -8583.11194441242     
  -14760.7038844572     
  -17367.4636750000     
  -18790.2606833450     
  -19272.6932487043     
  -19188.0228429571     
  -18745.1382546560     
  -18101.1344325101     
  -17338.8957183753     
  -16487.0527222522     
  -15617.5474760714     
  -14769.1352744166     
  -13934.2238151485     
  -13135.4967677890     
  -12327.8660898600     
  -11500.8976520449     
  -10677.0017836617     
  -10018.6639033330     
  -10241.1146127844     
  -10554.9725679054     
  -10868.9083974662     
  -11194.2279692278     
  -11533.3670175054     
  -46.4113422721541     
  -6144.95708285874     
  -10949.2826230174     
  -14037.2322090815     
  -15465.3315042787     
  -16146.2822626797     
  -16409.2256793046     
  -16270.1469881777     
  -15909.4104794157     
  -15382.8689537702     
  -14751.6920338396     
  -14071.6936144497     
  -13408.2145235806     
  -12751.8751507676     
  -12079.0175549427     
  -11403.5473714623     
  -10701.4959273887     
  -9989.04790189802     
  -9665.60027665012     
  -9983.13960469711     
  -10266.7250974339     
  -10544.4514572766     
  -10821.6640268849     
  -11101.0218774246     
  -848.564609281899     
  -4977.68155869565     
  -8815.31427031661     
  -11279.0218007801     
  -12785.3508475951     
  -13550.9924460540     
  -13919.4286708249     
  -13992.5910206920     
  -13857.4461483958     
  -13527.1684812621     
  -13085.7573480235     
  -12594.7158275790     
  -12085.3842077664     
  -11548.1719114046     
  -11000.8712621677     
  -10456.7388823720     
  -9854.32994955831     
  -9317.24484905907     
  -9468.17640569839     
  -9720.22387790843     
  -9964.86066240033     
  -10199.0679671010     
  -10426.9059374309     
  -10647.6774178925     
  -1654.41993334893     
  -4542.22905483963     
  -7119.81293709168     
  -9185.30043571919     
  -10557.0402831156     
  -11399.5888962096     
  -11838.5759467048     
  -12006.6429268042     
  -12000.8080935714     
  -11830.2508372354     
  -11535.9733983103     
  -11183.6743553083     
  -10795.1495855134     
  -10399.3411683861     
  -9953.52279463774     
  -9496.40457866373     
  -9021.67084653810     
  -9061.46238052433     
  -9255.19944372663     
  -9456.37025180938     
  -9652.44098715365     
  -9841.20825555274     
  -10019.9057002620     
  -10185.7468892896     
  -2321.86061341710     
  -4322.77108187840     
  -6218.02563206029     
  -7790.54143457910     
  -8849.36680916098     
  -9581.11740587174     
  -10076.3362941021     
  -10313.9371300090     
  -10396.2906013798     
  -10304.5121273457     
  -10127.5008375633     
  -9895.30317477454     
  -9608.90940201801     
  -9259.98932004303     
  -8945.48906552803     
  -8693.06135500802     
  -8737.08451590481     
  -8882.65145649613     
  -9027.12614545507     
  -9180.22260884162     
  -9331.72783522603     
  -9475.74464886712     
  -9608.08072616401     
  -9724.08018507581     
  -2818.09436902376     
  -4254.69108440104     
  -5653.88135476412     
  -6855.94268383862     
  -7793.43163485192     
  -8327.75118975475     
  -8622.52867560828     
  -8874.01697326702     
  -8973.96784247374     
  -8954.28033692699     
  -8845.37058774910     
  -8681.48954799553     
  -8503.79456244244     
  -8410.22454184704     
  -8395.06098283040     
  -8481.27312779741     
  -8572.54104699652     
  -8665.35030741207     
  -8777.61264564895     
  -8891.43563654060     
  -9002.92424206125     
  -9106.26069980096     
  -9196.44347353421     
  -9268.38872620711     
  -3163.88300744613     
  -4229.44528302788     
  -5289.69474347586     
  -6242.33728860963     
  -7001.45014642921     
  -7548.07732701289     
  -7895.24223380366     
  -8006.50036629137     
  -8030.45395531409     
  -8033.32483172316     
  -8034.17674035683     
  -8043.49656727819     
  -8108.41519380704     
  -8172.52448687727     
  -8223.24048093869     
  -8277.41084871307     
  -8349.46574060619     
  -8427.84421872554     
  -8508.83771568277     
  -8590.94702678057     
  -8667.98642335152     
  -8735.44397283674     
  -8788.49489916683     
  -8822.17471545302     
  -3383.01719845979     
  -4207.70578943828     
  -5039.98854366726     
  -5805.89234942676     
  -6454.23822950012     
  -6957.15473586687     
  -7304.05481087193     
  -7523.19529501194     
  -7646.17077111254     
  -7720.32843493220     
  -7773.65841118310     
  -7826.64974107538     
  -7881.42823173135     
  -7940.08764343007     
  -7996.09056042158     
  -8051.34734777479     
  -8108.38540473873     
  -8167.85513789331     
  -8226.63146620531     
  -8281.57300181518     
  -8329.37570641983     
  -8365.85712234182     
  -8386.79640820002     
  -8387.66792886946     
  -3505.33242158905     
  -4173.52718707794     
  -4850.18071221449     
  -5486.50279367840     
  -6044.67225921589     
  -6501.56900621368     
  -6852.30307149708     
  -7105.23960312651     
  -7282.04126610864     
  -7405.58583241653     
  -7497.93938421357     
  -7572.91854777876     
  -7639.06610322887     
  -7698.79295404019     
  -7753.68557623815     
  -7804.18999308906     
  -7851.35176899127     
  -7895.15608697267     
  -7934.44545640706     
  -7966.95390184730     
  -7989.85359722211     
  -7999.89980324555     
  -7993.41274095303     
  -7966.41880408475     
  -3557.73662043120     
  -4122.89933556669     
  -4693.47286319247     
  -5236.46816459070     
  -5725.12393546034     
  -6142.38633083756     
  -6481.71189276058     
  -6746.87698930968     
  -6948.37457084036     
  -7100.55951933652     
  -7217.07157493869     
  -7309.20569444377     
  -7384.40036678571     
  -7447.35631468499     
  -7500.58047896893     
  -7545.70029020483     
  -7583.51726247865     
  -7614.18179092493     
  -7636.96622855703     
  -7650.36031775594     
  -7652.19645475738     
  -7639.80171002793     
  -7610.09210301046     
  -7559.62354938476     
  -3562.53673011978     
  -4058.19387955225     
  -4554.70370311249     
  -5029.86242666824     
  -5464.89041553896     
  -5846.82195600807     
  -6169.62907726263     
  -6433.72819741699     
  -6644.64585365971     
  -6810.68993288266     
  -6940.97010659676     
  -7043.60398426650     
  -7125.04453011084     
  -7189.85551426412     
  -7241.13845671295     
  -7280.83932374081     
  -7310.07622559828     
  -7329.19747666745     
  -7337.84238898954     
  -7334.96786586139     
  -7318.93307673474     
  -7287.58671410816     
  -7238.34575727854     
  -7168.26061463653     
  -3537.08896323234     
  -3983.70527808223     
  -4426.86591145861     
  -4851.48425649069     
  -5244.25769109534     
  -5595.44664588908     
  -5899.71011606769     
  -6156.07989589773     
  -6367.13754128719     
  -6537.81950295824     
  -6674.06580381560     
  -6781.76395611613     
  -6866.02531424367     
  -6930.92304583727     
  -6979.46609179894     
  -7013.74091884214     
  -7035.02873401017     
  -7043.90580826910     
  -7040.29360735385     
  -7023.51139644740     
  -6992.32950510179     
  -6945.03133851446     
  -6879.47320409551     
  -6793.13947873188     
  -3494.16101035831     
  -3904.02490082654     
  -4307.01654556621     
  -4692.64340564703     
  -5051.33783301352     
  -5375.71883289282     
  -5661.27853690569     
  -5906.46981977867     
  -6112.31527977184     
  -6281.68916156452     
  -6418.50786003182     
  -6526.98489848353     
  -6611.09403185361     
  -6674.24619485124     
  -6719.16393732858     
  -6747.86349519351     
  -6761.69353228706     
  -6761.37850968151     
  -6747.06200475637     
  -6718.34536914656     
  -6674.32959681406     
  -6613.65889154014     
  -6534.56529143074     
  -6434.91252843023     
  -3442.73763014465     
  -3823.10832112681     
  -4194.23228746262     
  -4548.52648273895     
  -4878.91080485998     
  -5179.70372446198     
  -5447.14744709781     
  -5679.55012609611     
  -5877.09559659735     
  -6041.42956664814     
  -6175.14112585685     
  -6281.25936003334     
  -6362.83888932549     
  -6422.67358877043     
  -6463.12800319414     
  -6486.06070980841     
  -6492.80151460029     
  -6484.15764933900     
  -6460.43142405681     
  -6421.44417355021     
  -6366.56352897994     
  -6294.73352099851     
  -6204.50624452435     
  -6094.07474398065     
  -3388.85108433722     
  -3743.98862136741     
  -4088.46102989600     
  -4416.48642618720     
  -4722.61089964381     
  -5002.33799635137     
  -5252.52195137620     
  -5471.50684378242     
  -5659.04169503265     
  -5816.03180917450     
  -5944.20327778513     
  -6045.75181134716     
  -6123.03161002250     
  -6178.31308898614     
  -6213.61666671689     
  -6230.61163850295     
  -6230.56346671331     
  -6214.31201245107     
  -6182.26847593595     
  -6134.42291413833     
  -6070.35817323735     
  -5989.26772874985     
  -5889.97628353796     
  -5770.96281193457     
  -3336.33835303968     
  -3668.77814794159     
  -3989.91177585969     
  -4295.04415638920     
  -4579.76037957584     
  -4840.36802687663     
  -5074.18358713211     
  -5279.64851775769     
  -5456.29064234376     
  -5604.56805731119     
  -5725.64255746617     
  -5821.12954746960     
  -5892.86186921328     
  -5942.69161430270     
  -5972.33940530087     
  -5983.28988293462     
  -5976.72540289357     
  -5953.48817565868     
  -5914.06179010169     
  -5858.56535936205     
  -5786.75562408064     
  -5698.03421709461     
  -5591.45866185913     
  -5465.75688979728     
  -3287.46249460289     
  -3598.79673461272     
  -3898.76604897127     
  -4183.31040221377     
  -4448.66211336997     
  -4691.65835237705     
  -4909.94580733984     
  -5102.06720353398     
  -5267.43947212055     
  -5406.24698474292     
  -5519.28031868062     
  -5607.75139642333     
  -5673.11116195534     
  -5716.88794330855     
  -5740.55605041120     
  -5745.43664091261     
  -5732.62788773786     
  -5702.95891608112     
  -5656.96152481971     
  -5594.85439815291     
  -5516.53578686031     
  -5421.58199088145     
  -5309.25031567342     
  -5178.48639545825     
  -3243.39526716318     
  -3534.73886937375     
  -3815.06435906888     
  -4080.66769151882     
  -4328.17248767861     
  -4554.75412497238     
  -4758.28384061188     
  -4937.38715712680     
  -5091.42420678221     
  -5220.40820641975     
  -5324.88269118696     
  -5405.77857751654     
  -5464.26936751986     
  -5501.63805778163     
  -5519.16382803946     
  -5518.03159672693     
  -5499.26373880572     
  -5463.67098280832     
  -5411.81855208099     
  -5344.00367122031     
  -5260.24121924619     
  -5160.25531441265     
  -5043.47576946331     
  -4909.03952970532     
  -3204.57759469948     
  -3476.83617836848     
  -3738.68357965293     
  -3986.60443815719     
  -4217.45074714056     
  -4428.60672738828     
  -4618.08941366875     
  -4784.58340779120     
  -4927.41716990613     
  -5046.49345621882     
  -5142.18890202770     
  -5215.23774885263     
  -5266.61284045216     
  -5297.41390065569     
  -5308.76950599154     
  -5301.75573930960     
  -5277.33175277302     
  -5236.29060004531     
  -5179.22273176394     
  -5106.48933783496     
  -5018.20308047569     
  -4914.21451318679     
  -4794.10347941329     
  -4657.17587186575     
  -3170.98107990398     
  -3424.99713100932     
  -3669.35641367311     
  -3900.63614175631     
  -4115.81628284359     
  -4312.40547617670     
  -4488.51116761908     
  -4642.85584830346     
  -4774.74741445725     
  -4884.01460112301     
  -4970.91934394274     
  -5036.05737571291     
  -5080.25676116202     
  -5104.48180283706     
  -5109.74721449720     
  -5097.04503683102     
  -5067.28475191238     
  -5021.24560691745     
  -4959.53932762715     
  -4882.58114630166     
  -4790.56729665477     
  -4683.45773986453     
  -4560.96376885482     
  -4422.54114518299     
  -3142.29328161570     
  -3378.91895548936     
  -3606.70656723660     
  -3822.27432457006     
  -4022.67106627246     
  -4205.47708072821     
  -4368.85348682777     
  -4511.54474696079     
  -4632.84325741107     
  -4732.52635711073     
  -4810.77591611192     
  -4868.08959315385     
  -4905.19125057320     
  -4922.94613392162     
  -4922.28448305500     
  -4904.13543973501     
  -4869.37161499147     
  -4818.76358111773     
  -4752.94290236227     
  -4672.37210942641     
  -4577.32021892310     
  -4467.84294282359     
  -4343.76754349806     
  -4204.68323144779     
  -3118.04610681006     
  -3338.17306300187     
  -3550.28613891734     
  -3751.02014954348     
  -3937.46040212484     
  -4107.22776954976     
  -4258.51432942403     
  -4390.07616042660     
  -4501.19316689118     
  -4591.60618170019     
  -4661.44064681669     
  -4711.12465777027     
  -4741.30744660992     
  -4752.78265235256     
  -4746.41910609919     
  -4723.10043199203     
  -4683.67360920026     
  -4628.90580658990     
  -4559.44831810465     
  -4475.80629800884     
  -4378.31320725751     
  -4267.10940342553     
  -4142.12507495396     
  -4003.06861229627     
  -3097.70268029623     
  -3302.26776427998     
  -3499.60902455161     
  -3686.36953913694     
  -3859.65548832001     
  -4017.11171537855     
  -4156.94858620161     
  -4277.92822218875     
  -4379.32078327733     
  -4460.84119227429     
  -4522.57520183421     
  -4564.90184472208     
  -4588.41745490943     
  -4593.86475865401     
  -4582.06907366150     
  -4553.88244948191     
  -4510.13565176850     
  -4451.59725046969     
  -4378.93872611861     
  -4292.70446177070     
  -4193.28573546052     
  -4080.89834958412     
  -3955.56427910765     
  -3817.09857542022     
  -3080.71439335964     
  -3270.69264962598     
  -3454.17804895738     
  -3627.82254199604     
  -3788.74777437787     
  -3934.61522776075     
  -4063.64774272843     
  -4174.61156281823     
  -4266.77022819338     
  -4339.82093169550     
  -4393.82208941046     
  -4429.11875507401     
  -4446.27051953441     
  -4445.98483110191     
  -4429.05728436625     
  -4396.31934593283     
  -4348.59319815634     
  -4286.65287218740     
  -4211.19060125282     
  -4122.78735005467     
  -4021.88676189821     
  -3908.77229675572     
  -3783.54806684981     
  -3646.12470345580     
  -3066.55682121586     
  -3242.94872213317     
  -3413.50552223792     
  -3574.89316873860     
  -3724.24918511770     
  -3859.25003319618     
  -3978.12964020485     
  -4079.65898108973     
  -4163.09854689627     
  -4228.13453917479     
  -4274.80751867236     
  -4303.43992245096     
  -4314.56676122889     
  -4308.87206598961     
  -4287.13229063438     
  -4250.16686678150     
  -4198.79540808444     
  -4133.80064132461     
  -4055.89597820081     
  -3965.69672358147     
  -3863.69423580694     
  -3750.23289829327     
  -3625.49048791730     
  -3489.46333092510     
  -3054.75085854945     
  -3218.56776933783     
  -3377.12783354795     
  -3527.11790953150     
  -3665.69479717956     
  -3790.55148512030     
  -3899.93423777787     
  -3992.62093297136     
  -4067.87285441660     
  -4125.37097901048     
  -4165.14551970588     
  -4187.50503465001     
  -4192.96922074898     
  -4182.20772617331     
  -4155.98595678642     
  -4115.11787573075     
  -4060.42515011286     
  -3992.70163760922     
  -3912.68209671238     
  -3821.01412867878     
  -3718.23270603026     
  -3604.73719635579     
  -3480.77151077483     
  -3346.40879346077     
  -3044.87366191545     
  -3197.12379385531     
  -3344.61503913460     
  -3484.06225188406     
  -3612.64609355364     
  -3728.07917884362     
  -3828.62272761641     
  -3913.06448730679     
  -3980.67039941189     
  -4031.12121157952     
  -4064.44284807829     
  -4080.93680690480     
  -4081.11459143652     
  -4065.63836407354     
  -4035.26864237617     
  -3990.81889850062     
  -3933.11630870780     
  -3862.96757649778     
  -3781.12868077155     
  -3688.27755493938     
  -3584.98906919786     
  -3471.71224893878     
  -3348.75037698142     
  -3216.24539820968     
  -3036.56268924704     
  -3178.23871357370     
  -3315.57645584719     
  -3445.32510317652     
  -3564.69384255389     
  -3671.41849075880     
  -3763.77833481025     
  -3840.57418240295     
  -3901.08028396442     
  -3944.98145090866     
  -3972.30423564656     
  -3983.34843048272     
  -3978.62283308716     
  -3958.78737577384     
  -3924.60233829400     
  -3876.88441010440     
  -3816.46877170335     
  -3744.17606514982     
  -3660.78307611455     
  -3566.99612470922     
  -3463.42654150999     
  -3350.56816913276     
  -3228.77753750814     
  -3098.25811687655     
  -3029.51518039166     
  -3161.58402664021     
  -3289.66319126768     
  -3410.54130936347     
  -3521.46018630153     
  -3620.18221885971     
  -3705.00778808016     
  -3774.75377425700     
  -3828.70598233218     
  -3866.55689117502     
  -3888.33763751603     
  -3894.35049486499     
  -3885.10576404454     
  -3861.26511868112     
  -3823.59206113416     
  -3772.90919158855     
  -3710.06140622303     
  -3635.88385536110     
  -3551.17346026564     
  -3456.66297510526     
  -3352.99696724310     
  -3240.70965286220     
  -3120.20522457482     
  -2991.74204913092     
  -3023.48473814520     
  -3146.87972063482     
  -3266.56840967280     
  -3379.38258042352     
  -3482.59982756803     
  -3574.01190802692     
  -3651.94287599426     
  -3715.22825295777     
  -3763.16810218983     
  -3795.46548191603     
  -3812.15922274844     
  -3813.55729796408     
  -3800.17468855434     
  -3772.67775525451     
  -3731.83573328393     
  -3678.47901167528     
  -3613.46327715062     
  -3537.63832602666     
  -3451.82032481638     
  -3356.76649563962     
  -3253.15159247616     
  -3141.54609544045     
  -3022.39674066419     
  -2896.01073082867     
  -3018.27617667040     
  -3133.89137912193     
  -3246.02599111852     
  -3351.55716170954     
  -3447.80036551612     
  -3532.57868813673     
  -3604.24177890035     
  -3661.64576545696     
  -3704.10704794540     
  -3731.34148553335     
  -3743.39794532820     
  -3740.59249080896     
  -3723.44710566427     
  -3692.63494805763     
  -3648.93272738852     
  -3593.17984010133     
  -3526.24332150500     
  -3448.98739890261     
  -3362.24641386022     
  -3266.80008067672     
  -3163.35043831485     
  -3052.50040952877     
  -2934.73456134251     
  -2810.40337483670     
  -3013.73945099406     
  -3122.42618765031     
  -3227.80810872855     
  -3326.80857310298     
  -3416.78190823193     
  -3495.58359470020     
  -3561.59003939385     
  -3613.67925614120     
  -3651.18539644287     
  -3673.83866492219     
  -3681.69960478796     
  -3675.09403722378     
  -3654.55254874635     
  -3620.75651267777     
  -3574.49122350389     
  -3516.60576587304     
  -3447.97866141437     
  -3369.48806743340     
  -3281.98528674908     
  -3186.27054838171     
  -3083.07040719883     
  -2973.01666112247     
  -2856.62735452692     
  -2734.29113704641     
  -3009.76322889241     
  -3112.32835054029     
  -3211.72213462659     
  -3304.91370013624     
  -3389.29611861107     
  -3462.75741883797     
  -3523.70113853365     
  -3571.02774801559     
  -3604.08989722904     
  -3622.63303039164     
  -3626.73036147898     
  -3616.71849874235     
  -3593.13761217244     
  -3556.67812595833     
  -3508.13450793655     
  -3448.36576995725     
  -3378.26171492017     
  -3298.71369831222     
  -3210.58865826875     
  -3114.70536816839     
  -3011.81225103809     
  -2902.56663881336     
  -2787.51601907857     
  -2667.08249986787     
  -3006.26848681258     
  -3103.47428645480     
  -3197.60718970316     
  -3285.68047694517     
  -3365.12485191806     
  -3433.86017080230     
  -3490.31670485259     
  -3533.41725614551     
  -3562.53307585304     
  -3577.42513041994     
  -3578.17971124061     
  -3565.14467788866     
  -3538.87022911064     
  -3500.05618215326     
  -3449.50632961315     
  -3388.08948438289     
  -3316.70624525863     
  -3236.26024829082     
  -3147.63265510733     
  -3051.65882795235     
  -2949.10652257119     
  -2840.65546682310     
  -2726.87884230803     
  -2608.22786235408     
  -3003.20238425336     
  -3095.76786401949     
  -3185.33057550335     
  -3268.94535732658     
  -3344.07853127060     
  -3408.68025491308     
  -3461.20641445706     
  -3500.60136508556     
  -3526.25445963238     
  -3537.94190648102     
  -3535.76295075057     
  -3520.07666869372     
  -3491.44326965630     
  -3450.57188601303     
  -3398.27541977195     
  -3335.43205581619     
  -3262.95247385666     
  -3181.75152371479     
  -3092.72311407844     
  -2996.71726136831     
  -2894.51862254824     
  -2786.82636553264     
  -2674.23587061803     
  -2557.22342143745     
  -3000.53258159369     
  -3089.13586001192     
  -3174.78426572337     
  -3254.57073076379     
  -3325.99438911480     
  -3387.03345378170     
  -3436.16765383351     
  -3472.36152304184     
  -3495.02146864445     
  -3503.93815338823     
  -3499.22318088254     
  -3481.24637262276     
  -3450.57753082141     
  -3407.93466789148     
  -3354.13927201999     
  -3290.07821976374     
  -3216.67136884174     
  -3134.84359667486     
  -3045.50003483875     
  -2949.50344385755     
  -2847.65304578834     
  -2740.66465531074     
  -2629.15258095801     
  -2513.61442326527     
  -2998.24210417833     
  -3083.52376513435     
  -3165.88158755632     
  -3242.44240637997     
  -3310.73468284106     
  -3368.76181236615     
  -3415.02501941268     
  -3448.50711417523     
  -3468.63002601017     
  -3475.19763744883     
  -3468.33290348488     
  -3448.41554205267     
  -3416.02418929013     
  -3371.88500104287     
  -3316.82727135984     
  -3251.74568065243     
  -3177.56820860405     
  -3095.22847904983     
  -3005.64128766291     
  -2909.68025533287     
  -2808.15691923166     
  -2701.80109087301     
  -2591.24293350935     
  -2476.99785760553     
  -2996.32481294420     
  -3078.89202090516     
  -3158.55418696012     
  -3232.46725956176     
  -3298.18497340441     
  -3353.73250158075     
  -3397.62972404959     
  -3428.87537133242     
  -3446.90494485553     
  -3451.53392834684     
  -3442.89526924444     
  -3421.37741322368     
  -3387.56678467302     
  -3342.19669516965     
  -3286.10325216729     
  -3220.18788255465     
  -3145.38550835696     
  -3062.63714373272     
  -2972.86566507449     
  -2876.95369604358     
  -2775.72291500366     
  -2669.91460444966     
  -2560.17187829745     
  -2447.02466185323     
  -2994.78151351120     
  -3075.21274175993     
  -3152.74934463786     
  -3224.57111306347     
  -3288.25253830277     
  -3341.83672914663     
  -3383.85897326984     
  -3413.33118765211     
  -3429.70014749260     
  -3432.79099939504     
  -3422.74503240299     
  -3399.95798723867     
  -3365.02279574290     
  -3318.67873305471     
  -3261.76755610341     
  -3195.19624496019     
  -3119.90538640808     
  -3036.84197074657     
  -2946.93535466279     
  -2851.07533129276     
  -2750.09161132260     
  -2644.73452683480     
  -2535.65738033517     
  -2423.40149429669     
  -2993.61671749870     
  -3072.46695599533     
  -3148.42768923900     
  -3218.69690608777     
  -3280.86497495554     
  -3332.98875338468     
  -3373.61536520299     
  -3401.76687894496     
  -3416.89876729904     
  -3418.84364629657     
  -3407.74926333999     
  -3384.01701206960     
  -3348.24486530307     
  -3301.17670894302     
  -3243.65865153588     
  -3176.60192759640     
  -3100.95143579912     
  -3017.65868461876     
  -2927.65789915089     
  -2831.84422978028     
  -2731.05336384054     
  -2626.04234598229     
  -2517.47201947557     
  -2405.89212897699     
  -2992.83605897053     
  -3070.64238538818     
  -3145.56133943761     
  -3214.80319038906     
  -3275.96903742653     
  -3327.12504435066     
  -3366.82635863724     
  -3394.10194076143     
  -3408.41317679349     
  -3409.59776800335     
  -3397.80786337766     
  -3373.44871134225     
  -3337.12172134714     
  -3289.57391843803     
  -3231.65436627316     
  -3164.27717780975     
  -3088.39015599959     
  -3004.94783819434     
  -2914.88769864949     
  -2819.10844952375     
  -2718.44973971442     
  -2613.67305322275     
  -2505.44421240418     
  -2394.31851667467     
  -2992.44436324348     
  -3069.73177439490     
  -3144.13249581808     
  -3212.86298110797     
  -3273.52973833208     
  -3324.20362633976     
  -3363.44384415948     
  -3390.28283542183     
  -3404.18497734545     
  -3404.99054545554     
  -3392.85391828039     
  -3368.18229742552     
  -3331.57883337279     
  -3283.79214023953     
  -3225.67277535301     
  -3158.13630343800     
  -3082.13198839765     
  -2998.61588696844     
  -2908.52709898410     
  -2812.76611451900     
  -2712.17455635057     
  -2607.51611741357     
  -2499.45909514735     
  -2388.56154830084     
SCALARS 2waySource double 
LOOKUP_TABLE default
 -1.487825068550028E-006
 -1.063114773094197E-006
 -8.608610351141038E-008
  8.863402810222993E-007
  1.507087319158925E-006
  1.456686260370816E-006
  4.749052997100411E-007
  2.359660891379817E-006
  2.106743733093090E-006
  1.851786463119008E-006
 -9.465599886114378E-007
 -2.252650064561965E-006
 -4.011850257178604E-006
 -5.438710869240677E-006
 -6.861411945723611E-006
 -8.118566943481842E-006
 -9.306446320375232E-006
 -1.033281878213677E-005
 -1.112727694635478E-005
 -1.222987729978610E-005
 -1.309245728685153E-005
 -1.371881926149010E-005
 -1.420552428745153E-005
 -1.457127558532722E-005
 -1.474650293939249E-006
 -6.635460800612797E-007
  2.546450651649186E-007
  1.171489629742120E-006
  1.856646416967021E-006
  2.077194898230184E-006
  2.137297485726437E-006
  2.320910145515203E-006
  2.083253886122840E-006
  5.021945951086796E-007
 -5.848648107610949E-007
 -3.059042789968001E-006
 -3.896757289618937E-006
 -5.667990335273576E-006
 -6.832928705404192E-006
 -8.140726830634941E-006
 -9.329158417407730E-006
 -1.021212044582927E-005
 -1.111886705085157E-005
 -1.239363433606814E-005
 -1.306623431597357E-005
 -1.362235618720339E-005
 -1.408739107535069E-005
 -1.444477186089901E-005
 -1.122583128166319E-006
 -2.581102157562494E-007
  4.567434788795150E-007
  1.371112384372941E-006
  1.981023550562389E-006
  2.239027624849744E-006
  2.186332093687185E-006
  2.137209186430325E-006
  1.545635947144544E-006
  6.547787000428068E-007
 -1.848567488681143E-006
 -3.378567945499220E-006
 -4.969746074535170E-006
 -5.378474153955084E-006
 -6.726583879756607E-006
 -7.984083068615917E-006
 -9.213062036529716E-006
 -1.024467617400196E-005
 -1.139184864422194E-005
 -1.248484256955126E-005
 -1.290322427462283E-005
 -1.341489962372161E-005
 -1.385106153033008E-005
 -1.419986854174957E-005
 -1.603482091703145E-006
 -8.079120474891448E-007
  5.208975859084790E-007
  1.310834439832379E-006
  1.768416245192984E-006
  1.901227510472807E-006
  1.779187512591571E-006
  1.430197401185899E-006
  9.412112389261017E-007
  1.372147385789411E-007
 -3.770701883135688E-007
 -3.538692360360610E-006
 -6.436516157230136E-006
 -7.792986367818609E-006
 -8.363742996530685E-006
 -9.021619636915449E-006
 -9.873967649483145E-006
 -1.072329102952491E-005
 -1.157921975338005E-005
 -1.207613873414870E-005
 -1.262182204251782E-005
 -1.308352735713955E-005
 -1.349505700035489E-005
 -1.383167962529270E-005
 -7.602850439481481E-007
 -5.739384576143665E-007
  4.559574353314797E-007
  9.486281583689235E-007
  1.183566852589835E-006
  1.168062972790710E-006
  9.229847025137899E-007
  4.949810563134424E-007
 -1.182053655116199E-007
 -7.732864948480993E-007
 -1.345185884203139E-006
 -2.935340039277556E-006
 -5.112280932182155E-006
 -6.546634599828818E-006
 -7.760583290319138E-006
 -8.971102088413851E-006
 -9.951121472755733E-006
 -1.067409241712347E-005
 -1.119590499349208E-005
 -1.171246018992010E-005
 -1.220476022329421E-005
 -1.264151095970533E-005
 -1.302129062781086E-005
 -1.334116769034782E-005
 -4.148817953554498E-007
 -1.545510544964918E-007
  1.265049340906955E-007
  3.135185383164664E-007
  2.970662606960310E-007
  1.150686079396338E-007
 -2.262472391197652E-007
 -7.197014137083667E-007
 -1.339148904113089E-006
 -2.066142637322908E-006
 -2.884839272784301E-006
 -4.002108701544155E-006
 -5.376540414771547E-006
 -6.561692244768545E-006
 -7.620357100411114E-006
 -8.662118583487493E-006
 -9.583369331566038E-006
 -1.028451589514617E-005
 -1.078993107124270E-005
 -1.126431599895463E-005
 -1.169781976334018E-005
 -1.209169165280480E-005
 -1.243854345570188E-005
 -1.273506972683885E-005
  1.282710836597415E-007
  1.064847022962500E-008
 -2.178270007284245E-007
 -4.640323754754767E-007
 -7.517414444434592E-007
 -1.105871324524725E-006
 -1.535580234108574E-006
 -2.048006421609806E-006
 -2.644293617976369E-006
 -3.313740324411734E-006
 -4.068240838106681E-006
 -4.957002871866348E-006
 -5.942102592876884E-006
 -6.889086653382076E-006
 -7.743918582308986E-006
 -8.542145607241918E-006
 -9.257950832127422E-006
 -9.854828192555786E-006
 -1.032665021816457E-005
 -1.073387747424632E-005
 -1.110909978699137E-005
 -1.145143462484825E-005
 -1.175830365508697E-005
 -1.202603897076342E-005
  8.762464116353502E-007
  1.325093395378044E-007
 -5.841779942389724E-007
 -1.232249670921314E-006
 -1.809299358364464E-006
 -2.338990434051093E-006
 -2.850028203653165E-006
 -3.366806419436181E-006
 -3.905682641901430E-006
 -4.477535191109339E-006
 -5.095633457477762E-006
 -5.770972534233720E-006
 -6.481612436472718E-006
 -7.174943661815077E-006
 -7.820954533134920E-006
 -8.413785709146449E-006
 -8.947199206188262E-006
 -9.407647318775183E-006
 -9.797291369912543E-006
 -1.013736502832330E-005
 -1.044742614269269E-005
 -1.073435057353856E-005
 -1.099625115804345E-005
 -1.123022869949609E-005
  1.648291404420309E-006
  2.916873741987495E-007
 -8.959644639814000E-007
 -1.910096665330430E-006
 -2.755651623408025E-006
 -3.456093665488392E-006
 -4.046866463070802E-006
 -4.564999000023565E-006
 -5.042449178379955E-006
 -5.504394322634389E-006
 -5.969818418232241E-006
 -6.447923226839613E-006
 -6.931267111572162E-006
 -7.400972895453980E-006
 -7.841604132818301E-006
 -8.247071413361906E-006
 -8.613584692794956E-006
 -8.938987552343871E-006
 -9.226413604405932E-006
 -9.485835857688492E-006
 -9.727179277194617E-006
 -9.955030032360163E-006
 -1.016879704225629E-005
 -1.036570136054605E-005
  2.337688236937816E-006
  4.733980245789725E-007
 -1.116393990405466E-006
 -2.444593484305165E-006
 -3.522982202719952E-006
 -4.376473809180055E-006
 -5.043078486362626E-006
 -5.566839976470045E-006
 -5.990280428411017E-006
 -6.349682806921649E-006
 -6.672660033041600E-006
 -6.976217867461357E-006
 -7.266089705504443E-006
 -7.540210830447055E-006
 -7.795235586054898E-006
 -8.029795273103426E-006
 -8.244291553592427E-006
 -8.440361535239494E-006
 -8.621823857663723E-006
 -8.794257877395057E-006
 -8.962660275040646E-006
 -9.129152771559863E-006
 -9.292703161900580E-006
 -9.450619466538162E-006
  2.882558791558341E-006
  6.488903069005651E-007
 -1.247702266253101E-006
 -2.821661680511972E-006
 -4.086271551750267E-006
 -5.066083565137493E-006
 -5.799106812813255E-006
 -6.332040036288437E-006
 -6.713245292707080E-006
 -6.986784728673718E-006
 -7.188636032098012E-006
 -7.344914206815287E-006
 -7.472102422739253E-006
 -7.579508793350961E-006
 -7.672725649591499E-006
 -7.756151209047313E-006
 -7.833866572225139E-006
 -7.909940082060970E-006
 -7.988538243808033E-006
 -8.073594745556368E-006
 -8.167829196270484E-006
 -8.271890103598469E-006
 -8.384310314606554E-006
 -8.502335364720245E-006
  3.254901015127692E-006
  7.910395520996289E-007
 -1.310425822016170E-006
 -3.055677428739226E-006
 -4.454160198715866E-006
 -5.527679369862600E-006
 -6.312170453255073E-006
 -6.853992183753603E-006
 -7.203668303782170E-006
 -7.409780154872971E-006
 -7.514559254638728E-006
 -7.551646040339617E-006
 -7.545929367303757E-006
 -7.515019140261380E-006
 -7.471467592727521E-006
 -7.424680340121317E-006
 -7.382079985139685E-006
 -7.349672356404539E-006
 -7.332274482942295E-006
 -7.333423291445300E-006
 -7.355078015771294E-006
 -7.397396220716111E-006
 -7.458873654690913E-006
 -7.536884244268573E-006
  3.451334537309531E-006
  8.804872151569469E-007
 -1.331034239885164E-006
 -3.175883909848071E-006
 -4.656054995305831E-006
 -5.788579531877958E-006
 -6.605851558962227E-006
 -7.151991582345836E-006
 -7.477144387676175E-006
 -7.631635311946902E-006
 -7.661379017507660E-006
 -7.605182515452324E-006
 -7.493943219238420E-006
 -7.351307651112374E-006
 -7.195092513433112E-006
 -7.038771805102949E-006
 -6.892613492992638E-006
 -6.764413387564920E-006
 -6.659913687625247E-006
 -6.582997058784791E-006
 -6.535754738080838E-006
 -6.518572455664559E-006
 -6.530345431976701E-006
 -6.568831432495443E-006
  3.485183809860808E-006
  9.068252576738870E-007
 -1.334518788246017E-006
 -3.216063449544728E-006
 -4.730475975991916E-006
 -5.888747539584661E-006
 -6.718823852888065E-006
 -7.261506529310538E-006
 -7.564977270199267E-006
 -7.679264962353336E-006
 -7.651706081206488E-006
 -7.523976746917421E-006
 -7.330772672262977E-006
 -7.099824372770768E-006
 -6.852728675841534E-006
 -6.606067016630781E-006
 -6.372443046939192E-006
 -6.161291335354691E-006
 -5.979458775570674E-006
 -5.831606366666790E-006
 -5.720493261749262E-006
 -5.647205790384694E-006
 -5.611369999714853E-006
 -5.611339655333987E-006
  3.379693255967703E-006
  8.677353637070092E-007
 -1.340770022567449E-006
 -3.207939039922990E-006
 -4.716662199748390E-006
 -5.871381834024052E-006
 -6.695188361190982E-006
 -7.225050534215144E-006
 -7.506315958860787E-006
 -7.587399951879417E-006
 -7.515384520477967E-006
 -7.332953778771267E-006
 -7.076748430949785E-006
 -6.776929197555615E-006
 -6.457567812952734E-006
 -6.137456359677951E-006
 -5.831013924655413E-006
 -5.549110569757698E-006
 -5.299746181821728E-006
 -5.088582015493913E-006
 -4.919339955760391E-006
 -4.794082328553275E-006
 -4.713370002488400E-006
 -4.676283490064597E-006
  3.162676643687246E-006
  7.671750455320603E-007
 -1.363398804882873E-006
 -3.177742109669655E-006
 -4.649517183876369E-006
 -5.776733431489339E-006
 -6.577626252495034E-006
 -7.085213504584435E-006
 -7.341634643745761E-006
 -7.392957644763514E-006
 -7.284923451316663E-006
 -7.059893787210782E-006
 -6.755045083133696E-006
 -6.401650985942637E-006
 -6.025167487977583E-006
 -5.645800043691632E-006
 -5.279278572286056E-006
 -4.937654595120102E-006
 -4.630020398605763E-006
 -4.363104070458211E-006
 -4.141715252851926E-006
 -3.969017622523239E-006
 -3.846599709984995E-006
 -3.774324304257839E-006
  2.862652399747276E-006
  6.133302639680484E-007
 -1.410026825741101E-006
 -3.145018493395931E-006
 -4.557230825969160E-006
 -5.638796176033575E-006
 -6.403399907322357E-006
 -6.880265059410623E-006
 -7.108283999139170E-006
 -7.130867658819171E-006
 -6.991811626949733E-006
 -6.732309865802721E-006
 -6.389100322776973E-006
 -5.993599067163703E-006
 -5.571793464324619E-006
 -5.144636218784999E-006
 -4.728706419365807E-006
 -4.336959064205477E-006
 -3.979443524763670E-006
 -3.663913862601212E-006
 -3.396274115954744E-006
 -3.180806907464596E-006
 -3.020137981862051E-006
 -2.914913639399824E-006
  2.506318629222759E-006
  4.167369820448418E-007
 -1.483317661921977E-006
 -3.122824497769265E-006
 -4.460728767366023E-006
 -5.484103803791589E-006
 -6.202592514384320E-006
 -6.641960181704931E-006
 -6.838030456797729E-006
 -6.831535463157179E-006
 -6.664075152013328E-006
 -6.375215870160241E-006
 -6.000654016448814E-006
 -5.571293383536837E-006
 -5.113034530711008E-006
 -4.647057901299651E-006
 -4.190397834569574E-006
 -3.756640364720990E-006
 -3.356617583346252E-006
 -2.999002179691129E-006
 -2.690722597879900E-006
 -2.437126598318978E-006
 -2.241831722240901E-006
 -2.106237166645285E-006
  2.117112079608919E-006
  1.887640718408604E-007
 -1.582261378007680E-006
 -3.118654004028872E-006
 -4.374206551065599E-006
 -5.331865710183375E-006
 -5.997850960929008E-006
 -6.394913948780746E-006
 -6.556119591450961E-006
 -6.519682499246569E-006
 -6.324997120634123E-006
 -6.009822496594414E-006
 -5.608498128578415E-006
 -5.151021980854356E-006
 -4.662798444404938E-006
 -4.164860682644291E-006
 -3.674386000209676E-006
 -3.205348265487700E-006
 -2.769178788874602E-006
 -2.375328534688379E-006
 -2.031637158712101E-006
 -1.744422164030812E-006
 -1.518216565626320E-006
 -1.355128190001188E-006
  1.714569744574884E-006
 -5.949102707856334E-008
 -1.703421245734966E-006
 -3.135645592368763E-006
 -4.306197633001493E-006
 -5.194834682257925E-006
 -5.805009242138140E-006
 -6.156952416193148E-006
 -6.281349666905830E-006
 -6.214165675609749E-006
 -5.992730803668650E-006
 -5.653006116048811E-006
 -5.227865719340962E-006
 -4.746207972506873E-006
 -4.232702678928230E-006
 -3.707989622344294E-006
 -3.189160496200658E-006
 -2.690377129229557E-006
 -2.223498832908754E-006
 -1.798606505997725E-006
 -1.424319945184167E-006
 -1.107812179418538E-006
 -8.544426145885582E-007
 -6.669820286903383E-007
  1.314236934933060E-006
 -3.179235146817902E-007
 -1.841995207767198E-006
 -3.173794147938524E-006
 -4.260811481735681E-006
 -5.080485025054595E-006
 -5.634139488050478E-006
 -5.939983742266381E-006
 -6.026727662211044E-006
 -5.928405522592306E-006
 -5.680510840662568E-006
 -5.317333788533242E-006
 -4.870313071747284E-006
 -4.367196324628996E-006
 -3.831810693344464E-006
 -3.284262640812521E-006
 -2.741406395206972E-006
 -2.217440113058647E-006
 -1.724504812858264E-006
 -1.273171682586538E-006
 -8.727093133829072E-007
 -5.310291411748819E-007
 -2.542272612716081E-007
 -4.569689240727841E-008
  9.279138515560799E-007
 -5.778268443626301E-007
 -1.992639514790972E-006
 -3.231020865527224E-006
 -4.238926650077836E-006
 -4.992236672357171E-006
 -5.490733522117580E-006
 -5.751076522797804E-006
 -5.800397343713030E-006
 -5.671134032354953E-006
 -5.397210452146604E-006
 -5.011438448179746E-006
 -4.543936622451612E-006
 -4.021345646452750E-006
 -3.466634890334205E-006
 -2.899319059544118E-006
 -2.335927577737049E-006
 -1.790589583311808E-006
 -1.275611697387800E-006
 -8.019338644825484E-007
 -3.793526736377844E-007
 -1.640783470341549E-008
  2.801512495078714E-007
  5.063421524267629E-007
  5.640855097581585E-007
 -8.320604375967508E-007
 -2.150057614069824E-006
 -3.304041684701642E-006
 -4.239229070658612E-006
 -4.930577360273992E-006
 -5.376838599247795E-006
 -5.593549916813070E-006
 -5.606635258332176E-006
 -5.447260719126673E-006
 -5.148056809966093E-006
 -4.740578610509600E-006
 -4.253786220758126E-006
 -3.713314817627085E-006
 -3.141322458528548E-006
 -2.556732097812305E-006
 -1.975711413071467E-006
 -1.412255343204474E-006
 -8.787501580335100E-007
 -3.864049270050973E-007
  5.456059197381141E-008
  4.350764975177159E-007
  7.478142027027645E-007
  9.882289079113150E-007
  2.284273867696958E-007
 -1.075051899053739E-006
 -2.309385307127424E-006
 -3.389026132847298E-006
 -4.259054151486692E-006
 -4.894013891500225E-006
 -5.292055889292051E-006
 -5.467966446138326E-006
 -5.446793191959744E-006
 -5.258729427377330E-006
 -4.935377988367513E-006
 -4.507263446345994E-006
 -4.002368097753230E-006
 -3.445453450664169E-006
 -2.857949702991906E-006
 -2.258226843972193E-006
 -1.662090520368362E-006
 -1.083368456103975E-006
 -5.344674698940081E-007
 -2.678794098088028E-008
  4.291145469919459E-007
  8.237243518307949E-007
  1.149198343432127E-006
  1.400452264325122E-006
 -7.568256801847461E-008
 -1.302693882033029E-006
 -2.466413439671020E-006
 -3.482066284302543E-006
 -4.295031726728412E-006
 -4.879832942354192E-006
 -5.234365612751992E-006
 -5.372976817012092E-006
 -5.320124247633796E-006
 -5.105294005088249E-006
 -4.759304542350559E-006
 -4.311865562012350E-006
 -3.790163294911089E-006
 -3.218228624917068E-006
 -2.616866086419678E-006
 -2.003954604768813E-006
 -1.394962099977564E-006
 -8.035399811526579E-007
 -2.420784882712404E-007
  2.778890818721285E-007
  7.455421525303651E-007
  1.150990805887047E-006
  1.485933864379510E-006
  1.744769569866449E-006
 -3.466863958632222E-007
 -1.512181731644923E-006
 -2.617689466370040E-006
 -3.579487521900754E-006
 -4.343554179091837E-006
 -4.884680101983905E-006
 -5.200776084428879E-006
 -5.306002929478632E-006
 -5.224468278317370E-006
 -4.985179412358804E-006
 -4.618385135112938E-006
 -4.153176396943606E-006
 -3.616114858808241E-006
 -3.030642334791724E-006
 -2.417045770936510E-006
 -1.792786252995372E-006
 -1.173033022155017E-006
 -5.712684734458617E-007
  1.541640404376460E-010
  5.296111249700550E-007
  1.006073476181655E-006
  1.419337336269627E-006
  1.760693817410837E-006
  2.024047332943226E-006
 -5.844239380329173E-007
 -1.701824997341241E-006
 -2.760534253038722E-006
 -3.678035350220474E-006
 -4.401096973230585E-006
 -4.904979880348235E-006
 -5.187812040846249E-006
 -5.263766523849170E-006
 -5.156795928829853E-006
 -4.895619524576676E-006
 -4.510100288919727E-006
 -4.028882547450619E-006
 -3.478058202695151E-006
 -2.880612160173961E-006
 -2.256419153473057E-006
 -1.622598564019961E-006
 -9.940671901270318E-007
 -3.841558230359931E-007
  1.948279813026757E-007
  7.312002066048571E-007
  1.213768807291100E-006
  1.632067344988022E-006
  1.977025401039039E-006
  2.242080891025643E-006
 -7.897737094998202E-007
 -1.870855046440576E-006
 -2.893003606476120E-006
 -3.774970014066760E-006
 -4.464422423636257E-006
 -4.937224564382379E-006
 -5.191865824096656E-006
 -5.242681719643454E-006
 -5.113623500307117E-006
 -4.833277441916408E-006
 -4.431273783473107E-006
 -3.935956880158806E-006
 -3.373083908162981E-006
 -2.765301190193295E-006
 -2.132168598818919E-006
 -1.490537203813553E-006
 -8.551193138651645E-007
 -2.391167174785085E-007
  3.452097745709165E-007
  8.861372974772308E-007
  1.372347277448184E-006
  1.793155377212600E-006
  2.139173305246450E-006
  2.403404514418526E-006
 -9.643564524449837E-007
 -2.019242605728104E-006
 -3.013817043860934E-006
 -3.868095907636110E-006
 -4.530695157624331E-006
 -4.978159764078400E-006
 -5.209437127067554E-006
 -5.239133847082858E-006
 -5.091316829003494E-006
 -4.794561675357808E-006
 -4.378389994984189E-006
 -3.870967799137385E-006
 -3.297831932866801E-006
 -2.681392591374346E-006
 -2.040981163650407E-006
 -1.393247545559297E-006
 -7.527455150686227E-007
 -1.325720446372975E-007
  4.550555684292242E-007
  9.983910456379434E-007
  1.486019555141068E-006
  1.907078554243350E-006
  2.251904116600174E-006
  2.513102145707692E-006
 -1.110296434999476E-006
 -2.147532922133746E-006
 -3.122270111944495E-006
 -3.955747374055339E-006
 -4.597533589403367E-006
 -5.024891751648412E-006
 -5.237285724196050E-006
 -5.249667160527187E-006
 -5.086304011717921E-006
 -4.775854592422747E-006
 -4.347829687048639E-006
 -3.830315187495390E-006
 -3.248721942518237E-006
 -2.625310183905456E-006
 -1.979256943022684E-006
 -1.327069906468153E-006
 -6.831859773010856E-007
 -6.062062603294624E-008
  5.284472316562176E-007
  1.072259555862215E-006
  1.559331035452038E-006
  1.978656949471953E-006
  2.320339100336951E-006
  2.576627081873827E-006
 -1.230033385564352E-006
 -2.256701987394371E-006
 -3.218141477481799E-006
 -4.036747386981863E-006
 -4.663017089304873E-006
 -5.074937819726835E-006
 -5.272518650598541E-006
 -5.271102082265779E-006
 -5.095215955941195E-006
 -4.773669756941389E-006
 -4.336038070622639E-006
 -3.810403776058749E-006
 -3.222127441405381E-006
 -2.593389820759040E-006
 -1.943275316036245E-006
 -1.288199418291916E-006
 -6.425182671706537E-007
 -1.918675184847065E-008
  5.696491809564494E-007
  1.112229142568525E-006
  1.597019915332271E-006
  2.012907774863008E-006
  2.349800802399577E-006
  2.599636771899697E-006
 -1.326177282346268E-006
 -2.348034495224247E-006
 -3.301602065156872E-006
 -4.110351190214661E-006
 -4.725664122605726E-006
 -5.126236791612761E-006
 -5.312629722319272E-006
 -5.300599724614494E-006
 -5.114971609266109E-006
 -4.784753516761475E-006
 -4.339638528193560E-006
 -3.807765081705158E-006
 -3.214502471322534E-006
 -2.582008012385705E-006
 -1.929323389149281E-006
 -1.272812962975370E-006
 -6.267822124554915E-007
 -4.143176738139082E-009
  5.829864467013104E-007
  1.122852078164559E-006
  1.603892766610805E-006
  2.014916504610898E-006
  2.345677083452177E-006
  2.587846807467789E-006
 -1.401398437789713E-006
 -2.423022508355705E-006
 -3.373130599992962E-006
 -4.176183379379295E-006
 -4.784392783244273E-006
 -5.177133006780492E-006
 -5.355505732139108E-006
 -5.335688289100162E-006
 -5.142822102944242E-006
 -4.806144189821271E-006
 -4.355504056958887E-006
 -3.819138382374017E-006
 -3.222469592457008E-006
 -2.587674715953714E-006
 -1.933791830644276E-006
 -1.277166794841801E-006
 -6.320785915403564E-007
 -1.141068775067661E-008
  5.727439172567321E-007
  1.108643893837323E-006
  1.584718752028307E-006
  1.989726548167551E-006
  2.313304555449581E-006
  2.546906306570151E-006
 -1.458346013770464E-006
 -2.483282886380316E-006
 -3.433437840993849E-006
 -4.234174117773450E-006
 -4.838471973701914E-006
 -5.226343808427223E-006
 -5.399410432428602E-006
 -5.374262942808013E-006
 -5.176365388083408E-006
 -4.835199974749161E-006
 -4.380796753924099E-006
 -3.841519982536527E-006
 -3.242877155912647E-006
 -2.607096971602937E-006
 -1.953243453428496E-006
 -1.297668953469845E-006
 -6.546446080189475E-007
 -3.703623929933563E-008
  5.430855850696492E-007
  1.073999717381005E-006
  1.544142483519283E-006
  1.942247845584259E-006
  2.257872017523364E-006
  2.482295324237679E-006
 -1.499589007601551E-006
 -2.530491113619220E-006
 -3.483400388415848E-006
 -4.284498089333286E-006
 -4.887468973635246E-006
 -5.272917846281843E-006
 -5.442954667560348E-006
 -5.414568121625869E-006
 -5.213540498660094E-006
 -4.869604558571494E-006
 -4.412983864762162E-006
 -3.872188611557393E-006
 -3.272832866719246E-006
 -2.637219443372177E-006
 -1.984459629113936E-006
 -1.330930598442612E-006
 -6.909093975070155E-007
 -7.725211709565543E-008
  4.979920000081405E-007
  1.023128393680694E-006
  1.486614675190888E-006
  1.877183801844955E-006
  2.184343408544093E-006
  2.399243703108925E-006
 -1.527574696718568E-006
 -2.566329083481898E-006
 -3.524004042371131E-006
 -4.327518282253923E-006
 -4.931197224900316E-006
 -5.316189357379665E-006
 -5.485058772033804E-006
 -5.455168981786783E-006
 -5.252608457869519E-006
 -4.907357462127232E-006
 -4.449837229913531E-006
 -3.908713392213203E-006
 -3.309719534754654E-006
 -2.675247126420851E-006
 -2.024469110553823E-006
 -1.373800154023300E-006
 -7.375327986332752E-007
 -1.285187697208974E-007
  4.412137995620545E-007
  9.600026641859056E-007
  1.416339158162078E-006
  1.798975285167506E-006
  2.097399000604708E-006
  2.302669888659529E-006
 -1.544600427915132E-006
 -2.592444508924686E-006
 -3.556296147204083E-006
 -4.363735644365437E-006
 -4.969666743733306E-006
 -5.355731936168632E-006
 -5.524911575754929E-006
 -5.494916915850242E-006
 -5.292125086040726E-006
 -4.946754516108551E-006
 -4.489421475199553E-006
 -3.948949529715517E-006
 -3.351197847219819E-006
 -2.718654651370350E-006
 -2.070563239379005E-006
 -1.423383767981540E-006
 -7.914304326018547E-007
 -1.875539313441736E-007
  3.762390522991621E-007
  8.883234219460674E-007
  1.337234456550624E-006
  1.711759954177621E-006
  2.001393021597611E-006
  2.197137643668599E-006
 -1.552795437392486E-006
 -2.610419846719690E-006
 -3.581346064641724E-006
 -4.393744946478024E-006
 -5.003038554155596E-006
 -5.391314072984851E-006
 -5.561928995450632E-006
 -5.532912630425496E-006
 -5.330909555512963E-006
 -4.986362506477148E-006
 -4.530075041737341E-006
 -3.991025754266852E-006
 -3.395200037716538E-006
 -2.765185830243558E-006
 -2.120300904642648E-006
 -1.477055149661790E-006
 -8.497878568489946E-007
 -2.513505251101416E-007
  3.062721574817218E-007
  8.114959556964985E-007
  1.252907929186617E-006
  1.619344911197923E-006
  1.900325576234038E-006
  2.086828255666644E-006
 -1.554110073221100E-006
 -2.621748886388427E-006
 -3.600212796171461E-006
 -4.418196741050564E-006
 -5.031583830438914E-006
 -5.422857845466374E-006
 -5.595714172539072E-006
 -5.568469196816948E-006
 -5.368011433557875E-006
 -5.024990947516993E-006
 -4.570387128686564E-006
 -4.033326616598829E-006
 -3.439917502445589E-006
 -2.812846386935344E-006
 -2.171506047072354E-006
 -1.532457410957081E-006
 -9.100662417612823E-007
 -3.171856355856401E-007
  2.342221419333356E-007
  7.326161063394109E-007
  1.166640419563289E-006
  1.525190563933259E-006
  1.797826590445279E-006
  1.975525688240888E-006
 -1.550310360967379E-006
 -2.627819425363981E-006
 -3.613918760704106E-006
 -4.437765037973715E-006
 -5.055647964546320E-006
 -5.450401517234364E-006
 -5.626020375739350E-006
 -5.601076674546071E-006
 -5.402678111990485E-006
 -5.061663100144341E-006
 -4.609172811609179E-006
 -4.074471978440618E-006
 -3.483784728081476E-006
 -2.859892213886117E-006
 -2.222259994554805E-006
 -1.587499120092163E-006
 -9.700016989457792E-007
 -3.826226056751137E-007
  1.626983497169472E-007
  6.544643468277982E-007
  1.081379391901896E-006
  1.432403578711228E-006
  1.697149493020578E-006
  1.866612133374766E-006
 -1.542976315534496E-006
 -2.629900708691777E-006
 -3.623428784205235E-006
 -4.453120180864622E-006
 -5.075619474564525E-006
 -5.474066368985163E-006
 -5.652717361108549E-006
 -5.630369316928102E-006
 -5.434323894379505E-006
 -5.095587713713085E-006
 -4.645447970218119E-006
 -4.113295439854373E-006
 -3.525461339912458E-006
 -2.904814995981227E-006
 -2.270890476667020E-006
 -1.640346406752665E-006
 -1.027600084550279E-006
 -4.455080713869346E-007
  9.401170571068285E-008
  5.795059348958685E-007
  9.997386348709223E-007
  1.343736893101380E-006
  1.601172434064482E-006
  1.763071534555534E-006
 -1.533502770893398E-006
 -2.629134543196354E-006
 -3.629633444308769E-006
 -4.464906354448441E-006
 -5.091903493648831E-006
 -5.494027807545719E-006
 -5.675761521866275E-006
 -5.656095948933571E-006
 -5.462501555111626E-006
 -5.126132493940245E-006
 -4.678405181438039E-006
 -4.148822979690693E-006
 -3.563813637352324E-006
 -2.946326634766057E-006
 -2.315958798242356E-006
 -1.689412633034937E-006
 -1.081128821621348E-006
 -5.039655108449712E-007
  3.017993341361755E-008
  5.098954569618191E-007
  9.240027632187487E-007
  1.261594897558761E-006
  1.512404991724080E-006
  1.667498833587912E-006
 -1.523101789485718E-006
 -2.626529198253704E-006
 -3.633336015522757E-006
 -4.473723155971036E-006
 -5.104899488676629E-006
 -5.510490627600113E-006
 -5.695169923626406E-006
 -5.678093820054761E-006
 -5.486876860939517E-006
 -5.152799953647681E-006
 -4.707391377849566E-006
 -4.180252730570669E-006
 -3.597896639296169E-006
 -2.983343579081236E-006
 -2.356246347984575E-006
 -1.733346867025272E-006
 -1.129107035180769E-006
 -5.563866597574062E-007
 -2.706469119067732E-008
  4.474842661322512E-007
  8.561349234507595E-007
  1.188042073621141E-006
  1.432998512109799E-006
  1.582112919822204E-006
 -1.512805938795198E-006
 -2.622955378159899E-006
 -3.635242367407244E-006
 -4.480110700043668E-006
 -5.114982825996957E-006
 -5.523668207304179E-006
 -5.710998174281473E-006
 -5.696266045632172E-006
 -5.507206323548888E-006
 -5.175206057651408E-006
 -4.731887811916834E-006
 -4.206936543827284E-006
 -3.626937396425248E-006
 -3.014971909127603E-006
 -2.390741369608965E-006
 -1.771022160502684E-006
 -1.170295072597055E-006
 -6.014219379725780E-007
 -7.626627124867723E-008
  3.938295073279146E-007
  7.977862995470198E-007
  1.124813574149160E-006
  1.364758443737974E-006
  1.508771507768708E-006
 -1.503471897359344E-006
 -2.619143696663838E-006
 -3.635953271981287E-006
 -4.484537782235052E-006
 -5.122489808604986E-006
 -5.533765379373894E-006
 -5.723321996449584E-006
 -5.710562633054576E-006
 -5.523318305414661E-006
 -5.193061904237628E-006
 -4.751492681009445E-006
 -4.228363803599646E-006
 -3.650320125524311E-006
 -3.040493817261033E-006
 -2.418626720805780E-006
 -1.801524433701521E-006
 -1.203684287809945E-006
 -6.379708417619881E-007
 -1.162359398841292E-007
  3.502036113826044E-007
  7.503062093061791E-007
  1.073326437560910E-006
  1.309157253658254E-006
  1.448986422912787E-006
 -1.495783987268136E-006
 -2.615683206235043E-006
 -3.635958674040107E-006
 -4.487392692629973E-006
 -5.127705840428967E-006
 -5.540964716102091E-006
 -5.732222334745824E-006
 -5.720965024247519E-006
 -5.535097510800297E-006
 -5.206158573813000E-006
 -4.765906639055130E-006
 -4.244147806655726E-006
 -3.667573568205786E-006
 -3.059355969079553E-006
 -2.439269180810210E-006
 -1.824142602352023E-006
 -1.228487797669903E-006
 -6.651730833760348E-007
 -1.460430868565946E-007
  3.176033235298397E-007
  7.147517751633464E-007
  1.034690335226371E-006
  1.267346738599942E-006
  1.403938026171234E-006
 -1.490257334815142E-006
 -2.613020636770507E-006
 -3.635633567580556E-006
 -4.488976340542552E-006
 -5.130856419817504E-006
 -5.545415987871921E-006
 -5.737773825990258E-006
 -5.727474057748663E-006
 -5.542472843494465E-006
 -5.214355205307550E-006
 -4.774921333318766E-006
 -4.254014922206316E-006
 -3.678360861459970E-006
 -3.071160102696530E-006
 -2.452210732604056E-006
 -1.838360439433014E-006
 -1.244132768398023E-006
 -6.824011015181627E-007
 -1.650078512466906E-007
  2.967575080362371E-007
  6.918963417986458E-007
  1.009716954451740E-006
  1.240168765510236E-006
  1.374487749188927E-006
 -1.487240442866415E-006
 -2.611460084781865E-006
 -3.635235203309551E-006
 -4.489497422172697E-006
 -5.132100719261003E-006
 -5.547228591379090E-006
 -5.740036477599043E-006
 -5.730101251031235E-006
 -5.545408591073795E-006
 -5.217570320853265E-006
 -4.778411047753668E-006
 -4.257796673329800E-006
 -3.682472120529702E-006
 -3.075656124123988E-006
 -2.457162133768281E-006
 -1.843850540797388E-006
 -1.250254655986690E-006
 -6.892544212798231E-007
 -1.726954138936831E-007
  2.881331394735681E-007
  6.822359950426001E-007
  9.989273165230624E-007
  1.228163689116222E-006
  1.361187943131605E-006
SCALARS elementIsPlast double 
LOOKUP_TABLE default
  0.000000000000000E+000
  0.000000000000000E+000
  0.000000000000000E+000
  0.000000000000000E+000
  0.000000000000000E+000
  0.000000000000000E+000
   1.00000000000000     
   1.00000000000000     
   1.00000000000000     
   1.00000000000000     
  0.000000000000000E+000
  0.000000000000000E+000
  0.000000000000000E+000
  0.000000000000000E+000
  0.000000000000000E+000
  0.000000000000000E+000
  0.000000000000000E+000
  0.000000000000000E+000
   1.00000000000000     
  0.000000000000000E+000
  0.000000000000000E+000
  0.000000000000000E+000
  0.000000000000000E+000
  0.000000000000000E+000
  0.000000000000000E+000
  0.000000000000000E+000
  0.000000000000000E+000
  0.000000000000000E+000
  0.000000000000000E+000
  0.000000000000000E+000
  0.000000000000000E+000
   1.00000000000000     
   1.00000000000000     
   1.00000000000000     
   1.00000000000000     
  0.000000000000000E+000
  0.000000000000000E+000
  0.000000000000000E+000
  0.000000000000000E+000
  0.000000000000000E+000
  0.000000000000000E+000
   1.00000000000000     
   1.00000000000000     
  0.000000000000000E+000
  0.000000000000000E+000
  0.000000000000000E+000
  0.000000000000000E+000
  0.000000000000000E+000
  0.000000000000000E+000
  0.000000000000000E+000
  0.000000000000000E+000
  0.000000000000000E+000
  0.000000000000000E+000
  0.000000000000000E+000
  0.000000000000000E+000
  0.000000000000000E+000
  0.000000000000000E+000
   1.00000000000000     
   1.00000000000000     
   1.00000000000000     
   1.00000000000000     
  0.000000000000000E+000
  0.000000000000000E+000
  0.000000000000000E+000
   1.00000000000000     
   1.00000000000000     
   1.00000000000000     
  0.000000000000000E+000
  0.000000000000000E+000
  0.000000000000000E+000
  0.000000000000000E+000
  0.000000000000000E+000
   1.00000000000000     
  0.000000000000000E+000
  0.000000000000000E+000
  0.000000000000000E+000
  0.000000000000000E+000
  0.000000000000000E+000
  0.000000000000000E+000
  0.000000000000000E+000
  0.000000000000000E+000
  0.000000000000000E+000
   1.00000000000000     
   1.00000000000000     
   1.00000000000000     
   1.00000000000000     
   1.00000000000000     
   1.00000000000000     
   1.00000000000000     
   1.00000000000000     
   1.00000000000000     
  0.000000000000000E+000
  0.000000000000000E+000
  0.000000000000000E+000
  0.000000000000000E+000
  0.000000000000000E+000
  0.000000000000000E+000
  0.000000000000000E+000
  0.000000000000000E+000
  0.000000000000000E+000
  0.000000000000000E+000
  0.000000000000000E+000
  0.000000000000000E+000
  0.000000000000000E+000
  0.000000000000000E+000
  0.000000000000000E+000
  0.000000000000000E+000
  0.000000000000000E+000
   1.00000000000000     
   1.00000000000000     
   1.00000000000000     
   1.00000000000000     
   1.00000000000000     
   1.00000000000000     
  0.000000000000000E+000
  0.000000000000000E+000
  0.000000000000000E+000
  0.000000000000000E+000
  0.000000000000000E+000
  0.000000000000000E+000
  0.000000000000000E+000
  0.000000000000000E+000
  0.000000000000000E+000
  0.000000000000000E+000
  0.000000000000000E+000
  0.000000000000000E+000
  0.000000000000000E+000
  0.000000000000000E+000
  0.000000000000000E+000
  0.000000000000000E+000
  0.000000000000000E+000
  0.000000000000000E+000
  0.000000000000000E+000
  0.000000000000000E+000
  0.000000000000000E+000
  0.000000000000000E+000
  0.000000000000000E+000
  0.000000000000000E+000
  0.000000000000000E+000
  0.000000000000000E+000
  0.000000000000000E+000
  0.000000000000000E+000
  0.000000000000000E+000
  0.000000000000000E+000
  0.000000000000000E+000
  0.000000000000000E+000
  0.000000000000000E+000
  0.000000000000000E+000
  0.000000000000000E+000
  0.000000000000000E+000
  0.000000000000000E+000
  0.000000000000000E+000
  0.000000000000000E+000
  0.000000000000000E+000
  0.000000000000000E+000
  0.000000000000000E+000
  0.000000000000000E+000
  0.000000000000000E+000
  0.000000000000000E+000
  0.000000000000000E+000
  0.000000000000000E+000
  0.000000000000000E+000
  0.000000000000000E+000
  0.000000000000000E+000
  0.000000000000000E+000
  0.000000000000000E+000
  0.000000000000000E+000
  0.000000000000000E+000
  0.000000000000000E+000
  0.000000000000000E+000
  0.000000000000000E+000
  0.000000000000000E+000
  0.000000000000000E+000
  0.000000000000000E+000
  0.000000000000000E+000
  0.000000000000000E+000
  0.000000000000000E+000
  0.000000000000000E+000
  0.000000000000000E+000
  0.000000000000000E+000
  0.000000000000000E+000
  0.000000000000000E+000
  0.000000000000000E+000
  0.000000000000000E+000
  0.000000000000000E+000
  0.000000000000000E+000
  0.000000000000000E+000
  0.000000000000000E+000
  0.000000000000000E+000
  0.000000000000000E+000
  0.000000000000000E+000
  0.000000000000000E+000
  0.000000000000000E+000
  0.000000000000000E+000
  0.000000000000000E+000
  0.000000000000000E+000
  0.000000000000000E+000
  0.000000000000000E+000
  0.000000000000000E+000
  0.000000000000000E+000
  0.000000000000000E+000
  0.000000000000000E+000
  0.000000000000000E+000
  0.000000000000000E+000
  0.000000000000000E+000
  0.000000000000000E+000
  0.000000000000000E+000
  0.000000000000000E+000
  0.000000000000000E+000
  0.000000000000000E+000
  0.000000000000000E+000
  0.000000000000000E+000
  0.000000000000000E+000
  0.000000000000000E+000
  0.000000000000000E+000
  0.000000000000000E+000
  0.000000000000000E+000
  0.000000000000000E+000
  0.000000000000000E+000
  0.000000000000000E+000
  0.000000000000000E+000
  0.000000000000000E+000
  0.000000000000000E+000
  0.000000000000000E+000
  0.000000000000000E+000
  0.000000000000000E+000
  0.000000000000000E+000
  0.000000000000000E+000
  0.000000000000000E+000
  0.000000000000000E+000
  0.000000000000000E+000
  0.000000000000000E+000
  0.000000000000000E+000
  0.000000000000000E+000
  0.000000000000000E+000
  0.000000000000000E+000
  0.000000000000000E+000
  0.000000000000000E+000
  0.000000000000000E+000
  0.000000000000000E+000
  0.000000000000000E+000
  0.000000000000000E+000
  0.000000000000000E+000
  0.000000000000000E+000
  0.000000000000000E+000
  0.000000000000000E+000
  0.000000000000000E+000
  0.000000000000000E+000
  0.000000000000000E+000
  0.000000000000000E+000
  0.000000000000000E+000
  0.000000000000000E+000
  0.000000000000000E+000
  0.000000000000000E+000
  0.000000000000000E+000
  0.000000000000000E+000
  0.000000000000000E+000
  0.000000000000000E+000
  0.000000000000000E+000
  0.000000000000000E+000
  0.000000000000000E+000
  0.000000000000000E+000
  0.000000000000000E+000
  0.000000000000000E+000
  0.000000000000000E+000
  0.000000000000000E+000
  0.000000000000000E+000
  0.000000000000000E+000
  0.000000000000000E+000
  0.000000000000000E+000
  0.000000000000000E+000
  0.000000000000000E+000
  0.000000000000000E+000
  0.000000000000000E+000
  0.000000000000000E+000
  0.000000000000000E+000
  0.000000000000000E+000
  0.000000000000000E+000
  0.000000000000000E+000
  0.000000000000000E+000
  0.000000000000000E+000
  0.000000000000000E+000
  0.000000000000000E+000
  0.000000000000000E+000
  0.000000000000000E+000
  0.000000000000000E+000
  0.000000000000000E+000
  0.000000000000000E+000
  0.000000000000000E+000
  0.000000000000000E+000
  0.000000000000000E+000
  0.000000000000000E+000
  0.000000000000000E+000
  0.000000000000000E+000
  0.000000000000000E+000
  0.000000000000000E+000
  0.000000000000000E+000
  0.000000000000000E+000
  0.000000000000000E+000
  0.000000000000000E+000
  0.000000000000000E+000
  0.000000000000000E+000
  0.000000000000000E+000
  0.000000000000000E+000
  0.000000000000000E+000
  0.000000000000000E+000
  0.000000000000000E+000
  0.000000000000000E+000
  0.000000000000000E+000
  0.000000000000000E+000
  0.000000000000000E+000
  0.000000000000000E+000
  0.000000000000000E+000
  0.000000000000000E+000
  0.000000000000000E+000
  0.000000000000000E+000
  0.000000000000000E+000
  0.000000000000000E+000
  0.000000000000000E+000
  0.000000000000000E+000
  0.000000000000000E+000
  0.000000000000000E+000
  0.000000000000000E+000
  0.000000000000000E+000
  0.000000000000000E+000
  0.000000000000000E+000
  0.000000000000000E+000
  0.000000000000000E+000
  0.000000000000000E+000
  0.000000000000000E+000
  0.000000000000000E+000
  0.000000000000000E+000
  0.000000000000000E+000
  0.000000000000000E+000
  0.000000000000000E+000
  0.000000000000000E+000
  0.000000000000000E+000
  0.000000000000000E+000
  0.000000000000000E+000
  0.000000000000000E+000
  0.000000000000000E+000
  0.000000000000000E+000
  0.000000000000000E+000
  0.000000000000000E+000
  0.000000000000000E+000
  0.000000000000000E+000
  0.000000000000000E+000
  0.000000000000000E+000
  0.000000000000000E+000
  0.000000000000000E+000
  0.000000000000000E+000
  0.000000000000000E+000
  0.000000000000000E+000
  0.000000000000000E+000
  0.000000000000000E+000
  0.000000000000000E+000
  0.000000000000000E+000
  0.000000000000000E+000
  0.000000000000000E+000
  0.000000000000000E+000
  0.000000000000000E+000
  0.000000000000000E+000
  0.000000000000000E+000
  0.000000000000000E+000
  0.000000000000000E+000
  0.000000000000000E+000
  0.000000000000000E+000
  0.000000000000000E+000
  0.000000000000000E+000
  0.000000000000000E+000
  0.000000000000000E+000
  0.000000000000000E+000
  0.000000000000000E+000
  0.000000000000000E+000
  0.000000000000000E+000
  0.000000000000000E+000
  0.000000000000000E+000
  0.000000000000000E+000
  0.000000000000000E+000
  0.000000000000000E+000
  0.000000000000000E+000
  0.000000000000000E+000
  0.000000000000000E+000
  0.000000000000000E+000
  0.000000000000000E+000
  0.000000000000000E+000
  0.000000000000000E+000
  0.000000000000000E+000
  0.000000000000000E+000
  0.000000000000000E+000
  0.000000000000000E+000
  0.000000000000000E+000
  0.000000000000000E+000
  0.000000000000000E+000
  0.000000000000000E+000
  0.000000000000000E+000
  0.000000000000000E+000
  0.000000000000000E+000
  0.000000000000000E+000
  0.000000000000000E+000
  0.000000000000000E+000
  0.000000000000000E+000
  0.000000000000000E+000
  0.000000000000000E+000
  0.000000000000000E+000
  0.000000000000000E+000
  0.000000000000000E+000
  0.000000000000000E+000
  0.000000000000000E+000
  0.000000000000000E+000
  0.000000000000000E+000
  0.000000000000000E+000
  0.000000000000000E+000
  0.000000000000000E+000
  0.000000000000000E+000
  0.000000000000000E+000
  0.000000000000000E+000
  0.000000000000000E+000
  0.000000000000000E+000
  0.000000000000000E+000
  0.000000000000000E+000
  0.000000000000000E+000
  0.000000000000000E+000
  0.000000000000000E+000
  0.000000000000000E+000
  0.000000000000000E+000
  0.000000000000000E+000
  0.000000000000000E+000
  0.000000000000000E+000
  0.000000000000000E+000
  0.000000000000000E+000
  0.000000000000000E+000
  0.000000000000000E+000
  0.000000000000000E+000
  0.000000000000000E+000
  0.000000000000000E+000
  0.000000000000000E+000
  0.000000000000000E+000
  0.000000000000000E+000
  0.000000000000000E+000
  0.000000000000000E+000
  0.000000000000000E+000
  0.000000000000000E+000
  0.000000000000000E+000
  0.000000000000000E+000
  0.000000000000000E+000
  0.000000000000000E+000
  0.000000000000000E+000
  0.000000000000000E+000
  0.000000000000000E+000
  0.000000000000000E+000
  0.000000000000000E+000
  0.000000000000000E+000
  0.000000000000000E+000
  0.000000000000000E+000
  0.000000000000000E+000
  0.000000000000000E+000
  0.000000000000000E+000
  0.000000000000000E+000
  0.000000000000000E+000
  0.000000000000000E+000
  0.000000000000000E+000
  0.000000000000000E+000
  0.000000000000000E+000
  0.000000000000000E+000
  0.000000000000000E+000
  0.000000000000000E+000
  0.000000000000000E+000
  0.000000000000000E+000
  0.000000000000000E+000
  0.000000000000000E+000
  0.000000000000000E+000
  0.000000000000000E+000
  0.000000000000000E+000
  0.000000000000000E+000
  0.000000000000000E+000
  0.000000000000000E+000
  0.000000000000000E+000
  0.000000000000000E+000
  0.000000000000000E+000
  0.000000000000000E+000
  0.000000000000000E+000
  0.000000000000000E+000
  0.000000000000000E+000
  0.000000000000000E+000
  0.000000000000000E+000
  0.000000000000000E+000
  0.000000000000000E+000
  0.000000000000000E+000
  0.000000000000000E+000
  0.000000000000000E+000
  0.000000000000000E+000
  0.000000000000000E+000
  0.000000000000000E+000
  0.000000000000000E+000
  0.000000000000000E+000
  0.000000000000000E+000
  0.000000000000000E+000
  0.000000000000000E+000
  0.000000000000000E+000
  0.000000000000000E+000
  0.000000000000000E+000
  0.000000000000000E+000
  0.000000000000000E+000
  0.000000000000000E+000
  0.000000000000000E+000
  0.000000000000000E+000
  0.000000000000000E+000
  0.000000000000000E+000
  0.000000000000000E+000
  0.000000000000000E+000
  0.000000000000000E+000
  0.000000000000000E+000
  0.000000000000000E+000
  0.000000000000000E+000
  0.000000000000000E+000
  0.000000000000000E+000
  0.000000000000000E+000
  0.000000000000000E+000
  0.000000000000000E+000
  0.000000000000000E+000
  0.000000000000000E+000
  0.000000000000000E+000
  0.000000000000000E+000
  0.000000000000000E+000
  0.000000000000000E+000
  0.000000000000000E+000
  0.000000000000000E+000
  0.000000000000000E+000
  0.000000000000000E+000
  0.000000000000000E+000
  0.000000000000000E+000
  0.000000000000000E+000
  0.000000000000000E+000
  0.000000000000000E+000
  0.000000000000000E+000
  0.000000000000000E+000
  0.000000000000000E+000
  0.000000000000000E+000
  0.000000000000000E+000
  0.000000000000000E+000
  0.000000000000000E+000
  0.000000000000000E+000
  0.000000000000000E+000
  0.000000000000000E+000
  0.000000000000000E+000
  0.000000000000000E+000
  0.000000000000000E+000
  0.000000000000000E+000
  0.000000000000000E+000
  0.000000000000000E+000
  0.000000000000000E+000
  0.000000000000000E+000
  0.000000000000000E+000
  0.000000000000000E+000
  0.000000000000000E+000
  0.000000000000000E+000
  0.000000000000000E+000
  0.000000000000000E+000
  0.000000000000000E+000
  0.000000000000000E+000
  0.000000000000000E+000
  0.000000000000000E+000
  0.000000000000000E+000
  0.000000000000000E+000
  0.000000000000000E+000
  0.000000000000000E+000
  0.000000000000000E+000
  0.000000000000000E+000
  0.000000000000000E+000
  0.000000000000000E+000
  0.000000000000000E+000
  0.000000000000000E+000
  0.000000000000000E+000
  0.000000000000000E+000
  0.000000000000000E+000
  0.000000000000000E+000
  0.000000000000000E+000
  0.000000000000000E+000
  0.000000000000000E+000
  0.000000000000000E+000
  0.000000000000000E+000
  0.000000000000000E+000
  0.000000000000000E+000
  0.000000000000000E+000
  0.000000000000000E+000
  0.000000000000000E+000
  0.000000000000000E+000
  0.000000000000000E+000
  0.000000000000000E+000
  0.000000000000000E+000
  0.000000000000000E+000
  0.000000000000000E+000
  0.000000000000000E+000
  0.000000000000000E+000
  0.000000000000000E+000
  0.000000000000000E+000
  0.000000000000000E+000
  0.000000000000000E+000
  0.000000000000000E+000
  0.000000000000000E+000
  0.000000000000000E+000
  0.000000000000000E+000
  0.000000000000000E+000
  0.000000000000000E+000
  0.000000000000000E+000
  0.000000000000000E+000
  0.000000000000000E+000
  0.000000000000000E+000
  0.000000000000000E+000
  0.000000000000000E+000
  0.000000000000000E+000
  0.000000000000000E+000
  0.000000000000000E+000
  0.000000000000000E+000
  0.000000000000000E+000
  0.000000000000000E+000
  0.000000000000000E+000
  0.000000000000000E+000
  0.000000000000000E+000
  0.000000000000000E+000
  0.000000000000000E+000
  0.000000000000000E+000
  0.000000000000000E+000
  0.000000000000000E+000
  0.000000000000000E+000
  0.000000000000000E+000
  0.000000000000000E+000
  0.000000000000000E+000
  0.000000000000000E+000
  0.000000000000000E+000
  0.000000000000000E+000
  0.000000000000000E+000
  0.000000000000000E+000
  0.000000000000000E+000
  0.000000000000000E+000
  0.000000000000000E+000
  0.000000000000000E+000
  0.000000000000000E+000
  0.000000000000000E+000
  0.000000000000000E+000
  0.000000000000000E+000
  0.000000000000000E+000
  0.000000000000000E+000
  0.000000000000000E+000
  0.000000000000000E+000
  0.000000000000000E+000
  0.000000000000000E+000
  0.000000000000000E+000
  0.000000000000000E+000
  0.000000000000000E+000
  0.000000000000000E+000
  0.000000000000000E+000
  0.000000000000000E+000
  0.000000000000000E+000
  0.000000000000000E+000
  0.000000000000000E+000
  0.000000000000000E+000
  0.000000000000000E+000
  0.000000000000000E+000
  0.000000000000000E+000
  0.000000000000000E+000
  0.000000000000000E+000
  0.000000000000000E+000
  0.000000000000000E+000
  0.000000000000000E+000
  0.000000000000000E+000
  0.000000000000000E+000
  0.000000000000000E+000
  0.000000000000000E+000
  0.000000000000000E+000
  0.000000000000000E+000
  0.000000000000000E+000
  0.000000000000000E+000
  0.000000000000000E+000
  0.000000000000000E+000
  0.000000000000000E+000
  0.000000000000000E+000
  0.000000000000000E+000
  0.000000000000000E+000
  0.000000000000000E+000
  0.000000000000000E+000
  0.000000000000000E+000
  0.000000000000000E+000
  0.000000000000000E+000
  0.000000000000000E+000
  0.000000000000000E+000
  0.000000000000000E+000
  0.000000000000000E+000
  0.000000000000000E+000
  0.000000000000000E+000
  0.000000000000000E+000
  0.000000000000000E+000
  0.000000000000000E+000
  0.000000000000000E+000
  0.000000000000000E+000
  0.000000000000000E+000
  0.000000000000000E+000
  0.000000000000000E+000
  0.000000000000000E+000
  0.000000000000000E+000
  0.000000000000000E+000
  0.000000000000000E+000
  0.000000000000000E+000
  0.000000000000000E+000
  0.000000000000000E+000
  0.000000000000000E+000
  0.000000000000000E+000
  0.000000000000000E+000
  0.000000000000000E+000
  0.000000000000000E+000
  0.000000000000000E+000
  0.000000000000000E+000
  0.000000000000000E+000
  0.000000000000000E+000
  0.000000000000000E+000
  0.000000000000000E+000
  0.000000000000000E+000
  0.000000000000000E+000
  0.000000000000000E+000
  0.000000000000000E+000
  0.000000000000000E+000
  0.000000000000000E+000
  0.000000000000000E+000
  0.000000000000000E+000
  0.000000000000000E+000
  0.000000000000000E+000
  0.000000000000000E+000
  0.000000000000000E+000
  0.000000000000000E+000
  0.000000000000000E+000
  0.000000000000000E+000
  0.000000000000000E+000
  0.000000000000000E+000
  0.000000000000000E+000
  0.000000000000000E+000
  0.000000000000000E+000
  0.000000000000000E+000
  0.000000000000000E+000
  0.000000000000000E+000
  0.000000000000000E+000
  0.000000000000000E+000
  0.000000000000000E+000
  0.000000000000000E+000
  0.000000000000000E+000
  0.000000000000000E+000
  0.000000000000000E+000
  0.000000000000000E+000
  0.000000000000000E+000
  0.000000000000000E+000
  0.000000000000000E+000
  0.000000000000000E+000
  0.000000000000000E+000
  0.000000000000000E+000
  0.000000000000000E+000
  0.000000000000000E+000
  0.000000000000000E+000
  0.000000000000000E+000
  0.000000000000000E+000
  0.000000000000000E+000
  0.000000000000000E+000
  0.000000000000000E+000
  0.000000000000000E+000
  0.000000000000000E+000
  0.000000000000000E+000
  0.000000000000000E+000
  0.000000000000000E+000
  0.000000000000000E+000
  0.000000000000000E+000
  0.000000000000000E+000
  0.000000000000000E+000
  0.000000000000000E+000
  0.000000000000000E+000
  0.000000000000000E+000
  0.000000000000000E+000
  0.000000000000000E+000
  0.000000000000000E+000
  0.000000000000000E+000
  0.000000000000000E+000
  0.000000000000000E+000
  0.000000000000000E+000
  0.000000000000000E+000
  0.000000000000000E+000
  0.000000000000000E+000
  0.000000000000000E+000
  0.000000000000000E+000
  0.000000000000000E+000
  0.000000000000000E+000
  0.000000000000000E+000
  0.000000000000000E+000
  0.000000000000000E+000
  0.000000000000000E+000
  0.000000000000000E+000
  0.000000000000000E+000
  0.000000000000000E+000
  0.000000000000000E+000
  0.000000000000000E+000
  0.000000000000000E+000
  0.000000000000000E+000
  0.000000000000000E+000
  0.000000000000000E+000
  0.000000000000000E+000
  0.000000000000000E+000
  0.000000000000000E+000
  0.000000000000000E+000
  0.000000000000000E+000
  0.000000000000000E+000
  0.000000000000000E+000
  0.000000000000000E+000
  0.000000000000000E+000
  0.000000000000000E+000
  0.000000000000000E+000
  0.000000000000000E+000
  0.000000000000000E+000
  0.000000000000000E+000
  0.000000000000000E+000
  0.000000000000000E+000
  0.000000000000000E+000
  0.000000000000000E+000
  0.000000000000000E+000
  0.000000000000000E+000
  0.000000000000000E+000
  0.000000000000000E+000
  0.000000000000000E+000
  0.000000000000000E+000
  0.000000000000000E+000
  0.000000000000000E+000
  0.000000000000000E+000
  0.000000000000000E+000
  0.000000000000000E+000
  0.000000000000000E+000
  0.000000000000000E+000
  0.000000000000000E+000
  0.000000000000000E+000
  0.000000000000000E+000
  0.000000000000000E+000
  0.000000000000000E+000
  0.000000000000000E+000
  0.000000000000000E+000
  0.000000000000000E+000
  0.000000000000000E+000
  0.000000000000000E+000
  0.000000000000000E+000
  0.000000000000000E+000
  0.000000000000000E+000
  0.000000000000000E+000
  0.000000000000000E+000
  0.000000000000000E+000
  0.000000000000000E+000
  0.000000000000000E+000
  0.000000000000000E+000
  0.000000000000000E+000
  0.000000000000000E+000
  0.000000000000000E+000
  0.000000000000000E+000
  0.000000000000000E+000
  0.000000000000000E+000
  0.000000000000000E+000
  0.000000000000000E+000
  0.000000000000000E+000
  0.000000000000000E+000
  0.000000000000000E+000
  0.000000000000000E+000
  0.000000000000000E+000
  0.000000000000000E+000
  0.000000000000000E+000
  0.000000000000000E+000
  0.000000000000000E+000
  0.000000000000000E+000
  0.000000000000000E+000
  0.000000000000000E+000
  0.000000000000000E+000
  0.000000000000000E+000
  0.000000000000000E+000
  0.000000000000000E+000
  0.000000000000000E+000
  0.000000000000000E+000
  0.000000000000000E+000
  0.000000000000000E+000
  0.000000000000000E+000
  0.000000000000000E+000
  0.000000000000000E+000
  0.000000000000000E+000
  0.000000000000000E+000
  0.000000000000000E+000
  0.000000000000000E+000
  0.000000000000000E+000
  0.000000000000000E+000
  0.000000000000000E+000
  0.000000000000000E+000
  0.000000000000000E+000
  0.000000000000000E+000
  0.000000000000000E+000
  0.000000000000000E+000
  0.000000000000000E+000
  0.000000000000000E+000
  0.000000000000000E+000
  0.000000000000000E+000
  0.000000000000000E+000
  0.000000000000000E+000
  0.000000000000000E+000
  0.000000000000000E+000
  0.000000000000000E+000
  0.000000000000000E+000
  0.000000000000000E+000
  0.000000000000000E+000
  0.000000000000000E+000
  0.000000000000000E+000
  0.000000000000000E+000
  0.000000000000000E+000
  0.000000000000000E+000
  0.000000000000000E+000
  0.000000000000000E+000
  0.000000000000000E+000
  0.000000000000000E+000
  0.000000000000000E+000
  0.000000000000000E+000
  0.000000000000000E+000
  0.000000000000000E+000
  0.000000000000000E+000
  0.000000000000000E+000
  0.000000000000000E+000
  0.000000000000000E+000
  0.000000000000000E+000
  0.000000000000000E+000
  0.000000000000000E+000
  0.000000000000000E+000
  0.000000000000000E+000
  0.000000000000000E+000
  0.000000000000000E+000
  0.000000000000000E+000
  0.000000000000000E+000
  0.000000000000000E+000
  0.000000000000000E+000
  0.000000000000000E+000
  0.000000000000000E+000
  0.000000000000000E+000
  0.000000000000000E+000
  0.000000000000000E+000
  0.000000000000000E+000
  0.000000000000000E+000
  0.000000000000000E+000
  0.000000000000000E+000
  0.000000000000000E+000
  0.000000000000000E+000
  0.000000000000000E+000
  0.000000000000000E+000
  0.000000000000000E+000
  0.000000000000000E+000
  0.000000000000000E+000
  0.000000000000000E+000
  0.000000000000000E+000
  0.000000000000000E+000
  0.000000000000000E+000
  0.000000000000000E+000
  0.000000000000000E+000
  0.000000000000000E+000
  0.000000000000000E+000
  0.000000000000000E+000
  0.000000000000000E+000
  0.000000000000000E+000
  0.000000000000000E+000
  0.000000000000000E+000
  0.000000000000000E+000
  0.000000000000000E+000
  0.000000000000000E+000
  0.000000000000000E+000
  0.000000000000000E+000
  0.000000000000000E+000
  0.000000000000000E+000
  0.000000000000000E+000
  0.000000000000000E+000
  0.000000000000000E+000
  0.000000000000000E+000
  0.000000000000000E+000
  0.000000000000000E+000
  0.000000000000000E+000
  0.000000000000000E+000
  0.000000000000000E+000
  0.000000000000000E+000
  0.000000000000000E+000
  0.000000000000000E+000
  0.000000000000000E+000
  0.000000000000000E+000
  0.000000000000000E+000
  0.000000000000000E+000
  0.000000000000000E+000
  0.000000000000000E+000
  0.000000000000000E+000
  0.000000000000000E+000
  0.000000000000000E+000
  0.000000000000000E+000
  0.000000000000000E+000
  0.000000000000000E+000
  0.000000000000000E+000
  0.000000000000000E+000
  0.000000000000000E+000
  0.000000000000000E+000
  0.000000000000000E+000
  0.000000000000000E+000
  0.000000000000000E+000
  0.000000000000000E+000
  0.000000000000000E+000
  0.000000000000000E+000
  0.000000000000000E+000
  0.000000000000000E+000
  0.000000000000000E+000
  0.000000000000000E+000
  0.000000000000000E+000
  0.000000000000000E+000
  0.000000000000000E+000
  0.000000000000000E+000
  0.000000000000000E+000
  0.000000000000000E+000
  0.000000000000000E+000
  0.000000000000000E+000
  0.000000000000000E+000
  0.000000000000000E+000
  0.000000000000000E+000
  0.000000000000000E+000
  0.000000000000000E+000
  0.000000000000000E+000
  0.000000000000000E+000
  0.000000000000000E+000
  0.000000000000000E+000
  0.000000000000000E+000
  0.000000000000000E+000
  0.000000000000000E+000
  0.000000000000000E+000
  0.000000000000000E+000
  0.000000000000000E+000
  0.000000000000000E+000
  0.000000000000000E+000
  0.000000000000000E+000
  0.000000000000000E+000
  0.000000000000000E+000
  0.000000000000000E+000
  0.000000000000000E+000
  0.000000000000000E+000
  0.000000000000000E+000
  0.000000000000000E+000
  0.000000000000000E+000
  0.000000000000000E+000
  0.000000000000000E+000
  0.000000000000000E+000
  0.000000000000000E+000
  0.000000000000000E+000
  0.000000000000000E+000
  0.000000000000000E+000
  0.000000000000000E+000
  0.000000000000000E+000
  0.000000000000000E+000
  0.000000000000000E+000
  0.000000000000000E+000
  0.000000000000000E+000
  0.000000000000000E+000
  0.000000000000000E+000
  0.000000000000000E+000
  0.000000000000000E+000
  0.000000000000000E+000
  0.000000000000000E+000
  0.000000000000000E+000
  0.000000000000000E+000
  0.000000000000000E+000
  0.000000000000000E+000
  0.000000000000000E+000
  0.000000000000000E+000
  0.000000000000000E+000
  0.000000000000000E+000
  0.000000000000000E+000
  0.000000000000000E+000
  0.000000000000000E+000
  0.000000000000000E+000
  0.000000000000000E+000
  0.000000000000000E+000
  0.000000000000000E+000
  0.000000000000000E+000
  0.000000000000000E+000
  0.000000000000000E+000
  0.000000000000000E+000
  0.000000000000000E+000
  0.000000000000000E+000
  0.000000000000000E+000
  0.000000000000000E+000
  0.000000000000000E+000
  0.000000000000000E+000
  0.000000000000000E+000
  0.000000000000000E+000
  0.000000000000000E+000
  0.000000000000000E+000
  0.000000000000000E+000
  0.000000000000000E+000
  0.000000000000000E+000
  0.000000000000000E+000
  0.000000000000000E+000
  0.000000000000000E+000
  0.000000000000000E+000
  0.000000000000000E+000
  0.000000000000000E+000
  0.000000000000000E+000
  0.000000000000000E+000
  0.000000000000000E+000
  0.000000000000000E+000
  0.000000000000000E+000
  0.000000000000000E+000
  0.000000000000000E+000
  0.000000000000000E+000
  0.000000000000000E+000
  0.000000000000000E+000
  0.000000000000000E+000
  0.000000000000000E+000
  0.000000000000000E+000
  0.000000000000000E+000
  0.000000000000000E+000
  0.000000000000000E+000
  0.000000000000000E+000
  0.000000000000000E+000
  0.000000000000000E+000
  0.000000000000000E+000
  0.000000000000000E+000
  0.000000000000000E+000
  0.000000000000000E+000
  0.000000000000000E+000
  0.000000000000000E+000
  0.000000000000000E+000
  0.000000000000000E+000
  0.000000000000000E+000
  0.000000000000000E+000
  0.000000000000000E+000
  0.000000000000000E+000
  0.000000000000000E+000
  0.000000000000000E+000
  0.000000000000000E+000
  0.000000000000000E+000
  0.000000000000000E+000
  0.000000000000000E+000
  0.000000000000000E+000
  0.000000000000000E+000
  0.000000000000000E+000
  0.000000000000000E+000
  0.000000000000000E+000
  0.000000000000000E+000
  0.000000000000000E+000
  0.000000000000000E+000
  0.000000000000000E+000
  0.000000000000000E+000
  0.000000000000000E+000
  0.000000000000000E+000
  0.000000000000000E+000
  0.000000000000000E+000
  0.000000000000000E+000
  0.000000000000000E+000
