# vtk DataFile Version 3.0
vtk output
ASCII
DATASET UNSTRUCTURED_GRID
POINTS       496 double 
  0.00000000E+00  3.00000000E+02  0.00000000E+00
  0.00000000E+00  2.80000000E+02  0.00000000E+00
  0.00000000E+00  2.60000000E+02  0.00000000E+00
  0.00000000E+00  2.40000000E+02  0.00000000E+00
  0.00000000E+00  2.20000000E+02  0.00000000E+00
  0.00000000E+00  2.00000000E+02  0.00000000E+00
  0.00000000E+00  1.80000000E+02  0.00000000E+00
  0.00000000E+00  1.60000000E+02  0.00000000E+00
  0.00000000E+00  1.40000000E+02  0.00000000E+00
  0.00000000E+00  1.20000000E+02  0.00000000E+00
  0.00000000E+00  1.00000000E+02  0.00000000E+00
  0.00000000E+00  8.00000000E+01  0.00000000E+00
  0.00000000E+00  6.00000000E+01  0.00000000E+00
  0.00000000E+00  4.00000000E+01  0.00000000E+00
  0.00000000E+00  2.00000000E+01  0.00000000E+00
  0.00000000E+00  4.99600361E-14  0.00000000E+00
  2.00000000E+01  3.00000000E+02  0.00000000E+00
  2.00000000E+01  2.80000000E+02  0.00000000E+00
  2.00000000E+01  2.60000000E+02  0.00000000E+00
  2.00000000E+01  2.40000000E+02  0.00000000E+00
  2.00000000E+01  2.20000000E+02  0.00000000E+00
  2.00000000E+01  2.00000000E+02  0.00000000E+00
  2.00000000E+01  1.80000000E+02  0.00000000E+00
  2.00000000E+01  1.60000000E+02  0.00000000E+00
  2.00000000E+01  1.40000000E+02  0.00000000E+00
  2.00000000E+01  1.20000000E+02  0.00000000E+00
  2.00000000E+01  1.00000000E+02  0.00000000E+00
  2.00000000E+01  8.00000000E+01  0.00000000E+00
  2.00000000E+01  6.00000000E+01  0.00000000E+00
  2.00000000E+01  4.00000000E+01  0.00000000E+00
  2.00000000E+01  2.00000000E+01  0.00000000E+00
  2.00000000E+01  4.99600361E-14  0.00000000E+00
  4.00000000E+01  3.00000000E+02  0.00000000E+00
  4.00000000E+01  2.80000000E+02  0.00000000E+00
  4.00000000E+01  2.60000000E+02  0.00000000E+00
  4.00000000E+01  2.40000000E+02  0.00000000E+00
  4.00000000E+01  2.20000000E+02  0.00000000E+00
  4.00000000E+01  2.00000000E+02  0.00000000E+00
  4.00000000E+01  1.80000000E+02  0.00000000E+00
  4.00000000E+01  1.60000000E+02  0.00000000E+00
  4.00000000E+01  1.40000000E+02  0.00000000E+00
  4.00000000E+01  1.20000000E+02  0.00000000E+00
  4.00000000E+01  1.00000000E+02  0.00000000E+00
  4.00000000E+01  8.00000000E+01  0.00000000E+00
  4.00000000E+01  6.00000000E+01  0.00000000E+00
  4.00000000E+01  4.00000000E+01  0.00000000E+00
  4.00000000E+01  2.00000000E+01  0.00000000E+00
  4.00000000E+01  4.99600361E-14  0.00000000E+00
  6.00000000E+01  3.00000000E+02  0.00000000E+00
  6.00000000E+01  2.80000000E+02  0.00000000E+00
  6.00000000E+01  2.60000000E+02  0.00000000E+00
  6.00000000E+01  2.40000000E+02  0.00000000E+00
  6.00000000E+01  2.20000000E+02  0.00000000E+00
  6.00000000E+01  2.00000000E+02  0.00000000E+00
  6.00000000E+01  1.80000000E+02  0.00000000E+00
  6.00000000E+01  1.60000000E+02  0.00000000E+00
  6.00000000E+01  1.40000000E+02  0.00000000E+00
  6.00000000E+01  1.20000000E+02  0.00000000E+00
  6.00000000E+01  1.00000000E+02  0.00000000E+00
  6.00000000E+01  8.00000000E+01  0.00000000E+00
  6.00000000E+01  6.00000000E+01  0.00000000E+00
  6.00000000E+01  4.00000000E+01  0.00000000E+00
  6.00000000E+01  2.00000000E+01  0.00000000E+00
  6.00000000E+01  4.99600361E-14  0.00000000E+00
  8.00000000E+01  3.00000000E+02  0.00000000E+00
  8.00000000E+01  2.80000000E+02  0.00000000E+00
  8.00000000E+01  2.60000000E+02  0.00000000E+00
  8.00000000E+01  2.40000000E+02  0.00000000E+00
  8.00000000E+01  2.20000000E+02  0.00000000E+00
  8.00000000E+01  2.00000000E+02  0.00000000E+00
  8.00000000E+01  1.80000000E+02  0.00000000E+00
  8.00000000E+01  1.60000000E+02  0.00000000E+00
  8.00000000E+01  1.40000000E+02  0.00000000E+00
  8.00000000E+01  1.20000000E+02  0.00000000E+00
  8.00000000E+01  1.00000000E+02  0.00000000E+00
  8.00000000E+01  8.00000000E+01  0.00000000E+00
  8.00000000E+01  6.00000000E+01  0.00000000E+00
  8.00000000E+01  4.00000000E+01  0.00000000E+00
  8.00000000E+01  2.00000000E+01  0.00000000E+00
  8.00000000E+01  4.99600361E-14  0.00000000E+00
  1.00000000E+02  3.00000000E+02  0.00000000E+00
  1.00000000E+02  2.80000000E+02  0.00000000E+00
  1.00000000E+02  2.60000000E+02  0.00000000E+00
  1.00000000E+02  2.40000000E+02  0.00000000E+00
  1.00000000E+02  2.20000000E+02  0.00000000E+00
  1.00000000E+02  2.00000000E+02  0.00000000E+00
  1.00000000E+02  1.80000000E+02  0.00000000E+00
  1.00000000E+02  1.60000000E+02  0.00000000E+00
  1.00000000E+02  1.40000000E+02  0.00000000E+00
  1.00000000E+02  1.20000000E+02  0.00000000E+00
  1.00000000E+02  1.00000000E+02  0.00000000E+00
  1.00000000E+02  8.00000000E+01  0.00000000E+00
  1.00000000E+02  6.00000000E+01  0.00000000E+00
  1.00000000E+02  4.00000000E+01  0.00000000E+00
  1.00000000E+02  2.00000000E+01  0.00000000E+00
  1.00000000E+02  4.99600361E-14  0.00000000E+00
  1.20000000E+02  3.00000000E+02  0.00000000E+00
  1.20000000E+02  2.80000000E+02  0.00000000E+00
  1.20000000E+02  2.60000000E+02  0.00000000E+00
  1.20000000E+02  2.40000000E+02  0.00000000E+00
  1.20000000E+02  2.20000000E+02  0.00000000E+00
  1.20000000E+02  2.00000000E+02  0.00000000E+00
  1.20000000E+02  1.80000000E+02  0.00000000E+00
  1.20000000E+02  1.60000000E+02  0.00000000E+00
  1.20000000E+02  1.40000000E+02  0.00000000E+00
  1.20000000E+02  1.20000000E+02  0.00000000E+00
  1.20000000E+02  1.00000000E+02  0.00000000E+00
  1.20000000E+02  8.00000000E+01  0.00000000E+00
  1.20000000E+02  6.00000000E+01  0.00000000E+00
  1.20000000E+02  4.00000000E+01  0.00000000E+00
  1.20000000E+02  2.00000000E+01  0.00000000E+00
  1.20000000E+02  4.99600361E-14  0.00000000E+00
  1.40000000E+02  3.00000000E+02  0.00000000E+00
  1.40000000E+02  2.80000000E+02  0.00000000E+00
  1.40000000E+02  2.60000000E+02  0.00000000E+00
  1.40000000E+02  2.40000000E+02  0.00000000E+00
  1.40000000E+02  2.20000000E+02  0.00000000E+00
  1.40000000E+02  2.00000000E+02  0.00000000E+00
  1.40000000E+02  1.80000000E+02  0.00000000E+00
  1.40000000E+02  1.60000000E+02  0.00000000E+00
  1.40000000E+02  1.40000000E+02  0.00000000E+00
  1.40000000E+02  1.20000000E+02  0.00000000E+00
  1.40000000E+02  1.00000000E+02  0.00000000E+00
  1.40000000E+02  8.00000000E+01  0.00000000E+00
  1.40000000E+02  6.00000000E+01  0.00000000E+00
  1.40000000E+02  4.00000000E+01  0.00000000E+00
  1.40000000E+02  2.00000000E+01  0.00000000E+00
  1.40000000E+02  4.99600361E-14  0.00000000E+00
  1.60000000E+02  3.00000000E+02  0.00000000E+00
  1.60000000E+02  2.80000000E+02  0.00000000E+00
  1.60000000E+02  2.60000000E+02  0.00000000E+00
  1.60000000E+02  2.40000000E+02  0.00000000E+00
  1.60000000E+02  2.20000000E+02  0.00000000E+00
  1.60000000E+02  2.00000000E+02  0.00000000E+00
  1.60000000E+02  1.80000000E+02  0.00000000E+00
  1.60000000E+02  1.60000000E+02  0.00000000E+00
  1.60000000E+02  1.40000000E+02  0.00000000E+00
  1.60000000E+02  1.20000000E+02  0.00000000E+00
  1.60000000E+02  1.00000000E+02  0.00000000E+00
  1.60000000E+02  8.00000000E+01  0.00000000E+00
  1.60000000E+02  6.00000000E+01  0.00000000E+00
  1.60000000E+02  4.00000000E+01  0.00000000E+00
  1.60000000E+02  2.00000000E+01  0.00000000E+00
  1.60000000E+02  4.99600361E-14  0.00000000E+00
  1.80000000E+02  3.00000000E+02  0.00000000E+00
  1.80000000E+02  2.80000000E+02  0.00000000E+00
  1.80000000E+02  2.60000000E+02  0.00000000E+00
  1.80000000E+02  2.40000000E+02  0.00000000E+00
  1.80000000E+02  2.20000000E+02  0.00000000E+00
  1.80000000E+02  2.00000000E+02  0.00000000E+00
  1.80000000E+02  1.80000000E+02  0.00000000E+00
  1.80000000E+02  1.60000000E+02  0.00000000E+00
  1.80000000E+02  1.40000000E+02  0.00000000E+00
  1.80000000E+02  1.20000000E+02  0.00000000E+00
  1.80000000E+02  1.00000000E+02  0.00000000E+00
  1.80000000E+02  8.00000000E+01  0.00000000E+00
  1.80000000E+02  6.00000000E+01  0.00000000E+00
  1.80000000E+02  4.00000000E+01  0.00000000E+00
  1.80000000E+02  2.00000000E+01  0.00000000E+00
  1.80000000E+02  4.99600361E-14  0.00000000E+00
  2.00000000E+02  3.00000000E+02  0.00000000E+00
  2.00000000E+02  2.80000000E+02  0.00000000E+00
  2.00000000E+02  2.60000000E+02  0.00000000E+00
  2.00000000E+02  2.40000000E+02  0.00000000E+00
  2.00000000E+02  2.20000000E+02  0.00000000E+00
  2.00000000E+02  2.00000000E+02  0.00000000E+00
  2.00000000E+02  1.80000000E+02  0.00000000E+00
  2.00000000E+02  1.60000000E+02  0.00000000E+00
  2.00000000E+02  1.40000000E+02  0.00000000E+00
  2.00000000E+02  1.20000000E+02  0.00000000E+00
  2.00000000E+02  1.00000000E+02  0.00000000E+00
  2.00000000E+02  8.00000000E+01  0.00000000E+00
  2.00000000E+02  6.00000000E+01  0.00000000E+00
  2.00000000E+02  4.00000000E+01  0.00000000E+00
  2.00000000E+02  2.00000000E+01  0.00000000E+00
  2.00000000E+02  4.99600361E-14  0.00000000E+00
  2.20000000E+02  3.00000000E+02  0.00000000E+00
  2.20000000E+02  2.80000000E+02  0.00000000E+00
  2.20000000E+02  2.60000000E+02  0.00000000E+00
  2.20000000E+02  2.40000000E+02  0.00000000E+00
  2.20000000E+02  2.20000000E+02  0.00000000E+00
  2.20000000E+02  2.00000000E+02  0.00000000E+00
  2.20000000E+02  1.80000000E+02  0.00000000E+00
  2.20000000E+02  1.60000000E+02  0.00000000E+00
  2.20000000E+02  1.40000000E+02  0.00000000E+00
  2.20000000E+02  1.20000000E+02  0.00000000E+00
  2.20000000E+02  1.00000000E+02  0.00000000E+00
  2.20000000E+02  8.00000000E+01  0.00000000E+00
  2.20000000E+02  6.00000000E+01  0.00000000E+00
  2.20000000E+02  4.00000000E+01  0.00000000E+00
  2.20000000E+02  2.00000000E+01  0.00000000E+00
  2.20000000E+02  4.99600361E-14  0.00000000E+00
  2.40000000E+02  3.00000000E+02  0.00000000E+00
  2.40000000E+02  2.80000000E+02  0.00000000E+00
  2.40000000E+02  2.60000000E+02  0.00000000E+00
  2.40000000E+02  2.40000000E+02  0.00000000E+00
  2.40000000E+02  2.20000000E+02  0.00000000E+00
  2.40000000E+02  2.00000000E+02  0.00000000E+00
  2.40000000E+02  1.80000000E+02  0.00000000E+00
  2.40000000E+02  1.60000000E+02  0.00000000E+00
  2.40000000E+02  1.40000000E+02  0.00000000E+00
  2.40000000E+02  1.20000000E+02  0.00000000E+00
  2.40000000E+02  1.00000000E+02  0.00000000E+00
  2.40000000E+02  8.00000000E+01  0.00000000E+00
  2.40000000E+02  6.00000000E+01  0.00000000E+00
  2.40000000E+02  4.00000000E+01  0.00000000E+00
  2.40000000E+02  2.00000000E+01  0.00000000E+00
  2.40000000E+02  4.99600361E-14  0.00000000E+00
  2.60000000E+02  3.00000000E+02  0.00000000E+00
  2.60000000E+02  2.80000000E+02  0.00000000E+00
  2.60000000E+02  2.60000000E+02  0.00000000E+00
  2.60000000E+02  2.40000000E+02  0.00000000E+00
  2.60000000E+02  2.20000000E+02  0.00000000E+00
  2.60000000E+02  2.00000000E+02  0.00000000E+00
  2.60000000E+02  1.80000000E+02  0.00000000E+00
  2.60000000E+02  1.60000000E+02  0.00000000E+00
  2.60000000E+02  1.40000000E+02  0.00000000E+00
  2.60000000E+02  1.20000000E+02  0.00000000E+00
  2.60000000E+02  1.00000000E+02  0.00000000E+00
  2.60000000E+02  8.00000000E+01  0.00000000E+00
  2.60000000E+02  6.00000000E+01  0.00000000E+00
  2.60000000E+02  4.00000000E+01  0.00000000E+00
  2.60000000E+02  2.00000000E+01  0.00000000E+00
  2.60000000E+02  4.99600361E-14  0.00000000E+00
  2.80000000E+02  3.00000000E+02  0.00000000E+00
  2.80000000E+02  2.80000000E+02  0.00000000E+00
  2.80000000E+02  2.60000000E+02  0.00000000E+00
  2.80000000E+02  2.40000000E+02  0.00000000E+00
  2.80000000E+02  2.20000000E+02  0.00000000E+00
  2.80000000E+02  2.00000000E+02  0.00000000E+00
  2.80000000E+02  1.80000000E+02  0.00000000E+00
  2.80000000E+02  1.60000000E+02  0.00000000E+00
  2.80000000E+02  1.40000000E+02  0.00000000E+00
  2.80000000E+02  1.20000000E+02  0.00000000E+00
  2.80000000E+02  1.00000000E+02  0.00000000E+00
  2.80000000E+02  8.00000000E+01  0.00000000E+00
  2.80000000E+02  6.00000000E+01  0.00000000E+00
  2.80000000E+02  4.00000000E+01  0.00000000E+00
  2.80000000E+02  2.00000000E+01  0.00000000E+00
  2.80000000E+02  4.99600361E-14  0.00000000E+00
  3.00000000E+02  3.00000000E+02  0.00000000E+00
  3.00000000E+02  2.80000000E+02  0.00000000E+00
  3.00000000E+02  2.60000000E+02  0.00000000E+00
  3.00000000E+02  2.40000000E+02  0.00000000E+00
  3.00000000E+02  2.20000000E+02  0.00000000E+00
  3.00000000E+02  2.00000000E+02  0.00000000E+00
  3.00000000E+02  1.80000000E+02  0.00000000E+00
  3.00000000E+02  1.60000000E+02  0.00000000E+00
  3.00000000E+02  1.40000000E+02  0.00000000E+00
  3.00000000E+02  1.20000000E+02  0.00000000E+00
  3.00000000E+02  1.00000000E+02  0.00000000E+00
  3.00000000E+02  8.00000000E+01  0.00000000E+00
  3.00000000E+02  6.00000000E+01  0.00000000E+00
  3.00000000E+02  4.00000000E+01  0.00000000E+00
  3.00000000E+02  2.00000000E+01  0.00000000E+00
  3.00000000E+02  4.99600361E-14  0.00000000E+00
  3.20000000E+02  3.00000000E+02  0.00000000E+00
  3.20000000E+02  2.80000000E+02  0.00000000E+00
  3.20000000E+02  2.60000000E+02  0.00000000E+00
  3.20000000E+02  2.40000000E+02  0.00000000E+00
  3.20000000E+02  2.20000000E+02  0.00000000E+00
  3.20000000E+02  2.00000000E+02  0.00000000E+00
  3.20000000E+02  1.80000000E+02  0.00000000E+00
  3.20000000E+02  1.60000000E+02  0.00000000E+00
  3.20000000E+02  1.40000000E+02  0.00000000E+00
  3.20000000E+02  1.20000000E+02  0.00000000E+00
  3.20000000E+02  1.00000000E+02  0.00000000E+00
  3.20000000E+02  8.00000000E+01  0.00000000E+00
  3.20000000E+02  6.00000000E+01  0.00000000E+00
  3.20000000E+02  4.00000000E+01  0.00000000E+00
  3.20000000E+02  2.00000000E+01  0.00000000E+00
  3.20000000E+02  4.99600361E-14  0.00000000E+00
  3.40000000E+02  3.00000000E+02  0.00000000E+00
  3.40000000E+02  2.80000000E+02  0.00000000E+00
  3.40000000E+02  2.60000000E+02  0.00000000E+00
  3.40000000E+02  2.40000000E+02  0.00000000E+00
  3.40000000E+02  2.20000000E+02  0.00000000E+00
  3.40000000E+02  2.00000000E+02  0.00000000E+00
  3.40000000E+02  1.80000000E+02  0.00000000E+00
  3.40000000E+02  1.60000000E+02  0.00000000E+00
  3.40000000E+02  1.40000000E+02  0.00000000E+00
  3.40000000E+02  1.20000000E+02  0.00000000E+00
  3.40000000E+02  1.00000000E+02  0.00000000E+00
  3.40000000E+02  8.00000000E+01  0.00000000E+00
  3.40000000E+02  6.00000000E+01  0.00000000E+00
  3.40000000E+02  4.00000000E+01  0.00000000E+00
  3.40000000E+02  2.00000000E+01  0.00000000E+00
  3.40000000E+02  4.99600361E-14  0.00000000E+00
  3.60000000E+02  3.00000000E+02  0.00000000E+00
  3.60000000E+02  2.80000000E+02  0.00000000E+00
  3.60000000E+02  2.60000000E+02  0.00000000E+00
  3.60000000E+02  2.40000000E+02  0.00000000E+00
  3.60000000E+02  2.20000000E+02  0.00000000E+00
  3.60000000E+02  2.00000000E+02  0.00000000E+00
  3.60000000E+02  1.80000000E+02  0.00000000E+00
  3.60000000E+02  1.60000000E+02  0.00000000E+00
  3.60000000E+02  1.40000000E+02  0.00000000E+00
  3.60000000E+02  1.20000000E+02  0.00000000E+00
  3.60000000E+02  1.00000000E+02  0.00000000E+00
  3.60000000E+02  8.00000000E+01  0.00000000E+00
  3.60000000E+02  6.00000000E+01  0.00000000E+00
  3.60000000E+02  4.00000000E+01  0.00000000E+00
  3.60000000E+02  2.00000000E+01  0.00000000E+00
  3.60000000E+02  4.99600361E-14  0.00000000E+00
  3.80000000E+02  3.00000000E+02  0.00000000E+00
  3.80000000E+02  2.80000000E+02  0.00000000E+00
  3.80000000E+02  2.60000000E+02  0.00000000E+00
  3.80000000E+02  2.40000000E+02  0.00000000E+00
  3.80000000E+02  2.20000000E+02  0.00000000E+00
  3.80000000E+02  2.00000000E+02  0.00000000E+00
  3.80000000E+02  1.80000000E+02  0.00000000E+00
  3.80000000E+02  1.60000000E+02  0.00000000E+00
  3.80000000E+02  1.40000000E+02  0.00000000E+00
  3.80000000E+02  1.20000000E+02  0.00000000E+00
  3.80000000E+02  1.00000000E+02  0.00000000E+00
  3.80000000E+02  8.00000000E+01  0.00000000E+00
  3.80000000E+02  6.00000000E+01  0.00000000E+00
  3.80000000E+02  4.00000000E+01  0.00000000E+00
  3.80000000E+02  2.00000000E+01  0.00000000E+00
  3.80000000E+02  4.99600361E-14  0.00000000E+00
  4.00000000E+02  3.00000000E+02  0.00000000E+00
  4.00000000E+02  2.80000000E+02  0.00000000E+00
  4.00000000E+02  2.60000000E+02  0.00000000E+00
  4.00000000E+02  2.40000000E+02  0.00000000E+00
  4.00000000E+02  2.20000000E+02  0.00000000E+00
  4.00000000E+02  2.00000000E+02  0.00000000E+00
  4.00000000E+02  1.80000000E+02  0.00000000E+00
  4.00000000E+02  1.60000000E+02  0.00000000E+00
  4.00000000E+02  1.40000000E+02  0.00000000E+00
  4.00000000E+02  1.20000000E+02  0.00000000E+00
  4.00000000E+02  1.00000000E+02  0.00000000E+00
  4.00000000E+02  8.00000000E+01  0.00000000E+00
  4.00000000E+02  6.00000000E+01  0.00000000E+00
  4.00000000E+02  4.00000000E+01  0.00000000E+00
  4.00000000E+02  2.00000000E+01  0.00000000E+00
  4.00000000E+02  4.99600361E-14  0.00000000E+00
  4.20000000E+02  3.00000000E+02  0.00000000E+00
  4.20000000E+02  2.80000000E+02  0.00000000E+00
  4.20000000E+02  2.60000000E+02  0.00000000E+00
  4.20000000E+02  2.40000000E+02  0.00000000E+00
  4.20000000E+02  2.20000000E+02  0.00000000E+00
  4.20000000E+02  2.00000000E+02  0.00000000E+00
  4.20000000E+02  1.80000000E+02  0.00000000E+00
  4.20000000E+02  1.60000000E+02  0.00000000E+00
  4.20000000E+02  1.40000000E+02  0.00000000E+00
  4.20000000E+02  1.20000000E+02  0.00000000E+00
  4.20000000E+02  1.00000000E+02  0.00000000E+00
  4.20000000E+02  8.00000000E+01  0.00000000E+00
  4.20000000E+02  6.00000000E+01  0.00000000E+00
  4.20000000E+02  4.00000000E+01  0.00000000E+00
  4.20000000E+02  2.00000000E+01  0.00000000E+00
  4.20000000E+02  4.99600361E-14  0.00000000E+00
  4.40000000E+02  3.00000000E+02  0.00000000E+00
  4.40000000E+02  2.80000000E+02  0.00000000E+00
  4.40000000E+02  2.60000000E+02  0.00000000E+00
  4.40000000E+02  2.40000000E+02  0.00000000E+00
  4.40000000E+02  2.20000000E+02  0.00000000E+00
  4.40000000E+02  2.00000000E+02  0.00000000E+00
  4.40000000E+02  1.80000000E+02  0.00000000E+00
  4.40000000E+02  1.60000000E+02  0.00000000E+00
  4.40000000E+02  1.40000000E+02  0.00000000E+00
  4.40000000E+02  1.20000000E+02  0.00000000E+00
  4.40000000E+02  1.00000000E+02  0.00000000E+00
  4.40000000E+02  8.00000000E+01  0.00000000E+00
  4.40000000E+02  6.00000000E+01  0.00000000E+00
  4.40000000E+02  4.00000000E+01  0.00000000E+00
  4.40000000E+02  2.00000000E+01  0.00000000E+00
  4.40000000E+02  4.99600361E-14  0.00000000E+00
  4.60000000E+02  3.00000000E+02  0.00000000E+00
  4.60000000E+02  2.80000000E+02  0.00000000E+00
  4.60000000E+02  2.60000000E+02  0.00000000E+00
  4.60000000E+02  2.40000000E+02  0.00000000E+00
  4.60000000E+02  2.20000000E+02  0.00000000E+00
  4.60000000E+02  2.00000000E+02  0.00000000E+00
  4.60000000E+02  1.80000000E+02  0.00000000E+00
  4.60000000E+02  1.60000000E+02  0.00000000E+00
  4.60000000E+02  1.40000000E+02  0.00000000E+00
  4.60000000E+02  1.20000000E+02  0.00000000E+00
  4.60000000E+02  1.00000000E+02  0.00000000E+00
  4.60000000E+02  8.00000000E+01  0.00000000E+00
  4.60000000E+02  6.00000000E+01  0.00000000E+00
  4.60000000E+02  4.00000000E+01  0.00000000E+00
  4.60000000E+02  2.00000000E+01  0.00000000E+00
  4.60000000E+02  4.99600361E-14  0.00000000E+00
  4.80000000E+02  3.00000000E+02  0.00000000E+00
  4.80000000E+02  2.80000000E+02  0.00000000E+00
  4.80000000E+02  2.60000000E+02  0.00000000E+00
  4.80000000E+02  2.40000000E+02  0.00000000E+00
  4.80000000E+02  2.20000000E+02  0.00000000E+00
  4.80000000E+02  2.00000000E+02  0.00000000E+00
  4.80000000E+02  1.80000000E+02  0.00000000E+00
  4.80000000E+02  1.60000000E+02  0.00000000E+00
  4.80000000E+02  1.40000000E+02  0.00000000E+00
  4.80000000E+02  1.20000000E+02  0.00000000E+00
  4.80000000E+02  1.00000000E+02  0.00000000E+00
  4.80000000E+02  8.00000000E+01  0.00000000E+00
  4.80000000E+02  6.00000000E+01  0.00000000E+00
  4.80000000E+02  4.00000000E+01  0.00000000E+00
  4.80000000E+02  2.00000000E+01  0.00000000E+00
  4.80000000E+02  4.99600361E-14  0.00000000E+00
  5.00000000E+02  3.00000000E+02  0.00000000E+00
  5.00000000E+02  2.80000000E+02  0.00000000E+00
  5.00000000E+02  2.60000000E+02  0.00000000E+00
  5.00000000E+02  2.40000000E+02  0.00000000E+00
  5.00000000E+02  2.20000000E+02  0.00000000E+00
  5.00000000E+02  2.00000000E+02  0.00000000E+00
  5.00000000E+02  1.80000000E+02  0.00000000E+00
  5.00000000E+02  1.60000000E+02  0.00000000E+00
  5.00000000E+02  1.40000000E+02  0.00000000E+00
  5.00000000E+02  1.20000000E+02  0.00000000E+00
  5.00000000E+02  1.00000000E+02  0.00000000E+00
  5.00000000E+02  8.00000000E+01  0.00000000E+00
  5.00000000E+02  6.00000000E+01  0.00000000E+00
  5.00000000E+02  4.00000000E+01  0.00000000E+00
  5.00000000E+02  2.00000000E+01  0.00000000E+00
  5.00000000E+02  4.99600361E-14  0.00000000E+00
  5.20000000E+02  3.00000000E+02  0.00000000E+00
  5.20000000E+02  2.80000000E+02  0.00000000E+00
  5.20000000E+02  2.60000000E+02  0.00000000E+00
  5.20000000E+02  2.40000000E+02  0.00000000E+00
  5.20000000E+02  2.20000000E+02  0.00000000E+00
  5.20000000E+02  2.00000000E+02  0.00000000E+00
  5.20000000E+02  1.80000000E+02  0.00000000E+00
  5.20000000E+02  1.60000000E+02  0.00000000E+00
  5.20000000E+02  1.40000000E+02  0.00000000E+00
  5.20000000E+02  1.20000000E+02  0.00000000E+00
  5.20000000E+02  1.00000000E+02  0.00000000E+00
  5.20000000E+02  8.00000000E+01  0.00000000E+00
  5.20000000E+02  6.00000000E+01  0.00000000E+00
  5.20000000E+02  4.00000000E+01  0.00000000E+00
  5.20000000E+02  2.00000000E+01  0.00000000E+00
  5.20000000E+02  4.99600361E-14  0.00000000E+00
  5.40000000E+02  3.00000000E+02  0.00000000E+00
  5.40000000E+02  2.80000000E+02  0.00000000E+00
  5.40000000E+02  2.60000000E+02  0.00000000E+00
  5.40000000E+02  2.40000000E+02  0.00000000E+00
  5.40000000E+02  2.20000000E+02  0.00000000E+00
  5.40000000E+02  2.00000000E+02  0.00000000E+00
  5.40000000E+02  1.80000000E+02  0.00000000E+00
  5.40000000E+02  1.60000000E+02  0.00000000E+00
  5.40000000E+02  1.40000000E+02  0.00000000E+00
  5.40000000E+02  1.20000000E+02  0.00000000E+00
  5.40000000E+02  1.00000000E+02  0.00000000E+00
  5.40000000E+02  8.00000000E+01  0.00000000E+00
  5.40000000E+02  6.00000000E+01  0.00000000E+00
  5.40000000E+02  4.00000000E+01  0.00000000E+00
  5.40000000E+02  2.00000000E+01  0.00000000E+00
  5.40000000E+02  4.99600361E-14  0.00000000E+00
  5.60000000E+02  3.00000000E+02  0.00000000E+00
  5.60000000E+02  2.80000000E+02  0.00000000E+00
  5.60000000E+02  2.60000000E+02  0.00000000E+00
  5.60000000E+02  2.40000000E+02  0.00000000E+00
  5.60000000E+02  2.20000000E+02  0.00000000E+00
  5.60000000E+02  2.00000000E+02  0.00000000E+00
  5.60000000E+02  1.80000000E+02  0.00000000E+00
  5.60000000E+02  1.60000000E+02  0.00000000E+00
  5.60000000E+02  1.40000000E+02  0.00000000E+00
  5.60000000E+02  1.20000000E+02  0.00000000E+00
  5.60000000E+02  1.00000000E+02  0.00000000E+00
  5.60000000E+02  8.00000000E+01  0.00000000E+00
  5.60000000E+02  6.00000000E+01  0.00000000E+00
  5.60000000E+02  4.00000000E+01  0.00000000E+00
  5.60000000E+02  2.00000000E+01  0.00000000E+00
  5.60000000E+02  4.99600361E-14  0.00000000E+00
  5.80000000E+02  3.00000000E+02  0.00000000E+00
  5.80000000E+02  2.80000000E+02  0.00000000E+00
  5.80000000E+02  2.60000000E+02  0.00000000E+00
  5.80000000E+02  2.40000000E+02  0.00000000E+00
  5.80000000E+02  2.20000000E+02  0.00000000E+00
  5.80000000E+02  2.00000000E+02  0.00000000E+00
  5.80000000E+02  1.80000000E+02  0.00000000E+00
  5.80000000E+02  1.60000000E+02  0.00000000E+00
  5.80000000E+02  1.40000000E+02  0.00000000E+00
  5.80000000E+02  1.20000000E+02  0.00000000E+00
  5.80000000E+02  1.00000000E+02  0.00000000E+00
  5.80000000E+02  8.00000000E+01  0.00000000E+00
  5.80000000E+02  6.00000000E+01  0.00000000E+00
  5.80000000E+02  4.00000000E+01  0.00000000E+00
  5.80000000E+02  2.00000000E+01  0.00000000E+00
  5.80000000E+02  4.99600361E-14  0.00000000E+00
  6.00000000E+02  3.00000000E+02  0.00000000E+00
  6.00000000E+02  2.80000000E+02  0.00000000E+00
  6.00000000E+02  2.60000000E+02  0.00000000E+00
  6.00000000E+02  2.40000000E+02  0.00000000E+00
  6.00000000E+02  2.20000000E+02  0.00000000E+00
  6.00000000E+02  2.00000000E+02  0.00000000E+00
  6.00000000E+02  1.80000000E+02  0.00000000E+00
  6.00000000E+02  1.60000000E+02  0.00000000E+00
  6.00000000E+02  1.40000000E+02  0.00000000E+00
  6.00000000E+02  1.20000000E+02  0.00000000E+00
  6.00000000E+02  1.00000000E+02  0.00000000E+00
  6.00000000E+02  8.00000000E+01  0.00000000E+00
  6.00000000E+02  6.00000000E+01  0.00000000E+00
  6.00000000E+02  4.00000000E+01  0.00000000E+00
  6.00000000E+02  2.00000000E+01  0.00000000E+00
  6.00000000E+02  4.99600361E-14  0.00000000E+00
CELLS       450      2250
         4           0           1          17          16
         4           1           2          18          17
         4           2           3          19          18
         4           3           4          20          19
         4           4           5          21          20
         4           5           6          22          21
         4           6           7          23          22
         4           7           8          24          23
         4           8           9          25          24
         4           9          10          26          25
         4          10          11          27          26
         4          11          12          28          27
         4          12          13          29          28
         4          13          14          30          29
         4          14          15          31          30
         4          16          17          33          32
         4          17          18          34          33
         4          18          19          35          34
         4          19          20          36          35
         4          20          21          37          36
         4          21          22          38          37
         4          22          23          39          38
         4          23          24          40          39
         4          24          25          41          40
         4          25          26          42          41
         4          26          27          43          42
         4          27          28          44          43
         4          28          29          45          44
         4          29          30          46          45
         4          30          31          47          46
         4          32          33          49          48
         4          33          34          50          49
         4          34          35          51          50
         4          35          36          52          51
         4          36          37          53          52
         4          37          38          54          53
         4          38          39          55          54
         4          39          40          56          55
         4          40          41          57          56
         4          41          42          58          57
         4          42          43          59          58
         4          43          44          60          59
         4          44          45          61          60
         4          45          46          62          61
         4          46          47          63          62
         4          48          49          65          64
         4          49          50          66          65
         4          50          51          67          66
         4          51          52          68          67
         4          52          53          69          68
         4          53          54          70          69
         4          54          55          71          70
         4          55          56          72          71
         4          56          57          73          72
         4          57          58          74          73
         4          58          59          75          74
         4          59          60          76          75
         4          60          61          77          76
         4          61          62          78          77
         4          62          63          79          78
         4          64          65          81          80
         4          65          66          82          81
         4          66          67          83          82
         4          67          68          84          83
         4          68          69          85          84
         4          69          70          86          85
         4          70          71          87          86
         4          71          72          88          87
         4          72          73          89          88
         4          73          74          90          89
         4          74          75          91          90
         4          75          76          92          91
         4          76          77          93          92
         4          77          78          94          93
         4          78          79          95          94
         4          80          81          97          96
         4          81          82          98          97
         4          82          83          99          98
         4          83          84         100          99
         4          84          85         101         100
         4          85          86         102         101
         4          86          87         103         102
         4          87          88         104         103
         4          88          89         105         104
         4          89          90         106         105
         4          90          91         107         106
         4          91          92         108         107
         4          92          93         109         108
         4          93          94         110         109
         4          94          95         111         110
         4          96          97         113         112
         4          97          98         114         113
         4          98          99         115         114
         4          99         100         116         115
         4         100         101         117         116
         4         101         102         118         117
         4         102         103         119         118
         4         103         104         120         119
         4         104         105         121         120
         4         105         106         122         121
         4         106         107         123         122
         4         107         108         124         123
         4         108         109         125         124
         4         109         110         126         125
         4         110         111         127         126
         4         112         113         129         128
         4         113         114         130         129
         4         114         115         131         130
         4         115         116         132         131
         4         116         117         133         132
         4         117         118         134         133
         4         118         119         135         134
         4         119         120         136         135
         4         120         121         137         136
         4         121         122         138         137
         4         122         123         139         138
         4         123         124         140         139
         4         124         125         141         140
         4         125         126         142         141
         4         126         127         143         142
         4         128         129         145         144
         4         129         130         146         145
         4         130         131         147         146
         4         131         132         148         147
         4         132         133         149         148
         4         133         134         150         149
         4         134         135         151         150
         4         135         136         152         151
         4         136         137         153         152
         4         137         138         154         153
         4         138         139         155         154
         4         139         140         156         155
         4         140         141         157         156
         4         141         142         158         157
         4         142         143         159         158
         4         144         145         161         160
         4         145         146         162         161
         4         146         147         163         162
         4         147         148         164         163
         4         148         149         165         164
         4         149         150         166         165
         4         150         151         167         166
         4         151         152         168         167
         4         152         153         169         168
         4         153         154         170         169
         4         154         155         171         170
         4         155         156         172         171
         4         156         157         173         172
         4         157         158         174         173
         4         158         159         175         174
         4         160         161         177         176
         4         161         162         178         177
         4         162         163         179         178
         4         163         164         180         179
         4         164         165         181         180
         4         165         166         182         181
         4         166         167         183         182
         4         167         168         184         183
         4         168         169         185         184
         4         169         170         186         185
         4         170         171         187         186
         4         171         172         188         187
         4         172         173         189         188
         4         173         174         190         189
         4         174         175         191         190
         4         176         177         193         192
         4         177         178         194         193
         4         178         179         195         194
         4         179         180         196         195
         4         180         181         197         196
         4         181         182         198         197
         4         182         183         199         198
         4         183         184         200         199
         4         184         185         201         200
         4         185         186         202         201
         4         186         187         203         202
         4         187         188         204         203
         4         188         189         205         204
         4         189         190         206         205
         4         190         191         207         206
         4         192         193         209         208
         4         193         194         210         209
         4         194         195         211         210
         4         195         196         212         211
         4         196         197         213         212
         4         197         198         214         213
         4         198         199         215         214
         4         199         200         216         215
         4         200         201         217         216
         4         201         202         218         217
         4         202         203         219         218
         4         203         204         220         219
         4         204         205         221         220
         4         205         206         222         221
         4         206         207         223         222
         4         208         209         225         224
         4         209         210         226         225
         4         210         211         227         226
         4         211         212         228         227
         4         212         213         229         228
         4         213         214         230         229
         4         214         215         231         230
         4         215         216         232         231
         4         216         217         233         232
         4         217         218         234         233
         4         218         219         235         234
         4         219         220         236         235
         4         220         221         237         236
         4         221         222         238         237
         4         222         223         239         238
         4         224         225         241         240
         4         225         226         242         241
         4         226         227         243         242
         4         227         228         244         243
         4         228         229         245         244
         4         229         230         246         245
         4         230         231         247         246
         4         231         232         248         247
         4         232         233         249         248
         4         233         234         250         249
         4         234         235         251         250
         4         235         236         252         251
         4         236         237         253         252
         4         237         238         254         253
         4         238         239         255         254
         4         240         241         257         256
         4         241         242         258         257
         4         242         243         259         258
         4         243         244         260         259
         4         244         245         261         260
         4         245         246         262         261
         4         246         247         263         262
         4         247         248         264         263
         4         248         249         265         264
         4         249         250         266         265
         4         250         251         267         266
         4         251         252         268         267
         4         252         253         269         268
         4         253         254         270         269
         4         254         255         271         270
         4         256         257         273         272
         4         257         258         274         273
         4         258         259         275         274
         4         259         260         276         275
         4         260         261         277         276
         4         261         262         278         277
         4         262         263         279         278
         4         263         264         280         279
         4         264         265         281         280
         4         265         266         282         281
         4         266         267         283         282
         4         267         268         284         283
         4         268         269         285         284
         4         269         270         286         285
         4         270         271         287         286
         4         272         273         289         288
         4         273         274         290         289
         4         274         275         291         290
         4         275         276         292         291
         4         276         277         293         292
         4         277         278         294         293
         4         278         279         295         294
         4         279         280         296         295
         4         280         281         297         296
         4         281         282         298         297
         4         282         283         299         298
         4         283         284         300         299
         4         284         285         301         300
         4         285         286         302         301
         4         286         287         303         302
         4         288         289         305         304
         4         289         290         306         305
         4         290         291         307         306
         4         291         292         308         307
         4         292         293         309         308
         4         293         294         310         309
         4         294         295         311         310
         4         295         296         312         311
         4         296         297         313         312
         4         297         298         314         313
         4         298         299         315         314
         4         299         300         316         315
         4         300         301         317         316
         4         301         302         318         317
         4         302         303         319         318
         4         304         305         321         320
         4         305         306         322         321
         4         306         307         323         322
         4         307         308         324         323
         4         308         309         325         324
         4         309         310         326         325
         4         310         311         327         326
         4         311         312         328         327
         4         312         313         329         328
         4         313         314         330         329
         4         314         315         331         330
         4         315         316         332         331
         4         316         317         333         332
         4         317         318         334         333
         4         318         319         335         334
         4         320         321         337         336
         4         321         322         338         337
         4         322         323         339         338
         4         323         324         340         339
         4         324         325         341         340
         4         325         326         342         341
         4         326         327         343         342
         4         327         328         344         343
         4         328         329         345         344
         4         329         330         346         345
         4         330         331         347         346
         4         331         332         348         347
         4         332         333         349         348
         4         333         334         350         349
         4         334         335         351         350
         4         336         337         353         352
         4         337         338         354         353
         4         338         339         355         354
         4         339         340         356         355
         4         340         341         357         356
         4         341         342         358         357
         4         342         343         359         358
         4         343         344         360         359
         4         344         345         361         360
         4         345         346         362         361
         4         346         347         363         362
         4         347         348         364         363
         4         348         349         365         364
         4         349         350         366         365
         4         350         351         367         366
         4         352         353         369         368
         4         353         354         370         369
         4         354         355         371         370
         4         355         356         372         371
         4         356         357         373         372
         4         357         358         374         373
         4         358         359         375         374
         4         359         360         376         375
         4         360         361         377         376
         4         361         362         378         377
         4         362         363         379         378
         4         363         364         380         379
         4         364         365         381         380
         4         365         366         382         381
         4         366         367         383         382
         4         368         369         385         384
         4         369         370         386         385
         4         370         371         387         386
         4         371         372         388         387
         4         372         373         389         388
         4         373         374         390         389
         4         374         375         391         390
         4         375         376         392         391
         4         376         377         393         392
         4         377         378         394         393
         4         378         379         395         394
         4         379         380         396         395
         4         380         381         397         396
         4         381         382         398         397
         4         382         383         399         398
         4         384         385         401         400
         4         385         386         402         401
         4         386         387         403         402
         4         387         388         404         403
         4         388         389         405         404
         4         389         390         406         405
         4         390         391         407         406
         4         391         392         408         407
         4         392         393         409         408
         4         393         394         410         409
         4         394         395         411         410
         4         395         396         412         411
         4         396         397         413         412
         4         397         398         414         413
         4         398         399         415         414
         4         400         401         417         416
         4         401         402         418         417
         4         402         403         419         418
         4         403         404         420         419
         4         404         405         421         420
         4         405         406         422         421
         4         406         407         423         422
         4         407         408         424         423
         4         408         409         425         424
         4         409         410         426         425
         4         410         411         427         426
         4         411         412         428         427
         4         412         413         429         428
         4         413         414         430         429
         4         414         415         431         430
         4         416         417         433         432
         4         417         418         434         433
         4         418         419         435         434
         4         419         420         436         435
         4         420         421         437         436
         4         421         422         438         437
         4         422         423         439         438
         4         423         424         440         439
         4         424         425         441         440
         4         425         426         442         441
         4         426         427         443         442
         4         427         428         444         443
         4         428         429         445         444
         4         429         430         446         445
         4         430         431         447         446
         4         432         433         449         448
         4         433         434         450         449
         4         434         435         451         450
         4         435         436         452         451
         4         436         437         453         452
         4         437         438         454         453
         4         438         439         455         454
         4         439         440         456         455
         4         440         441         457         456
         4         441         442         458         457
         4         442         443         459         458
         4         443         444         460         459
         4         444         445         461         460
         4         445         446         462         461
         4         446         447         463         462
         4         448         449         465         464
         4         449         450         466         465
         4         450         451         467         466
         4         451         452         468         467
         4         452         453         469         468
         4         453         454         470         469
         4         454         455         471         470
         4         455         456         472         471
         4         456         457         473         472
         4         457         458         474         473
         4         458         459         475         474
         4         459         460         476         475
         4         460         461         477         476
         4         461         462         478         477
         4         462         463         479         478
         4         464         465         481         480
         4         465         466         482         481
         4         466         467         483         482
         4         467         468         484         483
         4         468         469         485         484
         4         469         470         486         485
         4         470         471         487         486
         4         471         472         488         487
         4         472         473         489         488
         4         473         474         490         489
         4         474         475         491         490
         4         475         476         492         491
         4         476         477         493         492
         4         477         478         494         493
         4         478         479         495         494
CELL_TYPES        450
9
9
9
9
9
9
9
9
9
9
9
9
9
9
9
9
9
9
9
9
9
9
9
9
9
9
9
9
9
9
9
9
9
9
9
9
9
9
9
9
9
9
9
9
9
9
9
9
9
9
9
9
9
9
9
9
9
9
9
9
9
9
9
9
9
9
9
9
9
9
9
9
9
9
9
9
9
9
9
9
9
9
9
9
9
9
9
9
9
9
9
9
9
9
9
9
9
9
9
9
9
9
9
9
9
9
9
9
9
9
9
9
9
9
9
9
9
9
9
9
9
9
9
9
9
9
9
9
9
9
9
9
9
9
9
9
9
9
9
9
9
9
9
9
9
9
9
9
9
9
9
9
9
9
9
9
9
9
9
9
9
9
9
9
9
9
9
9
9
9
9
9
9
9
9
9
9
9
9
9
9
9
9
9
9
9
9
9
9
9
9
9
9
9
9
9
9
9
9
9
9
9
9
9
9
9
9
9
9
9
9
9
9
9
9
9
9
9
9
9
9
9
9
9
9
9
9
9
9
9
9
9
9
9
9
9
9
9
9
9
9
9
9
9
9
9
9
9
9
9
9
9
9
9
9
9
9
9
9
9
9
9
9
9
9
9
9
9
9
9
9
9
9
9
9
9
9
9
9
9
9
9
9
9
9
9
9
9
9
9
9
9
9
9
9
9
9
9
9
9
9
9
9
9
9
9
9
9
9
9
9
9
9
9
9
9
9
9
9
9
9
9
9
9
9
9
9
9
9
9
9
9
9
9
9
9
9
9
9
9
9
9
9
9
9
9
9
9
9
9
9
9
9
9
9
9
9
9
9
9
9
9
9
9
9
9
9
9
9
9
9
9
9
9
9
9
9
9
9
9
9
9
9
9
9
9
9
9
9
9
9
9
9
9
9
9
9
9
9
9
9
9
9
9
9
9
9
9
9
9
9
9
9
9
9
9
9
9
9
9
9
9
9
9
9
9
9
9
9
9
9
9
9
9
9
9
9
9
9
9
9
9
9
9
9
9
9
9
9
9
POINT_DATA       496
SCALARS p double 
LOOKUP_TABLE default
   54001673.3544525     
   54042683.8648214     
   54145452.6802826     
   54284724.9784409     
   54447455.8918418     
   54623569.3220198     
   54805224.5203459     
   54986160.7944454     
   55161269.5567145     
   55326254.9976548     
   55477351.0344400     
   55611071.2442059     
   55723973.3554332     
   55812369.3683400     
   55872126.4861163     
   55894713.9596240     
   52137233.9212963     
   52169448.5540879     
   52256099.6580231     
   52381773.7989941     
   52532473.5761956     
   52697864.8103822     
   52869858.2821301     
   53042009.0084685     
   53209057.7766747     
   53366576.4142295     
   53510671.5976821     
   53637722.1330834     
   53744120.3518334     
   53826002.9998755     
   53878589.3207859     
   53897269.6601332     
   50387776.1223430     
   50416340.9847403     
   50493030.1926664     
   50605686.5514850     
   50742882.3832248     
   50894962.0963012     
   51054169.8659753     
   51214221.8283100     
   51369940.7116552     
   51516938.9063307     
   51651345.1924732     
   51769561.4297751     
   51868041.8305817     
   51943070.4347136     
   51990855.1233585     
   52007855.4745383     
   48757582.6779578     
   48783112.5873729     
   48851295.0678305     
   48951418.5700425     
   49073957.2494441     
   49210606.5900153     
   49354376.4284163     
   49499458.2834739     
   49640982.9314806     
   49774778.7214619     
   49897148.9011744     
   50004674.2622141     
   50094046.1179202     
   50161983.0328874     
   50205242.6890490     
   50220659.6907179     
   47243671.7335290     
   47265880.2685420     
   47325104.5647663     
   47412036.0581199     
   47518667.1727152     
   47638029.9325242     
   47764119.9235586     
   47891812.2556473     
   48016722.3582057     
   48135041.5927007     
   48243375.5733693     
   48338598.9266782     
   48417742.2517746     
   48477920.3657867     
   48516290.8473958     
   48529990.5016679     
   45837899.1044953     
   45856348.5127986     
   45905686.9643541     
   45978298.9572585     
   46067671.7086283     
   46168127.4546363     
   46274700.0531272     
   46383056.1489263     
   46489409.0904633     
   46590417.7414242     
   46683080.9351554     
   46764639.8182855     
   46832496.2302127     
   46884147.7981276     
   46917126.0861416     
   46928911.6023107     
   44528276.8612821     
   44542599.7642374     
   44581214.0512396     
   44638466.8125599     
   44709421.3932234     
   44789695.8310124     
   44875376.0442820     
   44962964.5232167     
   45049334.1641251     
   45131675.2909191     
   45207437.0157879     
   45274268.6143085     
   45329964.9750800     
   45372414.7600399     
   45399543.3122491     
   45409238.4593546     
   43300061.3249560     
   43310048.4482309     
   43337431.2905564     
   43378673.5527912     
   43430484.7666042     
   43489796.8188833     
   43553753.6817250     
   43619709.4025930     
   43685224.4272790     
   43748054.3507828     
   43806130.7057633     
   43857536.2559863     
   43900476.8129597     
   43933249.0226996     
   43954200.7990067     
   43961680.3911558     
   42136788.5549337     
   42142412.8269364     
   42158474.0017071     
   42183573.9984410     
   42216081.5827814     
   42254241.0800352     
   42296248.5240255     
   42340308.7349077     
   42384677.2958805     
   42427688.7204107     
   42467772.4697913     
   42503459.0634289     
   42533378.1512852     
   42556249.2937670     
   42570865.2863961     
   42576068.2614948     
   41021224.4199218     
   41022632.0421338     
   41027697.1426714     
   41037063.2226062     
   41050703.6327102     
   41068138.7032665     
   41088590.8309961     
   41111099.5297688     
   41134608.3461772     
   41158030.3029390     
   41180296.2520062     
   41200389.5018251     
   41217369.3633581     
   41230385.6498992     
   41238685.9906838     
   41241618.5259137     
   39936187.4641834     
   39933670.7050391     
   39928429.7677179     
   39922961.5477396     
   39918727.8558015     
   39916450.3426221     
   39916328.2422399     
   39918203.1330859     
   39921686.0211667     
   39926256.4359942     
   39931339.9827533     
   39936368.9812010     
   39940829.7919594     
   39944299.9171502     
   39946477.9929333     
   39947210.4988395     
   38865213.3411024     
   38859175.0073791     
   38844605.4747726     
   38825605.4650856     
   38804961.4948700     
   38784487.7450328     
   38765287.0148450     
   38747953.2504682     
   38732731.2180948     
   38719643.9948633     
   38708595.7313005     
   38699455.1449093     
   38692124.0552980     
   38686594.7481408     
   38682999.9884274     
   38681660.0929288     
   37793050.1268280     
   37783966.5580223     
   37761247.8107745     
   37730315.8742989     
   37695086.8047026     
   37658332.3136460     
   37621964.8980846     
   37587265.1403584     
   37555065.0427343     
   37525897.5453461     
   37500119.7016226     
   37478015.1981366     
   37459880.8264969     
   37446101.0073457     
   37437214.4545072     
   37433977.5101685     
   36705991.9186721     
   36694378.9599459     
   36664810.1095196     
   36623736.8181071     
   36575993.6218191     
   36525157.7384752     
   36473841.8183703     
   36423933.7360108     
   36376794.5322132     
   36333423.1765196     
   36294594.8968965     
   36260978.4445877     
   36233236.7834385     
   36212115.2561332     
   36198521.2349701     
   36193599.5710769     
   35592070.6564741     
   35578455.1003897     
   35543383.1557385     
   35494052.6035252     
   35436002.6650413     
   35373455.9072373     
   35309605.5062110     
   35246857.0025773     
   35187032.5405581     
   35131544.3009352     
   35081542.6825893     
   35038043.8827847     
   35002040.9129377     
   34974601.7630519     
   34956958.3761363     
   34950590.2869971     
   34441132.5822110     
   34426030.0552756     
   34386791.9230119     
   34331099.9372998     
   34264991.5724615     
   34193174.1426242     
   34119297.1093586     
   34046187.4886646     
   33976053.3357191     
   33910659.9382136     
   33851482.8688112     
   33799841.5972172     
   33757017.0245931     
   33724356.1112019     
   33703366.7289671     
   33695805.9740353     
   33244827.2014119     
   33228726.4134659     
   33186605.5031992     
   33126395.5968928     
   33054440.3397531     
   32975776.8064792     
   32894386.7239299     
   32813419.4903291     
   32735389.3372674     
   32662349.3096134     
   32596044.7921210     
   32538049.2497159     
   32489884.7620433     
   32453129.8694436     
   32429517.2289025     
   32421023.6095344     
   31996534.5569865     
   31979887.1851454     
   31936083.6198601     
   31873100.4871389     
   31797414.0939610     
   31714246.2593927     
   31627791.0955034     
   31541421.6720736     
   31457876.7824825     
   31379428.7881005     
   31308033.9588331     
   31245466.9736164     
   31193441.3697047     
   31153717.7770705     
   31128201.7722843     
   31119033.1525313     
   30691252.5683085     
   30674467.7323389     
   30630080.1727296     
   30565938.9514456     
   30488500.1059338     
   30403037.9416617     
   30313846.1263390     
   30224425.7785235     
   30137659.1417947     
   30055968.4229049     
   29981460.0779418     
   29916055.3168429     
   29861607.8940340     
   29820010.3866296     
   29793290.1612754     
   29783696.1279412     
   29325461.3326549     
   29308903.5449413     
   29264920.2500166     
   29201088.9952626     
   29123713.5824512     
   29038002.7706848     
   28948245.9235448     
   28857981.6957743     
   28770157.1255110     
   28687275.5731804     
   28611532.8539401     
   28544941.6054477     
   28489444.3762337     
   28447016.1101606     
   28419756.6753425     
   28409973.8948811     
   27896976.4803122     
   27880966.0384835     
   27838262.8261526     
   27776055.4705796     
   27700383.8634187     
   27616287.8222833     
   27527958.5164081     
   27438888.0393406     
   27352013.4687228     
   27269852.8753799     
   27194631.8822660     
   27128400.3061324     
   27073138.9933845     
   27030857.1647351     
   27003680.4790833     
   26993929.7105793     
   26404799.4410035     
   26389614.4091516     
   26348957.4997021     
   26289534.8436787     
   26217029.7522086     
   26136223.9126098     
   26051126.5263593     
   25965106.0402473     
   25881019.6491853     
   25801337.0572641     
   25728256.5582785     
   25663812.7785579     
   25609976.1228736     
   25568744.0909922     
   25542224.3593740     
   25532709.0246301     
   24848969.0903240     
   24834848.2378944     
   24796900.4487247     
   24741277.2951486     
   24673230.2225752     
   24597206.6075597     
   24516959.3320432     
   24435663.0546954     
   24356030.5077174     
   24280424.1744872     
   24210961.2169859     
   24149611.3455167     
   24098288.0452908     
   24058933.4173938     
   24033596.2861792     
   24024502.4784520     
   23230416.8039706     
   23217563.1118969     
   23182892.4580453     
   23131949.8145942     
   23069494.9484571     
   22999575.6213748     
   22925621.8486281     
   22850550.6953447     
   22776871.5264002     
   22706785.7915991     
   22642279.8669651     
   22585211.9713620     
   22537394.5631838     
   22500672.7613560     
   22476998.1072379     
   22468495.9373731     
   21550825.4847927     
   21539410.0618625     
   21508500.5132348     
   21463002.8654949     
   21407138.2338044     
   21344496.6918738     
   21278123.9843224     
   21210621.3690540     
   21144242.2868806     
   21080979.5019804     
   21022643.9356963     
   20970939.1008900     
   20927534.2810285     
   20894137.2876488     
   20872565.4081232     
   20864811.6459702     
   19812492.5926048     
   19802659.1997065     
   19775924.3030175     
   19736543.5200024     
   19688160.3354295     
   19633849.8138343     
   19576213.8783729     
   19517485.6467409     
   19459618.2971114     
   19404356.0460672     
   19353295.4678144     
   19307945.4292872     
   19269790.7098385     
   19240361.0392072     
   19221302.2725844     
   19214444.3290353     
   18018198.3652210     
   18010068.8774210     
   17987870.9657601     
   17955221.0838161     
   17915142.2536454     
   17870127.5718856     
   17822276.0086652     
   17773410.7738923     
   17725152.0306907     
   17678964.3680093     
   17636197.4777010     
   17598128.4981035     
   17566015.6943848     
   17541166.1949045     
   17525014.2628100     
   17519195.8765638     
   16171081.1940815     
   16164767.2125806     
   16147450.0202037     
   16122139.9893245     
   16091164.2166256     
   16056343.0922599     
   16019229.6445735     
   15981217.4433072     
   15943572.9892112     
   15907456.5949524     
   15873942.8227586     
   15844045.5080163     
   15818751.1799625     
   15799092.3846137     
   15786242.5125387     
   15781611.1374665     
   14274552.8089998     
   14270170.0458744     
   14258129.6161759     
   14240843.3802054     
   14219747.0789469     
   14195928.0678963     
   14170414.1747899     
   14144168.5677076     
   14118086.7647352     
   14092997.3671976     
   14069669.3743212     
   14048823.5997103     
   14031149.8483951     
   14017324.5452582     
   14008197.3286628     
   14004919.0758150     
   12332248.5343925     
   12330104.9923680     
   12323955.4271536     
   12315371.8629296     
   12304735.1291587     
   12292578.3954578     
   12279440.8825426     
   12265843.7348636     
   12252274.8111374     
   12239185.9918317     
   12226996.0651263     
   12216096.2037900     
   12206854.3000030     
   12199624.3740524     
   12194681.6572946     
   12192951.1187090     
   10350000.0000000     
   10350000.0000000     
   10350000.0000000     
   10350000.0000000     
   10350000.0000000     
   10350000.0000000     
   10350000.0000000     
   10350000.0000000     
   10350000.0000000     
   10350000.0000000     
   10350000.0000000     
   10350000.0000000     
   10350000.0000000     
   10350000.0000000     
   10350000.0000000     
   10350000.0000000     
VECTORS u double 
    0.00000E+00        -0.68695E+00         0.00000E+00
    0.00000E+00        -0.65342E+00         0.00000E+00
    0.00000E+00        -0.61525E+00         0.00000E+00
    0.00000E+00        -0.57310E+00         0.00000E+00
    0.00000E+00        -0.52777E+00         0.00000E+00
    0.00000E+00        -0.47992E+00         0.00000E+00
    0.00000E+00        -0.43017E+00         0.00000E+00
    0.00000E+00        -0.37907E+00         0.00000E+00
    0.00000E+00        -0.32717E+00         0.00000E+00
    0.00000E+00        -0.27504E+00         0.00000E+00
    0.00000E+00        -0.22325E+00         0.00000E+00
    0.00000E+00        -0.17245E+00         0.00000E+00
    0.00000E+00        -0.12340E+00         0.00000E+00
    0.00000E+00        -0.77069E-01         0.00000E+00
    0.00000E+00        -0.34870E-01         0.00000E+00
    0.00000E+00         0.00000E+00         0.00000E+00
    0.15849E+00        -0.70664E+00         0.00000E+00
    0.13306E+00        -0.66719E+00         0.00000E+00
    0.11754E+00        -0.62598E+00         0.00000E+00
    0.10607E+00        -0.58192E+00         0.00000E+00
    0.96875E-01        -0.53521E+00         0.00000E+00
    0.89071E-01        -0.48630E+00         0.00000E+00
    0.82130E-01        -0.43567E+00         0.00000E+00
    0.75694E-01        -0.38385E+00         0.00000E+00
    0.69483E-01        -0.33133E+00         0.00000E+00
    0.63253E-01        -0.27863E+00         0.00000E+00
    0.56754E-01        -0.22634E+00         0.00000E+00
    0.49693E-01        -0.17507E+00         0.00000E+00
    0.41669E-01        -0.12558E+00         0.00000E+00
    0.32036E-01        -0.78822E-01         0.00000E+00
    0.19548E-01        -0.36208E-01         0.00000E+00
    0.00000E+00         0.00000E+00         0.00000E+00
    0.30108E+00        -0.75237E+00         0.00000E+00
    0.25654E+00        -0.70446E+00         0.00000E+00
    0.22613E+00        -0.65643E+00         0.00000E+00
    0.20334E+00        -0.60739E+00         0.00000E+00
    0.18496E+00        -0.55691E+00         0.00000E+00
    0.16932E+00        -0.50499E+00         0.00000E+00
    0.15540E+00        -0.45190E+00         0.00000E+00
    0.14250E+00        -0.39796E+00         0.00000E+00
    0.13008E+00        -0.34359E+00         0.00000E+00
    0.11764E+00        -0.28924E+00         0.00000E+00
    0.10470E+00        -0.23543E+00         0.00000E+00
    0.90695E-01        -0.18274E+00         0.00000E+00
    0.74884E-01        -0.13188E+00         0.00000E+00
    0.56136E-01        -0.83736E-01         0.00000E+00
    0.32391E-01        -0.39450E-01         0.00000E+00
    0.00000E+00         0.00000E+00         0.00000E+00
    0.42741E+00        -0.81418E+00         0.00000E+00
    0.36918E+00        -0.75820E+00         0.00000E+00
    0.32601E+00        -0.70260E+00         0.00000E+00
    0.29250E+00        -0.64711E+00         0.00000E+00
    0.26512E+00        -0.59129E+00         0.00000E+00
    0.24171E+00        -0.53493E+00         0.00000E+00
    0.22083E+00        -0.47803E+00         0.00000E+00
    0.20150E+00        -0.42079E+00         0.00000E+00
    0.18290E+00        -0.36347E+00         0.00000E+00
    0.16433E+00        -0.30643E+00         0.00000E+00
    0.14509E+00        -0.25010E+00         0.00000E+00
    0.12441E+00        -0.19502E+00         0.00000E+00
    0.10129E+00        -0.14179E+00         0.00000E+00
    0.74348E-01        -0.91111E-01         0.00000E+00
    0.41535E-01        -0.43705E-01         0.00000E+00
    0.00000E+00         0.00000E+00         0.00000E+00
    0.53885E+00        -0.88706E+00         0.00000E+00
    0.47055E+00        -0.82352E+00         0.00000E+00
    0.41696E+00        -0.76057E+00         0.00000E+00
    0.37385E+00        -0.69826E+00         0.00000E+00
    0.33797E+00        -0.63635E+00         0.00000E+00
    0.30700E+00        -0.57461E+00         0.00000E+00
    0.27930E+00        -0.51297E+00         0.00000E+00
    0.25361E+00        -0.45145E+00         0.00000E+00
    0.22895E+00        -0.39023E+00         0.00000E+00
    0.20441E+00        -0.32956E+00         0.00000E+00
    0.17912E+00        -0.26980E+00         0.00000E+00
    0.15215E+00        -0.21136E+00         0.00000E+00
    0.12236E+00        -0.15471E+00         0.00000E+00
    0.88350E-01        -0.10038E+00         0.00000E+00
    0.48297E-01        -0.48760E-01         0.00000E+00
    0.00000E+00         0.00000E+00         0.00000E+00
    0.63685E+00        -0.96784E+00         0.00000E+00
    0.56099E+00        -0.89727E+00         0.00000E+00
    0.49898E+00        -0.82734E+00         0.00000E+00
    0.44754E+00        -0.75828E+00         0.00000E+00
    0.40388E+00        -0.69004E+00         0.00000E+00
    0.36577E+00        -0.62245E+00         0.00000E+00
    0.33149E+00        -0.55542E+00         0.00000E+00
    0.29966E+00        -0.48891E+00         0.00000E+00
    0.26913E+00        -0.42302E+00         0.00000E+00
    0.23886E+00        -0.35792E+00         0.00000E+00
    0.20784E+00        -0.29386E+00         0.00000E+00
    0.17505E+00        -0.23116E+00         0.00000E+00
    0.13931E+00        -0.17016E+00         0.00000E+00
    0.99290E-01        -0.11120E+00         0.00000E+00
    0.53421E-01        -0.54479E-01         0.00000E+00
    0.00000E+00         0.00000E+00         0.00000E+00
    0.72276E+00        -0.10544E+01         0.00000E+00
    0.64113E+00        -0.97723E+00         0.00000E+00
    0.57230E+00        -0.90072E+00         0.00000E+00
    0.51374E+00        -0.82516E+00         0.00000E+00
    0.46312E+00        -0.75058E+00         0.00000E+00
    0.41843E+00        -0.67693E+00         0.00000E+00
    0.37797E+00        -0.60412E+00         0.00000E+00
    0.34030E+00        -0.53212E+00         0.00000E+00
    0.30419E+00        -0.46096E+00         0.00000E+00
    0.26851E+00        -0.39074E+00         0.00000E+00
    0.23217E+00        -0.32165E+00         0.00000E+00
    0.19408E+00        -0.25390E+00         0.00000E+00
    0.15309E+00        -0.18772E+00         0.00000E+00
    0.10797E+00        -0.12331E+00         0.00000E+00
    0.57384E-01        -0.60767E-01         0.00000E+00
    0.00000E+00         0.00000E+00         0.00000E+00
    0.79782E+00        -0.11452E+01         0.00000E+00
    0.71170E+00        -0.10619E+01         0.00000E+00
    0.63730E+00        -0.97915E+00         0.00000E+00
    0.57269E+00        -0.89732E+00         0.00000E+00
    0.51596E+00        -0.81652E+00         0.00000E+00
    0.46531E+00        -0.73674E+00         0.00000E+00
    0.41915E+00        -0.65794E+00         0.00000E+00
    0.37606E+00        -0.58008E+00         0.00000E+00
    0.33475E+00        -0.50318E+00         0.00000E+00
    0.29405E+00        -0.42730E+00         0.00000E+00
    0.25283E+00        -0.35255E+00         0.00000E+00
    0.20999E+00        -0.27909E+00         0.00000E+00
    0.16441E+00        -0.20704E+00         0.00000E+00
    0.11496E+00        -0.13652E+00         0.00000E+00
    0.60511E-01        -0.67542E-01         0.00000E+00
    0.00000E+00         0.00000E+00         0.00000E+00
    0.86311E+00        -0.12393E+01         0.00000E+00
    0.77340E+00        -0.11501E+01         0.00000E+00
    0.69441E+00        -0.10615E+01         0.00000E+00
    0.62467E+00        -0.97361E+00         0.00000E+00
    0.56262E+00        -0.88671E+00         0.00000E+00
    0.50668E+00        -0.80080E+00         0.00000E+00
    0.45538E+00        -0.71587E+00         0.00000E+00
    0.40734E+00        -0.63191E+00         0.00000E+00
    0.36129E+00        -0.54892E+00         0.00000E+00
    0.31603E+00        -0.46694E+00         0.00000E+00
    0.27042E+00        -0.38603E+00         0.00000E+00
    0.22337E+00        -0.30630E+00         0.00000E+00
    0.17380E+00        -0.22781E+00         0.00000E+00
    0.12068E+00        -0.15063E+00         0.00000E+00
    0.63030E-01        -0.74733E-01         0.00000E+00
    0.00000E+00         0.00000E+00         0.00000E+00
    0.91955E+00        -0.13360E+01         0.00000E+00
    0.82688E+00        -0.12412E+01         0.00000E+00
    0.74405E+00        -0.11469E+01         0.00000E+00
    0.66997E+00        -0.10532E+01         0.00000E+00
    0.60333E+00        -0.96027E+00         0.00000E+00
    0.54276E+00        -0.86825E+00         0.00000E+00
    0.48692E+00        -0.77711E+00         0.00000E+00
    0.43448E+00        -0.68687E+00         0.00000E+00
    0.38419E+00        -0.59752E+00         0.00000E+00
    0.33487E+00        -0.50909E+00         0.00000E+00
    0.28538E+00        -0.42162E+00         0.00000E+00
    0.23464E+00        -0.33517E+00         0.00000E+00
    0.18164E+00        -0.24980E+00         0.00000E+00
    0.12541E+00        -0.16551E+00         0.00000E+00
    0.65102E-01        -0.82274E-01         0.00000E+00
    0.00000E+00         0.00000E+00         0.00000E+00
    0.96786E+00        -0.14350E+01         0.00000E+00
    0.87265E+00        -0.13347E+01         0.00000E+00
    0.78659E+00        -0.12348E+01         0.00000E+00
    0.70882E+00        -0.11354E+01         0.00000E+00
    0.63828E+00        -0.10365E+01         0.00000E+00
    0.57374E+00        -0.93841E+00         0.00000E+00
    0.51396E+00        -0.84101E+00         0.00000E+00
    0.45769E+00        -0.74434E+00         0.00000E+00
    0.40372E+00        -0.64842E+00         0.00000E+00
    0.35087E+00        -0.55327E+00         0.00000E+00
    0.29802E+00        -0.45892E+00         0.00000E+00
    0.24413E+00        -0.36540E+00         0.00000E+00
    0.18821E+00        -0.27276E+00         0.00000E+00
    0.12937E+00        -0.18101E+00         0.00000E+00
    0.66837E-01        -0.90110E-01         0.00000E+00
    0.00000E+00         0.00000E+00         0.00000E+00
    0.10086E+01        -0.15359E+01         0.00000E+00
    0.91113E+00        -0.14303E+01         0.00000E+00
    0.82230E+00        -0.13249E+01         0.00000E+00
    0.74143E+00        -0.12198E+01         0.00000E+00
    0.66761E+00        -0.11150E+01         0.00000E+00
    0.59973E+00        -0.10108E+01         0.00000E+00
    0.53664E+00        -0.90706E+00         0.00000E+00
    0.47715E+00        -0.80384E+00         0.00000E+00
    0.42006E+00        -0.70117E+00         0.00000E+00
    0.36423E+00        -0.59908E+00         0.00000E+00
    0.30857E+00        -0.49759E+00         0.00000E+00
    0.25204E+00        -0.39673E+00         0.00000E+00
    0.19369E+00        -0.29654E+00         0.00000E+00
    0.13269E+00        -0.19703E+00         0.00000E+00
    0.68305E-01        -0.98192E-01         0.00000E+00
    0.00000E+00         0.00000E+00         0.00000E+00
    0.10421E+01        -0.16388E+01         0.00000E+00
    0.94257E+00        -0.15278E+01         0.00000E+00
    0.85136E+00        -0.14169E+01         0.00000E+00
    0.76792E+00        -0.13060E+01         0.00000E+00
    0.69141E+00        -0.11954E+01         0.00000E+00
    0.62082E+00        -0.10850E+01         0.00000E+00
    0.55504E+00        -0.97485E+00         0.00000E+00
    0.49293E+00        -0.86498E+00         0.00000E+00
    0.43332E+00        -0.75542E+00         0.00000E+00
    0.37509E+00        -0.64620E+00         0.00000E+00
    0.31716E+00        -0.53736E+00         0.00000E+00
    0.25850E+00        -0.42893E+00         0.00000E+00
    0.19820E+00        -0.32096E+00         0.00000E+00
    0.13545E+00        -0.21347E+00         0.00000E+00
    0.69549E-01        -0.10648E+00         0.00000E+00
    0.00000E+00         0.00000E+00         0.00000E+00
    0.10686E+01        -0.17436E+01         0.00000E+00
    0.96713E+00        -0.16271E+01         0.00000E+00
    0.87388E+00        -0.15106E+01         0.00000E+00
    0.78834E+00        -0.13940E+01         0.00000E+00
    0.70970E+00        -0.12774E+01         0.00000E+00
    0.63701E+00        -0.11607E+01         0.00000E+00
    0.56917E+00        -0.10441E+01         0.00000E+00
    0.50507E+00        -0.92743E+00         0.00000E+00
    0.44356E+00        -0.81084E+00         0.00000E+00
    0.38351E+00        -0.69435E+00         0.00000E+00
    0.32385E+00        -0.57800E+00         0.00000E+00
    0.26359E+00        -0.46183E+00         0.00000E+00
    0.20180E+00        -0.34589E+00         0.00000E+00
    0.13769E+00        -0.23024E+00         0.00000E+00
    0.70591E-01        -0.11493E+00         0.00000E+00
    0.00000E+00         0.00000E+00         0.00000E+00
    0.10881E+01        -0.18503E+01         0.00000E+00
    0.98478E+00        -0.17282E+01         0.00000E+00
    0.88982E+00        -0.16060E+01         0.00000E+00
    0.80265E+00        -0.14835E+01         0.00000E+00
    0.72245E+00        -0.13608E+01         0.00000E+00
    0.64827E+00        -0.12377E+01         0.00000E+00
    0.57901E+00        -0.11145E+01         0.00000E+00
    0.51355E+00        -0.99093E+00         0.00000E+00
    0.45075E+00        -0.86719E+00         0.00000E+00
    0.38948E+00        -0.74330E+00         0.00000E+00
    0.32867E+00        -0.61930E+00         0.00000E+00
    0.26732E+00        -0.49525E+00         0.00000E+00
    0.20450E+00        -0.37122E+00         0.00000E+00
    0.13943E+00        -0.24728E+00         0.00000E+00
    0.71432E-01        -0.12351E+00         0.00000E+00
    0.00000E+00         0.00000E+00         0.00000E+00
    0.11004E+01        -0.19588E+01         0.00000E+00
    0.99541E+00        -0.18309E+01         0.00000E+00
    0.89908E+00        -0.17028E+01         0.00000E+00
    0.81075E+00        -0.15743E+01         0.00000E+00
    0.72956E+00        -0.14453E+01         0.00000E+00
    0.65450E+00        -0.13158E+01         0.00000E+00
    0.58446E+00        -0.11858E+01         0.00000E+00
    0.51829E+00        -0.10552E+01         0.00000E+00
    0.45484E+00        -0.92423E+00         0.00000E+00
    0.39296E+00        -0.79283E+00         0.00000E+00
    0.33157E+00        -0.66108E+00         0.00000E+00
    0.26965E+00        -0.52906E+00         0.00000E+00
    0.20628E+00        -0.39684E+00         0.00000E+00
    0.14065E+00        -0.26451E+00         0.00000E+00
    0.72063E-01        -0.13219E+00         0.00000E+00
    0.00000E+00         0.00000E+00         0.00000E+00
    0.11052E+01        -0.20691E+01         0.00000E+00
    0.99877E+00        -0.19352E+01         0.00000E+00
    0.90145E+00        -0.18010E+01         0.00000E+00
    0.81247E+00        -0.16663E+01         0.00000E+00
    0.73087E+00        -0.15308E+01         0.00000E+00
    0.65558E+00        -0.13947E+01         0.00000E+00
    0.58542E+00        -0.12577E+01         0.00000E+00
    0.51920E+00        -0.11201E+01         0.00000E+00
    0.45574E+00        -0.98171E+00         0.00000E+00
    0.39387E+00        -0.84272E+00         0.00000E+00
    0.33248E+00        -0.70315E+00         0.00000E+00
    0.27053E+00        -0.56308E+00         0.00000E+00
    0.20709E+00        -0.42262E+00         0.00000E+00
    0.14130E+00        -0.28185E+00         0.00000E+00
    0.72462E-01        -0.14093E+00         0.00000E+00
    0.00000E+00         0.00000E+00         0.00000E+00
    0.11021E+01        -0.21811E+01         0.00000E+00
    0.99451E+00        -0.20409E+01         0.00000E+00
    0.89664E+00        -0.19004E+01         0.00000E+00
    0.80756E+00        -0.17592E+01         0.00000E+00
    0.72618E+00        -0.16171E+01         0.00000E+00
    0.65131E+00        -0.14741E+01         0.00000E+00
    0.58171E+00        -0.13301E+01         0.00000E+00
    0.51612E+00        -0.11852E+01         0.00000E+00
    0.45331E+00        -0.10394E+01         0.00000E+00
    0.39208E+00        -0.89273E+00         0.00000E+00
    0.33129E+00        -0.74530E+00         0.00000E+00
    0.26987E+00        -0.59717E+00         0.00000E+00
    0.20685E+00        -0.44845E+00         0.00000E+00
    0.14134E+00        -0.29924E+00         0.00000E+00
    0.72600E-01        -0.14969E+00         0.00000E+00
    0.00000E+00         0.00000E+00         0.00000E+00
    0.10906E+01        -0.22945E+01         0.00000E+00
    0.98219E+00        -0.21478E+01         0.00000E+00
    0.88428E+00        -0.20006E+01         0.00000E+00
    0.79571E+00        -0.18527E+01         0.00000E+00
    0.71522E+00        -0.17037E+01         0.00000E+00
    0.64148E+00        -0.15537E+01         0.00000E+00
    0.57315E+00        -0.14025E+01         0.00000E+00
    0.50888E+00        -0.12503E+01         0.00000E+00
    0.44740E+00        -0.10970E+01         0.00000E+00
    0.38745E+00        -0.94261E+00         0.00000E+00
    0.32787E+00        -0.78731E+00         0.00000E+00
    0.26754E+00        -0.63114E+00         0.00000E+00
    0.20546E+00        -0.47419E+00         0.00000E+00
    0.14070E+00        -0.31657E+00         0.00000E+00
    0.72436E-01        -0.15844E+00         0.00000E+00
    0.00000E+00         0.00000E+00         0.00000E+00
    0.10700E+01        -0.24089E+01         0.00000E+00
    0.96128E+00        -0.22554E+01         0.00000E+00
    0.86396E+00        -0.21013E+01         0.00000E+00
    0.77660E+00        -0.19464E+01         0.00000E+00
    0.69773E+00        -0.17903E+01         0.00000E+00
    0.62586E+00        -0.16331E+01         0.00000E+00
    0.55952E+00        -0.14746E+01         0.00000E+00
    0.49729E+00        -0.13149E+01         0.00000E+00
    0.43781E+00        -0.11540E+01         0.00000E+00
    0.37980E+00        -0.99202E+00         0.00000E+00
    0.32205E+00        -0.82890E+00         0.00000E+00
    0.26340E+00        -0.66476E+00         0.00000E+00
    0.20280E+00        -0.49968E+00         0.00000E+00
    0.13927E+00        -0.33374E+00         0.00000E+00
    0.71924E-01        -0.16712E+00         0.00000E+00
    0.00000E+00         0.00000E+00         0.00000E+00
    0.10395E+01        -0.25239E+01         0.00000E+00
    0.93119E+00        -0.23632E+01         0.00000E+00
    0.83521E+00        -0.22019E+01         0.00000E+00
    0.74984E+00        -0.20397E+01         0.00000E+00
    0.67339E+00        -0.18764E+01         0.00000E+00
    0.60418E+00        -0.17118E+01         0.00000E+00
    0.54059E+00        -0.15459E+01         0.00000E+00
    0.48111E+00        -0.13787E+01         0.00000E+00
    0.42433E+00        -0.12102E+01         0.00000E+00
    0.36892E+00        -0.10406E+01         0.00000E+00
    0.31362E+00        -0.86976E+00         0.00000E+00
    0.25726E+00        -0.69779E+00         0.00000E+00
    0.19872E+00        -0.52473E+00         0.00000E+00
    0.13696E+00        -0.35064E+00         0.00000E+00
    0.71004E-01        -0.17567E+00         0.00000E+00
    0.00000E+00         0.00000E+00         0.00000E+00
    0.99840E+00        -0.26387E+01         0.00000E+00
    0.89129E+00        -0.24705E+01         0.00000E+00
    0.79753E+00        -0.23018E+01         0.00000E+00
    0.71507E+00        -0.21321E+01         0.00000E+00
    0.64191E+00        -0.19612E+01         0.00000E+00
    0.57617E+00        -0.17890E+01         0.00000E+00
    0.51611E+00        -0.16156E+01         0.00000E+00
    0.46012E+00        -0.14409E+01         0.00000E+00
    0.40672E+00        -0.12650E+01         0.00000E+00
    0.35456E+00        -0.10879E+01         0.00000E+00
    0.30236E+00        -0.90950E+00         0.00000E+00
    0.24891E+00        -0.72992E+00         0.00000E+00
    0.19304E+00        -0.54912E+00         0.00000E+00
    0.13362E+00        -0.36712E+00         0.00000E+00
    0.69603E-01        -0.18403E+00         0.00000E+00
    0.00000E+00         0.00000E+00         0.00000E+00
    0.94579E+00        -0.27524E+01         0.00000E+00
    0.84092E+00        -0.25765E+01         0.00000E+00
    0.75044E+00        -0.24000E+01         0.00000E+00
    0.67190E+00        -0.22225E+01         0.00000E+00
    0.60298E+00        -0.20438E+01         0.00000E+00
    0.54159E+00        -0.18640E+01         0.00000E+00
    0.48584E+00        -0.16830E+01         0.00000E+00
    0.43404E+00        -0.15009E+01         0.00000E+00
    0.38471E+00        -0.13177E+01         0.00000E+00
    0.33645E+00        -0.11333E+01         0.00000E+00
    0.28798E+00        -0.94766E+00         0.00000E+00
    0.23807E+00        -0.76080E+00         0.00000E+00
    0.18551E+00        -0.57260E+00         0.00000E+00
    0.12909E+00        -0.38302E+00         0.00000E+00
    0.67630E-01        -0.19211E+00         0.00000E+00
    0.00000E+00         0.00000E+00         0.00000E+00
    0.88076E+00        -0.28641E+01         0.00000E+00
    0.77940E+00        -0.26800E+01         0.00000E+00
    0.69345E+00        -0.24954E+01         0.00000E+00
    0.61998E+00        -0.23099E+01         0.00000E+00
    0.55633E+00        -0.21233E+01         0.00000E+00
    0.50018E+00        -0.19358E+01         0.00000E+00
    0.44952E+00        -0.17473E+01         0.00000E+00
    0.40262E+00        -0.15579E+01         0.00000E+00
    0.35798E+00        -0.13675E+01         0.00000E+00
    0.31424E+00        -0.11762E+01         0.00000E+00
    0.27013E+00        -0.98373E+00         0.00000E+00
    0.22442E+00        -0.79001E+00         0.00000E+00
    0.17585E+00        -0.59486E+00         0.00000E+00
    0.12314E+00        -0.39816E+00         0.00000E+00
    0.64967E-01        -0.19985E+00         0.00000E+00
    0.00000E+00         0.00000E+00         0.00000E+00
    0.80237E+00        -0.29721E+01         0.00000E+00
    0.70608E+00        -0.27797E+01         0.00000E+00
    0.62612E+00        -0.25867E+01         0.00000E+00
    0.55903E+00        -0.23929E+01         0.00000E+00
    0.50174E+00        -0.21984E+01         0.00000E+00
    0.45173E+00        -0.20031E+01         0.00000E+00
    0.40690E+00        -0.18073E+01         0.00000E+00
    0.36553E+00        -0.16108E+01         0.00000E+00
    0.32617E+00        -0.14137E+01         0.00000E+00
    0.28753E+00        -0.12159E+01         0.00000E+00
    0.24839E+00        -0.10171E+01         0.00000E+00
    0.20753E+00        -0.81709E+00         0.00000E+00
    0.16369E+00        -0.61558E+00         0.00000E+00
    0.11550E+00        -0.41232E+00         0.00000E+00
    0.61459E-01        -0.20713E+00         0.00000E+00
    0.00000E+00         0.00000E+00         0.00000E+00
    0.70967E+00        -0.30748E+01         0.00000E+00
    0.62034E+00        -0.28737E+01         0.00000E+00
    0.54813E+00        -0.26721E+01         0.00000E+00
    0.48884E+00        -0.24700E+01         0.00000E+00
    0.43905E+00        -0.22674E+01         0.00000E+00
    0.39603E+00        -0.20646E+01         0.00000E+00
    0.35771E+00        -0.18617E+01         0.00000E+00
    0.32244E+00        -0.16586E+01         0.00000E+00
    0.28888E+00        -0.14553E+01         0.00000E+00
    0.25586E+00        -0.12516E+01         0.00000E+00
    0.22224E+00        -0.10471E+01         0.00000E+00
    0.18690E+00        -0.84153E+00         0.00000E+00
    0.14856E+00        -0.63438E+00         0.00000E+00
    0.10579E+00        -0.42527E+00         0.00000E+00
    0.56899E-01        -0.21386E+00         0.00000E+00
    0.00000E+00         0.00000E+00         0.00000E+00
    0.60168E+00        -0.31701E+01         0.00000E+00
    0.52170E+00        -0.29600E+01         0.00000E+00
    0.45927E+00        -0.27496E+01         0.00000E+00
    0.40936E+00        -0.25390E+01         0.00000E+00
    0.36815E+00        -0.23286E+01         0.00000E+00
    0.33290E+00        -0.21186E+01         0.00000E+00
    0.30165E+00        -0.19091E+01         0.00000E+00
    0.27295E+00        -0.17001E+01         0.00000E+00
    0.24562E+00        -0.14913E+01         0.00000E+00
    0.21865E+00        -0.12824E+01         0.00000E+00
    0.19107E+00        -0.10731E+01         0.00000E+00
    0.16187E+00        -0.86277E+00         0.00000E+00
    0.12984E+00        -0.65087E+00         0.00000E+00
    0.93518E-01        -0.43678E+00         0.00000E+00
    0.51004E-01        -0.21994E+00         0.00000E+00
    0.00000E+00         0.00000E+00         0.00000E+00
    0.47744E+00        -0.32551E+01         0.00000E+00
    0.40984E+00        -0.30359E+01         0.00000E+00
    0.35959E+00        -0.28165E+01         0.00000E+00
    0.32064E+00        -0.25977E+01         0.00000E+00
    0.28898E+00        -0.23798E+01         0.00000E+00
    0.26211E+00        -0.21633E+01         0.00000E+00
    0.23837E+00        -0.19481E+01         0.00000E+00
    0.21657E+00        -0.17340E+01         0.00000E+00
    0.19580E+00        -0.15206E+01         0.00000E+00
    0.17525E+00        -0.13075E+01         0.00000E+00
    0.15414E+00        -0.10943E+01         0.00000E+00
    0.13165E+00        -0.88021E+00         0.00000E+00
    0.10674E+00        -0.66458E+00         0.00000E+00
    0.77994E-01        -0.44654E+00         0.00000E+00
    0.43360E-01        -0.22523E+00         0.00000E+00
    0.00000E+00         0.00000E+00         0.00000E+00
    0.33601E+00        -0.33262E+01         0.00000E+00
    0.28483E+00        -0.30976E+01         0.00000E+00
    0.24946E+00        -0.28694E+01         0.00000E+00
    0.22286E+00        -0.26430E+01         0.00000E+00
    0.20146E+00        -0.24188E+01         0.00000E+00
    0.18337E+00        -0.21970E+01         0.00000E+00
    0.16741E+00        -0.19772E+01         0.00000E+00
    0.15275E+00        -0.17591E+01         0.00000E+00
    0.13876E+00        -0.15423E+01         0.00000E+00
    0.12489E+00        -0.13261E+01         0.00000E+00
    0.11061E+00        -0.11100E+01         0.00000E+00
    0.95314E-01        -0.89325E+00         0.00000E+00
    0.78235E-01        -0.67499E+00         0.00000E+00
    0.58242E-01        -0.45421E+00         0.00000E+00
    0.33329E-01        -0.22961E+00         0.00000E+00
    0.00000E+00         0.00000E+00         0.00000E+00
    0.17653E+00        -0.33779E+01         0.00000E+00
    0.14761E+00        -0.31399E+01         0.00000E+00
    0.12953E+00        -0.29040E+01         0.00000E+00
    0.11607E+00        -0.26719E+01         0.00000E+00
    0.10530E+00        -0.24433E+01         0.00000E+00
    0.96211E-01        -0.22179E+01         0.00000E+00
    0.88186E-01        -0.19952E+01         0.00000E+00
    0.80811E-01        -0.17747E+01         0.00000E+00
    0.73764E-01        -0.15557E+01         0.00000E+00
    0.66769E-01        -0.13376E+01         0.00000E+00
    0.59551E-01        -0.11197E+01         0.00000E+00
    0.51800E-01        -0.90134E+00         0.00000E+00
    0.43105E-01        -0.68155E+00         0.00000E+00
    0.32825E-01        -0.45925E+00         0.00000E+00
    0.19761E-01        -0.23286E+00         0.00000E+00
    0.00000E+00         0.00000E+00         0.00000E+00
    0.00000E+00        -0.33998E+01         0.00000E+00
    0.00000E+00        -0.31554E+01         0.00000E+00
    0.00000E+00        -0.29162E+01         0.00000E+00
    0.00000E+00        -0.26818E+01         0.00000E+00
    0.00000E+00        -0.24516E+01         0.00000E+00
    0.00000E+00        -0.22250E+01         0.00000E+00
    0.00000E+00        -0.20013E+01         0.00000E+00
    0.00000E+00        -0.17799E+01         0.00000E+00
    0.00000E+00        -0.15601E+01         0.00000E+00
    0.00000E+00        -0.13414E+01         0.00000E+00
    0.00000E+00        -0.11230E+01         0.00000E+00
    0.00000E+00        -0.90408E+00         0.00000E+00
    0.00000E+00        -0.68380E+00         0.00000E+00
    0.00000E+00        -0.46102E+00         0.00000E+00
    0.00000E+00        -0.23417E+00         0.00000E+00
    0.00000E+00         0.00000E+00         0.00000E+00
CELL_DATA        450
VECTORS vDarcy double 
    0.11235E-05         0.22010E-07         0.00000E+00
    0.11187E-05         0.56319E-07         0.00000E+00
    0.11188E-05         0.78163E-07         0.00000E+00
    0.11195E-05         0.91901E-07         0.00000E+00
    0.11205E-05         0.99628E-07         0.00000E+00
    0.11216E-05         0.10273E-06         0.00000E+00
    0.11228E-05         0.10219E-06         0.00000E+00
    0.11239E-05         0.98698E-07         0.00000E+00
    0.11250E-05         0.92749E-07         0.00000E+00
    0.11260E-05         0.84656E-07         0.00000E+00
    0.11269E-05         0.74583E-07         0.00000E+00
    0.11276E-05         0.62551E-07         0.00000E+00
    0.11280E-05         0.48430E-07         0.00000E+00
    0.11283E-05         0.31848E-07         0.00000E+00
    0.11265E-05         0.11648E-07         0.00000E+00
    0.10432E-05         0.18103E-07         0.00000E+00
    0.10386E-05         0.48248E-07         0.00000E+00
    0.10382E-05         0.69911E-07         0.00000E+00
    0.10400E-05         0.83969E-07         0.00000E+00
    0.10428E-05         0.92150E-07         0.00000E+00
    0.10460E-05         0.95740E-07         0.00000E+00
    0.10494E-05         0.95682E-07         0.00000E+00
    0.10527E-05         0.92664E-07         0.00000E+00
    0.10559E-05         0.87167E-07         0.00000E+00
    0.10588E-05         0.79501E-07         0.00000E+00
    0.10612E-05         0.69829E-07         0.00000E+00
    0.10632E-05         0.58178E-07         0.00000E+00
    0.10645E-05         0.44437E-07         0.00000E+00
    0.10647E-05         0.28342E-07         0.00000E+00
    0.10633E-05         0.10045E-07         0.00000E+00
    0.96224E-06         0.15950E-07         0.00000E+00
    0.95980E-06         0.42458E-07         0.00000E+00
    0.96051E-06         0.62008E-07         0.00000E+00
    0.96360E-06         0.75313E-07         0.00000E+00
    0.96808E-06         0.83355E-07         0.00000E+00
    0.97323E-06         0.87132E-07         0.00000E+00
    0.97863E-06         0.87453E-07         0.00000E+00
    0.98395E-06         0.84929E-07         0.00000E+00
    0.98898E-06         0.80003E-07         0.00000E+00
    0.99355E-06         0.72968E-07         0.00000E+00
    0.99751E-06         0.63988E-07         0.00000E+00
    0.10007E-05         0.53119E-07         0.00000E+00
    0.10028E-05         0.40329E-07         0.00000E+00
    0.10037E-05         0.25621E-07         0.00000E+00
    0.10031E-05         0.91017E-08         0.00000E+00
    0.88513E-06         0.13940E-07         0.00000E+00
    0.88469E-06         0.37036E-07         0.00000E+00
    0.88713E-06         0.54131E-07         0.00000E+00
    0.89179E-06         0.66039E-07         0.00000E+00
    0.89789E-06         0.73491E-07         0.00000E+00
    0.90478E-06         0.77197E-07         0.00000E+00
    0.91193E-06         0.77786E-07         0.00000E+00
    0.91899E-06         0.75760E-07         0.00000E+00
    0.92566E-06         0.71499E-07         0.00000E+00
    0.93174E-06         0.65267E-07         0.00000E+00
    0.93702E-06         0.57226E-07         0.00000E+00
    0.94131E-06         0.47459E-07         0.00000E+00
    0.94439E-06         0.36005E-07         0.00000E+00
    0.94608E-06         0.22896E-07         0.00000E+00
    0.94626E-06         0.81523E-08         0.00000E+00
    0.81467E-06         0.11765E-07         0.00000E+00
    0.81581E-06         0.31307E-07         0.00000E+00
    0.81986E-06         0.45845E-07         0.00000E+00
    0.82604E-06         0.56125E-07         0.00000E+00
    0.83363E-06         0.62737E-07         0.00000E+00
    0.84200E-06         0.66198E-07         0.00000E+00
    0.85064E-06         0.66971E-07         0.00000E+00
    0.85913E-06         0.65442E-07         0.00000E+00
    0.86718E-06         0.61914E-07         0.00000E+00
    0.87452E-06         0.56612E-07         0.00000E+00
    0.88093E-06         0.49687E-07         0.00000E+00
    0.88621E-06         0.41236E-07         0.00000E+00
    0.89015E-06         0.31313E-07         0.00000E+00
    0.89259E-06         0.19946E-07         0.00000E+00
    0.89339E-06         0.71146E-08         0.00000E+00
    0.75277E-06         0.94039E-08         0.00000E+00
    0.75502E-06         0.25171E-07         0.00000E+00
    0.76032E-06         0.37060E-07         0.00000E+00
    0.76774E-06         0.45621E-07         0.00000E+00
    0.77653E-06         0.51282E-07         0.00000E+00
    0.78607E-06         0.54405E-07         0.00000E+00
    0.79585E-06         0.55310E-07         0.00000E+00
    0.80545E-06         0.54273E-07         0.00000E+00
    0.81455E-06         0.51520E-07         0.00000E+00
    0.82287E-06         0.47230E-07         0.00000E+00
    0.83018E-06         0.41534E-07         0.00000E+00
    0.83626E-06         0.34522E-07         0.00000E+00
    0.84091E-06         0.26252E-07         0.00000E+00
    0.84397E-06         0.16746E-07         0.00000E+00
    0.84524E-06         0.59779E-08         0.00000E+00
    0.70063E-06         0.69215E-08         0.00000E+00
    0.70359E-06         0.18752E-07         0.00000E+00
    0.70970E-06         0.27921E-07         0.00000E+00
    0.71794E-06         0.34718E-07         0.00000E+00
    0.72754E-06         0.39380E-07         0.00000E+00
    0.73786E-06         0.42117E-07         0.00000E+00
    0.74840E-06         0.43121E-07         0.00000E+00
    0.75874E-06         0.42566E-07         0.00000E+00
    0.76855E-06         0.40605E-07         0.00000E+00
    0.77754E-06         0.37367E-07         0.00000E+00
    0.78548E-06         0.32956E-07         0.00000E+00
    0.79213E-06         0.27452E-07         0.00000E+00
    0.79731E-06         0.20907E-07         0.00000E+00
    0.80080E-06         0.13348E-07         0.00000E+00
    0.80241E-06         0.47638E-08         0.00000E+00
    0.65888E-06         0.44129E-08         0.00000E+00
    0.66220E-06         0.12260E-07         0.00000E+00
    0.66868E-06         0.18686E-07         0.00000E+00
    0.67730E-06         0.23702E-07         0.00000E+00
    0.68727E-06         0.27343E-07         0.00000E+00
    0.69796E-06         0.29666E-07         0.00000E+00
    0.70886E-06         0.30740E-07         0.00000E+00
    0.71955E-06         0.30647E-07         0.00000E+00
    0.72971E-06         0.29468E-07         0.00000E+00
    0.73905E-06         0.27286E-07         0.00000E+00
    0.74733E-06         0.24174E-07         0.00000E+00
    0.75431E-06         0.20197E-07         0.00000E+00
    0.75979E-06         0.15407E-07         0.00000E+00
    0.76355E-06         0.98385E-08         0.00000E+00
    0.76536E-06         0.35056E-08         0.00000E+00
    0.62761E-06         0.19743E-08         0.00000E+00
    0.63100E-06         0.59232E-08         0.00000E+00
    0.63748E-06         0.96480E-08         0.00000E+00
    0.64606E-06         0.12896E-07         0.00000E+00
    0.65598E-06         0.15509E-07         0.00000E+00
    0.66661E-06         0.17394E-07         0.00000E+00
    0.67747E-06         0.18507E-07         0.00000E+00
    0.68815E-06         0.18840E-07         0.00000E+00
    0.69832E-06         0.18411E-07         0.00000E+00
    0.70769E-06         0.17255E-07         0.00000E+00
    0.71601E-06         0.15417E-07         0.00000E+00
    0.72307E-06         0.12948E-07         0.00000E+00
    0.72864E-06         0.98979E-08         0.00000E+00
    0.73250E-06         0.63152E-08         0.00000E+00
    0.73441E-06         0.22406E-08         0.00000E+00
    0.60650E-06        -0.30943E-09         0.00000E+00
    0.60973E-06        -0.48995E-10         0.00000E+00
    0.61589E-06         0.10846E-08         0.00000E+00
    0.62408E-06         0.26137E-08         0.00000E+00
    0.63357E-06         0.42052E-08         0.00000E+00
    0.64378E-06         0.56318E-08         0.00000E+00
    0.65423E-06         0.67448E-08         0.00000E+00
    0.66455E-06         0.74558E-08         0.00000E+00
    0.67439E-06         0.77220E-08         0.00000E+00
    0.68350E-06         0.75354E-08         0.00000E+00
    0.69161E-06         0.69140E-08         0.00000E+00
    0.69851E-06         0.58950E-08         0.00000E+00
    0.70398E-06         0.45290E-08         0.00000E+00
    0.70778E-06         0.28765E-08         0.00000E+00
    0.70969E-06         0.10056E-08         0.00000E+00
    0.59488E-06        -0.23721E-08         0.00000E+00
    0.59780E-06        -0.54870E-08         0.00000E+00
    0.60340E-06        -0.67689E-08         0.00000E+00
    0.61090E-06        -0.68734E-08         0.00000E+00
    0.61966E-06        -0.62777E-08         0.00000E+00
    0.62912E-06        -0.53248E-08         0.00000E+00
    0.63887E-06        -0.42546E-08         0.00000E+00
    0.64852E-06        -0.32269E-08         0.00000E+00
    0.65776E-06        -0.23385E-08         0.00000E+00
    0.66634E-06        -0.16360E-08         0.00000E+00
    0.67401E-06        -0.11267E-08         0.00000E+00
    0.68055E-06        -0.78586E-09         0.00000E+00
    0.68574E-06        -0.56338E-09         0.00000E+00
    0.68937E-06        -0.38737E-09         0.00000E+00
    0.69120E-06        -0.16600E-09         0.00000E+00
    0.59186E-06        -0.41679E-08         0.00000E+00
    0.59435E-06        -0.10267E-07         0.00000E+00
    0.59923E-06        -0.13734E-07         0.00000E+00
    0.60584E-06        -0.15350E-07         0.00000E+00
    0.61363E-06        -0.15705E-07         0.00000E+00
    0.62212E-06        -0.15233E-07         0.00000E+00
    0.63090E-06        -0.14248E-07         0.00000E+00
    0.63965E-06        -0.12972E-07         0.00000E+00
    0.64807E-06        -0.11548E-07         0.00000E+00
    0.65591E-06        -0.10055E-07         0.00000E+00
    0.66293E-06        -0.85243E-08         0.00000E+00
    0.66894E-06        -0.69426E-08         0.00000E+00
    0.67372E-06        -0.52610E-08         0.00000E+00
    0.67707E-06        -0.33990E-08         0.00000E+00
    0.67877E-06        -0.12459E-08         0.00000E+00
    0.59637E-06        -0.56706E-08         0.00000E+00
    0.59838E-06        -0.14313E-07         0.00000E+00
    0.60244E-06        -0.19691E-07         0.00000E+00
    0.60804E-06        -0.22668E-07         0.00000E+00
    0.61471E-06        -0.23906E-07         0.00000E+00
    0.62205E-06        -0.23909E-07         0.00000E+00
    0.62970E-06        -0.23049E-07         0.00000E+00
    0.63737E-06        -0.21596E-07         0.00000E+00
    0.64479E-06        -0.19729E-07         0.00000E+00
    0.65173E-06        -0.17559E-07         0.00000E+00
    0.65798E-06        -0.15134E-07         0.00000E+00
    0.66333E-06        -0.12453E-07         0.00000E+00
    0.66759E-06        -0.94691E-08         0.00000E+00
    0.67058E-06        -0.60967E-08         0.00000E+00
    0.67210E-06        -0.22119E-08         0.00000E+00
    0.60729E-06        -0.68709E-08         0.00000E+00
    0.60879E-06        -0.17589E-07         0.00000E+00
    0.61200E-06        -0.24578E-07         0.00000E+00
    0.61653E-06        -0.28737E-07         0.00000E+00
    0.62200E-06        -0.30774E-07         0.00000E+00
    0.62810E-06        -0.31234E-07         0.00000E+00
    0.63452E-06        -0.30531E-07         0.00000E+00
    0.64101E-06        -0.28969E-07         0.00000E+00
    0.64732E-06        -0.26757E-07         0.00000E+00
    0.65326E-06        -0.24029E-07         0.00000E+00
    0.65862E-06        -0.20850E-07         0.00000E+00
    0.66322E-06        -0.17227E-07         0.00000E+00
    0.66690E-06        -0.13118E-07         0.00000E+00
    0.66949E-06        -0.84358E-08         0.00000E+00
    0.67079E-06        -0.30480E-08         0.00000E+00
    0.62346E-06        -0.77732E-08         0.00000E+00
    0.62447E-06        -0.20097E-07         0.00000E+00
    0.62684E-06        -0.28382E-07         0.00000E+00
    0.63030E-06        -0.33529E-07         0.00000E+00
    0.63457E-06        -0.36262E-07         0.00000E+00
    0.63940E-06        -0.37148E-07         0.00000E+00
    0.64455E-06        -0.36624E-07         0.00000E+00
    0.64980E-06        -0.35016E-07         0.00000E+00
    0.65496E-06        -0.32556E-07         0.00000E+00
    0.65983E-06        -0.29393E-07         0.00000E+00
    0.66426E-06        -0.25604E-07         0.00000E+00
    0.66807E-06        -0.21207E-07         0.00000E+00
    0.67113E-06        -0.16165E-07         0.00000E+00
    0.67328E-06        -0.10388E-07         0.00000E+00
    0.67436E-06        -0.37447E-08         0.00000E+00
    0.64374E-06        -0.83919E-08         0.00000E+00
    0.64431E-06        -0.21865E-07         0.00000E+00
    0.64590E-06        -0.31129E-07         0.00000E+00
    0.64833E-06        -0.37061E-07         0.00000E+00
    0.65144E-06        -0.40375E-07         0.00000E+00
    0.65503E-06        -0.41643E-07         0.00000E+00
    0.65893E-06        -0.41310E-07         0.00000E+00
    0.66296E-06        -0.39713E-07         0.00000E+00
    0.66695E-06        -0.37095E-07         0.00000E+00
    0.67077E-06        -0.33617E-07         0.00000E+00
    0.67425E-06        -0.29367E-07         0.00000E+00
    0.67726E-06        -0.24368E-07         0.00000E+00
    0.67969E-06        -0.18587E-07         0.00000E+00
    0.68139E-06        -0.11941E-07         0.00000E+00
    0.68226E-06        -0.42977E-08         0.00000E+00
    0.66707E-06        -0.87481E-08         0.00000E+00
    0.66727E-06        -0.22940E-07         0.00000E+00
    0.66815E-06        -0.32874E-07         0.00000E+00
    0.66965E-06        -0.39385E-07         0.00000E+00
    0.67168E-06        -0.43159E-07         0.00000E+00
    0.67412E-06        -0.44755E-07         0.00000E+00
    0.67683E-06        -0.44614E-07         0.00000E+00
    0.67969E-06        -0.43075E-07         0.00000E+00
    0.68257E-06        -0.40384E-07         0.00000E+00
    0.68535E-06        -0.36707E-07         0.00000E+00
    0.68791E-06        -0.32138E-07         0.00000E+00
    0.69015E-06        -0.26707E-07         0.00000E+00
    0.69196E-06        -0.20386E-07         0.00000E+00
    0.69324E-06        -0.13095E-07         0.00000E+00
    0.69389E-06        -0.47077E-08         0.00000E+00
    0.69245E-06        -0.88673E-08         0.00000E+00
    0.69235E-06        -0.23382E-07         0.00000E+00
    0.69264E-06        -0.33696E-07         0.00000E+00
    0.69334E-06        -0.40583E-07         0.00000E+00
    0.69441E-06        -0.44692E-07         0.00000E+00
    0.69580E-06        -0.46555E-07         0.00000E+00
    0.69742E-06        -0.46599E-07         0.00000E+00
    0.69920E-06        -0.45155E-07         0.00000E+00
    0.70105E-06        -0.42465E-07         0.00000E+00
    0.70286E-06        -0.38698E-07         0.00000E+00
    0.70457E-06        -0.33948E-07         0.00000E+00
    0.70607E-06        -0.28249E-07         0.00000E+00
    0.70731E-06        -0.21579E-07         0.00000E+00
    0.70819E-06        -0.13862E-07         0.00000E+00
    0.70865E-06        -0.49794E-08         0.00000E+00
    0.71897E-06        -0.87767E-08         0.00000E+00
    0.71868E-06        -0.23258E-07         0.00000E+00
    0.71851E-06        -0.33681E-07         0.00000E+00
    0.71855E-06        -0.40753E-07         0.00000E+00
    0.71881E-06        -0.45073E-07         0.00000E+00
    0.71928E-06        -0.47137E-07         0.00000E+00
    0.71995E-06        -0.47351E-07         0.00000E+00
    0.72077E-06        -0.46029E-07         0.00000E+00
    0.72168E-06        -0.43406E-07         0.00000E+00
    0.72262E-06        -0.39646E-07         0.00000E+00
    0.72355E-06        -0.34843E-07         0.00000E+00
    0.72439E-06        -0.29032E-07         0.00000E+00
    0.72510E-06        -0.22194E-07         0.00000E+00
    0.72563E-06        -0.14261E-07         0.00000E+00
    0.72593E-06        -0.51201E-08         0.00000E+00
    0.74582E-06        -0.85037E-08         0.00000E+00
    0.74546E-06        -0.22638E-07         0.00000E+00
    0.74498E-06        -0.32927E-07         0.00000E+00
    0.74450E-06        -0.40003E-07         0.00000E+00
    0.74411E-06        -0.44412E-07         0.00000E+00
    0.74384E-06        -0.46611E-07         0.00000E+00
    0.74370E-06        -0.46972E-07         0.00000E+00
    0.74369E-06        -0.45792E-07         0.00000E+00
    0.74379E-06        -0.43292E-07         0.00000E+00
    0.74397E-06        -0.39626E-07         0.00000E+00
    0.74421E-06        -0.34886E-07         0.00000E+00
    0.74448E-06        -0.29107E-07         0.00000E+00
    0.74473E-06        -0.22273E-07         0.00000E+00
    0.74496E-06        -0.14318E-07         0.00000E+00
    0.74514E-06        -0.51393E-08         0.00000E+00
    0.77231E-06        -0.80752E-08         0.00000E+00
    0.77200E-06        -0.21591E-07         0.00000E+00
    0.77136E-06        -0.31528E-07         0.00000E+00
    0.77055E-06        -0.38445E-07         0.00000E+00
    0.76968E-06        -0.42829E-07         0.00000E+00
    0.76882E-06        -0.45093E-07         0.00000E+00
    0.76804E-06        -0.45576E-07         0.00000E+00
    0.76735E-06        -0.44549E-07         0.00000E+00
    0.76677E-06        -0.42217E-07         0.00000E+00
    0.76631E-06        -0.38722E-07         0.00000E+00
    0.76597E-06        -0.34150E-07         0.00000E+00
    0.76574E-06        -0.28534E-07         0.00000E+00
    0.76562E-06        -0.21858E-07         0.00000E+00
    0.76560E-06        -0.14062E-07         0.00000E+00
    0.76569E-06        -0.50474E-08         0.00000E+00
    0.79782E-06        -0.75165E-08         0.00000E+00
    0.79771E-06        -0.20182E-07         0.00000E+00
    0.79707E-06        -0.29578E-07         0.00000E+00
    0.79610E-06        -0.36188E-07         0.00000E+00
    0.79493E-06        -0.40440E-07         0.00000E+00
    0.79367E-06        -0.42701E-07         0.00000E+00
    0.79239E-06        -0.43276E-07         0.00000E+00
    0.79117E-06        -0.42407E-07         0.00000E+00
    0.79005E-06        -0.40279E-07         0.00000E+00
    0.78907E-06        -0.37021E-07         0.00000E+00
    0.78825E-06        -0.32709E-07         0.00000E+00
    0.78763E-06        -0.27373E-07         0.00000E+00
    0.78721E-06        -0.20996E-07         0.00000E+00
    0.78701E-06        -0.13521E-07         0.00000E+00
    0.78706E-06        -0.48549E-08         0.00000E+00
    0.82184E-06        -0.68510E-08         0.00000E+00
    0.82209E-06        -0.18475E-07         0.00000E+00
    0.82164E-06        -0.27164E-07         0.00000E+00
    0.82070E-06        -0.33333E-07         0.00000E+00
    0.81940E-06        -0.37355E-07         0.00000E+00
    0.81789E-06        -0.39549E-07         0.00000E+00
    0.81628E-06        -0.40183E-07         0.00000E+00
    0.81467E-06        -0.39471E-07         0.00000E+00
    0.81314E-06        -0.37575E-07         0.00000E+00
    0.81175E-06        -0.34608E-07         0.00000E+00
    0.81057E-06        -0.30636E-07         0.00000E+00
    0.80964E-06        -0.25683E-07         0.00000E+00
    0.80900E-06        -0.19732E-07         0.00000E+00
    0.80870E-06        -0.12725E-07         0.00000E+00
    0.80875E-06        -0.45720E-08         0.00000E+00
    0.84397E-06        -0.61000E-08         0.00000E+00
    0.84476E-06        -0.16525E-07         0.00000E+00
    0.84470E-06        -0.24366E-07         0.00000E+00
    0.84396E-06        -0.29975E-07         0.00000E+00
    0.84271E-06        -0.33674E-07         0.00000E+00
    0.84111E-06        -0.35739E-07         0.00000E+00
    0.83931E-06        -0.36400E-07         0.00000E+00
    0.83743E-06        -0.35840E-07         0.00000E+00
    0.83561E-06        -0.34196E-07         0.00000E+00
    0.83392E-06        -0.31564E-07         0.00000E+00
    0.83247E-06        -0.28000E-07         0.00000E+00
    0.83133E-06        -0.23521E-07         0.00000E+00
    0.83055E-06        -0.18106E-07         0.00000E+00
    0.83020E-06        -0.11699E-07         0.00000E+00
    0.83031E-06        -0.42073E-08         0.00000E+00
    0.86390E-06        -0.52824E-08         0.00000E+00
    0.86545E-06        -0.14380E-07         0.00000E+00
    0.86597E-06        -0.21249E-07         0.00000E+00
    0.86561E-06        -0.26191E-07         0.00000E+00
    0.86457E-06        -0.29482E-07         0.00000E+00
    0.86302E-06        -0.31361E-07         0.00000E+00
    0.86114E-06        -0.32018E-07         0.00000E+00
    0.85912E-06        -0.31602E-07         0.00000E+00
    0.85710E-06        -0.30223E-07         0.00000E+00
    0.85521E-06        -0.27961E-07         0.00000E+00
    0.85356E-06        -0.24860E-07         0.00000E+00
    0.85227E-06        -0.20932E-07         0.00000E+00
    0.85143E-06        -0.16153E-07         0.00000E+00
    0.85110E-06        -0.10463E-07         0.00000E+00
    0.85134E-06        -0.37677E-08         0.00000E+00
    0.88143E-06        -0.44142E-08         0.00000E+00
    0.88399E-06        -0.12081E-07         0.00000E+00
    0.88531E-06        -0.17866E-07         0.00000E+00
    0.88552E-06        -0.22039E-07         0.00000E+00
    0.88480E-06        -0.24849E-07         0.00000E+00
    0.88340E-06        -0.26491E-07         0.00000E+00
    0.88155E-06        -0.27115E-07         0.00000E+00
    0.87946E-06        -0.26831E-07         0.00000E+00
    0.87731E-06        -0.25724E-07         0.00000E+00
    0.87527E-06        -0.23856E-07         0.00000E+00
    0.87349E-06        -0.21263E-07         0.00000E+00
    0.87212E-06        -0.17952E-07         0.00000E+00
    0.87126E-06        -0.13897E-07         0.00000E+00
    0.87103E-06        -0.90324E-08         0.00000E+00
    0.87147E-06        -0.32572E-08         0.00000E+00
    0.89645E-06        -0.35066E-08         0.00000E+00
    0.90035E-06        -0.96527E-08         0.00000E+00
    0.90271E-06        -0.14243E-07         0.00000E+00
    0.90361E-06        -0.17557E-07         0.00000E+00
    0.90332E-06        -0.19825E-07         0.00000E+00
    0.90214E-06        -0.21193E-07         0.00000E+00
    0.90035E-06        -0.21757E-07         0.00000E+00
    0.89823E-06        -0.21591E-07         0.00000E+00
    0.89599E-06        -0.20755E-07         0.00000E+00
    0.89384E-06        -0.19295E-07         0.00000E+00
    0.89196E-06        -0.17240E-07         0.00000E+00
    0.89053E-06        -0.14601E-07         0.00000E+00
    0.88971E-06        -0.11349E-07         0.00000E+00
    0.88963E-06        -0.74122E-08         0.00000E+00
    0.89036E-06        -0.26764E-08         0.00000E+00
    0.90897E-06        -0.25647E-08         0.00000E+00
    0.91465E-06        -0.70964E-08         0.00000E+00
    0.91829E-06        -0.10374E-07         0.00000E+00
    0.91997E-06        -0.12765E-07         0.00000E+00
    0.92012E-06        -0.14458E-07         0.00000E+00
    0.91917E-06        -0.15519E-07         0.00000E+00
    0.91746E-06        -0.15995E-07         0.00000E+00
    0.91531E-06        -0.15926E-07         0.00000E+00
    0.91297E-06        -0.15352E-07         0.00000E+00
    0.91069E-06        -0.14305E-07         0.00000E+00
    0.90869E-06        -0.12810E-07         0.00000E+00
    0.90720E-06        -0.10880E-07         0.00000E+00
    0.90642E-06        -0.85031E-08         0.00000E+00
    0.90657E-06        -0.55968E-08         0.00000E+00
    0.90771E-06        -0.20197E-08         0.00000E+00
    0.91918E-06        -0.15451E-08         0.00000E+00
    0.92729E-06        -0.43537E-08         0.00000E+00
    0.93230E-06        -0.62489E-08         0.00000E+00
    0.93472E-06        -0.77234E-08         0.00000E+00
    0.93529E-06        -0.88121E-08         0.00000E+00
    0.93453E-06        -0.95198E-08         0.00000E+00
    0.93285E-06        -0.98606E-08         0.00000E+00
    0.93060E-06        -0.98552E-08         0.00000E+00
    0.92810E-06        -0.95260E-08         0.00000E+00
    0.92563E-06        -0.88940E-08         0.00000E+00
    0.92346E-06        -0.79762E-08         0.00000E+00
    0.92184E-06        -0.67847E-08         0.00000E+00
    0.92105E-06        -0.53248E-08         0.00000E+00
    0.92147E-06        -0.35704E-08         0.00000E+00
    0.92321E-06        -0.12755E-08         0.00000E+00
    0.92768E-06        -0.50185E-09         0.00000E+00
    0.93887E-06        -0.14602E-08         0.00000E+00
    0.94505E-06        -0.20592E-08         0.00000E+00
    0.94817E-06        -0.25727E-08         0.00000E+00
    0.94907E-06        -0.29604E-08         0.00000E+00
    0.94838E-06        -0.32178E-08         0.00000E+00
    0.94657E-06        -0.33471E-08         0.00000E+00
    0.94409E-06        -0.33551E-08         0.00000E+00
    0.94128E-06        -0.32495E-08         0.00000E+00
    0.93848E-06        -0.30376E-08         0.00000E+00
    0.93601E-06        -0.27257E-08         0.00000E+00
    0.93417E-06        -0.23190E-08         0.00000E+00
    0.93330E-06        -0.18205E-08         0.00000E+00
    0.93377E-06        -0.12493E-08         0.00000E+00
    0.93652E-06        -0.43949E-09         0.00000E+00
POINT_DATA        496
VECTORS vDarcyNodal double 
    0.11208E-05         0.24654E-07         0.00000E+00
    0.11200E-05         0.42883E-07         0.00000E+00
    0.11191E-05         0.71643E-07         0.00000E+00
    0.11194E-05         0.88801E-07         0.00000E+00
    0.11202E-05         0.99092E-07         0.00000E+00
    0.11212E-05         0.10415E-06         0.00000E+00
    0.11223E-05         0.10513E-06         0.00000E+00
    0.11235E-05         0.10288E-06         0.00000E+00
    0.11246E-05         0.97960E-07         0.00000E+00
    0.11256E-05         0.90780E-07         0.00000E+00
    0.11265E-05         0.81577E-07         0.00000E+00
    0.11273E-05         0.70448E-07         0.00000E+00
    0.11278E-05         0.57344E-07         0.00000E+00
    0.11281E-05         0.42081E-07         0.00000E+00
    0.11278E-05         0.23316E-07         0.00000E+00
    0.11276E-05         0.12751E-07         0.00000E+00
    0.10815E-05         0.19278E-07         0.00000E+00
    0.10800E-05         0.35318E-07         0.00000E+00
    0.10785E-05         0.62650E-07         0.00000E+00
    0.10792E-05         0.81040E-07         0.00000E+00
    0.10808E-05         0.92199E-07         0.00000E+00
    0.10828E-05         0.97969E-07         0.00000E+00
    0.10851E-05         0.99543E-07         0.00000E+00
    0.10873E-05         0.97776E-07         0.00000E+00
    0.10895E-05         0.93268E-07         0.00000E+00
    0.10915E-05         0.86424E-07         0.00000E+00
    0.10933E-05         0.77484E-07         0.00000E+00
    0.10948E-05         0.66536E-07         0.00000E+00
    0.10959E-05         0.53519E-07         0.00000E+00
    0.10965E-05         0.38117E-07         0.00000E+00
    0.10962E-05         0.20144E-07         0.00000E+00
    0.10957E-05         0.10532E-07         0.00000E+00
    0.10017E-05         0.16930E-07         0.00000E+00
    0.10001E-05         0.31029E-07         0.00000E+00
    0.99877E-06         0.55502E-07         0.00000E+00
    0.10004E-05         0.72836E-07         0.00000E+00
    0.10036E-05         0.83922E-07         0.00000E+00
    0.10076E-05         0.89928E-07         0.00000E+00
    0.10119E-05         0.91889E-07         0.00000E+00
    0.10163E-05         0.90584E-07         0.00000E+00
    0.10205E-05         0.86579E-07         0.00000E+00
    0.10244E-05         0.80261E-07         0.00000E+00
    0.10279E-05         0.71864E-07         0.00000E+00
    0.10308E-05         0.61489E-07         0.00000E+00
    0.10330E-05         0.49112E-07         0.00000E+00
    0.10343E-05         0.34676E-07         0.00000E+00
    0.10341E-05         0.18250E-07         0.00000E+00
    0.10337E-05         0.95589E-08         0.00000E+00
    0.92275E-06         0.14983E-07         0.00000E+00
    0.92216E-06         0.27392E-07         0.00000E+00
    0.92244E-06         0.48977E-07         0.00000E+00
    0.92542E-06         0.64498E-07         0.00000E+00
    0.93019E-06         0.74760E-07         0.00000E+00
    0.93597E-06         0.80575E-07         0.00000E+00
    0.94220E-06         0.82714E-07         0.00000E+00
    0.94849E-06         0.81816E-07         0.00000E+00
    0.95455E-06         0.78372E-07         0.00000E+00
    0.96018E-06         0.72729E-07         0.00000E+00
    0.96518E-06         0.65110E-07         0.00000E+00
    0.96940E-06         0.55635E-07         0.00000E+00
    0.97263E-06         0.44349E-07         0.00000E+00
    0.97464E-06         0.31282E-07         0.00000E+00
    0.97522E-06         0.16476E-07         0.00000E+00
    0.97515E-06         0.86452E-08         0.00000E+00
    0.84887E-06         0.12912E-07         0.00000E+00
    0.84923E-06         0.23603E-07         0.00000E+00
    0.85125E-06         0.42216E-07         0.00000E+00
    0.85580E-06         0.55699E-07         0.00000E+00
    0.86213E-06         0.64796E-07         0.00000E+00
    0.86951E-06         0.70138E-07         0.00000E+00
    0.87738E-06         0.72294E-07         0.00000E+00
    0.88529E-06         0.71753E-07         0.00000E+00
    0.89292E-06         0.68910E-07         0.00000E+00
    0.90000E-06         0.64058E-07         0.00000E+00
    0.90632E-06         0.57401E-07         0.00000E+00
    0.91168E-06         0.49065E-07         0.00000E+00
    0.91588E-06         0.39126E-07         0.00000E+00
    0.91872E-06         0.27626E-07         0.00000E+00
    0.92005E-06         0.14575E-07         0.00000E+00
    0.92033E-06         0.76602E-08         0.00000E+00
    0.78258E-06         0.10633E-07         0.00000E+00
    0.78366E-06         0.19490E-07         0.00000E+00
    0.78711E-06         0.34967E-07         0.00000E+00
    0.79307E-06         0.46305E-07         0.00000E+00
    0.80075E-06         0.54099E-07         0.00000E+00
    0.80947E-06         0.58828E-07         0.00000E+00
    0.81867E-06         0.60905E-07         0.00000E+00
    0.82788E-06         0.60687E-07         0.00000E+00
    0.83676E-06         0.58471E-07         0.00000E+00
    0.84502E-06         0.54490E-07         0.00000E+00
    0.85242E-06         0.48918E-07         0.00000E+00
    0.85874E-06         0.41873E-07         0.00000E+00
    0.86378E-06         0.33434E-07         0.00000E+00
    0.86736E-06         0.23640E-07         0.00000E+00
    0.86930E-06         0.12488E-07         0.00000E+00
    0.86988E-06         0.65699E-08         0.00000E+00
    0.72549E-06         0.81879E-08         0.00000E+00
    0.72704E-06         0.15105E-07         0.00000E+00
    0.73149E-06         0.27295E-07         0.00000E+00
    0.73849E-06         0.36412E-07         0.00000E+00
    0.74719E-06         0.42840E-07         0.00000E+00
    0.75690E-06         0.46893E-07         0.00000E+00
    0.76707E-06         0.48842E-07         0.00000E+00
    0.77723E-06         0.48925E-07         0.00000E+00
    0.78702E-06         0.47348E-07         0.00000E+00
    0.79613E-06         0.44283E-07         0.00000E+00
    0.80433E-06         0.39866E-07         0.00000E+00
    0.81138E-06         0.34199E-07         0.00000E+00
    0.81707E-06         0.27352E-07         0.00000E+00
    0.82122E-06         0.19365E-07         0.00000E+00
    0.82364E-06         0.10238E-07         0.00000E+00
    0.82442E-06         0.53872E-08         0.00000E+00
    0.67852E-06         0.56666E-08         0.00000E+00
    0.68034E-06         0.10587E-07         0.00000E+00
    0.68537E-06         0.19407E-07         0.00000E+00
    0.69297E-06         0.26262E-07         0.00000E+00
    0.70226E-06         0.31294E-07         0.00000E+00
    0.71255E-06         0.34639E-07         0.00000E+00
    0.72329E-06         0.36429E-07         0.00000E+00
    0.73400E-06         0.36793E-07         0.00000E+00
    0.74433E-06         0.35850E-07         0.00000E+00
    0.75397E-06         0.33713E-07         0.00000E+00
    0.76267E-06         0.30478E-07         0.00000E+00
    0.77019E-06         0.26225E-07         0.00000E+00
    0.77632E-06         0.21018E-07         0.00000E+00
    0.78085E-06         0.14897E-07         0.00000E+00
    0.78358E-06         0.78771E-08         0.00000E+00
    0.78450E-06         0.41420E-08         0.00000E+00
    0.64203E-06         0.31689E-08         0.00000E+00
    0.64395E-06         0.61022E-08         0.00000E+00
    0.64917E-06         0.11566E-07         0.00000E+00
    0.65694E-06         0.16159E-07         0.00000E+00
    0.66640E-06         0.19786E-07         0.00000E+00
    0.67685E-06         0.22404E-07         0.00000E+00
    0.68773E-06         0.24009E-07         0.00000E+00
    0.69861E-06         0.24625E-07         0.00000E+00
    0.70912E-06         0.24292E-07         0.00000E+00
    0.71895E-06         0.23065E-07         0.00000E+00
    0.72784E-06         0.21002E-07         0.00000E+00
    0.73555E-06         0.18161E-07         0.00000E+00
    0.74188E-06         0.14597E-07         0.00000E+00
    0.74661E-06         0.10356E-07         0.00000E+00
    0.74951E-06         0.54709E-08         0.00000E+00
    0.75051E-06         0.28711E-08         0.00000E+00
    0.61591E-06         0.78791E-09         0.00000E+00
    0.61779E-06         0.18097E-08         0.00000E+00
    0.62288E-06         0.40297E-08         0.00000E+00
    0.63045E-06         0.64149E-08         0.00000E+00
    0.63967E-06         0.86513E-08         0.00000E+00
    0.64987E-06         0.10531E-07         0.00000E+00
    0.66052E-06         0.11922E-07         0.00000E+00
    0.67119E-06         0.12751E-07         0.00000E+00
    0.68152E-06         0.12986E-07         0.00000E+00
    0.69121E-06         0.12625E-07         0.00000E+00
    0.70000E-06         0.11690E-07         0.00000E+00
    0.70766E-06         0.10220E-07         0.00000E+00
    0.71397E-06         0.82609E-08         0.00000E+00
    0.71870E-06         0.58658E-08         0.00000E+00
    0.72164E-06         0.30891E-08         0.00000E+00
    0.72266E-06         0.16122E-08         0.00000E+00
    0.59966E-06        -0.14000E-08         0.00000E+00
    0.60138E-06        -0.21559E-08         0.00000E+00
    0.60610E-06        -0.29731E-08         0.00000E+00
    0.61316E-06        -0.26902E-08         0.00000E+00
    0.62180E-06        -0.18032E-08         0.00000E+00
    0.63141E-06        -0.66388E-09         0.00000E+00
    0.64149E-06         0.48358E-09         0.00000E+00
    0.65162E-06         0.14770E-08         0.00000E+00
    0.66146E-06         0.22176E-08         0.00000E+00
    0.67072E-06         0.26553E-08         0.00000E+00
    0.67915E-06         0.27786E-08         0.00000E+00
    0.68651E-06         0.26050E-08         0.00000E+00
    0.69259E-06         0.21752E-08         0.00000E+00
    0.69717E-06         0.15481E-08         0.00000E+00
    0.70003E-06         0.79732E-09         0.00000E+00
    0.70103E-06         0.40118E-09         0.00000E+00
    0.59246E-06        -0.33386E-08         0.00000E+00
    0.59397E-06        -0.56928E-08         0.00000E+00
    0.59814E-06        -0.92645E-08         0.00000E+00
    0.60446E-06        -0.10929E-07         0.00000E+00
    0.61227E-06        -0.11322E-07         0.00000E+00
    0.62101E-06        -0.10911E-07         0.00000E+00
    0.63023E-06        -0.10036E-07         0.00000E+00
    0.63955E-06        -0.89327E-08         0.00000E+00
    0.64864E-06        -0.77591E-08         0.00000E+00
    0.65722E-06        -0.66085E-08         0.00000E+00
    0.66505E-06        -0.55228E-08         0.00000E+00
    0.67192E-06        -0.45022E-08         0.00000E+00
    0.67760E-06        -0.35126E-08         0.00000E+00
    0.68190E-06        -0.24906E-08         0.00000E+00
    0.68459E-06        -0.13464E-08         0.00000E+00
    0.68553E-06        -0.73095E-09         0.00000E+00
    0.59335E-06        -0.49924E-08         0.00000E+00
    0.59459E-06        -0.87333E-08         0.00000E+00
    0.59811E-06        -0.14720E-07         0.00000E+00
    0.60355E-06        -0.18135E-07         0.00000E+00
    0.61034E-06        -0.19711E-07         0.00000E+00
    0.61801E-06        -0.20002E-07         0.00000E+00
    0.62616E-06        -0.19420E-07         0.00000E+00
    0.63445E-06        -0.18264E-07         0.00000E+00
    0.64258E-06        -0.16738E-07         0.00000E+00
    0.65030E-06        -0.14974E-07         0.00000E+00
    0.65736E-06        -0.13039E-07         0.00000E+00
    0.66357E-06        -0.10950E-07         0.00000E+00
    0.66872E-06        -0.86797E-08         0.00000E+00
    0.67262E-06        -0.61615E-08         0.00000E+00
    0.67507E-06        -0.32944E-08         0.00000E+00
    0.67592E-06        -0.17587E-08         0.00000E+00
    0.60121E-06        -0.63446E-08         0.00000E+00
    0.60218E-06        -0.11242E-07         0.00000E+00
    0.60499E-06        -0.19269E-07         0.00000E+00
    0.60945E-06        -0.24205E-07         0.00000E+00
    0.61512E-06        -0.26842E-07         0.00000E+00
    0.62160E-06        -0.27791E-07         0.00000E+00
    0.62856E-06        -0.27516E-07         0.00000E+00
    0.63568E-06        -0.26360E-07         0.00000E+00
    0.64271E-06        -0.24566E-07         0.00000E+00
    0.64942E-06        -0.22296E-07         0.00000E+00
    0.65559E-06        -0.19638E-07         0.00000E+00
    0.66103E-06        -0.16623E-07         0.00000E+00
    0.66555E-06        -0.13232E-07         0.00000E+00
    0.66897E-06        -0.93970E-08         0.00000E+00
    0.67112E-06        -0.50104E-08         0.00000E+00
    0.67187E-06        -0.26631E-08         0.00000E+00
    0.61490E-06        -0.73935E-08         0.00000E+00
    0.61558E-06        -0.13211E-07         0.00000E+00
    0.61769E-06        -0.22886E-07         0.00000E+00
    0.62116E-06        -0.29094E-07         0.00000E+00
    0.62567E-06        -0.32651E-07         0.00000E+00
    0.63091E-06        -0.34197E-07         0.00000E+00
    0.63660E-06        -0.34230E-07         0.00000E+00
    0.64248E-06        -0.33121E-07         0.00000E+00
    0.64834E-06        -0.31142E-07         0.00000E+00
    0.65396E-06        -0.28475E-07         0.00000E+00
    0.65915E-06        -0.25227E-07         0.00000E+00
    0.66374E-06        -0.21441E-07         0.00000E+00
    0.66757E-06        -0.17104E-07         0.00000E+00
    0.67048E-06        -0.12151E-07         0.00000E+00
    0.67230E-06        -0.64701E-08         0.00000E+00
    0.67293E-06        -0.34313E-08         0.00000E+00
    0.63326E-06        -0.81495E-08         0.00000E+00
    0.63369E-06        -0.14653E-07         0.00000E+00
    0.63512E-06        -0.25582E-07         0.00000E+00
    0.63764E-06        -0.32803E-07         0.00000E+00
    0.64101E-06        -0.37125E-07         0.00000E+00
    0.64501E-06        -0.39196E-07         0.00000E+00
    0.64943E-06        -0.39525E-07         0.00000E+00
    0.65406E-06        -0.38503E-07         0.00000E+00
    0.65871E-06        -0.36415E-07         0.00000E+00
    0.66321E-06        -0.33460E-07         0.00000E+00
    0.66740E-06        -0.29758E-07         0.00000E+00
    0.67112E-06        -0.25360E-07         0.00000E+00
    0.67423E-06        -0.20260E-07         0.00000E+00
    0.67660E-06        -0.14397E-07         0.00000E+00
    0.67808E-06        -0.76601E-08         0.00000E+00
    0.67860E-06        -0.40566E-08         0.00000E+00
    0.65520E-06        -0.86312E-08         0.00000E+00
    0.65539E-06        -0.15598E-07         0.00000E+00
    0.65622E-06        -0.27402E-07         0.00000E+00
    0.65786E-06        -0.35374E-07         0.00000E+00
    0.66016E-06        -0.40298E-07         0.00000E+00
    0.66299E-06        -0.42808E-07         0.00000E+00
    0.66618E-06        -0.43413E-07         0.00000E+00
    0.66959E-06        -0.42506E-07         0.00000E+00
    0.67307E-06        -0.40380E-07         0.00000E+00
    0.67646E-06        -0.37241E-07         0.00000E+00
    0.67965E-06        -0.33216E-07         0.00000E+00
    0.68251E-06        -0.28366E-07         0.00000E+00
    0.68491E-06        -0.22689E-07         0.00000E+00
    0.68674E-06        -0.16128E-07         0.00000E+00
    0.68789E-06        -0.85767E-08         0.00000E+00
    0.68829E-06        -0.45376E-08         0.00000E+00
    0.67967E-06        -0.88625E-08         0.00000E+00
    0.67968E-06        -0.16085E-07         0.00000E+00
    0.67999E-06        -0.28405E-07         0.00000E+00
    0.68084E-06        -0.36875E-07         0.00000E+00
    0.68219E-06        -0.42236E-07         0.00000E+00
    0.68394E-06        -0.45095E-07         0.00000E+00
    0.68600E-06        -0.45945E-07         0.00000E+00
    0.68827E-06        -0.45173E-07         0.00000E+00
    0.69063E-06        -0.43069E-07         0.00000E+00
    0.69298E-06        -0.39842E-07         0.00000E+00
    0.69522E-06        -0.35622E-07         0.00000E+00
    0.69725E-06        -0.30474E-07         0.00000E+00
    0.69897E-06        -0.24401E-07         0.00000E+00
    0.70029E-06        -0.17351E-07         0.00000E+00
    0.70113E-06        -0.92249E-08         0.00000E+00
    0.70142E-06        -0.48771E-08         0.00000E+00
    0.70572E-06        -0.88701E-08         0.00000E+00
    0.70559E-06        -0.16160E-07         0.00000E+00
    0.70550E-06        -0.28666E-07         0.00000E+00
    0.70571E-06        -0.37396E-07         0.00000E+00
    0.70622E-06        -0.43031E-07         0.00000E+00
    0.70703E-06        -0.46144E-07         0.00000E+00
    0.70808E-06        -0.47201E-07         0.00000E+00
    0.70931E-06        -0.46574E-07         0.00000E+00
    0.71066E-06        -0.44544E-07         0.00000E+00
    0.71206E-06        -0.41315E-07         0.00000E+00
    0.71342E-06        -0.37018E-07         0.00000E+00
    0.71468E-06        -0.31719E-07         0.00000E+00
    0.71577E-06        -0.25424E-07         0.00000E+00
    0.71662E-06        -0.18088E-07         0.00000E+00
    0.71718E-06        -0.96158E-08         0.00000E+00
    0.71737E-06        -0.50813E-08         0.00000E+00
    0.73250E-06        -0.86818E-08         0.00000E+00
    0.73229E-06        -0.15872E-07         0.00000E+00
    0.73193E-06        -0.28268E-07         0.00000E+00
    0.73163E-06        -0.37034E-07         0.00000E+00
    0.73147E-06        -0.42790E-07         0.00000E+00
    0.73148E-06        -0.46061E-07         0.00000E+00
    0.73166E-06        -0.47282E-07         0.00000E+00
    0.73200E-06        -0.46802E-07         0.00000E+00
    0.73246E-06        -0.44887E-07         0.00000E+00
    0.73300E-06        -0.41734E-07         0.00000E+00
    0.73358E-06        -0.37468E-07         0.00000E+00
    0.73416E-06        -0.32154E-07         0.00000E+00
    0.73468E-06        -0.25801E-07         0.00000E+00
    0.73512E-06        -0.18367E-07         0.00000E+00
    0.73543E-06        -0.97654E-08         0.00000E+00
    0.73555E-06        -0.51589E-08         0.00000E+00
    0.75924E-06        -0.83248E-08         0.00000E+00
    0.75903E-06        -0.15268E-07         0.00000E+00
    0.75852E-06        -0.27294E-07         0.00000E+00
    0.75788E-06        -0.35894E-07         0.00000E+00
    0.75721E-06        -0.41625E-07         0.00000E+00
    0.75660E-06        -0.44961E-07         0.00000E+00
    0.75607E-06        -0.46300E-07         0.00000E+00
    0.75566E-06        -0.45962E-07         0.00000E+00
    0.75536E-06        -0.44196E-07         0.00000E+00
    0.75518E-06        -0.41184E-07         0.00000E+00
    0.75508E-06        -0.37045E-07         0.00000E+00
    0.75507E-06        -0.31840E-07         0.00000E+00
    0.75511E-06        -0.25580E-07         0.00000E+00
    0.75520E-06        -0.18224E-07         0.00000E+00
    0.75532E-06        -0.96925E-08         0.00000E+00
    0.75538E-06        -0.51200E-08         0.00000E+00
    0.78531E-06        -0.78255E-08         0.00000E+00
    0.78514E-06        -0.14397E-07         0.00000E+00
    0.78465E-06        -0.25825E-07         0.00000E+00
    0.78384E-06        -0.34080E-07         0.00000E+00
    0.78284E-06        -0.39652E-07         0.00000E+00
    0.78178E-06        -0.42963E-07         0.00000E+00
    0.78071E-06        -0.44371E-07         0.00000E+00
    0.77970E-06        -0.44166E-07         0.00000E+00
    0.77879E-06        -0.42572E-07         0.00000E+00
    0.77800E-06        -0.39757E-07         0.00000E+00
    0.77734E-06        -0.35830E-07         0.00000E+00
    0.77683E-06        -0.30846E-07         0.00000E+00
    0.77648E-06        -0.24814E-07         0.00000E+00
    0.77629E-06        -0.17697E-07         0.00000E+00
    0.77626E-06        -0.94174E-08         0.00000E+00
    0.77629E-06        -0.49753E-08         0.00000E+00
    0.81012E-06        -0.72082E-08         0.00000E+00
    0.81010E-06        -0.13303E-07         0.00000E+00
    0.80979E-06        -0.23938E-07         0.00000E+00
    0.80898E-06        -0.31690E-07         0.00000E+00
    0.80784E-06        -0.36981E-07         0.00000E+00
    0.80649E-06        -0.40184E-07         0.00000E+00
    0.80505E-06        -0.41612E-07         0.00000E+00
    0.80359E-06        -0.41524E-07         0.00000E+00
    0.80220E-06        -0.40120E-07         0.00000E+00
    0.80093E-06        -0.37548E-07         0.00000E+00
    0.79983E-06        -0.33905E-07         0.00000E+00
    0.79893E-06        -0.29240E-07         0.00000E+00
    0.79827E-06        -0.23558E-07         0.00000E+00
    0.79787E-06        -0.16823E-07         0.00000E+00
    0.79776E-06        -0.89599E-08         0.00000E+00
    0.79777E-06        -0.47353E-08         0.00000E+00
    0.83325E-06        -0.64954E-08         0.00000E+00
    0.83344E-06        -0.12026E-07         0.00000E+00
    0.83350E-06        -0.21707E-07         0.00000E+00
    0.83288E-06        -0.28816E-07         0.00000E+00
    0.83177E-06        -0.33716E-07         0.00000E+00
    0.83031E-06        -0.36730E-07         0.00000E+00
    0.82864E-06        -0.38130E-07         0.00000E+00
    0.82689E-06        -0.38141E-07         0.00000E+00
    0.82515E-06        -0.36936E-07         0.00000E+00
    0.82353E-06        -0.34644E-07         0.00000E+00
    0.82209E-06        -0.31347E-07         0.00000E+00
    0.82089E-06        -0.27086E-07         0.00000E+00
    0.82000E-06        -0.21862E-07         0.00000E+00
    0.81947E-06        -0.15637E-07         0.00000E+00
    0.81933E-06        -0.83386E-08         0.00000E+00
    0.81936E-06        -0.44096E-08         0.00000E+00
    0.85431E-06        -0.57071E-08         0.00000E+00
    0.85483E-06        -0.10603E-07         0.00000E+00
    0.85545E-06        -0.19192E-07         0.00000E+00
    0.85522E-06        -0.25537E-07         0.00000E+00
    0.85431E-06        -0.29946E-07         0.00000E+00
    0.85290E-06        -0.32696E-07         0.00000E+00
    0.85115E-06        -0.34023E-07         0.00000E+00
    0.84922E-06        -0.34113E-07         0.00000E+00
    0.84725E-06        -0.33112E-07         0.00000E+00
    0.84537E-06        -0.31127E-07         0.00000E+00
    0.84368E-06        -0.28227E-07         0.00000E+00
    0.84228E-06        -0.24443E-07         0.00000E+00
    0.84124E-06        -0.19771E-07         0.00000E+00
    0.84065E-06        -0.14172E-07         0.00000E+00
    0.84055E-06        -0.75693E-08         0.00000E+00
    0.84061E-06        -0.40061E-08         0.00000E+00
    0.87307E-06        -0.48610E-08         0.00000E+00
    0.87403E-06        -0.90653E-08         0.00000E+00
    0.87544E-06        -0.16448E-07         0.00000E+00
    0.87579E-06        -0.21918E-07         0.00000E+00
    0.87524E-06        -0.25744E-07         0.00000E+00
    0.87401E-06        -0.28164E-07         0.00000E+00
    0.87229E-06        -0.29373E-07         0.00000E+00
    0.87029E-06        -0.29523E-07         0.00000E+00
    0.86818E-06        -0.28726E-07         0.00000E+00
    0.86613E-06        -0.27069E-07         0.00000E+00
    0.86426E-06        -0.24604E-07         0.00000E+00
    0.86271E-06        -0.21358E-07         0.00000E+00
    0.86160E-06        -0.17321E-07         0.00000E+00
    0.86100E-06        -0.12449E-07         0.00000E+00
    0.86101E-06        -0.66638E-08         0.00000E+00
    0.86115E-06        -0.35305E-08         0.00000E+00
    0.88937E-06        -0.39714E-08         0.00000E+00
    0.89092E-06        -0.74371E-08         0.00000E+00
    0.89338E-06        -0.13512E-07         0.00000E+00
    0.89450E-06        -0.18005E-07         0.00000E+00
    0.89445E-06        -0.21164E-07         0.00000E+00
    0.89349E-06        -0.23196E-07         0.00000E+00
    0.89188E-06        -0.24252E-07         0.00000E+00
    0.88987E-06        -0.24441E-07         0.00000E+00
    0.88768E-06        -0.23845E-07         0.00000E+00
    0.88550E-06        -0.22525E-07         0.00000E+00
    0.88351E-06        -0.20526E-07         0.00000E+00
    0.88186E-06        -0.17866E-07         0.00000E+00
    0.88071E-06        -0.14535E-07         0.00000E+00
    0.88018E-06        -0.10485E-07         0.00000E+00
    0.88037E-06        -0.56284E-08         0.00000E+00
    0.88063E-06        -0.29852E-08         0.00000E+00
    0.90316E-06        -0.30468E-08         0.00000E+00
    0.90550E-06        -0.57315E-08         0.00000E+00
    0.90932E-06        -0.10400E-07         0.00000E+00
    0.91137E-06        -0.13815E-07         0.00000E+00
    0.91190E-06        -0.16240E-07         0.00000E+00
    0.91126E-06        -0.17843E-07         0.00000E+00
    0.90980E-06        -0.18718E-07         0.00000E+00
    0.90782E-06        -0.18925E-07         0.00000E+00
    0.90556E-06        -0.18518E-07         0.00000E+00
    0.90327E-06        -0.17539E-07         0.00000E+00
    0.90116E-06        -0.16021E-07         0.00000E+00
    0.89942E-06        -0.13985E-07         0.00000E+00
    0.89825E-06        -0.11421E-07         0.00000E+00
    0.89783E-06        -0.82807E-08         0.00000E+00
    0.89828E-06        -0.44627E-08         0.00000E+00
    0.89871E-06        -0.23688E-08         0.00000E+00
    0.91457E-06        -0.20885E-08         0.00000E+00
    0.91795E-06        -0.39404E-08         0.00000E+00
    0.92347E-06        -0.70888E-08         0.00000E+00
    0.92654E-06        -0.93458E-08         0.00000E+00
    0.92767E-06        -0.11007E-07         0.00000E+00
    0.92737E-06        -0.12157E-07         0.00000E+00
    0.92604E-06        -0.12817E-07         0.00000E+00
    0.92404E-06        -0.13015E-07         0.00000E+00
    0.92169E-06        -0.12777E-07         0.00000E+00
    0.91925E-06        -0.12133E-07         0.00000E+00
    0.91698E-06        -0.11106E-07         0.00000E+00
    0.91511E-06        -0.97151E-08         0.00000E+00
    0.91390E-06        -0.79687E-08         0.00000E+00
    0.91359E-06        -0.58239E-08         0.00000E+00
    0.91442E-06        -0.31562E-08         0.00000E+00
    0.91509E-06        -0.16719E-08         0.00000E+00
    0.92394E-06        -0.10094E-08         0.00000E+00
    0.92872E-06        -0.19707E-08         0.00000E+00
    0.93620E-06        -0.35323E-08         0.00000E+00
    0.94030E-06        -0.46471E-08         0.00000E+00
    0.94199E-06        -0.55499E-08         0.00000E+00
    0.94193E-06        -0.61958E-08         0.00000E+00
    0.94064E-06        -0.65829E-08         0.00000E+00
    0.93853E-06        -0.67200E-08         0.00000E+00
    0.93596E-06        -0.66215E-08         0.00000E+00
    0.93327E-06        -0.63027E-08         0.00000E+00
    0.93074E-06        -0.57772E-08         0.00000E+00
    0.92868E-06        -0.50565E-08         0.00000E+00
    0.92735E-06        -0.41488E-08         0.00000E+00
    0.92710E-06        -0.30763E-08         0.00000E+00
    0.92837E-06        -0.16919E-08         0.00000E+00
    0.92945E-06        -0.88016E-09         0.00000E+00
    0.92818E-06         0.00000E+00         0.00000E+00
    0.93376E-06         0.00000E+00         0.00000E+00
    0.94226E-06        -0.25135E-20         0.00000E+00
    0.94686E-06        -0.25862E-21         0.00000E+00
    0.94881E-06         0.28158E-20         0.00000E+00
    0.94885E-06         0.00000E+00         0.00000E+00
    0.94754E-06         0.00000E+00         0.00000E+00
    0.94533E-06        -0.25907E-20         0.00000E+00
    0.94263E-06        -0.28785E-20         0.00000E+00
    0.93978E-06         0.26108E-20         0.00000E+00
    0.93709E-06         0.29009E-20         0.00000E+00
    0.93489E-06        -0.29211E-20         0.00000E+00
    0.93349E-06        -0.28393E-21         0.00000E+00
    0.93325E-06         0.26393E-20         0.00000E+00
    0.93474E-06         0.29425E-21         0.00000E+00
    0.93608E-06         0.00000E+00         0.00000E+00
CELL_DATA        450
TENSORS stressef double 
    0.29154E+08        -0.40164E+06         0.00000E+00
   -0.40164E+06        -0.72977E+07         0.00000E+00
    0.00000E+00         0.00000E+00         0.00000E+00
 
    0.25059E+08        -0.44977E+06         0.00000E+00
   -0.44977E+06        -0.79380E+07         0.00000E+00
    0.00000E+00         0.00000E+00         0.00000E+00
 
    0.22360E+08        -0.40444E+06         0.00000E+00
   -0.40444E+06        -0.86202E+07         0.00000E+00
    0.00000E+00         0.00000E+00         0.00000E+00
 
    0.20294E+08        -0.35328E+06         0.00000E+00
   -0.35328E+06        -0.92043E+07         0.00000E+00
    0.00000E+00         0.00000E+00         0.00000E+00
 
    0.18595E+08        -0.30027E+06         0.00000E+00
   -0.30027E+06        -0.96764E+07         0.00000E+00
    0.00000E+00         0.00000E+00         0.00000E+00
 
    0.17120E+08        -0.24695E+06         0.00000E+00
   -0.24695E+06        -0.10038E+08         0.00000E+00
    0.00000E+00         0.00000E+00         0.00000E+00
 
    0.15782E+08        -0.19267E+06         0.00000E+00
   -0.19267E+06        -0.10293E+08         0.00000E+00
    0.00000E+00         0.00000E+00         0.00000E+00
 
    0.14518E+08        -0.13615E+06         0.00000E+00
   -0.13615E+06        -0.10441E+08         0.00000E+00
    0.00000E+00         0.00000E+00         0.00000E+00
 
    0.13274E+08        -0.75656E+05         0.00000E+00
   -0.75656E+05        -0.10482E+08         0.00000E+00
    0.00000E+00         0.00000E+00         0.00000E+00
 
    0.12001E+08        -0.87811E+04         0.00000E+00
   -0.87811E+04        -0.10408E+08         0.00000E+00
    0.00000E+00         0.00000E+00         0.00000E+00
 
    0.10645E+08         0.68160E+05         0.00000E+00
    0.68160E+05        -0.10207E+08         0.00000E+00
    0.00000E+00         0.00000E+00         0.00000E+00
 
    0.91361E+07         0.16160E+06         0.00000E+00
    0.16160E+06        -0.98546E+07         0.00000E+00
    0.00000E+00         0.00000E+00         0.00000E+00
 
    0.73705E+07         0.28515E+06         0.00000E+00
    0.28515E+06        -0.93087E+07         0.00000E+00
    0.00000E+00         0.00000E+00         0.00000E+00
 
    0.51584E+07         0.46988E+06         0.00000E+00
    0.46988E+06        -0.84814E+07         0.00000E+00
    0.00000E+00         0.00000E+00         0.00000E+00
 
    0.19548E+07         0.91054E+06         0.00000E+00
    0.91054E+06        -0.71078E+07         0.00000E+00
    0.00000E+00         0.00000E+00         0.00000E+00
 
    0.26608E+08        -0.65204E+06         0.00000E+00
   -0.65204E+06        -0.87348E+07         0.00000E+00
    0.00000E+00         0.00000E+00         0.00000E+00
 
    0.23208E+08        -0.10889E+07         0.00000E+00
   -0.10889E+07        -0.89248E+07         0.00000E+00
    0.00000E+00         0.00000E+00         0.00000E+00
 
    0.20587E+08        -0.10824E+07         0.00000E+00
   -0.10824E+07        -0.93093E+07         0.00000E+00
    0.00000E+00         0.00000E+00         0.00000E+00
 
    0.18535E+08        -0.97944E+06         0.00000E+00
   -0.97944E+06        -0.97200E+07         0.00000E+00
    0.00000E+00         0.00000E+00         0.00000E+00
 
    0.16833E+08        -0.84735E+06         0.00000E+00
   -0.84735E+06        -0.10083E+08         0.00000E+00
    0.00000E+00         0.00000E+00         0.00000E+00
 
    0.15351E+08        -0.70302E+06         0.00000E+00
   -0.70302E+06        -0.10372E+08         0.00000E+00
    0.00000E+00         0.00000E+00         0.00000E+00
 
    0.14008E+08        -0.55001E+06         0.00000E+00
   -0.55001E+06        -0.10576E+08         0.00000E+00
    0.00000E+00         0.00000E+00         0.00000E+00
 
    0.12741E+08        -0.38698E+06         0.00000E+00
   -0.38698E+06        -0.10689E+08         0.00000E+00
    0.00000E+00         0.00000E+00         0.00000E+00
 
    0.11498E+08        -0.21001E+06         0.00000E+00
   -0.21001E+06        -0.10704E+08         0.00000E+00
    0.00000E+00         0.00000E+00         0.00000E+00
 
    0.10233E+08        -0.12664E+05         0.00000E+00
   -0.12664E+05        -0.10611E+08         0.00000E+00
    0.00000E+00         0.00000E+00         0.00000E+00
 
    0.88948E+07         0.21556E+06         0.00000E+00
    0.21556E+06        -0.10396E+08         0.00000E+00
    0.00000E+00         0.00000E+00         0.00000E+00
 
    0.74218E+07         0.49332E+06         0.00000E+00
    0.49332E+06        -0.10035E+08         0.00000E+00
    0.00000E+00         0.00000E+00         0.00000E+00
 
    0.57315E+07         0.85823E+06         0.00000E+00
    0.85823E+06        -0.94899E+07         0.00000E+00
    0.00000E+00         0.00000E+00         0.00000E+00
 
    0.36943E+07         0.14038E+07         0.00000E+00
    0.14038E+07        -0.86900E+07         0.00000E+00
    0.00000E+00         0.00000E+00         0.00000E+00
 
    0.12843E+07         0.24348E+07         0.00000E+00
    0.24348E+07        -0.75658E+07         0.00000E+00
    0.00000E+00         0.00000E+00         0.00000E+00
 
    0.23897E+08        -0.63900E+06         0.00000E+00
   -0.63900E+06        -0.10389E+08         0.00000E+00
    0.00000E+00         0.00000E+00         0.00000E+00
 
    0.21252E+08        -0.13164E+07         0.00000E+00
   -0.13164E+07        -0.10363E+08         0.00000E+00
    0.00000E+00         0.00000E+00         0.00000E+00
 
    0.18904E+08        -0.14799E+07         0.00000E+00
   -0.14799E+07        -0.10452E+08         0.00000E+00
    0.00000E+00         0.00000E+00         0.00000E+00
 
    0.16933E+08        -0.14174E+07         0.00000E+00
   -0.14174E+07        -0.10631E+08         0.00000E+00
    0.00000E+00         0.00000E+00         0.00000E+00
 
    0.15256E+08        -0.12632E+07         0.00000E+00
   -0.12632E+07        -0.10828E+08         0.00000E+00
    0.00000E+00         0.00000E+00         0.00000E+00
 
    0.13782E+08        -0.10643E+07         0.00000E+00
   -0.10643E+07        -0.10999E+08         0.00000E+00
    0.00000E+00         0.00000E+00         0.00000E+00
 
    0.12443E+08        -0.83675E+06         0.00000E+00
   -0.83675E+06        -0.11118E+08         0.00000E+00
    0.00000E+00         0.00000E+00         0.00000E+00
 
    0.11181E+08        -0.58399E+06         0.00000E+00
   -0.58399E+06        -0.11169E+08         0.00000E+00
    0.00000E+00         0.00000E+00         0.00000E+00
 
    0.99506E+07        -0.30275E+06         0.00000E+00
   -0.30275E+06        -0.11139E+08         0.00000E+00
    0.00000E+00         0.00000E+00         0.00000E+00
 
    0.87084E+07         0.15546E+05         0.00000E+00
    0.15546E+05        -0.11014E+08         0.00000E+00
    0.00000E+00         0.00000E+00         0.00000E+00
 
    0.74111E+07         0.38630E+06         0.00000E+00
    0.38630E+06        -0.10777E+08         0.00000E+00
    0.00000E+00         0.00000E+00         0.00000E+00
 
    0.60122E+07         0.83709E+06         0.00000E+00
    0.83709E+06        -0.10409E+08         0.00000E+00
    0.00000E+00         0.00000E+00         0.00000E+00
 
    0.44619E+07         0.14205E+07         0.00000E+00
    0.14205E+07        -0.98817E+07         0.00000E+00
    0.00000E+00         0.00000E+00         0.00000E+00
 
    0.27356E+07         0.22464E+07         0.00000E+00
    0.22464E+07        -0.91691E+07         0.00000E+00
    0.00000E+00         0.00000E+00         0.00000E+00
 
    0.91434E+06         0.34835E+07         0.00000E+00
    0.34835E+07        -0.83156E+07         0.00000E+00
    0.00000E+00         0.00000E+00         0.00000E+00
 
    0.21281E+08        -0.58415E+06         0.00000E+00
   -0.58415E+06        -0.11952E+08         0.00000E+00
    0.00000E+00         0.00000E+00         0.00000E+00
 
    0.19232E+08        -0.13266E+07         0.00000E+00
   -0.13266E+07        -0.11854E+08         0.00000E+00
    0.00000E+00         0.00000E+00         0.00000E+00
 
    0.17231E+08        -0.16246E+07         0.00000E+00
   -0.16246E+07        -0.11780E+08         0.00000E+00
    0.00000E+00         0.00000E+00         0.00000E+00
 
    0.15420E+08        -0.16471E+07         0.00000E+00
   -0.16471E+07        -0.11773E+08         0.00000E+00
    0.00000E+00         0.00000E+00         0.00000E+00
 
    0.13814E+08        -0.15179E+07         0.00000E+00
   -0.15179E+07        -0.11810E+08         0.00000E+00
    0.00000E+00         0.00000E+00         0.00000E+00
 
    0.12376E+08        -0.13021E+07         0.00000E+00
   -0.13021E+07        -0.11854E+08         0.00000E+00
    0.00000E+00         0.00000E+00         0.00000E+00
 
    0.11058E+08        -0.10286E+07         0.00000E+00
   -0.10286E+07        -0.11876E+08         0.00000E+00
    0.00000E+00         0.00000E+00         0.00000E+00
 
    0.98171E+07        -0.70789E+06         0.00000E+00
   -0.70789E+06        -0.11854E+08         0.00000E+00
    0.00000E+00         0.00000E+00         0.00000E+00
 
    0.86133E+07        -0.33967E+06         0.00000E+00
   -0.33967E+06        -0.11770E+08         0.00000E+00
    0.00000E+00         0.00000E+00         0.00000E+00
 
    0.74108E+07         0.84398E+05         0.00000E+00
    0.84398E+05        -0.11609E+08         0.00000E+00
    0.00000E+00         0.00000E+00         0.00000E+00
 
    0.61764E+07         0.58151E+06         0.00000E+00
    0.58151E+06        -0.11353E+08         0.00000E+00
    0.00000E+00         0.00000E+00         0.00000E+00
 
    0.48806E+07         0.11820E+07         0.00000E+00
    0.11820E+07        -0.10988E+08         0.00000E+00
    0.00000E+00         0.00000E+00         0.00000E+00
 
    0.35073E+07         0.19378E+07         0.00000E+00
    0.19378E+07        -0.10501E+08         0.00000E+00
    0.00000E+00         0.00000E+00         0.00000E+00
 
    0.20765E+07         0.29272E+07         0.00000E+00
    0.29272E+07        -0.99025E+07         0.00000E+00
    0.00000E+00         0.00000E+00         0.00000E+00
 
    0.67624E+06         0.42389E+07         0.00000E+00
    0.42389E+07        -0.92465E+07         0.00000E+00
    0.00000E+00         0.00000E+00         0.00000E+00
 
    0.18843E+08        -0.51825E+06         0.00000E+00
   -0.51825E+06        -0.13411E+08         0.00000E+00
    0.00000E+00         0.00000E+00         0.00000E+00
 
    0.17245E+08        -0.12457E+07         0.00000E+00
   -0.12457E+07        -0.13288E+08         0.00000E+00
    0.00000E+00         0.00000E+00         0.00000E+00
 
    0.15571E+08        -0.16120E+07         0.00000E+00
   -0.16120E+07        -0.13137E+08         0.00000E+00
    0.00000E+00         0.00000E+00         0.00000E+00
 
    0.13960E+08        -0.17086E+07         0.00000E+00
   -0.17086E+07        -0.13016E+08         0.00000E+00
    0.00000E+00         0.00000E+00         0.00000E+00
 
    0.12468E+08        -0.16228E+07         0.00000E+00
   -0.16228E+07        -0.12932E+08         0.00000E+00
    0.00000E+00         0.00000E+00         0.00000E+00
 
    0.11096E+08        -0.14153E+07         0.00000E+00
   -0.14153E+07        -0.12869E+08         0.00000E+00
    0.00000E+00         0.00000E+00         0.00000E+00
 
    0.98243E+07        -0.11200E+07         0.00000E+00
   -0.11200E+07        -0.12802E+08         0.00000E+00
    0.00000E+00         0.00000E+00         0.00000E+00
 
    0.86228E+07        -0.75282E+06         0.00000E+00
   -0.75282E+06        -0.12711E+08         0.00000E+00
    0.00000E+00         0.00000E+00         0.00000E+00
 
    0.74626E+07        -0.31695E+06         0.00000E+00
   -0.31695E+06        -0.12577E+08         0.00000E+00
    0.00000E+00         0.00000E+00         0.00000E+00
 
    0.63168E+07         0.19379E+06         0.00000E+00
    0.19379E+06        -0.12382E+08         0.00000E+00
    0.00000E+00         0.00000E+00         0.00000E+00
 
    0.51626E+07         0.79494E+06         0.00000E+00
    0.79494E+06        -0.12115E+08         0.00000E+00
    0.00000E+00         0.00000E+00         0.00000E+00
 
    0.39858E+07         0.15133E+07         0.00000E+00
    0.15133E+07        -0.11764E+08         0.00000E+00
    0.00000E+00         0.00000E+00         0.00000E+00
 
    0.27893E+07         0.23884E+07         0.00000E+00
    0.23884E+07        -0.11330E+08         0.00000E+00
    0.00000E+00         0.00000E+00         0.00000E+00
 
    0.16064E+07         0.34692E+07         0.00000E+00
    0.34692E+07        -0.10834E+08         0.00000E+00
    0.00000E+00         0.00000E+00         0.00000E+00
 
    0.51241E+06         0.47999E+07         0.00000E+00
    0.47999E+07        -0.10324E+08         0.00000E+00
    0.00000E+00         0.00000E+00         0.00000E+00
 
    0.16605E+08        -0.45056E+06         0.00000E+00
   -0.45056E+06        -0.14772E+08         0.00000E+00
    0.00000E+00         0.00000E+00         0.00000E+00
 
    0.15346E+08        -0.11257E+07         0.00000E+00
   -0.11257E+07        -0.14643E+08         0.00000E+00
    0.00000E+00         0.00000E+00         0.00000E+00
 
    0.13952E+08        -0.15131E+07         0.00000E+00
   -0.15131E+07        -0.14462E+08         0.00000E+00
    0.00000E+00         0.00000E+00         0.00000E+00
 
    0.12544E+08        -0.16568E+07         0.00000E+00
   -0.16568E+07        -0.14282E+08         0.00000E+00
    0.00000E+00         0.00000E+00         0.00000E+00
 
    0.11190E+08        -0.16112E+07         0.00000E+00
   -0.16112E+07        -0.14124E+08         0.00000E+00
    0.00000E+00         0.00000E+00         0.00000E+00
 
    0.99133E+07        -0.14222E+07         0.00000E+00
   -0.14222E+07        -0.13985E+08         0.00000E+00
    0.00000E+00         0.00000E+00         0.00000E+00
 
    0.87111E+07        -0.11210E+07         0.00000E+00
   -0.11210E+07        -0.13851E+08         0.00000E+00
    0.00000E+00         0.00000E+00         0.00000E+00
 
    0.75698E+07        -0.72484E+06         0.00000E+00
   -0.72484E+06        -0.13705E+08         0.00000E+00
    0.00000E+00         0.00000E+00         0.00000E+00
 
    0.64710E+07        -0.23983E+06         0.00000E+00
   -0.23983E+06        -0.13531E+08         0.00000E+00
    0.00000E+00         0.00000E+00         0.00000E+00
 
    0.53972E+07         0.33721E+06         0.00000E+00
    0.33721E+06        -0.13315E+08         0.00000E+00
    0.00000E+00         0.00000E+00         0.00000E+00
 
    0.43350E+07         0.10178E+07         0.00000E+00
    0.10178E+07        -0.13045E+08         0.00000E+00
    0.00000E+00         0.00000E+00         0.00000E+00
 
    0.32807E+07         0.18214E+07         0.00000E+00
    0.18214E+07        -0.12718E+08         0.00000E+00
    0.00000E+00         0.00000E+00         0.00000E+00
 
    0.22458E+07         0.27739E+07         0.00000E+00
    0.27739E+07        -0.12338E+08         0.00000E+00
    0.00000E+00         0.00000E+00         0.00000E+00
 
    0.12641E+07         0.39025E+07         0.00000E+00
    0.39025E+07        -0.11926E+08         0.00000E+00
    0.00000E+00         0.00000E+00         0.00000E+00
 
    0.39627E+06         0.52258E+07         0.00000E+00
    0.52258E+07        -0.11525E+08         0.00000E+00
    0.00000E+00         0.00000E+00         0.00000E+00
 
    0.14563E+08        -0.38549E+06         0.00000E+00
   -0.38549E+06        -0.16045E+08         0.00000E+00
    0.00000E+00         0.00000E+00         0.00000E+00
 
    0.13557E+08        -0.99196E+06         0.00000E+00
   -0.99196E+06        -0.15924E+08         0.00000E+00
    0.00000E+00         0.00000E+00         0.00000E+00
 
    0.12395E+08        -0.13711E+07         0.00000E+00
   -0.13711E+07        -0.15739E+08         0.00000E+00
    0.00000E+00         0.00000E+00         0.00000E+00
 
    0.11178E+08        -0.15375E+07         0.00000E+00
   -0.15375E+07        -0.15538E+08         0.00000E+00
    0.00000E+00         0.00000E+00         0.00000E+00
 
    0.99712E+07        -0.15204E+07         0.00000E+00
   -0.15204E+07        -0.15343E+08         0.00000E+00
    0.00000E+00         0.00000E+00         0.00000E+00
 
    0.88062E+07        -0.13500E+07         0.00000E+00
   -0.13500E+07        -0.15161E+08         0.00000E+00
    0.00000E+00         0.00000E+00         0.00000E+00
 
    0.76938E+07        -0.10507E+07         0.00000E+00
   -0.10507E+07        -0.14986E+08         0.00000E+00
    0.00000E+00         0.00000E+00         0.00000E+00
 
    0.66313E+07        -0.63812E+06         0.00000E+00
   -0.63812E+06        -0.14806E+08         0.00000E+00
    0.00000E+00         0.00000E+00         0.00000E+00
 
    0.56100E+07        -0.11969E+06         0.00000E+00
   -0.11969E+06        -0.14609E+08         0.00000E+00
    0.00000E+00         0.00000E+00         0.00000E+00
 
    0.46207E+07         0.50478E+06         0.00000E+00
    0.50478E+06        -0.14384E+08         0.00000E+00
    0.00000E+00         0.00000E+00         0.00000E+00
 
    0.36575E+07         0.12419E+07         0.00000E+00
    0.12419E+07        -0.14122E+08         0.00000E+00
    0.00000E+00         0.00000E+00         0.00000E+00
 
    0.27227E+07         0.21032E+07         0.00000E+00
    0.21032E+07        -0.13823E+08         0.00000E+00
    0.00000E+00         0.00000E+00         0.00000E+00
 
    0.18308E+07         0.31028E+07         0.00000E+00
    0.31028E+07        -0.13493E+08         0.00000E+00
    0.00000E+00         0.00000E+00         0.00000E+00
 
    0.10118E+07         0.42527E+07         0.00000E+00
    0.42527E+07        -0.13152E+08         0.00000E+00
    0.00000E+00         0.00000E+00         0.00000E+00
 
    0.31270E+06         0.55560E+07         0.00000E+00
    0.55560E+07        -0.12831E+08         0.00000E+00
    0.00000E+00         0.00000E+00         0.00000E+00
 
    0.12700E+08        -0.32570E+06         0.00000E+00
   -0.32570E+06        -0.17247E+08         0.00000E+00
    0.00000E+00         0.00000E+00         0.00000E+00
 
    0.11882E+08        -0.85880E+06         0.00000E+00
   -0.85880E+06        -0.17139E+08         0.00000E+00
    0.00000E+00         0.00000E+00         0.00000E+00
 
    0.10910E+08        -0.12131E+07         0.00000E+00
   -0.12131E+07        -0.16968E+08         0.00000E+00
    0.00000E+00         0.00000E+00         0.00000E+00
 
    0.98644E+07        -0.13841E+07         0.00000E+00
   -0.13841E+07        -0.16770E+08         0.00000E+00
    0.00000E+00         0.00000E+00         0.00000E+00
 
    0.88030E+07        -0.13829E+07         0.00000E+00
   -0.13829E+07        -0.16569E+08         0.00000E+00
    0.00000E+00         0.00000E+00         0.00000E+00
 
    0.77599E+07        -0.12266E+07         0.00000E+00
   -0.12266E+07        -0.16373E+08         0.00000E+00
    0.00000E+00         0.00000E+00         0.00000E+00
 
    0.67517E+07        -0.93168E+06         0.00000E+00
   -0.93168E+06        -0.16182E+08         0.00000E+00
    0.00000E+00         0.00000E+00         0.00000E+00
 
    0.57830E+07        -0.51063E+06         0.00000E+00
   -0.51063E+06        -0.15989E+08         0.00000E+00
    0.00000E+00         0.00000E+00         0.00000E+00
 
    0.48525E+07         0.29163E+05         0.00000E+00
    0.29163E+05        -0.15786E+08         0.00000E+00
    0.00000E+00         0.00000E+00         0.00000E+00
 
    0.39572E+07         0.68542E+06         0.00000E+00
    0.68542E+06        -0.15565E+08         0.00000E+00
    0.00000E+00         0.00000E+00         0.00000E+00
 
    0.30966E+07         0.14601E+07         0.00000E+00
    0.14601E+07        -0.15320E+08         0.00000E+00
    0.00000E+00         0.00000E+00         0.00000E+00
 
    0.22761E+07         0.23580E+07         0.00000E+00
    0.23580E+07        -0.15053E+08         0.00000E+00
    0.00000E+00         0.00000E+00         0.00000E+00
 
    0.15101E+07         0.33840E+07         0.00000E+00
    0.33840E+07        -0.14770E+08         0.00000E+00
    0.00000E+00         0.00000E+00         0.00000E+00
 
    0.82351E+06         0.45394E+07         0.00000E+00
    0.45394E+07        -0.14487E+08         0.00000E+00
    0.00000E+00         0.00000E+00         0.00000E+00
 
    0.25195E+06         0.58175E+07         0.00000E+00
    0.58175E+07        -0.14228E+08         0.00000E+00
    0.00000E+00         0.00000E+00         0.00000E+00
 
    0.10991E+08        -0.27301E+06         0.00000E+00
   -0.27301E+06        -0.18393E+08         0.00000E+00
    0.00000E+00         0.00000E+00         0.00000E+00
 
    0.10312E+08        -0.73523E+06         0.00000E+00
   -0.73523E+06        -0.18304E+08         0.00000E+00
    0.00000E+00         0.00000E+00         0.00000E+00
 
    0.94937E+07        -0.10566E+07         0.00000E+00
   -0.10566E+07        -0.18156E+08         0.00000E+00
    0.00000E+00         0.00000E+00         0.00000E+00
 
    0.86005E+07        -0.12205E+07         0.00000E+00
   -0.12205E+07        -0.17979E+08         0.00000E+00
    0.00000E+00         0.00000E+00         0.00000E+00
 
    0.76794E+07        -0.12251E+07         0.00000E+00
   -0.12251E+07        -0.17793E+08         0.00000E+00
    0.00000E+00         0.00000E+00         0.00000E+00
 
    0.67623E+07        -0.10771E+07         0.00000E+00
   -0.10771E+07        -0.17606E+08         0.00000E+00
    0.00000E+00         0.00000E+00         0.00000E+00
 
    0.58674E+07        -0.78609E+06         0.00000E+00
   -0.78609E+06        -0.17421E+08         0.00000E+00
    0.00000E+00         0.00000E+00         0.00000E+00
 
    0.50035E+07        -0.36086E+06         0.00000E+00
   -0.36086E+06        -0.17234E+08         0.00000E+00
    0.00000E+00         0.00000E+00         0.00000E+00
 
    0.41738E+07         0.19188E+06         0.00000E+00
    0.19188E+06        -0.17041E+08         0.00000E+00
    0.00000E+00         0.00000E+00         0.00000E+00
 
    0.33795E+07         0.86821E+06         0.00000E+00
    0.86821E+06        -0.16837E+08         0.00000E+00
    0.00000E+00         0.00000E+00         0.00000E+00
 
    0.26232E+07         0.16664E+07         0.00000E+00
    0.16664E+07        -0.16618E+08         0.00000E+00
    0.00000E+00         0.00000E+00         0.00000E+00
 
    0.19116E+07         0.25858E+07         0.00000E+00
    0.25858E+07        -0.16386E+08         0.00000E+00
    0.00000E+00         0.00000E+00         0.00000E+00
 
    0.12575E+07         0.36246E+07         0.00000E+00
    0.36246E+07        -0.16147E+08         0.00000E+00
    0.00000E+00         0.00000E+00         0.00000E+00
 
    0.68064E+06         0.47768E+07         0.00000E+00
    0.47768E+07        -0.15913E+08         0.00000E+00
    0.00000E+00         0.00000E+00         0.00000E+00
 
    0.20720E+06         0.60296E+07         0.00000E+00
    0.60296E+07        -0.15701E+08         0.00000E+00
    0.00000E+00         0.00000E+00         0.00000E+00
 
    0.94090E+07        -0.22862E+06         0.00000E+00
   -0.22862E+06        -0.19501E+08         0.00000E+00
    0.00000E+00         0.00000E+00         0.00000E+00
 
    0.88308E+07        -0.62720E+06         0.00000E+00
   -0.62720E+06        -0.19432E+08         0.00000E+00
    0.00000E+00         0.00000E+00         0.00000E+00
 
    0.81389E+07        -0.91377E+06         0.00000E+00
   -0.91377E+06        -0.19315E+08         0.00000E+00
    0.00000E+00         0.00000E+00         0.00000E+00
 
    0.73804E+07        -0.10638E+07         0.00000E+00
   -0.10638E+07        -0.19171E+08         0.00000E+00
    0.00000E+00         0.00000E+00         0.00000E+00
 
    0.65925E+07        -0.10669E+07         0.00000E+00
   -0.10669E+07        -0.19014E+08         0.00000E+00
    0.00000E+00         0.00000E+00         0.00000E+00
 
    0.58020E+07        -0.92217E+06         0.00000E+00
   -0.92217E+06        -0.18854E+08         0.00000E+00
    0.00000E+00         0.00000E+00         0.00000E+00
 
    0.50260E+07        -0.63323E+06         0.00000E+00
   -0.63323E+06        -0.18692E+08         0.00000E+00
    0.00000E+00         0.00000E+00         0.00000E+00
 
    0.42744E+07        -0.20575E+06         0.00000E+00
   -0.20575E+06        -0.18527E+08         0.00000E+00
    0.00000E+00         0.00000E+00         0.00000E+00
 
    0.35527E+07         0.35466E+06         0.00000E+00
    0.35466E+06        -0.18358E+08         0.00000E+00
    0.00000E+00         0.00000E+00         0.00000E+00
 
    0.28642E+07         0.10431E+07         0.00000E+00
    0.10431E+07        -0.18182E+08         0.00000E+00
    0.00000E+00         0.00000E+00         0.00000E+00
 
    0.22130E+07         0.18552E+07         0.00000E+00
    0.18552E+07        -0.17996E+08         0.00000E+00
    0.00000E+00         0.00000E+00         0.00000E+00
 
    0.16058E+07         0.27863E+07         0.00000E+00
    0.27863E+07        -0.17802E+08         0.00000E+00
    0.00000E+00         0.00000E+00         0.00000E+00
 
    0.10529E+07         0.38297E+07         0.00000E+00
    0.38297E+07        -0.17605E+08         0.00000E+00
    0.00000E+00         0.00000E+00         0.00000E+00
 
    0.56923E+06         0.49750E+07         0.00000E+00
    0.49750E+07        -0.17413E+08         0.00000E+00
    0.00000E+00         0.00000E+00         0.00000E+00
 
    0.17342E+06         0.62051E+07         0.00000E+00
    0.62051E+07        -0.17238E+08         0.00000E+00
    0.00000E+00         0.00000E+00         0.00000E+00
 
    0.79217E+07        -0.19336E+06         0.00000E+00
   -0.19336E+06        -0.20586E+08         0.00000E+00
    0.00000E+00         0.00000E+00         0.00000E+00
 
    0.74184E+07        -0.53866E+06         0.00000E+00
   -0.53866E+06        -0.20539E+08         0.00000E+00
    0.00000E+00         0.00000E+00         0.00000E+00
 
    0.68316E+07        -0.79268E+06         0.00000E+00
   -0.79268E+06        -0.20457E+08         0.00000E+00
    0.00000E+00         0.00000E+00         0.00000E+00
 
    0.61940E+07        -0.92627E+06         0.00000E+00
   -0.92627E+06        -0.20353E+08         0.00000E+00
    0.00000E+00         0.00000E+00         0.00000E+00
 
    0.55325E+07        -0.92352E+06         0.00000E+00
   -0.92352E+06        -0.20237E+08         0.00000E+00
    0.00000E+00         0.00000E+00         0.00000E+00
 
    0.48677E+07        -0.77794E+06         0.00000E+00
   -0.77794E+06        -0.20114E+08         0.00000E+00
    0.00000E+00         0.00000E+00         0.00000E+00
 
    0.42137E+07        -0.48902E+06         0.00000E+00
   -0.48902E+06        -0.19988E+08         0.00000E+00
    0.00000E+00         0.00000E+00         0.00000E+00
 
    0.35795E+07        -0.59673E+05         0.00000E+00
   -0.59673E+05        -0.19859E+08         0.00000E+00
    0.00000E+00         0.00000E+00         0.00000E+00
 
    0.29708E+07         0.50555E+06         0.00000E+00
    0.50555E+06        -0.19725E+08         0.00000E+00
    0.00000E+00         0.00000E+00         0.00000E+00
 
    0.23915E+07         0.12013E+07         0.00000E+00
    0.12013E+07        -0.19584E+08         0.00000E+00
    0.00000E+00         0.00000E+00         0.00000E+00
 
    0.18459E+07         0.20214E+07         0.00000E+00
    0.20214E+07        -0.19437E+08         0.00000E+00
    0.00000E+00         0.00000E+00         0.00000E+00
 
    0.13395E+07         0.29584E+07         0.00000E+00
    0.29584E+07        -0.19283E+08         0.00000E+00
    0.00000E+00         0.00000E+00         0.00000E+00
 
    0.88028E+06         0.40027E+07         0.00000E+00
    0.40027E+07        -0.19127E+08         0.00000E+00
    0.00000E+00         0.00000E+00         0.00000E+00
 
    0.47861E+06         0.51405E+07         0.00000E+00
    0.51405E+07        -0.18973E+08         0.00000E+00
    0.00000E+00         0.00000E+00         0.00000E+00
 
    0.14681E+06         0.63529E+07         0.00000E+00
    0.63529E+07        -0.18830E+08         0.00000E+00
    0.00000E+00         0.00000E+00         0.00000E+00
 
    0.64973E+07        -0.16767E+06         0.00000E+00
   -0.16767E+06        -0.21665E+08         0.00000E+00
    0.00000E+00         0.00000E+00         0.00000E+00
 
    0.60516E+07        -0.47215E+06         0.00000E+00
   -0.47215E+06        -0.21640E+08         0.00000E+00
    0.00000E+00         0.00000E+00         0.00000E+00
 
    0.55556E+07        -0.69889E+06         0.00000E+00
   -0.69889E+06        -0.21595E+08         0.00000E+00
    0.00000E+00         0.00000E+00         0.00000E+00
 
    0.50288E+07        -0.81649E+06         0.00000E+00
   -0.81649E+06        -0.21535E+08         0.00000E+00
    0.00000E+00         0.00000E+00         0.00000E+00
 
    0.44884E+07        -0.80574E+06         0.00000E+00
   -0.80574E+06        -0.21465E+08         0.00000E+00
    0.00000E+00         0.00000E+00         0.00000E+00
 
    0.39481E+07        -0.65668E+06         0.00000E+00
   -0.65668E+06        -0.21389E+08         0.00000E+00
    0.00000E+00         0.00000E+00         0.00000E+00
 
    0.34179E+07        -0.36585E+06         0.00000E+00
   -0.36585E+06        -0.21308E+08         0.00000E+00
    0.00000E+00         0.00000E+00         0.00000E+00
 
    0.29045E+07         0.65864E+05         0.00000E+00
    0.65864E+05        -0.21223E+08         0.00000E+00
    0.00000E+00         0.00000E+00         0.00000E+00
 
    0.24125E+07         0.63482E+06         0.00000E+00
    0.63482E+06        -0.21131E+08         0.00000E+00
    0.00000E+00         0.00000E+00         0.00000E+00
 
    0.19450E+07         0.13354E+07         0.00000E+00
    0.13354E+07        -0.21033E+08         0.00000E+00
    0.00000E+00         0.00000E+00         0.00000E+00
 
    0.15055E+07         0.21606E+07         0.00000E+00
    0.21606E+07        -0.20928E+08         0.00000E+00
    0.00000E+00         0.00000E+00         0.00000E+00
 
    0.10979E+07         0.31011E+07         0.00000E+00
    0.31011E+07        -0.20817E+08         0.00000E+00
    0.00000E+00         0.00000E+00         0.00000E+00
 
    0.72739E+06         0.41452E+07         0.00000E+00
    0.41452E+07        -0.20700E+08         0.00000E+00
    0.00000E+00         0.00000E+00         0.00000E+00
 
    0.40055E+06         0.52777E+07         0.00000E+00
    0.52777E+07        -0.20582E+08         0.00000E+00
    0.00000E+00         0.00000E+00         0.00000E+00
 
    0.12446E+06         0.64784E+07         0.00000E+00
    0.64784E+07        -0.20467E+08         0.00000E+00
    0.00000E+00         0.00000E+00         0.00000E+00
 
    0.51042E+07        -0.15176E+06         0.00000E+00
   -0.15176E+06        -0.22751E+08         0.00000E+00
    0.00000E+00         0.00000E+00         0.00000E+00
 
    0.47066E+07        -0.42913E+06         0.00000E+00
   -0.42913E+06        -0.22748E+08         0.00000E+00
    0.00000E+00         0.00000E+00         0.00000E+00
 
    0.42930E+07        -0.63586E+06         0.00000E+00
   -0.63586E+06        -0.22740E+08         0.00000E+00
    0.00000E+00         0.00000E+00         0.00000E+00
 
    0.38711E+07        -0.74010E+06         0.00000E+00
   -0.74010E+06        -0.22726E+08         0.00000E+00
    0.00000E+00         0.00000E+00         0.00000E+00
 
    0.34486E+07        -0.72115E+06         0.00000E+00
   -0.72115E+06        -0.22707E+08         0.00000E+00
    0.00000E+00         0.00000E+00         0.00000E+00
 
    0.30323E+07        -0.56713E+06         0.00000E+00
   -0.56713E+06        -0.22682E+08         0.00000E+00
    0.00000E+00         0.00000E+00         0.00000E+00
 
    0.26273E+07        -0.27280E+06         0.00000E+00
   -0.27280E+06        -0.22651E+08         0.00000E+00
    0.00000E+00         0.00000E+00         0.00000E+00
 
    0.22373E+07         0.16224E+06         0.00000E+00
    0.16224E+06        -0.22615E+08         0.00000E+00
    0.00000E+00         0.00000E+00         0.00000E+00
 
    0.18646E+07         0.73500E+06         0.00000E+00
    0.73500E+06        -0.22571E+08         0.00000E+00
    0.00000E+00         0.00000E+00         0.00000E+00
 
    0.15111E+07         0.14399E+07         0.00000E+00
    0.14399E+07        -0.22519E+08         0.00000E+00
    0.00000E+00         0.00000E+00         0.00000E+00
 
    0.11784E+07         0.22692E+07         0.00000E+00
    0.22692E+07        -0.22459E+08         0.00000E+00
    0.00000E+00         0.00000E+00         0.00000E+00
 
    0.86869E+06         0.32128E+07         0.00000E+00
    0.32128E+07        -0.22391E+08         0.00000E+00
    0.00000E+00         0.00000E+00         0.00000E+00
 
    0.58446E+06         0.42580E+07         0.00000E+00
    0.42580E+07        -0.22314E+08         0.00000E+00
    0.00000E+00         0.00000E+00         0.00000E+00
 
    0.32868E+06         0.53885E+07         0.00000E+00
    0.53885E+07        -0.22230E+08         0.00000E+00
    0.00000E+00         0.00000E+00         0.00000E+00
 
    0.10414E+06         0.65845E+07         0.00000E+00
    0.65845E+07        -0.22141E+08         0.00000E+00
    0.00000E+00         0.00000E+00         0.00000E+00
 
    0.37120E+07        -0.14558E+06         0.00000E+00
   -0.14558E+06        -0.23858E+08         0.00000E+00
    0.00000E+00         0.00000E+00         0.00000E+00
 
    0.33600E+07        -0.41019E+06         0.00000E+00
   -0.41019E+06        -0.23876E+08         0.00000E+00
    0.00000E+00         0.00000E+00         0.00000E+00
 
    0.30259E+07        -0.60545E+06         0.00000E+00
   -0.60545E+06        -0.23905E+08         0.00000E+00
    0.00000E+00         0.00000E+00         0.00000E+00
 
    0.27066E+07        -0.70047E+06         0.00000E+00
   -0.70047E+06        -0.23936E+08         0.00000E+00
    0.00000E+00         0.00000E+00         0.00000E+00
 
    0.24011E+07        -0.67445E+06         0.00000E+00
   -0.67445E+06        -0.23967E+08         0.00000E+00
    0.00000E+00         0.00000E+00         0.00000E+00
 
    0.21093E+07        -0.51494E+06         0.00000E+00
   -0.51494E+06        -0.23995E+08         0.00000E+00
    0.00000E+00         0.00000E+00         0.00000E+00
 
    0.18312E+07        -0.21597E+06         0.00000E+00
   -0.21597E+06        -0.24017E+08         0.00000E+00
    0.00000E+00         0.00000E+00         0.00000E+00
 
    0.15668E+07         0.22351E+06         0.00000E+00
    0.22351E+06        -0.24032E+08         0.00000E+00
    0.00000E+00         0.00000E+00         0.00000E+00
 
    0.13160E+07         0.80084E+06         0.00000E+00
    0.80084E+06        -0.24038E+08         0.00000E+00
    0.00000E+00         0.00000E+00         0.00000E+00
 
    0.10785E+07         0.15105E+07         0.00000E+00
    0.15105E+07        -0.24035E+08         0.00000E+00
    0.00000E+00         0.00000E+00         0.00000E+00
 
    0.85397E+06         0.23444E+07         0.00000E+00
    0.23444E+07        -0.24022E+08         0.00000E+00
    0.00000E+00         0.00000E+00         0.00000E+00
 
    0.64242E+06         0.32923E+07         0.00000E+00
    0.32923E+07        -0.23996E+08         0.00000E+00
    0.00000E+00         0.00000E+00         0.00000E+00
 
    0.44384E+06         0.43408E+07         0.00000E+00
    0.43408E+07        -0.23959E+08         0.00000E+00
    0.00000E+00         0.00000E+00         0.00000E+00
 
    0.25803E+06         0.54740E+07         0.00000E+00
    0.54740E+07        -0.23909E+08         0.00000E+00
    0.00000E+00         0.00000E+00         0.00000E+00
 
    0.84134E+05         0.66721E+07         0.00000E+00
    0.66721E+07        -0.23844E+08         0.00000E+00
    0.00000E+00         0.00000E+00         0.00000E+00
 
    0.22921E+07        -0.14888E+06         0.00000E+00
   -0.14888E+06        -0.24996E+08         0.00000E+00
    0.00000E+00         0.00000E+00         0.00000E+00
 
    0.19891E+07        -0.41520E+06         0.00000E+00
   -0.41520E+06        -0.25034E+08         0.00000E+00
    0.00000E+00         0.00000E+00         0.00000E+00
 
    0.17365E+07        -0.60820E+06         0.00000E+00
   -0.60820E+06        -0.25097E+08         0.00000E+00
    0.00000E+00         0.00000E+00         0.00000E+00
 
    0.15214E+07        -0.69900E+06         0.00000E+00
   -0.69900E+06        -0.25173E+08         0.00000E+00
    0.00000E+00         0.00000E+00         0.00000E+00
 
    0.13345E+07        -0.66797E+06         0.00000E+00
   -0.66797E+06        -0.25253E+08         0.00000E+00
    0.00000E+00         0.00000E+00         0.00000E+00
 
    0.11691E+07        -0.50316E+06         0.00000E+00
   -0.50316E+06        -0.25332E+08         0.00000E+00
    0.00000E+00         0.00000E+00         0.00000E+00
 
    0.10202E+07        -0.19876E+06         0.00000E+00
   -0.19876E+06        -0.25406E+08         0.00000E+00
    0.00000E+00         0.00000E+00         0.00000E+00
 
    0.88395E+06         0.24623E+06         0.00000E+00
    0.24623E+06        -0.25473E+08         0.00000E+00
    0.00000E+00         0.00000E+00         0.00000E+00
 
    0.75737E+06         0.82919E+06         0.00000E+00
    0.82919E+06        -0.25530E+08         0.00000E+00
    0.00000E+00         0.00000E+00         0.00000E+00
 
    0.63791E+06         0.15446E+07         0.00000E+00
    0.15446E+07        -0.25575E+08         0.00000E+00
    0.00000E+00         0.00000E+00         0.00000E+00
 
    0.52330E+06         0.23844E+07         0.00000E+00
    0.23844E+07        -0.25607E+08         0.00000E+00
    0.00000E+00         0.00000E+00         0.00000E+00
 
    0.41129E+06         0.33383E+07         0.00000E+00
    0.33383E+07        -0.25625E+08         0.00000E+00
    0.00000E+00         0.00000E+00         0.00000E+00
 
    0.29943E+06         0.43934E+07         0.00000E+00
    0.43934E+07        -0.25627E+08         0.00000E+00
    0.00000E+00         0.00000E+00         0.00000E+00
 
    0.18469E+06         0.55338E+07         0.00000E+00
    0.55338E+07        -0.25609E+08         0.00000E+00
    0.00000E+00         0.00000E+00         0.00000E+00
 
    0.63087E+05         0.67408E+07         0.00000E+00
    0.67408E+07        -0.25570E+08         0.00000E+00
    0.00000E+00         0.00000E+00         0.00000E+00
 
    0.81802E+06        -0.16129E+06         0.00000E+00
   -0.16129E+06        -0.26175E+08         0.00000E+00
    0.00000E+00         0.00000E+00         0.00000E+00
 
    0.57293E+06        -0.44344E+06         0.00000E+00
   -0.44344E+06        -0.26231E+08         0.00000E+00
    0.00000E+00         0.00000E+00         0.00000E+00
 
    0.40849E+06        -0.64347E+06         0.00000E+00
   -0.64347E+06        -0.26326E+08         0.00000E+00
    0.00000E+00         0.00000E+00         0.00000E+00
 
    0.30265E+06        -0.73547E+06         0.00000E+00
   -0.73547E+06        -0.26442E+08         0.00000E+00
    0.00000E+00         0.00000E+00         0.00000E+00
 
    0.23839E+06        -0.70194E+06         0.00000E+00
   -0.70194E+06        -0.26569E+08         0.00000E+00
    0.00000E+00         0.00000E+00         0.00000E+00
 
    0.20276E+06        -0.53243E+06         0.00000E+00
   -0.53243E+06        -0.26696E+08         0.00000E+00
    0.00000E+00         0.00000E+00         0.00000E+00
 
    0.18594E+06        -0.22217E+06         0.00000E+00
   -0.22217E+06        -0.26820E+08         0.00000E+00
    0.00000E+00         0.00000E+00         0.00000E+00
 
    0.18047E+06         0.22925E+06         0.00000E+00
    0.22925E+06        -0.26935E+08         0.00000E+00
    0.00000E+00         0.00000E+00         0.00000E+00
 
    0.18059E+06         0.81888E+06         0.00000E+00
    0.81888E+06        -0.27040E+08         0.00000E+00
    0.00000E+00         0.00000E+00         0.00000E+00
 
    0.18155E+06         0.15412E+07         0.00000E+00
    0.15412E+07        -0.27132E+08         0.00000E+00
    0.00000E+00         0.00000E+00         0.00000E+00
 
    0.17908E+06         0.23883E+07         0.00000E+00
    0.23883E+07        -0.27209E+08         0.00000E+00
    0.00000E+00         0.00000E+00         0.00000E+00
 
    0.16889E+06         0.33502E+07         0.00000E+00
    0.33502E+07        -0.27269E+08         0.00000E+00
    0.00000E+00         0.00000E+00         0.00000E+00
 
    0.14623E+06         0.44147E+07         0.00000E+00
    0.44147E+07        -0.27309E+08         0.00000E+00
    0.00000E+00         0.00000E+00         0.00000E+00
 
    0.10550E+06         0.55669E+07         0.00000E+00
    0.55669E+07        -0.27325E+08         0.00000E+00
    0.00000E+00         0.00000E+00         0.00000E+00
 
    0.39928E+05         0.67892E+07         0.00000E+00
    0.67892E+07        -0.27312E+08         0.00000E+00
    0.00000E+00         0.00000E+00         0.00000E+00
 
   -0.73407E+06        -0.18226E+06         0.00000E+00
   -0.18226E+06        -0.27402E+08         0.00000E+00
    0.00000E+00         0.00000E+00         0.00000E+00
 
   -0.90729E+06        -0.49365E+06         0.00000E+00
   -0.49365E+06        -0.27475E+08         0.00000E+00
    0.00000E+00         0.00000E+00         0.00000E+00
 
   -0.97284E+06        -0.70965E+06         0.00000E+00
   -0.70965E+06        -0.27598E+08         0.00000E+00
    0.00000E+00         0.00000E+00         0.00000E+00
 
   -0.96121E+06        -0.80813E+06         0.00000E+00
   -0.80813E+06        -0.27750E+08         0.00000E+00
    0.00000E+00         0.00000E+00         0.00000E+00
 
   -0.89658E+06        -0.77466E+06         0.00000E+00
   -0.77466E+06        -0.27918E+08         0.00000E+00
    0.00000E+00         0.00000E+00         0.00000E+00
 
   -0.79770E+06        -0.60124E+06         0.00000E+00
   -0.60124E+06        -0.28089E+08         0.00000E+00
    0.00000E+00         0.00000E+00         0.00000E+00
 
   -0.67879E+06        -0.28490E+06         0.00000E+00
   -0.28490E+06        -0.28257E+08         0.00000E+00
    0.00000E+00         0.00000E+00         0.00000E+00
 
   -0.55055E+06         0.17358E+06         0.00000E+00
    0.17358E+06        -0.28417E+08         0.00000E+00
    0.00000E+00         0.00000E+00         0.00000E+00
 
   -0.42120E+06         0.77062E+06         0.00000E+00
    0.77062E+06        -0.28565E+08         0.00000E+00
    0.00000E+00         0.00000E+00         0.00000E+00
 
   -0.29735E+06         0.15006E+07         0.00000E+00
    0.15006E+07        -0.28700E+08         0.00000E+00
    0.00000E+00         0.00000E+00         0.00000E+00
 
   -0.18503E+06         0.23559E+07         0.00000E+00
    0.23559E+07        -0.28819E+08         0.00000E+00
    0.00000E+00         0.00000E+00         0.00000E+00
 
   -0.90318E+05         0.33274E+07         0.00000E+00
    0.33274E+07        -0.28919E+08         0.00000E+00
    0.00000E+00         0.00000E+00         0.00000E+00
 
   -0.20059E+05         0.44039E+07         0.00000E+00
    0.44039E+07        -0.28997E+08         0.00000E+00
    0.00000E+00         0.00000E+00         0.00000E+00
 
    0.17762E+05         0.55718E+07         0.00000E+00
    0.55718E+07        -0.29047E+08         0.00000E+00
    0.00000E+00         0.00000E+00         0.00000E+00
 
    0.13740E+05         0.68148E+07         0.00000E+00
    0.68148E+07        -0.29062E+08         0.00000E+00
    0.00000E+00         0.00000E+00         0.00000E+00
 
   -0.23852E+07        -0.21115E+06         0.00000E+00
   -0.21115E+06        -0.28683E+08         0.00000E+00
    0.00000E+00         0.00000E+00         0.00000E+00
 
   -0.24681E+07        -0.56411E+06         0.00000E+00
   -0.56411E+06        -0.28770E+08         0.00000E+00
    0.00000E+00         0.00000E+00         0.00000E+00
 
   -0.24202E+07        -0.80419E+06         0.00000E+00
   -0.80419E+06        -0.28917E+08         0.00000E+00
    0.00000E+00         0.00000E+00         0.00000E+00
 
   -0.22798E+07        -0.91383E+06         0.00000E+00
   -0.91383E+06        -0.29101E+08         0.00000E+00
    0.00000E+00         0.00000E+00         0.00000E+00
 
   -0.20781E+07        -0.88263E+06         0.00000E+00
   -0.88263E+06        -0.29304E+08         0.00000E+00
    0.00000E+00         0.00000E+00         0.00000E+00
 
   -0.18388E+07        -0.70596E+06         0.00000E+00
   -0.70596E+06        -0.29512E+08         0.00000E+00
    0.00000E+00         0.00000E+00         0.00000E+00
 
   -0.15800E+07        -0.38343E+06         0.00000E+00
   -0.38343E+06        -0.29717E+08         0.00000E+00
    0.00000E+00         0.00000E+00         0.00000E+00
 
   -0.13151E+07         0.82383E+05         0.00000E+00
    0.82383E+05        -0.29914E+08         0.00000E+00
    0.00000E+00         0.00000E+00         0.00000E+00
 
   -0.10541E+07         0.68700E+06         0.00000E+00
    0.68700E+06        -0.30100E+08         0.00000E+00
    0.00000E+00         0.00000E+00         0.00000E+00
 
   -0.80494E+06         0.14246E+07         0.00000E+00
    0.14246E+07        -0.30273E+08         0.00000E+00
    0.00000E+00         0.00000E+00         0.00000E+00
 
   -0.57489E+06         0.22883E+07         0.00000E+00
    0.22883E+07        -0.30430E+08         0.00000E+00
    0.00000E+00         0.00000E+00         0.00000E+00
 
   -0.37151E+06         0.32700E+07         0.00000E+00
    0.32700E+07        -0.30568E+08         0.00000E+00
    0.00000E+00         0.00000E+00         0.00000E+00
 
   -0.20348E+06         0.43599E+07         0.00000E+00
    0.43599E+07        -0.30683E+08         0.00000E+00
    0.00000E+00         0.00000E+00         0.00000E+00
 
   -0.81075E+05         0.55462E+07         0.00000E+00
    0.55462E+07        -0.30767E+08         0.00000E+00
    0.00000E+00         0.00000E+00         0.00000E+00
 
   -0.16337E+05         0.68145E+07         0.00000E+00
    0.68145E+07        -0.30813E+08         0.00000E+00
    0.00000E+00         0.00000E+00         0.00000E+00
 
   -0.41537E+07        -0.24719E+06         0.00000E+00
   -0.24719E+06        -0.30022E+08         0.00000E+00
    0.00000E+00         0.00000E+00         0.00000E+00
 
   -0.41234E+07        -0.65261E+06         0.00000E+00
   -0.65261E+06        -0.30121E+08         0.00000E+00
    0.00000E+00         0.00000E+00         0.00000E+00
 
   -0.39436E+07        -0.92359E+06         0.00000E+00
   -0.92359E+06        -0.30288E+08         0.00000E+00
    0.00000E+00         0.00000E+00         0.00000E+00
 
   -0.36607E+07        -0.10480E+07         0.00000E+00
   -0.10480E+07        -0.30497E+08         0.00000E+00
    0.00000E+00         0.00000E+00         0.00000E+00
 
   -0.33119E+07        -0.10205E+07         0.00000E+00
   -0.10205E+07        -0.30726E+08         0.00000E+00
    0.00000E+00         0.00000E+00         0.00000E+00
 
   -0.29255E+07        -0.84081E+06         0.00000E+00
   -0.84081E+06        -0.30962E+08         0.00000E+00
    0.00000E+00         0.00000E+00         0.00000E+00
 
   -0.25227E+07        -0.51205E+06         0.00000E+00
   -0.51205E+06        -0.31196E+08         0.00000E+00
    0.00000E+00         0.00000E+00         0.00000E+00
 
   -0.21185E+07        -0.39074E+05         0.00000E+00
   -0.39074E+05        -0.31422E+08         0.00000E+00
    0.00000E+00         0.00000E+00         0.00000E+00
 
   -0.17238E+07         0.57244E+06         0.00000E+00
    0.57244E+06        -0.31637E+08         0.00000E+00
    0.00000E+00         0.00000E+00         0.00000E+00
 
   -0.13472E+07         0.13166E+07         0.00000E+00
    0.13166E+07        -0.31841E+08         0.00000E+00
    0.00000E+00         0.00000E+00         0.00000E+00
 
   -0.99638E+06         0.21874E+07         0.00000E+00
    0.21874E+07        -0.32031E+08         0.00000E+00
    0.00000E+00         0.00000E+00         0.00000E+00
 
   -0.67998E+06         0.31783E+07         0.00000E+00
    0.31783E+07        -0.32204E+08         0.00000E+00
    0.00000E+00         0.00000E+00         0.00000E+00
 
   -0.40824E+06         0.42815E+07         0.00000E+00
    0.42815E+07        -0.32355E+08         0.00000E+00
    0.00000E+00         0.00000E+00         0.00000E+00
 
   -0.19369E+06         0.54876E+07         0.00000E+00
    0.54876E+07        -0.32476E+08         0.00000E+00
    0.00000E+00         0.00000E+00         0.00000E+00
 
   -0.51219E+05         0.67841E+07         0.00000E+00
    0.67841E+07        -0.32556E+08         0.00000E+00
    0.00000E+00         0.00000E+00         0.00000E+00
 
   -0.60545E+07        -0.28954E+06         0.00000E+00
   -0.28954E+06        -0.31422E+08         0.00000E+00
    0.00000E+00         0.00000E+00         0.00000E+00
 
   -0.58839E+07        -0.75651E+06         0.00000E+00
   -0.75651E+06        -0.31530E+08         0.00000E+00
    0.00000E+00         0.00000E+00         0.00000E+00
 
   -0.55506E+07        -0.10634E+07         0.00000E+00
   -0.10634E+07        -0.31712E+08         0.00000E+00
    0.00000E+00         0.00000E+00         0.00000E+00
 
   -0.51088E+07        -0.12045E+07         0.00000E+00
   -0.12045E+07        -0.31938E+08         0.00000E+00
    0.00000E+00         0.00000E+00         0.00000E+00
 
   -0.46016E+07        -0.11809E+07         0.00000E+00
   -0.11809E+07        -0.32185E+08         0.00000E+00
    0.00000E+00         0.00000E+00         0.00000E+00
 
   -0.40613E+07        -0.99777E+06         0.00000E+00
   -0.99777E+06        -0.32438E+08         0.00000E+00
    0.00000E+00         0.00000E+00         0.00000E+00
 
   -0.35107E+07        -0.66266E+06         0.00000E+00
   -0.66266E+06        -0.32689E+08         0.00000E+00
    0.00000E+00         0.00000E+00         0.00000E+00
 
   -0.29654E+07        -0.18331E+06         0.00000E+00
   -0.18331E+06        -0.32932E+08         0.00000E+00
    0.00000E+00         0.00000E+00         0.00000E+00
 
   -0.24360E+07         0.43328E+06         0.00000E+00
    0.43328E+06        -0.33167E+08         0.00000E+00
    0.00000E+00         0.00000E+00         0.00000E+00
 
   -0.19303E+07         0.11813E+07         0.00000E+00
    0.11813E+07        -0.33394E+08         0.00000E+00
    0.00000E+00         0.00000E+00         0.00000E+00
 
   -0.14560E+07         0.20559E+07         0.00000E+00
    0.20559E+07        -0.33611E+08         0.00000E+00
    0.00000E+00         0.00000E+00         0.00000E+00
 
   -0.10217E+07         0.30529E+07         0.00000E+00
    0.30529E+07        -0.33815E+08         0.00000E+00
    0.00000E+00         0.00000E+00         0.00000E+00
 
   -0.63922E+06         0.41673E+07         0.00000E+00
    0.41673E+07        -0.34002E+08         0.00000E+00
    0.00000E+00         0.00000E+00         0.00000E+00
 
   -0.32325E+06         0.53925E+07         0.00000E+00
    0.53925E+07        -0.34160E+08         0.00000E+00
    0.00000E+00         0.00000E+00         0.00000E+00
 
   -0.91992E+05         0.67188E+07         0.00000E+00
    0.67188E+07        -0.34279E+08         0.00000E+00
    0.00000E+00         0.00000E+00         0.00000E+00
 
   -0.80998E+07        -0.33722E+06         0.00000E+00
   -0.33722E+06        -0.32885E+08         0.00000E+00
    0.00000E+00         0.00000E+00         0.00000E+00
 
   -0.77571E+07        -0.87261E+06         0.00000E+00
   -0.87261E+06        -0.32999E+08         0.00000E+00
    0.00000E+00         0.00000E+00         0.00000E+00
 
   -0.72449E+07        -0.12179E+07         0.00000E+00
   -0.12179E+07        -0.33190E+08         0.00000E+00
    0.00000E+00         0.00000E+00         0.00000E+00
 
   -0.66259E+07        -0.13755E+07         0.00000E+00
   -0.13755E+07        -0.33424E+08         0.00000E+00
    0.00000E+00         0.00000E+00         0.00000E+00
 
   -0.59485E+07        -0.13541E+07         0.00000E+00
   -0.13541E+07        -0.33677E+08         0.00000E+00
    0.00000E+00         0.00000E+00         0.00000E+00
 
   -0.52478E+07        -0.11663E+07         0.00000E+00
   -0.11663E+07        -0.33934E+08         0.00000E+00
    0.00000E+00         0.00000E+00         0.00000E+00
 
   -0.45471E+07        -0.82467E+06         0.00000E+00
   -0.82467E+06        -0.34187E+08         0.00000E+00
    0.00000E+00         0.00000E+00         0.00000E+00
 
   -0.38605E+07        -0.34051E+06         0.00000E+00
   -0.34051E+06        -0.34435E+08         0.00000E+00
    0.00000E+00         0.00000E+00         0.00000E+00
 
   -0.31968E+07         0.27776E+06         0.00000E+00
    0.27776E+06        -0.34678E+08         0.00000E+00
    0.00000E+00         0.00000E+00         0.00000E+00
 
   -0.25617E+07         0.10247E+07         0.00000E+00
    0.10247E+07        -0.34917E+08         0.00000E+00
    0.00000E+00         0.00000E+00         0.00000E+00
 
   -0.19613E+07         0.18974E+07         0.00000E+00
    0.18974E+07        -0.35155E+08         0.00000E+00
    0.00000E+00         0.00000E+00         0.00000E+00
 
   -0.14041E+07         0.28947E+07         0.00000E+00
    0.28947E+07        -0.35387E+08         0.00000E+00
    0.00000E+00         0.00000E+00         0.00000E+00
 
   -0.90249E+06         0.40153E+07         0.00000E+00
    0.40153E+07        -0.35608E+08         0.00000E+00
    0.00000E+00         0.00000E+00         0.00000E+00
 
   -0.47377E+06         0.52566E+07         0.00000E+00
    0.52566E+07        -0.35807E+08         0.00000E+00
    0.00000E+00         0.00000E+00         0.00000E+00
 
   -0.14006E+06         0.66125E+07         0.00000E+00
    0.66125E+07        -0.35969E+08         0.00000E+00
    0.00000E+00         0.00000E+00         0.00000E+00
 
   -0.10298E+08        -0.38919E+06         0.00000E+00
   -0.38919E+06        -0.34410E+08         0.00000E+00
    0.00000E+00         0.00000E+00         0.00000E+00
 
   -0.97465E+07        -0.99711E+06         0.00000E+00
   -0.99711E+06        -0.34527E+08         0.00000E+00
    0.00000E+00         0.00000E+00         0.00000E+00
 
   -0.90266E+07        -0.13802E+07         0.00000E+00
   -0.13802E+07        -0.34721E+08         0.00000E+00
    0.00000E+00         0.00000E+00         0.00000E+00
 
   -0.82103E+07        -0.15508E+07         0.00000E+00
   -0.15508E+07        -0.34952E+08         0.00000E+00
    0.00000E+00         0.00000E+00         0.00000E+00
 
   -0.73512E+07        -0.15279E+07         0.00000E+00
   -0.15279E+07        -0.35197E+08         0.00000E+00
    0.00000E+00         0.00000E+00         0.00000E+00
 
   -0.64853E+07        -0.13328E+07         0.00000E+00
   -0.13328E+07        -0.35442E+08         0.00000E+00
    0.00000E+00         0.00000E+00         0.00000E+00
 
   -0.56342E+07        -0.98471E+06         0.00000E+00
   -0.98471E+06        -0.35681E+08         0.00000E+00
    0.00000E+00         0.00000E+00         0.00000E+00
 
   -0.48087E+07        -0.49850E+06         0.00000E+00
   -0.49850E+06        -0.35917E+08         0.00000E+00
    0.00000E+00         0.00000E+00         0.00000E+00
 
   -0.40132E+07         0.11605E+06         0.00000E+00
    0.11605E+06        -0.36153E+08         0.00000E+00
    0.00000E+00         0.00000E+00         0.00000E+00
 
   -0.32500E+07         0.85436E+06         0.00000E+00
    0.85436E+06        -0.36395E+08         0.00000E+00
    0.00000E+00         0.00000E+00         0.00000E+00
 
   -0.25221E+07         0.17162E+07         0.00000E+00
    0.17162E+07        -0.36644E+08         0.00000E+00
    0.00000E+00         0.00000E+00         0.00000E+00
 
   -0.18365E+07         0.27044E+07         0.00000E+00
    0.27044E+07        -0.36900E+08         0.00000E+00
    0.00000E+00         0.00000E+00         0.00000E+00
 
   -0.12060E+07         0.38230E+07         0.00000E+00
    0.38230E+07        -0.37157E+08         0.00000E+00
    0.00000E+00         0.00000E+00         0.00000E+00
 
   -0.65059E+06         0.50744E+07         0.00000E+00
    0.50744E+07        -0.37401E+08         0.00000E+00
    0.00000E+00         0.00000E+00         0.00000E+00
 
   -0.19731E+06         0.64573E+07         0.00000E+00
    0.64573E+07        -0.37614E+08         0.00000E+00
    0.00000E+00         0.00000E+00         0.00000E+00
 
   -0.12655E+08        -0.44429E+06         0.00000E+00
   -0.44429E+06        -0.35998E+08         0.00000E+00
    0.00000E+00         0.00000E+00         0.00000E+00
 
   -0.11851E+08        -0.11253E+07         0.00000E+00
   -0.11253E+07        -0.36115E+08         0.00000E+00
    0.00000E+00         0.00000E+00         0.00000E+00
 
   -0.10891E+08        -0.15412E+07         0.00000E+00
   -0.15412E+07        -0.36301E+08         0.00000E+00
    0.00000E+00         0.00000E+00         0.00000E+00
 
   -0.98565E+07        -0.17174E+07         0.00000E+00
   -0.17174E+07        -0.36517E+08         0.00000E+00
    0.00000E+00         0.00000E+00         0.00000E+00
 
   -0.88054E+07        -0.16866E+07         0.00000E+00
   -0.16866E+07        -0.36736E+08         0.00000E+00
    0.00000E+00         0.00000E+00         0.00000E+00
 
   -0.77726E+07        -0.14808E+07         0.00000E+00
   -0.14808E+07        -0.36948E+08         0.00000E+00
    0.00000E+00         0.00000E+00         0.00000E+00
 
   -0.67745E+07        -0.11266E+07         0.00000E+00
   -0.11266E+07        -0.37154E+08         0.00000E+00
    0.00000E+00         0.00000E+00         0.00000E+00
 
   -0.58156E+07        -0.64275E+06         0.00000E+00
   -0.64275E+06        -0.37360E+08         0.00000E+00
    0.00000E+00         0.00000E+00         0.00000E+00
 
   -0.48942E+07        -0.39894E+05         0.00000E+00
   -0.39894E+05        -0.37575E+08         0.00000E+00
    0.00000E+00         0.00000E+00         0.00000E+00
 
   -0.40063E+07         0.67895E+06         0.00000E+00
    0.67895E+06        -0.37806E+08         0.00000E+00
    0.00000E+00         0.00000E+00         0.00000E+00
 
   -0.31507E+07         0.15171E+07         0.00000E+00
    0.15171E+07        -0.38059E+08         0.00000E+00
    0.00000E+00         0.00000E+00         0.00000E+00
 
   -0.23312E+07         0.24828E+07         0.00000E+00
    0.24828E+07        -0.38335E+08         0.00000E+00
    0.00000E+00         0.00000E+00         0.00000E+00
 
   -0.15604E+07         0.35866E+07         0.00000E+00
    0.35866E+07        -0.38627E+08         0.00000E+00
    0.00000E+00         0.00000E+00         0.00000E+00
 
   -0.86099E+06         0.48384E+07         0.00000E+00
    0.48384E+07        -0.38922E+08         0.00000E+00
    0.00000E+00         0.00000E+00         0.00000E+00
 
   -0.26635E+06         0.62433E+07         0.00000E+00
    0.62433E+07        -0.39196E+08         0.00000E+00
    0.00000E+00         0.00000E+00         0.00000E+00
 
   -0.15171E+08        -0.50122E+06         0.00000E+00
   -0.50122E+06        -0.37647E+08         0.00000E+00
    0.00000E+00         0.00000E+00         0.00000E+00
 
   -0.14065E+08        -0.12512E+07         0.00000E+00
   -0.12512E+07        -0.37759E+08         0.00000E+00
    0.00000E+00         0.00000E+00         0.00000E+00
 
   -0.12828E+08        -0.16888E+07         0.00000E+00
   -0.16888E+07        -0.37928E+08         0.00000E+00
    0.00000E+00         0.00000E+00         0.00000E+00
 
   -0.11554E+08        -0.18582E+07         0.00000E+00
   -0.18582E+07        -0.38109E+08         0.00000E+00
    0.00000E+00         0.00000E+00         0.00000E+00
 
   -0.10304E+08        -0.18101E+07         0.00000E+00
   -0.18101E+07        -0.38280E+08         0.00000E+00
    0.00000E+00         0.00000E+00         0.00000E+00
 
   -0.91076E+07        -0.15896E+07         0.00000E+00
   -0.15896E+07        -0.38436E+08         0.00000E+00
    0.00000E+00         0.00000E+00         0.00000E+00
 
   -0.79708E+07        -0.12312E+07         0.00000E+00
   -0.12312E+07        -0.38587E+08         0.00000E+00
    0.00000E+00         0.00000E+00         0.00000E+00
 
   -0.68888E+07        -0.75680E+06         0.00000E+00
   -0.75680E+06        -0.38743E+08         0.00000E+00
    0.00000E+00         0.00000E+00         0.00000E+00
 
   -0.58506E+07        -0.17680E+06         0.00000E+00
   -0.17680E+06        -0.38918E+08         0.00000E+00
    0.00000E+00         0.00000E+00         0.00000E+00
 
   -0.48446E+07         0.50806E+06         0.00000E+00
    0.50806E+06        -0.39126E+08         0.00000E+00
    0.00000E+00         0.00000E+00         0.00000E+00
 
   -0.38627E+07         0.13055E+07         0.00000E+00
    0.13055E+07        -0.39374E+08         0.00000E+00
    0.00000E+00         0.00000E+00         0.00000E+00
 
   -0.29042E+07         0.22301E+07         0.00000E+00
    0.22301E+07        -0.39666E+08         0.00000E+00
    0.00000E+00         0.00000E+00         0.00000E+00
 
   -0.19799E+07         0.33012E+07         0.00000E+00
    0.33012E+07        -0.39997E+08         0.00000E+00
    0.00000E+00         0.00000E+00         0.00000E+00
 
   -0.11150E+07         0.45387E+07         0.00000E+00
    0.45387E+07        -0.40350E+08         0.00000E+00
    0.00000E+00         0.00000E+00         0.00000E+00
 
   -0.35082E+06         0.59571E+07         0.00000E+00
    0.59571E+07        -0.40697E+08         0.00000E+00
    0.00000E+00         0.00000E+00         0.00000E+00
 
   -0.17844E+08        -0.55843E+06         0.00000E+00
   -0.55843E+06        -0.39354E+08         0.00000E+00
    0.00000E+00         0.00000E+00         0.00000E+00
 
   -0.16373E+08        -0.13664E+07         0.00000E+00
   -0.13664E+07        -0.39455E+08         0.00000E+00
    0.00000E+00         0.00000E+00         0.00000E+00
 
   -0.14818E+08        -0.18062E+07         0.00000E+00
   -0.18062E+07        -0.39590E+08         0.00000E+00
    0.00000E+00         0.00000E+00         0.00000E+00
 
   -0.13288E+08        -0.19502E+07         0.00000E+00
   -0.19502E+07        -0.39713E+08         0.00000E+00
    0.00000E+00         0.00000E+00         0.00000E+00
 
   -0.11840E+08        -0.18732E+07         0.00000E+00
   -0.18732E+07        -0.39807E+08         0.00000E+00
    0.00000E+00         0.00000E+00         0.00000E+00
 
   -0.10489E+08        -0.16356E+07         0.00000E+00
   -0.16356E+07        -0.39880E+08         0.00000E+00
    0.00000E+00         0.00000E+00         0.00000E+00
 
   -0.92282E+07        -0.12779E+07         0.00000E+00
   -0.12779E+07        -0.39950E+08         0.00000E+00
    0.00000E+00         0.00000E+00         0.00000E+00
 
   -0.80380E+07        -0.82339E+06         0.00000E+00
   -0.82339E+06        -0.40036E+08         0.00000E+00
    0.00000E+00         0.00000E+00         0.00000E+00
 
   -0.68962E+07        -0.28096E+06         0.00000E+00
   -0.28096E+06        -0.40156E+08         0.00000E+00
    0.00000E+00         0.00000E+00         0.00000E+00
 
   -0.57817E+07         0.35166E+06         0.00000E+00
    0.35166E+06        -0.40327E+08         0.00000E+00
    0.00000E+00         0.00000E+00         0.00000E+00
 
   -0.46778E+07         0.10868E+07         0.00000E+00
    0.10868E+07        -0.40562E+08         0.00000E+00
    0.00000E+00         0.00000E+00         0.00000E+00
 
   -0.35765E+07         0.19463E+07         0.00000E+00
    0.19463E+07        -0.40866E+08         0.00000E+00
    0.00000E+00         0.00000E+00         0.00000E+00
 
   -0.24839E+07         0.29602E+07         0.00000E+00
    0.29602E+07        -0.41237E+08         0.00000E+00
    0.00000E+00         0.00000E+00         0.00000E+00
 
   -0.14268E+07         0.41622E+07         0.00000E+00
    0.41622E+07        -0.41660E+08         0.00000E+00
    0.00000E+00         0.00000E+00         0.00000E+00
 
   -0.45595E+06         0.55813E+07         0.00000E+00
    0.55813E+07        -0.42099E+08         0.00000E+00
    0.00000E+00         0.00000E+00         0.00000E+00
 
   -0.20663E+08        -0.61386E+06         0.00000E+00
   -0.61386E+06        -0.41118E+08         0.00000E+00
    0.00000E+00         0.00000E+00         0.00000E+00
 
   -0.18750E+08        -0.14579E+07         0.00000E+00
   -0.14579E+07        -0.41198E+08         0.00000E+00
    0.00000E+00         0.00000E+00         0.00000E+00
 
   -0.16835E+08        -0.18680E+07         0.00000E+00
   -0.18680E+07        -0.41274E+08         0.00000E+00
    0.00000E+00         0.00000E+00         0.00000E+00
 
   -0.15039E+08        -0.19616E+07         0.00000E+00
   -0.19616E+07        -0.41302E+08         0.00000E+00
    0.00000E+00         0.00000E+00         0.00000E+00
 
   -0.13404E+08        -0.18452E+07         0.00000E+00
   -0.18452E+07        -0.41283E+08         0.00000E+00
    0.00000E+00         0.00000E+00         0.00000E+00
 
   -0.11919E+08        -0.15925E+07         0.00000E+00
   -0.15925E+07        -0.41242E+08         0.00000E+00
    0.00000E+00         0.00000E+00         0.00000E+00
 
   -0.10555E+08        -0.12460E+07         0.00000E+00
   -0.12460E+07        -0.41208E+08         0.00000E+00
    0.00000E+00         0.00000E+00         0.00000E+00
 
   -0.92761E+07        -0.82655E+06         0.00000E+00
   -0.82655E+06        -0.41206E+08         0.00000E+00
    0.00000E+00         0.00000E+00         0.00000E+00
 
   -0.80475E+07        -0.33991E+06         0.00000E+00
   -0.33991E+06        -0.41258E+08         0.00000E+00
    0.00000E+00         0.00000E+00         0.00000E+00
 
   -0.68376E+07         0.21929E+06         0.00000E+00
    0.21929E+06        -0.41381E+08         0.00000E+00
    0.00000E+00         0.00000E+00         0.00000E+00
 
   -0.56197E+07         0.86711E+06         0.00000E+00
    0.86711E+06        -0.41593E+08         0.00000E+00
    0.00000E+00         0.00000E+00         0.00000E+00
 
   -0.43748E+07         0.16318E+07         0.00000E+00
    0.16318E+07        -0.41905E+08         0.00000E+00
    0.00000E+00         0.00000E+00         0.00000E+00
 
   -0.30992E+07         0.25555E+07         0.00000E+00
    0.25555E+07        -0.42320E+08         0.00000E+00
    0.00000E+00         0.00000E+00         0.00000E+00
 
   -0.18169E+07         0.36914E+07         0.00000E+00
    0.36914E+07        -0.42825E+08         0.00000E+00
    0.00000E+00         0.00000E+00         0.00000E+00
 
   -0.58956E+06         0.50914E+07         0.00000E+00
    0.50914E+07        -0.43380E+08         0.00000E+00
    0.00000E+00         0.00000E+00         0.00000E+00
 
   -0.23610E+08        -0.66414E+06         0.00000E+00
   -0.66414E+06        -0.42934E+08         0.00000E+00
    0.00000E+00         0.00000E+00         0.00000E+00
 
   -0.21154E+08        -0.15021E+07         0.00000E+00
   -0.15021E+07        -0.42973E+08         0.00000E+00
    0.00000E+00         0.00000E+00         0.00000E+00
 
   -0.18840E+08        -0.18329E+07         0.00000E+00
   -0.18329E+07        -0.42946E+08         0.00000E+00
    0.00000E+00         0.00000E+00         0.00000E+00
 
   -0.16788E+08        -0.18490E+07         0.00000E+00
   -0.18490E+07        -0.42828E+08         0.00000E+00
    0.00000E+00         0.00000E+00         0.00000E+00
 
   -0.14995E+08        -0.16914E+07         0.00000E+00
   -0.16914E+07        -0.42654E+08         0.00000E+00
    0.00000E+00         0.00000E+00         0.00000E+00
 
   -0.13407E+08        -0.14363E+07         0.00000E+00
   -0.14363E+07        -0.42471E+08         0.00000E+00
    0.00000E+00         0.00000E+00         0.00000E+00
 
   -0.11965E+08        -0.11194E+07         0.00000E+00
   -0.11194E+07        -0.42315E+08         0.00000E+00
    0.00000E+00         0.00000E+00         0.00000E+00
 
   -0.10619E+08        -0.75502E+06         0.00000E+00
   -0.75502E+06        -0.42215E+08         0.00000E+00
    0.00000E+00         0.00000E+00         0.00000E+00
 
   -0.93223E+07        -0.34492E+06         0.00000E+00
   -0.34492E+06        -0.42190E+08         0.00000E+00
    0.00000E+00         0.00000E+00         0.00000E+00
 
   -0.80333E+07         0.11859E+06         0.00000E+00
    0.11859E+06        -0.42259E+08         0.00000E+00
    0.00000E+00         0.00000E+00         0.00000E+00
 
   -0.67145E+07         0.65298E+06         0.00000E+00
    0.65298E+06        -0.42441E+08         0.00000E+00
    0.00000E+00         0.00000E+00         0.00000E+00
 
   -0.53318E+07         0.12893E+07         0.00000E+00
    0.12893E+07        -0.42754E+08         0.00000E+00
    0.00000E+00         0.00000E+00         0.00000E+00
 
   -0.38627E+07         0.20801E+07         0.00000E+00
    0.20801E+07        -0.43213E+08         0.00000E+00
    0.00000E+00         0.00000E+00         0.00000E+00
 
   -0.23167E+07         0.31043E+07         0.00000E+00
    0.31043E+07        -0.43815E+08         0.00000E+00
    0.00000E+00         0.00000E+00         0.00000E+00
 
   -0.76431E+06         0.44532E+07         0.00000E+00
    0.44532E+07        -0.44517E+08         0.00000E+00
    0.00000E+00         0.00000E+00         0.00000E+00
 
   -0.26644E+08        -0.70137E+06         0.00000E+00
   -0.70137E+06        -0.44793E+08         0.00000E+00
    0.00000E+00         0.00000E+00         0.00000E+00
 
   -0.23513E+08        -0.14490E+07         0.00000E+00
   -0.14490E+07        -0.44747E+08         0.00000E+00
    0.00000E+00         0.00000E+00         0.00000E+00
 
   -0.20790E+08        -0.16320E+07         0.00000E+00
   -0.16320E+07        -0.44534E+08         0.00000E+00
    0.00000E+00         0.00000E+00         0.00000E+00
 
   -0.18531E+08        -0.15605E+07         0.00000E+00
   -0.15605E+07        -0.44200E+08         0.00000E+00
    0.00000E+00         0.00000E+00         0.00000E+00
 
   -0.16627E+08        -0.13825E+07         0.00000E+00
   -0.13825E+07        -0.43836E+08         0.00000E+00
    0.00000E+00         0.00000E+00         0.00000E+00
 
   -0.14970E+08        -0.11527E+07         0.00000E+00
   -0.11527E+07        -0.43497E+08         0.00000E+00
    0.00000E+00         0.00000E+00         0.00000E+00
 
   -0.13478E+08        -0.89201E+06         0.00000E+00
   -0.89201E+06        -0.43218E+08         0.00000E+00
    0.00000E+00         0.00000E+00         0.00000E+00
 
   -0.12086E+08        -0.60645E+06         0.00000E+00
   -0.60645E+06        -0.43020E+08         0.00000E+00
    0.00000E+00         0.00000E+00         0.00000E+00
 
   -0.10739E+08        -0.29412E+06         0.00000E+00
   -0.29412E+06        -0.42921E+08         0.00000E+00
    0.00000E+00         0.00000E+00         0.00000E+00
 
   -0.93886E+07         0.53111E+05         0.00000E+00
    0.53111E+05        -0.42937E+08         0.00000E+00
    0.00000E+00         0.00000E+00         0.00000E+00
 
   -0.79873E+07         0.45080E+06         0.00000E+00
    0.45080E+06        -0.43085E+08         0.00000E+00
    0.00000E+00         0.00000E+00         0.00000E+00
 
   -0.64846E+07         0.92671E+06         0.00000E+00
    0.92671E+06        -0.43390E+08         0.00000E+00
    0.00000E+00         0.00000E+00         0.00000E+00
 
   -0.48259E+07         0.15327E+07         0.00000E+00
    0.15327E+07        -0.43882E+08         0.00000E+00
    0.00000E+00         0.00000E+00         0.00000E+00
 
   -0.29784E+07         0.23748E+07         0.00000E+00
    0.23748E+07        -0.44590E+08         0.00000E+00
    0.00000E+00         0.00000E+00         0.00000E+00
 
   -0.10031E+07         0.36155E+07         0.00000E+00
    0.36155E+07        -0.45485E+08         0.00000E+00
    0.00000E+00         0.00000E+00         0.00000E+00
 
   -0.29669E+08        -0.69610E+06         0.00000E+00
   -0.69610E+06        -0.46673E+08         0.00000E+00
    0.00000E+00         0.00000E+00         0.00000E+00
 
   -0.25716E+08        -0.11725E+07         0.00000E+00
   -0.11725E+07        -0.46397E+08         0.00000E+00
    0.00000E+00         0.00000E+00         0.00000E+00
 
   -0.22672E+08        -0.11722E+07         0.00000E+00
   -0.11722E+07        -0.45865E+08         0.00000E+00
    0.00000E+00         0.00000E+00         0.00000E+00
 
   -0.20294E+08        -0.10607E+07         0.00000E+00
   -0.10607E+07        -0.45275E+08         0.00000E+00
    0.00000E+00         0.00000E+00         0.00000E+00
 
   -0.18331E+08        -0.91244E+06         0.00000E+00
   -0.91244E+06        -0.44722E+08         0.00000E+00
    0.00000E+00         0.00000E+00         0.00000E+00
 
   -0.16638E+08        -0.74833E+06         0.00000E+00
   -0.74833E+06        -0.44244E+08         0.00000E+00
    0.00000E+00         0.00000E+00         0.00000E+00
 
   -0.15116E+08        -0.57455E+06         0.00000E+00
   -0.57455E+06        -0.43861E+08         0.00000E+00
    0.00000E+00         0.00000E+00         0.00000E+00
 
   -0.13694E+08        -0.39128E+06         0.00000E+00
   -0.39128E+06        -0.43584E+08         0.00000E+00
    0.00000E+00         0.00000E+00         0.00000E+00
 
   -0.12312E+08        -0.19534E+06         0.00000E+00
   -0.19534E+06        -0.43426E+08         0.00000E+00
    0.00000E+00         0.00000E+00         0.00000E+00
 
   -0.10919E+08         0.19471E+05         0.00000E+00
    0.19471E+05        -0.43397E+08         0.00000E+00
    0.00000E+00         0.00000E+00         0.00000E+00
 
   -0.94575E+07         0.26375E+06         0.00000E+00
    0.26375E+06        -0.43515E+08         0.00000E+00
    0.00000E+00         0.00000E+00         0.00000E+00
 
   -0.78645E+07         0.55620E+06         0.00000E+00
    0.55620E+06        -0.43805E+08         0.00000E+00
    0.00000E+00         0.00000E+00         0.00000E+00
 
   -0.60547E+07         0.93354E+06         0.00000E+00
    0.93354E+06        -0.44309E+08         0.00000E+00
    0.00000E+00         0.00000E+00         0.00000E+00
 
   -0.38985E+07         0.14845E+07         0.00000E+00
    0.14845E+07        -0.45098E+08         0.00000E+00
    0.00000E+00         0.00000E+00         0.00000E+00
 
   -0.13568E+07         0.24920E+07         0.00000E+00
    0.24920E+07        -0.46248E+08         0.00000E+00
    0.00000E+00         0.00000E+00         0.00000E+00
 
   -0.32415E+08        -0.42168E+06         0.00000E+00
   -0.42168E+06        -0.48250E+08         0.00000E+00
    0.00000E+00         0.00000E+00         0.00000E+00
 
   -0.27714E+08        -0.47757E+06         0.00000E+00
   -0.47757E+06        -0.47502E+08         0.00000E+00
    0.00000E+00         0.00000E+00         0.00000E+00
 
   -0.24560E+08        -0.43227E+06         0.00000E+00
   -0.43227E+06        -0.46654E+08         0.00000E+00
    0.00000E+00         0.00000E+00         0.00000E+00
 
   -0.22138E+08        -0.37757E+06         0.00000E+00
   -0.37757E+06        -0.45876E+08         0.00000E+00
    0.00000E+00         0.00000E+00         0.00000E+00
 
   -0.20152E+08        -0.31878E+06         0.00000E+00
   -0.31878E+06        -0.45201E+08         0.00000E+00
    0.00000E+00         0.00000E+00         0.00000E+00
 
   -0.18440E+08        -0.25865E+06         0.00000E+00
   -0.25865E+06        -0.44639E+08         0.00000E+00
    0.00000E+00         0.00000E+00         0.00000E+00
 
   -0.16900E+08        -0.19734E+06         0.00000E+00
   -0.19734E+06        -0.44196E+08         0.00000E+00
    0.00000E+00         0.00000E+00         0.00000E+00
 
   -0.15457E+08        -0.13403E+06         0.00000E+00
   -0.13403E+06        -0.43875E+08         0.00000E+00
    0.00000E+00         0.00000E+00         0.00000E+00
 
   -0.14053E+08        -0.67248E+05         0.00000E+00
   -0.67248E+05        -0.43683E+08         0.00000E+00
    0.00000E+00         0.00000E+00         0.00000E+00
 
   -0.12632E+08         0.53583E+04         0.00000E+00
    0.53583E+04        -0.43628E+08         0.00000E+00
    0.00000E+00         0.00000E+00         0.00000E+00
 
   -0.11135E+08         0.87513E+05         0.00000E+00
    0.87513E+05        -0.43728E+08         0.00000E+00
    0.00000E+00         0.00000E+00         0.00000E+00
 
   -0.94904E+07         0.18566E+06         0.00000E+00
    0.18566E+06        -0.44006E+08         0.00000E+00
    0.00000E+00         0.00000E+00         0.00000E+00
 
   -0.75930E+07         0.31307E+06         0.00000E+00
    0.31307E+06        -0.44508E+08         0.00000E+00
    0.00000E+00         0.00000E+00         0.00000E+00
 
   -0.52586E+07         0.49916E+06         0.00000E+00
    0.49916E+06        -0.45323E+08         0.00000E+00
    0.00000E+00         0.00000E+00         0.00000E+00
 
   -0.19761E+07         0.92259E+06         0.00000E+00
    0.92259E+06        -0.46704E+08         0.00000E+00
    0.00000E+00         0.00000E+00         0.00000E+00
 
TENSORS stresstot double 
   -0.23933E+08        -0.40164E+06         0.00000E+00
   -0.40164E+06        -0.60385E+08         0.00000E+00
    0.00000E+00         0.00000E+00        -0.53088E+08
 
   -0.28094E+08        -0.44977E+06         0.00000E+00
   -0.44977E+06        -0.61091E+08         0.00000E+00
    0.00000E+00         0.00000E+00        -0.53153E+08
 
   -0.30907E+08        -0.40444E+06         0.00000E+00
   -0.40444E+06        -0.61887E+08         0.00000E+00
    0.00000E+00         0.00000E+00        -0.53267E+08
 
   -0.33117E+08        -0.35328E+06         0.00000E+00
   -0.35328E+06        -0.62616E+08         0.00000E+00
    0.00000E+00         0.00000E+00        -0.53412E+08
 
   -0.34981E+08        -0.30027E+06         0.00000E+00
   -0.30027E+06        -0.63252E+08         0.00000E+00
    0.00000E+00         0.00000E+00        -0.53575E+08
 
   -0.36629E+08        -0.24695E+06         0.00000E+00
   -0.24695E+06        -0.63787E+08         0.00000E+00
    0.00000E+00         0.00000E+00        -0.53749E+08
 
   -0.38143E+08        -0.19267E+06         0.00000E+00
   -0.19267E+06        -0.64218E+08         0.00000E+00
    0.00000E+00         0.00000E+00        -0.53926E+08
 
   -0.39582E+08        -0.13615E+06         0.00000E+00
   -0.13615E+06        -0.64541E+08         0.00000E+00
    0.00000E+00         0.00000E+00        -0.54100E+08
 
   -0.40992E+08        -0.75656E+05         0.00000E+00
   -0.75656E+05        -0.64748E+08         0.00000E+00
    0.00000E+00         0.00000E+00        -0.54266E+08
 
   -0.42419E+08        -0.87811E+04         0.00000E+00
   -0.87811E+04        -0.64829E+08         0.00000E+00
    0.00000E+00         0.00000E+00        -0.54420E+08
 
   -0.43915E+08         0.68160E+05         0.00000E+00
    0.68160E+05        -0.64766E+08         0.00000E+00
    0.00000E+00         0.00000E+00        -0.54559E+08
 
   -0.45543E+08         0.16160E+06         0.00000E+00
    0.16160E+06        -0.64534E+08         0.00000E+00
    0.00000E+00         0.00000E+00        -0.54679E+08
 
   -0.47406E+08         0.28515E+06         0.00000E+00
    0.28515E+06        -0.64085E+08         0.00000E+00
    0.00000E+00         0.00000E+00        -0.54777E+08
 
   -0.49689E+08         0.46988E+06         0.00000E+00
    0.46988E+06        -0.63329E+08         0.00000E+00
    0.00000E+00         0.00000E+00        -0.54847E+08
 
   -0.52931E+08         0.91054E+06         0.00000E+00
    0.91054E+06        -0.61993E+08         0.00000E+00
    0.00000E+00         0.00000E+00        -0.54886E+08
 
   -0.24670E+08        -0.65204E+06         0.00000E+00
   -0.65204E+06        -0.60013E+08         0.00000E+00
    0.00000E+00         0.00000E+00        -0.51278E+08
 
   -0.28126E+08        -0.10889E+07         0.00000E+00
   -0.10889E+07        -0.60259E+08         0.00000E+00
    0.00000E+00         0.00000E+00        -0.51334E+08
 
   -0.30847E+08        -0.10824E+07         0.00000E+00
   -0.10824E+07        -0.60743E+08         0.00000E+00
    0.00000E+00         0.00000E+00        -0.51434E+08
 
   -0.33030E+08        -0.97944E+06         0.00000E+00
   -0.97944E+06        -0.61286E+08         0.00000E+00
    0.00000E+00         0.00000E+00        -0.51566E+08
 
   -0.34884E+08        -0.84735E+06         0.00000E+00
   -0.84735E+06        -0.61800E+08         0.00000E+00
    0.00000E+00         0.00000E+00        -0.51717E+08
 
   -0.36528E+08        -0.70302E+06         0.00000E+00
   -0.70302E+06        -0.62251E+08         0.00000E+00
    0.00000E+00         0.00000E+00        -0.51879E+08
 
   -0.38037E+08        -0.55001E+06         0.00000E+00
   -0.55001E+06        -0.62621E+08         0.00000E+00
    0.00000E+00         0.00000E+00        -0.52045E+08
 
   -0.39468E+08        -0.38698E+06         0.00000E+00
   -0.38698E+06        -0.62898E+08         0.00000E+00
    0.00000E+00         0.00000E+00        -0.52209E+08
 
   -0.40867E+08        -0.21001E+06         0.00000E+00
   -0.21001E+06        -0.63070E+08         0.00000E+00
    0.00000E+00         0.00000E+00        -0.52366E+08
 
   -0.42278E+08        -0.12664E+05         0.00000E+00
   -0.12664E+05        -0.63122E+08         0.00000E+00
    0.00000E+00         0.00000E+00        -0.52511E+08
 
   -0.43748E+08         0.21556E+06         0.00000E+00
    0.21556E+06        -0.63038E+08         0.00000E+00
    0.00000E+00         0.00000E+00        -0.52642E+08
 
   -0.45333E+08         0.49332E+06         0.00000E+00
    0.49332E+06        -0.62790E+08         0.00000E+00
    0.00000E+00         0.00000E+00        -0.52755E+08
 
   -0.47114E+08         0.85823E+06         0.00000E+00
    0.85823E+06        -0.62335E+08         0.00000E+00
    0.00000E+00         0.00000E+00        -0.52845E+08
 
   -0.49215E+08         0.14038E+07         0.00000E+00
    0.14038E+07        -0.61600E+08         0.00000E+00
    0.00000E+00         0.00000E+00        -0.52910E+08
 
   -0.51659E+08         0.24348E+07         0.00000E+00
    0.24348E+07        -0.60509E+08         0.00000E+00
    0.00000E+00         0.00000E+00        -0.52944E+08
 
   -0.25689E+08        -0.63900E+06         0.00000E+00
   -0.63900E+06        -0.59975E+08         0.00000E+00
    0.00000E+00         0.00000E+00        -0.49586E+08
 
   -0.28384E+08        -0.13164E+07         0.00000E+00
   -0.13164E+07        -0.59999E+08         0.00000E+00
    0.00000E+00         0.00000E+00        -0.49636E+08
 
   -0.30822E+08        -0.14799E+07         0.00000E+00
   -0.14799E+07        -0.60178E+08         0.00000E+00
    0.00000E+00         0.00000E+00        -0.49725E+08
 
   -0.32911E+08        -0.14174E+07         0.00000E+00
   -0.14174E+07        -0.60474E+08         0.00000E+00
    0.00000E+00         0.00000E+00        -0.49843E+08
 
   -0.34725E+08        -0.12632E+07         0.00000E+00
   -0.12632E+07        -0.60809E+08         0.00000E+00
    0.00000E+00         0.00000E+00        -0.49981E+08
 
   -0.36346E+08        -0.10643E+07         0.00000E+00
   -0.10643E+07        -0.61127E+08         0.00000E+00
    0.00000E+00         0.00000E+00        -0.50129E+08
 
   -0.37838E+08        -0.83675E+06         0.00000E+00
   -0.83675E+06        -0.61399E+08         0.00000E+00
    0.00000E+00         0.00000E+00        -0.50281E+08
 
   -0.39250E+08        -0.58399E+06         0.00000E+00
   -0.58399E+06        -0.61600E+08         0.00000E+00
    0.00000E+00         0.00000E+00        -0.50431E+08
 
   -0.40625E+08        -0.30275E+06         0.00000E+00
   -0.30275E+06        -0.61715E+08         0.00000E+00
    0.00000E+00         0.00000E+00        -0.50576E+08
 
   -0.42002E+08         0.15546E+05         0.00000E+00
    0.15546E+05        -0.61724E+08         0.00000E+00
    0.00000E+00         0.00000E+00        -0.50710E+08
 
   -0.43420E+08         0.38630E+06         0.00000E+00
    0.38630E+06        -0.61608E+08         0.00000E+00
    0.00000E+00         0.00000E+00        -0.50831E+08
 
   -0.44922E+08         0.83709E+06         0.00000E+00
    0.83709E+06        -0.61343E+08         0.00000E+00
    0.00000E+00         0.00000E+00        -0.50934E+08
 
   -0.46555E+08         0.14205E+07         0.00000E+00
    0.14205E+07        -0.60898E+08         0.00000E+00
    0.00000E+00         0.00000E+00        -0.51017E+08
 
   -0.48340E+08         0.22464E+07         0.00000E+00
    0.22464E+07        -0.60244E+08         0.00000E+00
    0.00000E+00         0.00000E+00        -0.51075E+08
 
   -0.50192E+08         0.34835E+07         0.00000E+00
    0.34835E+07        -0.59422E+08         0.00000E+00
    0.00000E+00         0.00000E+00        -0.51106E+08
 
   -0.26731E+08        -0.58415E+06         0.00000E+00
   -0.58415E+06        -0.59964E+08         0.00000E+00
    0.00000E+00         0.00000E+00        -0.48013E+08
 
   -0.28824E+08        -0.13266E+07         0.00000E+00
   -0.13266E+07        -0.59911E+08         0.00000E+00
    0.00000E+00         0.00000E+00        -0.48056E+08
 
   -0.30904E+08        -0.16246E+07         0.00000E+00
   -0.16246E+07        -0.59915E+08         0.00000E+00
    0.00000E+00         0.00000E+00        -0.48135E+08
 
   -0.32819E+08        -0.16471E+07         0.00000E+00
   -0.16471E+07        -0.60012E+08         0.00000E+00
    0.00000E+00         0.00000E+00        -0.48239E+08
 
   -0.34546E+08        -0.15179E+07         0.00000E+00
   -0.15179E+07        -0.60170E+08         0.00000E+00
    0.00000E+00         0.00000E+00        -0.48360E+08
 
   -0.36116E+08        -0.13021E+07         0.00000E+00
   -0.13021E+07        -0.60346E+08         0.00000E+00
    0.00000E+00         0.00000E+00        -0.48492E+08
 
   -0.37569E+08        -0.10286E+07         0.00000E+00
   -0.10286E+07        -0.60504E+08         0.00000E+00
    0.00000E+00         0.00000E+00        -0.48627E+08
 
   -0.38945E+08        -0.70789E+06         0.00000E+00
   -0.70789E+06        -0.60617E+08         0.00000E+00
    0.00000E+00         0.00000E+00        -0.48762E+08
 
   -0.40279E+08        -0.33967E+06         0.00000E+00
   -0.33967E+06        -0.60662E+08         0.00000E+00
    0.00000E+00         0.00000E+00        -0.48892E+08
 
   -0.41602E+08         0.84398E+05         0.00000E+00
    0.84398E+05        -0.60621E+08         0.00000E+00
    0.00000E+00         0.00000E+00        -0.49013E+08
 
   -0.42945E+08         0.58151E+06         0.00000E+00
    0.58151E+06        -0.60474E+08         0.00000E+00
    0.00000E+00         0.00000E+00        -0.49121E+08
 
   -0.44333E+08         0.11820E+07         0.00000E+00
    0.11820E+07        -0.60201E+08         0.00000E+00
    0.00000E+00         0.00000E+00        -0.49214E+08
 
   -0.45781E+08         0.19378E+07         0.00000E+00
    0.19378E+07        -0.59789E+08         0.00000E+00
    0.00000E+00         0.00000E+00        -0.49288E+08
 
   -0.47264E+08         0.29272E+07         0.00000E+00
    0.29272E+07        -0.59243E+08         0.00000E+00
    0.00000E+00         0.00000E+00        -0.49340E+08
 
   -0.48692E+08         0.42389E+07         0.00000E+00
    0.42389E+07        -0.58615E+08         0.00000E+00
    0.00000E+00         0.00000E+00        -0.49368E+08
 
   -0.27708E+08        -0.51825E+06         0.00000E+00
   -0.51825E+06        -0.59962E+08         0.00000E+00
    0.00000E+00         0.00000E+00        -0.46551E+08
 
   -0.29343E+08        -0.12457E+07         0.00000E+00
   -0.12457E+07        -0.59876E+08         0.00000E+00
    0.00000E+00         0.00000E+00        -0.46588E+08
 
   -0.31085E+08        -0.16120E+07         0.00000E+00
   -0.16120E+07        -0.59792E+08         0.00000E+00
    0.00000E+00         0.00000E+00        -0.46655E+08
 
   -0.32785E+08        -0.17086E+07         0.00000E+00
   -0.17086E+07        -0.59760E+08         0.00000E+00
    0.00000E+00         0.00000E+00        -0.46744E+08
 
   -0.34381E+08        -0.16228E+07         0.00000E+00
   -0.16228E+07        -0.59780E+08         0.00000E+00
    0.00000E+00         0.00000E+00        -0.46848E+08
 
   -0.35865E+08        -0.14153E+07         0.00000E+00
   -0.14153E+07        -0.59830E+08         0.00000E+00
    0.00000E+00         0.00000E+00        -0.46961E+08
 
   -0.37254E+08        -0.11200E+07         0.00000E+00
   -0.11200E+07        -0.59881E+08         0.00000E+00
    0.00000E+00         0.00000E+00        -0.47078E+08
 
   -0.38572E+08        -0.75282E+06         0.00000E+00
   -0.75282E+06        -0.59906E+08         0.00000E+00
    0.00000E+00         0.00000E+00        -0.47195E+08
 
   -0.39845E+08        -0.31695E+06         0.00000E+00
   -0.31695E+06        -0.59884E+08         0.00000E+00
    0.00000E+00         0.00000E+00        -0.47308E+08
 
   -0.41096E+08         0.19379E+06         0.00000E+00
    0.19379E+06        -0.59795E+08         0.00000E+00
    0.00000E+00         0.00000E+00        -0.47413E+08
 
   -0.42345E+08         0.79494E+06         0.00000E+00
    0.79494E+06        -0.59622E+08         0.00000E+00
    0.00000E+00         0.00000E+00        -0.47507E+08
 
   -0.43603E+08         0.15133E+07         0.00000E+00
    0.15133E+07        -0.59352E+08         0.00000E+00
    0.00000E+00         0.00000E+00        -0.47588E+08
 
   -0.44864E+08         0.23884E+07         0.00000E+00
    0.23884E+07        -0.58983E+08         0.00000E+00
    0.00000E+00         0.00000E+00        -0.47653E+08
 
   -0.46093E+08         0.34692E+07         0.00000E+00
    0.34692E+07        -0.58533E+08         0.00000E+00
    0.00000E+00         0.00000E+00        -0.47699E+08
 
   -0.47211E+08         0.47999E+07         0.00000E+00
    0.47999E+07        -0.58047E+08         0.00000E+00
    0.00000E+00         0.00000E+00        -0.47723E+08
 
   -0.28586E+08        -0.45056E+06         0.00000E+00
   -0.45056E+06        -0.59963E+08         0.00000E+00
    0.00000E+00         0.00000E+00        -0.45191E+08
 
   -0.29876E+08        -0.11257E+07         0.00000E+00
   -0.11257E+07        -0.59865E+08         0.00000E+00
    0.00000E+00         0.00000E+00        -0.45221E+08
 
   -0.31324E+08        -0.15131E+07         0.00000E+00
   -0.15131E+07        -0.59738E+08         0.00000E+00
    0.00000E+00         0.00000E+00        -0.45276E+08
 
   -0.32804E+08        -0.16568E+07         0.00000E+00
   -0.16568E+07        -0.59630E+08         0.00000E+00
    0.00000E+00         0.00000E+00        -0.45348E+08
 
   -0.34243E+08        -0.16112E+07         0.00000E+00
   -0.16112E+07        -0.59557E+08         0.00000E+00
    0.00000E+00         0.00000E+00        -0.45434E+08
 
   -0.35614E+08        -0.14222E+07         0.00000E+00
   -0.14222E+07        -0.59512E+08         0.00000E+00
    0.00000E+00         0.00000E+00        -0.45527E+08
 
   -0.36913E+08        -0.11210E+07         0.00000E+00
   -0.11210E+07        -0.59475E+08         0.00000E+00
    0.00000E+00         0.00000E+00        -0.45624E+08
 
   -0.38151E+08        -0.72484E+06         0.00000E+00
   -0.72484E+06        -0.59426E+08         0.00000E+00
    0.00000E+00         0.00000E+00        -0.45721E+08
 
   -0.39344E+08        -0.23983E+06         0.00000E+00
   -0.23983E+06        -0.59347E+08         0.00000E+00
    0.00000E+00         0.00000E+00        -0.45815E+08
 
   -0.40506E+08         0.33721E+06         0.00000E+00
    0.33721E+06        -0.59218E+08         0.00000E+00
    0.00000E+00         0.00000E+00        -0.45903E+08
 
   -0.41647E+08         0.10178E+07         0.00000E+00
    0.10178E+07        -0.59028E+08         0.00000E+00
    0.00000E+00         0.00000E+00        -0.45982E+08
 
   -0.42770E+08         0.18214E+07         0.00000E+00
    0.18214E+07        -0.58768E+08         0.00000E+00
    0.00000E+00         0.00000E+00        -0.46050E+08
 
   -0.43859E+08         0.27739E+07         0.00000E+00
    0.27739E+07        -0.58442E+08         0.00000E+00
    0.00000E+00         0.00000E+00        -0.46105E+08
 
   -0.44879E+08         0.39025E+07         0.00000E+00
    0.39025E+07        -0.58070E+08         0.00000E+00
    0.00000E+00         0.00000E+00        -0.46143E+08
 
   -0.45767E+08         0.52258E+07         0.00000E+00
    0.52258E+07        -0.57688E+08         0.00000E+00
    0.00000E+00         0.00000E+00        -0.46164E+08
 
   -0.29357E+08        -0.38549E+06         0.00000E+00
   -0.38549E+06        -0.59966E+08         0.00000E+00
    0.00000E+00         0.00000E+00        -0.43920E+08
 
   -0.30386E+08        -0.99196E+06         0.00000E+00
   -0.99196E+06        -0.59867E+08         0.00000E+00
    0.00000E+00         0.00000E+00        -0.43943E+08
 
   -0.31589E+08        -0.13711E+07         0.00000E+00
   -0.13711E+07        -0.59723E+08         0.00000E+00
    0.00000E+00         0.00000E+00        -0.43984E+08
 
   -0.32861E+08        -0.15375E+07         0.00000E+00
   -0.15375E+07        -0.59577E+08         0.00000E+00
    0.00000E+00         0.00000E+00        -0.44039E+08
 
   -0.34134E+08        -0.15204E+07         0.00000E+00
   -0.15204E+07        -0.59448E+08         0.00000E+00
    0.00000E+00         0.00000E+00        -0.44105E+08
 
   -0.35371E+08        -0.13500E+07         0.00000E+00
   -0.13500E+07        -0.59338E+08         0.00000E+00
    0.00000E+00         0.00000E+00        -0.44177E+08
 
   -0.36559E+08        -0.10507E+07         0.00000E+00
   -0.10507E+07        -0.59239E+08         0.00000E+00
    0.00000E+00         0.00000E+00        -0.44253E+08
 
   -0.37698E+08        -0.63812E+06         0.00000E+00
   -0.63812E+06        -0.59136E+08         0.00000E+00
    0.00000E+00         0.00000E+00        -0.44329E+08
 
   -0.38794E+08        -0.11969E+06         0.00000E+00
   -0.11969E+06        -0.59013E+08         0.00000E+00
    0.00000E+00         0.00000E+00        -0.44404E+08
 
   -0.39853E+08         0.50478E+06         0.00000E+00
    0.50478E+06        -0.58857E+08         0.00000E+00
    0.00000E+00         0.00000E+00        -0.44473E+08
 
   -0.40879E+08         0.12419E+07         0.00000E+00
    0.12419E+07        -0.58658E+08         0.00000E+00
    0.00000E+00         0.00000E+00        -0.44536E+08
 
   -0.41868E+08         0.21032E+07         0.00000E+00
    0.21032E+07        -0.58413E+08         0.00000E+00
    0.00000E+00         0.00000E+00        -0.44591E+08
 
   -0.42803E+08         0.31028E+07         0.00000E+00
    0.31028E+07        -0.58127E+08         0.00000E+00
    0.00000E+00         0.00000E+00        -0.44634E+08
 
   -0.43653E+08         0.42527E+07         0.00000E+00
    0.42527E+07        -0.57817E+08         0.00000E+00
    0.00000E+00         0.00000E+00        -0.44665E+08
 
   -0.44368E+08         0.55560E+07         0.00000E+00
    0.55560E+07        -0.57512E+08         0.00000E+00
    0.00000E+00         0.00000E+00        -0.44681E+08
 
   -0.30023E+08        -0.32570E+06         0.00000E+00
   -0.32570E+06        -0.59969E+08         0.00000E+00
    0.00000E+00         0.00000E+00        -0.42722E+08
 
   -0.30855E+08        -0.85880E+06         0.00000E+00
   -0.85880E+06        -0.59877E+08         0.00000E+00
    0.00000E+00         0.00000E+00        -0.42737E+08
 
   -0.31855E+08        -0.12131E+07         0.00000E+00
   -0.12131E+07        -0.59732E+08         0.00000E+00
    0.00000E+00         0.00000E+00        -0.42765E+08
 
   -0.32938E+08        -0.13841E+07         0.00000E+00
   -0.13841E+07        -0.59572E+08         0.00000E+00
    0.00000E+00         0.00000E+00        -0.42802E+08
 
   -0.34045E+08        -0.13829E+07         0.00000E+00
   -0.13829E+07        -0.59417E+08         0.00000E+00
    0.00000E+00         0.00000E+00        -0.42848E+08
 
   -0.35139E+08        -0.12266E+07         0.00000E+00
   -0.12266E+07        -0.59272E+08         0.00000E+00
    0.00000E+00         0.00000E+00        -0.42899E+08
 
   -0.36201E+08        -0.93168E+06         0.00000E+00
   -0.93168E+06        -0.59135E+08         0.00000E+00
    0.00000E+00         0.00000E+00        -0.42953E+08
 
   -0.37224E+08        -0.51063E+06         0.00000E+00
   -0.51063E+06        -0.58997E+08         0.00000E+00
    0.00000E+00         0.00000E+00        -0.43007E+08
 
   -0.38209E+08         0.29163E+05         0.00000E+00
    0.29163E+05        -0.58847E+08         0.00000E+00
    0.00000E+00         0.00000E+00        -0.43061E+08
 
   -0.39155E+08         0.68542E+06         0.00000E+00
    0.68542E+06        -0.58677E+08         0.00000E+00
    0.00000E+00         0.00000E+00        -0.43112E+08
 
   -0.40062E+08         0.14601E+07         0.00000E+00
    0.14601E+07        -0.58479E+08         0.00000E+00
    0.00000E+00         0.00000E+00        -0.43159E+08
 
   -0.40923E+08         0.23580E+07         0.00000E+00
    0.23580E+07        -0.58252E+08         0.00000E+00
    0.00000E+00         0.00000E+00        -0.43199E+08
 
   -0.41721E+08         0.33840E+07         0.00000E+00
    0.33840E+07        -0.58001E+08         0.00000E+00
    0.00000E+00         0.00000E+00        -0.43231E+08
 
   -0.42430E+08         0.45394E+07         0.00000E+00
    0.45394E+07        -0.57741E+08         0.00000E+00
    0.00000E+00         0.00000E+00        -0.43254E+08
 
   -0.43014E+08         0.58175E+07         0.00000E+00
    0.58175E+07        -0.57493E+08         0.00000E+00
    0.00000E+00         0.00000E+00        -0.43266E+08
 
   -0.30590E+08        -0.27301E+06         0.00000E+00
   -0.27301E+06        -0.59974E+08         0.00000E+00
    0.00000E+00         0.00000E+00        -0.41581E+08
 
   -0.31276E+08        -0.73523E+06         0.00000E+00
   -0.73523E+06        -0.59891E+08         0.00000E+00
    0.00000E+00         0.00000E+00        -0.41588E+08
 
   -0.32108E+08        -0.10566E+07         0.00000E+00
   -0.10566E+07        -0.59758E+08         0.00000E+00
    0.00000E+00         0.00000E+00        -0.41602E+08
 
   -0.33021E+08        -0.12205E+07         0.00000E+00
   -0.12205E+07        -0.59601E+08         0.00000E+00
    0.00000E+00         0.00000E+00        -0.41622E+08
 
   -0.33968E+08        -0.12251E+07         0.00000E+00
   -0.12251E+07        -0.59440E+08         0.00000E+00
    0.00000E+00         0.00000E+00        -0.41647E+08
 
   -0.34914E+08        -0.10771E+07         0.00000E+00
   -0.10771E+07        -0.59283E+08         0.00000E+00
    0.00000E+00         0.00000E+00        -0.41677E+08
 
   -0.35842E+08        -0.78609E+06         0.00000E+00
   -0.78609E+06        -0.59130E+08         0.00000E+00
    0.00000E+00         0.00000E+00        -0.41709E+08
 
   -0.36739E+08        -0.36086E+06         0.00000E+00
   -0.36086E+06        -0.58977E+08         0.00000E+00
    0.00000E+00         0.00000E+00        -0.41743E+08
 
   -0.37602E+08         0.19188E+06         0.00000E+00
    0.19188E+06        -0.58817E+08         0.00000E+00
    0.00000E+00         0.00000E+00        -0.41776E+08
 
   -0.38429E+08         0.86821E+06         0.00000E+00
    0.86821E+06        -0.58645E+08         0.00000E+00
    0.00000E+00         0.00000E+00        -0.41808E+08
 
   -0.39215E+08         0.16664E+07         0.00000E+00
    0.16664E+07        -0.58456E+08         0.00000E+00
    0.00000E+00         0.00000E+00        -0.41838E+08
 
   -0.39952E+08         0.25858E+07         0.00000E+00
    0.25858E+07        -0.58250E+08         0.00000E+00
    0.00000E+00         0.00000E+00        -0.41864E+08
 
   -0.40627E+08         0.36246E+07         0.00000E+00
    0.36246E+07        -0.58032E+08         0.00000E+00
    0.00000E+00         0.00000E+00        -0.41884E+08
 
   -0.41218E+08         0.47768E+07         0.00000E+00
    0.47768E+07        -0.57812E+08         0.00000E+00
    0.00000E+00         0.00000E+00        -0.41899E+08
 
   -0.41700E+08         0.60296E+07         0.00000E+00
    0.60296E+07        -0.57607E+08         0.00000E+00
    0.00000E+00         0.00000E+00        -0.41907E+08
 
   -0.31069E+08        -0.22862E+06         0.00000E+00
   -0.22862E+06        -0.59979E+08         0.00000E+00
    0.00000E+00         0.00000E+00        -0.40478E+08
 
   -0.31647E+08        -0.62720E+06         0.00000E+00
   -0.62720E+06        -0.59910E+08         0.00000E+00
    0.00000E+00         0.00000E+00        -0.40478E+08
 
   -0.32340E+08        -0.91377E+06         0.00000E+00
   -0.91377E+06        -0.59794E+08         0.00000E+00
    0.00000E+00         0.00000E+00        -0.40479E+08
 
   -0.33102E+08        -0.10638E+07         0.00000E+00
   -0.10638E+07        -0.59653E+08         0.00000E+00
    0.00000E+00         0.00000E+00        -0.40482E+08
 
   -0.33896E+08        -0.10669E+07         0.00000E+00
   -0.10669E+07        -0.59503E+08         0.00000E+00
    0.00000E+00         0.00000E+00        -0.40489E+08
 
   -0.34695E+08        -0.92217E+06         0.00000E+00
   -0.92217E+06        -0.59351E+08         0.00000E+00
    0.00000E+00         0.00000E+00        -0.40497E+08
 
   -0.35483E+08        -0.63323E+06         0.00000E+00
   -0.63323E+06        -0.59200E+08         0.00000E+00
    0.00000E+00         0.00000E+00        -0.40509E+08
 
   -0.36247E+08        -0.20575E+06         0.00000E+00
   -0.20575E+06        -0.59049E+08         0.00000E+00
    0.00000E+00         0.00000E+00        -0.40521E+08
 
   -0.36982E+08         0.35466E+06         0.00000E+00
    0.35466E+06        -0.58894E+08         0.00000E+00
    0.00000E+00         0.00000E+00        -0.40535E+08
 
   -0.37685E+08         0.10431E+07         0.00000E+00
    0.10431E+07        -0.58731E+08         0.00000E+00
    0.00000E+00         0.00000E+00        -0.40549E+08
 
   -0.38349E+08         0.18552E+07         0.00000E+00
    0.18552E+07        -0.58558E+08         0.00000E+00
    0.00000E+00         0.00000E+00        -0.40562E+08
 
   -0.38968E+08         0.27863E+07         0.00000E+00
    0.27863E+07        -0.58376E+08         0.00000E+00
    0.00000E+00         0.00000E+00        -0.40574E+08
 
   -0.39530E+08         0.38297E+07         0.00000E+00
    0.38297E+07        -0.58188E+08         0.00000E+00
    0.00000E+00         0.00000E+00        -0.40583E+08
 
   -0.40021E+08         0.49750E+07         0.00000E+00
    0.49750E+07        -0.58003E+08         0.00000E+00
    0.00000E+00         0.00000E+00        -0.40590E+08
 
   -0.40420E+08         0.62051E+07         0.00000E+00
    0.62051E+07        -0.57832E+08         0.00000E+00
    0.00000E+00         0.00000E+00        -0.40593E+08
 
   -0.31477E+08        -0.19336E+06         0.00000E+00
   -0.19336E+06        -0.59984E+08         0.00000E+00
    0.00000E+00         0.00000E+00        -0.39399E+08
 
   -0.31973E+08        -0.53866E+06         0.00000E+00
   -0.53866E+06        -0.59930E+08         0.00000E+00
    0.00000E+00         0.00000E+00        -0.39391E+08
 
   -0.32549E+08        -0.79268E+06         0.00000E+00
   -0.79268E+06        -0.59837E+08         0.00000E+00
    0.00000E+00         0.00000E+00        -0.39380E+08
 
   -0.33174E+08        -0.92627E+06         0.00000E+00
   -0.92627E+06        -0.59721E+08         0.00000E+00
    0.00000E+00         0.00000E+00        -0.39368E+08
 
   -0.33824E+08        -0.92352E+06         0.00000E+00
   -0.92352E+06        -0.59593E+08         0.00000E+00
    0.00000E+00         0.00000E+00        -0.39356E+08
 
   -0.34478E+08        -0.77794E+06         0.00000E+00
   -0.77794E+06        -0.59460E+08         0.00000E+00
    0.00000E+00         0.00000E+00        -0.39346E+08
 
   -0.35123E+08        -0.48902E+06         0.00000E+00
   -0.48902E+06        -0.59325E+08         0.00000E+00
    0.00000E+00         0.00000E+00        -0.39337E+08
 
   -0.35751E+08        -0.59673E+05         0.00000E+00
   -0.59673E+05        -0.59189E+08         0.00000E+00
    0.00000E+00         0.00000E+00        -0.39330E+08
 
   -0.36354E+08         0.50555E+06         0.00000E+00
    0.50555E+06        -0.59050E+08         0.00000E+00
    0.00000E+00         0.00000E+00        -0.39325E+08
 
   -0.36930E+08         0.12013E+07         0.00000E+00
    0.12013E+07        -0.58906E+08         0.00000E+00
    0.00000E+00         0.00000E+00        -0.39321E+08
 
   -0.37473E+08         0.20214E+07         0.00000E+00
    0.20214E+07        -0.58756E+08         0.00000E+00
    0.00000E+00         0.00000E+00        -0.39319E+08
 
   -0.37978E+08         0.29584E+07         0.00000E+00
    0.29584E+07        -0.58600E+08         0.00000E+00
    0.00000E+00         0.00000E+00        -0.39317E+08
 
   -0.38436E+08         0.40027E+07         0.00000E+00
    0.40027E+07        -0.58443E+08         0.00000E+00
    0.00000E+00         0.00000E+00        -0.39316E+08
 
   -0.38836E+08         0.51405E+07         0.00000E+00
    0.51405E+07        -0.58288E+08         0.00000E+00
    0.00000E+00         0.00000E+00        -0.39315E+08
 
   -0.39168E+08         0.63529E+07         0.00000E+00
    0.63529E+07        -0.58145E+08         0.00000E+00
    0.00000E+00         0.00000E+00        -0.39315E+08
 
   -0.31828E+08        -0.16767E+06         0.00000E+00
   -0.16767E+06        -0.59990E+08         0.00000E+00
    0.00000E+00         0.00000E+00        -0.38325E+08
 
   -0.32261E+08        -0.47215E+06         0.00000E+00
   -0.47215E+06        -0.59952E+08         0.00000E+00
    0.00000E+00         0.00000E+00        -0.38312E+08
 
   -0.32735E+08        -0.69889E+06         0.00000E+00
   -0.69889E+06        -0.59885E+08         0.00000E+00
    0.00000E+00         0.00000E+00        -0.38290E+08
 
   -0.33235E+08        -0.81649E+06         0.00000E+00
   -0.81649E+06        -0.59799E+08         0.00000E+00
    0.00000E+00         0.00000E+00        -0.38264E+08
 
   -0.33747E+08        -0.80574E+06         0.00000E+00
   -0.80574E+06        -0.59701E+08         0.00000E+00
    0.00000E+00         0.00000E+00        -0.38236E+08
 
   -0.34259E+08        -0.65668E+06         0.00000E+00
   -0.65668E+06        -0.59597E+08         0.00000E+00
    0.00000E+00         0.00000E+00        -0.38208E+08
 
   -0.34763E+08        -0.36585E+06         0.00000E+00
   -0.36585E+06        -0.59489E+08         0.00000E+00
    0.00000E+00         0.00000E+00        -0.38181E+08
 
   -0.35251E+08         0.65864E+05         0.00000E+00
    0.65864E+05        -0.59379E+08         0.00000E+00
    0.00000E+00         0.00000E+00        -0.38156E+08
 
   -0.35721E+08         0.63482E+06         0.00000E+00
    0.63482E+06        -0.59265E+08         0.00000E+00
    0.00000E+00         0.00000E+00        -0.38133E+08
 
   -0.36169E+08         0.13354E+07         0.00000E+00
    0.13354E+07        -0.59147E+08         0.00000E+00
    0.00000E+00         0.00000E+00        -0.38114E+08
 
   -0.36591E+08         0.21606E+07         0.00000E+00
    0.21606E+07        -0.59025E+08         0.00000E+00
    0.00000E+00         0.00000E+00        -0.38097E+08
 
   -0.36985E+08         0.31011E+07         0.00000E+00
    0.31011E+07        -0.58899E+08         0.00000E+00
    0.00000E+00         0.00000E+00        -0.38082E+08
 
   -0.37344E+08         0.41452E+07         0.00000E+00
    0.41452E+07        -0.58771E+08         0.00000E+00
    0.00000E+00         0.00000E+00        -0.38071E+08
 
   -0.37663E+08         0.52777E+07         0.00000E+00
    0.52777E+07        -0.58646E+08         0.00000E+00
    0.00000E+00         0.00000E+00        -0.38063E+08
 
   -0.37935E+08         0.64784E+07         0.00000E+00
    0.64784E+07        -0.58526E+08         0.00000E+00
    0.00000E+00         0.00000E+00        -0.38059E+08
 
   -0.32140E+08        -0.15176E+06         0.00000E+00
   -0.15176E+06        -0.59995E+08         0.00000E+00
    0.00000E+00         0.00000E+00        -0.37244E+08
 
   -0.32519E+08        -0.42913E+06         0.00000E+00
   -0.42913E+06        -0.59974E+08         0.00000E+00
    0.00000E+00         0.00000E+00        -0.37226E+08
 
   -0.32902E+08        -0.63586E+06         0.00000E+00
   -0.63586E+06        -0.59935E+08         0.00000E+00
    0.00000E+00         0.00000E+00        -0.37195E+08
 
   -0.33285E+08        -0.74010E+06         0.00000E+00
   -0.74010E+06        -0.59883E+08         0.00000E+00
    0.00000E+00         0.00000E+00        -0.37156E+08
 
   -0.33665E+08        -0.72115E+06         0.00000E+00
   -0.72115E+06        -0.59820E+08         0.00000E+00
    0.00000E+00         0.00000E+00        -0.37114E+08
 
   -0.34038E+08        -0.56713E+06         0.00000E+00
   -0.56713E+06        -0.59752E+08         0.00000E+00
    0.00000E+00         0.00000E+00        -0.37070E+08
 
   -0.34399E+08        -0.27280E+06         0.00000E+00
   -0.27280E+06        -0.59678E+08         0.00000E+00
    0.00000E+00         0.00000E+00        -0.37027E+08
 
   -0.34749E+08         0.16224E+06         0.00000E+00
    0.16224E+06        -0.59600E+08         0.00000E+00
    0.00000E+00         0.00000E+00        -0.36986E+08
 
   -0.35083E+08         0.73500E+06         0.00000E+00
    0.73500E+06        -0.59519E+08         0.00000E+00
    0.00000E+00         0.00000E+00        -0.36948E+08
 
   -0.35402E+08         0.14399E+07         0.00000E+00
    0.14399E+07        -0.59433E+08         0.00000E+00
    0.00000E+00         0.00000E+00        -0.36914E+08
 
   -0.35705E+08         0.22692E+07         0.00000E+00
    0.22692E+07        -0.59343E+08         0.00000E+00
    0.00000E+00         0.00000E+00        -0.36883E+08
 
   -0.35989E+08         0.32128E+07         0.00000E+00
    0.32128E+07        -0.59249E+08         0.00000E+00
    0.00000E+00         0.00000E+00        -0.36858E+08
 
   -0.36253E+08         0.42580E+07         0.00000E+00
    0.42580E+07        -0.59152E+08         0.00000E+00
    0.00000E+00         0.00000E+00        -0.36838E+08
 
   -0.36495E+08         0.53885E+07         0.00000E+00
    0.53885E+07        -0.59054E+08         0.00000E+00
    0.00000E+00         0.00000E+00        -0.36823E+08
 
   -0.36712E+08         0.65845E+07         0.00000E+00
    0.65845E+07        -0.58956E+08         0.00000E+00
    0.00000E+00         0.00000E+00        -0.36816E+08
 
   -0.32431E+08        -0.14558E+06         0.00000E+00
   -0.14558E+06        -0.60001E+08         0.00000E+00
    0.00000E+00         0.00000E+00        -0.36143E+08
 
   -0.32760E+08        -0.41019E+06         0.00000E+00
   -0.41019E+06        -0.59996E+08         0.00000E+00
    0.00000E+00         0.00000E+00        -0.36120E+08
 
   -0.33056E+08        -0.60545E+06         0.00000E+00
   -0.60545E+06        -0.59986E+08         0.00000E+00
    0.00000E+00         0.00000E+00        -0.36081E+08
 
   -0.33326E+08        -0.70047E+06         0.00000E+00
   -0.70047E+06        -0.59969E+08         0.00000E+00
    0.00000E+00         0.00000E+00        -0.36032E+08
 
   -0.33577E+08        -0.67445E+06         0.00000E+00
   -0.67445E+06        -0.59945E+08         0.00000E+00
    0.00000E+00         0.00000E+00        -0.35978E+08
 
   -0.33811E+08        -0.51494E+06         0.00000E+00
   -0.51494E+06        -0.59915E+08         0.00000E+00
    0.00000E+00         0.00000E+00        -0.35921E+08
 
   -0.34032E+08        -0.21597E+06         0.00000E+00
   -0.21597E+06        -0.59880E+08         0.00000E+00
    0.00000E+00         0.00000E+00        -0.35864E+08
 
   -0.34242E+08         0.22351E+06         0.00000E+00
    0.22351E+06        -0.59841E+08         0.00000E+00
    0.00000E+00         0.00000E+00        -0.35809E+08
 
   -0.34441E+08         0.80084E+06         0.00000E+00
    0.80084E+06        -0.59796E+08         0.00000E+00
    0.00000E+00         0.00000E+00        -0.35757E+08
 
   -0.34632E+08         0.15105E+07         0.00000E+00
    0.15105E+07        -0.59746E+08         0.00000E+00
    0.00000E+00         0.00000E+00        -0.35710E+08
 
   -0.34815E+08         0.23444E+07         0.00000E+00
    0.23444E+07        -0.59690E+08         0.00000E+00
    0.00000E+00         0.00000E+00        -0.35669E+08
 
   -0.34991E+08         0.32923E+07         0.00000E+00
    0.32923E+07        -0.59630E+08         0.00000E+00
    0.00000E+00         0.00000E+00        -0.35634E+08
 
   -0.35162E+08         0.43408E+07         0.00000E+00
    0.43408E+07        -0.59565E+08         0.00000E+00
    0.00000E+00         0.00000E+00        -0.35605E+08
 
   -0.35328E+08         0.54740E+07         0.00000E+00
    0.54740E+07        -0.59494E+08         0.00000E+00
    0.00000E+00         0.00000E+00        -0.35586E+08
 
   -0.35491E+08         0.66721E+07         0.00000E+00
    0.66721E+07        -0.59419E+08         0.00000E+00
    0.00000E+00         0.00000E+00        -0.35575E+08
 
   -0.32717E+08        -0.14888E+06         0.00000E+00
   -0.14888E+06        -0.60006E+08         0.00000E+00
    0.00000E+00         0.00000E+00        -0.35009E+08
 
   -0.32995E+08        -0.41520E+06         0.00000E+00
   -0.41520E+06        -0.60018E+08         0.00000E+00
    0.00000E+00         0.00000E+00        -0.34984E+08
 
   -0.33202E+08        -0.60820E+06         0.00000E+00
   -0.60820E+06        -0.60036E+08         0.00000E+00
    0.00000E+00         0.00000E+00        -0.34939E+08
 
   -0.33360E+08        -0.69900E+06         0.00000E+00
   -0.69900E+06        -0.60054E+08         0.00000E+00
    0.00000E+00         0.00000E+00        -0.34882E+08
 
   -0.33482E+08        -0.66797E+06         0.00000E+00
   -0.66797E+06        -0.60070E+08         0.00000E+00
    0.00000E+00         0.00000E+00        -0.34817E+08
 
   -0.33580E+08        -0.50316E+06         0.00000E+00
   -0.50316E+06        -0.60081E+08         0.00000E+00
    0.00000E+00         0.00000E+00        -0.34749E+08
 
   -0.33660E+08        -0.19876E+06         0.00000E+00
   -0.19876E+06        -0.60087E+08         0.00000E+00
    0.00000E+00         0.00000E+00        -0.34680E+08
 
   -0.33730E+08         0.24623E+06         0.00000E+00
    0.24623E+06        -0.60087E+08         0.00000E+00
    0.00000E+00         0.00000E+00        -0.34614E+08
 
   -0.33794E+08         0.82919E+06         0.00000E+00
    0.82919E+06        -0.60081E+08         0.00000E+00
    0.00000E+00         0.00000E+00        -0.34551E+08
 
   -0.33856E+08         0.15446E+07         0.00000E+00
    0.15446E+07        -0.60069E+08         0.00000E+00
    0.00000E+00         0.00000E+00        -0.34494E+08
 
   -0.33919E+08         0.23844E+07         0.00000E+00
    0.23844E+07        -0.60050E+08         0.00000E+00
    0.00000E+00         0.00000E+00        -0.34443E+08
 
   -0.33988E+08         0.33383E+07         0.00000E+00
    0.33383E+07        -0.60024E+08         0.00000E+00
    0.00000E+00         0.00000E+00        -0.34399E+08
 
   -0.34065E+08         0.43934E+07         0.00000E+00
    0.43934E+07        -0.59991E+08         0.00000E+00
    0.00000E+00         0.00000E+00        -0.34365E+08
 
   -0.34155E+08         0.55338E+07         0.00000E+00
    0.55338E+07        -0.59949E+08         0.00000E+00
    0.00000E+00         0.00000E+00        -0.34340E+08
 
   -0.34264E+08         0.67408E+07         0.00000E+00
    0.67408E+07        -0.59896E+08         0.00000E+00
    0.00000E+00         0.00000E+00        -0.34327E+08
 
   -0.33017E+08        -0.16129E+06         0.00000E+00
   -0.16129E+06        -0.60010E+08         0.00000E+00
    0.00000E+00         0.00000E+00        -0.33835E+08
 
   -0.33234E+08        -0.44344E+06         0.00000E+00
   -0.44344E+06        -0.60038E+08         0.00000E+00
    0.00000E+00         0.00000E+00        -0.33807E+08
 
   -0.33349E+08        -0.64347E+06         0.00000E+00
   -0.64347E+06        -0.60084E+08         0.00000E+00
    0.00000E+00         0.00000E+00        -0.33758E+08
 
   -0.33392E+08        -0.73547E+06         0.00000E+00
   -0.73547E+06        -0.60136E+08         0.00000E+00
    0.00000E+00         0.00000E+00        -0.33694E+08
 
   -0.33384E+08        -0.70194E+06         0.00000E+00
   -0.70194E+06        -0.60191E+08         0.00000E+00
    0.00000E+00         0.00000E+00        -0.33622E+08
 
   -0.33343E+08        -0.53243E+06         0.00000E+00
   -0.53243E+06        -0.60242E+08         0.00000E+00
    0.00000E+00         0.00000E+00        -0.33546E+08
 
   -0.33282E+08        -0.22217E+06         0.00000E+00
   -0.22217E+06        -0.60288E+08         0.00000E+00
    0.00000E+00         0.00000E+00        -0.33468E+08
 
   -0.33212E+08         0.22925E+06         0.00000E+00
    0.22925E+06        -0.60328E+08         0.00000E+00
    0.00000E+00         0.00000E+00        -0.33393E+08
 
   -0.33141E+08         0.81888E+06         0.00000E+00
    0.81888E+06        -0.60361E+08         0.00000E+00
    0.00000E+00         0.00000E+00        -0.33321E+08
 
   -0.33074E+08         0.15412E+07         0.00000E+00
    0.15412E+07        -0.60387E+08         0.00000E+00
    0.00000E+00         0.00000E+00        -0.33255E+08
 
   -0.33017E+08         0.23883E+07         0.00000E+00
    0.23883E+07        -0.60405E+08         0.00000E+00
    0.00000E+00         0.00000E+00        -0.33196E+08
 
   -0.32977E+08         0.33502E+07         0.00000E+00
    0.33502E+07        -0.60415E+08         0.00000E+00
    0.00000E+00         0.00000E+00        -0.33146E+08
 
   -0.32960E+08         0.44147E+07         0.00000E+00
    0.44147E+07        -0.60415E+08         0.00000E+00
    0.00000E+00         0.00000E+00        -0.33106E+08
 
   -0.32972E+08         0.55669E+07         0.00000E+00
    0.55669E+07        -0.60402E+08         0.00000E+00
    0.00000E+00         0.00000E+00        -0.33078E+08
 
   -0.33022E+08         0.67892E+07         0.00000E+00
    0.67892E+07        -0.60374E+08         0.00000E+00
    0.00000E+00         0.00000E+00        -0.33062E+08
 
   -0.33347E+08        -0.18226E+06         0.00000E+00
   -0.18226E+06        -0.60015E+08         0.00000E+00
    0.00000E+00         0.00000E+00        -0.32612E+08
 
   -0.33490E+08        -0.49365E+06         0.00000E+00
   -0.49365E+06        -0.60058E+08         0.00000E+00
    0.00000E+00         0.00000E+00        -0.32583E+08
 
   -0.33503E+08        -0.70965E+06         0.00000E+00
   -0.70965E+06        -0.60128E+08         0.00000E+00
    0.00000E+00         0.00000E+00        -0.32531E+08
 
   -0.33424E+08        -0.80813E+06         0.00000E+00
   -0.80813E+06        -0.60213E+08         0.00000E+00
    0.00000E+00         0.00000E+00        -0.32463E+08
 
   -0.33282E+08        -0.77466E+06         0.00000E+00
   -0.77466E+06        -0.60303E+08         0.00000E+00
    0.00000E+00         0.00000E+00        -0.32385E+08
 
   -0.33101E+08        -0.60124E+06         0.00000E+00
   -0.60124E+06        -0.60392E+08         0.00000E+00
    0.00000E+00         0.00000E+00        -0.32303E+08
 
   -0.32898E+08        -0.28490E+06         0.00000E+00
   -0.28490E+06        -0.60477E+08         0.00000E+00
    0.00000E+00         0.00000E+00        -0.32219E+08
 
   -0.32688E+08         0.17358E+06         0.00000E+00
    0.17358E+06        -0.60554E+08         0.00000E+00
    0.00000E+00         0.00000E+00        -0.32137E+08
 
   -0.32480E+08         0.77062E+06         0.00000E+00
    0.77062E+06        -0.60624E+08         0.00000E+00
    0.00000E+00         0.00000E+00        -0.32059E+08
 
   -0.32284E+08         0.15006E+07         0.00000E+00
    0.15006E+07        -0.60687E+08         0.00000E+00
    0.00000E+00         0.00000E+00        -0.31986E+08
 
   -0.32107E+08         0.23559E+07         0.00000E+00
    0.23559E+07        -0.60741E+08         0.00000E+00
    0.00000E+00         0.00000E+00        -0.31922E+08
 
   -0.31957E+08         0.33274E+07         0.00000E+00
    0.33274E+07        -0.60786E+08         0.00000E+00
    0.00000E+00         0.00000E+00        -0.31867E+08
 
   -0.31843E+08         0.44039E+07         0.00000E+00
    0.44039E+07        -0.60820E+08         0.00000E+00
    0.00000E+00         0.00000E+00        -0.31823E+08
 
   -0.31773E+08         0.55718E+07         0.00000E+00
    0.55718E+07        -0.60838E+08         0.00000E+00
    0.00000E+00         0.00000E+00        -0.31791E+08
 
   -0.31761E+08         0.68148E+07         0.00000E+00
    0.68148E+07        -0.60837E+08         0.00000E+00
    0.00000E+00         0.00000E+00        -0.31774E+08
 
   -0.33721E+08        -0.21115E+06         0.00000E+00
   -0.21115E+06        -0.60019E+08         0.00000E+00
    0.00000E+00         0.00000E+00        -0.31336E+08
 
   -0.33773E+08        -0.56411E+06         0.00000E+00
   -0.56411E+06        -0.60075E+08         0.00000E+00
    0.00000E+00         0.00000E+00        -0.31305E+08
 
   -0.33671E+08        -0.80419E+06         0.00000E+00
   -0.80419E+06        -0.60168E+08         0.00000E+00
    0.00000E+00         0.00000E+00        -0.31251E+08
 
   -0.33461E+08        -0.91383E+06         0.00000E+00
   -0.91383E+06        -0.60282E+08         0.00000E+00
    0.00000E+00         0.00000E+00        -0.31181E+08
 
   -0.33179E+08        -0.88263E+06         0.00000E+00
   -0.88263E+06        -0.60404E+08         0.00000E+00
    0.00000E+00         0.00000E+00        -0.31101E+08
 
   -0.32854E+08        -0.70596E+06         0.00000E+00
   -0.70596E+06        -0.60527E+08         0.00000E+00
    0.00000E+00         0.00000E+00        -0.31015E+08
 
   -0.32507E+08        -0.38343E+06         0.00000E+00
   -0.38343E+06        -0.60644E+08         0.00000E+00
    0.00000E+00         0.00000E+00        -0.30927E+08
 
   -0.32155E+08         0.82383E+05         0.00000E+00
    0.82383E+05        -0.60755E+08         0.00000E+00
    0.00000E+00         0.00000E+00        -0.30840E+08
 
   -0.31812E+08         0.68700E+06         0.00000E+00
    0.68700E+06        -0.60858E+08         0.00000E+00
    0.00000E+00         0.00000E+00        -0.30758E+08
 
   -0.31486E+08         0.14246E+07         0.00000E+00
    0.14246E+07        -0.60954E+08         0.00000E+00
    0.00000E+00         0.00000E+00        -0.30681E+08
 
   -0.31188E+08         0.22883E+07         0.00000E+00
    0.22883E+07        -0.61042E+08         0.00000E+00
    0.00000E+00         0.00000E+00        -0.30613E+08
 
   -0.30926E+08         0.32700E+07         0.00000E+00
    0.32700E+07        -0.61122E+08         0.00000E+00
    0.00000E+00         0.00000E+00        -0.30554E+08
 
   -0.30711E+08         0.43599E+07         0.00000E+00
    0.43599E+07        -0.61190E+08         0.00000E+00
    0.00000E+00         0.00000E+00        -0.30507E+08
 
   -0.30555E+08         0.55462E+07         0.00000E+00
    0.55462E+07        -0.61241E+08         0.00000E+00
    0.00000E+00         0.00000E+00        -0.30474E+08
 
   -0.30472E+08         0.68145E+07         0.00000E+00
    0.68145E+07        -0.61269E+08         0.00000E+00
    0.00000E+00         0.00000E+00        -0.30456E+08
 
   -0.34154E+08        -0.24719E+06         0.00000E+00
   -0.24719E+06        -0.60022E+08         0.00000E+00
    0.00000E+00         0.00000E+00        -0.30000E+08
 
   -0.34093E+08        -0.65261E+06         0.00000E+00
   -0.65261E+06        -0.60090E+08         0.00000E+00
    0.00000E+00         0.00000E+00        -0.29970E+08
 
   -0.33859E+08        -0.92359E+06         0.00000E+00
   -0.92359E+06        -0.60203E+08         0.00000E+00
    0.00000E+00         0.00000E+00        -0.29916E+08
 
   -0.33506E+08        -0.10480E+07         0.00000E+00
   -0.10480E+07        -0.60342E+08         0.00000E+00
    0.00000E+00         0.00000E+00        -0.29845E+08
 
   -0.33075E+08        -0.10205E+07         0.00000E+00
   -0.10205E+07        -0.60490E+08         0.00000E+00
    0.00000E+00         0.00000E+00        -0.29763E+08
 
   -0.32601E+08        -0.84081E+06         0.00000E+00
   -0.84081E+06        -0.60638E+08         0.00000E+00
    0.00000E+00         0.00000E+00        -0.29676E+08
 
   -0.32109E+08        -0.51205E+06         0.00000E+00
   -0.51205E+06        -0.60782E+08         0.00000E+00
    0.00000E+00         0.00000E+00        -0.29586E+08
 
   -0.31616E+08        -0.39074E+05         0.00000E+00
   -0.39074E+05        -0.60919E+08         0.00000E+00
    0.00000E+00         0.00000E+00        -0.29498E+08
 
   -0.31137E+08         0.57244E+06         0.00000E+00
    0.57244E+06        -0.61050E+08         0.00000E+00
    0.00000E+00         0.00000E+00        -0.29413E+08
 
   -0.30681E+08         0.13166E+07         0.00000E+00
    0.13166E+07        -0.61175E+08         0.00000E+00
    0.00000E+00         0.00000E+00        -0.29334E+08
 
   -0.30260E+08         0.21874E+07         0.00000E+00
    0.21874E+07        -0.61295E+08         0.00000E+00
    0.00000E+00         0.00000E+00        -0.29263E+08
 
   -0.29883E+08         0.31783E+07         0.00000E+00
    0.31783E+07        -0.61407E+08         0.00000E+00
    0.00000E+00         0.00000E+00        -0.29203E+08
 
   -0.29563E+08         0.42815E+07         0.00000E+00
    0.42815E+07        -0.61509E+08         0.00000E+00
    0.00000E+00         0.00000E+00        -0.29155E+08
 
   -0.29314E+08         0.54876E+07         0.00000E+00
    0.54876E+07        -0.61596E+08         0.00000E+00
    0.00000E+00         0.00000E+00        -0.29120E+08
 
   -0.29153E+08         0.67841E+07         0.00000E+00
    0.67841E+07        -0.61657E+08         0.00000E+00
    0.00000E+00         0.00000E+00        -0.29102E+08
 
   -0.34658E+08        -0.28954E+06         0.00000E+00
   -0.28954E+06        -0.60025E+08         0.00000E+00
    0.00000E+00         0.00000E+00        -0.28603E+08
 
   -0.34457E+08        -0.75651E+06         0.00000E+00
   -0.75651E+06        -0.60103E+08         0.00000E+00
    0.00000E+00         0.00000E+00        -0.28573E+08
 
   -0.34071E+08        -0.10634E+07         0.00000E+00
   -0.10634E+07        -0.60232E+08         0.00000E+00
    0.00000E+00         0.00000E+00        -0.28520E+08
 
   -0.33559E+08        -0.12045E+07         0.00000E+00
   -0.12045E+07        -0.60388E+08         0.00000E+00
    0.00000E+00         0.00000E+00        -0.28450E+08
 
   -0.32971E+08        -0.11809E+07         0.00000E+00
   -0.11809E+07        -0.60555E+08         0.00000E+00
    0.00000E+00         0.00000E+00        -0.28370E+08
 
   -0.32344E+08        -0.99777E+06         0.00000E+00
   -0.99777E+06        -0.60721E+08         0.00000E+00
    0.00000E+00         0.00000E+00        -0.28283E+08
 
   -0.31704E+08        -0.66266E+06         0.00000E+00
   -0.66266E+06        -0.60882E+08         0.00000E+00
    0.00000E+00         0.00000E+00        -0.28193E+08
 
   -0.31070E+08        -0.18331E+06         0.00000E+00
   -0.18331E+06        -0.61037E+08         0.00000E+00
    0.00000E+00         0.00000E+00        -0.28105E+08
 
   -0.30456E+08         0.43328E+06         0.00000E+00
    0.43328E+06        -0.61187E+08         0.00000E+00
    0.00000E+00         0.00000E+00        -0.28020E+08
 
   -0.29871E+08         0.11813E+07         0.00000E+00
    0.11813E+07        -0.61335E+08         0.00000E+00
    0.00000E+00         0.00000E+00        -0.27941E+08
 
   -0.29326E+08         0.20559E+07         0.00000E+00
    0.20559E+07        -0.61481E+08         0.00000E+00
    0.00000E+00         0.00000E+00        -0.27870E+08
 
   -0.28831E+08         0.30529E+07         0.00000E+00
    0.30529E+07        -0.61624E+08         0.00000E+00
    0.00000E+00         0.00000E+00        -0.27809E+08
 
   -0.28399E+08         0.41673E+07         0.00000E+00
    0.41673E+07        -0.61762E+08         0.00000E+00
    0.00000E+00         0.00000E+00        -0.27760E+08
 
   -0.28049E+08         0.53925E+07         0.00000E+00
    0.53925E+07        -0.61886E+08         0.00000E+00
    0.00000E+00         0.00000E+00        -0.27725E+08
 
   -0.27799E+08         0.67188E+07         0.00000E+00
    0.67188E+07        -0.61985E+08         0.00000E+00
    0.00000E+00         0.00000E+00        -0.27707E+08
 
   -0.35243E+08        -0.33722E+06         0.00000E+00
   -0.33722E+06        -0.60028E+08         0.00000E+00
    0.00000E+00         0.00000E+00        -0.27143E+08
 
   -0.34872E+08        -0.87261E+06         0.00000E+00
   -0.87261E+06        -0.60113E+08         0.00000E+00
    0.00000E+00         0.00000E+00        -0.27114E+08
 
   -0.34308E+08        -0.12179E+07         0.00000E+00
   -0.12179E+07        -0.60253E+08         0.00000E+00
    0.00000E+00         0.00000E+00        -0.27063E+08
 
   -0.33622E+08        -0.13755E+07         0.00000E+00
   -0.13755E+07        -0.60420E+08         0.00000E+00
    0.00000E+00         0.00000E+00        -0.26996E+08
 
   -0.32866E+08        -0.13541E+07         0.00000E+00
   -0.13541E+07        -0.60595E+08         0.00000E+00
    0.00000E+00         0.00000E+00        -0.26917E+08
 
   -0.32081E+08        -0.11663E+07         0.00000E+00
   -0.11663E+07        -0.60767E+08         0.00000E+00
    0.00000E+00         0.00000E+00        -0.26833E+08
 
   -0.31293E+08        -0.82467E+06         0.00000E+00
   -0.82467E+06        -0.60933E+08         0.00000E+00
    0.00000E+00         0.00000E+00        -0.26746E+08
 
   -0.30520E+08        -0.34051E+06         0.00000E+00
   -0.34051E+06        -0.61094E+08         0.00000E+00
    0.00000E+00         0.00000E+00        -0.26659E+08
 
   -0.29773E+08         0.27776E+06         0.00000E+00
    0.27776E+06        -0.61254E+08         0.00000E+00
    0.00000E+00         0.00000E+00        -0.26576E+08
 
   -0.29060E+08         0.10247E+07         0.00000E+00
    0.10247E+07        -0.61416E+08         0.00000E+00
    0.00000E+00         0.00000E+00        -0.26499E+08
 
   -0.28390E+08         0.18974E+07         0.00000E+00
    0.18974E+07        -0.61583E+08         0.00000E+00
    0.00000E+00         0.00000E+00        -0.26429E+08
 
   -0.27773E+08         0.28947E+07         0.00000E+00
    0.28947E+07        -0.61756E+08         0.00000E+00
    0.00000E+00         0.00000E+00        -0.26369E+08
 
   -0.27223E+08         0.40153E+07         0.00000E+00
    0.40153E+07        -0.61929E+08         0.00000E+00
    0.00000E+00         0.00000E+00        -0.26321E+08
 
   -0.26760E+08         0.52566E+07         0.00000E+00
    0.52566E+07        -0.62094E+08         0.00000E+00
    0.00000E+00         0.00000E+00        -0.26286E+08
 
   -0.26408E+08         0.66125E+07         0.00000E+00
    0.66125E+07        -0.62238E+08         0.00000E+00
    0.00000E+00         0.00000E+00        -0.26268E+08
 
   -0.35918E+08        -0.38919E+06         0.00000E+00
   -0.38919E+06        -0.60029E+08         0.00000E+00
    0.00000E+00         0.00000E+00        -0.25620E+08
 
   -0.35339E+08        -0.99711E+06         0.00000E+00
   -0.99711E+06        -0.60120E+08         0.00000E+00
    0.00000E+00         0.00000E+00        -0.25593E+08
 
   -0.34571E+08        -0.13802E+07         0.00000E+00
   -0.13802E+07        -0.60265E+08         0.00000E+00
    0.00000E+00         0.00000E+00        -0.25544E+08
 
   -0.33691E+08        -0.15508E+07         0.00000E+00
   -0.15508E+07        -0.60433E+08         0.00000E+00
    0.00000E+00         0.00000E+00        -0.25480E+08
 
   -0.32757E+08        -0.15279E+07         0.00000E+00
   -0.15279E+07        -0.60603E+08         0.00000E+00
    0.00000E+00         0.00000E+00        -0.25406E+08
 
   -0.31811E+08        -0.13328E+07         0.00000E+00
   -0.13328E+07        -0.60767E+08         0.00000E+00
    0.00000E+00         0.00000E+00        -0.25325E+08
 
   -0.30876E+08        -0.98471E+06         0.00000E+00
   -0.98471E+06        -0.60923E+08         0.00000E+00
    0.00000E+00         0.00000E+00        -0.25242E+08
 
   -0.29968E+08        -0.49850E+06         0.00000E+00
   -0.49850E+06        -0.61076E+08         0.00000E+00
    0.00000E+00         0.00000E+00        -0.25159E+08
 
   -0.29093E+08         0.11605E+06         0.00000E+00
    0.11605E+06        -0.61233E+08         0.00000E+00
    0.00000E+00         0.00000E+00        -0.25080E+08
 
   -0.28255E+08         0.85436E+06         0.00000E+00
    0.85436E+06        -0.61400E+08         0.00000E+00
    0.00000E+00         0.00000E+00        -0.25005E+08
 
   -0.27460E+08         0.17162E+07         0.00000E+00
    0.17162E+07        -0.61583E+08         0.00000E+00
    0.00000E+00         0.00000E+00        -0.24938E+08
 
   -0.26717E+08         0.27044E+07         0.00000E+00
    0.27044E+07        -0.61781E+08         0.00000E+00
    0.00000E+00         0.00000E+00        -0.24880E+08
 
   -0.26040E+08         0.38230E+07         0.00000E+00
    0.38230E+07        -0.61991E+08         0.00000E+00
    0.00000E+00         0.00000E+00        -0.24834E+08
 
   -0.25451E+08         0.50744E+07         0.00000E+00
    0.50744E+07        -0.62202E+08         0.00000E+00
    0.00000E+00         0.00000E+00        -0.24801E+08
 
   -0.24981E+08         0.64573E+07         0.00000E+00
    0.64573E+07        -0.62397E+08         0.00000E+00
    0.00000E+00         0.00000E+00        -0.24783E+08
 
   -0.36688E+08        -0.44429E+06         0.00000E+00
   -0.44429E+06        -0.60031E+08         0.00000E+00
    0.00000E+00         0.00000E+00        -0.24033E+08
 
   -0.35859E+08        -0.11253E+07         0.00000E+00
   -0.11253E+07        -0.60123E+08         0.00000E+00
    0.00000E+00         0.00000E+00        -0.24008E+08
 
   -0.34854E+08        -0.15412E+07         0.00000E+00
   -0.15412E+07        -0.60265E+08         0.00000E+00
    0.00000E+00         0.00000E+00        -0.23963E+08
 
   -0.33760E+08        -0.17174E+07         0.00000E+00
   -0.17174E+07        -0.60421E+08         0.00000E+00
    0.00000E+00         0.00000E+00        -0.23904E+08
 
   -0.32640E+08        -0.16866E+07         0.00000E+00
   -0.16866E+07        -0.60571E+08         0.00000E+00
    0.00000E+00         0.00000E+00        -0.23835E+08
 
   -0.31532E+08        -0.14808E+07         0.00000E+00
   -0.14808E+07        -0.60708E+08         0.00000E+00
    0.00000E+00         0.00000E+00        -0.23760E+08
 
   -0.30457E+08        -0.11266E+07         0.00000E+00
   -0.11266E+07        -0.60837E+08         0.00000E+00
    0.00000E+00         0.00000E+00        -0.23682E+08
 
   -0.29420E+08        -0.64275E+06         0.00000E+00
   -0.64275E+06        -0.60965E+08         0.00000E+00
    0.00000E+00         0.00000E+00        -0.23605E+08
 
   -0.28424E+08        -0.39894E+05         0.00000E+00
   -0.39894E+05        -0.61105E+08         0.00000E+00
    0.00000E+00         0.00000E+00        -0.23530E+08
 
   -0.27466E+08         0.67895E+06         0.00000E+00
    0.67895E+06        -0.61266E+08         0.00000E+00
    0.00000E+00         0.00000E+00        -0.23460E+08
 
   -0.26548E+08         0.15171E+07         0.00000E+00
    0.15171E+07        -0.61456E+08         0.00000E+00
    0.00000E+00         0.00000E+00        -0.23397E+08
 
   -0.25674E+08         0.24828E+07         0.00000E+00
    0.24828E+07        -0.61678E+08         0.00000E+00
    0.00000E+00         0.00000E+00        -0.23343E+08
 
   -0.24859E+08         0.35866E+07         0.00000E+00
    0.35866E+07        -0.61926E+08         0.00000E+00
    0.00000E+00         0.00000E+00        -0.23299E+08
 
   -0.24129E+08         0.48384E+07         0.00000E+00
    0.48384E+07        -0.62190E+08         0.00000E+00
    0.00000E+00         0.00000E+00        -0.23268E+08
 
   -0.23517E+08         0.62433E+07         0.00000E+00
    0.62433E+07        -0.62447E+08         0.00000E+00
    0.00000E+00         0.00000E+00        -0.23251E+08
 
   -0.37556E+08        -0.50122E+06         0.00000E+00
   -0.50122E+06        -0.60031E+08         0.00000E+00
    0.00000E+00         0.00000E+00        -0.22385E+08
 
   -0.36427E+08        -0.12512E+07         0.00000E+00
   -0.12512E+07        -0.60121E+08         0.00000E+00
    0.00000E+00         0.00000E+00        -0.22362E+08
 
   -0.35149E+08        -0.16888E+07         0.00000E+00
   -0.16888E+07        -0.60249E+08         0.00000E+00
    0.00000E+00         0.00000E+00        -0.22322E+08
 
   -0.33822E+08        -0.18582E+07         0.00000E+00
   -0.18582E+07        -0.60377E+08         0.00000E+00
    0.00000E+00         0.00000E+00        -0.22268E+08
 
   -0.32510E+08        -0.18101E+07         0.00000E+00
   -0.18101E+07        -0.60485E+08         0.00000E+00
    0.00000E+00         0.00000E+00        -0.22205E+08
 
   -0.31245E+08        -0.15896E+07         0.00000E+00
   -0.15896E+07        -0.60573E+08         0.00000E+00
    0.00000E+00         0.00000E+00        -0.22137E+08
 
   -0.30037E+08        -0.12312E+07         0.00000E+00
   -0.12312E+07        -0.60653E+08         0.00000E+00
    0.00000E+00         0.00000E+00        -0.22066E+08
 
   -0.28884E+08        -0.75680E+06         0.00000E+00
   -0.75680E+06        -0.60738E+08         0.00000E+00
    0.00000E+00         0.00000E+00        -0.21996E+08
 
   -0.27778E+08        -0.17680E+06         0.00000E+00
   -0.17680E+06        -0.60845E+08         0.00000E+00
    0.00000E+00         0.00000E+00        -0.21927E+08
 
   -0.26708E+08         0.50806E+06         0.00000E+00
    0.50806E+06        -0.60989E+08         0.00000E+00
    0.00000E+00         0.00000E+00        -0.21863E+08
 
   -0.25668E+08         0.13055E+07         0.00000E+00
    0.13055E+07        -0.61179E+08         0.00000E+00
    0.00000E+00         0.00000E+00        -0.21805E+08
 
   -0.24659E+08         0.22301E+07         0.00000E+00
    0.22301E+07        -0.61421E+08         0.00000E+00
    0.00000E+00         0.00000E+00        -0.21755E+08
 
   -0.23695E+08         0.33012E+07         0.00000E+00
    0.33012E+07        -0.61712E+08         0.00000E+00
    0.00000E+00         0.00000E+00        -0.21715E+08
 
   -0.22801E+08         0.45387E+07         0.00000E+00
    0.45387E+07        -0.62036E+08         0.00000E+00
    0.00000E+00         0.00000E+00        -0.21686E+08
 
   -0.22022E+08         0.59571E+07         0.00000E+00
    0.59571E+07        -0.62368E+08         0.00000E+00
    0.00000E+00         0.00000E+00        -0.21671E+08
 
   -0.38520E+08        -0.55843E+06         0.00000E+00
   -0.55843E+06        -0.60031E+08         0.00000E+00
    0.00000E+00         0.00000E+00        -0.20676E+08
 
   -0.37030E+08        -0.13664E+07         0.00000E+00
   -0.13664E+07        -0.60112E+08         0.00000E+00
    0.00000E+00         0.00000E+00        -0.20657E+08
 
   -0.35439E+08        -0.18062E+07         0.00000E+00
   -0.18062E+07        -0.60211E+08         0.00000E+00
    0.00000E+00         0.00000E+00        -0.20621E+08
 
   -0.33862E+08        -0.19502E+07         0.00000E+00
   -0.19502E+07        -0.60286E+08         0.00000E+00
    0.00000E+00         0.00000E+00        -0.20574E+08
 
   -0.32358E+08        -0.18732E+07         0.00000E+00
   -0.18732E+07        -0.60325E+08         0.00000E+00
    0.00000E+00         0.00000E+00        -0.20518E+08
 
   -0.30947E+08        -0.16356E+07         0.00000E+00
   -0.16356E+07        -0.60338E+08         0.00000E+00
    0.00000E+00         0.00000E+00        -0.20458E+08
 
   -0.29624E+08        -0.12779E+07         0.00000E+00
   -0.12779E+07        -0.60346E+08         0.00000E+00
    0.00000E+00         0.00000E+00        -0.20396E+08
 
   -0.28371E+08        -0.82339E+06         0.00000E+00
   -0.82339E+06        -0.60369E+08         0.00000E+00
    0.00000E+00         0.00000E+00        -0.20333E+08
 
   -0.27169E+08        -0.28096E+06         0.00000E+00
   -0.28096E+06        -0.60428E+08         0.00000E+00
    0.00000E+00         0.00000E+00        -0.20272E+08
 
   -0.25997E+08         0.35166E+06         0.00000E+00
    0.35166E+06        -0.60543E+08         0.00000E+00
    0.00000E+00         0.00000E+00        -0.20215E+08
 
   -0.24842E+08         0.10868E+07         0.00000E+00
    0.10868E+07        -0.60725E+08         0.00000E+00
    0.00000E+00         0.00000E+00        -0.20164E+08
 
   -0.23696E+08         0.19463E+07         0.00000E+00
    0.19463E+07        -0.60985E+08         0.00000E+00
    0.00000E+00         0.00000E+00        -0.20119E+08
 
   -0.22567E+08         0.29602E+07         0.00000E+00
    0.29602E+07        -0.61320E+08         0.00000E+00
    0.00000E+00         0.00000E+00        -0.20083E+08
 
   -0.21484E+08         0.41622E+07         0.00000E+00
    0.41622E+07        -0.61717E+08         0.00000E+00
    0.00000E+00         0.00000E+00        -0.20057E+08
 
   -0.20499E+08         0.55813E+07         0.00000E+00
    0.55813E+07        -0.62142E+08         0.00000E+00
    0.00000E+00         0.00000E+00        -0.20043E+08
 
   -0.39574E+08        -0.61386E+06         0.00000E+00
   -0.61386E+06        -0.60029E+08         0.00000E+00
    0.00000E+00         0.00000E+00        -0.18911E+08
 
   -0.37644E+08        -0.14579E+07         0.00000E+00
   -0.14579E+07        -0.60092E+08         0.00000E+00
    0.00000E+00         0.00000E+00        -0.18894E+08
 
   -0.35699E+08        -0.18680E+07         0.00000E+00
   -0.18680E+07        -0.60138E+08         0.00000E+00
    0.00000E+00         0.00000E+00        -0.18864E+08
 
   -0.33863E+08        -0.19616E+07         0.00000E+00
   -0.19616E+07        -0.60125E+08         0.00000E+00
    0.00000E+00         0.00000E+00        -0.18824E+08
 
   -0.32180E+08        -0.18452E+07         0.00000E+00
   -0.18452E+07        -0.60060E+08         0.00000E+00
    0.00000E+00         0.00000E+00        -0.18777E+08
 
   -0.30645E+08        -0.15925E+07         0.00000E+00
   -0.15925E+07        -0.59968E+08         0.00000E+00
    0.00000E+00         0.00000E+00        -0.18726E+08
 
   -0.29228E+08        -0.12460E+07         0.00000E+00
   -0.12460E+07        -0.59880E+08         0.00000E+00
    0.00000E+00         0.00000E+00        -0.18672E+08
 
   -0.27895E+08        -0.82655E+06         0.00000E+00
   -0.82655E+06        -0.59825E+08         0.00000E+00
    0.00000E+00         0.00000E+00        -0.18619E+08
 
   -0.26614E+08        -0.33991E+06         0.00000E+00
   -0.33991E+06        -0.59825E+08         0.00000E+00
    0.00000E+00         0.00000E+00        -0.18567E+08
 
   -0.25356E+08         0.21929E+06         0.00000E+00
    0.21929E+06        -0.59900E+08         0.00000E+00
    0.00000E+00         0.00000E+00        -0.18518E+08
 
   -0.24094E+08         0.86711E+06         0.00000E+00
    0.86711E+06        -0.60067E+08         0.00000E+00
    0.00000E+00         0.00000E+00        -0.18474E+08
 
   -0.22810E+08         0.16318E+07         0.00000E+00
    0.16318E+07        -0.60340E+08         0.00000E+00
    0.00000E+00         0.00000E+00        -0.18435E+08
 
   -0.21504E+08         0.25555E+07         0.00000E+00
    0.25555E+07        -0.60725E+08         0.00000E+00
    0.00000E+00         0.00000E+00        -0.18404E+08
 
   -0.20199E+08         0.36914E+07         0.00000E+00
    0.36914E+07        -0.61207E+08         0.00000E+00
    0.00000E+00         0.00000E+00        -0.18382E+08
 
   -0.18960E+08         0.50914E+07         0.00000E+00
    0.50914E+07        -0.61750E+08         0.00000E+00
    0.00000E+00         0.00000E+00        -0.18370E+08
 
   -0.40701E+08        -0.66414E+06         0.00000E+00
   -0.66414E+06        -0.60025E+08         0.00000E+00
    0.00000E+00         0.00000E+00        -0.17091E+08
 
   -0.38232E+08        -0.15021E+07         0.00000E+00
   -0.15021E+07        -0.60050E+08         0.00000E+00
    0.00000E+00         0.00000E+00        -0.17078E+08
 
   -0.35893E+08        -0.18329E+07         0.00000E+00
   -0.18329E+07        -0.59999E+08         0.00000E+00
    0.00000E+00         0.00000E+00        -0.17053E+08
 
   -0.33809E+08        -0.18490E+07         0.00000E+00
   -0.18490E+07        -0.59848E+08         0.00000E+00
    0.00000E+00         0.00000E+00        -0.17021E+08
 
   -0.31978E+08        -0.16914E+07         0.00000E+00
   -0.16914E+07        -0.59637E+08         0.00000E+00
    0.00000E+00         0.00000E+00        -0.16983E+08
 
   -0.30349E+08        -0.14363E+07         0.00000E+00
   -0.14363E+07        -0.59413E+08         0.00000E+00
    0.00000E+00         0.00000E+00        -0.16942E+08
 
   -0.28864E+08        -0.11194E+07         0.00000E+00
   -0.11194E+07        -0.59214E+08         0.00000E+00
    0.00000E+00         0.00000E+00        -0.16899E+08
 
   -0.27475E+08        -0.75502E+06         0.00000E+00
   -0.75502E+06        -0.59070E+08         0.00000E+00
    0.00000E+00         0.00000E+00        -0.16856E+08
 
   -0.26136E+08        -0.34492E+06         0.00000E+00
   -0.34492E+06        -0.59004E+08         0.00000E+00
    0.00000E+00         0.00000E+00        -0.16814E+08
 
   -0.24807E+08         0.11859E+06         0.00000E+00
    0.11859E+06        -0.59033E+08         0.00000E+00
    0.00000E+00         0.00000E+00        -0.16774E+08
 
   -0.23453E+08         0.65298E+06         0.00000E+00
    0.65298E+06        -0.59179E+08         0.00000E+00
    0.00000E+00         0.00000E+00        -0.16738E+08
 
   -0.22039E+08         0.12893E+07         0.00000E+00
    0.12893E+07        -0.59461E+08         0.00000E+00
    0.00000E+00         0.00000E+00        -0.16707E+08
 
   -0.20544E+08         0.20801E+07         0.00000E+00
    0.20801E+07        -0.59894E+08         0.00000E+00
    0.00000E+00         0.00000E+00        -0.16681E+08
 
   -0.18980E+08         0.31043E+07         0.00000E+00
    0.31043E+07        -0.60477E+08         0.00000E+00
    0.00000E+00         0.00000E+00        -0.16663E+08
 
   -0.17417E+08         0.44532E+07         0.00000E+00
    0.44532E+07        -0.61170E+08         0.00000E+00
    0.00000E+00         0.00000E+00        -0.16653E+08
 
   -0.41864E+08        -0.70137E+06         0.00000E+00
   -0.70137E+06        -0.60013E+08         0.00000E+00
    0.00000E+00         0.00000E+00        -0.15220E+08
 
   -0.38723E+08        -0.14490E+07         0.00000E+00
   -0.14490E+07        -0.59957E+08         0.00000E+00
    0.00000E+00         0.00000E+00        -0.15210E+08
 
   -0.35982E+08        -0.16320E+07         0.00000E+00
   -0.16320E+07        -0.59726E+08         0.00000E+00
    0.00000E+00         0.00000E+00        -0.15192E+08
 
   -0.33699E+08        -0.15605E+07         0.00000E+00
   -0.15605E+07        -0.59369E+08         0.00000E+00
    0.00000E+00         0.00000E+00        -0.15168E+08
 
   -0.31767E+08        -0.13825E+07         0.00000E+00
   -0.13825E+07        -0.58977E+08         0.00000E+00
    0.00000E+00         0.00000E+00        -0.15141E+08
 
   -0.30081E+08        -0.11527E+07         0.00000E+00
   -0.11527E+07        -0.58608E+08         0.00000E+00
    0.00000E+00         0.00000E+00        -0.15110E+08
 
   -0.28557E+08        -0.89201E+06         0.00000E+00
   -0.89201E+06        -0.58297E+08         0.00000E+00
    0.00000E+00         0.00000E+00        -0.15079E+08
 
   -0.27133E+08        -0.60645E+06         0.00000E+00
   -0.60645E+06        -0.58067E+08         0.00000E+00
    0.00000E+00         0.00000E+00        -0.15047E+08
 
   -0.25754E+08        -0.29412E+06         0.00000E+00
   -0.29412E+06        -0.57937E+08         0.00000E+00
    0.00000E+00         0.00000E+00        -0.15016E+08
 
   -0.24375E+08         0.53111E+05         0.00000E+00
    0.53111E+05        -0.57923E+08         0.00000E+00
    0.00000E+00         0.00000E+00        -0.14986E+08
 
   -0.22946E+08         0.45080E+06         0.00000E+00
    0.45080E+06        -0.58045E+08         0.00000E+00
    0.00000E+00         0.00000E+00        -0.14959E+08
 
   -0.21420E+08         0.92671E+06         0.00000E+00
    0.92671E+06        -0.58326E+08         0.00000E+00
    0.00000E+00         0.00000E+00        -0.14936E+08
 
   -0.19742E+08         0.15327E+07         0.00000E+00
    0.15327E+07        -0.58798E+08         0.00000E+00
    0.00000E+00         0.00000E+00        -0.14917E+08
 
   -0.17881E+08         0.23748E+07         0.00000E+00
    0.23748E+07        -0.59493E+08         0.00000E+00
    0.00000E+00         0.00000E+00        -0.14903E+08
 
   -0.15898E+08         0.36155E+07         0.00000E+00
    0.36155E+07        -0.60380E+08         0.00000E+00
    0.00000E+00         0.00000E+00        -0.14895E+08
 
   -0.42971E+08        -0.69610E+06         0.00000E+00
   -0.69610E+06        -0.59975E+08         0.00000E+00
    0.00000E+00         0.00000E+00        -0.13302E+08
 
   -0.39011E+08        -0.11725E+07         0.00000E+00
   -0.11725E+07        -0.59693E+08         0.00000E+00
    0.00000E+00         0.00000E+00        -0.13296E+08
 
   -0.35957E+08        -0.11722E+07         0.00000E+00
   -0.11722E+07        -0.59149E+08         0.00000E+00
    0.00000E+00         0.00000E+00        -0.13285E+08
 
   -0.33564E+08        -0.10607E+07         0.00000E+00
   -0.10607E+07        -0.58545E+08         0.00000E+00
    0.00000E+00         0.00000E+00        -0.13270E+08
 
   -0.31585E+08        -0.91244E+06         0.00000E+00
   -0.91244E+06        -0.57975E+08         0.00000E+00
    0.00000E+00         0.00000E+00        -0.13253E+08
 
   -0.29873E+08        -0.74833E+06         0.00000E+00
   -0.74833E+06        -0.57478E+08         0.00000E+00
    0.00000E+00         0.00000E+00        -0.13235E+08
 
   -0.28331E+08        -0.57455E+06         0.00000E+00
   -0.57455E+06        -0.57076E+08         0.00000E+00
    0.00000E+00         0.00000E+00        -0.13215E+08
 
   -0.26889E+08        -0.39128E+06         0.00000E+00
   -0.39128E+06        -0.56779E+08         0.00000E+00
    0.00000E+00         0.00000E+00        -0.13195E+08
 
   -0.25488E+08        -0.19534E+06         0.00000E+00
   -0.19534E+06        -0.56601E+08         0.00000E+00
    0.00000E+00         0.00000E+00        -0.13176E+08
 
   -0.24076E+08         0.19471E+05         0.00000E+00
    0.19471E+05        -0.56554E+08         0.00000E+00
    0.00000E+00         0.00000E+00        -0.13157E+08
 
   -0.22598E+08         0.26375E+06         0.00000E+00
    0.26375E+06        -0.56655E+08         0.00000E+00
    0.00000E+00         0.00000E+00        -0.13140E+08
 
   -0.20990E+08         0.55620E+06         0.00000E+00
    0.55620E+06        -0.56931E+08         0.00000E+00
    0.00000E+00         0.00000E+00        -0.13126E+08
 
   -0.19168E+08         0.93354E+06         0.00000E+00
    0.93354E+06        -0.57422E+08         0.00000E+00
    0.00000E+00         0.00000E+00        -0.13114E+08
 
   -0.17003E+08         0.14845E+07         0.00000E+00
    0.14845E+07        -0.58203E+08         0.00000E+00
    0.00000E+00         0.00000E+00        -0.13105E+08
 
   -0.14457E+08         0.24920E+07         0.00000E+00
    0.24920E+07        -0.59348E+08         0.00000E+00
    0.00000E+00         0.00000E+00        -0.13100E+08
 
   -0.43756E+08        -0.42168E+06         0.00000E+00
   -0.42168E+06        -0.59591E+08         0.00000E+00
    0.00000E+00         0.00000E+00        -0.11341E+08
 
   -0.39053E+08        -0.47757E+06         0.00000E+00
   -0.47757E+06        -0.58841E+08         0.00000E+00
    0.00000E+00         0.00000E+00        -0.11339E+08
 
   -0.35895E+08        -0.43227E+06         0.00000E+00
   -0.43227E+06        -0.57989E+08         0.00000E+00
    0.00000E+00         0.00000E+00        -0.11335E+08
 
   -0.33468E+08        -0.37757E+06         0.00000E+00
   -0.37757E+06        -0.57206E+08         0.00000E+00
    0.00000E+00         0.00000E+00        -0.11330E+08
 
   -0.31476E+08        -0.31878E+06         0.00000E+00
   -0.31878E+06        -0.56525E+08         0.00000E+00
    0.00000E+00         0.00000E+00        -0.11324E+08
 
   -0.29758E+08        -0.25865E+06         0.00000E+00
   -0.25865E+06        -0.55957E+08         0.00000E+00
    0.00000E+00         0.00000E+00        -0.11318E+08
 
   -0.28211E+08        -0.19734E+06         0.00000E+00
   -0.19734E+06        -0.55507E+08         0.00000E+00
    0.00000E+00         0.00000E+00        -0.11311E+08
 
   -0.26762E+08        -0.13403E+06         0.00000E+00
   -0.13403E+06        -0.55180E+08         0.00000E+00
    0.00000E+00         0.00000E+00        -0.11305E+08
 
   -0.25351E+08        -0.67248E+05         0.00000E+00
   -0.67248E+05        -0.54980E+08         0.00000E+00
    0.00000E+00         0.00000E+00        -0.11298E+08
 
   -0.23924E+08         0.53583E+04         0.00000E+00
    0.53583E+04        -0.54920E+08         0.00000E+00
    0.00000E+00         0.00000E+00        -0.11292E+08
 
   -0.22421E+08         0.87513E+05         0.00000E+00
    0.87513E+05        -0.55013E+08         0.00000E+00
    0.00000E+00         0.00000E+00        -0.11286E+08
 
   -0.20771E+08         0.18566E+06         0.00000E+00
    0.18566E+06        -0.55287E+08         0.00000E+00
    0.00000E+00         0.00000E+00        -0.11281E+08
 
   -0.18870E+08         0.31307E+06         0.00000E+00
    0.31307E+06        -0.55785E+08         0.00000E+00
    0.00000E+00         0.00000E+00        -0.11277E+08
 
   -0.16532E+08         0.49916E+06         0.00000E+00
    0.49916E+06        -0.56597E+08         0.00000E+00
    0.00000E+00         0.00000E+00        -0.11274E+08
 
   -0.13248E+08         0.92259E+06         0.00000E+00
    0.92259E+06        -0.57976E+08         0.00000E+00
    0.00000E+00         0.00000E+00        -0.11272E+08
 
SCALARS stresss double 
LOOKUP_TABLE default
  -45802172.5260399     
  -47446276.8122284     
  -48686985.4070167     
  -49715007.6360701     
  -50602603.2389002     
  -51388423.5208792     
  -52095887.1668428     
  -52740862.6379407     
  -53335313.6483991     
  -53889433.4319906     
  -54413289.5475060     
  -54918708.7815885     
  -55422683.9050930     
  -55954912.9458676     
  -56603314.4299587     
  -45320032.7065883     
  -46572660.1147208     
  -47674967.9150317     
  -48627250.9249170     
  -49467137.7279372     
  -50219340.0687744     
  -50901100.2732932     
  -51524983.8276073     
  -52100883.2091900     
  -52637352.4975118     
  -53142667.1449829     
  -53625921.3212430     
  -54098087.7092214     
  -54574879.4940334     
  -55037472.4347605     
  -45083432.1594237     
  -46006417.7874488     
  -46908154.8051867     
  -47742851.5839461     
  -48504661.9142018     
  -49200715.7341845     
  -49839116.2547171     
  -50427286.4854840     
  -50971768.5311233     
  -51478444.8283653     
  -51952772.5582190     
  -52399763.0201413     
  -52823390.1467065     
  -53219819.8192237     
  -53573222.6001806     
  -44902679.3180907     
  -45596995.8328962     
  -46318161.3005561     
  -47023458.4531229     
  -47692148.6836391     
  -48317742.7998718     
  -48900096.1553117     
  -49441324.5287603     
  -49944274.9597483     
  -50411830.0732017     
  -50846431.2039158     
  -51249406.9804211     
  -51619172.7142964     
  -51949038.4054918     
  -52224799.9200731     
  -44740143.8848431     
  -45268996.0529033     
  -45844031.7998987     
  -46429550.5084068     
  -47002954.7606177     
  -47551989.2648489     
  -48071024.3302429     
  -48557997.0403698     
  -49012526.8231115     
  -49434799.6375520     
  -49824730.2816509     
  -50181026.0286881     
  -50500070.7485535     
  -50774693.2627657     
  -50993560.3574811     
  -44580093.9570886     
  -44987336.7223115     
  -45446054.7466899     
  -45927652.2865053     
  -46411496.9817234     
  -46884083.7591776     
  -47337256.6758903     
  -47766351.9191624     
  -48168686.7782276     
  -48542439.4675918     
  -48885756.4443135     
  -49195941.2409037     
  -49468675.0002046     
  -49697411.7420944     
  -49873154.4864515     
  -44414442.9710532     
  -44731881.8947515     
  -45098615.7818914     
  -45492285.3549623     
  -45895476.2296054     
  -46295537.0542495     
  -46683769.7159477     
  -47054360.0176551     
  -47403334.9975661     
  -47727662.2425224     
  -48024492.3823356     
  -48290512.3319262     
  -48521418.1706764     
  -48711569.1673117     
  -48853920.9232457     
  -44238182.8666319     
  -44489697.1389144     
  -44783973.6969424     
  -45104134.3347687     
  -45436278.6025495     
  -45769584.2136800     
  -46095979.0180365     
  -46409563.2100006     
  -46705947.2912991     
  -46981612.9626639     
  -47233345.3003569     
  -47457757.7596920     
  -47650933.4045035     
  -47808220.6358012     
  -47924222.3060922     
  -44048116.8227836     
  -44251797.2437862     
  -44489168.0473815     
  -44748196.3176627     
  -45018459.5970963     
  -45291383.7101857     
  -45560178.5829513     
  -45819564.9988089     
  -46065392.3216119     
  -46294227.6609354     
  -46502970.9058481     
  -46688531.4244374     
  -46847595.0435140     
  -46976507.4664679     
  -47071294.3047082     
  -43842335.0245391     
  -44011743.8948621     
  -44204402.7926865     
  -44412575.2897399     
  -44629142.6372689     
  -44847918.1213958     
  -45063736.8995622     
  -45272376.9655498     
  -45470374.6760300     
  -45654793.0549692     
  -45822989.4607681     
  -45972417.9453532     
  -46100493.4175568     
  -46204538.4136548     
  -46281825.9052859     
  -43619981.6218194     
  -43764954.7050759     
  -43922184.6036997     
  -44087734.5906132     
  -44257552.1451899     
  -44427825.0882673     
  -44595164.4454409     
  -44756651.2613511     
  -44909790.1088776     
  -45052411.1002708     
  -45182556.9683523     
  -45298385.0350966     
  -45398107.3700462     
  -45479986.3361528     
  -45542396.4804648     
  -43381116.7065616     
  -43508320.7914966     
  -43636823.0454779     
  -43766026.2958512     
  -43894676.4474918     
  -44021235.7606052     
  -44144120.2281548     
  -44261827.6134530     
  -44372986.0504127     
  -44476353.2365164     
  -44570793.7019480     
  -44655257.5761532     
  -44728779.6587950     
  -44790512.8998410     
  -44839805.7352557     
  -43126605.6431826     
  -43239954.9944740     
  -43344104.4202060     
  -43441369.7233301     
  -43533016.3343020     
  -43619630.4278182     
  -43701384.2670663     
  -43778214.8793398     
  -43849937.0906919     
  -43916312.1569663     
  -43977091.8511417     
  -44032055.3910305     
  -44081053.5453389     
  -44124071.0248292     
  -44161315.1060207     
  -42858009.5724070     
  -42958993.2130117     
  -43041045.0130856     
  -43109003.9887383     
  -43166378.8738078     
  -43215702.0144307     
  -43258803.6765093     
  -43297019.9710530     
  -43331348.6199324     
  -43362566.8140455     
  -43391324.5603703     
  -43418225.4228075     
  -43443904.7184408     
  -43469113.2797019     
  -43494813.0239036     
  -42577469.4370514     
  -42665414.8290016     
  -42725677.7747094     
  -42765272.8761093     
  -42789689.3858293     
  -42803216.6452191     
  -42809213.9118692     
  -42810332.8766765     
  -42808701.4221456     
  -42806076.8883572     
  -42803976.4782017     
  -42803791.6088284     
  -42806892.1320536     
  -42814725.5008614     
  -42828915.2236487     
  -42287583.1017479     
  -42359868.1972819     
  -42396850.4925132     
  -42407419.9943274     
  -42398805.5573904     
  -42376863.8867772     
  -42346335.9314832     
  -42311074.8221115     
  -42274248.7892704     
  -42238521.7210602     
  -42206213.4426087     
  -42179441.5116805     
  -42160246.3041351     
  -42150701.3550895     
  -42153011.2640969     
  -41991277.4793547     
  -42043495.6856012     
  -42054024.8557486     
  -42033382.5211870     
  -41990324.6204786     
  -41932092.4737938     
  -41864650.6173233     
  -41792915.9796740     
  -41720976.7021432     
  -41652297.4018509     
  -41589907.1129628     
  -41536566.4319790     
  -41494911.3046408     
  -41467572.1836848     
  -41457268.7620989     
  -41691677.6648012     
  -41717755.4226281     
  -41697070.0010960     
  -41641576.0163750     
  -41561377.5571105     
  -41464928.8810063     
  -41359252.1308113     
  -41250168.7561921     
  -41142536.9311501     
  -41040484.8425888     
  -40947629.3465299     
  -40867270.6505278     
  -40802555.7776417     
  -40756606.1407539     
  -40732607.3156106     
  -41391974.2022580     
  -41384236.3006784     
  -41326043.8704869     
  -41230662.6984860     
  -41109404.1683698     
  -40971775.8345421     
  -40825681.5055646     
  -40677662.2976141     
  -40533162.5602677     
  -40396801.3854169     
  -40272630.9071599     
  -40164365.3368155     
  -40075568.4060181     
  -40009790.9659781     
  -39970654.7215829     
  -41095288.2427927     
  -41044459.7774591     
  -40940952.0251055     
  -40799292.0671297     
  -40631900.0711263     
  -40449186.0319303     
  -40259740.8193110     
  -40070603.5330158     
  -39887575.5548135     
  -39715548.9028969     
  -39558819.7224712     
  -39421363.4572152     
  -39307054.1193090     
  -39219815.6295542     
  -39163698.9224553     
  -40804532.3280548     
  -40699656.2079622     
  -40541466.0440568     
  -40345795.6732920     
  -40126121.4799747     
  -39893603.4126055     
  -39657287.2568395     
  -39424430.2627911     
  -39200896.8356570     
  -38991572.5861662     
  -38800755.4730764     
  -38632493.8340395     
  -38490849.1986978     
  -38380067.6543560     
  -38304650.1551589     
  -40522260.9099256     
  -40350492.7561228     
  -40126570.1676939     
  -39867806.0084528     
  -39588726.0044904     
  -39301061.1610547     
  -39014006.3305106     
  -38734663.2296685     
  -38468571.2018966     
  -38220246.7409816     
  -37993679.8766549     
  -37792755.6308292     
  -37621576.6861356     
  -37484665.5221684     
  -37387029.0356229     
  -40250497.2209166     
  -39996709.1702758     
  -39694080.4680104     
  -39361750.3181968     
  -39015318.0985737     
  -38666824.3361450     
  -38325166.6427427     
  -37996767.9469946     
  -37686322.4584505     
  -37397506.4819000     
  -37133605.4532631     
  -36898039.4413720     
  -36694769.2415265     
  -36528550.1807888     
  -36404997.9622362     
  -39990505.5990677     
  -39636575.0719588     
  -39239934.2199319     
  -38822139.9444426     
  -38399858.8292385     
  -37984971.2541812     
  -37585369.0929350     
  -37206044.8163392     
  -36850157.2677849     
  -36519945.5285959     
  -36217488.6469894     
  -35945348.7949535     
  -35707097.1723462     
  -35507669.0637233     
  -35353456.0004713     
  -39742439.2311565     
  -39265983.7839295     
  -38757056.7282754     
  -38240529.2420707     
  -37733903.8355158     
  -37247934.5675557     
  -36788329.1240490     
  -36357578.2321026     
  -35956436.3845315     
  -35584994.7859121     
  -35243513.3054311     
  -34933166.3223433     
  -34656761.7087804     
  -34419306.5794167     
  -34228224.6595064     
  -39504666.5302554     
  -38876773.1194492     
  -38233411.9217214     
  -37603975.5569924     
  -37005685.6314817     
  -36446101.3588042     
  -35926778.6522412     
  -35446288.9481828     
  -35002019.8135488     
  -34591176.3453162     
  -34211492.0904474     
  -33862027.8893870     
  -33544155.1610800     
  -33262672.4296334     
  -33026369.6697244     
  -39272323.1866790     
  -38453112.2024386     
  -37648520.1841146     
  -36892844.6179089     
  -36199302.7919007     
  -35567734.3476871     
  -34992626.0287525     
  -34467139.1623868     
  -33984469.8812798     
  -33538354.4273916     
  -33123355.2761211     
  -32735339.7432666     
  -32373028.8338371     
  -32039974.4302957     
  -31746787.1783450     
  -39032468.4585402     
  -37963252.3742821     
  -36966791.3905424     
  -36078715.6068055     
  -35294916.6412441     
  -34599590.9442997     
  -33977530.0193098     
  -33415522.0091494     
  -32902260.7922703     
  -32427855.9994197     
  -31983361.9256960     
  -31560573.4950822     
  -31152386.3358477     
  -30758883.1017797     
  -30391273.5073895     
  -38749255.4883890     
  -37333102.7254505     
  -36130136.2625196     
  -35126368.5436066     
  -34270896.7732310     
  -33528584.7573608     
  -32873945.5364687     
  -32287816.9372118     
  -31754936.4949939     
  -31262279.6438409     
  -30797742.2920111     
  -30348844.5935874     
  -29901491.7266765     
  -29437118.3751605     
  -28968429.3740740     
  -38228979.5756734     
  -36410605.3466460     
  -35072790.7355756     
  -34001277.6915172     
  -33108490.0882037     
  -32344336.1328346     
  -31676498.3815333     
  -31082019.2184292     
  -30543173.8316080     
  -30044988.2097391     
  -29573340.7182190     
  -29112914.6857176     
  -28643786.5204143     
  -28134184.0715901     
  -27498528.4295579     
SCALARS 2waySource double 
LOOKUP_TABLE default
  4.091318602279332E-003
  5.104189924919423E-003
  5.865798158557742E-003
  6.436881083395545E-003
  6.869626919367888E-003
  7.203302696469515E-003
  7.466777310209500E-003
  7.681136627410875E-003
  7.861988884176243E-003
  8.021384720330422E-003
  8.169407023632353E-003
  8.315492076024344E-003
  8.469514397732941E-003
  8.642636737749326E-003
  8.847029703939805E-003
  3.995705091683437E-003
  4.998387953395229E-003
  5.740257941499959E-003
  6.297371455628109E-003
  6.721289815978995E-003
  7.049916045758076E-003
  7.310850917488939E-003
  7.524240331606574E-003
  7.705026656215402E-003
  7.864782005073779E-003
  8.013219287921026E-003
  8.159458131990829E-003
  8.313110030467651E-003
  8.485184757079267E-003
  8.689412779634651E-003
  3.814784983471316E-003
  4.758481342437716E-003
  5.461002647468302E-003
  5.992820098186337E-003
  6.402247784317145E-003
  6.723633856485518E-003
  6.981945546485575E-003
  7.195472636362819E-003
  7.377875921835960E-003
  7.539814597374394E-003
  7.690289616993217E-003
  7.837786333379983E-003
  7.991280421595328E-003
  8.161235770365191E-003
  8.360698547982763E-003
  3.573927076251531E-003
  4.412790151228710E-003
  5.052034792329257E-003
  5.545992619630197E-003
  5.934075933091863E-003
  6.244854407771769E-003
  6.499281748590868E-003
  6.712918334892343E-003
  6.897555086516819E-003
  7.062515447805087E-003
  7.215744774358426E-003
  7.364754382157911E-003
  7.517478866580454E-003
  7.683100977594682E-003
  7.872915195711518E-003
  3.290377652809826E-003
  3.990752845597188E-003
  4.545100344885306E-003
  4.988152077777174E-003
  5.347020658975120E-003
  5.642453806791467E-003
  5.890240931167944E-003
  6.102462010617316E-003
  6.288520348819118E-003
  6.456017308236662E-003
  6.611518856150482E-003
  6.761243352552941E-003
  6.911694242563476E-003
  7.070261386771770E-003
  7.245797134394755E-003
  2.981497840760711E-003
  3.521808284333229E-003
  3.974824185434499E-003
  4.355126100983204E-003
  4.676426746128766E-003
  4.950597902502699E-003
  5.187505955603796E-003
  5.395217304772312E-003
  5.580347702009381E-003
  5.748458264458803E-003
  5.904460593040931E-003
  6.053013548336150E-003
  6.198902042537611E-003
  6.347389297714945E-003
  6.504528278721055E-003
  2.663632887021770E-003
  3.034041555785304E-003
  3.375246962263681E-003
  3.683309815003692E-003
  3.959023341200799E-003
  4.205336411809075E-003
  4.425968391475067E-003
  4.624721125414672E-003
  4.805184817210671E-003
  4.970662238675178E-003
  5.124211316837185E-003
  5.268746820635509E-003
  5.407162017728940E-003
  5.542439654124627E-003
  5.677721582712653E-003
  2.350822221643361E-003
  2.552071017254381E-003
  2.777044082200868E-003
  3.006402851695911E-003
  3.229628137692976E-003
  3.441488594121203E-003
  3.639840006551705E-003
  3.824275236595706E-003
  3.995308696167643E-003
  4.153891252849486E-003
  4.301124956075630E-003
  4.438092220819317E-003
  4.565740224763101E-003
  4.684774543811110E-003
  4.795520136516010E-003
  2.053976731930907E-003
  2.095544435490309E-003
  2.205521341631201E-003
  2.353075172583635E-003
  2.518670413129548E-003
  2.690186606806285E-003
  2.860300368201823E-003
  3.024728352518889E-003
  3.181047999886195E-003
  3.327899773689579E-003
  3.464435552164693E-003
  3.589918709039528E-003
  3.703407264259805E-003
  3.803466157208515E-003
  3.887860537855247E-003
  1.780625328084064E-003
  1.678504291213753E-003
  1.679602591346770E-003
  1.745647516418096E-003
  1.850670361407421E-003
  1.977258087047192E-003
  2.113861449457167E-003
  2.252869048097257E-003
  2.389226111789634E-003
  2.519433431343369E-003
  2.640805207782428E-003
  2.750896090048287E-003
  2.847029214997197E-003
  2.925870292219800E-003
  2.982998742088273E-003
  1.535114756934654E-003
  1.309537143357079E-003
  1.211738957002681E-003
  1.199727360727189E-003
  1.243639172906993E-003
  1.322453345070906E-003
  1.421483214898820E-003
  1.530476917727653E-003
  1.642178375838611E-003
  1.751228421214809E-003
  1.853310337514095E-003
  1.944464343611522E-003
  2.020510728441842E-003
  2.076531457777005E-003
  2.106365098821554E-003
  1.319100167895731E-003
  9.924731099274220E-004
  8.085144629960070E-004
  7.246033893167402E-004
  7.092415844990956E-004
  7.394003556716051E-004
  7.983608663176589E-004
  8.739810949247557E-004
  9.573129862515122E-004
  1.041496180646718E-003
  1.120862861728322E-003
  1.190197604560469E-003
  1.244104527532902E-003
  1.276440398054290E-003
  1.279775894702825E-003
  1.132170389151726E-003
  7.273789803712562E-004
  4.716727739987681E-004
  3.241417978718202E-004
  2.534979446921388E-004
  2.361034881941396E-004
  2.542372219920267E-004
  2.946122729752589E-004
  3.471284437785895E-004
  4.038279047185211E-004
  4.580185071435298E-004
  5.035292966651648E-004
  5.340651781421919E-004
  5.426303972894163E-004
  5.209924548278207E-004
  9.724865554605071E-004
  5.116282016533835E-004
  1.993132252313288E-004
 -2.066434119243696E-006
 -1.222050144247693E-004
 -1.842161647786676E-004
 -2.059309295058458E-004
 -2.010934213380495E-004
 -1.804278381175052E-004
 -1.525740810688730E-004
 -1.249020109929503E-004
 -1.042205358449198E-004
 -9.740003468886751E-005
 -1.119269303552797E-004
 -1.564087294729032E-004
  8.373547289999635E-004
  3.408954178273668E-004
 -1.293573297115103E-005
 -2.575119238656473E-004
 -4.199941670314466E-004
 -5.221227342828206E-004
 -5.811157595234990E-004
 -6.105799586033099E-004
 -6.213798899321755E-004
 -6.224391267927241E-004
 -6.214635460452668E-004
 -6.255869026343065E-004
 -6.419442735680020E-004
 -6.781814476099086E-004
 -7.429090059287313E-004
  7.236911335827598E-004
  2.099881228430710E-004
 -1.708882858853822E-004
 -4.476692812305219E-004
 -6.444293077396148E-004
 -7.809547327246825E-004
 -8.733057629005509E-004
 -9.344685249039167E-004
 -9.750307173804744E-004
 -1.003839960083592E-003
 -1.028621489899006E-003
 -1.056543311033934E-003
 -1.094723938633459E-003
 -1.150681703900377E-003
 -1.232726075053399E-003
  6.283676071815636E-004
  1.134810674924017E-004
 -2.809787283611813E-004
 -5.790767840678924E-004
 -8.015556691838980E-004
 -9.659003588106060E-004
 -1.086635752852087E-003
 -1.175759852133631E-003
 -1.243243964254331E-003
 -1.297552870204353E-003
 -1.346153730216320E-003
 -1.395993715834010E-003
 -1.453933822750889E-003
 -1.527130765129270E-003
 -1.623360830955195E-003
  5.484441579118682E-004
  4.615652360056001E-005
 -3.496575763719579E-004
 -6.586240055604353E-004
 -8.981349825520220E-004
 -1.083214328588581E-003
 -1.226620433886576E-003
 -1.339104694961684E-003
 -1.429762159027809E-003
 -1.506426949456045E-003
 -1.576077834278530E-003
 -1.645229190635586E-003
 -1.720289757498256E-003
 -1.807876129405817E-003
 -1.915070148978743E-003
  4.813065473420648E-004
  3.276483024013013E-006
 -3.829871438926219E-004
 -6.930411791141559E-004
 -9.410626359308709E-004
 -1.139595750038087E-003
 -1.299520252530396E-003
 -1.430177529861334E-003
 -1.539600654373497E-003
 -1.634803861604982E-003
 -1.722096313333681E-003
 -1.807393205470996E-003
 -1.896503806809619E-003
 -1.995380434534690E-003
 -2.110314593593738E-003
  4.247318244599214E-004
 -1.927531911789731E-005
 -3.863985253599360E-004
 -6.885602220094910E-004
 -9.369522922112830E-004
 -1.141720317378664E-003
 -1.311843522837596E-003
 -1.455166288709633E-003
 -1.578536908952781E-003
 -1.688012939401744E-003
 -1.789098682401689E-003
 -1.886987338614652E-003
 -1.986786484972493E-003
 -2.093709789009171E-003
 -2.213219892687815E-003
  3.769058199809194E-004
 -2.493923388368803E-005
 -3.645626005699642E-004
 -6.507039053833026E-004
 -8.918534205087945E-004
 -1.095903304637789E-003
 -1.269972296538037E-003
 -1.420375379046368E-003
 -1.552700518821347E-003
 -1.671953601707997E-003
 -1.782737578841040E-003
 -1.889438917519940E-003
 -1.996400855132988E-003
 -2.108067082683289E-003
 -2.229080991344785E-003
  3.364155131736408E-004
 -1.647056681039604E-005
 -3.213241287495162E-004
 -5.841534768660256E-004
 -8.110594290933717E-004
 -1.007861361162027E-003
 -1.179890707839582E-003
 -1.331930445353410E-003
 -1.468260704896614E-003
 -1.592768650985091E-003
 -1.709088149739618E-003
 -1.820744368052110E-003
 -1.931285741658874E-003
 -2.044389688930940E-003
 -2.163928701015649E-003
  3.022372267077889E-004
  4.067004543682718E-006
 -2.596465542079135E-004
 -4.926429683389699E-004
 -6.989624454958838E-004
 -8.825398509876389E-004
 -1.046992944086805E-003
 -1.195570778402114E-003
 -1.331204383030955E-003
 -1.456607739564626E-003
 -1.574395392827955E-003
 -1.687197421030006E-003
 -1.797760440930767E-003
 -1.909025439918082E-003
 -2.024172199783428E-003
  2.737403081827669E-004
  3.535045522491703E-005
 -1.815113021568434E-004
 -3.788276030273258E-004
 -5.589142045206625E-004
 -7.239784428611693E-004
 -8.759532904929705E-004
 -1.016518101357604E-003
 -1.147198219429290E-003
 -1.269479219368335E-003
 -1.384912673655087E-003
 -1.495210138943248E-003
 -1.602321980335880E-003
 -1.708498724625663E-003
 -1.816326606355616E-003
  2.507268700650399E-004
  7.694791310525060E-005
 -8.770226146338327E-005
 -2.440710855941902E-004
 -3.930634021908373E-004
 -5.352032533006261E-004
 -6.706533574233509E-004
 -7.994167825522199E-004
 -9.215297586340600E-004
 -1.037188253201868E-003
 -1.146835615321120E-003
 -1.251236890382662E-003
 -1.351550183482424E-003
 -1.449381612298337E-003
 -1.546835127653608E-003
  2.335453331380258E-004
  1.296722718146643E-004
  2.263785313822318E-005
 -8.809725926699086E-005
 -2.021680994843856E-004
 -3.181670867220983E-004
 -4.341808809226482E-004
 -5.483464027531928E-004
 -6.591203582476388E-004
 -7.653565604764535E-004
 -8.663341459355888E-004
 -9.618208186459039E-004
 -1.052145831346919E-003
 -1.138301281813893E-003
 -1.222002290506182E-003
  2.233400352504115E-004
  1.964295416015626E-004
  1.528740787676121E-004
  9.152949154331243E-005
  1.452441044073009E-005
 -7.381506570996504E-005
 -1.689287710424196E-004
 -2.669070461564671E-004
 -3.645937756591133E-004
 -4.594973913289930E-004
 -5.496876425289223E-004
 -6.337795631213797E-004
 -7.111755739497409E-004
 -7.821387621524615E-004
 -8.480939849605164E-004
  2.230000620784923E-004
  2.842714975723785E-004
  3.106616741159760E-004
  2.997913265267334E-004
  2.590302190617410E-004
  1.976312166534163E-004
  1.231841573438618E-004
  4.163422579132386E-005
 -4.236915371440954E-005
 -1.250947948468225E-004
 -2.034214878971025E-004
 -2.746501252524603E-004
 -3.365474211388502E-004
 -3.887064816849504E-004
 -4.317008507524382E-004
  2.399907015381790E-004
  4.119656118371702E-004
  5.095681418579753E-004
  5.431063962332192E-004
  5.338126354970001E-004
  4.961399426692307E-004
  4.403993124594025E-004
  3.741669131397172E-004
  3.032563730283083E-004
  2.323850915174621E-004
  1.656903098451219E-004
  1.071869085614899E-004
  6.116198098786388E-005
  3.241111060966801E-005
  1.853374172076254E-005
  3.251848361697418E-004
  6.187187948598581E-004
  7.627064046860677E-004
  8.268151137546456E-004
  8.404947461205873E-004
  8.212567877564447E-004
  7.808035439429919E-004
  7.275766140507271E-004
  6.680542719440219E-004
  6.075630238885344E-004
  5.509051520417292E-004
  5.029988650437011E-004
  4.697802189714100E-004
  4.600650747298888E-004
  4.896891659430944E-004
SCALARS elementIsPlast double 
LOOKUP_TABLE default
  0.000000000000000E+000
  0.000000000000000E+000
  0.000000000000000E+000
  0.000000000000000E+000
  0.000000000000000E+000
  0.000000000000000E+000
  0.000000000000000E+000
  0.000000000000000E+000
  0.000000000000000E+000
  0.000000000000000E+000
  0.000000000000000E+000
  0.000000000000000E+000
  0.000000000000000E+000
  0.000000000000000E+000
  0.000000000000000E+000
  0.000000000000000E+000
  0.000000000000000E+000
  0.000000000000000E+000
  0.000000000000000E+000
  0.000000000000000E+000
  0.000000000000000E+000
  0.000000000000000E+000
  0.000000000000000E+000
  0.000000000000000E+000
  0.000000000000000E+000
  0.000000000000000E+000
  0.000000000000000E+000
  0.000000000000000E+000
  0.000000000000000E+000
  0.000000000000000E+000
  0.000000000000000E+000
  0.000000000000000E+000
  0.000000000000000E+000
  0.000000000000000E+000
  0.000000000000000E+000
  0.000000000000000E+000
  0.000000000000000E+000
  0.000000000000000E+000
  0.000000000000000E+000
  0.000000000000000E+000
  0.000000000000000E+000
  0.000000000000000E+000
  0.000000000000000E+000
  0.000000000000000E+000
  0.000000000000000E+000
  0.000000000000000E+000
  0.000000000000000E+000
  0.000000000000000E+000
  0.000000000000000E+000
  0.000000000000000E+000
  0.000000000000000E+000
  0.000000000000000E+000
  0.000000000000000E+000
  0.000000000000000E+000
  0.000000000000000E+000
  0.000000000000000E+000
  0.000000000000000E+000
  0.000000000000000E+000
  0.000000000000000E+000
  0.000000000000000E+000
  0.000000000000000E+000
  0.000000000000000E+000
  0.000000000000000E+000
  0.000000000000000E+000
  0.000000000000000E+000
  0.000000000000000E+000
  0.000000000000000E+000
  0.000000000000000E+000
  0.000000000000000E+000
  0.000000000000000E+000
  0.000000000000000E+000
  0.000000000000000E+000
  0.000000000000000E+000
  0.000000000000000E+000
  0.000000000000000E+000
  0.000000000000000E+000
  0.000000000000000E+000
  0.000000000000000E+000
  0.000000000000000E+000
  0.000000000000000E+000
  0.000000000000000E+000
  0.000000000000000E+000
  0.000000000000000E+000
  0.000000000000000E+000
  0.000000000000000E+000
  0.000000000000000E+000
  0.000000000000000E+000
  0.000000000000000E+000
  0.000000000000000E+000
  0.000000000000000E+000
  0.000000000000000E+000
  0.000000000000000E+000
  0.000000000000000E+000
  0.000000000000000E+000
  0.000000000000000E+000
  0.000000000000000E+000
  0.000000000000000E+000
  0.000000000000000E+000
  0.000000000000000E+000
  0.000000000000000E+000
  0.000000000000000E+000
  0.000000000000000E+000
  0.000000000000000E+000
  0.000000000000000E+000
  0.000000000000000E+000
  0.000000000000000E+000
  0.000000000000000E+000
  0.000000000000000E+000
  0.000000000000000E+000
  0.000000000000000E+000
  0.000000000000000E+000
  0.000000000000000E+000
  0.000000000000000E+000
  0.000000000000000E+000
  0.000000000000000E+000
  0.000000000000000E+000
  0.000000000000000E+000
  0.000000000000000E+000
  0.000000000000000E+000
  0.000000000000000E+000
  0.000000000000000E+000
  0.000000000000000E+000
  0.000000000000000E+000
  0.000000000000000E+000
  0.000000000000000E+000
  0.000000000000000E+000
  0.000000000000000E+000
  0.000000000000000E+000
  0.000000000000000E+000
  0.000000000000000E+000
  0.000000000000000E+000
  0.000000000000000E+000
  0.000000000000000E+000
  0.000000000000000E+000
  0.000000000000000E+000
  0.000000000000000E+000
  0.000000000000000E+000
  0.000000000000000E+000
  0.000000000000000E+000
  0.000000000000000E+000
  0.000000000000000E+000
  0.000000000000000E+000
  0.000000000000000E+000
  0.000000000000000E+000
  0.000000000000000E+000
  0.000000000000000E+000
  0.000000000000000E+000
  0.000000000000000E+000
  0.000000000000000E+000
  0.000000000000000E+000
  0.000000000000000E+000
  0.000000000000000E+000
  0.000000000000000E+000
  0.000000000000000E+000
  0.000000000000000E+000
  0.000000000000000E+000
  0.000000000000000E+000
  0.000000000000000E+000
  0.000000000000000E+000
  0.000000000000000E+000
  0.000000000000000E+000
  0.000000000000000E+000
  0.000000000000000E+000
  0.000000000000000E+000
  0.000000000000000E+000
  0.000000000000000E+000
  0.000000000000000E+000
  0.000000000000000E+000
  0.000000000000000E+000
  0.000000000000000E+000
  0.000000000000000E+000
  0.000000000000000E+000
  0.000000000000000E+000
  0.000000000000000E+000
  0.000000000000000E+000
  0.000000000000000E+000
  0.000000000000000E+000
  0.000000000000000E+000
  0.000000000000000E+000
  0.000000000000000E+000
  0.000000000000000E+000
  0.000000000000000E+000
  0.000000000000000E+000
  0.000000000000000E+000
  0.000000000000000E+000
  0.000000000000000E+000
  0.000000000000000E+000
  0.000000000000000E+000
  0.000000000000000E+000
  0.000000000000000E+000
  0.000000000000000E+000
  0.000000000000000E+000
  0.000000000000000E+000
  0.000000000000000E+000
  0.000000000000000E+000
  0.000000000000000E+000
  0.000000000000000E+000
  0.000000000000000E+000
  0.000000000000000E+000
  0.000000000000000E+000
  0.000000000000000E+000
  0.000000000000000E+000
  0.000000000000000E+000
  0.000000000000000E+000
  0.000000000000000E+000
  0.000000000000000E+000
  0.000000000000000E+000
  0.000000000000000E+000
  0.000000000000000E+000
  0.000000000000000E+000
  0.000000000000000E+000
  0.000000000000000E+000
  0.000000000000000E+000
  0.000000000000000E+000
  0.000000000000000E+000
  0.000000000000000E+000
  0.000000000000000E+000
  0.000000000000000E+000
  0.000000000000000E+000
  0.000000000000000E+000
  0.000000000000000E+000
  0.000000000000000E+000
  0.000000000000000E+000
  0.000000000000000E+000
  0.000000000000000E+000
  0.000000000000000E+000
  0.000000000000000E+000
  0.000000000000000E+000
  0.000000000000000E+000
  0.000000000000000E+000
  0.000000000000000E+000
  0.000000000000000E+000
  0.000000000000000E+000
  0.000000000000000E+000
  0.000000000000000E+000
  0.000000000000000E+000
  0.000000000000000E+000
  0.000000000000000E+000
  0.000000000000000E+000
  0.000000000000000E+000
  0.000000000000000E+000
  0.000000000000000E+000
  0.000000000000000E+000
  0.000000000000000E+000
  0.000000000000000E+000
  0.000000000000000E+000
  0.000000000000000E+000
  0.000000000000000E+000
  0.000000000000000E+000
  0.000000000000000E+000
  0.000000000000000E+000
  0.000000000000000E+000
  0.000000000000000E+000
  0.000000000000000E+000
  0.000000000000000E+000
  0.000000000000000E+000
  0.000000000000000E+000
  0.000000000000000E+000
  0.000000000000000E+000
  0.000000000000000E+000
  0.000000000000000E+000
  0.000000000000000E+000
  0.000000000000000E+000
  0.000000000000000E+000
  0.000000000000000E+000
  0.000000000000000E+000
  0.000000000000000E+000
  0.000000000000000E+000
  0.000000000000000E+000
  0.000000000000000E+000
  0.000000000000000E+000
  0.000000000000000E+000
  0.000000000000000E+000
  0.000000000000000E+000
  0.000000000000000E+000
  0.000000000000000E+000
  0.000000000000000E+000
  0.000000000000000E+000
  0.000000000000000E+000
  0.000000000000000E+000
  0.000000000000000E+000
  0.000000000000000E+000
  0.000000000000000E+000
  0.000000000000000E+000
  0.000000000000000E+000
  0.000000000000000E+000
  0.000000000000000E+000
  0.000000000000000E+000
  0.000000000000000E+000
  0.000000000000000E+000
  0.000000000000000E+000
  0.000000000000000E+000
  0.000000000000000E+000
  0.000000000000000E+000
  0.000000000000000E+000
  0.000000000000000E+000
  0.000000000000000E+000
  0.000000000000000E+000
  0.000000000000000E+000
  0.000000000000000E+000
  0.000000000000000E+000
  0.000000000000000E+000
  0.000000000000000E+000
  0.000000000000000E+000
  0.000000000000000E+000
  0.000000000000000E+000
  0.000000000000000E+000
  0.000000000000000E+000
  0.000000000000000E+000
  0.000000000000000E+000
  0.000000000000000E+000
  0.000000000000000E+000
  0.000000000000000E+000
  0.000000000000000E+000
  0.000000000000000E+000
  0.000000000000000E+000
  0.000000000000000E+000
  0.000000000000000E+000
  0.000000000000000E+000
  0.000000000000000E+000
  0.000000000000000E+000
  0.000000000000000E+000
  0.000000000000000E+000
  0.000000000000000E+000
  0.000000000000000E+000
  0.000000000000000E+000
  0.000000000000000E+000
  0.000000000000000E+000
  0.000000000000000E+000
  0.000000000000000E+000
  0.000000000000000E+000
  0.000000000000000E+000
  0.000000000000000E+000
  0.000000000000000E+000
  0.000000000000000E+000
  0.000000000000000E+000
  0.000000000000000E+000
  0.000000000000000E+000
  0.000000000000000E+000
  0.000000000000000E+000
  0.000000000000000E+000
  0.000000000000000E+000
  0.000000000000000E+000
  0.000000000000000E+000
  0.000000000000000E+000
  0.000000000000000E+000
  0.000000000000000E+000
  0.000000000000000E+000
  0.000000000000000E+000
  0.000000000000000E+000
  0.000000000000000E+000
  0.000000000000000E+000
  0.000000000000000E+000
  0.000000000000000E+000
  0.000000000000000E+000
  0.000000000000000E+000
  0.000000000000000E+000
  0.000000000000000E+000
  0.000000000000000E+000
  0.000000000000000E+000
  0.000000000000000E+000
  0.000000000000000E+000
  0.000000000000000E+000
  0.000000000000000E+000
  0.000000000000000E+000
  0.000000000000000E+000
  0.000000000000000E+000
  0.000000000000000E+000
  0.000000000000000E+000
  0.000000000000000E+000
  0.000000000000000E+000
  0.000000000000000E+000
  0.000000000000000E+000
  0.000000000000000E+000
  0.000000000000000E+000
  0.000000000000000E+000
  0.000000000000000E+000
  0.000000000000000E+000
  0.000000000000000E+000
  0.000000000000000E+000
  0.000000000000000E+000
  0.000000000000000E+000
  0.000000000000000E+000
  0.000000000000000E+000
  0.000000000000000E+000
  0.000000000000000E+000
  0.000000000000000E+000
  0.000000000000000E+000
  0.000000000000000E+000
  0.000000000000000E+000
  0.000000000000000E+000
  0.000000000000000E+000
  0.000000000000000E+000
  0.000000000000000E+000
  0.000000000000000E+000
  0.000000000000000E+000
  0.000000000000000E+000
  0.000000000000000E+000
  0.000000000000000E+000
  0.000000000000000E+000
  0.000000000000000E+000
  0.000000000000000E+000
  0.000000000000000E+000
  0.000000000000000E+000
  0.000000000000000E+000
  0.000000000000000E+000
  0.000000000000000E+000
  0.000000000000000E+000
  0.000000000000000E+000
  0.000000000000000E+000
  0.000000000000000E+000
  0.000000000000000E+000
  0.000000000000000E+000
  0.000000000000000E+000
  0.000000000000000E+000
  0.000000000000000E+000
  0.000000000000000E+000
  0.000000000000000E+000
  0.000000000000000E+000
  0.000000000000000E+000
  0.000000000000000E+000
  0.000000000000000E+000
  0.000000000000000E+000
  0.000000000000000E+000
  0.000000000000000E+000
  0.000000000000000E+000
  0.000000000000000E+000
  0.000000000000000E+000
  0.000000000000000E+000
  0.000000000000000E+000
  0.000000000000000E+000
  0.000000000000000E+000
  0.000000000000000E+000
  0.000000000000000E+000
  0.000000000000000E+000
  0.000000000000000E+000
  0.000000000000000E+000
  0.000000000000000E+000
  0.000000000000000E+000
  0.000000000000000E+000
  0.000000000000000E+000
  0.000000000000000E+000
  0.000000000000000E+000
  0.000000000000000E+000
  0.000000000000000E+000
  0.000000000000000E+000
  0.000000000000000E+000
  0.000000000000000E+000
  0.000000000000000E+000
  0.000000000000000E+000
SCALARS poroL double 
LOOKUP_TABLE default
  0.255464190548218     
  0.254280358282806     
  0.253435020528939     
  0.252772449568974     
  0.252229553245907     
  0.251770529284630     
  0.251372444488379     
  0.251019071234601     
  0.250697857028439     
  0.250398085059258     
  0.250109435841135     
  0.249820384742163     
  0.249515449460333     
  0.249169269323434     
  0.248711770320030     
  0.254468250391771     
  0.253570802299494     
  0.252819384726445     
  0.252203839864418     
  0.251687430991442     
  0.251244905271192     
  0.250857973354696     
  0.250512867627752     
  0.250198558932274     
  0.249905522897625     
  0.249624743457453     
  0.249346705086307     
  0.249060415896272     
  0.248751062481738     
  0.248429627469958     
  0.253377078200260     
  0.252722145190528     
  0.252112902092740     
  0.251575475953452     
  0.251106955124158     
  0.250695859758244     
  0.250331080260120     
  0.250002898339934     
  0.249702918839957     
  0.249423706076496     
  0.249158432416143     
  0.248900738417486     
  0.248645046405489     
  0.248391601000584     
  0.248149697983177     
  0.252332411874070     
  0.251844514216924     
  0.251362601698475     
  0.250911670982093     
  0.250501124914402     
  0.250130530314068     
  0.249795509175597     
  0.249490689571331     
  0.249210704830910     
  0.248950567092981     
  0.248705888658957     
  0.248473268806919     
  0.248251562670847     
  0.248043490621216     
  0.247857434509101     
  0.251358104514999     
  0.250989444268534     
  0.250608437377169     
  0.250235963474330     
  0.249883876979881     
  0.249556941307085     
  0.249255548323804     
  0.248977939692206     
  0.248721528154440     
  0.248483634492333     
  0.248262020148791     
  0.248055507458537     
  0.247864754434691     
  0.247693133508698     
  0.247547139551423     
  0.250458390327711     
  0.250175594200634     
  0.249872396462247     
  0.249565609323559     
  0.249266674086364     
  0.248982168314940     
  0.248715075637373     
  0.248466129296890     
  0.248234891720129     
  0.248020534958672     
  0.247822450113678     
  0.247640800876426     
  0.247477060705495     
  0.247334422185284     
  0.247217912783922     
  0.249629352721468     
  0.249408206120361     
  0.249163997983672     
  0.248910232207249     
  0.248657030104619     
  0.248411213904795     
  0.248176885897755     
  0.247956211083736     
  0.247750177795533     
  0.247559246573718     
  0.247383888074219     
  0.247225036999493     
  0.247084456166514     
  0.246964962104640     
  0.246870433612897     
  0.248863108691599     
  0.248685545877207     
  0.248485423385449     
  0.248273551855289     
  0.248058529344645     
  0.247846694359365     
  0.247642394550832     
  0.247448437566373     
  0.247266597930467     
  0.247098098949267     
  0.246944034492539     
  0.246805716108417     
  0.246684928686756     
  0.246584065348500     
  0.246506111033816     
  0.248149485728648     
  0.248002005069682     
  0.247834400532981     
  0.247655244468604     
  0.247471623739451     
  0.247289065805796     
  0.247111662491480     
  0.246942331358406     
  0.246783144133555     
  0.246635664456514     
  0.246501256311936     
  0.246381338196653     
  0.246277562928298     
  0.246191904316539     
  0.246126636408560     
  0.247477070224960     
  0.247349772639646     
  0.247205976345623     
  0.247052341581231     
  0.246894521872248     
  0.246737094181289     
  0.246583613900845     
  0.246436766719000     
  0.246298577950404     
  0.246170640766340     
  0.246054331914009     
  0.245950991098175     
  0.245862045822276     
  0.245789067980509     
  0.245733754260105     
  0.246833935005705     
  0.246719886650238     
  0.246593661970097     
  0.246460247125196     
  0.246323953535794     
  0.246188359935938     
  0.246056333848539     
  0.245930119108265     
  0.245811466981489     
  0.245701785951968     
  0.245602287243767     
  0.245514107093684     
  0.245438391068568     
  0.245376330119133     
  0.245329142997113     
  0.246208175913828     
  0.246102945940930     
  0.245990215458066     
  0.245873474585416     
  0.245755780481553     
  0.245639711674223     
  0.245527373010838     
  0.245420444537096     
  0.245320261299885     
  0.245227908255075     
  0.245144314556533     
  0.245070333422543     
  0.245006796625394     
  0.244954535987323     
  0.244914367957189     
  0.245588305935763     
  0.245489609398819     
  0.245388192424727     
  0.245286185167301     
  0.245185469714019     
  0.245087645323244     
  0.244994025348355     
  0.244905662300117     
  0.244823393487634     
  0.244747897504847     
  0.244679751406877     
  0.244619479316601     
  0.244567584942261     
  0.244524562722557     
  0.244490884814995     
  0.244963535939848     
  0.244870947713790     
  0.244780337993978     
  0.244692581828789     
  0.244608455207002     
  0.244528609921107     
  0.244453566879462     
  0.244383725861340     
  0.244319387513218     
  0.244260782087642     
  0.244208099062258     
  0.244161512187347     
  0.244121195470337     
  0.244087326908403     
  0.244060078257544     
  0.244323964496152     
  0.244238687672202     
  0.244159865597638     
  0.244087197863854     
  0.244020412514509     
  0.243959249890854     
  0.243903454648625     
  0.243852774786402     
  0.243806965830033     
  0.243765797919460     
  0.243729063459737     
  0.243696583184166     
  0.243668208865669     
  0.243643821432983     
  0.243623323838414     
  0.243660696971007     
  0.243585377707342     
  0.243520654560691     
  0.243465108900456     
  0.243417467618454     
  0.243376596106616     
  0.243341490078691     
  0.243311265693163     
  0.243285148143200     
  0.243262459379597     
  0.243242605888268     
  0.243225067485034     
  0.243209387978264     
  0.243195168347154     
  0.243182062840947     
  0.242965912269923     
  0.242904497496112     
  0.242857391084518     
  0.242822091331187     
  0.242796358565813     
  0.242778218310649     
  0.242765953096102     
  0.242758083130648     
  0.242753338264167     
  0.242750625107737     
  0.242748993722957     
  0.242747608117593     
  0.242745724104944     
  0.242742677108680     
  0.242737881384036     
  0.242232893384420     
  0.242190530691168     
  0.242165673105023     
  0.242154746794934     
  0.242154566532345     
  0.242162351106038     
  0.242175714277974     
  0.242192632815645     
  0.242211397264503     
  0.242230553477017     
  0.242248843551459     
  0.242265154178516     
  0.242278478934413     
  0.242287899162671     
  0.242292585990923     
  0.241456035319227     
  0.241439017468246     
  0.241442097416408     
  0.241460610782715     
  0.241490432073860     
  0.241528005517012     
  0.241570332531611     
  0.241614920228340     
  0.241659701879185     
  0.241702943384931     
  0.241743149917287     
  0.241778985220993     
  0.241809213464310     
  0.241832670525530     
  0.241848268369958     
  0.240630841454729     
  0.240646602540580     
  0.240684347395298     
  0.240738263808099     
  0.240803272703937     
  0.240875078294725     
  0.240950145793342     
  0.241025617411991     
  0.241099186904414     
  0.241168955794971     
  0.241233292704606     
  0.241290713397313     
  0.241339795031365     
  0.241379133983332     
  0.241407352200637     
  0.239753917573137     
  0.239811095489058     
  0.239891302461979     
  0.239987466481885     
  0.240093519893242     
  0.240204471836357     
  0.240316361892812     
  0.240426119902437     
  0.240531369195236     
  0.240630210255348     
  0.240721014931174     
  0.240802253662148     
  0.240872372420724     
  0.240929731651893     
  0.240972614303693     
  0.238822972663501     
  0.238931565544559     
  0.239063198015590     
  0.239209346514962     
  0.239362897464436     
  0.239518238450191     
  0.239671155555869     
  0.239818593687470     
  0.239958348733950     
  0.240088748508079     
  0.240208360448635     
  0.240315749831673     
  0.240409306549752     
  0.240487156762237     
  0.240547171751152     
  0.237836839067579     
  0.238008506420398     
  0.238201880902088     
  0.238406678313998     
  0.238614669063564     
  0.238819762387192     
  0.239017774067451     
  0.239206008249284     
  0.239382779156200     
  0.239546954710457     
  0.239697557985208     
  0.239833440279975     
  0.239953039716460     
  0.240054249971690     
  0.240134425180056     
  0.236795536199922     
  0.237044137348226     
  0.237311239144683     
  0.237584317390859     
  0.237853988158479     
  0.238113987461776     
  0.238360645286052     
  0.238592144989810     
  0.238807796881698     
  0.239007420059098     
  0.239190835053804     
  0.239357440888122     
  0.239505878163219     
  0.239633818245526     
  0.239737946330654     
  0.235700430702689     
  0.236042979801644     
  0.236397952054122     
  0.236749886497459     
  0.237088380574915     
  0.237407677393409     
  0.237705461571680     
  0.237981560250883     
  0.238236896986359     
  0.238472742963983     
  0.238690144508493     
  0.238889414543438     
  0.239069645590488     
  0.239228338691856     
  0.239361292190816     
  0.234554641171362     
  0.235013018287770     
  0.235472858534821     
  0.235914843430923     
  0.236328350771663     
  0.236709636594539     
  0.237059175943507     
  0.237379470804195     
  0.237673752153941     
  0.237945270245936     
  0.238196799720834     
  0.238430081645137     
  0.238645133686378     
  0.238839466384557     
  0.239007714636643     
  0.233364029294235     
  0.233968320299915     
  0.234553487747996     
  0.235096054200958     
  0.235587918618778     
  0.236030694798744     
  0.236429805579143     
  0.236791524360166     
  0.237121987460827     
  0.237426839416348     
  0.237711042475393     
  0.237978546607638     
  0.238231170647222     
  0.238467178306316     
  0.238679671576750     
  0.232140755767633     
  0.232935157637070     
  0.233669012020701     
  0.234317318544603     
  0.234884409229516     
  0.235383165850435     
  0.235825920578714     
  0.236223429574068     
  0.236584950727565     
  0.236918620405291     
  0.237231818800379     
  0.237531339279204     
  0.237823144865282     
  0.238107873318241     
  0.238377976754673     
  0.230914385205265     
  0.231971865471207     
  0.232865829106822     
  0.233607854364403     
  0.234236762795975     
  0.234779504217108     
  0.235255765977630     
  0.235680457399299     
  0.236065524804049     
  0.236421199416834     
  0.236756990514044     
  0.237082664795790     
  0.237409184905188     
  0.237750878950867     
  0.238098818440785     
  0.229833706604513     
  0.231195932318676     
  0.232196530815209     
  0.232996561792379     
  0.233661878719713     
  0.234230251514999     
  0.234726117079614     
  0.235166882813553     
  0.235566018526851     
  0.235934917978375     
  0.236284324261758     
  0.236625867205173     
  0.236974624861075     
  0.237354544327185     
  0.237830034823332     
