# vtk DataFile Version 3.0
vtk output
ASCII
DATASET UNSTRUCTURED_GRID
POINTS       496 double 
  0.00000000E+00  3.00000000E+02  0.00000000E+00
  0.00000000E+00  2.80000000E+02  0.00000000E+00
  0.00000000E+00  2.60000000E+02  0.00000000E+00
  0.00000000E+00  2.40000000E+02  0.00000000E+00
  0.00000000E+00  2.20000000E+02  0.00000000E+00
  0.00000000E+00  2.00000000E+02  0.00000000E+00
  0.00000000E+00  1.80000000E+02  0.00000000E+00
  0.00000000E+00  1.60000000E+02  0.00000000E+00
  0.00000000E+00  1.40000000E+02  0.00000000E+00
  0.00000000E+00  1.20000000E+02  0.00000000E+00
  0.00000000E+00  1.00000000E+02  0.00000000E+00
  0.00000000E+00  8.00000000E+01  0.00000000E+00
  0.00000000E+00  6.00000000E+01  0.00000000E+00
  0.00000000E+00  4.00000000E+01  0.00000000E+00
  0.00000000E+00  2.00000000E+01  0.00000000E+00
  0.00000000E+00  4.99600361E-14  0.00000000E+00
  2.00000000E+01  3.00000000E+02  0.00000000E+00
  2.00000000E+01  2.80000000E+02  0.00000000E+00
  2.00000000E+01  2.60000000E+02  0.00000000E+00
  2.00000000E+01  2.40000000E+02  0.00000000E+00
  2.00000000E+01  2.20000000E+02  0.00000000E+00
  2.00000000E+01  2.00000000E+02  0.00000000E+00
  2.00000000E+01  1.80000000E+02  0.00000000E+00
  2.00000000E+01  1.60000000E+02  0.00000000E+00
  2.00000000E+01  1.40000000E+02  0.00000000E+00
  2.00000000E+01  1.20000000E+02  0.00000000E+00
  2.00000000E+01  1.00000000E+02  0.00000000E+00
  2.00000000E+01  8.00000000E+01  0.00000000E+00
  2.00000000E+01  6.00000000E+01  0.00000000E+00
  2.00000000E+01  4.00000000E+01  0.00000000E+00
  2.00000000E+01  2.00000000E+01  0.00000000E+00
  2.00000000E+01  4.99600361E-14  0.00000000E+00
  4.00000000E+01  3.00000000E+02  0.00000000E+00
  4.00000000E+01  2.80000000E+02  0.00000000E+00
  4.00000000E+01  2.60000000E+02  0.00000000E+00
  4.00000000E+01  2.40000000E+02  0.00000000E+00
  4.00000000E+01  2.20000000E+02  0.00000000E+00
  4.00000000E+01  2.00000000E+02  0.00000000E+00
  4.00000000E+01  1.80000000E+02  0.00000000E+00
  4.00000000E+01  1.60000000E+02  0.00000000E+00
  4.00000000E+01  1.40000000E+02  0.00000000E+00
  4.00000000E+01  1.20000000E+02  0.00000000E+00
  4.00000000E+01  1.00000000E+02  0.00000000E+00
  4.00000000E+01  8.00000000E+01  0.00000000E+00
  4.00000000E+01  6.00000000E+01  0.00000000E+00
  4.00000000E+01  4.00000000E+01  0.00000000E+00
  4.00000000E+01  2.00000000E+01  0.00000000E+00
  4.00000000E+01  4.99600361E-14  0.00000000E+00
  6.00000000E+01  3.00000000E+02  0.00000000E+00
  6.00000000E+01  2.80000000E+02  0.00000000E+00
  6.00000000E+01  2.60000000E+02  0.00000000E+00
  6.00000000E+01  2.40000000E+02  0.00000000E+00
  6.00000000E+01  2.20000000E+02  0.00000000E+00
  6.00000000E+01  2.00000000E+02  0.00000000E+00
  6.00000000E+01  1.80000000E+02  0.00000000E+00
  6.00000000E+01  1.60000000E+02  0.00000000E+00
  6.00000000E+01  1.40000000E+02  0.00000000E+00
  6.00000000E+01  1.20000000E+02  0.00000000E+00
  6.00000000E+01  1.00000000E+02  0.00000000E+00
  6.00000000E+01  8.00000000E+01  0.00000000E+00
  6.00000000E+01  6.00000000E+01  0.00000000E+00
  6.00000000E+01  4.00000000E+01  0.00000000E+00
  6.00000000E+01  2.00000000E+01  0.00000000E+00
  6.00000000E+01  4.99600361E-14  0.00000000E+00
  8.00000000E+01  3.00000000E+02  0.00000000E+00
  8.00000000E+01  2.80000000E+02  0.00000000E+00
  8.00000000E+01  2.60000000E+02  0.00000000E+00
  8.00000000E+01  2.40000000E+02  0.00000000E+00
  8.00000000E+01  2.20000000E+02  0.00000000E+00
  8.00000000E+01  2.00000000E+02  0.00000000E+00
  8.00000000E+01  1.80000000E+02  0.00000000E+00
  8.00000000E+01  1.60000000E+02  0.00000000E+00
  8.00000000E+01  1.40000000E+02  0.00000000E+00
  8.00000000E+01  1.20000000E+02  0.00000000E+00
  8.00000000E+01  1.00000000E+02  0.00000000E+00
  8.00000000E+01  8.00000000E+01  0.00000000E+00
  8.00000000E+01  6.00000000E+01  0.00000000E+00
  8.00000000E+01  4.00000000E+01  0.00000000E+00
  8.00000000E+01  2.00000000E+01  0.00000000E+00
  8.00000000E+01  4.99600361E-14  0.00000000E+00
  1.00000000E+02  3.00000000E+02  0.00000000E+00
  1.00000000E+02  2.80000000E+02  0.00000000E+00
  1.00000000E+02  2.60000000E+02  0.00000000E+00
  1.00000000E+02  2.40000000E+02  0.00000000E+00
  1.00000000E+02  2.20000000E+02  0.00000000E+00
  1.00000000E+02  2.00000000E+02  0.00000000E+00
  1.00000000E+02  1.80000000E+02  0.00000000E+00
  1.00000000E+02  1.60000000E+02  0.00000000E+00
  1.00000000E+02  1.40000000E+02  0.00000000E+00
  1.00000000E+02  1.20000000E+02  0.00000000E+00
  1.00000000E+02  1.00000000E+02  0.00000000E+00
  1.00000000E+02  8.00000000E+01  0.00000000E+00
  1.00000000E+02  6.00000000E+01  0.00000000E+00
  1.00000000E+02  4.00000000E+01  0.00000000E+00
  1.00000000E+02  2.00000000E+01  0.00000000E+00
  1.00000000E+02  4.99600361E-14  0.00000000E+00
  1.20000000E+02  3.00000000E+02  0.00000000E+00
  1.20000000E+02  2.80000000E+02  0.00000000E+00
  1.20000000E+02  2.60000000E+02  0.00000000E+00
  1.20000000E+02  2.40000000E+02  0.00000000E+00
  1.20000000E+02  2.20000000E+02  0.00000000E+00
  1.20000000E+02  2.00000000E+02  0.00000000E+00
  1.20000000E+02  1.80000000E+02  0.00000000E+00
  1.20000000E+02  1.60000000E+02  0.00000000E+00
  1.20000000E+02  1.40000000E+02  0.00000000E+00
  1.20000000E+02  1.20000000E+02  0.00000000E+00
  1.20000000E+02  1.00000000E+02  0.00000000E+00
  1.20000000E+02  8.00000000E+01  0.00000000E+00
  1.20000000E+02  6.00000000E+01  0.00000000E+00
  1.20000000E+02  4.00000000E+01  0.00000000E+00
  1.20000000E+02  2.00000000E+01  0.00000000E+00
  1.20000000E+02  4.99600361E-14  0.00000000E+00
  1.40000000E+02  3.00000000E+02  0.00000000E+00
  1.40000000E+02  2.80000000E+02  0.00000000E+00
  1.40000000E+02  2.60000000E+02  0.00000000E+00
  1.40000000E+02  2.40000000E+02  0.00000000E+00
  1.40000000E+02  2.20000000E+02  0.00000000E+00
  1.40000000E+02  2.00000000E+02  0.00000000E+00
  1.40000000E+02  1.80000000E+02  0.00000000E+00
  1.40000000E+02  1.60000000E+02  0.00000000E+00
  1.40000000E+02  1.40000000E+02  0.00000000E+00
  1.40000000E+02  1.20000000E+02  0.00000000E+00
  1.40000000E+02  1.00000000E+02  0.00000000E+00
  1.40000000E+02  8.00000000E+01  0.00000000E+00
  1.40000000E+02  6.00000000E+01  0.00000000E+00
  1.40000000E+02  4.00000000E+01  0.00000000E+00
  1.40000000E+02  2.00000000E+01  0.00000000E+00
  1.40000000E+02  4.99600361E-14  0.00000000E+00
  1.60000000E+02  3.00000000E+02  0.00000000E+00
  1.60000000E+02  2.80000000E+02  0.00000000E+00
  1.60000000E+02  2.60000000E+02  0.00000000E+00
  1.60000000E+02  2.40000000E+02  0.00000000E+00
  1.60000000E+02  2.20000000E+02  0.00000000E+00
  1.60000000E+02  2.00000000E+02  0.00000000E+00
  1.60000000E+02  1.80000000E+02  0.00000000E+00
  1.60000000E+02  1.60000000E+02  0.00000000E+00
  1.60000000E+02  1.40000000E+02  0.00000000E+00
  1.60000000E+02  1.20000000E+02  0.00000000E+00
  1.60000000E+02  1.00000000E+02  0.00000000E+00
  1.60000000E+02  8.00000000E+01  0.00000000E+00
  1.60000000E+02  6.00000000E+01  0.00000000E+00
  1.60000000E+02  4.00000000E+01  0.00000000E+00
  1.60000000E+02  2.00000000E+01  0.00000000E+00
  1.60000000E+02  4.99600361E-14  0.00000000E+00
  1.80000000E+02  3.00000000E+02  0.00000000E+00
  1.80000000E+02  2.80000000E+02  0.00000000E+00
  1.80000000E+02  2.60000000E+02  0.00000000E+00
  1.80000000E+02  2.40000000E+02  0.00000000E+00
  1.80000000E+02  2.20000000E+02  0.00000000E+00
  1.80000000E+02  2.00000000E+02  0.00000000E+00
  1.80000000E+02  1.80000000E+02  0.00000000E+00
  1.80000000E+02  1.60000000E+02  0.00000000E+00
  1.80000000E+02  1.40000000E+02  0.00000000E+00
  1.80000000E+02  1.20000000E+02  0.00000000E+00
  1.80000000E+02  1.00000000E+02  0.00000000E+00
  1.80000000E+02  8.00000000E+01  0.00000000E+00
  1.80000000E+02  6.00000000E+01  0.00000000E+00
  1.80000000E+02  4.00000000E+01  0.00000000E+00
  1.80000000E+02  2.00000000E+01  0.00000000E+00
  1.80000000E+02  4.99600361E-14  0.00000000E+00
  2.00000000E+02  3.00000000E+02  0.00000000E+00
  2.00000000E+02  2.80000000E+02  0.00000000E+00
  2.00000000E+02  2.60000000E+02  0.00000000E+00
  2.00000000E+02  2.40000000E+02  0.00000000E+00
  2.00000000E+02  2.20000000E+02  0.00000000E+00
  2.00000000E+02  2.00000000E+02  0.00000000E+00
  2.00000000E+02  1.80000000E+02  0.00000000E+00
  2.00000000E+02  1.60000000E+02  0.00000000E+00
  2.00000000E+02  1.40000000E+02  0.00000000E+00
  2.00000000E+02  1.20000000E+02  0.00000000E+00
  2.00000000E+02  1.00000000E+02  0.00000000E+00
  2.00000000E+02  8.00000000E+01  0.00000000E+00
  2.00000000E+02  6.00000000E+01  0.00000000E+00
  2.00000000E+02  4.00000000E+01  0.00000000E+00
  2.00000000E+02  2.00000000E+01  0.00000000E+00
  2.00000000E+02  4.99600361E-14  0.00000000E+00
  2.20000000E+02  3.00000000E+02  0.00000000E+00
  2.20000000E+02  2.80000000E+02  0.00000000E+00
  2.20000000E+02  2.60000000E+02  0.00000000E+00
  2.20000000E+02  2.40000000E+02  0.00000000E+00
  2.20000000E+02  2.20000000E+02  0.00000000E+00
  2.20000000E+02  2.00000000E+02  0.00000000E+00
  2.20000000E+02  1.80000000E+02  0.00000000E+00
  2.20000000E+02  1.60000000E+02  0.00000000E+00
  2.20000000E+02  1.40000000E+02  0.00000000E+00
  2.20000000E+02  1.20000000E+02  0.00000000E+00
  2.20000000E+02  1.00000000E+02  0.00000000E+00
  2.20000000E+02  8.00000000E+01  0.00000000E+00
  2.20000000E+02  6.00000000E+01  0.00000000E+00
  2.20000000E+02  4.00000000E+01  0.00000000E+00
  2.20000000E+02  2.00000000E+01  0.00000000E+00
  2.20000000E+02  4.99600361E-14  0.00000000E+00
  2.40000000E+02  3.00000000E+02  0.00000000E+00
  2.40000000E+02  2.80000000E+02  0.00000000E+00
  2.40000000E+02  2.60000000E+02  0.00000000E+00
  2.40000000E+02  2.40000000E+02  0.00000000E+00
  2.40000000E+02  2.20000000E+02  0.00000000E+00
  2.40000000E+02  2.00000000E+02  0.00000000E+00
  2.40000000E+02  1.80000000E+02  0.00000000E+00
  2.40000000E+02  1.60000000E+02  0.00000000E+00
  2.40000000E+02  1.40000000E+02  0.00000000E+00
  2.40000000E+02  1.20000000E+02  0.00000000E+00
  2.40000000E+02  1.00000000E+02  0.00000000E+00
  2.40000000E+02  8.00000000E+01  0.00000000E+00
  2.40000000E+02  6.00000000E+01  0.00000000E+00
  2.40000000E+02  4.00000000E+01  0.00000000E+00
  2.40000000E+02  2.00000000E+01  0.00000000E+00
  2.40000000E+02  4.99600361E-14  0.00000000E+00
  2.60000000E+02  3.00000000E+02  0.00000000E+00
  2.60000000E+02  2.80000000E+02  0.00000000E+00
  2.60000000E+02  2.60000000E+02  0.00000000E+00
  2.60000000E+02  2.40000000E+02  0.00000000E+00
  2.60000000E+02  2.20000000E+02  0.00000000E+00
  2.60000000E+02  2.00000000E+02  0.00000000E+00
  2.60000000E+02  1.80000000E+02  0.00000000E+00
  2.60000000E+02  1.60000000E+02  0.00000000E+00
  2.60000000E+02  1.40000000E+02  0.00000000E+00
  2.60000000E+02  1.20000000E+02  0.00000000E+00
  2.60000000E+02  1.00000000E+02  0.00000000E+00
  2.60000000E+02  8.00000000E+01  0.00000000E+00
  2.60000000E+02  6.00000000E+01  0.00000000E+00
  2.60000000E+02  4.00000000E+01  0.00000000E+00
  2.60000000E+02  2.00000000E+01  0.00000000E+00
  2.60000000E+02  4.99600361E-14  0.00000000E+00
  2.80000000E+02  3.00000000E+02  0.00000000E+00
  2.80000000E+02  2.80000000E+02  0.00000000E+00
  2.80000000E+02  2.60000000E+02  0.00000000E+00
  2.80000000E+02  2.40000000E+02  0.00000000E+00
  2.80000000E+02  2.20000000E+02  0.00000000E+00
  2.80000000E+02  2.00000000E+02  0.00000000E+00
  2.80000000E+02  1.80000000E+02  0.00000000E+00
  2.80000000E+02  1.60000000E+02  0.00000000E+00
  2.80000000E+02  1.40000000E+02  0.00000000E+00
  2.80000000E+02  1.20000000E+02  0.00000000E+00
  2.80000000E+02  1.00000000E+02  0.00000000E+00
  2.80000000E+02  8.00000000E+01  0.00000000E+00
  2.80000000E+02  6.00000000E+01  0.00000000E+00
  2.80000000E+02  4.00000000E+01  0.00000000E+00
  2.80000000E+02  2.00000000E+01  0.00000000E+00
  2.80000000E+02  4.99600361E-14  0.00000000E+00
  3.00000000E+02  3.00000000E+02  0.00000000E+00
  3.00000000E+02  2.80000000E+02  0.00000000E+00
  3.00000000E+02  2.60000000E+02  0.00000000E+00
  3.00000000E+02  2.40000000E+02  0.00000000E+00
  3.00000000E+02  2.20000000E+02  0.00000000E+00
  3.00000000E+02  2.00000000E+02  0.00000000E+00
  3.00000000E+02  1.80000000E+02  0.00000000E+00
  3.00000000E+02  1.60000000E+02  0.00000000E+00
  3.00000000E+02  1.40000000E+02  0.00000000E+00
  3.00000000E+02  1.20000000E+02  0.00000000E+00
  3.00000000E+02  1.00000000E+02  0.00000000E+00
  3.00000000E+02  8.00000000E+01  0.00000000E+00
  3.00000000E+02  6.00000000E+01  0.00000000E+00
  3.00000000E+02  4.00000000E+01  0.00000000E+00
  3.00000000E+02  2.00000000E+01  0.00000000E+00
  3.00000000E+02  4.99600361E-14  0.00000000E+00
  3.20000000E+02  3.00000000E+02  0.00000000E+00
  3.20000000E+02  2.80000000E+02  0.00000000E+00
  3.20000000E+02  2.60000000E+02  0.00000000E+00
  3.20000000E+02  2.40000000E+02  0.00000000E+00
  3.20000000E+02  2.20000000E+02  0.00000000E+00
  3.20000000E+02  2.00000000E+02  0.00000000E+00
  3.20000000E+02  1.80000000E+02  0.00000000E+00
  3.20000000E+02  1.60000000E+02  0.00000000E+00
  3.20000000E+02  1.40000000E+02  0.00000000E+00
  3.20000000E+02  1.20000000E+02  0.00000000E+00
  3.20000000E+02  1.00000000E+02  0.00000000E+00
  3.20000000E+02  8.00000000E+01  0.00000000E+00
  3.20000000E+02  6.00000000E+01  0.00000000E+00
  3.20000000E+02  4.00000000E+01  0.00000000E+00
  3.20000000E+02  2.00000000E+01  0.00000000E+00
  3.20000000E+02  4.99600361E-14  0.00000000E+00
  3.40000000E+02  3.00000000E+02  0.00000000E+00
  3.40000000E+02  2.80000000E+02  0.00000000E+00
  3.40000000E+02  2.60000000E+02  0.00000000E+00
  3.40000000E+02  2.40000000E+02  0.00000000E+00
  3.40000000E+02  2.20000000E+02  0.00000000E+00
  3.40000000E+02  2.00000000E+02  0.00000000E+00
  3.40000000E+02  1.80000000E+02  0.00000000E+00
  3.40000000E+02  1.60000000E+02  0.00000000E+00
  3.40000000E+02  1.40000000E+02  0.00000000E+00
  3.40000000E+02  1.20000000E+02  0.00000000E+00
  3.40000000E+02  1.00000000E+02  0.00000000E+00
  3.40000000E+02  8.00000000E+01  0.00000000E+00
  3.40000000E+02  6.00000000E+01  0.00000000E+00
  3.40000000E+02  4.00000000E+01  0.00000000E+00
  3.40000000E+02  2.00000000E+01  0.00000000E+00
  3.40000000E+02  4.99600361E-14  0.00000000E+00
  3.60000000E+02  3.00000000E+02  0.00000000E+00
  3.60000000E+02  2.80000000E+02  0.00000000E+00
  3.60000000E+02  2.60000000E+02  0.00000000E+00
  3.60000000E+02  2.40000000E+02  0.00000000E+00
  3.60000000E+02  2.20000000E+02  0.00000000E+00
  3.60000000E+02  2.00000000E+02  0.00000000E+00
  3.60000000E+02  1.80000000E+02  0.00000000E+00
  3.60000000E+02  1.60000000E+02  0.00000000E+00
  3.60000000E+02  1.40000000E+02  0.00000000E+00
  3.60000000E+02  1.20000000E+02  0.00000000E+00
  3.60000000E+02  1.00000000E+02  0.00000000E+00
  3.60000000E+02  8.00000000E+01  0.00000000E+00
  3.60000000E+02  6.00000000E+01  0.00000000E+00
  3.60000000E+02  4.00000000E+01  0.00000000E+00
  3.60000000E+02  2.00000000E+01  0.00000000E+00
  3.60000000E+02  4.99600361E-14  0.00000000E+00
  3.80000000E+02  3.00000000E+02  0.00000000E+00
  3.80000000E+02  2.80000000E+02  0.00000000E+00
  3.80000000E+02  2.60000000E+02  0.00000000E+00
  3.80000000E+02  2.40000000E+02  0.00000000E+00
  3.80000000E+02  2.20000000E+02  0.00000000E+00
  3.80000000E+02  2.00000000E+02  0.00000000E+00
  3.80000000E+02  1.80000000E+02  0.00000000E+00
  3.80000000E+02  1.60000000E+02  0.00000000E+00
  3.80000000E+02  1.40000000E+02  0.00000000E+00
  3.80000000E+02  1.20000000E+02  0.00000000E+00
  3.80000000E+02  1.00000000E+02  0.00000000E+00
  3.80000000E+02  8.00000000E+01  0.00000000E+00
  3.80000000E+02  6.00000000E+01  0.00000000E+00
  3.80000000E+02  4.00000000E+01  0.00000000E+00
  3.80000000E+02  2.00000000E+01  0.00000000E+00
  3.80000000E+02  4.99600361E-14  0.00000000E+00
  4.00000000E+02  3.00000000E+02  0.00000000E+00
  4.00000000E+02  2.80000000E+02  0.00000000E+00
  4.00000000E+02  2.60000000E+02  0.00000000E+00
  4.00000000E+02  2.40000000E+02  0.00000000E+00
  4.00000000E+02  2.20000000E+02  0.00000000E+00
  4.00000000E+02  2.00000000E+02  0.00000000E+00
  4.00000000E+02  1.80000000E+02  0.00000000E+00
  4.00000000E+02  1.60000000E+02  0.00000000E+00
  4.00000000E+02  1.40000000E+02  0.00000000E+00
  4.00000000E+02  1.20000000E+02  0.00000000E+00
  4.00000000E+02  1.00000000E+02  0.00000000E+00
  4.00000000E+02  8.00000000E+01  0.00000000E+00
  4.00000000E+02  6.00000000E+01  0.00000000E+00
  4.00000000E+02  4.00000000E+01  0.00000000E+00
  4.00000000E+02  2.00000000E+01  0.00000000E+00
  4.00000000E+02  4.99600361E-14  0.00000000E+00
  4.20000000E+02  3.00000000E+02  0.00000000E+00
  4.20000000E+02  2.80000000E+02  0.00000000E+00
  4.20000000E+02  2.60000000E+02  0.00000000E+00
  4.20000000E+02  2.40000000E+02  0.00000000E+00
  4.20000000E+02  2.20000000E+02  0.00000000E+00
  4.20000000E+02  2.00000000E+02  0.00000000E+00
  4.20000000E+02  1.80000000E+02  0.00000000E+00
  4.20000000E+02  1.60000000E+02  0.00000000E+00
  4.20000000E+02  1.40000000E+02  0.00000000E+00
  4.20000000E+02  1.20000000E+02  0.00000000E+00
  4.20000000E+02  1.00000000E+02  0.00000000E+00
  4.20000000E+02  8.00000000E+01  0.00000000E+00
  4.20000000E+02  6.00000000E+01  0.00000000E+00
  4.20000000E+02  4.00000000E+01  0.00000000E+00
  4.20000000E+02  2.00000000E+01  0.00000000E+00
  4.20000000E+02  4.99600361E-14  0.00000000E+00
  4.40000000E+02  3.00000000E+02  0.00000000E+00
  4.40000000E+02  2.80000000E+02  0.00000000E+00
  4.40000000E+02  2.60000000E+02  0.00000000E+00
  4.40000000E+02  2.40000000E+02  0.00000000E+00
  4.40000000E+02  2.20000000E+02  0.00000000E+00
  4.40000000E+02  2.00000000E+02  0.00000000E+00
  4.40000000E+02  1.80000000E+02  0.00000000E+00
  4.40000000E+02  1.60000000E+02  0.00000000E+00
  4.40000000E+02  1.40000000E+02  0.00000000E+00
  4.40000000E+02  1.20000000E+02  0.00000000E+00
  4.40000000E+02  1.00000000E+02  0.00000000E+00
  4.40000000E+02  8.00000000E+01  0.00000000E+00
  4.40000000E+02  6.00000000E+01  0.00000000E+00
  4.40000000E+02  4.00000000E+01  0.00000000E+00
  4.40000000E+02  2.00000000E+01  0.00000000E+00
  4.40000000E+02  4.99600361E-14  0.00000000E+00
  4.60000000E+02  3.00000000E+02  0.00000000E+00
  4.60000000E+02  2.80000000E+02  0.00000000E+00
  4.60000000E+02  2.60000000E+02  0.00000000E+00
  4.60000000E+02  2.40000000E+02  0.00000000E+00
  4.60000000E+02  2.20000000E+02  0.00000000E+00
  4.60000000E+02  2.00000000E+02  0.00000000E+00
  4.60000000E+02  1.80000000E+02  0.00000000E+00
  4.60000000E+02  1.60000000E+02  0.00000000E+00
  4.60000000E+02  1.40000000E+02  0.00000000E+00
  4.60000000E+02  1.20000000E+02  0.00000000E+00
  4.60000000E+02  1.00000000E+02  0.00000000E+00
  4.60000000E+02  8.00000000E+01  0.00000000E+00
  4.60000000E+02  6.00000000E+01  0.00000000E+00
  4.60000000E+02  4.00000000E+01  0.00000000E+00
  4.60000000E+02  2.00000000E+01  0.00000000E+00
  4.60000000E+02  4.99600361E-14  0.00000000E+00
  4.80000000E+02  3.00000000E+02  0.00000000E+00
  4.80000000E+02  2.80000000E+02  0.00000000E+00
  4.80000000E+02  2.60000000E+02  0.00000000E+00
  4.80000000E+02  2.40000000E+02  0.00000000E+00
  4.80000000E+02  2.20000000E+02  0.00000000E+00
  4.80000000E+02  2.00000000E+02  0.00000000E+00
  4.80000000E+02  1.80000000E+02  0.00000000E+00
  4.80000000E+02  1.60000000E+02  0.00000000E+00
  4.80000000E+02  1.40000000E+02  0.00000000E+00
  4.80000000E+02  1.20000000E+02  0.00000000E+00
  4.80000000E+02  1.00000000E+02  0.00000000E+00
  4.80000000E+02  8.00000000E+01  0.00000000E+00
  4.80000000E+02  6.00000000E+01  0.00000000E+00
  4.80000000E+02  4.00000000E+01  0.00000000E+00
  4.80000000E+02  2.00000000E+01  0.00000000E+00
  4.80000000E+02  4.99600361E-14  0.00000000E+00
  5.00000000E+02  3.00000000E+02  0.00000000E+00
  5.00000000E+02  2.80000000E+02  0.00000000E+00
  5.00000000E+02  2.60000000E+02  0.00000000E+00
  5.00000000E+02  2.40000000E+02  0.00000000E+00
  5.00000000E+02  2.20000000E+02  0.00000000E+00
  5.00000000E+02  2.00000000E+02  0.00000000E+00
  5.00000000E+02  1.80000000E+02  0.00000000E+00
  5.00000000E+02  1.60000000E+02  0.00000000E+00
  5.00000000E+02  1.40000000E+02  0.00000000E+00
  5.00000000E+02  1.20000000E+02  0.00000000E+00
  5.00000000E+02  1.00000000E+02  0.00000000E+00
  5.00000000E+02  8.00000000E+01  0.00000000E+00
  5.00000000E+02  6.00000000E+01  0.00000000E+00
  5.00000000E+02  4.00000000E+01  0.00000000E+00
  5.00000000E+02  2.00000000E+01  0.00000000E+00
  5.00000000E+02  4.99600361E-14  0.00000000E+00
  5.20000000E+02  3.00000000E+02  0.00000000E+00
  5.20000000E+02  2.80000000E+02  0.00000000E+00
  5.20000000E+02  2.60000000E+02  0.00000000E+00
  5.20000000E+02  2.40000000E+02  0.00000000E+00
  5.20000000E+02  2.20000000E+02  0.00000000E+00
  5.20000000E+02  2.00000000E+02  0.00000000E+00
  5.20000000E+02  1.80000000E+02  0.00000000E+00
  5.20000000E+02  1.60000000E+02  0.00000000E+00
  5.20000000E+02  1.40000000E+02  0.00000000E+00
  5.20000000E+02  1.20000000E+02  0.00000000E+00
  5.20000000E+02  1.00000000E+02  0.00000000E+00
  5.20000000E+02  8.00000000E+01  0.00000000E+00
  5.20000000E+02  6.00000000E+01  0.00000000E+00
  5.20000000E+02  4.00000000E+01  0.00000000E+00
  5.20000000E+02  2.00000000E+01  0.00000000E+00
  5.20000000E+02  4.99600361E-14  0.00000000E+00
  5.40000000E+02  3.00000000E+02  0.00000000E+00
  5.40000000E+02  2.80000000E+02  0.00000000E+00
  5.40000000E+02  2.60000000E+02  0.00000000E+00
  5.40000000E+02  2.40000000E+02  0.00000000E+00
  5.40000000E+02  2.20000000E+02  0.00000000E+00
  5.40000000E+02  2.00000000E+02  0.00000000E+00
  5.40000000E+02  1.80000000E+02  0.00000000E+00
  5.40000000E+02  1.60000000E+02  0.00000000E+00
  5.40000000E+02  1.40000000E+02  0.00000000E+00
  5.40000000E+02  1.20000000E+02  0.00000000E+00
  5.40000000E+02  1.00000000E+02  0.00000000E+00
  5.40000000E+02  8.00000000E+01  0.00000000E+00
  5.40000000E+02  6.00000000E+01  0.00000000E+00
  5.40000000E+02  4.00000000E+01  0.00000000E+00
  5.40000000E+02  2.00000000E+01  0.00000000E+00
  5.40000000E+02  4.99600361E-14  0.00000000E+00
  5.60000000E+02  3.00000000E+02  0.00000000E+00
  5.60000000E+02  2.80000000E+02  0.00000000E+00
  5.60000000E+02  2.60000000E+02  0.00000000E+00
  5.60000000E+02  2.40000000E+02  0.00000000E+00
  5.60000000E+02  2.20000000E+02  0.00000000E+00
  5.60000000E+02  2.00000000E+02  0.00000000E+00
  5.60000000E+02  1.80000000E+02  0.00000000E+00
  5.60000000E+02  1.60000000E+02  0.00000000E+00
  5.60000000E+02  1.40000000E+02  0.00000000E+00
  5.60000000E+02  1.20000000E+02  0.00000000E+00
  5.60000000E+02  1.00000000E+02  0.00000000E+00
  5.60000000E+02  8.00000000E+01  0.00000000E+00
  5.60000000E+02  6.00000000E+01  0.00000000E+00
  5.60000000E+02  4.00000000E+01  0.00000000E+00
  5.60000000E+02  2.00000000E+01  0.00000000E+00
  5.60000000E+02  4.99600361E-14  0.00000000E+00
  5.80000000E+02  3.00000000E+02  0.00000000E+00
  5.80000000E+02  2.80000000E+02  0.00000000E+00
  5.80000000E+02  2.60000000E+02  0.00000000E+00
  5.80000000E+02  2.40000000E+02  0.00000000E+00
  5.80000000E+02  2.20000000E+02  0.00000000E+00
  5.80000000E+02  2.00000000E+02  0.00000000E+00
  5.80000000E+02  1.80000000E+02  0.00000000E+00
  5.80000000E+02  1.60000000E+02  0.00000000E+00
  5.80000000E+02  1.40000000E+02  0.00000000E+00
  5.80000000E+02  1.20000000E+02  0.00000000E+00
  5.80000000E+02  1.00000000E+02  0.00000000E+00
  5.80000000E+02  8.00000000E+01  0.00000000E+00
  5.80000000E+02  6.00000000E+01  0.00000000E+00
  5.80000000E+02  4.00000000E+01  0.00000000E+00
  5.80000000E+02  2.00000000E+01  0.00000000E+00
  5.80000000E+02  4.99600361E-14  0.00000000E+00
  6.00000000E+02  3.00000000E+02  0.00000000E+00
  6.00000000E+02  2.80000000E+02  0.00000000E+00
  6.00000000E+02  2.60000000E+02  0.00000000E+00
  6.00000000E+02  2.40000000E+02  0.00000000E+00
  6.00000000E+02  2.20000000E+02  0.00000000E+00
  6.00000000E+02  2.00000000E+02  0.00000000E+00
  6.00000000E+02  1.80000000E+02  0.00000000E+00
  6.00000000E+02  1.60000000E+02  0.00000000E+00
  6.00000000E+02  1.40000000E+02  0.00000000E+00
  6.00000000E+02  1.20000000E+02  0.00000000E+00
  6.00000000E+02  1.00000000E+02  0.00000000E+00
  6.00000000E+02  8.00000000E+01  0.00000000E+00
  6.00000000E+02  6.00000000E+01  0.00000000E+00
  6.00000000E+02  4.00000000E+01  0.00000000E+00
  6.00000000E+02  2.00000000E+01  0.00000000E+00
  6.00000000E+02  4.99600361E-14  0.00000000E+00
CELLS       450      2250
         4           0           1          17          16
         4           1           2          18          17
         4           2           3          19          18
         4           3           4          20          19
         4           4           5          21          20
         4           5           6          22          21
         4           6           7          23          22
         4           7           8          24          23
         4           8           9          25          24
         4           9          10          26          25
         4          10          11          27          26
         4          11          12          28          27
         4          12          13          29          28
         4          13          14          30          29
         4          14          15          31          30
         4          16          17          33          32
         4          17          18          34          33
         4          18          19          35          34
         4          19          20          36          35
         4          20          21          37          36
         4          21          22          38          37
         4          22          23          39          38
         4          23          24          40          39
         4          24          25          41          40
         4          25          26          42          41
         4          26          27          43          42
         4          27          28          44          43
         4          28          29          45          44
         4          29          30          46          45
         4          30          31          47          46
         4          32          33          49          48
         4          33          34          50          49
         4          34          35          51          50
         4          35          36          52          51
         4          36          37          53          52
         4          37          38          54          53
         4          38          39          55          54
         4          39          40          56          55
         4          40          41          57          56
         4          41          42          58          57
         4          42          43          59          58
         4          43          44          60          59
         4          44          45          61          60
         4          45          46          62          61
         4          46          47          63          62
         4          48          49          65          64
         4          49          50          66          65
         4          50          51          67          66
         4          51          52          68          67
         4          52          53          69          68
         4          53          54          70          69
         4          54          55          71          70
         4          55          56          72          71
         4          56          57          73          72
         4          57          58          74          73
         4          58          59          75          74
         4          59          60          76          75
         4          60          61          77          76
         4          61          62          78          77
         4          62          63          79          78
         4          64          65          81          80
         4          65          66          82          81
         4          66          67          83          82
         4          67          68          84          83
         4          68          69          85          84
         4          69          70          86          85
         4          70          71          87          86
         4          71          72          88          87
         4          72          73          89          88
         4          73          74          90          89
         4          74          75          91          90
         4          75          76          92          91
         4          76          77          93          92
         4          77          78          94          93
         4          78          79          95          94
         4          80          81          97          96
         4          81          82          98          97
         4          82          83          99          98
         4          83          84         100          99
         4          84          85         101         100
         4          85          86         102         101
         4          86          87         103         102
         4          87          88         104         103
         4          88          89         105         104
         4          89          90         106         105
         4          90          91         107         106
         4          91          92         108         107
         4          92          93         109         108
         4          93          94         110         109
         4          94          95         111         110
         4          96          97         113         112
         4          97          98         114         113
         4          98          99         115         114
         4          99         100         116         115
         4         100         101         117         116
         4         101         102         118         117
         4         102         103         119         118
         4         103         104         120         119
         4         104         105         121         120
         4         105         106         122         121
         4         106         107         123         122
         4         107         108         124         123
         4         108         109         125         124
         4         109         110         126         125
         4         110         111         127         126
         4         112         113         129         128
         4         113         114         130         129
         4         114         115         131         130
         4         115         116         132         131
         4         116         117         133         132
         4         117         118         134         133
         4         118         119         135         134
         4         119         120         136         135
         4         120         121         137         136
         4         121         122         138         137
         4         122         123         139         138
         4         123         124         140         139
         4         124         125         141         140
         4         125         126         142         141
         4         126         127         143         142
         4         128         129         145         144
         4         129         130         146         145
         4         130         131         147         146
         4         131         132         148         147
         4         132         133         149         148
         4         133         134         150         149
         4         134         135         151         150
         4         135         136         152         151
         4         136         137         153         152
         4         137         138         154         153
         4         138         139         155         154
         4         139         140         156         155
         4         140         141         157         156
         4         141         142         158         157
         4         142         143         159         158
         4         144         145         161         160
         4         145         146         162         161
         4         146         147         163         162
         4         147         148         164         163
         4         148         149         165         164
         4         149         150         166         165
         4         150         151         167         166
         4         151         152         168         167
         4         152         153         169         168
         4         153         154         170         169
         4         154         155         171         170
         4         155         156         172         171
         4         156         157         173         172
         4         157         158         174         173
         4         158         159         175         174
         4         160         161         177         176
         4         161         162         178         177
         4         162         163         179         178
         4         163         164         180         179
         4         164         165         181         180
         4         165         166         182         181
         4         166         167         183         182
         4         167         168         184         183
         4         168         169         185         184
         4         169         170         186         185
         4         170         171         187         186
         4         171         172         188         187
         4         172         173         189         188
         4         173         174         190         189
         4         174         175         191         190
         4         176         177         193         192
         4         177         178         194         193
         4         178         179         195         194
         4         179         180         196         195
         4         180         181         197         196
         4         181         182         198         197
         4         182         183         199         198
         4         183         184         200         199
         4         184         185         201         200
         4         185         186         202         201
         4         186         187         203         202
         4         187         188         204         203
         4         188         189         205         204
         4         189         190         206         205
         4         190         191         207         206
         4         192         193         209         208
         4         193         194         210         209
         4         194         195         211         210
         4         195         196         212         211
         4         196         197         213         212
         4         197         198         214         213
         4         198         199         215         214
         4         199         200         216         215
         4         200         201         217         216
         4         201         202         218         217
         4         202         203         219         218
         4         203         204         220         219
         4         204         205         221         220
         4         205         206         222         221
         4         206         207         223         222
         4         208         209         225         224
         4         209         210         226         225
         4         210         211         227         226
         4         211         212         228         227
         4         212         213         229         228
         4         213         214         230         229
         4         214         215         231         230
         4         215         216         232         231
         4         216         217         233         232
         4         217         218         234         233
         4         218         219         235         234
         4         219         220         236         235
         4         220         221         237         236
         4         221         222         238         237
         4         222         223         239         238
         4         224         225         241         240
         4         225         226         242         241
         4         226         227         243         242
         4         227         228         244         243
         4         228         229         245         244
         4         229         230         246         245
         4         230         231         247         246
         4         231         232         248         247
         4         232         233         249         248
         4         233         234         250         249
         4         234         235         251         250
         4         235         236         252         251
         4         236         237         253         252
         4         237         238         254         253
         4         238         239         255         254
         4         240         241         257         256
         4         241         242         258         257
         4         242         243         259         258
         4         243         244         260         259
         4         244         245         261         260
         4         245         246         262         261
         4         246         247         263         262
         4         247         248         264         263
         4         248         249         265         264
         4         249         250         266         265
         4         250         251         267         266
         4         251         252         268         267
         4         252         253         269         268
         4         253         254         270         269
         4         254         255         271         270
         4         256         257         273         272
         4         257         258         274         273
         4         258         259         275         274
         4         259         260         276         275
         4         260         261         277         276
         4         261         262         278         277
         4         262         263         279         278
         4         263         264         280         279
         4         264         265         281         280
         4         265         266         282         281
         4         266         267         283         282
         4         267         268         284         283
         4         268         269         285         284
         4         269         270         286         285
         4         270         271         287         286
         4         272         273         289         288
         4         273         274         290         289
         4         274         275         291         290
         4         275         276         292         291
         4         276         277         293         292
         4         277         278         294         293
         4         278         279         295         294
         4         279         280         296         295
         4         280         281         297         296
         4         281         282         298         297
         4         282         283         299         298
         4         283         284         300         299
         4         284         285         301         300
         4         285         286         302         301
         4         286         287         303         302
         4         288         289         305         304
         4         289         290         306         305
         4         290         291         307         306
         4         291         292         308         307
         4         292         293         309         308
         4         293         294         310         309
         4         294         295         311         310
         4         295         296         312         311
         4         296         297         313         312
         4         297         298         314         313
         4         298         299         315         314
         4         299         300         316         315
         4         300         301         317         316
         4         301         302         318         317
         4         302         303         319         318
         4         304         305         321         320
         4         305         306         322         321
         4         306         307         323         322
         4         307         308         324         323
         4         308         309         325         324
         4         309         310         326         325
         4         310         311         327         326
         4         311         312         328         327
         4         312         313         329         328
         4         313         314         330         329
         4         314         315         331         330
         4         315         316         332         331
         4         316         317         333         332
         4         317         318         334         333
         4         318         319         335         334
         4         320         321         337         336
         4         321         322         338         337
         4         322         323         339         338
         4         323         324         340         339
         4         324         325         341         340
         4         325         326         342         341
         4         326         327         343         342
         4         327         328         344         343
         4         328         329         345         344
         4         329         330         346         345
         4         330         331         347         346
         4         331         332         348         347
         4         332         333         349         348
         4         333         334         350         349
         4         334         335         351         350
         4         336         337         353         352
         4         337         338         354         353
         4         338         339         355         354
         4         339         340         356         355
         4         340         341         357         356
         4         341         342         358         357
         4         342         343         359         358
         4         343         344         360         359
         4         344         345         361         360
         4         345         346         362         361
         4         346         347         363         362
         4         347         348         364         363
         4         348         349         365         364
         4         349         350         366         365
         4         350         351         367         366
         4         352         353         369         368
         4         353         354         370         369
         4         354         355         371         370
         4         355         356         372         371
         4         356         357         373         372
         4         357         358         374         373
         4         358         359         375         374
         4         359         360         376         375
         4         360         361         377         376
         4         361         362         378         377
         4         362         363         379         378
         4         363         364         380         379
         4         364         365         381         380
         4         365         366         382         381
         4         366         367         383         382
         4         368         369         385         384
         4         369         370         386         385
         4         370         371         387         386
         4         371         372         388         387
         4         372         373         389         388
         4         373         374         390         389
         4         374         375         391         390
         4         375         376         392         391
         4         376         377         393         392
         4         377         378         394         393
         4         378         379         395         394
         4         379         380         396         395
         4         380         381         397         396
         4         381         382         398         397
         4         382         383         399         398
         4         384         385         401         400
         4         385         386         402         401
         4         386         387         403         402
         4         387         388         404         403
         4         388         389         405         404
         4         389         390         406         405
         4         390         391         407         406
         4         391         392         408         407
         4         392         393         409         408
         4         393         394         410         409
         4         394         395         411         410
         4         395         396         412         411
         4         396         397         413         412
         4         397         398         414         413
         4         398         399         415         414
         4         400         401         417         416
         4         401         402         418         417
         4         402         403         419         418
         4         403         404         420         419
         4         404         405         421         420
         4         405         406         422         421
         4         406         407         423         422
         4         407         408         424         423
         4         408         409         425         424
         4         409         410         426         425
         4         410         411         427         426
         4         411         412         428         427
         4         412         413         429         428
         4         413         414         430         429
         4         414         415         431         430
         4         416         417         433         432
         4         417         418         434         433
         4         418         419         435         434
         4         419         420         436         435
         4         420         421         437         436
         4         421         422         438         437
         4         422         423         439         438
         4         423         424         440         439
         4         424         425         441         440
         4         425         426         442         441
         4         426         427         443         442
         4         427         428         444         443
         4         428         429         445         444
         4         429         430         446         445
         4         430         431         447         446
         4         432         433         449         448
         4         433         434         450         449
         4         434         435         451         450
         4         435         436         452         451
         4         436         437         453         452
         4         437         438         454         453
         4         438         439         455         454
         4         439         440         456         455
         4         440         441         457         456
         4         441         442         458         457
         4         442         443         459         458
         4         443         444         460         459
         4         444         445         461         460
         4         445         446         462         461
         4         446         447         463         462
         4         448         449         465         464
         4         449         450         466         465
         4         450         451         467         466
         4         451         452         468         467
         4         452         453         469         468
         4         453         454         470         469
         4         454         455         471         470
         4         455         456         472         471
         4         456         457         473         472
         4         457         458         474         473
         4         458         459         475         474
         4         459         460         476         475
         4         460         461         477         476
         4         461         462         478         477
         4         462         463         479         478
         4         464         465         481         480
         4         465         466         482         481
         4         466         467         483         482
         4         467         468         484         483
         4         468         469         485         484
         4         469         470         486         485
         4         470         471         487         486
         4         471         472         488         487
         4         472         473         489         488
         4         473         474         490         489
         4         474         475         491         490
         4         475         476         492         491
         4         476         477         493         492
         4         477         478         494         493
         4         478         479         495         494
CELL_TYPES        450
9
9
9
9
9
9
9
9
9
9
9
9
9
9
9
9
9
9
9
9
9
9
9
9
9
9
9
9
9
9
9
9
9
9
9
9
9
9
9
9
9
9
9
9
9
9
9
9
9
9
9
9
9
9
9
9
9
9
9
9
9
9
9
9
9
9
9
9
9
9
9
9
9
9
9
9
9
9
9
9
9
9
9
9
9
9
9
9
9
9
9
9
9
9
9
9
9
9
9
9
9
9
9
9
9
9
9
9
9
9
9
9
9
9
9
9
9
9
9
9
9
9
9
9
9
9
9
9
9
9
9
9
9
9
9
9
9
9
9
9
9
9
9
9
9
9
9
9
9
9
9
9
9
9
9
9
9
9
9
9
9
9
9
9
9
9
9
9
9
9
9
9
9
9
9
9
9
9
9
9
9
9
9
9
9
9
9
9
9
9
9
9
9
9
9
9
9
9
9
9
9
9
9
9
9
9
9
9
9
9
9
9
9
9
9
9
9
9
9
9
9
9
9
9
9
9
9
9
9
9
9
9
9
9
9
9
9
9
9
9
9
9
9
9
9
9
9
9
9
9
9
9
9
9
9
9
9
9
9
9
9
9
9
9
9
9
9
9
9
9
9
9
9
9
9
9
9
9
9
9
9
9
9
9
9
9
9
9
9
9
9
9
9
9
9
9
9
9
9
9
9
9
9
9
9
9
9
9
9
9
9
9
9
9
9
9
9
9
9
9
9
9
9
9
9
9
9
9
9
9
9
9
9
9
9
9
9
9
9
9
9
9
9
9
9
9
9
9
9
9
9
9
9
9
9
9
9
9
9
9
9
9
9
9
9
9
9
9
9
9
9
9
9
9
9
9
9
9
9
9
9
9
9
9
9
9
9
9
9
9
9
9
9
9
9
9
9
9
9
9
9
9
9
9
9
9
9
9
9
9
9
9
9
9
9
9
9
9
9
9
9
9
9
9
9
9
9
9
9
9
9
9
9
9
9
9
9
9
9
9
9
9
9
9
9
9
9
9
9
9
POINT_DATA       496
SCALARS p double 
LOOKUP_TABLE default
   48095250.6257093     
   48105154.6152982     
   48132123.7903959     
   48172344.7257477     
   48222413.4574061     
   48279282.1388570     
   48340211.0910312     
   48402725.8308614     
   48464578.5964844     
   48523713.8572765     
   48578237.3000869     
   48626387.8164309     
   48666512.0767654     
   48697041.3654753     
   48716470.4624134     
   48723338.4923861     
   48072862.4144683     
   48082702.1179648     
   48109495.2549808     
   48149451.9299716     
   48199189.9668147     
   48255681.5403546     
   48316205.2798486     
   48378303.4087324     
   48439743.4203365     
   48498483.7607641     
   48552642.9946117     
   48600471.9637515     
   48640328.5117531     
   48670654.4349681     
   48689954.4344295     
   48696776.9793070     
   48005405.2921472     
   48015052.0830941     
   48041317.1034979     
   48080481.2203837     
   48129227.7109639     
   48184588.8364538     
   48243898.1206593     
   48304747.8372637     
   48364951.1501373     
   48422508.3270081     
   48475576.4551688     
   48522442.1258218     
   48561496.6190273     
   48591213.2124065     
   48610126.3525878     
   48616812.5679646     
   47892002.4823915     
   47901327.5997235     
   47926712.4941867     
   47964556.5385751     
   48011652.3895569     
   48065132.5183302     
   48122421.8304343     
   48181195.7784848     
   48239343.3202859     
   48294934.0580334     
   48346188.9090419     
   48391453.7020020     
   48429175.1630792     
   48457878.8517843     
   48476148.7266557     
   48482608.1650269     
   47731195.0557356     
   47740069.6076370     
   47764222.7355109     
   47800220.8787663     
   47845010.4042543     
   47895864.1868691     
   47950334.8101745     
   48006213.6517149     
   48061495.0773138     
   48114344.9617995     
   48163072.7772625     
   48206106.5414346     
   48241969.9959367     
   48269261.4856959     
   48286634.1363980     
   48292777.0768822     
   47520945.7078145     
   47529240.8144955     
   47551811.5799730     
   47585441.1478181     
   47627274.4302595     
   47674764.9399696     
   47725628.9132966     
   47777805.8119987     
   47829424.2633279     
   47878772.5039372     
   47924272.4284170     
   47964456.4051369     
   47997946.1080142     
   48023432.7215779     
   48039658.0083844     
   48045395.8840174     
   47258644.5099027     
   47266231.6381600     
   47286871.6877351     
   47317615.4141578     
   47355851.6535546     
   47399254.7434527     
   47445740.0411340     
   47493426.4100942     
   47540604.5329637     
   47585709.9302731     
   47627299.6147038     
   47664031.3856817     
   47694644.8660326     
   47717943.4993795     
   47732776.8647156     
   47738022.8260628     
   46941117.0891694     
   46947868.6294665     
   46966233.7106465     
   46993582.9905816     
   47027595.1124704     
   47066205.2170913     
   47107562.4886690     
   47149995.3473818     
   47191982.9063700     
   47232131.3513513     
   47269153.9705615     
   47301853.6552616     
   47329106.8014345     
   47349847.6692896     
   47363052.3999956     
   47367722.0533915     
   46564635.8241624     
   46570425.9590563     
   46586178.5762850     
   46609637.9256909     
   46638818.7124234     
   46671956.3967991     
   46707467.5911459     
   46743918.8631494     
   46780002.2801469     
   46814516.0940792     
   46846349.0624128     
   46874467.0158808     
   46897900.4113409     
   46915731.7437520     
   46927081.8368737     
   46931094.1947906     
   46124934.7719771     
   46129640.6836617     
   46142453.6855480     
   46161546.6150994     
   46185316.6207037     
   46212338.1720098     
   46241327.3578819     
   46271115.4227056     
   46300629.5424871     
   46328878.9419884     
   46354944.5860716     
   46377970.8255903     
   46397157.5277692     
   46411751.3670665     
   46421035.0970294     
   46424313.7766141     
   45617229.1834088     
   45620732.6487363     
   45630293.8827118     
   45644570.3932296     
   45662387.9007361     
   45682697.2498486     
   45704543.9286322     
   45727047.7166970     
   45749390.0706445     
   45770807.0055737     
   45790585.4158989     
   45808060.9705778     
   45822615.8970324     
   45833675.1251096     
   45840699.3998102     
   45843174.1031301     
   45036240.6207858     
   45038430.0453074     
   45044448.2237615     
   45053494.1395263     
   45064867.4218496     
   45077930.6734256     
   45092085.8573429     
   45106761.7400858     
   45121409.5314482     
   45135504.0888527     
   45148548.3160297     
   45160078.6420521     
   45169669.6861356     
   45176936.3823423     
   45181531.9595431     
   45183140.2649621     
   44376228.8842932     
   44377001.8337565     
   44379213.7716608     
   44382662.1434562     
   44387164.2944592     
   44392527.1318871     
   44398532.4270919     
   44404934.0997174     
   44411464.0622188     
   44417843.5482086     
   44423797.2269789     
   44429067.7551649     
   44433428.6909007     
   44436693.8764731     
   44438721.4873073     
   44439410.9748838     
   43631032.1963264     
   43630298.4959523     
   43628477.9061219     
   43626022.7399748     
   43623309.3490950     
   43620617.5592659     
   43618127.4393134     
   43615928.9091055     
   43614040.0829599     
   43612430.7739225     
   43611048.1367269     
   43609841.9082874     
   43608787.0532226     
   43607901.8133616     
   43607259.2033900     
   43606989.9272160     
   42794117.4168622     
   42791802.9070311     
   42785770.9772793     
   42777183.5765628     
   42767013.5230521     
   42756036.8452375     
   42744844.2121526     
   42733865.8744296     
   42723405.1822277     
   42713676.5601465     
   42704844.6269567     
   42697061.8150518     
   42690502.2906127     
   42685390.1730785     
   42682020.0191167     
   42680767.3248335     
   41858642.5023284     
   41854693.5655445     
   41844331.5929806     
   41829479.8370077     
   41811739.4678242     
   41792398.8937275     
   41772463.8791205     
   41752701.4611066     
   41733691.7261843     
   41715882.7576309     
   41699645.2407807     
   41685324.1344013     
   41673285.3841493     
   41663955.8456269     
   41657854.4339103     
   41655612.0987765     
   40817534.0241463     
   40811923.0337903     
   40797187.4543705     
   40776058.3667215     
   40750789.2760773     
   40723187.7860664     
   40694669.5097319     
   40666325.3548941     
   40638995.0539970     
   40613341.7105389     
   40589923.8298468     
   40569262.5554856     
   40551902.5403988     
   40538465.0407868     
   40529691.4943232     
   40526475.1386927     
   39663583.3946532     
   39656315.2821815     
   39637255.5034678     
   39609981.4695932     
   39577411.9844365     
   39541868.4528979     
   39505159.0810008     
   39468674.7844087     
   39433488.3229247     
   39400451.0391176     
   39370283.9792762     
   39343661.8378882     
   39321289.0131911     
   39303967.1364169     
   39292652.8528053     
   39288503.5344320     
   38389566.5916784     
   38380686.7856770     
   38357466.2952027     
   38324355.2363446     
   38284935.4733630     
   38242021.0430749     
   38197780.8995772     
   38153869.6241555     
   38111556.2155564     
   38071845.3041877     
   38035588.4409474     
   38003585.2298686     
   37976675.0129529     
   37955819.7173001     
   37942177.5211071     
   37937165.3767429     
   36988393.7408699     
   36977997.7963993     
   36950919.0501600     
   36912488.6848574     
   36866928.5845020     
   36817504.0857491     
   36766695.6659497     
   36716371.4885663     
   36667949.7555668     
   36622545.9185315     
   36581104.1803119     
   36544515.2496958     
   36513723.2149337     
   36489823.9885371     
   36474156.3162543     
   36468384.0591769     
   35453297.0587578     
   35441542.3609750     
   35411075.9009023     
   35368091.8082289     
   35317400.7077054     
   35262652.5135860     
   35206569.8864120     
   35151170.1473700     
   35097964.2946269     
   35048130.2726349     
   35002663.1016515     
   34962507.1808275     
   34928676.6804202     
   34902369.0091371     
   34885074.2357764     
   34878680.2554949     
   33778068.5901999     
   33765188.5626331     
   33732006.5555757     
   33685522.8778155     
   33631047.6849342     
   33572517.4950780     
   33512805.5797457     
   33454000.3503902     
   33397642.1780741     
   33344920.3145234     
   33296837.7058003     
   33254353.7798622     
   33218515.1252601     
   33190582.2884071     
   33172158.0810376     
   33165318.8263157     
   31957363.1972296     
   31943684.4252852     
   31908698.1264875     
   31860098.0037313     
   31803554.4147777     
   31743155.4729097     
   31681810.8307451     
   31621591.2360302     
   31564000.4564440     
   31510189.6543730     
   31461129.8263535     
   31417758.6521638     
   31381116.4513428     
   31352483.2601953     
   31333525.6052867     
   31326456.8671620     
   29987087.8442366     
   29973050.3329122     
   29937449.3602226     
   29888478.7856653     
   29831965.4727179     
   29771973.1358380     
   29711314.0714495     
   29651948.4372912     
   29595282.0179981     
   29542386.5798441     
   29494169.2463274     
   29451514.6415655     
   29415419.4278883     
   29387135.0892520     
   29368331.3515119     
   29361287.9939544     
   27864906.2050518     
   27851086.3518094     
   27816374.0211062     
   27769156.1860360     
   27715134.1500533     
   27658131.9415347     
   27600720.9367873     
   27544665.1189691     
   27491225.4236874     
   27441368.2386151     
   27395917.6832786     
   27355682.7305102     
   27321582.6477858     
   27294789.3287984     
   27276903.2099578     
   27270176.7985959     
   25590899.4659724     
   25578033.7313012     
   25546044.4571448     
   25503048.5914867     
   25454254.9519107     
   25403007.7525963     
   25351504.4053399     
   25301251.6518206     
   25253344.5076468     
   25208639.1648035     
   25167872.9753091     
   25131767.0372980     
   25101134.9101774     
   25077017.3690697     
   25060862.5308906     
   25054776.0439512     
   23168444.2755704     
   23157446.4816521     
   23130311.8057471     
   23094224.8350238     
   23053469.0005303     
   23010683.8692181     
   22967603.9335854     
   22925463.8316148     
   22885204.4502163     
   22847586.4787278     
   22813269.7320836     
   22782883.5523837     
   22757114.0745839     
   22736822.7556193     
   22723218.8424857     
   22718117.1481208     
   20605402.1310728     
   20597358.9849259     
   20577339.2075334     
   20550734.5287334     
   20520496.4140828     
   20488419.9678655     
   20455784.6550299     
   20423598.2953963     
   20392678.7389383     
   20363708.1074899     
   20337277.1605031     
   20313927.3637141     
   20294196.1823886     
   20278730.4769051     
   20268426.6790153     
   20264658.5155099     
   17915835.6776152     
   17911892.4354453     
   17900846.1330200     
   17885462.1232497     
   17867156.5978014     
   17846972.8742941     
   17825882.5826868     
   17804717.5245463     
   17784174.8025132     
   17764839.7820496     
   17747215.1750830     
   17731745.9366008     
   17718838.8345409     
   17708851.0112916     
   17702381.1730278     
   17700262.1780015     
   15122621.7286388     
   15123650.8607063     
   15121455.8016602     
   15116622.4307749     
   15109420.7961158     
   15100603.0127334     
   15090861.2963054     
   15080777.5822037     
   15070826.4585444     
   15061399.1885059     
   15052828.6308111     
   15045409.0442757     
   15039401.5742987     
   15035029.5055773     
   15032247.3242247     
   15032008.2898015     
   12266666.6666667     
   12266666.6666667     
   12266666.6666667     
   12266666.6666667     
   12266666.6666667     
   12266666.6666667     
   12266666.6666667     
   12266666.6666667     
   12266666.6666667     
   12266666.6666667     
   12266666.6666667     
   12266666.6666667     
   12266666.6666667     
   12266666.6666667     
   12266666.6666667     
   12266666.6666667     
VECTORS u double 
    0.00000E+00        -0.81280E+00         0.00000E+00
    0.00000E+00        -0.75332E+00         0.00000E+00
    0.00000E+00        -0.69404E+00         0.00000E+00
    0.00000E+00        -0.63511E+00         0.00000E+00
    0.00000E+00        -0.57668E+00         0.00000E+00
    0.00000E+00        -0.51886E+00         0.00000E+00
    0.00000E+00        -0.46174E+00         0.00000E+00
    0.00000E+00        -0.40544E+00         0.00000E+00
    0.00000E+00        -0.35006E+00         0.00000E+00
    0.00000E+00        -0.29572E+00         0.00000E+00
    0.00000E+00        -0.24256E+00         0.00000E+00
    0.00000E+00        -0.19073E+00         0.00000E+00
    0.00000E+00        -0.14038E+00         0.00000E+00
    0.00000E+00        -0.91681E-01         0.00000E+00
    0.00000E+00        -0.44826E-01         0.00000E+00
    0.00000E+00         0.00000E+00         0.00000E+00
    0.68489E-01        -0.81535E+00         0.00000E+00
    0.63385E-01        -0.75575E+00         0.00000E+00
    0.58321E-01        -0.69636E+00         0.00000E+00
    0.53342E-01        -0.63731E+00         0.00000E+00
    0.48475E-01        -0.57875E+00         0.00000E+00
    0.43733E-01        -0.52079E+00         0.00000E+00
    0.39113E-01        -0.46352E+00         0.00000E+00
    0.34607E-01        -0.40706E+00         0.00000E+00
    0.30197E-01        -0.35150E+00         0.00000E+00
    0.25861E-01        -0.29699E+00         0.00000E+00
    0.21574E-01        -0.24364E+00         0.00000E+00
    0.17310E-01        -0.19160E+00         0.00000E+00
    0.13042E-01        -0.14104E+00         0.00000E+00
    0.87483E-02        -0.92128E-01         0.00000E+00
    0.44066E-02        -0.45051E-01         0.00000E+00
    0.00000E+00         0.00000E+00         0.00000E+00
    0.13688E+00        -0.82302E+00         0.00000E+00
    0.12664E+00        -0.76308E+00         0.00000E+00
    0.11649E+00        -0.70334E+00         0.00000E+00
    0.10652E+00        -0.64393E+00         0.00000E+00
    0.96789E-01        -0.58498E+00         0.00000E+00
    0.87310E-01        -0.52659E+00         0.00000E+00
    0.78084E-01        -0.46888E+00         0.00000E+00
    0.69088E-01        -0.41193E+00         0.00000E+00
    0.60286E-01        -0.35586E+00         0.00000E+00
    0.51633E-01        -0.30079E+00         0.00000E+00
    0.43078E-01        -0.24687E+00         0.00000E+00
    0.34567E-01        -0.19422E+00         0.00000E+00
    0.26049E-01        -0.14303E+00         0.00000E+00
    0.17476E-01        -0.93471E-01         0.00000E+00
    0.88044E-02        -0.45728E-01         0.00000E+00
    0.00000E+00         0.00000E+00         0.00000E+00
    0.20505E+00        -0.83586E+00         0.00000E+00
    0.18961E+00        -0.77536E+00         0.00000E+00
    0.17434E+00        -0.71503E+00         0.00000E+00
    0.15937E+00        -0.65500E+00         0.00000E+00
    0.14477E+00        -0.59539E+00         0.00000E+00
    0.13057E+00        -0.53631E+00         0.00000E+00
    0.11676E+00        -0.47783E+00         0.00000E+00
    0.10331E+00        -0.42008E+00         0.00000E+00
    0.90154E-01        -0.36315E+00         0.00000E+00
    0.77223E-01        -0.30716E+00         0.00000E+00
    0.64439E-01        -0.25227E+00         0.00000E+00
    0.51720E-01        -0.19861E+00         0.00000E+00
    0.38986E-01        -0.14637E+00         0.00000E+00
    0.26162E-01        -0.95717E-01         0.00000E+00
    0.13185E-01        -0.46860E-01         0.00000E+00
    0.00000E+00         0.00000E+00         0.00000E+00
    0.27288E+00        -0.85399E+00         0.00000E+00
    0.25216E+00        -0.79267E+00         0.00000E+00
    0.23171E+00        -0.73150E+00         0.00000E+00
    0.21172E+00        -0.67060E+00         0.00000E+00
    0.19225E+00        -0.61007E+00         0.00000E+00
    0.17336E+00        -0.54999E+00         0.00000E+00
    0.15500E+00        -0.49045E+00         0.00000E+00
    0.13714E+00        -0.43155E+00         0.00000E+00
    0.11969E+00        -0.37340E+00         0.00000E+00
    0.10254E+00        -0.31613E+00         0.00000E+00
    0.85584E-01        -0.25987E+00         0.00000E+00
    0.68713E-01        -0.20479E+00         0.00000E+00
    0.51814E-01        -0.15106E+00         0.00000E+00
    0.34786E-01        -0.98877E-01         0.00000E+00
    0.17538E-01        -0.48452E-01         0.00000E+00
    0.00000E+00         0.00000E+00         0.00000E+00
    0.34022E+00        -0.87751E+00         0.00000E+00
    0.31409E+00        -0.81513E+00         0.00000E+00
    0.28840E+00        -0.75288E+00         0.00000E+00
    0.26335E+00        -0.69084E+00         0.00000E+00
    0.23904E+00        -0.62909E+00         0.00000E+00
    0.21548E+00        -0.56772E+00         0.00000E+00
    0.19264E+00        -0.50679E+00         0.00000E+00
    0.17044E+00        -0.44641E+00         0.00000E+00
    0.14876E+00        -0.38668E+00         0.00000E+00
    0.12748E+00        -0.32773E+00         0.00000E+00
    0.10643E+00        -0.26970E+00         0.00000E+00
    0.85490E-01        -0.21277E+00         0.00000E+00
    0.64497E-01        -0.15712E+00         0.00000E+00
    0.43324E-01        -0.10296E+00         0.00000E+00
    0.21856E-01        -0.50512E-01         0.00000E+00
    0.00000E+00         0.00000E+00         0.00000E+00
    0.40688E+00        -0.90659E+00         0.00000E+00
    0.37520E+00        -0.84290E+00         0.00000E+00
    0.34419E+00        -0.77928E+00         0.00000E+00
    0.31406E+00        -0.71582E+00         0.00000E+00
    0.28491E+00        -0.65257E+00         0.00000E+00
    0.25674E+00        -0.58959E+00         0.00000E+00
    0.22949E+00        -0.52694E+00         0.00000E+00
    0.20304E+00        -0.46472E+00         0.00000E+00
    0.17725E+00        -0.40304E+00         0.00000E+00
    0.15193E+00        -0.34202E+00         0.00000E+00
    0.12691E+00        -0.28181E+00         0.00000E+00
    0.10199E+00        -0.22260E+00         0.00000E+00
    0.76993E-01        -0.16459E+00         0.00000E+00
    0.51753E-01        -0.10799E+00         0.00000E+00
    0.26128E-01        -0.53047E-01         0.00000E+00
    0.00000E+00         0.00000E+00         0.00000E+00
    0.47262E+00        -0.94142E+00         0.00000E+00
    0.43523E+00        -0.87613E+00         0.00000E+00
    0.39883E+00        -0.81087E+00         0.00000E+00
    0.36361E+00        -0.74570E+00         0.00000E+00
    0.32965E+00        -0.68063E+00         0.00000E+00
    0.29693E+00        -0.61571E+00         0.00000E+00
    0.26536E+00        -0.55099E+00         0.00000E+00
    0.23479E+00        -0.48657E+00         0.00000E+00
    0.20500E+00        -0.42255E+00         0.00000E+00
    0.17579E+00        -0.35905E+00         0.00000E+00
    0.14692E+00        -0.29625E+00         0.00000E+00
    0.11815E+00        -0.23432E+00         0.00000E+00
    0.89258E-01        -0.17349E+00         0.00000E+00
    0.60048E-01        -0.11399E+00         0.00000E+00
    0.30342E-01        -0.56066E-01         0.00000E+00
    0.00000E+00         0.00000E+00         0.00000E+00
    0.53715E+00        -0.98220E+00         0.00000E+00
    0.49390E+00        -0.91501E+00         0.00000E+00
    0.45202E+00        -0.84781E+00         0.00000E+00
    0.41169E+00        -0.78061E+00         0.00000E+00
    0.37298E+00        -0.71339E+00         0.00000E+00
    0.33581E+00        -0.64619E+00         0.00000E+00
    0.30005E+00        -0.57905E+00         0.00000E+00
    0.26549E+00        -0.51204E+00         0.00000E+00
    0.23188E+00        -0.44528E+00         0.00000E+00
    0.19893E+00        -0.37889E+00         0.00000E+00
    0.16636E+00        -0.31305E+00         0.00000E+00
    0.13389E+00        -0.24796E+00         0.00000E+00
    0.10125E+00        -0.18384E+00         0.00000E+00
    0.68182E-01        -0.12096E+00         0.00000E+00
    0.34489E-01        -0.59580E-01         0.00000E+00
    0.00000E+00         0.00000E+00         0.00000E+00
    0.60014E+00        -0.10292E+01         0.00000E+00
    0.55086E+00        -0.95975E+00         0.00000E+00
    0.50343E+00        -0.89028E+00         0.00000E+00
    0.45801E+00        -0.82071E+00         0.00000E+00
    0.41461E+00        -0.75100E+00         0.00000E+00
    0.37312E+00        -0.68116E+00         0.00000E+00
    0.33332E+00        -0.61121E+00         0.00000E+00
    0.29496E+00        -0.54122E+00         0.00000E+00
    0.25770E+00        -0.47130E+00         0.00000E+00
    0.22122E+00        -0.40159E+00         0.00000E+00
    0.18515E+00        -0.33227E+00         0.00000E+00
    0.14915E+00        -0.26355E+00         0.00000E+00
    0.11291E+00        -0.19568E+00         0.00000E+00
    0.76124E-01        -0.12893E+00         0.00000E+00
    0.38555E-01        -0.63596E-01         0.00000E+00
    0.00000E+00         0.00000E+00         0.00000E+00
    0.66116E+00        -0.10825E+01         0.00000E+00
    0.60569E+00        -0.10105E+01         0.00000E+00
    0.55266E+00        -0.93845E+00         0.00000E+00
    0.50219E+00        -0.86616E+00         0.00000E+00
    0.45421E+00        -0.79359E+00         0.00000E+00
    0.40855E+00        -0.72072E+00         0.00000E+00
    0.36492E+00        -0.64756E+00         0.00000E+00
    0.32296E+00        -0.57418E+00         0.00000E+00
    0.28230E+00        -0.50067E+00         0.00000E+00
    0.24250E+00        -0.42720E+00         0.00000E+00
    0.20315E+00        -0.35394E+00         0.00000E+00
    0.16384E+00        -0.28112E+00         0.00000E+00
    0.12418E+00        -0.20902E+00         0.00000E+00
    0.83843E-01        -0.13791E+00         0.00000E+00
    0.42527E-01        -0.68121E-01         0.00000E+00
    0.00000E+00         0.00000E+00         0.00000E+00
    0.71973E+00        -0.11424E+01         0.00000E+00
    0.65793E+00        -0.10676E+01         0.00000E+00
    0.59928E+00        -0.99249E+00         0.00000E+00
    0.54382E+00        -0.91709E+00         0.00000E+00
    0.49142E+00        -0.84127E+00         0.00000E+00
    0.44178E+00        -0.76496E+00         0.00000E+00
    0.39455E+00        -0.68818E+00         0.00000E+00
    0.34927E+00        -0.61097E+00         0.00000E+00
    0.30546E+00        -0.53344E+00         0.00000E+00
    0.26262E+00        -0.45575E+00         0.00000E+00
    0.22025E+00        -0.37809E+00         0.00000E+00
    0.17786E+00        -0.30070E+00         0.00000E+00
    0.13501E+00        -0.22387E+00         0.00000E+00
    0.91302E-01        -0.14791E+00         0.00000E+00
    0.46389E-01        -0.73160E-01         0.00000E+00
    0.00000E+00         0.00000E+00         0.00000E+00
    0.77526E+00        -0.12092E+01         0.00000E+00
    0.70702E+00        -0.11310E+01         0.00000E+00
    0.64277E+00        -0.10525E+01         0.00000E+00
    0.58245E+00        -0.97362E+00         0.00000E+00
    0.52581E+00        -0.89412E+00         0.00000E+00
    0.47245E+00        -0.81395E+00         0.00000E+00
    0.42190E+00        -0.73310E+00         0.00000E+00
    0.37360E+00        -0.65163E+00         0.00000E+00
    0.32696E+00        -0.56962E+00         0.00000E+00
    0.28139E+00        -0.48725E+00         0.00000E+00
    0.23630E+00        -0.40472E+00         0.00000E+00
    0.19112E+00        -0.32228E+00         0.00000E+00
    0.14533E+00        -0.24024E+00         0.00000E+00
    0.98460E-01        -0.15893E+00         0.00000E+00
    0.50123E-01        -0.78713E-01         0.00000E+00
    0.00000E+00         0.00000E+00         0.00000E+00
    0.82709E+00        -0.12829E+01         0.00000E+00
    0.75235E+00        -0.12009E+01         0.00000E+00
    0.68257E+00        -0.11187E+01         0.00000E+00
    0.61756E+00        -0.10358E+01         0.00000E+00
    0.55693E+00        -0.95220E+00         0.00000E+00
    0.50016E+00        -0.86772E+00         0.00000E+00
    0.44664E+00        -0.78235E+00         0.00000E+00
    0.39568E+00        -0.69615E+00         0.00000E+00
    0.34658E+00        -0.60920E+00         0.00000E+00
    0.29864E+00        -0.52168E+00         0.00000E+00
    0.25116E+00        -0.43381E+00         0.00000E+00
    0.20350E+00        -0.34584E+00         0.00000E+00
    0.15505E+00        -0.25811E+00         0.00000E+00
    0.10527E+00        -0.17095E+00         0.00000E+00
    0.53711E-01        -0.84775E-01         0.00000E+00
    0.00000E+00         0.00000E+00         0.00000E+00
    0.87444E+00        -0.13637E+01         0.00000E+00
    0.79319E+00        -0.12775E+01         0.00000E+00
    0.71803E+00        -0.11910E+01         0.00000E+00
    0.64858E+00        -0.11037E+01         0.00000E+00
    0.58429E+00        -0.10155E+01         0.00000E+00
    0.52448E+00        -0.92623E+00         0.00000E+00
    0.46838E+00        -0.83588E+00         0.00000E+00
    0.41518E+00        -0.74447E+00         0.00000E+00
    0.36403E+00        -0.65212E+00         0.00000E+00
    0.31413E+00        -0.55898E+00         0.00000E+00
    0.26466E+00        -0.46530E+00         0.00000E+00
    0.21488E+00        -0.37135E+00         0.00000E+00
    0.16409E+00        -0.27744E+00         0.00000E+00
    0.11168E+00        -0.18397E+00         0.00000E+00
    0.57128E-01        -0.91336E-01         0.00000E+00
    0.00000E+00         0.00000E+00         0.00000E+00
    0.91643E+00        -0.14516E+01         0.00000E+00
    0.82877E+00        -0.13607E+01         0.00000E+00
    0.74845E+00        -0.12694E+01         0.00000E+00
    0.67488E+00        -0.11772E+01         0.00000E+00
    0.60733E+00        -0.10839E+01         0.00000E+00
    0.54493E+00        -0.98940E+00         0.00000E+00
    0.48673E+00        -0.89357E+00         0.00000E+00
    0.43176E+00        -0.79649E+00         0.00000E+00
    0.37905E+00        -0.69825E+00         0.00000E+00
    0.32763E+00        -0.59905E+00         0.00000E+00
    0.27661E+00        -0.49911E+00         0.00000E+00
    0.22511E+00        -0.39870E+00         0.00000E+00
    0.17236E+00        -0.29818E+00         0.00000E+00
    0.11764E+00        -0.19793E+00         0.00000E+00
    0.60347E-01        -0.98376E-01         0.00000E+00
    0.00000E+00         0.00000E+00         0.00000E+00
    0.95209E+00        -0.15466E+01         0.00000E+00
    0.85820E+00        -0.14505E+01         0.00000E+00
    0.77303E+00        -0.13538E+01         0.00000E+00
    0.69579E+00        -0.12562E+01         0.00000E+00
    0.62547E+00        -0.11573E+01         0.00000E+00
    0.56100E+00        -0.10570E+01         0.00000E+00
    0.50125E+00        -0.95523E+00         0.00000E+00
    0.44506E+00        -0.85199E+00         0.00000E+00
    0.39130E+00        -0.74742E+00         0.00000E+00
    0.33890E+00        -0.64170E+00         0.00000E+00
    0.28680E+00        -0.53507E+00         0.00000E+00
    0.23404E+00        -0.42780E+00         0.00000E+00
    0.17972E+00        -0.32024E+00         0.00000E+00
    0.12305E+00        -0.21278E+00         0.00000E+00
    0.63335E-01        -0.10587E+00         0.00000E+00
    0.00000E+00         0.00000E+00         0.00000E+00
    0.98031E+00        -0.16485E+01         0.00000E+00
    0.88050E+00        -0.15466E+01         0.00000E+00
    0.79095E+00        -0.14441E+01         0.00000E+00
    0.71056E+00        -0.13405E+01         0.00000E+00
    0.63807E+00        -0.12354E+01         0.00000E+00
    0.57216E+00        -0.11288E+01         0.00000E+00
    0.51147E+00        -0.10206E+01         0.00000E+00
    0.45466E+00        -0.91070E+00         0.00000E+00
    0.40046E+00        -0.79935E+00         0.00000E+00
    0.34763E+00        -0.68670E+00         0.00000E+00
    0.29499E+00        -0.57297E+00         0.00000E+00
    0.24147E+00        -0.45845E+00         0.00000E+00
    0.18606E+00        -0.34347E+00         0.00000E+00
    0.12785E+00        -0.22843E+00         0.00000E+00
    0.66049E-01        -0.11376E+00         0.00000E+00
    0.00000E+00         0.00000E+00         0.00000E+00
    0.99988E+00        -0.17570E+01         0.00000E+00
    0.89461E+00        -0.16487E+01         0.00000E+00
    0.80128E+00        -0.15397E+01         0.00000E+00
    0.71842E+00        -0.14295E+01         0.00000E+00
    0.64447E+00        -0.13178E+01         0.00000E+00
    0.57782E+00        -0.12044E+01         0.00000E+00
    0.51689E+00        -0.10891E+01         0.00000E+00
    0.46016E+00        -0.97220E+00         0.00000E+00
    0.40616E+00        -0.85366E+00         0.00000E+00
    0.35351E+00        -0.73369E+00         0.00000E+00
    0.30092E+00        -0.61253E+00         0.00000E+00
    0.24719E+00        -0.49043E+00         0.00000E+00
    0.19120E+00        -0.36772E+00         0.00000E+00
    0.13192E+00        -0.24476E+00         0.00000E+00
    0.68439E-01        -0.12202E+00         0.00000E+00
    0.00000E+00         0.00000E+00         0.00000E+00
    0.10095E+01        -0.18716E+01         0.00000E+00
    0.89941E+00        -0.17563E+01         0.00000E+00
    0.80305E+00        -0.16403E+01         0.00000E+00
    0.71855E+00        -0.15229E+01         0.00000E+00
    0.64396E+00        -0.14039E+01         0.00000E+00
    0.57740E+00        -0.12830E+01         0.00000E+00
    0.51702E+00        -0.11604E+01         0.00000E+00
    0.46108E+00        -0.10359E+01         0.00000E+00
    0.40798E+00        -0.90984E+00         0.00000E+00
    0.35618E+00        -0.78225E+00         0.00000E+00
    0.30428E+00        -0.65337E+00         0.00000E+00
    0.25095E+00        -0.52344E+00         0.00000E+00
    0.19494E+00        -0.39275E+00         0.00000E+00
    0.13512E+00        -0.26165E+00         0.00000E+00
    0.70438E-01        -0.13056E+00         0.00000E+00
    0.00000E+00         0.00000E+00         0.00000E+00
    0.10077E+01        -0.19917E+01         0.00000E+00
    0.89367E+00        -0.18687E+01         0.00000E+00
    0.79526E+00        -0.17449E+01         0.00000E+00
    0.71009E+00        -0.16197E+01         0.00000E+00
    0.63584E+00        -0.14929E+01         0.00000E+00
    0.57027E+00        -0.13641E+01         0.00000E+00
    0.51129E+00        -0.12336E+01         0.00000E+00
    0.45695E+00        -0.11012E+01         0.00000E+00
    0.40549E+00        -0.96727E+00         0.00000E+00
    0.35525E+00        -0.83181E+00         0.00000E+00
    0.30471E+00        -0.69502E+00         0.00000E+00
    0.25243E+00        -0.55711E+00         0.00000E+00
    0.19705E+00        -0.41831E+00         0.00000E+00
    0.13729E+00        -0.27891E+00         0.00000E+00
    0.71964E-01        -0.13931E+00         0.00000E+00
    0.00000E+00         0.00000E+00         0.00000E+00
    0.99291E+00        -0.21163E+01         0.00000E+00
    0.87614E+00        -0.19850E+01         0.00000E+00
    0.77686E+00        -0.18527E+01         0.00000E+00
    0.69221E+00        -0.17191E+01         0.00000E+00
    0.61939E+00        -0.15837E+01         0.00000E+00
    0.55583E+00        -0.14466E+01         0.00000E+00
    0.49916E+00        -0.13078E+01         0.00000E+00
    0.44725E+00        -0.11672E+01         0.00000E+00
    0.39820E+00        -0.10252E+01         0.00000E+00
    0.35025E+00        -0.88169E+00         0.00000E+00
    0.30179E+00        -0.73692E+00         0.00000E+00
    0.25127E+00        -0.59099E+00         0.00000E+00
    0.19723E+00        -0.44405E+00         0.00000E+00
    0.13823E+00        -0.29634E+00         0.00000E+00
    0.72906E-01        -0.14817E+00         0.00000E+00
    0.00000E+00         0.00000E+00         0.00000E+00
    0.96360E+00        -0.22442E+01         0.00000E+00
    0.84548E+00        -0.21037E+01         0.00000E+00
    0.74680E+00        -0.19624E+01         0.00000E+00
    0.66404E+00        -0.18196E+01         0.00000E+00
    0.59392E+00        -0.16753E+01         0.00000E+00
    0.53346E+00        -0.15293E+01         0.00000E+00
    0.48006E+00        -0.13818E+01         0.00000E+00
    0.43143E+00        -0.12328E+01         0.00000E+00
    0.38557E+00        -0.10826E+01         0.00000E+00
    0.34065E+00        -0.93107E+00         0.00000E+00
    0.29501E+00        -0.77838E+00         0.00000E+00
    0.24701E+00        -0.62454E+00         0.00000E+00
    0.19509E+00        -0.46960E+00         0.00000E+00
    0.13765E+00        -0.31368E+00         0.00000E+00
    0.73123E-01        -0.15702E+00         0.00000E+00
    0.00000E+00         0.00000E+00         0.00000E+00
    0.91802E+00        -0.23738E+01         0.00000E+00
    0.80038E+00        -0.22235E+01         0.00000E+00
    0.70406E+00        -0.20723E+01         0.00000E+00
    0.62480E+00        -0.19198E+01         0.00000E+00
    0.55874E+00        -0.17659E+01         0.00000E+00
    0.50256E+00        -0.16106E+01         0.00000E+00
    0.45341E+00        -0.14542E+01         0.00000E+00
    0.40891E+00        -0.12968E+01         0.00000E+00
    0.36700E+00        -0.11383E+01         0.00000E+00
    0.32585E+00        -0.97898E+00         0.00000E+00
    0.28377E+00        -0.81861E+00         0.00000E+00
    0.23910E+00        -0.65715E+00         0.00000E+00
    0.19017E+00        -0.49451E+00         0.00000E+00
    0.13521E+00        -0.33067E+00         0.00000E+00
    0.72430E-01        -0.16573E+00         0.00000E+00
    0.00000E+00         0.00000E+00         0.00000E+00
    0.85442E+00        -0.25031E+01         0.00000E+00
    0.73952E+00        -0.23421E+01         0.00000E+00
    0.64769E+00        -0.21803E+01         0.00000E+00
    0.57376E+00        -0.20175E+01         0.00000E+00
    0.51329E+00        -0.18536E+01         0.00000E+00
    0.46257E+00        -0.16888E+01         0.00000E+00
    0.41863E+00        -0.15234E+01         0.00000E+00
    0.37905E+00        -0.13576E+01         0.00000E+00
    0.34180E+00        -0.11912E+01         0.00000E+00
    0.30513E+00        -0.10243E+01         0.00000E+00
    0.26736E+00        -0.85670E+00         0.00000E+00
    0.22685E+00        -0.68810E+00         0.00000E+00
    0.18185E+00        -0.51826E+00         0.00000E+00
    0.13046E+00        -0.34698E+00         0.00000E+00
    0.70582E-01        -0.17417E+00         0.00000E+00
    0.00000E+00         0.00000E+00         0.00000E+00
    0.77102E+00        -0.26294E+01         0.00000E+00
    0.66170E+00        -0.24571E+01         0.00000E+00
    0.57688E+00        -0.22841E+01         0.00000E+00
    0.51036E+00        -0.21104E+01         0.00000E+00
    0.45704E+00        -0.19361E+01         0.00000E+00
    0.41296E+00        -0.17618E+01         0.00000E+00
    0.37510E+00        -0.15875E+01         0.00000E+00
    0.34115E+00        -0.14136E+01         0.00000E+00
    0.30921E+00        -0.12397E+01         0.00000E+00
    0.27763E+00        -0.10659E+01         0.00000E+00
    0.24489E+00        -0.89165E+00         0.00000E+00
    0.20940E+00        -0.71662E+00         0.00000E+00
    0.16938E+00        -0.54031E+00         0.00000E+00
    0.12281E+00        -0.36227E+00         0.00000E+00
    0.67252E-01        -0.18217E+00         0.00000E+00
    0.00000E+00         0.00000E+00         0.00000E+00
    0.66601E+00        -0.27496E+01         0.00000E+00
    0.56583E+00        -0.25652E+01         0.00000E+00
    0.49106E+00        -0.23803E+01         0.00000E+00
    0.43421E+00        -0.21953E+01         0.00000E+00
    0.38960E+00        -0.20107E+01         0.00000E+00
    0.35321E+00        -0.18270E+01         0.00000E+00
    0.32219E+00        -0.16444E+01         0.00000E+00
    0.29444E+00        -0.14629E+01         0.00000E+00
    0.26832E+00        -0.12824E+01         0.00000E+00
    0.24240E+00        -0.11024E+01         0.00000E+00
    0.21534E+00        -0.92239E+00         0.00000E+00
    0.18569E+00        -0.74185E+00         0.00000E+00
    0.15177E+00        -0.56003E+00         0.00000E+00
    0.11146E+00        -0.37616E+00         0.00000E+00
    0.61990E-01        -0.18959E+00         0.00000E+00
    0.00000E+00         0.00000E+00         0.00000E+00
    0.53766E+00        -0.28594E+01         0.00000E+00
    0.45118E+00        -0.26623E+01         0.00000E+00
    0.39002E+00        -0.24651E+01         0.00000E+00
    0.34516E+00        -0.22688E+01         0.00000E+00
    0.31065E+00        -0.20742E+01         0.00000E+00
    0.28278E+00        -0.18819E+01         0.00000E+00
    0.25914E+00        -0.16918E+01         0.00000E+00
    0.23803E+00        -0.15039E+01         0.00000E+00
    0.21813E+00        -0.13176E+01         0.00000E+00
    0.19831E+00        -0.11325E+01         0.00000E+00
    0.17748E+00        -0.94784E+00         0.00000E+00
    0.15446E+00        -0.76290E+00         0.00000E+00
    0.12776E+00        -0.57672E+00         0.00000E+00
    0.95338E-01        -0.38821E+00         0.00000E+00
    0.54156E-01        -0.19623E+00         0.00000E+00
    0.00000E+00         0.00000E+00         0.00000E+00
    0.38430E+00        -0.29532E+01         0.00000E+00
    0.31762E+00        -0.27428E+01         0.00000E+00
    0.27408E+00        -0.25332E+01         0.00000E+00
    0.24324E+00        -0.23263E+01         0.00000E+00
    0.21982E+00        -0.21231E+01         0.00000E+00
    0.20103E+00        -0.19236E+01         0.00000E+00
    0.18513E+00        -0.17276E+01         0.00000E+00
    0.17092E+00        -0.15346E+01         0.00000E+00
    0.15751E+00        -0.13439E+01         0.00000E+00
    0.14410E+00        -0.11550E+01         0.00000E+00
    0.12996E+00        -0.96693E+00         0.00000E+00
    0.11421E+00        -0.77884E+00         0.00000E+00
    0.95757E-01        -0.58961E+00         0.00000E+00
    0.72935E-01        -0.39788E+00         0.00000E+00
    0.42762E-01        -0.20188E+00         0.00000E+00
    0.00000E+00         0.00000E+00         0.00000E+00
    0.20458E+00        -0.30228E+01         0.00000E+00
    0.16636E+00        -0.27989E+01         0.00000E+00
    0.14399E+00        -0.25784E+01         0.00000E+00
    0.12836E+00        -0.23635E+01         0.00000E+00
    0.11656E+00        -0.21541E+01         0.00000E+00
    0.10712E+00        -0.19498E+01         0.00000E+00
    0.99123E-01        -0.17499E+01         0.00000E+00
    0.91979E-01        -0.15536E+01         0.00000E+00
    0.85223E-01        -0.13603E+01         0.00000E+00
    0.78459E-01        -0.11689E+01         0.00000E+00
    0.71299E-01        -0.97879E+00         0.00000E+00
    0.63298E-01        -0.78881E+00         0.00000E+00
    0.53861E-01        -0.59784E+00         0.00000E+00
    0.42044E-01        -0.40436E+00         0.00000E+00
    0.26054E-01        -0.20622E+00         0.00000E+00
    0.00000E+00         0.00000E+00         0.00000E+00
    0.00000E+00        -0.30527E+01         0.00000E+00
    0.00000E+00        -0.28196E+01         0.00000E+00
    0.00000E+00        -0.25943E+01         0.00000E+00
    0.00000E+00        -0.23763E+01         0.00000E+00
    0.00000E+00        -0.21647E+01         0.00000E+00
    0.00000E+00        -0.19587E+01         0.00000E+00
    0.00000E+00        -0.17575E+01         0.00000E+00
    0.00000E+00        -0.15601E+01         0.00000E+00
    0.00000E+00        -0.13658E+01         0.00000E+00
    0.00000E+00        -0.11737E+01         0.00000E+00
    0.00000E+00        -0.98281E+00         0.00000E+00
    0.00000E+00        -0.79221E+00         0.00000E+00
    0.00000E+00        -0.60067E+00         0.00000E+00
    0.00000E+00        -0.40666E+00         0.00000E+00
    0.00000E+00        -0.20801E+00         0.00000E+00
    0.00000E+00         0.00000E+00         0.00000E+00
CELL_DATA        450
VECTORS vDarcy double 
    0.12850E-07         0.56580E-08         0.00000E+00
    0.12889E-07         0.15372E-07         0.00000E+00
    0.12987E-07         0.22874E-07         0.00000E+00
    0.13129E-07         0.28415E-07         0.00000E+00
    0.13304E-07         0.32209E-07         0.00000E+00
    0.13501E-07         0.34444E-07         0.00000E+00
    0.13710E-07         0.35278E-07         0.00000E+00
    0.13921E-07         0.34846E-07         0.00000E+00
    0.14127E-07         0.33262E-07         0.00000E+00
    0.14320E-07         0.30623E-07         0.00000E+00
    0.14493E-07         0.27006E-07         0.00000E+00
    0.14640E-07         0.22474E-07         0.00000E+00
    0.14754E-07         0.17079E-07         0.00000E+00
    0.14830E-07         0.10856E-07         0.00000E+00
    0.14862E-07         0.38334E-08         0.00000E+00
    0.38712E-07         0.55834E-08         0.00000E+00
    0.38829E-07         0.15168E-07         0.00000E+00
    0.39120E-07         0.22568E-07         0.00000E+00
    0.39546E-07         0.28033E-07         0.00000E+00
    0.40070E-07         0.31774E-07         0.00000E+00
    0.40660E-07         0.33978E-07         0.00000E+00
    0.41285E-07         0.34799E-07         0.00000E+00
    0.41918E-07         0.34372E-07         0.00000E+00
    0.42534E-07         0.32810E-07         0.00000E+00
    0.43112E-07         0.30206E-07         0.00000E+00
    0.43629E-07         0.26638E-07         0.00000E+00
    0.44068E-07         0.22169E-07         0.00000E+00
    0.44409E-07         0.16847E-07         0.00000E+00
    0.44636E-07         0.10709E-07         0.00000E+00
    0.44733E-07         0.37817E-08         0.00000E+00
    0.65057E-07         0.54342E-08         0.00000E+00
    0.65248E-07         0.14760E-07         0.00000E+00
    0.65730E-07         0.21957E-07         0.00000E+00
    0.66437E-07         0.27270E-07         0.00000E+00
    0.67307E-07         0.30906E-07         0.00000E+00
    0.68285E-07         0.33046E-07         0.00000E+00
    0.69322E-07         0.33843E-07         0.00000E+00
    0.70373E-07         0.33427E-07         0.00000E+00
    0.71396E-07         0.31907E-07         0.00000E+00
    0.72354E-07         0.29375E-07         0.00000E+00
    0.73213E-07         0.25905E-07         0.00000E+00
    0.73940E-07         0.21560E-07         0.00000E+00
    0.74506E-07         0.16385E-07         0.00000E+00
    0.74883E-07         0.10416E-07         0.00000E+00
    0.75043E-07         0.36784E-08         0.00000E+00
    0.92204E-07         0.52104E-08         0.00000E+00
    0.92465E-07         0.14148E-07         0.00000E+00
    0.93133E-07         0.21042E-07         0.00000E+00
    0.94114E-07         0.26128E-07         0.00000E+00
    0.95323E-07         0.29608E-07         0.00000E+00
    0.96684E-07         0.31654E-07         0.00000E+00
    0.98126E-07         0.32416E-07         0.00000E+00
    0.99587E-07         0.32016E-07         0.00000E+00
    0.10101E-06         0.30559E-07         0.00000E+00
    0.10234E-06         0.28134E-07         0.00000E+00
    0.10354E-06         0.24811E-07         0.00000E+00
    0.10455E-06         0.20650E-07         0.00000E+00
    0.10533E-06         0.15694E-07         0.00000E+00
    0.10586E-06         0.99781E-08         0.00000E+00
    0.10608E-06         0.35241E-08         0.00000E+00
    0.12047E-06         0.49121E-08         0.00000E+00
    0.12079E-06         0.13335E-07         0.00000E+00
    0.12164E-06         0.19825E-07         0.00000E+00
    0.12288E-06         0.24611E-07         0.00000E+00
    0.12442E-06         0.27884E-07         0.00000E+00
    0.12616E-06         0.29808E-07         0.00000E+00
    0.12799E-06         0.30523E-07         0.00000E+00
    0.12985E-06         0.30146E-07         0.00000E+00
    0.13167E-06         0.28774E-07         0.00000E+00
    0.13336E-06         0.26491E-07         0.00000E+00
    0.13488E-06         0.23363E-07         0.00000E+00
    0.13617E-06         0.19445E-07         0.00000E+00
    0.13717E-06         0.14779E-07         0.00000E+00
    0.13784E-06         0.93974E-08         0.00000E+00
    0.13812E-06         0.33194E-08         0.00000E+00
    0.15015E-06         0.45396E-08         0.00000E+00
    0.15052E-06         0.12320E-07         0.00000E+00
    0.15154E-06         0.18310E-07         0.00000E+00
    0.15304E-06         0.22725E-07         0.00000E+00
    0.15490E-06         0.25743E-07         0.00000E+00
    0.15699E-06         0.27518E-07         0.00000E+00
    0.15921E-06         0.28177E-07         0.00000E+00
    0.16146E-06         0.27829E-07         0.00000E+00
    0.16364E-06         0.26563E-07         0.00000E+00
    0.16569E-06         0.24456E-07         0.00000E+00
    0.16752E-06         0.21569E-07         0.00000E+00
    0.16908E-06         0.17953E-07         0.00000E+00
    0.17029E-06         0.13646E-07         0.00000E+00
    0.17109E-06         0.86775E-08         0.00000E+00
    0.17143E-06         0.30654E-08         0.00000E+00
    0.18155E-06         0.40937E-08         0.00000E+00
    0.18196E-06         0.11107E-07         0.00000E+00
    0.18313E-06         0.16503E-07         0.00000E+00
    0.18488E-06         0.20478E-07         0.00000E+00
    0.18704E-06         0.23196E-07         0.00000E+00
    0.18947E-06         0.24796E-07         0.00000E+00
    0.19205E-06         0.25392E-07         0.00000E+00
    0.19466E-06         0.25081E-07         0.00000E+00
    0.19721E-06         0.23943E-07         0.00000E+00
    0.19959E-06         0.22045E-07         0.00000E+00
    0.20172E-06         0.19443E-07         0.00000E+00
    0.20352E-06         0.16184E-07         0.00000E+00
    0.20493E-06         0.12302E-07         0.00000E+00
    0.20586E-06         0.78231E-08         0.00000E+00
    0.20626E-06         0.27636E-08         0.00000E+00
    0.21494E-06         0.35755E-08         0.00000E+00
    0.21538E-06         0.97008E-08         0.00000E+00
    0.21669E-06         0.14411E-07         0.00000E+00
    0.21866E-06         0.17882E-07         0.00000E+00
    0.22111E-06         0.20260E-07         0.00000E+00
    0.22386E-06         0.21663E-07         0.00000E+00
    0.22677E-06         0.22190E-07         0.00000E+00
    0.22973E-06         0.21924E-07         0.00000E+00
    0.23260E-06         0.20934E-07         0.00000E+00
    0.23529E-06         0.19277E-07         0.00000E+00
    0.23770E-06         0.17004E-07         0.00000E+00
    0.23974E-06         0.14153E-07         0.00000E+00
    0.24133E-06         0.10757E-07         0.00000E+00
    0.24238E-06         0.68403E-08         0.00000E+00
    0.24282E-06         0.24160E-08         0.00000E+00
    0.25058E-06         0.29871E-08         0.00000E+00
    0.25104E-06         0.81074E-08         0.00000E+00
    0.25247E-06         0.12046E-07         0.00000E+00
    0.25464E-06         0.14955E-07         0.00000E+00
    0.25734E-06         0.16954E-07         0.00000E+00
    0.26038E-06         0.18142E-07         0.00000E+00
    0.26361E-06         0.18597E-07         0.00000E+00
    0.26687E-06         0.18385E-07         0.00000E+00
    0.27005E-06         0.17563E-07         0.00000E+00
    0.27302E-06         0.16179E-07         0.00000E+00
    0.27568E-06         0.14272E-07         0.00000E+00
    0.27793E-06         0.11878E-07         0.00000E+00
    0.27969E-06         0.90263E-08         0.00000E+00
    0.28085E-06         0.57375E-08         0.00000E+00
    0.28134E-06         0.20253E-08         0.00000E+00
    0.28872E-06         0.23315E-08         0.00000E+00
    0.28917E-06         0.63365E-08         0.00000E+00
    0.29070E-06         0.94259E-08         0.00000E+00
    0.29305E-06         0.11719E-07         0.00000E+00
    0.29597E-06         0.13309E-07         0.00000E+00
    0.29927E-06         0.14266E-07         0.00000E+00
    0.30276E-06         0.14648E-07         0.00000E+00
    0.30630E-06         0.14502E-07         0.00000E+00
    0.30974E-06         0.13868E-07         0.00000E+00
    0.31296E-06         0.12782E-07         0.00000E+00
    0.31584E-06         0.11278E-07         0.00000E+00
    0.31828E-06         0.93839E-08         0.00000E+00
    0.32018E-06         0.71261E-08         0.00000E+00
    0.32144E-06         0.45253E-08         0.00000E+00
    0.32196E-06         0.15948E-08         0.00000E+00
    0.32956E-06         0.16128E-08         0.00000E+00
    0.32998E-06         0.44009E-08         0.00000E+00
    0.33158E-06         0.65708E-08         0.00000E+00
    0.33407E-06         0.82045E-08         0.00000E+00
    0.33718E-06         0.93594E-08         0.00000E+00
    0.34070E-06         0.10077E-07         0.00000E+00
    0.34442E-06         0.10388E-07         0.00000E+00
    0.34819E-06         0.10318E-07         0.00000E+00
    0.35184E-06         0.98905E-08         0.00000E+00
    0.35527E-06         0.91290E-08         0.00000E+00
    0.35833E-06         0.80571E-08         0.00000E+00
    0.36093E-06         0.66991E-08         0.00000E+00
    0.36296E-06         0.50787E-08         0.00000E+00
    0.36429E-06         0.32168E-08         0.00000E+00
    0.36484E-06         0.11292E-08         0.00000E+00
    0.37327E-06         0.83678E-09         0.00000E+00
    0.37364E-06         0.23179E-08         0.00000E+00
    0.37529E-06         0.35095E-08         0.00000E+00
    0.37788E-06         0.44485E-08         0.00000E+00
    0.38114E-06         0.51521E-08         0.00000E+00
    0.38482E-06         0.56261E-08         0.00000E+00
    0.38872E-06         0.58717E-08         0.00000E+00
    0.39266E-06         0.58902E-08         0.00000E+00
    0.39649E-06         0.56862E-08         0.00000E+00
    0.40007E-06         0.52692E-08         0.00000E+00
    0.40327E-06         0.46541E-08         0.00000E+00
    0.40599E-06         0.38605E-08         0.00000E+00
    0.40811E-06         0.29111E-08         0.00000E+00
    0.40950E-06         0.18288E-08         0.00000E+00
    0.41007E-06         0.63386E-09         0.00000E+00
    0.41997E-06         0.11049E-10         0.00000E+00
    0.42027E-06         0.10984E-09         0.00000E+00
    0.42193E-06         0.27801E-09         0.00000E+00
    0.42459E-06         0.49950E-09         0.00000E+00
    0.42795E-06         0.74430E-09         0.00000E+00
    0.43174E-06         0.97766E-09         0.00000E+00
    0.43576E-06         0.11670E-08         0.00000E+00
    0.43981E-06         0.12867E-08         0.00000E+00
    0.44375E-06         0.13206E-08         0.00000E+00
    0.44743E-06         0.12639E-08         0.00000E+00
    0.45072E-06         0.11225E-08         0.00000E+00
    0.45352E-06         0.91210E-09         0.00000E+00
    0.45569E-06         0.65592E-09         0.00000E+00
    0.45713E-06         0.38134E-09         0.00000E+00
    0.45770E-06         0.11559E-09         0.00000E+00
    0.46974E-06        -0.85464E-09         0.00000E+00
    0.46996E-06        -0.21951E-08         0.00000E+00
    0.47160E-06        -0.30786E-08         0.00000E+00
    0.47428E-06        -0.35835E-08         0.00000E+00
    0.47768E-06        -0.37941E-08         0.00000E+00
    0.48152E-06        -0.37911E-08         0.00000E+00
    0.48558E-06        -0.36451E-08         0.00000E+00
    0.48968E-06        -0.34114E-08         0.00000E+00
    0.49366E-06        -0.31279E-08         0.00000E+00
    0.49738E-06        -0.28147E-08         0.00000E+00
    0.50071E-06        -0.24744E-08         0.00000E+00
    0.50353E-06        -0.20939E-08         0.00000E+00
    0.50572E-06        -0.16477E-08         0.00000E+00
    0.50717E-06        -0.11014E-08         0.00000E+00
    0.50774E-06        -0.41738E-09         0.00000E+00
    0.52259E-06        -0.17480E-08         0.00000E+00
    0.52271E-06        -0.45616E-08         0.00000E+00
    0.52430E-06        -0.65051E-08         0.00000E+00
    0.52695E-06        -0.77287E-08         0.00000E+00
    0.53033E-06        -0.83788E-08         0.00000E+00
    0.53416E-06        -0.85882E-08         0.00000E+00
    0.53819E-06        -0.84690E-08         0.00000E+00
    0.54226E-06        -0.81084E-08         0.00000E+00
    0.54621E-06        -0.75679E-08         0.00000E+00
    0.54989E-06        -0.68824E-08         0.00000E+00
    0.55319E-06        -0.60625E-08         0.00000E+00
    0.55598E-06        -0.50964E-08         0.00000E+00
    0.55816E-06        -0.39539E-08         0.00000E+00
    0.55959E-06        -0.25910E-08         0.00000E+00
    0.56014E-06        -0.95529E-09         0.00000E+00
    0.57846E-06        -0.26537E-08         0.00000E+00
    0.57847E-06        -0.69467E-08         0.00000E+00
    0.57998E-06        -0.99345E-08         0.00000E+00
    0.58256E-06        -0.11850E-07         0.00000E+00
    0.58586E-06        -0.12910E-07         0.00000E+00
    0.58959E-06        -0.13306E-07         0.00000E+00
    0.59352E-06        -0.13193E-07         0.00000E+00
    0.59748E-06        -0.12694E-07         0.00000E+00
    0.60130E-06        -0.11894E-07         0.00000E+00
    0.60487E-06        -0.10843E-07         0.00000E+00
    0.60807E-06        -0.95570E-08         0.00000E+00
    0.61078E-06        -0.80253E-08         0.00000E+00
    0.61289E-06        -0.62103E-08         0.00000E+00
    0.61428E-06        -0.40545E-08         0.00000E+00
    0.61480E-06        -0.14867E-08         0.00000E+00
    0.63721E-06        -0.35533E-08         0.00000E+00
    0.63710E-06        -0.92985E-08         0.00000E+00
    0.63851E-06        -0.13287E-07         0.00000E+00
    0.64097E-06        -0.15847E-07         0.00000E+00
    0.64412E-06        -0.17273E-07         0.00000E+00
    0.64768E-06        -0.17819E-07         0.00000E+00
    0.65142E-06        -0.17691E-07         0.00000E+00
    0.65517E-06        -0.17044E-07         0.00000E+00
    0.65880E-06        -0.15988E-07         0.00000E+00
    0.66218E-06        -0.14587E-07         0.00000E+00
    0.66520E-06        -0.12863E-07         0.00000E+00
    0.66777E-06        -0.10802E-07         0.00000E+00
    0.66976E-06        -0.83573E-08         0.00000E+00
    0.67108E-06        -0.54543E-08         0.00000E+00
    0.67156E-06        -0.19986E-08         0.00000E+00
    0.69857E-06        -0.44243E-08         0.00000E+00
    0.69838E-06        -0.11555E-07         0.00000E+00
    0.69967E-06        -0.16469E-07         0.00000E+00
    0.70196E-06        -0.19601E-07         0.00000E+00
    0.70490E-06        -0.21334E-07         0.00000E+00
    0.70820E-06        -0.21988E-07         0.00000E+00
    0.71167E-06        -0.21820E-07         0.00000E+00
    0.71513E-06        -0.21019E-07         0.00000E+00
    0.71847E-06        -0.19719E-07         0.00000E+00
    0.72157E-06        -0.17996E-07         0.00000E+00
    0.72435E-06        -0.15876E-07         0.00000E+00
    0.72671E-06        -0.13340E-07         0.00000E+00
    0.72855E-06        -0.10329E-07         0.00000E+00
    0.72975E-06        -0.67487E-08         0.00000E+00
    0.73019E-06        -0.24760E-08         0.00000E+00
    0.76220E-06        -0.52399E-08         0.00000E+00
    0.76196E-06        -0.13643E-07         0.00000E+00
    0.76312E-06        -0.19371E-07         0.00000E+00
    0.76521E-06        -0.22979E-07         0.00000E+00
    0.76788E-06        -0.24944E-07         0.00000E+00
    0.77085E-06        -0.25658E-07         0.00000E+00
    0.77396E-06        -0.25425E-07         0.00000E+00
    0.77704E-06        -0.24472E-07         0.00000E+00
    0.78001E-06        -0.22949E-07         0.00000E+00
    0.78276E-06        -0.20945E-07         0.00000E+00
    0.78522E-06        -0.18486E-07         0.00000E+00
    0.78731E-06        -0.15547E-07         0.00000E+00
    0.78895E-06        -0.12055E-07         0.00000E+00
    0.79002E-06        -0.78921E-08         0.00000E+00
    0.79040E-06        -0.29025E-08         0.00000E+00
    0.82762E-06        -0.59684E-08         0.00000E+00
    0.82738E-06        -0.15477E-07         0.00000E+00
    0.82843E-06        -0.21868E-07         0.00000E+00
    0.83029E-06        -0.25830E-07         0.00000E+00
    0.83263E-06        -0.27940E-07         0.00000E+00
    0.83521E-06        -0.28660E-07         0.00000E+00
    0.83787E-06        -0.28344E-07         0.00000E+00
    0.84050E-06        -0.27245E-07         0.00000E+00
    0.84302E-06        -0.25533E-07         0.00000E+00
    0.84535E-06        -0.23302E-07         0.00000E+00
    0.84743E-06        -0.20578E-07         0.00000E+00
    0.84921E-06        -0.17328E-07         0.00000E+00
    0.85061E-06        -0.13461E-07         0.00000E+00
    0.85153E-06        -0.88362E-08         0.00000E+00
    0.85185E-06        -0.32603E-08         0.00000E+00
    0.89417E-06        -0.65723E-08         0.00000E+00
    0.89403E-06        -0.16959E-07         0.00000E+00
    0.89501E-06        -0.23820E-07         0.00000E+00
    0.89663E-06        -0.27990E-07         0.00000E+00
    0.89861E-06        -0.30148E-07         0.00000E+00
    0.90074E-06        -0.30823E-07         0.00000E+00
    0.90290E-06        -0.30409E-07         0.00000E+00
    0.90502E-06        -0.29185E-07         0.00000E+00
    0.90702E-06        -0.27331E-07         0.00000E+00
    0.90887E-06        -0.24941E-07         0.00000E+00
    0.91053E-06        -0.22041E-07         0.00000E+00
    0.91196E-06        -0.18587E-07         0.00000E+00
    0.91309E-06        -0.14473E-07         0.00000E+00
    0.91385E-06        -0.95312E-08         0.00000E+00
    0.91412E-06        -0.35306E-08         0.00000E+00
    0.96105E-06        -0.70080E-08         0.00000E+00
    0.96116E-06        -0.17976E-07         0.00000E+00
    0.96212E-06        -0.25072E-07         0.00000E+00
    0.96353E-06        -0.29283E-07         0.00000E+00
    0.96513E-06        -0.31388E-07         0.00000E+00
    0.96679E-06        -0.31974E-07         0.00000E+00
    0.96841E-06        -0.31464E-07         0.00000E+00
    0.96997E-06        -0.30149E-07         0.00000E+00
    0.97143E-06        -0.28211E-07         0.00000E+00
    0.97278E-06        -0.25746E-07         0.00000E+00
    0.97399E-06        -0.22771E-07         0.00000E+00
    0.97504E-06        -0.19236E-07         0.00000E+00
    0.97590E-06        -0.15019E-07         0.00000E+00
    0.97650E-06        -0.99282E-08         0.00000E+00
    0.97676E-06        -0.36940E-08         0.00000E+00
    0.10273E-05        -0.72248E-08         0.00000E+00
    0.10278E-05        -0.18405E-07         0.00000E+00
    0.10289E-05        -0.25461E-07         0.00000E+00
    0.10301E-05        -0.29535E-07         0.00000E+00
    0.10314E-05        -0.31493E-07         0.00000E+00
    0.10326E-05        -0.31960E-07         0.00000E+00
    0.10336E-05        -0.31372E-07         0.00000E+00
    0.10347E-05        -0.30017E-07         0.00000E+00
    0.10356E-05        -0.28071E-07         0.00000E+00
    0.10364E-05        -0.25623E-07         0.00000E+00
    0.10372E-05        -0.22685E-07         0.00000E+00
    0.10379E-05        -0.19200E-07         0.00000E+00
    0.10385E-05        -0.15036E-07         0.00000E+00
    0.10389E-05        -0.99813E-08         0.00000E+00
    0.10392E-05        -0.37314E-08         0.00000E+00
    0.10916E-05        -0.71650E-08         0.00000E+00
    0.10928E-05        -0.18110E-07         0.00000E+00
    0.10942E-05        -0.24820E-07         0.00000E+00
    0.10954E-05        -0.28581E-07         0.00000E+00
    0.10963E-05        -0.30318E-07         0.00000E+00
    0.10971E-05        -0.30664E-07         0.00000E+00
    0.10977E-05        -0.30039E-07         0.00000E+00
    0.10982E-05        -0.28713E-07         0.00000E+00
    0.10987E-05        -0.26846E-07         0.00000E+00
    0.10990E-05        -0.24515E-07         0.00000E+00
    0.10994E-05        -0.21728E-07         0.00000E+00
    0.10998E-05        -0.18426E-07         0.00000E+00
    0.11002E-05        -0.14475E-07         0.00000E+00
    0.11006E-05        -0.96516E-08         0.00000E+00
    0.11010E-05        -0.36246E-08         0.00000E+00
    0.11526E-05        -0.67641E-08         0.00000E+00
    0.11548E-05        -0.16954E-07         0.00000E+00
    0.11567E-05        -0.23002E-07         0.00000E+00
    0.11580E-05        -0.26300E-07         0.00000E+00
    0.11589E-05        -0.27779E-07         0.00000E+00
    0.11594E-05        -0.28034E-07         0.00000E+00
    0.11597E-05        -0.27441E-07         0.00000E+00
    0.11598E-05        -0.26229E-07         0.00000E+00
    0.11598E-05        -0.24533E-07         0.00000E+00
    0.11598E-05        -0.22417E-07         0.00000E+00
    0.11599E-05        -0.19890E-07         0.00000E+00
    0.11601E-05        -0.16896E-07         0.00000E+00
    0.11604E-05        -0.13310E-07         0.00000E+00
    0.11608E-05        -0.89120E-08         0.00000E+00
    0.11614E-05        -0.33579E-08         0.00000E+00
    0.12083E-05        -0.59540E-08         0.00000E+00
    0.12122E-05        -0.14819E-07         0.00000E+00
    0.12149E-05        -0.19915E-07         0.00000E+00
    0.12167E-05        -0.22654E-07         0.00000E+00
    0.12177E-05        -0.23890E-07         0.00000E+00
    0.12182E-05        -0.24124E-07         0.00000E+00
    0.12184E-05        -0.23650E-07         0.00000E+00
    0.12183E-05        -0.22642E-07         0.00000E+00
    0.12181E-05        -0.21204E-07         0.00000E+00
    0.12179E-05        -0.19392E-07         0.00000E+00
    0.12178E-05        -0.17216E-07         0.00000E+00
    0.12179E-05        -0.14637E-07         0.00000E+00
    0.12182E-05        -0.11549E-07         0.00000E+00
    0.12188E-05        -0.77539E-08         0.00000E+00
    0.12198E-05        -0.29197E-08         0.00000E+00
    0.12568E-05        -0.46711E-08         0.00000E+00
    0.12629E-05        -0.11647E-07         0.00000E+00
    0.12672E-05        -0.15587E-07         0.00000E+00
    0.12699E-05        -0.17759E-07         0.00000E+00
    0.12715E-05        -0.18829E-07         0.00000E+00
    0.12723E-05        -0.19136E-07         0.00000E+00
    0.12726E-05        -0.18866E-07         0.00000E+00
    0.12726E-05        -0.18137E-07         0.00000E+00
    0.12725E-05        -0.17027E-07         0.00000E+00
    0.12723E-05        -0.15583E-07         0.00000E+00
    0.12722E-05        -0.13825E-07         0.00000E+00
    0.12724E-05        -0.11739E-07         0.00000E+00
    0.12730E-05        -0.92499E-08         0.00000E+00
    0.12740E-05        -0.61999E-08         0.00000E+00
    0.12756E-05        -0.23052E-08         0.00000E+00
    0.12953E-05        -0.28886E-08         0.00000E+00
    0.13049E-05        -0.75600E-08         0.00000E+00
    0.13116E-05        -0.10310E-07         0.00000E+00
    0.13160E-05        -0.12011E-07         0.00000E+00
    0.13188E-05        -0.13017E-07         0.00000E+00
    0.13204E-05        -0.13458E-07         0.00000E+00
    0.13213E-05        -0.13430E-07         0.00000E+00
    0.13217E-05        -0.13011E-07         0.00000E+00
    0.13218E-05        -0.12261E-07         0.00000E+00
    0.13219E-05        -0.11223E-07         0.00000E+00
    0.13221E-05        -0.99226E-08         0.00000E+00
    0.13226E-05        -0.83700E-08         0.00000E+00
    0.13237E-05        -0.65485E-08         0.00000E+00
    0.13256E-05        -0.43292E-08         0.00000E+00
    0.13282E-05        -0.15241E-08         0.00000E+00
    0.13208E-05        -0.68959E-09         0.00000E+00
    0.13359E-05        -0.31772E-08         0.00000E+00
    0.13465E-05        -0.49067E-08         0.00000E+00
    0.13536E-05        -0.62475E-08         0.00000E+00
    0.13583E-05        -0.71572E-08         0.00000E+00
    0.13613E-05        -0.76574E-08         0.00000E+00
    0.13632E-05        -0.78032E-08         0.00000E+00
    0.13642E-05        -0.76511E-08         0.00000E+00
    0.13649E-05        -0.72475E-08         0.00000E+00
    0.13655E-05        -0.66266E-08         0.00000E+00
    0.13662E-05        -0.58117E-08         0.00000E+00
    0.13674E-05        -0.48201E-08         0.00000E+00
    0.13693E-05        -0.36731E-08         0.00000E+00
    0.13725E-05        -0.23761E-08         0.00000E+00
    0.13768E-05        -0.60814E-09         0.00000E+00
    0.13301E-05         0.23961E-09         0.00000E+00
    0.13548E-05        -0.52067E-09         0.00000E+00
    0.13710E-05        -0.11616E-08         0.00000E+00
    0.13819E-05        -0.17482E-08         0.00000E+00
    0.13893E-05        -0.21580E-08         0.00000E+00
    0.13941E-05        -0.24002E-08         0.00000E+00
    0.13972E-05        -0.24988E-08         0.00000E+00
    0.13992E-05        -0.24783E-08         0.00000E+00
    0.14006E-05        -0.23583E-08         0.00000E+00
    0.14019E-05        -0.21528E-08         0.00000E+00
    0.14033E-05        -0.18710E-08         0.00000E+00
    0.14053E-05        -0.15208E-08         0.00000E+00
    0.14084E-05        -0.11113E-08         0.00000E+00
    0.14131E-05        -0.71043E-09         0.00000E+00
    0.14210E-05        -0.61412E-10         0.00000E+00
POINT_DATA        496
VECTORS vDarcyNodal double 
    0.12832E-07         0.56765E-08         0.00000E+00
    0.12854E-07         0.10549E-07         0.00000E+00
    0.12926E-07         0.19186E-07         0.00000E+00
    0.13049E-07         0.25729E-07         0.00000E+00
    0.13210E-07         0.30413E-07         0.00000E+00
    0.13399E-07         0.33438E-07         0.00000E+00
    0.13604E-07         0.34977E-07         0.00000E+00
    0.13816E-07         0.35179E-07         0.00000E+00
    0.14027E-07         0.34168E-07         0.00000E+00
    0.14228E-07         0.32049E-07         0.00000E+00
    0.14413E-07         0.28911E-07         0.00000E+00
    0.14574E-07         0.24823E-07         0.00000E+00
    0.14706E-07         0.19843E-07         0.00000E+00
    0.14802E-07         0.14014E-07         0.00000E+00
    0.14857E-07         0.73694E-08         0.00000E+00
    0.14875E-07         0.38462E-08         0.00000E+00
    0.25744E-07         0.56392E-08         0.00000E+00
    0.25788E-07         0.10480E-07         0.00000E+00
    0.25931E-07         0.19058E-07         0.00000E+00
    0.26177E-07         0.25557E-07         0.00000E+00
    0.26499E-07         0.30208E-07         0.00000E+00
    0.26876E-07         0.33212E-07         0.00000E+00
    0.27286E-07         0.34741E-07         0.00000E+00
    0.27710E-07         0.34941E-07         0.00000E+00
    0.28130E-07         0.33936E-07         0.00000E+00
    0.28532E-07         0.31832E-07         0.00000E+00
    0.28901E-07         0.28714E-07         0.00000E+00
    0.29223E-07         0.24654E-07         0.00000E+00
    0.29486E-07         0.19708E-07         0.00000E+00
    0.29678E-07         0.13919E-07         0.00000E+00
    0.29789E-07         0.73197E-08         0.00000E+00
    0.29823E-07         0.38203E-08         0.00000E+00
    0.51811E-07         0.55272E-08         0.00000E+00
    0.51898E-07         0.10271E-07         0.00000E+00
    0.52182E-07         0.18676E-07         0.00000E+00
    0.52671E-07         0.25041E-07         0.00000E+00
    0.53314E-07         0.29596E-07         0.00000E+00
    0.54065E-07         0.32536E-07         0.00000E+00
    0.54882E-07         0.34032E-07         0.00000E+00
    0.55727E-07         0.34227E-07         0.00000E+00
    0.56566E-07         0.33242E-07         0.00000E+00
    0.57367E-07         0.31180E-07         0.00000E+00
    0.58101E-07         0.28127E-07         0.00000E+00
    0.58743E-07         0.24150E-07         0.00000E+00
    0.59267E-07         0.19306E-07         0.00000E+00
    0.59650E-07         0.13636E-07         0.00000E+00
    0.59871E-07         0.71707E-08         0.00000E+00
    0.59939E-07         0.37427E-08         0.00000E+00
    0.78520E-07         0.53407E-08         0.00000E+00
    0.78648E-07         0.99225E-08         0.00000E+00
    0.79069E-07         0.18039E-07         0.00000E+00
    0.79798E-07         0.24183E-07         0.00000E+00
    0.80757E-07         0.28577E-07         0.00000E+00
    0.81877E-07         0.31413E-07         0.00000E+00
    0.83096E-07         0.32854E-07         0.00000E+00
    0.84356E-07         0.33040E-07         0.00000E+00
    0.85607E-07         0.32089E-07         0.00000E+00
    0.86802E-07         0.30098E-07         0.00000E+00
    0.87897E-07         0.27151E-07         0.00000E+00
    0.88854E-07         0.23312E-07         0.00000E+00
    0.89636E-07         0.18637E-07         0.00000E+00
    0.90207E-07         0.13164E-07         0.00000E+00
    0.90536E-07         0.69232E-08         0.00000E+00
    0.90638E-07         0.36138E-08         0.00000E+00
    0.10619E-06         0.50796E-08         0.00000E+00
    0.10635E-06         0.94355E-08         0.00000E+00
    0.10691E-06         0.17150E-07         0.00000E+00
    0.10787E-06         0.22985E-07         0.00000E+00
    0.10914E-06         0.27156E-07         0.00000E+00
    0.11062E-06         0.29846E-07         0.00000E+00
    0.11223E-06         0.31213E-07         0.00000E+00
    0.11390E-06         0.31388E-07         0.00000E+00
    0.11555E-06         0.30483E-07         0.00000E+00
    0.11713E-06         0.28592E-07         0.00000E+00
    0.11858E-06         0.25792E-07         0.00000E+00
    0.11984E-06         0.22146E-07         0.00000E+00
    0.12088E-06         0.17705E-07         0.00000E+00
    0.12163E-06         0.12507E-07         0.00000E+00
    0.12207E-06         0.65784E-08         0.00000E+00
    0.12220E-06         0.34341E-08         0.00000E+00
    0.13512E-06         0.47441E-08         0.00000E+00
    0.13532E-06         0.88104E-08         0.00000E+00
    0.13600E-06         0.16009E-07         0.00000E+00
    0.13718E-06         0.21450E-07         0.00000E+00
    0.13875E-06         0.25337E-07         0.00000E+00
    0.14058E-06         0.27844E-07         0.00000E+00
    0.14258E-06         0.29116E-07         0.00000E+00
    0.14464E-06         0.29279E-07         0.00000E+00
    0.14668E-06         0.28434E-07         0.00000E+00
    0.14863E-06         0.26670E-07         0.00000E+00
    0.15042E-06         0.24059E-07         0.00000E+00
    0.15199E-06         0.20659E-07         0.00000E+00
    0.15327E-06         0.16517E-07         0.00000E+00
    0.15420E-06         0.11669E-07         0.00000E+00
    0.15473E-06         0.61380E-08         0.00000E+00
    0.15490E-06         0.32045E-08         0.00000E+00
    0.16563E-06         0.43347E-08         0.00000E+00
    0.16586E-06         0.80485E-08         0.00000E+00
    0.16664E-06         0.14620E-07         0.00000E+00
    0.16804E-06         0.19584E-07         0.00000E+00
    0.16989E-06         0.23129E-07         0.00000E+00
    0.17206E-06         0.25415E-07         0.00000E+00
    0.17442E-06         0.26577E-07         0.00000E+00
    0.17686E-06         0.26726E-07         0.00000E+00
    0.17927E-06         0.25956E-07         0.00000E+00
    0.18158E-06         0.24347E-07         0.00000E+00
    0.18370E-06         0.21964E-07         0.00000E+00
    0.18555E-06         0.18861E-07         0.00000E+00
    0.18706E-06         0.15080E-07         0.00000E+00
    0.18816E-06         0.10654E-07         0.00000E+00
    0.18880E-06         0.56046E-08         0.00000E+00
    0.18899E-06         0.29262E-08         0.00000E+00
    0.19799E-06         0.38524E-08         0.00000E+00
    0.19824E-06         0.71519E-08         0.00000E+00
    0.19912E-06         0.12989E-07         0.00000E+00
    0.20072E-06         0.17396E-07         0.00000E+00
    0.20284E-06         0.20544E-07         0.00000E+00
    0.20532E-06         0.22576E-07         0.00000E+00
    0.20802E-06         0.23611E-07         0.00000E+00
    0.21082E-06         0.23747E-07         0.00000E+00
    0.21359E-06         0.23067E-07         0.00000E+00
    0.21623E-06         0.21640E-07         0.00000E+00
    0.21865E-06         0.19523E-07         0.00000E+00
    0.22077E-06         0.16766E-07         0.00000E+00
    0.22250E-06         0.13405E-07         0.00000E+00
    0.22377E-06         0.94704E-08         0.00000E+00
    0.22449E-06         0.49819E-08         0.00000E+00
    0.22471E-06         0.26010E-08         0.00000E+00
    0.23247E-06         0.32986E-08         0.00000E+00
    0.23274E-06         0.61242E-08         0.00000E+00
    0.23371E-06         0.11122E-07         0.00000E+00
    0.23548E-06         0.14897E-07         0.00000E+00
    0.23784E-06         0.17598E-07         0.00000E+00
    0.24062E-06         0.19346E-07         0.00000E+00
    0.24364E-06         0.20241E-07         0.00000E+00
    0.24676E-06         0.20367E-07         0.00000E+00
    0.24985E-06         0.19791E-07         0.00000E+00
    0.25280E-06         0.18571E-07         0.00000E+00
    0.25551E-06         0.16757E-07         0.00000E+00
    0.25788E-06         0.14391E-07         0.00000E+00
    0.25981E-06         0.11505E-07         0.00000E+00
    0.26122E-06         0.81273E-08         0.00000E+00
    0.26202E-06         0.42745E-08         0.00000E+00
    0.26227E-06         0.22311E-08         0.00000E+00
    0.26933E-06         0.26758E-08         0.00000E+00
    0.26960E-06         0.49705E-08         0.00000E+00
    0.27064E-06         0.90318E-08         0.00000E+00
    0.27256E-06         0.12105E-07         0.00000E+00
    0.27515E-06         0.14313E-07         0.00000E+00
    0.27818E-06         0.15751E-07         0.00000E+00
    0.28149E-06         0.16498E-07         0.00000E+00
    0.28490E-06         0.16616E-07         0.00000E+00
    0.28829E-06         0.16159E-07         0.00000E+00
    0.29151E-06         0.15172E-07         0.00000E+00
    0.29447E-06         0.13694E-07         0.00000E+00
    0.29706E-06         0.11760E-07         0.00000E+00
    0.29917E-06         0.94000E-08         0.00000E+00
    0.30071E-06         0.66371E-08         0.00000E+00
    0.30159E-06         0.34886E-08         0.00000E+00
    0.30186E-06         0.18196E-08         0.00000E+00
    0.30878E-06         0.19875E-08         0.00000E+00
    0.30906E-06         0.36981E-08         0.00000E+00
    0.31013E-06         0.67318E-08         0.00000E+00
    0.31219E-06         0.90419E-08         0.00000E+00
    0.31496E-06         0.10718E-07         0.00000E+00
    0.31822E-06         0.11826E-07         0.00000E+00
    0.32177E-06         0.12418E-07         0.00000E+00
    0.32544E-06         0.12536E-07         0.00000E+00
    0.32907E-06         0.12213E-07         0.00000E+00
    0.33253E-06         0.11480E-07         0.00000E+00
    0.33571E-06         0.10368E-07         0.00000E+00
    0.33848E-06         0.89032E-08         0.00000E+00
    0.34075E-06         0.71115E-08         0.00000E+00
    0.34240E-06         0.50154E-08         0.00000E+00
    0.34334E-06         0.26321E-08         0.00000E+00
    0.34363E-06         0.13704E-08         0.00000E+00
    0.35103E-06         0.12387E-08         0.00000E+00
    0.35129E-06         0.23168E-08         0.00000E+00
    0.35238E-06         0.42422E-08         0.00000E+00
    0.35453E-06         0.57365E-08         0.00000E+00
    0.35746E-06         0.68499E-08         0.00000E+00
    0.36090E-06         0.76142E-08         0.00000E+00
    0.36465E-06         0.80505E-08         0.00000E+00
    0.36852E-06         0.81742E-08         0.00000E+00
    0.37235E-06         0.79999E-08         0.00000E+00
    0.37600E-06         0.75430E-08         0.00000E+00
    0.37935E-06         0.68214E-08         0.00000E+00
    0.38227E-06         0.58559E-08         0.00000E+00
    0.38466E-06         0.46686E-08         0.00000E+00
    0.38641E-06         0.32818E-08         0.00000E+00
    0.38740E-06         0.17148E-08         0.00000E+00
    0.38770E-06         0.88845E-09         0.00000E+00
    0.39621E-06         0.43592E-09         0.00000E+00
    0.39644E-06         0.83984E-09         0.00000E+00
    0.39753E-06         0.15888E-08         0.00000E+00
    0.39974E-06         0.22263E-08         0.00000E+00
    0.40277E-06         0.27563E-08         0.00000E+00
    0.40635E-06         0.31700E-08         0.00000E+00
    0.41024E-06         0.34535E-08         0.00000E+00
    0.41426E-06         0.35937E-08         0.00000E+00
    0.41824E-06         0.35822E-08         0.00000E+00
    0.42202E-06         0.34177E-08         0.00000E+00
    0.42549E-06         0.31066E-08         0.00000E+00
    0.42852E-06         0.26627E-08         0.00000E+00
    0.43100E-06         0.21061E-08         0.00000E+00
    0.43281E-06         0.14603E-08         0.00000E+00
    0.43383E-06         0.74900E-09         0.00000E+00
    0.43414E-06         0.37986E-09         0.00000E+00
    0.44442E-06        -0.41225E-09         0.00000E+00
    0.44462E-06        -0.71607E-09         0.00000E+00
    0.44568E-06        -0.11958E-08         0.00000E+00
    0.44792E-06        -0.14421E-08         0.00000E+00
    0.45101E-06        -0.15048E-08         0.00000E+00
    0.45466E-06        -0.14399E-08         0.00000E+00
    0.45864E-06        -0.13006E-08         0.00000E+00
    0.46274E-06        -0.11320E-08         0.00000E+00
    0.46679E-06        -0.96746E-09         0.00000E+00
    0.47065E-06        -0.82641E-09         0.00000E+00
    0.47418E-06        -0.71424E-09         0.00000E+00
    0.47727E-06        -0.62313E-09         0.00000E+00
    0.47979E-06        -0.53414E-09         0.00000E+00
    0.48163E-06        -0.42025E-09         0.00000E+00
    0.48267E-06        -0.25062E-09         0.00000E+00
    0.48298E-06        -0.14792E-09         0.00000E+00
    0.49572E-06        -0.12949E-08         0.00000E+00
    0.49588E-06        -0.23297E-08         0.00000E+00
    0.49687E-06        -0.40710E-08         0.00000E+00
    0.49910E-06        -0.52112E-08         0.00000E+00
    0.50220E-06        -0.58627E-08         0.00000E+00
    0.50587E-06        -0.61349E-08         0.00000E+00
    0.50986E-06        -0.61254E-08         0.00000E+00
    0.51396E-06        -0.59146E-08         0.00000E+00
    0.51802E-06        -0.55627E-08         0.00000E+00
    0.52188E-06        -0.51080E-08         0.00000E+00
    0.52541E-06        -0.45677E-08         0.00000E+00
    0.52850E-06        -0.39391E-08         0.00000E+00
    0.53102E-06        -0.32027E-08         0.00000E+00
    0.53287E-06        -0.23255E-08         0.00000E+00
    0.53390E-06        -0.12665E-08         0.00000E+00
    0.53421E-06        -0.68593E-09         0.00000E+00
    0.55007E-06        -0.21982E-08         0.00000E+00
    0.55018E-06        -0.39748E-08         0.00000E+00
    0.55110E-06        -0.69869E-08         0.00000E+00
    0.55327E-06        -0.90114E-08         0.00000E+00
    0.55632E-06        -0.10232E-07         0.00000E+00
    0.55994E-06        -0.10819E-07         0.00000E+00
    0.56386E-06        -0.10919E-07         0.00000E+00
    0.56790E-06        -0.10651E-07         0.00000E+00
    0.57188E-06        -0.10103E-07         0.00000E+00
    0.57566E-06        -0.93327E-08         0.00000E+00
    0.57912E-06        -0.83688E-08         0.00000E+00
    0.58215E-06        -0.72128E-08         0.00000E+00
    0.58462E-06        -0.58422E-08         0.00000E+00
    0.58643E-06        -0.42157E-08         0.00000E+00
    0.58744E-06        -0.22779E-08         0.00000E+00
    0.58774E-06        -0.12236E-08         0.00000E+00
    0.60738E-06        -0.31056E-08         0.00000E+00
    0.60744E-06        -0.56193E-08         0.00000E+00
    0.60826E-06        -0.98835E-08         0.00000E+00
    0.61034E-06        -0.12760E-07         0.00000E+00
    0.61329E-06        -0.14514E-07         0.00000E+00
    0.61677E-06        -0.15382E-07         0.00000E+00
    0.62056E-06        -0.15565E-07         0.00000E+00
    0.62444E-06        -0.15223E-07         0.00000E+00
    0.62825E-06        -0.14473E-07         0.00000E+00
    0.63188E-06        -0.13393E-07         0.00000E+00
    0.63519E-06        -0.12021E-07         0.00000E+00
    0.63809E-06        -0.10362E-07         0.00000E+00
    0.64046E-06        -0.83875E-08         0.00000E+00
    0.64219E-06        -0.60450E-08         0.00000E+00
    0.64315E-06        -0.32612E-08         0.00000E+00
    0.64344E-06        -0.17487E-08         0.00000E+00
    0.66744E-06        -0.39966E-08         0.00000E+00
    0.66746E-06        -0.72248E-08         0.00000E+00
    0.66818E-06        -0.12689E-07         0.00000E+00
    0.67013E-06        -0.16358E-07         0.00000E+00
    0.67291E-06        -0.18590E-07         0.00000E+00
    0.67620E-06        -0.19694E-07         0.00000E+00
    0.67975E-06        -0.19929E-07         0.00000E+00
    0.68339E-06        -0.19497E-07         0.00000E+00
    0.68696E-06        -0.18546E-07         0.00000E+00
    0.69034E-06        -0.17170E-07         0.00000E+00
    0.69343E-06        -0.15418E-07         0.00000E+00
    0.69613E-06        -0.13295E-07         0.00000E+00
    0.69834E-06        -0.10766E-07         0.00000E+00
    0.69996E-06        -0.77623E-08         0.00000E+00
    0.70085E-06        -0.41894E-08         0.00000E+00
    0.70111E-06        -0.22472E-08         0.00000E+00
    0.72996E-06        -0.48469E-08         0.00000E+00
    0.72995E-06        -0.87455E-08         0.00000E+00
    0.73057E-06        -0.15320E-07         0.00000E+00
    0.73237E-06        -0.19694E-07         0.00000E+00
    0.73493E-06        -0.22327E-07         0.00000E+00
    0.73794E-06        -0.23611E-07         0.00000E+00
    0.74119E-06        -0.23862E-07         0.00000E+00
    0.74449E-06        -0.23327E-07         0.00000E+00
    0.74772E-06        -0.22180E-07         0.00000E+00
    0.75077E-06        -0.20534E-07         0.00000E+00
    0.75356E-06        -0.18444E-07         0.00000E+00
    0.75600E-06        -0.15913E-07         0.00000E+00
    0.75801E-06        -0.12898E-07         0.00000E+00
    0.75947E-06        -0.93113E-08         0.00000E+00
    0.76028E-06        -0.50330E-08         0.00000E+00
    0.76051E-06        -0.27035E-08         0.00000E+00
    0.79452E-06        -0.56272E-08         0.00000E+00
    0.79449E-06        -0.10127E-07         0.00000E+00
    0.79505E-06        -0.17678E-07         0.00000E+00
    0.79667E-06        -0.22637E-07         0.00000E+00
    0.79897E-06        -0.25577E-07         0.00000E+00
    0.80164E-06        -0.26973E-07         0.00000E+00
    0.80450E-06        -0.27204E-07         0.00000E+00
    0.80738E-06        -0.26555E-07         0.00000E+00
    0.81019E-06        -0.25228E-07         0.00000E+00
    0.81284E-06        -0.23349E-07         0.00000E+00
    0.81526E-06        -0.20977E-07         0.00000E+00
    0.81738E-06        -0.18112E-07         0.00000E+00
    0.81912E-06        -0.14699E-07         0.00000E+00
    0.82040E-06        -0.10632E-07         0.00000E+00
    0.82110E-06        -0.57596E-08         0.00000E+00
    0.82131E-06        -0.31004E-08         0.00000E+00
    0.86056E-06        -0.63033E-08         0.00000E+00
    0.86056E-06        -0.11307E-07         0.00000E+00
    0.86108E-06        -0.19651E-07         0.00000E+00
    0.86253E-06        -0.25042E-07         0.00000E+00
    0.86453E-06        -0.28175E-07         0.00000E+00
    0.86681E-06        -0.29610E-07         0.00000E+00
    0.86921E-06        -0.29785E-07         0.00000E+00
    0.87161E-06        -0.29020E-07         0.00000E+00
    0.87393E-06        -0.27539E-07         0.00000E+00
    0.87611E-06        -0.25477E-07         0.00000E+00
    0.87810E-06        -0.22895E-07         0.00000E+00
    0.87984E-06        -0.19787E-07         0.00000E+00
    0.88128E-06        -0.16085E-07         0.00000E+00
    0.88235E-06        -0.11662E-07         0.00000E+00
    0.88295E-06        -0.63352E-08         0.00000E+00
    0.88313E-06        -0.34194E-08         0.00000E+00
    0.92735E-06        -0.68349E-08         0.00000E+00
    0.92743E-06        -0.12213E-07         0.00000E+00
    0.92801E-06        -0.21112E-07         0.00000E+00
    0.92931E-06        -0.26750E-07         0.00000E+00
    0.93099E-06        -0.29946E-07         0.00000E+00
    0.93284E-06        -0.31345E-07         0.00000E+00
    0.93474E-06        -0.31434E-07         0.00000E+00
    0.93660E-06        -0.30564E-07         0.00000E+00
    0.93839E-06        -0.28968E-07         0.00000E+00
    0.94005E-06        -0.26787E-07         0.00000E+00
    0.94157E-06        -0.24081E-07         0.00000E+00
    0.94291E-06        -0.20836E-07         0.00000E+00
    0.94403E-06        -0.16971E-07         0.00000E+00
    0.94488E-06        -0.12340E-07         0.00000E+00
    0.94537E-06        -0.67254E-08         0.00000E+00
    0.94553E-06        -0.36412E-08         0.00000E+00
    0.99401E-06        -0.71750E-08         0.00000E+00
    0.99424E-06        -0.12762E-07         0.00000E+00
    0.99499E-06        -0.21923E-07         0.00000E+00
    0.99619E-06        -0.27592E-07         0.00000E+00
    0.99757E-06        -0.30713E-07         0.00000E+00
    0.99899E-06        -0.32006E-07         0.00000E+00
    0.10004E-05        -0.31995E-07         0.00000E+00
    0.10017E-05        -0.31042E-07         0.00000E+00
    0.10029E-05        -0.29386E-07         0.00000E+00
    0.10041E-05        -0.27165E-07         0.00000E+00
    0.10051E-05        -0.24432E-07         0.00000E+00
    0.10060E-05        -0.21168E-07         0.00000E+00
    0.10068E-05        -0.17282E-07         0.00000E+00
    0.10075E-05        -0.12606E-07         0.00000E+00
    0.10079E-05        -0.68962E-08         0.00000E+00
    0.10080E-05        -0.37465E-08         0.00000E+00
    0.10594E-05        -0.72696E-08         0.00000E+00
    0.10599E-05        -0.12861E-07         0.00000E+00
    0.10610E-05        -0.21933E-07         0.00000E+00
    0.10622E-05        -0.27395E-07         0.00000E+00
    0.10634E-05        -0.30308E-07         0.00000E+00
    0.10644E-05        -0.31442E-07         0.00000E+00
    0.10653E-05        -0.31334E-07         0.00000E+00
    0.10661E-05        -0.30344E-07         0.00000E+00
    0.10668E-05        -0.28700E-07         0.00000E+00
    0.10674E-05        -0.26527E-07         0.00000E+00
    0.10680E-05        -0.23875E-07         0.00000E+00
    0.10685E-05        -0.20716E-07         0.00000E+00
    0.10690E-05        -0.16954E-07         0.00000E+00
    0.10695E-05        -0.12411E-07         0.00000E+00
    0.10699E-05        -0.68166E-08         0.00000E+00
    0.10700E-05        -0.37163E-08         0.00000E+00
    0.11222E-05        -0.70575E-08         0.00000E+00
    0.11231E-05        -0.12411E-07         0.00000E+00
    0.11248E-05        -0.20993E-07         0.00000E+00
    0.11262E-05        -0.26005E-07         0.00000E+00
    0.11272E-05        -0.28593E-07         0.00000E+00
    0.11280E-05        -0.29543E-07         0.00000E+00
    0.11285E-05        -0.29373E-07         0.00000E+00
    0.11288E-05        -0.28412E-07         0.00000E+00
    0.11291E-05        -0.26864E-07         0.00000E+00
    0.11293E-05        -0.24837E-07         0.00000E+00
    0.11295E-05        -0.22371E-07         0.00000E+00
    0.11297E-05        -0.19441E-07         0.00000E+00
    0.11300E-05        -0.15949E-07         0.00000E+00
    0.11304E-05        -0.11717E-07         0.00000E+00
    0.11308E-05        -0.64606E-08         0.00000E+00
    0.11310E-05        -0.35334E-08         0.00000E+00
    0.11808E-05        -0.64712E-08         0.00000E+00
    0.11823E-05        -0.11310E-07         0.00000E+00
    0.11849E-05        -0.18969E-07         0.00000E+00
    0.11867E-05        -0.23308E-07         0.00000E+00
    0.11879E-05        -0.25498E-07         0.00000E+00
    0.11886E-05        -0.26282E-07         0.00000E+00
    0.11889E-05        -0.26114E-07         0.00000E+00
    0.11890E-05        -0.25268E-07         0.00000E+00
    0.11889E-05        -0.23907E-07         0.00000E+00
    0.11889E-05        -0.22121E-07         0.00000E+00
    0.11888E-05        -0.19942E-07         0.00000E+00
    0.11888E-05        -0.17351E-07         0.00000E+00
    0.11890E-05        -0.14262E-07         0.00000E+00
    0.11894E-05        -0.10508E-07         0.00000E+00
    0.11900E-05        -0.58110E-08         0.00000E+00
    0.11904E-05        -0.31834E-08         0.00000E+00
    0.12332E-05        -0.54419E-08         0.00000E+00
    0.12355E-05        -0.94725E-08         0.00000E+00
    0.12396E-05        -0.15781E-07         0.00000E+00
    0.12423E-05        -0.19283E-07         0.00000E+00
    0.12440E-05        -0.21068E-07         0.00000E+00
    0.12449E-05        -0.21754E-07         0.00000E+00
    0.12453E-05        -0.21680E-07         0.00000E+00
    0.12454E-05        -0.21040E-07         0.00000E+00
    0.12453E-05        -0.19953E-07         0.00000E+00
    0.12451E-05        -0.18487E-07         0.00000E+00
    0.12450E-05        -0.16676E-07         0.00000E+00
    0.12450E-05        -0.14511E-07         0.00000E+00
    0.12453E-05        -0.11931E-07         0.00000E+00
    0.12459E-05        -0.87994E-08         0.00000E+00
    0.12468E-05        -0.48649E-08         0.00000E+00
    0.12474E-05        -0.26572E-08         0.00000E+00
    0.12769E-05        -0.39114E-08         0.00000E+00
    0.12805E-05        -0.68640E-08         0.00000E+00
    0.12869E-05        -0.11482E-07         0.00000E+00
    0.12913E-05        -0.14097E-07         0.00000E+00
    0.12941E-05        -0.15552E-07         0.00000E+00
    0.12957E-05        -0.16240E-07         0.00000E+00
    0.12966E-05        -0.16348E-07         0.00000E+00
    0.12970E-05        -0.15984E-07         0.00000E+00
    0.12970E-05        -0.15229E-07         0.00000E+00
    0.12970E-05        -0.14137E-07         0.00000E+00
    0.12970E-05        -0.12745E-07         0.00000E+00
    0.12972E-05        -0.11063E-07         0.00000E+00
    0.12978E-05        -0.90652E-08         0.00000E+00
    0.12989E-05        -0.66556E-08         0.00000E+00
    0.13006E-05        -0.36431E-08         0.00000E+00
    0.13015E-05        -0.19548E-08         0.00000E+00
    0.13091E-05        -0.18834E-08         0.00000E+00
    0.13148E-05        -0.36110E-08         0.00000E+00
    0.13250E-05        -0.64248E-08         0.00000E+00
    0.13320E-05        -0.82620E-08         0.00000E+00
    0.13367E-05        -0.95107E-08         0.00000E+00
    0.13397E-05        -0.10265E-07         0.00000E+00
    0.13415E-05        -0.10567E-07         0.00000E+00
    0.13425E-05        -0.10481E-07         0.00000E+00
    0.13431E-05        -0.10064E-07         0.00000E+00
    0.13434E-05        -0.93641E-08         0.00000E+00
    0.13438E-05        -0.84151E-08         0.00000E+00
    0.13444E-05        -0.72405E-08         0.00000E+00
    0.13456E-05        -0.58618E-08         0.00000E+00
    0.13475E-05        -0.42279E-08         0.00000E+00
    0.13505E-05        -0.22132E-08         0.00000E+00
    0.13520E-05        -0.10951E-08         0.00000E+00
    0.13259E-05         0.48315E-09         0.00000E+00
    0.13359E-05        -0.28211E-09         0.00000E+00
    0.13523E-05        -0.16910E-08         0.00000E+00
    0.13635E-05        -0.29234E-08         0.00000E+00
    0.13709E-05        -0.39231E-08         0.00000E+00
    0.13758E-05        -0.45769E-08         0.00000E+00
    0.13790E-05        -0.49182E-08         0.00000E+00
    0.13809E-05        -0.49959E-08         0.00000E+00
    0.13822E-05        -0.48544E-08         0.00000E+00
    0.13831E-05        -0.45273E-08         0.00000E+00
    0.13841E-05        -0.40379E-08         0.00000E+00
    0.13854E-05        -0.34033E-08         0.00000E+00
    0.13874E-05        -0.26407E-08         0.00000E+00
    0.13906E-05        -0.18273E-08         0.00000E+00
    0.13955E-05        -0.77401E-09         0.00000E+00
    0.13986E-05        -0.12306E-09         0.00000E+00
    0.13299E-05         0.00000E+00         0.00000E+00
    0.13429E-05         0.00000E+00         0.00000E+00
    0.13632E-05        -0.39168E-20         0.00000E+00
    0.13768E-05         0.39662E-22         0.00000E+00
    0.13858E-05         0.39565E-20         0.00000E+00
    0.13918E-05         0.00000E+00         0.00000E+00
    0.13957E-05         0.00000E+00         0.00000E+00
    0.13982E-05        -0.40589E-20         0.00000E+00
    0.13998E-05        -0.40589E-20         0.00000E+00
    0.14011E-05         0.40939E-20         0.00000E+00
    0.14024E-05         0.40939E-20         0.00000E+00
    0.14041E-05        -0.41258E-20         0.00000E+00
    0.14067E-05         0.16791E-22         0.00000E+00
    0.14106E-05         0.41426E-20         0.00000E+00
    0.14167E-05         0.00000E+00         0.00000E+00
    0.14209E-05         0.00000E+00         0.00000E+00
CELL_DATA        450
TENSORS stressef double 
    0.13187E+08         0.58128E+04         0.00000E+00
    0.58128E+04        -0.11907E+08         0.00000E+00
    0.00000E+00         0.00000E+00         0.00000E+00
 
    0.12171E+08         0.15252E+05         0.00000E+00
    0.15252E+05        -0.11868E+08         0.00000E+00
    0.00000E+00         0.00000E+00         0.00000E+00
 
    0.11166E+08         0.22884E+05         0.00000E+00
    0.22884E+05        -0.11796E+08         0.00000E+00
    0.00000E+00         0.00000E+00         0.00000E+00
 
    0.10182E+08         0.29856E+05         0.00000E+00
    0.29856E+05        -0.11699E+08         0.00000E+00
    0.00000E+00         0.00000E+00         0.00000E+00
 
    0.92208E+07         0.37104E+05         0.00000E+00
    0.37104E+05        -0.11579E+08         0.00000E+00
    0.00000E+00         0.00000E+00         0.00000E+00
 
    0.82846E+07         0.45366E+05         0.00000E+00
    0.45366E+05        -0.11438E+08         0.00000E+00
    0.00000E+00         0.00000E+00         0.00000E+00
 
    0.73721E+07         0.55200E+05         0.00000E+00
    0.55200E+05        -0.11277E+08         0.00000E+00
    0.00000E+00         0.00000E+00         0.00000E+00
 
    0.64805E+07         0.66994E+05         0.00000E+00
    0.66994E+05        -0.11093E+08         0.00000E+00
    0.00000E+00         0.00000E+00         0.00000E+00
 
    0.56059E+07         0.80982E+05         0.00000E+00
    0.80982E+05        -0.10885E+08         0.00000E+00
    0.00000E+00         0.00000E+00         0.00000E+00
 
    0.47435E+07         0.97264E+05         0.00000E+00
    0.97264E+05        -0.10651E+08         0.00000E+00
    0.00000E+00         0.00000E+00         0.00000E+00
 
    0.38884E+07         0.11582E+06         0.00000E+00
    0.11582E+06        -0.10387E+08         0.00000E+00
    0.00000E+00         0.00000E+00         0.00000E+00
 
    0.30352E+07         0.13653E+06         0.00000E+00
    0.13653E+06        -0.10091E+08         0.00000E+00
    0.00000E+00         0.00000E+00         0.00000E+00
 
    0.21791E+07         0.15917E+06         0.00000E+00
    0.15917E+06        -0.97605E+07         0.00000E+00
    0.00000E+00         0.00000E+00         0.00000E+00
 
    0.13155E+07         0.18347E+06         0.00000E+00
    0.18347E+06        -0.93932E+07         0.00000E+00
    0.00000E+00         0.00000E+00         0.00000E+00
 
    0.44066E+06         0.20906E+06         0.00000E+00
    0.20906E+06        -0.89877E+07         0.00000E+00
    0.00000E+00         0.00000E+00         0.00000E+00
 
    0.13164E+08         0.17162E+05         0.00000E+00
    0.17162E+05        -0.11952E+08         0.00000E+00
    0.00000E+00         0.00000E+00         0.00000E+00
 
    0.12142E+08         0.45001E+05         0.00000E+00
    0.45001E+05        -0.11914E+08         0.00000E+00
    0.00000E+00         0.00000E+00         0.00000E+00
 
    0.11135E+08         0.67517E+05         0.00000E+00
    0.67517E+05        -0.11845E+08         0.00000E+00
    0.00000E+00         0.00000E+00         0.00000E+00
 
    0.10149E+08         0.88144E+05         0.00000E+00
    0.88144E+05        -0.11751E+08         0.00000E+00
    0.00000E+00         0.00000E+00         0.00000E+00
 
    0.91891E+07         0.10969E+06         0.00000E+00
    0.10969E+06        -0.11635E+08         0.00000E+00
    0.00000E+00         0.00000E+00         0.00000E+00
 
    0.82548E+07         0.13435E+06         0.00000E+00
    0.13435E+06        -0.11498E+08         0.00000E+00
    0.00000E+00         0.00000E+00         0.00000E+00
 
    0.73451E+07         0.16381E+06         0.00000E+00
    0.16381E+06        -0.11341E+08         0.00000E+00
    0.00000E+00         0.00000E+00         0.00000E+00
 
    0.64569E+07         0.19920E+06         0.00000E+00
    0.19920E+06        -0.11162E+08         0.00000E+00
    0.00000E+00         0.00000E+00         0.00000E+00
 
    0.55860E+07         0.24124E+06         0.00000E+00
    0.24124E+06        -0.10958E+08         0.00000E+00
    0.00000E+00         0.00000E+00         0.00000E+00
 
    0.47275E+07         0.29020E+06         0.00000E+00
    0.29020E+06        -0.10728E+08         0.00000E+00
    0.00000E+00         0.00000E+00         0.00000E+00
 
    0.38761E+07         0.34604E+06         0.00000E+00
    0.34604E+06        -0.10468E+08         0.00000E+00
    0.00000E+00         0.00000E+00         0.00000E+00
 
    0.30265E+07         0.40836E+06         0.00000E+00
    0.40836E+06        -0.10175E+08         0.00000E+00
    0.00000E+00         0.00000E+00         0.00000E+00
 
    0.21735E+07         0.47652E+06         0.00000E+00
    0.47652E+06        -0.98472E+07         0.00000E+00
    0.00000E+00         0.00000E+00         0.00000E+00
 
    0.13126E+07         0.54965E+06         0.00000E+00
    0.54965E+06        -0.94820E+07         0.00000E+00
    0.00000E+00         0.00000E+00         0.00000E+00
 
    0.43979E+06         0.62670E+06         0.00000E+00
    0.62670E+06        -0.90780E+07         0.00000E+00
    0.00000E+00         0.00000E+00         0.00000E+00
 
    0.13115E+08         0.27681E+05         0.00000E+00
    0.27681E+05        -0.12044E+08         0.00000E+00
    0.00000E+00         0.00000E+00         0.00000E+00
 
    0.12083E+08         0.72484E+05         0.00000E+00
    0.72484E+05        -0.12008E+08         0.00000E+00
    0.00000E+00         0.00000E+00         0.00000E+00
 
    0.11071E+08         0.10874E+06         0.00000E+00
    0.10874E+06        -0.11944E+08         0.00000E+00
    0.00000E+00         0.00000E+00         0.00000E+00
 
    0.10084E+08         0.14216E+06         0.00000E+00
    0.14216E+06        -0.11856E+08         0.00000E+00
    0.00000E+00         0.00000E+00         0.00000E+00
 
    0.91248E+07         0.17740E+06         0.00000E+00
    0.17740E+06        -0.11747E+08         0.00000E+00
    0.00000E+00         0.00000E+00         0.00000E+00
 
    0.81944E+07         0.21811E+06         0.00000E+00
    0.21811E+06        -0.11619E+08         0.00000E+00
    0.00000E+00         0.00000E+00         0.00000E+00
 
    0.72904E+07         0.26704E+06         0.00000E+00
    0.26704E+06        -0.11470E+08         0.00000E+00
    0.00000E+00         0.00000E+00         0.00000E+00
 
    0.64091E+07         0.32608E+06         0.00000E+00
    0.32608E+06        -0.11300E+08         0.00000E+00
    0.00000E+00         0.00000E+00         0.00000E+00
 
    0.55458E+07         0.39638E+06         0.00000E+00
    0.39638E+06        -0.11105E+08         0.00000E+00
    0.00000E+00         0.00000E+00         0.00000E+00
 
    0.46952E+07         0.47839E+06         0.00000E+00
    0.47839E+06        -0.10883E+08         0.00000E+00
    0.00000E+00         0.00000E+00         0.00000E+00
 
    0.38514E+07         0.57197E+06         0.00000E+00
    0.57197E+06        -0.10630E+08         0.00000E+00
    0.00000E+00         0.00000E+00         0.00000E+00
 
    0.30089E+07         0.67649E+06         0.00000E+00
    0.67649E+06        -0.10344E+08         0.00000E+00
    0.00000E+00         0.00000E+00         0.00000E+00
 
    0.21623E+07         0.79084E+06         0.00000E+00
    0.79084E+06        -0.10021E+08         0.00000E+00
    0.00000E+00         0.00000E+00         0.00000E+00
 
    0.13067E+07         0.91355E+06         0.00000E+00
    0.91355E+06        -0.96600E+07         0.00000E+00
    0.00000E+00         0.00000E+00         0.00000E+00
 
    0.43803E+06         0.10429E+07         0.00000E+00
    0.10429E+07        -0.92588E+07         0.00000E+00
    0.00000E+00         0.00000E+00         0.00000E+00
 
    0.13038E+08         0.36815E+05         0.00000E+00
    0.36815E+05        -0.12182E+08         0.00000E+00
    0.00000E+00         0.00000E+00         0.00000E+00
 
    0.11991E+08         0.96189E+05         0.00000E+00
    0.96189E+05        -0.12150E+08         0.00000E+00
    0.00000E+00         0.00000E+00         0.00000E+00
 
    0.10971E+08         0.14429E+06         0.00000E+00
    0.14429E+06        -0.12093E+08         0.00000E+00
    0.00000E+00         0.00000E+00         0.00000E+00
 
    0.99821E+07         0.18907E+06         0.00000E+00
    0.18907E+06        -0.12014E+08         0.00000E+00
    0.00000E+00         0.00000E+00         0.00000E+00
 
    0.90261E+07         0.23702E+06         0.00000E+00
    0.23702E+06        -0.11917E+08         0.00000E+00
    0.00000E+00         0.00000E+00         0.00000E+00
 
    0.81020E+07         0.29318E+06         0.00000E+00
    0.29318E+06        -0.11801E+08         0.00000E+00
    0.00000E+00         0.00000E+00         0.00000E+00
 
    0.72069E+07         0.36135E+06         0.00000E+00
    0.36135E+06        -0.11665E+08         0.00000E+00
    0.00000E+00         0.00000E+00         0.00000E+00
 
    0.63362E+07         0.44412E+06         0.00000E+00
    0.44412E+06        -0.11508E+08         0.00000E+00
    0.00000E+00         0.00000E+00         0.00000E+00
 
    0.54846E+07         0.54302E+06         0.00000E+00
    0.54302E+06        -0.11326E+08         0.00000E+00
    0.00000E+00         0.00000E+00         0.00000E+00
 
    0.46459E+07         0.65867E+06         0.00000E+00
    0.65867E+06        -0.11116E+08         0.00000E+00
    0.00000E+00         0.00000E+00         0.00000E+00
 
    0.38138E+07         0.79081E+06         0.00000E+00
    0.79081E+06        -0.10874E+08         0.00000E+00
    0.00000E+00         0.00000E+00         0.00000E+00
 
    0.29822E+07         0.93849E+06         0.00000E+00
    0.93849E+06        -0.10597E+08         0.00000E+00
    0.00000E+00         0.00000E+00         0.00000E+00
 
    0.21452E+07         0.11001E+07         0.00000E+00
    0.11001E+07        -0.10283E+08         0.00000E+00
    0.00000E+00         0.00000E+00         0.00000E+00
 
    0.12977E+07         0.12737E+07         0.00000E+00
    0.12737E+07        -0.99282E+07         0.00000E+00
    0.00000E+00         0.00000E+00         0.00000E+00
 
    0.43537E+06         0.14566E+07         0.00000E+00
    0.14566E+07        -0.95313E+07         0.00000E+00
    0.00000E+00         0.00000E+00         0.00000E+00
 
    0.12927E+08         0.44008E+05         0.00000E+00
    0.44008E+05        -0.12369E+08         0.00000E+00
    0.00000E+00         0.00000E+00         0.00000E+00
 
    0.11862E+08         0.11461E+06         0.00000E+00
    0.11461E+06        -0.12342E+08         0.00000E+00
    0.00000E+00         0.00000E+00         0.00000E+00
 
    0.10833E+08         0.17190E+06         0.00000E+00
    0.17190E+06        -0.12294E+08         0.00000E+00
    0.00000E+00         0.00000E+00         0.00000E+00
 
    0.98420E+07         0.22606E+06         0.00000E+00
    0.22606E+06        -0.12228E+08         0.00000E+00
    0.00000E+00         0.00000E+00         0.00000E+00
 
    0.88903E+07         0.28534E+06         0.00000E+00
    0.28534E+06        -0.12146E+08         0.00000E+00
    0.00000E+00         0.00000E+00         0.00000E+00
 
    0.79753E+07         0.35614E+06         0.00000E+00
    0.35614E+06        -0.12046E+08         0.00000E+00
    0.00000E+00         0.00000E+00         0.00000E+00
 
    0.70927E+07         0.44323E+06         0.00000E+00
    0.44323E+06        -0.11928E+08         0.00000E+00
    0.00000E+00         0.00000E+00         0.00000E+00
 
    0.62368E+07         0.54983E+06         0.00000E+00
    0.54983E+06        -0.11788E+08         0.00000E+00
    0.00000E+00         0.00000E+00         0.00000E+00
 
    0.54012E+07         0.67785E+06         0.00000E+00
    0.67785E+06        -0.11623E+08         0.00000E+00
    0.00000E+00         0.00000E+00         0.00000E+00
 
    0.45789E+07         0.82794E+06         0.00000E+00
    0.82794E+06        -0.11428E+08         0.00000E+00
    0.00000E+00         0.00000E+00         0.00000E+00
 
    0.37628E+07         0.99973E+06         0.00000E+00
    0.99973E+06        -0.11201E+08         0.00000E+00
    0.00000E+00         0.00000E+00         0.00000E+00
 
    0.29459E+07         0.11919E+07         0.00000E+00
    0.11919E+07        -0.10938E+08         0.00000E+00
    0.00000E+00         0.00000E+00         0.00000E+00
 
    0.21221E+07         0.14024E+07         0.00000E+00
    0.14024E+07        -0.10634E+08         0.00000E+00
    0.00000E+00         0.00000E+00         0.00000E+00
 
    0.12856E+07         0.16285E+07         0.00000E+00
    0.16285E+07        -0.10288E+08         0.00000E+00
    0.00000E+00         0.00000E+00         0.00000E+00
 
    0.43176E+06         0.18668E+07         0.00000E+00
    0.18668E+07        -0.98964E+07         0.00000E+00
    0.00000E+00         0.00000E+00         0.00000E+00
 
    0.12776E+08         0.48699E+05         0.00000E+00
    0.48699E+05        -0.12607E+08         0.00000E+00
    0.00000E+00         0.00000E+00         0.00000E+00
 
    0.11690E+08         0.12622E+06         0.00000E+00
    0.12622E+06        -0.12587E+08         0.00000E+00
    0.00000E+00         0.00000E+00         0.00000E+00
 
    0.10650E+08         0.18932E+06         0.00000E+00
    0.18932E+06        -0.12550E+08         0.00000E+00
    0.00000E+00         0.00000E+00         0.00000E+00
 
    0.96588E+07         0.25034E+06         0.00000E+00
    0.25034E+06        -0.12500E+08         0.00000E+00
    0.00000E+00         0.00000E+00         0.00000E+00
 
    0.87139E+07         0.31921E+06         0.00000E+00
    0.31921E+06        -0.12436E+08         0.00000E+00
    0.00000E+00         0.00000E+00         0.00000E+00
 
    0.78114E+07         0.40363E+06         0.00000E+00
    0.40363E+06        -0.12357E+08         0.00000E+00
    0.00000E+00         0.00000E+00         0.00000E+00
 
    0.69455E+07         0.50923E+06         0.00000E+00
    0.50923E+06        -0.12260E+08         0.00000E+00
    0.00000E+00         0.00000E+00         0.00000E+00
 
    0.61090E+07         0.63983E+06         0.00000E+00
    0.63983E+06        -0.12142E+08         0.00000E+00
    0.00000E+00         0.00000E+00         0.00000E+00
 
    0.52942E+07         0.79758E+06         0.00000E+00
    0.79758E+06        -0.11997E+08         0.00000E+00
    0.00000E+00         0.00000E+00         0.00000E+00
 
    0.44930E+07         0.98318E+06         0.00000E+00
    0.98318E+06        -0.11823E+08         0.00000E+00
    0.00000E+00         0.00000E+00         0.00000E+00
 
    0.36974E+07         0.11960E+07         0.00000E+00
    0.11960E+07        -0.11614E+08         0.00000E+00
    0.00000E+00         0.00000E+00         0.00000E+00
 
    0.28995E+07         0.14344E+07         0.00000E+00
    0.14344E+07        -0.11366E+08         0.00000E+00
    0.00000E+00         0.00000E+00         0.00000E+00
 
    0.20925E+07         0.16957E+07         0.00000E+00
    0.16957E+07        -0.11076E+08         0.00000E+00
    0.00000E+00         0.00000E+00         0.00000E+00
 
    0.12701E+07         0.19764E+07         0.00000E+00
    0.19764E+07        -0.10740E+08         0.00000E+00
    0.00000E+00         0.00000E+00         0.00000E+00
 
    0.42716E+06         0.22724E+07         0.00000E+00
    0.22724E+07        -0.10356E+08         0.00000E+00
    0.00000E+00         0.00000E+00         0.00000E+00
 
    0.12577E+08         0.50329E+05         0.00000E+00
    0.50329E+05        -0.12899E+08         0.00000E+00
    0.00000E+00         0.00000E+00         0.00000E+00
 
    0.11467E+08         0.12954E+06         0.00000E+00
    0.12954E+06        -0.12886E+08         0.00000E+00
    0.00000E+00         0.00000E+00         0.00000E+00
 
    0.10418E+08         0.19435E+06         0.00000E+00
    0.19435E+06        -0.12864E+08         0.00000E+00
    0.00000E+00         0.00000E+00         0.00000E+00
 
    0.94275E+07         0.25918E+06         0.00000E+00
    0.25918E+06        -0.12832E+08         0.00000E+00
    0.00000E+00         0.00000E+00         0.00000E+00
 
    0.84926E+07         0.33557E+06         0.00000E+00
    0.33557E+06        -0.12790E+08         0.00000E+00
    0.00000E+00         0.00000E+00         0.00000E+00
 
    0.76068E+07         0.43237E+06         0.00000E+00
    0.43237E+06        -0.12736E+08         0.00000E+00
    0.00000E+00         0.00000E+00         0.00000E+00
 
    0.67623E+07         0.55604E+06         0.00000E+00
    0.55604E+06        -0.12664E+08         0.00000E+00
    0.00000E+00         0.00000E+00         0.00000E+00
 
    0.59504E+07         0.71084E+06         0.00000E+00
    0.71084E+06        -0.12571E+08         0.00000E+00
    0.00000E+00         0.00000E+00         0.00000E+00
 
    0.51617E+07         0.89909E+06         0.00000E+00
    0.89909E+06        -0.12452E+08         0.00000E+00
    0.00000E+00         0.00000E+00         0.00000E+00
 
    0.43869E+07         0.11214E+07         0.00000E+00
    0.11214E+07        -0.12301E+08         0.00000E+00
    0.00000E+00         0.00000E+00         0.00000E+00
 
    0.36166E+07         0.13770E+07         0.00000E+00
    0.13770E+07        -0.12113E+08         0.00000E+00
    0.00000E+00         0.00000E+00         0.00000E+00
 
    0.28423E+07         0.16636E+07         0.00000E+00
    0.16636E+07        -0.11884E+08         0.00000E+00
    0.00000E+00         0.00000E+00         0.00000E+00
 
    0.20561E+07         0.19780E+07         0.00000E+00
    0.19780E+07        -0.11610E+08         0.00000E+00
    0.00000E+00         0.00000E+00         0.00000E+00
 
    0.12510E+07         0.23160E+07         0.00000E+00
    0.23160E+07        -0.11287E+08         0.00000E+00
    0.00000E+00         0.00000E+00         0.00000E+00
 
    0.42149E+06         0.26725E+07         0.00000E+00
    0.26725E+07        -0.10911E+08         0.00000E+00
    0.00000E+00         0.00000E+00         0.00000E+00
 
    0.12321E+08         0.48340E+05         0.00000E+00
    0.48340E+05        -0.13249E+08         0.00000E+00
    0.00000E+00         0.00000E+00         0.00000E+00
 
    0.11186E+08         0.12308E+06         0.00000E+00
    0.12308E+06        -0.13245E+08         0.00000E+00
    0.00000E+00         0.00000E+00         0.00000E+00
 
    0.10128E+08         0.18480E+06         0.00000E+00
    0.18480E+06        -0.13238E+08         0.00000E+00
    0.00000E+00         0.00000E+00         0.00000E+00
 
    0.91419E+07         0.24991E+06         0.00000E+00
    0.24991E+06        -0.13228E+08         0.00000E+00
    0.00000E+00         0.00000E+00         0.00000E+00
 
    0.82211E+07         0.33143E+06         0.00000E+00
    0.33143E+06        -0.13212E+08         0.00000E+00
    0.00000E+00         0.00000E+00         0.00000E+00
 
    0.73571E+07         0.43925E+06         0.00000E+00
    0.43925E+06        -0.13185E+08         0.00000E+00
    0.00000E+00         0.00000E+00         0.00000E+00
 
    0.65396E+07         0.58048E+06         0.00000E+00
    0.58048E+06        -0.13143E+08         0.00000E+00
    0.00000E+00         0.00000E+00         0.00000E+00
 
    0.57581E+07         0.75971E+06         0.00000E+00
    0.75971E+06        -0.13079E+08         0.00000E+00
    0.00000E+00         0.00000E+00         0.00000E+00
 
    0.50015E+07         0.97936E+06         0.00000E+00
    0.97936E+06        -0.12988E+08         0.00000E+00
    0.00000E+00         0.00000E+00         0.00000E+00
 
    0.42587E+07         0.12399E+07         0.00000E+00
    0.12399E+07        -0.12865E+08         0.00000E+00
    0.00000E+00         0.00000E+00         0.00000E+00
 
    0.35193E+07         0.15401E+07         0.00000E+00
    0.15401E+07        -0.12702E+08         0.00000E+00
    0.00000E+00         0.00000E+00         0.00000E+00
 
    0.27734E+07         0.18773E+07         0.00000E+00
    0.18773E+07        -0.12495E+08         0.00000E+00
    0.00000E+00         0.00000E+00         0.00000E+00
 
    0.20122E+07         0.22475E+07         0.00000E+00
    0.22475E+07        -0.12239E+08         0.00000E+00
    0.00000E+00         0.00000E+00         0.00000E+00
 
    0.12280E+07         0.26457E+07         0.00000E+00
    0.26457E+07        -0.11930E+08         0.00000E+00
    0.00000E+00         0.00000E+00         0.00000E+00
 
    0.41467E+06         0.30659E+07         0.00000E+00
    0.30659E+07        -0.11565E+08         0.00000E+00
    0.00000E+00         0.00000E+00         0.00000E+00
 
    0.11994E+08         0.42178E+05         0.00000E+00
    0.42178E+05        -0.13660E+08         0.00000E+00
    0.00000E+00         0.00000E+00         0.00000E+00
 
    0.10836E+08         0.10538E+06         0.00000E+00
    0.10538E+06        -0.13666E+08         0.00000E+00
    0.00000E+00         0.00000E+00         0.00000E+00
 
    0.97724E+07         0.15857E+06         0.00000E+00
    0.15857E+06        -0.13678E+08         0.00000E+00
    0.00000E+00         0.00000E+00         0.00000E+00
 
    0.87948E+07         0.21999E+06         0.00000E+00
    0.21999E+06        -0.13692E+08         0.00000E+00
    0.00000E+00         0.00000E+00         0.00000E+00
 
    0.78936E+07         0.30398E+06         0.00000E+00
    0.30398E+06        -0.13705E+08         0.00000E+00
    0.00000E+00         0.00000E+00         0.00000E+00
 
    0.70574E+07         0.42131E+06         0.00000E+00
    0.42131E+06        -0.13709E+08         0.00000E+00
    0.00000E+00         0.00000E+00         0.00000E+00
 
    0.62736E+07         0.57956E+06         0.00000E+00
    0.57956E+06        -0.13699E+08         0.00000E+00
    0.00000E+00         0.00000E+00         0.00000E+00
 
    0.55292E+07         0.78354E+06         0.00000E+00
    0.78354E+06        -0.13669E+08         0.00000E+00
    0.00000E+00         0.00000E+00         0.00000E+00
 
    0.48111E+07         0.10356E+07         0.00000E+00
    0.10356E+07        -0.13610E+08         0.00000E+00
    0.00000E+00         0.00000E+00         0.00000E+00
 
    0.41067E+07         0.13359E+07         0.00000E+00
    0.13359E+07        -0.13516E+08         0.00000E+00
    0.00000E+00         0.00000E+00         0.00000E+00
 
    0.34039E+07         0.16829E+07         0.00000E+00
    0.16829E+07        -0.13381E+08         0.00000E+00
    0.00000E+00         0.00000E+00         0.00000E+00
 
    0.26917E+07         0.20732E+07         0.00000E+00
    0.20732E+07        -0.13199E+08         0.00000E+00
    0.00000E+00         0.00000E+00         0.00000E+00
 
    0.19602E+07         0.25021E+07         0.00000E+00
    0.25021E+07        -0.12964E+08         0.00000E+00
    0.00000E+00         0.00000E+00         0.00000E+00
 
    0.12008E+07         0.29639E+07         0.00000E+00
    0.29639E+07        -0.12671E+08         0.00000E+00
    0.00000E+00         0.00000E+00         0.00000E+00
 
    0.40660E+06         0.34514E+07         0.00000E+00
    0.34514E+07        -0.12318E+08         0.00000E+00
    0.00000E+00         0.00000E+00         0.00000E+00
 
    0.11586E+08         0.31302E+05         0.00000E+00
    0.31302E+05        -0.14137E+08         0.00000E+00
    0.00000E+00         0.00000E+00         0.00000E+00
 
    0.10407E+08         0.75047E+05         0.00000E+00
    0.75047E+05        -0.14154E+08         0.00000E+00
    0.00000E+00         0.00000E+00         0.00000E+00
 
    0.93416E+07         0.11366E+06         0.00000E+00
    0.11366E+06        -0.14186E+08         0.00000E+00
    0.00000E+00         0.00000E+00         0.00000E+00
 
    0.83783E+07         0.16704E+06         0.00000E+00
    0.16704E+06        -0.14228E+08         0.00000E+00
    0.00000E+00         0.00000E+00         0.00000E+00
 
    0.75035E+07         0.25063E+06         0.00000E+00
    0.25063E+06        -0.14272E+08         0.00000E+00
    0.00000E+00         0.00000E+00         0.00000E+00
 
    0.67025E+07         0.37585E+06         0.00000E+00
    0.37585E+06        -0.14311E+08         0.00000E+00
    0.00000E+00         0.00000E+00         0.00000E+00
 
    0.59597E+07         0.55060E+06         0.00000E+00
    0.55060E+06        -0.14337E+08         0.00000E+00
    0.00000E+00         0.00000E+00         0.00000E+00
 
    0.52598E+07         0.77968E+06         0.00000E+00
    0.77968E+06        -0.14342E+08         0.00000E+00
    0.00000E+00         0.00000E+00         0.00000E+00
 
    0.45876E+07         0.10652E+07         0.00000E+00
    0.10652E+07        -0.14319E+08         0.00000E+00
    0.00000E+00         0.00000E+00         0.00000E+00
 
    0.39284E+07         0.14071E+07         0.00000E+00
    0.14071E+07        -0.14258E+08         0.00000E+00
    0.00000E+00         0.00000E+00         0.00000E+00
 
    0.32688E+07         0.18031E+07         0.00000E+00
    0.18031E+07        -0.14153E+08         0.00000E+00
    0.00000E+00         0.00000E+00         0.00000E+00
 
    0.25962E+07         0.22493E+07         0.00000E+00
    0.22493E+07        -0.13998E+08         0.00000E+00
    0.00000E+00         0.00000E+00         0.00000E+00
 
    0.18994E+07         0.27402E+07         0.00000E+00
    0.27402E+07        -0.13786E+08         0.00000E+00
    0.00000E+00         0.00000E+00         0.00000E+00
 
    0.11690E+07         0.32690E+07         0.00000E+00
    0.32690E+07        -0.13512E+08         0.00000E+00
    0.00000E+00         0.00000E+00         0.00000E+00
 
    0.39716E+06         0.38278E+07         0.00000E+00
    0.38278E+07        -0.13172E+08         0.00000E+00
    0.00000E+00         0.00000E+00         0.00000E+00
 
    0.11080E+08         0.15192E+05         0.00000E+00
    0.15192E+05        -0.14684E+08         0.00000E+00
    0.00000E+00         0.00000E+00         0.00000E+00
 
    0.98855E+07         0.30759E+05         0.00000E+00
    0.30759E+05        -0.14714E+08         0.00000E+00
    0.00000E+00         0.00000E+00         0.00000E+00
 
    0.88253E+07         0.48227E+05         0.00000E+00
    0.48227E+05        -0.14769E+08         0.00000E+00
    0.00000E+00         0.00000E+00         0.00000E+00
 
    0.78839E+07         0.88903E+05         0.00000E+00
    0.88903E+05        -0.14840E+08         0.00000E+00
    0.00000E+00         0.00000E+00         0.00000E+00
 
    0.70437E+07         0.16906E+06         0.00000E+00
    0.16906E+06        -0.14918E+08         0.00000E+00
    0.00000E+00         0.00000E+00         0.00000E+00
 
    0.62863E+07         0.30053E+06         0.00000E+00
    0.30053E+06        -0.14994E+08         0.00000E+00
    0.00000E+00         0.00000E+00         0.00000E+00
 
    0.55932E+07         0.49125E+06         0.00000E+00
    0.49125E+06        -0.15059E+08         0.00000E+00
    0.00000E+00         0.00000E+00         0.00000E+00
 
    0.49462E+07         0.74585E+06         0.00000E+00
    0.74585E+06        -0.15103E+08         0.00000E+00
    0.00000E+00         0.00000E+00         0.00000E+00
 
    0.43278E+07         0.10661E+07         0.00000E+00
    0.10661E+07        -0.15117E+08         0.00000E+00
    0.00000E+00         0.00000E+00         0.00000E+00
 
    0.37216E+07         0.14513E+07         0.00000E+00
    0.14513E+07        -0.15092E+08         0.00000E+00
    0.00000E+00         0.00000E+00         0.00000E+00
 
    0.31120E+07         0.18987E+07         0.00000E+00
    0.18987E+07        -0.15020E+08         0.00000E+00
    0.00000E+00         0.00000E+00         0.00000E+00
 
    0.24853E+07         0.24036E+07         0.00000E+00
    0.24036E+07        -0.14894E+08         0.00000E+00
    0.00000E+00         0.00000E+00         0.00000E+00
 
    0.18288E+07         0.29598E+07         0.00000E+00
    0.29598E+07        -0.14707E+08         0.00000E+00
    0.00000E+00         0.00000E+00         0.00000E+00
 
    0.11321E+07         0.35596E+07         0.00000E+00
    0.35596E+07        -0.14453E+08         0.00000E+00
    0.00000E+00         0.00000E+00         0.00000E+00
 
    0.38618E+06         0.41938E+07         0.00000E+00
    0.41938E+07        -0.14128E+08         0.00000E+00
    0.00000E+00         0.00000E+00         0.00000E+00
 
    0.10463E+08        -0.66432E+04         0.00000E+00
   -0.66432E+04        -0.15309E+08         0.00000E+00
    0.00000E+00         0.00000E+00         0.00000E+00
 
    0.92587E+07        -0.28695E+05         0.00000E+00
   -0.28695E+05        -0.15352E+08         0.00000E+00
    0.00000E+00         0.00000E+00         0.00000E+00
 
    0.82122E+07        -0.39374E+05         0.00000E+00
   -0.39374E+05        -0.15430E+08         0.00000E+00
    0.00000E+00         0.00000E+00         0.00000E+00
 
    0.73022E+07        -0.16288E+05         0.00000E+00
   -0.16288E+05        -0.15533E+08         0.00000E+00
    0.00000E+00         0.00000E+00         0.00000E+00
 
    0.65064E+07         0.57346E+05         0.00000E+00
    0.57346E+05        -0.15647E+08         0.00000E+00
    0.00000E+00         0.00000E+00         0.00000E+00
 
    0.58026E+07         0.19343E+06         0.00000E+00
    0.19343E+06        -0.15763E+08         0.00000E+00
    0.00000E+00         0.00000E+00         0.00000E+00
 
    0.51689E+07         0.39967E+06         0.00000E+00
    0.39967E+06        -0.15869E+08         0.00000E+00
    0.00000E+00         0.00000E+00         0.00000E+00
 
    0.45841E+07         0.68026E+06         0.00000E+00
    0.68026E+06        -0.15953E+08         0.00000E+00
    0.00000E+00         0.00000E+00         0.00000E+00
 
    0.40284E+07         0.10364E+07         0.00000E+00
    0.10364E+07        -0.16007E+08         0.00000E+00
    0.00000E+00         0.00000E+00         0.00000E+00
 
    0.34832E+07         0.14668E+07         0.00000E+00
    0.14668E+07        -0.16019E+08         0.00000E+00
    0.00000E+00         0.00000E+00         0.00000E+00
 
    0.29314E+07         0.19680E+07         0.00000E+00
    0.19680E+07        -0.15982E+08         0.00000E+00
    0.00000E+00         0.00000E+00         0.00000E+00
 
    0.23573E+07         0.25345E+07         0.00000E+00
    0.25345E+07        -0.15887E+08         0.00000E+00
    0.00000E+00         0.00000E+00         0.00000E+00
 
    0.17473E+07         0.31594E+07         0.00000E+00
    0.31594E+07        -0.15728E+08         0.00000E+00
    0.00000E+00         0.00000E+00         0.00000E+00
 
    0.10893E+07         0.38339E+07         0.00000E+00
    0.38339E+07        -0.15496E+08         0.00000E+00
    0.00000E+00         0.00000E+00         0.00000E+00
 
    0.37347E+06         0.45479E+07         0.00000E+00
    0.45479E+07        -0.15187E+08         0.00000E+00
    0.00000E+00         0.00000E+00         0.00000E+00
 
    0.97151E+07        -0.34649E+05         0.00000E+00
   -0.34649E+05        -0.16016E+08         0.00000E+00
    0.00000E+00         0.00000E+00         0.00000E+00
 
    0.85122E+07        -0.10437E+06         0.00000E+00
   -0.10437E+06        -0.16073E+08         0.00000E+00
    0.00000E+00         0.00000E+00         0.00000E+00
 
    0.74906E+07        -0.15050E+06         0.00000E+00
   -0.15050E+06        -0.16177E+08         0.00000E+00
    0.00000E+00         0.00000E+00         0.00000E+00
 
    0.66234E+07        -0.14998E+06         0.00000E+00
   -0.14998E+06        -0.16312E+08         0.00000E+00
    0.00000E+00         0.00000E+00         0.00000E+00
 
    0.58837E+07        -0.85925E+05         0.00000E+00
   -0.85925E+05        -0.16464E+08         0.00000E+00
    0.00000E+00         0.00000E+00         0.00000E+00
 
    0.52448E+07         0.53236E+05         0.00000E+00
    0.53236E+05        -0.16621E+08         0.00000E+00
    0.00000E+00         0.00000E+00         0.00000E+00
 
    0.46812E+07         0.27464E+06         0.00000E+00
    0.27464E+06        -0.16769E+08         0.00000E+00
    0.00000E+00         0.00000E+00         0.00000E+00
 
    0.41689E+07         0.58173E+06         0.00000E+00
    0.58173E+06        -0.16895E+08         0.00000E+00
    0.00000E+00         0.00000E+00         0.00000E+00
 
    0.36854E+07         0.97497E+06         0.00000E+00
    0.97497E+06        -0.16989E+08         0.00000E+00
    0.00000E+00         0.00000E+00         0.00000E+00
 
    0.32102E+07         0.14523E+07         0.00000E+00
    0.14523E+07        -0.17041E+08         0.00000E+00
    0.00000E+00         0.00000E+00         0.00000E+00
 
    0.27242E+07         0.20095E+07         0.00000E+00
    0.20095E+07        -0.17040E+08         0.00000E+00
    0.00000E+00         0.00000E+00         0.00000E+00
 
    0.22104E+07         0.26404E+07         0.00000E+00
    0.26404E+07        -0.16978E+08         0.00000E+00
    0.00000E+00         0.00000E+00         0.00000E+00
 
    0.16534E+07         0.33372E+07         0.00000E+00
    0.33372E+07        -0.16847E+08         0.00000E+00
    0.00000E+00         0.00000E+00         0.00000E+00
 
    0.10399E+07         0.40903E+07         0.00000E+00
    0.40903E+07        -0.16639E+08         0.00000E+00
    0.00000E+00         0.00000E+00         0.00000E+00
 
    0.35876E+06         0.48886E+07         0.00000E+00
    0.48886E+07        -0.16349E+08         0.00000E+00
    0.00000E+00         0.00000E+00         0.00000E+00
 
    0.88198E+07        -0.69210E+05         0.00000E+00
   -0.69210E+05        -0.16811E+08         0.00000E+00
    0.00000E+00         0.00000E+00         0.00000E+00
 
    0.76309E+07        -0.19711E+06         0.00000E+00
   -0.19711E+06        -0.16884E+08         0.00000E+00
    0.00000E+00         0.00000E+00         0.00000E+00
 
    0.66479E+07        -0.28615E+06         0.00000E+00
   -0.28615E+06        -0.17013E+08         0.00000E+00
    0.00000E+00         0.00000E+00         0.00000E+00
 
    0.58376E+07        -0.31310E+06         0.00000E+00
   -0.31310E+06        -0.17182E+08         0.00000E+00
    0.00000E+00         0.00000E+00         0.00000E+00
 
    0.51674E+07        -0.26151E+06         0.00000E+00
   -0.26151E+06        -0.17374E+08         0.00000E+00
    0.00000E+00         0.00000E+00         0.00000E+00
 
    0.46061E+07        -0.12062E+06         0.00000E+00
   -0.12062E+06        -0.17572E+08         0.00000E+00
    0.00000E+00         0.00000E+00         0.00000E+00
 
    0.41246E+07         0.11570E+06         0.00000E+00
    0.11570E+06        -0.17762E+08         0.00000E+00
    0.00000E+00         0.00000E+00         0.00000E+00
 
    0.36958E+07         0.44985E+06         0.00000E+00
    0.44985E+06        -0.17930E+08         0.00000E+00
    0.00000E+00         0.00000E+00         0.00000E+00
 
    0.32948E+07         0.88129E+06         0.00000E+00
    0.88129E+06        -0.18065E+08         0.00000E+00
    0.00000E+00         0.00000E+00         0.00000E+00
 
    0.28990E+07         0.14071E+07         0.00000E+00
    0.14071E+07        -0.18156E+08         0.00000E+00
    0.00000E+00         0.00000E+00         0.00000E+00
 
    0.24877E+07         0.20222E+07         0.00000E+00
    0.20222E+07        -0.18192E+08         0.00000E+00
    0.00000E+00         0.00000E+00         0.00000E+00
 
    0.20422E+07         0.27200E+07         0.00000E+00
    0.27200E+07        -0.18164E+08         0.00000E+00
    0.00000E+00         0.00000E+00         0.00000E+00
 
    0.15456E+07         0.34917E+07         0.00000E+00
    0.34917E+07        -0.18063E+08         0.00000E+00
    0.00000E+00         0.00000E+00         0.00000E+00
 
    0.98296E+06         0.43271E+07         0.00000E+00
    0.43271E+07        -0.17881E+08         0.00000E+00
    0.00000E+00         0.00000E+00         0.00000E+00
 
    0.34172E+06         0.52139E+07         0.00000E+00
    0.52139E+07        -0.17611E+08         0.00000E+00
    0.00000E+00         0.00000E+00         0.00000E+00
 
    0.77573E+07        -0.11063E+06         0.00000E+00
   -0.11063E+06        -0.17702E+08         0.00000E+00
    0.00000E+00         0.00000E+00         0.00000E+00
 
    0.65992E+07        -0.30749E+06         0.00000E+00
   -0.30749E+06        -0.17790E+08         0.00000E+00
    0.00000E+00         0.00000E+00         0.00000E+00
 
    0.56716E+07        -0.44683E+06         0.00000E+00
   -0.44683E+06        -0.17946E+08         0.00000E+00
    0.00000E+00         0.00000E+00         0.00000E+00
 
    0.49344E+07        -0.50589E+06         0.00000E+00
   -0.50589E+06        -0.18149E+08         0.00000E+00
    0.00000E+00         0.00000E+00         0.00000E+00
 
    0.43491E+07        -0.46931E+06         0.00000E+00
   -0.46931E+06        -0.18379E+08         0.00000E+00
    0.00000E+00         0.00000E+00         0.00000E+00
 
    0.38797E+07        -0.32774E+06         0.00000E+00
   -0.32774E+06        -0.18618E+08         0.00000E+00
    0.00000E+00         0.00000E+00         0.00000E+00
 
    0.34932E+07        -0.76562E+05         0.00000E+00
   -0.76562E+05        -0.18849E+08         0.00000E+00
    0.00000E+00         0.00000E+00         0.00000E+00
 
    0.31597E+07         0.28519E+06         0.00000E+00
    0.28519E+06        -0.19059E+08         0.00000E+00
    0.00000E+00         0.00000E+00         0.00000E+00
 
    0.28519E+07         0.75574E+06         0.00000E+00
    0.75574E+06        -0.19234E+08         0.00000E+00
    0.00000E+00         0.00000E+00         0.00000E+00
 
    0.25456E+07         0.13312E+07         0.00000E+00
    0.13312E+07        -0.19363E+08         0.00000E+00
    0.00000E+00         0.00000E+00         0.00000E+00
 
    0.22182E+07         0.20058E+07         0.00000E+00
    0.20058E+07        -0.19436E+08         0.00000E+00
    0.00000E+00         0.00000E+00         0.00000E+00
 
    0.18497E+07         0.27722E+07         0.00000E+00
    0.27722E+07        -0.19442E+08         0.00000E+00
    0.00000E+00         0.00000E+00         0.00000E+00
 
    0.14215E+07         0.36213E+07         0.00000E+00
    0.36213E+07        -0.19373E+08         0.00000E+00
    0.00000E+00         0.00000E+00         0.00000E+00
 
    0.91706E+06         0.45422E+07         0.00000E+00
    0.45422E+07        -0.19219E+08         0.00000E+00
    0.00000E+00         0.00000E+00         0.00000E+00
 
    0.32191E+06         0.55218E+07         0.00000E+00
    0.55218E+07        -0.18971E+08         0.00000E+00
    0.00000E+00         0.00000E+00         0.00000E+00
 
    0.65080E+07        -0.15910E+06         0.00000E+00
   -0.15910E+06        -0.18695E+08         0.00000E+00
    0.00000E+00         0.00000E+00         0.00000E+00
 
    0.54013E+07        -0.43575E+06         0.00000E+00
   -0.43575E+06        -0.18798E+08         0.00000E+00
    0.00000E+00         0.00000E+00         0.00000E+00
 
    0.45493E+07        -0.63245E+06         0.00000E+00
   -0.63245E+06        -0.18981E+08         0.00000E+00
    0.00000E+00         0.00000E+00         0.00000E+00
 
    0.39041E+07        -0.72775E+06         0.00000E+00
   -0.72775E+06        -0.19217E+08         0.00000E+00
    0.00000E+00         0.00000E+00         0.00000E+00
 
    0.34210E+07        -0.70817E+06         0.00000E+00
   -0.70817E+06        -0.19485E+08         0.00000E+00
    0.00000E+00         0.00000E+00         0.00000E+00
 
    0.30589E+07        -0.56653E+06         0.00000E+00
   -0.56653E+06        -0.19762E+08         0.00000E+00
    0.00000E+00         0.00000E+00         0.00000E+00
 
    0.27812E+07        -0.30033E+06         0.00000E+00
   -0.30033E+06        -0.20032E+08         0.00000E+00
    0.00000E+00         0.00000E+00         0.00000E+00
 
    0.25552E+07         0.89524E+05         0.00000E+00
    0.89524E+05        -0.20280E+08         0.00000E+00
    0.00000E+00         0.00000E+00         0.00000E+00
 
    0.23519E+07         0.59977E+06         0.00000E+00
    0.59977E+06        -0.20492E+08         0.00000E+00
    0.00000E+00         0.00000E+00         0.00000E+00
 
    0.21452E+07         0.12254E+07         0.00000E+00
    0.12254E+07        -0.20658E+08         0.00000E+00
    0.00000E+00         0.00000E+00         0.00000E+00
 
    0.19116E+07         0.19602E+07         0.00000E+00
    0.19602E+07        -0.20767E+08         0.00000E+00
    0.00000E+00         0.00000E+00         0.00000E+00
 
    0.16294E+07         0.27964E+07         0.00000E+00
    0.27964E+07        -0.20808E+08         0.00000E+00
    0.00000E+00         0.00000E+00         0.00000E+00
 
    0.12785E+07         0.37246E+07         0.00000E+00
    0.37246E+07        -0.20771E+08         0.00000E+00
    0.00000E+00         0.00000E+00         0.00000E+00
 
    0.84049E+06         0.47336E+07         0.00000E+00
    0.47336E+07        -0.20647E+08         0.00000E+00
    0.00000E+00         0.00000E+00         0.00000E+00
 
    0.29875E+06         0.58096E+07         0.00000E+00
    0.58096E+07        -0.20424E+08         0.00000E+00
    0.00000E+00         0.00000E+00         0.00000E+00
 
    0.50518E+07        -0.21469E+06         0.00000E+00
   -0.21469E+06        -0.19797E+08         0.00000E+00
    0.00000E+00         0.00000E+00         0.00000E+00
 
    0.40215E+07        -0.58167E+06         0.00000E+00
   -0.58167E+06        -0.19916E+08         0.00000E+00
    0.00000E+00         0.00000E+00         0.00000E+00
 
    0.32688E+07        -0.84215E+06         0.00000E+00
   -0.84215E+06        -0.20124E+08         0.00000E+00
    0.00000E+00         0.00000E+00         0.00000E+00
 
    0.27373E+07        -0.97698E+06         0.00000E+00
   -0.97698E+06        -0.20392E+08         0.00000E+00
    0.00000E+00         0.00000E+00         0.00000E+00
 
    0.23754E+07        -0.97559E+06         0.00000E+00
   -0.97559E+06        -0.20693E+08         0.00000E+00
    0.00000E+00         0.00000E+00         0.00000E+00
 
    0.21373E+07        -0.83387E+06         0.00000E+00
   -0.83387E+06        -0.21005E+08         0.00000E+00
    0.00000E+00         0.00000E+00         0.00000E+00
 
    0.19828E+07        -0.55220E+06         0.00000E+00
   -0.55220E+06        -0.21310E+08         0.00000E+00
    0.00000E+00         0.00000E+00         0.00000E+00
 
    0.18769E+07        -0.13387E+06         0.00000E+00
   -0.13387E+06        -0.21591E+08         0.00000E+00
    0.00000E+00         0.00000E+00         0.00000E+00
 
    0.17892E+07         0.41613E+06         0.00000E+00
    0.41613E+06        -0.21837E+08         0.00000E+00
    0.00000E+00         0.00000E+00         0.00000E+00
 
    0.16926E+07         0.10918E+07         0.00000E+00
    0.10918E+07        -0.22037E+08         0.00000E+00
    0.00000E+00         0.00000E+00         0.00000E+00
 
    0.15628E+07         0.18863E+07         0.00000E+00
    0.18863E+07        -0.22179E+08         0.00000E+00
    0.00000E+00         0.00000E+00         0.00000E+00
 
    0.13768E+07         0.27921E+07         0.00000E+00
    0.27921E+07        -0.22254E+08         0.00000E+00
    0.00000E+00         0.00000E+00         0.00000E+00
 
    0.11131E+07         0.37999E+07         0.00000E+00
    0.37999E+07        -0.22250E+08         0.00000E+00
    0.00000E+00         0.00000E+00         0.00000E+00
 
    0.75101E+06         0.48986E+07         0.00000E+00
    0.48986E+07        -0.22157E+08         0.00000E+00
    0.00000E+00         0.00000E+00         0.00000E+00
 
    0.27145E+06         0.60742E+07         0.00000E+00
    0.60742E+07        -0.21963E+08         0.00000E+00
    0.00000E+00         0.00000E+00         0.00000E+00
 
    0.33687E+07        -0.27730E+06         0.00000E+00
   -0.27730E+06        -0.21016E+08         0.00000E+00
    0.00000E+00         0.00000E+00         0.00000E+00
 
    0.24447E+07        -0.74451E+06         0.00000E+00
   -0.74451E+06        -0.21149E+08         0.00000E+00
    0.00000E+00         0.00000E+00         0.00000E+00
 
    0.18189E+07        -0.10741E+07         0.00000E+00
   -0.10741E+07        -0.21381E+08         0.00000E+00
    0.00000E+00         0.00000E+00         0.00000E+00
 
    0.14255E+07        -0.12505E+07         0.00000E+00
   -0.12505E+07        -0.21677E+08         0.00000E+00
    0.00000E+00         0.00000E+00         0.00000E+00
 
    0.12059E+07        -0.12674E+07         0.00000E+00
   -0.12674E+07        -0.22007E+08         0.00000E+00
    0.00000E+00         0.00000E+00         0.00000E+00
 
    0.11092E+07        -0.11248E+07         0.00000E+00
   -0.11248E+07        -0.22348E+08         0.00000E+00
    0.00000E+00         0.00000E+00         0.00000E+00
 
    0.10924E+07        -0.82686E+06         0.00000E+00
   -0.82686E+06        -0.22680E+08         0.00000E+00
    0.00000E+00         0.00000E+00         0.00000E+00
 
    0.11188E+07        -0.37990E+06         0.00000E+00
   -0.37990E+06        -0.22989E+08         0.00000E+00
    0.00000E+00         0.00000E+00         0.00000E+00
 
    0.11575E+07         0.20914E+06         0.00000E+00
    0.20914E+06        -0.23262E+08         0.00000E+00
    0.00000E+00         0.00000E+00         0.00000E+00
 
    0.11813E+07         0.93330E+06         0.00000E+00
    0.93330E+06        -0.23489E+08         0.00000E+00
    0.00000E+00         0.00000E+00         0.00000E+00
 
    0.11653E+07         0.17857E+07         0.00000E+00
    0.17857E+07        -0.23662E+08         0.00000E+00
    0.00000E+00         0.00000E+00         0.00000E+00
 
    0.10861E+07         0.27592E+07         0.00000E+00
    0.27592E+07        -0.23769E+08         0.00000E+00
    0.00000E+00         0.00000E+00         0.00000E+00
 
    0.92053E+06         0.38454E+07         0.00000E+00
    0.38454E+07        -0.23800E+08         0.00000E+00
    0.00000E+00         0.00000E+00         0.00000E+00
 
    0.64561E+06         0.50342E+07         0.00000E+00
    0.50342E+07        -0.23741E+08         0.00000E+00
    0.00000E+00         0.00000E+00         0.00000E+00
 
    0.23898E+06         0.63116E+07         0.00000E+00
    0.63116E+07        -0.23578E+08         0.00000E+00
    0.00000E+00         0.00000E+00         0.00000E+00
 
    0.14393E+07        -0.34666E+06         0.00000E+00
   -0.34666E+06        -0.22358E+08         0.00000E+00
    0.00000E+00         0.00000E+00         0.00000E+00
 
    0.65726E+06        -0.92288E+06         0.00000E+00
   -0.92288E+06        -0.22504E+08         0.00000E+00
    0.00000E+00         0.00000E+00         0.00000E+00
 
    0.19027E+06        -0.13253E+07         0.00000E+00
   -0.13253E+07        -0.22757E+08         0.00000E+00
    0.00000E+00         0.00000E+00         0.00000E+00
 
   -0.37759E+05        -0.15436E+07         0.00000E+00
   -0.15436E+07        -0.23076E+08         0.00000E+00
    0.00000E+00         0.00000E+00         0.00000E+00
 
   -0.92815E+05        -0.15772E+07         0.00000E+00
   -0.15772E+07        -0.23428E+08         0.00000E+00
    0.00000E+00         0.00000E+00         0.00000E+00
 
   -0.30250E+05        -0.14319E+07         0.00000E+00
   -0.14319E+07        -0.23788E+08         0.00000E+00
    0.00000E+00         0.00000E+00         0.00000E+00
 
    0.10457E+06        -0.11166E+07         0.00000E+00
   -0.11166E+07        -0.24138E+08         0.00000E+00
    0.00000E+00         0.00000E+00         0.00000E+00
 
    0.27473E+06        -0.64129E+06         0.00000E+00
   -0.64129E+06        -0.24464E+08         0.00000E+00
    0.00000E+00         0.00000E+00         0.00000E+00
 
    0.44977E+06        -0.15023E+05         0.00000E+00
   -0.15023E+05        -0.24756E+08         0.00000E+00
    0.00000E+00         0.00000E+00         0.00000E+00
 
    0.60339E+06         0.75443E+06         0.00000E+00
    0.75443E+06        -0.25005E+08         0.00000E+00
    0.00000E+00         0.00000E+00         0.00000E+00
 
    0.71142E+06         0.16606E+07         0.00000E+00
    0.16606E+07        -0.25203E+08         0.00000E+00
    0.00000E+00         0.00000E+00         0.00000E+00
 
    0.75010E+06         0.26977E+07         0.00000E+00
    0.26977E+07        -0.25340E+08         0.00000E+00
    0.00000E+00         0.00000E+00         0.00000E+00
 
    0.69495E+06         0.38592E+07         0.00000E+00
    0.38592E+07        -0.25405E+08         0.00000E+00
    0.00000E+00         0.00000E+00         0.00000E+00
 
    0.52035E+06         0.51363E+07         0.00000E+00
    0.51363E+07        -0.25383E+08         0.00000E+00
    0.00000E+00         0.00000E+00         0.00000E+00
 
    0.19996E+06         0.65167E+07         0.00000E+00
    0.65167E+07        -0.25258E+08         0.00000E+00
    0.00000E+00         0.00000E+00         0.00000E+00
 
   -0.75458E+06        -0.42226E+06         0.00000E+00
   -0.42226E+06        -0.23830E+08         0.00000E+00
    0.00000E+00         0.00000E+00         0.00000E+00
 
   -0.13528E+07        -0.11146E+07         0.00000E+00
   -0.11146E+07        -0.23987E+08         0.00000E+00
    0.00000E+00         0.00000E+00         0.00000E+00
 
   -0.16245E+07        -0.15913E+07         0.00000E+00
   -0.15913E+07        -0.24256E+08         0.00000E+00
    0.00000E+00         0.00000E+00         0.00000E+00
 
   -0.16571E+07        -0.18493E+07         0.00000E+00
   -0.18493E+07        -0.24590E+08         0.00000E+00
    0.00000E+00         0.00000E+00         0.00000E+00
 
   -0.15241E+07        -0.18962E+07         0.00000E+00
   -0.18962E+07        -0.24954E+08         0.00000E+00
    0.00000E+00         0.00000E+00         0.00000E+00
 
   -0.12849E+07        -0.17450E+07         0.00000E+00
   -0.17450E+07        -0.25322E+08         0.00000E+00
    0.00000E+00         0.00000E+00         0.00000E+00
 
   -0.98563E+06        -0.14110E+07         0.00000E+00
   -0.14110E+07        -0.25677E+08         0.00000E+00
    0.00000E+00         0.00000E+00         0.00000E+00
 
   -0.66205E+06        -0.90818E+06         0.00000E+00
   -0.90818E+06        -0.26007E+08         0.00000E+00
    0.00000E+00         0.00000E+00         0.00000E+00
 
   -0.34242E+06        -0.24807E+06         0.00000E+00
   -0.24807E+06        -0.26306E+08         0.00000E+00
    0.00000E+00         0.00000E+00         0.00000E+00
 
   -0.50605E+05         0.56117E+06         0.00000E+00
    0.56117E+06        -0.26567E+08         0.00000E+00
    0.00000E+00         0.00000E+00         0.00000E+00
 
    0.19102E+06         0.15143E+07         0.00000E+00
    0.15143E+07        -0.26784E+08         0.00000E+00
    0.00000E+00         0.00000E+00         0.00000E+00
 
    0.35925E+06         0.26079E+07         0.00000E+00
    0.26079E+07        -0.26949E+08         0.00000E+00
    0.00000E+00         0.00000E+00         0.00000E+00
 
    0.42846E+06         0.38384E+07         0.00000E+00
    0.38384E+07        -0.27049E+08         0.00000E+00
    0.00000E+00         0.00000E+00         0.00000E+00
 
    0.36998E+06         0.52001E+07         0.00000E+00
    0.52001E+07        -0.27069E+08         0.00000E+00
    0.00000E+00         0.00000E+00         0.00000E+00
 
    0.15252E+06         0.66827E+07         0.00000E+00
    0.66827E+07        -0.26988E+08         0.00000E+00
    0.00000E+00         0.00000E+00         0.00000E+00
 
   -0.32290E+07        -0.50332E+06         0.00000E+00
   -0.50332E+06        -0.25438E+08         0.00000E+00
    0.00000E+00         0.00000E+00         0.00000E+00
 
   -0.35942E+07        -0.13163E+07         0.00000E+00
   -0.13163E+07        -0.25605E+08         0.00000E+00
    0.00000E+00         0.00000E+00         0.00000E+00
 
   -0.36291E+07        -0.18656E+07         0.00000E+00
   -0.18656E+07        -0.25883E+08         0.00000E+00
    0.00000E+00         0.00000E+00         0.00000E+00
 
   -0.34337E+07        -0.21581E+07         0.00000E+00
   -0.21581E+07        -0.26222E+08         0.00000E+00
    0.00000E+00         0.00000E+00         0.00000E+00
 
   -0.30890E+07        -0.22121E+07         0.00000E+00
   -0.22121E+07        -0.26584E+08         0.00000E+00
    0.00000E+00         0.00000E+00         0.00000E+00
 
   -0.26570E+07        -0.20505E+07         0.00000E+00
   -0.20505E+07        -0.26943E+08         0.00000E+00
    0.00000E+00         0.00000E+00         0.00000E+00
 
   -0.21829E+07        -0.16960E+07         0.00000E+00
   -0.16960E+07        -0.27285E+08         0.00000E+00
    0.00000E+00         0.00000E+00         0.00000E+00
 
   -0.16990E+07        -0.11677E+07         0.00000E+00
   -0.11677E+07        -0.27603E+08         0.00000E+00
    0.00000E+00         0.00000E+00         0.00000E+00
 
   -0.12291E+07        -0.47934E+06         0.00000E+00
   -0.47934E+06        -0.27894E+08         0.00000E+00
    0.00000E+00         0.00000E+00         0.00000E+00
 
   -0.79260E+06         0.36117E+06         0.00000E+00
    0.36117E+06        -0.28156E+08         0.00000E+00
    0.00000E+00         0.00000E+00         0.00000E+00
 
   -0.40859E+06         0.13508E+07         0.00000E+00
    0.13508E+07        -0.28385E+08         0.00000E+00
    0.00000E+00         0.00000E+00         0.00000E+00
 
   -0.98663E+05         0.24898E+07         0.00000E+00
    0.24898E+07        -0.28574E+08         0.00000E+00
    0.00000E+00         0.00000E+00         0.00000E+00
 
    0.11078E+06         0.37794E+07         0.00000E+00
    0.37794E+07        -0.28711E+08         0.00000E+00
    0.00000E+00         0.00000E+00         0.00000E+00
 
    0.18757E+06         0.52185E+07         0.00000E+00
    0.52185E+07        -0.28777E+08         0.00000E+00
    0.00000E+00         0.00000E+00         0.00000E+00
 
    0.94205E+05         0.68007E+07         0.00000E+00
    0.68007E+07        -0.28748E+08         0.00000E+00
    0.00000E+00         0.00000E+00         0.00000E+00
 
   -0.59970E+07        -0.58881E+06         0.00000E+00
   -0.58881E+06        -0.27189E+08         0.00000E+00
    0.00000E+00         0.00000E+00         0.00000E+00
 
   -0.60718E+07        -0.15238E+07         0.00000E+00
   -0.15238E+07        -0.27360E+08         0.00000E+00
    0.00000E+00         0.00000E+00         0.00000E+00
 
   -0.58228E+07        -0.21394E+07         0.00000E+00
   -0.21394E+07        -0.27639E+08         0.00000E+00
    0.00000E+00         0.00000E+00         0.00000E+00
 
   -0.53646E+07        -0.24568E+07         0.00000E+00
   -0.24568E+07        -0.27969E+08         0.00000E+00
    0.00000E+00         0.00000E+00         0.00000E+00
 
   -0.47852E+07        -0.25087E+07         0.00000E+00
   -0.25087E+07        -0.28310E+08         0.00000E+00
    0.00000E+00         0.00000E+00         0.00000E+00
 
   -0.41473E+07        -0.23305E+07         0.00000E+00
   -0.23305E+07        -0.28639E+08         0.00000E+00
    0.00000E+00         0.00000E+00         0.00000E+00
 
   -0.34919E+07        -0.19540E+07         0.00000E+00
   -0.19540E+07        -0.28947E+08         0.00000E+00
    0.00000E+00         0.00000E+00         0.00000E+00
 
   -0.28448E+07        -0.14039E+07         0.00000E+00
   -0.14039E+07        -0.29232E+08         0.00000E+00
    0.00000E+00         0.00000E+00         0.00000E+00
 
   -0.22224E+07        -0.69567E+06         0.00000E+00
   -0.69567E+06        -0.29497E+08         0.00000E+00
    0.00000E+00         0.00000E+00         0.00000E+00
 
   -0.16375E+07         0.16370E+06         0.00000E+00
    0.16370E+06        -0.29746E+08         0.00000E+00
    0.00000E+00         0.00000E+00         0.00000E+00
 
   -0.11036E+07         0.11748E+07         0.00000E+00
    0.11748E+07        -0.29978E+08         0.00000E+00
    0.00000E+00         0.00000E+00         0.00000E+00
 
   -0.63944E+06         0.23433E+07         0.00000E+00
    0.23433E+07        -0.30188E+08         0.00000E+00
    0.00000E+00         0.00000E+00         0.00000E+00
 
   -0.27155E+06         0.36773E+07         0.00000E+00
    0.36773E+07        -0.30363E+08         0.00000E+00
    0.00000E+00         0.00000E+00         0.00000E+00
 
   -0.36054E+05         0.51827E+07         0.00000E+00
    0.51827E+07        -0.30484E+08         0.00000E+00
    0.00000E+00         0.00000E+00         0.00000E+00
 
    0.21733E+05         0.68590E+07         0.00000E+00
    0.68590E+07        -0.30519E+08         0.00000E+00
    0.00000E+00         0.00000E+00         0.00000E+00
 
   -0.90679E+07        -0.67730E+06         0.00000E+00
   -0.67730E+06        -0.29086E+08         0.00000E+00
    0.00000E+00         0.00000E+00         0.00000E+00
 
   -0.87843E+07        -0.17307E+07         0.00000E+00
   -0.17307E+07        -0.29257E+08         0.00000E+00
    0.00000E+00         0.00000E+00         0.00000E+00
 
   -0.81984E+07        -0.24005E+07         0.00000E+00
   -0.24005E+07        -0.29525E+08         0.00000E+00
    0.00000E+00         0.00000E+00         0.00000E+00
 
   -0.74414E+07        -0.27277E+07         0.00000E+00
   -0.27277E+07        -0.29826E+08         0.00000E+00
    0.00000E+00         0.00000E+00         0.00000E+00
 
   -0.66071E+07        -0.27645E+07         0.00000E+00
   -0.27645E+07        -0.30121E+08         0.00000E+00
    0.00000E+00         0.00000E+00         0.00000E+00
 
   -0.57547E+07        -0.25621E+07         0.00000E+00
   -0.25621E+07        -0.30393E+08         0.00000E+00
    0.00000E+00         0.00000E+00         0.00000E+00
 
   -0.49172E+07        -0.21631E+07         0.00000E+00
   -0.21631E+07        -0.30639E+08         0.00000E+00
    0.00000E+00         0.00000E+00         0.00000E+00
 
   -0.41095E+07        -0.15973E+07         0.00000E+00
   -0.15973E+07        -0.30867E+08         0.00000E+00
    0.00000E+00         0.00000E+00         0.00000E+00
 
   -0.33374E+07        -0.88151E+06         0.00000E+00
   -0.88151E+06        -0.31086E+08         0.00000E+00
    0.00000E+00         0.00000E+00         0.00000E+00
 
   -0.26037E+07        -0.20399E+05         0.00000E+00
   -0.20399E+05        -0.31306E+08         0.00000E+00
    0.00000E+00         0.00000E+00         0.00000E+00
 
   -0.19145E+07         0.99156E+06         0.00000E+00
    0.99156E+06        -0.31530E+08         0.00000E+00
    0.00000E+00         0.00000E+00         0.00000E+00
 
   -0.12834E+07         0.21677E+07         0.00000E+00
    0.21677E+07        -0.31758E+08         0.00000E+00
    0.00000E+00         0.00000E+00         0.00000E+00
 
   -0.73618E+06         0.35252E+07         0.00000E+00
    0.35252E+07        -0.31976E+08         0.00000E+00
    0.00000E+00         0.00000E+00         0.00000E+00
 
   -0.31307E+06         0.50805E+07         0.00000E+00
    0.50805E+07        -0.32160E+08         0.00000E+00
    0.00000E+00         0.00000E+00         0.00000E+00
 
   -0.69282E+05         0.68420E+07         0.00000E+00
    0.68420E+07        -0.32275E+08         0.00000E+00
    0.00000E+00         0.00000E+00         0.00000E+00
 
   -0.12445E+08        -0.76696E+06         0.00000E+00
   -0.76696E+06        -0.31132E+08         0.00000E+00
    0.00000E+00         0.00000E+00         0.00000E+00
 
   -0.11722E+08        -0.19285E+07         0.00000E+00
   -0.19285E+07        -0.31296E+08         0.00000E+00
    0.00000E+00         0.00000E+00         0.00000E+00
 
   -0.10740E+08        -0.26318E+07         0.00000E+00
   -0.26318E+07        -0.31535E+08         0.00000E+00
    0.00000E+00         0.00000E+00         0.00000E+00
 
   -0.96491E+07        -0.29465E+07         0.00000E+00
   -0.29465E+07        -0.31781E+08         0.00000E+00
    0.00000E+00         0.00000E+00         0.00000E+00
 
   -0.85448E+07        -0.29514E+07         0.00000E+00
   -0.29514E+07        -0.31999E+08         0.00000E+00
    0.00000E+00         0.00000E+00         0.00000E+00
 
   -0.74774E+07        -0.27173E+07         0.00000E+00
   -0.27173E+07        -0.32179E+08         0.00000E+00
    0.00000E+00         0.00000E+00         0.00000E+00
 
   -0.64646E+07        -0.22974E+07         0.00000E+00
   -0.22974E+07        -0.32333E+08         0.00000E+00
    0.00000E+00         0.00000E+00         0.00000E+00
 
   -0.55058E+07        -0.17260E+07         0.00000E+00
   -0.17260E+07        -0.32476E+08         0.00000E+00
    0.00000E+00         0.00000E+00         0.00000E+00
 
   -0.45922E+07        -0.10195E+07         0.00000E+00
   -0.10195E+07        -0.32627E+08         0.00000E+00
    0.00000E+00         0.00000E+00         0.00000E+00
 
   -0.37141E+07        -0.17914E+06         0.00000E+00
   -0.17914E+06        -0.32800E+08         0.00000E+00
    0.00000E+00         0.00000E+00         0.00000E+00
 
   -0.28669E+07         0.80686E+06         0.00000E+00
    0.80686E+06        -0.33006E+08         0.00000E+00
    0.00000E+00         0.00000E+00         0.00000E+00
 
   -0.20567E+07         0.19613E+07         0.00000E+00
    0.19613E+07        -0.33247E+08         0.00000E+00
    0.00000E+00         0.00000E+00         0.00000E+00
 
   -0.13063E+07         0.33139E+07         0.00000E+00
    0.33139E+07        -0.33512E+08         0.00000E+00
    0.00000E+00         0.00000E+00         0.00000E+00
 
   -0.65980E+06         0.48957E+07         0.00000E+00
    0.48957E+07        -0.33775E+08         0.00000E+00
    0.00000E+00         0.00000E+00         0.00000E+00
 
   -0.18478E+06         0.67288E+07         0.00000E+00
    0.67288E+07        -0.33990E+08         0.00000E+00
    0.00000E+00         0.00000E+00         0.00000E+00
 
   -0.16124E+08        -0.85528E+06         0.00000E+00
   -0.85528E+06        -0.33328E+08         0.00000E+00
    0.00000E+00         0.00000E+00         0.00000E+00
 
   -0.14863E+08        -0.21045E+07         0.00000E+00
   -0.21045E+07        -0.33474E+08         0.00000E+00
    0.00000E+00         0.00000E+00         0.00000E+00
 
   -0.13420E+08        -0.28084E+07         0.00000E+00
   -0.28084E+07        -0.33660E+08         0.00000E+00
    0.00000E+00         0.00000E+00         0.00000E+00
 
   -0.11965E+08        -0.30799E+07         0.00000E+00
   -0.30799E+07        -0.33814E+08         0.00000E+00
    0.00000E+00         0.00000E+00         0.00000E+00
 
   -0.10586E+08        -0.30339E+07         0.00000E+00
   -0.30339E+07        -0.33911E+08         0.00000E+00
    0.00000E+00         0.00000E+00         0.00000E+00
 
   -0.93139E+07        -0.27625E+07         0.00000E+00
   -0.27625E+07        -0.33960E+08         0.00000E+00
    0.00000E+00         0.00000E+00         0.00000E+00
 
   -0.81424E+07        -0.23283E+07         0.00000E+00
   -0.23283E+07        -0.33986E+08         0.00000E+00
    0.00000E+00         0.00000E+00         0.00000E+00
 
   -0.70495E+07        -0.17666E+07         0.00000E+00
   -0.17666E+07        -0.34016E+08         0.00000E+00
    0.00000E+00         0.00000E+00         0.00000E+00
 
   -0.60089E+07        -0.10916E+07         0.00000E+00
   -0.10916E+07        -0.34076E+08         0.00000E+00
    0.00000E+00         0.00000E+00         0.00000E+00
 
   -0.49957E+07        -0.30001E+06         0.00000E+00
   -0.30001E+06        -0.34186E+08         0.00000E+00
    0.00000E+00         0.00000E+00         0.00000E+00
 
   -0.39920E+07         0.62680E+06         0.00000E+00
    0.62680E+06        -0.34363E+08         0.00000E+00
    0.00000E+00         0.00000E+00         0.00000E+00
 
   -0.29923E+07         0.17221E+07         0.00000E+00
    0.17221E+07        -0.34614E+08         0.00000E+00
    0.00000E+00         0.00000E+00         0.00000E+00
 
   -0.20125E+07         0.30316E+07         0.00000E+00
    0.30316E+07        -0.34932E+08         0.00000E+00
    0.00000E+00         0.00000E+00         0.00000E+00
 
   -0.10986E+07         0.46068E+07         0.00000E+00
    0.46068E+07        -0.35291E+08         0.00000E+00
    0.00000E+00         0.00000E+00         0.00000E+00
 
   -0.33304E+06         0.64914E+07         0.00000E+00
    0.64914E+07        -0.35634E+08         0.00000E+00
    0.00000E+00         0.00000E+00         0.00000E+00
 
   -0.20087E+08        -0.93866E+06         0.00000E+00
   -0.93866E+06        -0.35672E+08         0.00000E+00
    0.00000E+00         0.00000E+00         0.00000E+00
 
   -0.18169E+08        -0.22386E+07         0.00000E+00
   -0.22386E+07        -0.35783E+08         0.00000E+00
    0.00000E+00         0.00000E+00         0.00000E+00
 
   -0.16197E+08        -0.28926E+07         0.00000E+00
   -0.28926E+07        -0.35877E+08         0.00000E+00
    0.00000E+00         0.00000E+00         0.00000E+00
 
   -0.14359E+08        -0.30818E+07         0.00000E+00
   -0.30818E+07        -0.35884E+08         0.00000E+00
    0.00000E+00         0.00000E+00         0.00000E+00
 
   -0.12719E+08        -0.29676E+07         0.00000E+00
   -0.29676E+07        -0.35807E+08         0.00000E+00
    0.00000E+00         0.00000E+00         0.00000E+00
 
   -0.11267E+08        -0.26613E+07         0.00000E+00
   -0.26613E+07        -0.35681E+08         0.00000E+00
    0.00000E+00         0.00000E+00         0.00000E+00
 
   -0.99629E+07        -0.22275E+07         0.00000E+00
   -0.22275E+07        -0.35546E+08         0.00000E+00
    0.00000E+00         0.00000E+00         0.00000E+00
 
   -0.87599E+07        -0.16979E+07         0.00000E+00
   -0.16979E+07        -0.35438E+08         0.00000E+00
    0.00000E+00         0.00000E+00         0.00000E+00
 
   -0.76122E+07        -0.10817E+07         0.00000E+00
   -0.10817E+07        -0.35388E+08         0.00000E+00
    0.00000E+00         0.00000E+00         0.00000E+00
 
   -0.64790E+07        -0.37111E+06         0.00000E+00
   -0.37111E+06        -0.35421E+08         0.00000E+00
    0.00000E+00         0.00000E+00         0.00000E+00
 
   -0.53262E+07         0.45813E+06         0.00000E+00
    0.45813E+06        -0.35557E+08         0.00000E+00
    0.00000E+00         0.00000E+00         0.00000E+00
 
   -0.41316E+07         0.14488E+07         0.00000E+00
    0.14488E+07        -0.35813E+08         0.00000E+00
    0.00000E+00         0.00000E+00         0.00000E+00
 
   -0.28959E+07         0.26646E+07         0.00000E+00
    0.26646E+07        -0.36191E+08         0.00000E+00
    0.00000E+00         0.00000E+00         0.00000E+00
 
   -0.16611E+07         0.41859E+07         0.00000E+00
    0.41859E+07        -0.36666E+08         0.00000E+00
    0.00000E+00         0.00000E+00         0.00000E+00
 
   -0.52617E+06         0.60914E+07         0.00000E+00
    0.60914E+07        -0.37176E+08         0.00000E+00
    0.00000E+00         0.00000E+00         0.00000E+00
 
   -0.24300E+08        -0.10111E+07         0.00000E+00
   -0.10111E+07        -0.38155E+08         0.00000E+00
    0.00000E+00         0.00000E+00         0.00000E+00
 
   -0.21569E+08        -0.22949E+07         0.00000E+00
   -0.22949E+07        -0.38200E+08         0.00000E+00
    0.00000E+00         0.00000E+00         0.00000E+00
 
   -0.19009E+08        -0.28236E+07         0.00000E+00
   -0.28236E+07        -0.38135E+08         0.00000E+00
    0.00000E+00         0.00000E+00         0.00000E+00
 
   -0.16800E+08        -0.28892E+07         0.00000E+00
   -0.28892E+07        -0.37919E+08         0.00000E+00
    0.00000E+00         0.00000E+00         0.00000E+00
 
   -0.14938E+08        -0.27032E+07         0.00000E+00
   -0.27032E+07        -0.37605E+08         0.00000E+00
    0.00000E+00         0.00000E+00         0.00000E+00
 
   -0.13347E+08        -0.23798E+07         0.00000E+00
   -0.23798E+07        -0.37262E+08         0.00000E+00
    0.00000E+00         0.00000E+00         0.00000E+00
 
   -0.11945E+08        -0.19732E+07         0.00000E+00
   -0.19732E+07        -0.36942E+08         0.00000E+00
    0.00000E+00         0.00000E+00         0.00000E+00
 
   -0.10660E+08        -0.15053E+07         0.00000E+00
   -0.15053E+07        -0.36683E+08         0.00000E+00
    0.00000E+00         0.00000E+00         0.00000E+00
 
   -0.94285E+07        -0.97902E+06         0.00000E+00
   -0.97902E+06        -0.36514E+08         0.00000E+00
    0.00000E+00         0.00000E+00         0.00000E+00
 
   -0.81953E+07        -0.38309E+06         0.00000E+00
   -0.38309E+06        -0.36461E+08         0.00000E+00
    0.00000E+00         0.00000E+00         0.00000E+00
 
   -0.69090E+07         0.30872E+06         0.00000E+00
    0.30872E+06        -0.36548E+08         0.00000E+00
    0.00000E+00         0.00000E+00         0.00000E+00
 
   -0.55243E+07         0.11432E+07         0.00000E+00
    0.11432E+07        -0.36800E+08         0.00000E+00
    0.00000E+00         0.00000E+00         0.00000E+00
 
   -0.40129E+07         0.21998E+07         0.00000E+00
    0.21998E+07        -0.37238E+08         0.00000E+00
    0.00000E+00         0.00000E+00         0.00000E+00
 
   -0.23953E+07         0.35978E+07         0.00000E+00
    0.35978E+07        -0.37854E+08         0.00000E+00
    0.00000E+00         0.00000E+00         0.00000E+00
 
   -0.78341E+06         0.54752E+07         0.00000E+00
    0.54752E+07        -0.38582E+08         0.00000E+00
    0.00000E+00         0.00000E+00         0.00000E+00
 
   -0.28691E+08        -0.10597E+07         0.00000E+00
   -0.10597E+07        -0.40759E+08         0.00000E+00
    0.00000E+00         0.00000E+00         0.00000E+00
 
   -0.24950E+08        -0.21988E+07         0.00000E+00
   -0.21988E+07        -0.40671E+08         0.00000E+00
    0.00000E+00         0.00000E+00         0.00000E+00
 
   -0.21786E+08        -0.25004E+07         0.00000E+00
   -0.25004E+07        -0.40322E+08         0.00000E+00
    0.00000E+00         0.00000E+00         0.00000E+00
 
   -0.19275E+08        -0.24271E+07         0.00000E+00
   -0.24271E+07        -0.39783E+08         0.00000E+00
    0.00000E+00         0.00000E+00         0.00000E+00
 
   -0.17258E+08        -0.21992E+07         0.00000E+00
   -0.21992E+07        -0.39182E+08         0.00000E+00
    0.00000E+00         0.00000E+00         0.00000E+00
 
   -0.15577E+08        -0.18992E+07         0.00000E+00
   -0.18992E+07        -0.38604E+08         0.00000E+00
    0.00000E+00         0.00000E+00         0.00000E+00
 
   -0.14113E+08        -0.15586E+07         0.00000E+00
   -0.15586E+07        -0.38097E+08         0.00000E+00
    0.00000E+00         0.00000E+00         0.00000E+00
 
   -0.12773E+08        -0.11872E+07         0.00000E+00
   -0.11872E+07        -0.37690E+08         0.00000E+00
    0.00000E+00         0.00000E+00         0.00000E+00
 
   -0.11482E+08        -0.78246E+06         0.00000E+00
   -0.78246E+06        -0.37407E+08         0.00000E+00
    0.00000E+00         0.00000E+00         0.00000E+00
 
   -0.10172E+08        -0.33229E+06         0.00000E+00
   -0.33229E+06        -0.37270E+08         0.00000E+00
    0.00000E+00         0.00000E+00         0.00000E+00
 
   -0.87770E+07         0.18658E+06         0.00000E+00
    0.18658E+06        -0.37304E+08         0.00000E+00
    0.00000E+00         0.00000E+00         0.00000E+00
 
   -0.72254E+07         0.81598E+06         0.00000E+00
    0.81598E+06        -0.37540E+08         0.00000E+00
    0.00000E+00         0.00000E+00         0.00000E+00
 
   -0.54410E+07         0.16342E+07         0.00000E+00
    0.16342E+07        -0.38024E+08         0.00000E+00
    0.00000E+00         0.00000E+00         0.00000E+00
 
   -0.33798E+07         0.28015E+07         0.00000E+00
    0.28015E+07        -0.38798E+08         0.00000E+00
    0.00000E+00         0.00000E+00         0.00000E+00
 
   -0.11394E+07         0.45634E+07         0.00000E+00
    0.45634E+07        -0.39812E+08         0.00000E+00
    0.00000E+00         0.00000E+00         0.00000E+00
 
   -0.33098E+08        -0.10393E+07         0.00000E+00
   -0.10393E+07        -0.43438E+08         0.00000E+00
    0.00000E+00         0.00000E+00         0.00000E+00
 
   -0.28136E+08        -0.17665E+07         0.00000E+00
   -0.17665E+07        -0.43005E+08         0.00000E+00
    0.00000E+00         0.00000E+00         0.00000E+00
 
   -0.24498E+08        -0.17887E+07         0.00000E+00
   -0.17887E+07        -0.42182E+08         0.00000E+00
    0.00000E+00         0.00000E+00         0.00000E+00
 
   -0.21814E+08        -0.16454E+07         0.00000E+00
   -0.16454E+07        -0.41260E+08         0.00000E+00
    0.00000E+00         0.00000E+00         0.00000E+00
 
   -0.19717E+08        -0.14484E+07         0.00000E+00
   -0.14484E+07        -0.40378E+08         0.00000E+00
    0.00000E+00         0.00000E+00         0.00000E+00
 
   -0.17992E+08        -0.12303E+07         0.00000E+00
   -0.12303E+07        -0.39592E+08         0.00000E+00
    0.00000E+00         0.00000E+00         0.00000E+00
 
   -0.16494E+08        -0.10007E+07         0.00000E+00
   -0.10007E+07        -0.38927E+08         0.00000E+00
    0.00000E+00         0.00000E+00         0.00000E+00
 
   -0.15122E+08        -0.76032E+06         0.00000E+00
   -0.76032E+06        -0.38401E+08         0.00000E+00
    0.00000E+00         0.00000E+00         0.00000E+00
 
   -0.13793E+08        -0.50473E+06         0.00000E+00
   -0.50473E+06        -0.38027E+08         0.00000E+00
    0.00000E+00         0.00000E+00         0.00000E+00
 
   -0.12430E+08        -0.22470E+06         0.00000E+00
   -0.22470E+06        -0.37821E+08         0.00000E+00
    0.00000E+00         0.00000E+00         0.00000E+00
 
   -0.10957E+08         0.95585E+05         0.00000E+00
    0.95585E+05        -0.37807E+08         0.00000E+00
    0.00000E+00         0.00000E+00         0.00000E+00
 
   -0.92808E+07         0.48431E+06         0.00000E+00
    0.48431E+06        -0.38021E+08         0.00000E+00
    0.00000E+00         0.00000E+00         0.00000E+00
 
   -0.72787E+07         0.99691E+06         0.00000E+00
    0.99691E+06        -0.38521E+08         0.00000E+00
    0.00000E+00         0.00000E+00         0.00000E+00
 
   -0.47599E+07         0.17675E+07         0.00000E+00
    0.17675E+07        -0.39414E+08         0.00000E+00
    0.00000E+00         0.00000E+00         0.00000E+00
 
   -0.16708E+07         0.32239E+07         0.00000E+00
    0.32239E+07        -0.40810E+08         0.00000E+00
    0.00000E+00         0.00000E+00         0.00000E+00
 
   -0.37094E+08        -0.62154E+06         0.00000E+00
   -0.62154E+06        -0.45702E+08         0.00000E+00
    0.00000E+00         0.00000E+00         0.00000E+00
 
   -0.31035E+08        -0.71668E+06         0.00000E+00
   -0.71668E+06        -0.44581E+08         0.00000E+00
    0.00000E+00         0.00000E+00         0.00000E+00
 
   -0.27235E+08        -0.65893E+06         0.00000E+00
   -0.65893E+06        -0.43293E+08         0.00000E+00
    0.00000E+00         0.00000E+00         0.00000E+00
 
   -0.24492E+08        -0.58575E+06         0.00000E+00
   -0.58575E+06        -0.42093E+08         0.00000E+00
    0.00000E+00         0.00000E+00         0.00000E+00
 
   -0.22368E+08        -0.50653E+06         0.00000E+00
   -0.50653E+06        -0.41030E+08         0.00000E+00
    0.00000E+00         0.00000E+00         0.00000E+00
 
   -0.20624E+08        -0.42594E+06         0.00000E+00
   -0.42594E+06        -0.40117E+08         0.00000E+00
    0.00000E+00         0.00000E+00         0.00000E+00
 
   -0.19110E+08        -0.34447E+06         0.00000E+00
   -0.34447E+06        -0.39363E+08         0.00000E+00
    0.00000E+00         0.00000E+00         0.00000E+00
 
   -0.17720E+08        -0.26111E+06         0.00000E+00
   -0.26111E+06        -0.38769E+08         0.00000E+00
    0.00000E+00         0.00000E+00         0.00000E+00
 
   -0.16368E+08        -0.17369E+06         0.00000E+00
   -0.17369E+06        -0.38344E+08         0.00000E+00
    0.00000E+00         0.00000E+00         0.00000E+00
 
   -0.14976E+08        -0.78765E+05         0.00000E+00
   -0.78765E+05        -0.38100E+08         0.00000E+00
    0.00000E+00         0.00000E+00         0.00000E+00
 
   -0.13460E+08         0.29244E+05         0.00000E+00
    0.29244E+05        -0.38057E+08         0.00000E+00
    0.00000E+00         0.00000E+00         0.00000E+00
 
   -0.11716E+08         0.16004E+06         0.00000E+00
    0.16004E+06        -0.38252E+08         0.00000E+00
    0.00000E+00         0.00000E+00         0.00000E+00
 
   -0.95905E+07         0.33367E+06         0.00000E+00
    0.33367E+06        -0.38749E+08         0.00000E+00
    0.00000E+00         0.00000E+00         0.00000E+00
 
   -0.68098E+07         0.59458E+06         0.00000E+00
    0.59458E+06        -0.39679E+08         0.00000E+00
    0.00000E+00         0.00000E+00         0.00000E+00
 
   -0.26054E+07         0.12131E+07         0.00000E+00
    0.12131E+07        -0.41423E+08         0.00000E+00
    0.00000E+00         0.00000E+00         0.00000E+00
 
TENSORS stresstot double 
   -0.34902E+08         0.58128E+04         0.00000E+00
    0.58128E+04        -0.59996E+08         0.00000E+00
    0.00000E+00         0.00000E+00        -0.48089E+08
 
   -0.35937E+08         0.15252E+05         0.00000E+00
    0.15252E+05        -0.59975E+08         0.00000E+00
    0.00000E+00         0.00000E+00        -0.48107E+08
 
   -0.36975E+08         0.22884E+05         0.00000E+00
    0.22884E+05        -0.59937E+08         0.00000E+00
    0.00000E+00         0.00000E+00        -0.48141E+08
 
   -0.38004E+08         0.29856E+05         0.00000E+00
    0.29856E+05        -0.59885E+08         0.00000E+00
    0.00000E+00         0.00000E+00        -0.48186E+08
 
   -0.39018E+08         0.37104E+05         0.00000E+00
    0.37104E+05        -0.59818E+08         0.00000E+00
    0.00000E+00         0.00000E+00        -0.48239E+08
 
   -0.40013E+08         0.45366E+05         0.00000E+00
    0.45366E+05        -0.59736E+08         0.00000E+00
    0.00000E+00         0.00000E+00        -0.48298E+08
 
   -0.40987E+08         0.55200E+05         0.00000E+00
    0.55200E+05        -0.59636E+08         0.00000E+00
    0.00000E+00         0.00000E+00        -0.48359E+08
 
   -0.41941E+08         0.66994E+05         0.00000E+00
    0.66994E+05        -0.59515E+08         0.00000E+00
    0.00000E+00         0.00000E+00        -0.48421E+08
 
   -0.42876E+08         0.80982E+05         0.00000E+00
    0.80982E+05        -0.59367E+08         0.00000E+00
    0.00000E+00         0.00000E+00        -0.48482E+08
 
   -0.43795E+08         0.97264E+05         0.00000E+00
    0.97264E+05        -0.59189E+08         0.00000E+00
    0.00000E+00         0.00000E+00        -0.48538E+08
 
   -0.44701E+08         0.11582E+06         0.00000E+00
    0.11582E+06        -0.58977E+08         0.00000E+00
    0.00000E+00         0.00000E+00        -0.48589E+08
 
   -0.45598E+08         0.13653E+06         0.00000E+00
    0.13653E+06        -0.58725E+08         0.00000E+00
    0.00000E+00         0.00000E+00        -0.48633E+08
 
   -0.46490E+08         0.15917E+06         0.00000E+00
    0.15917E+06        -0.58429E+08         0.00000E+00
    0.00000E+00         0.00000E+00        -0.48669E+08
 
   -0.47378E+08         0.18347E+06         0.00000E+00
    0.18347E+06        -0.58087E+08         0.00000E+00
    0.00000E+00         0.00000E+00        -0.48694E+08
 
   -0.48266E+08         0.20906E+06         0.00000E+00
    0.20906E+06        -0.57694E+08         0.00000E+00
    0.00000E+00         0.00000E+00        -0.48707E+08
 
   -0.34880E+08         0.17162E+05         0.00000E+00
    0.17162E+05        -0.59996E+08         0.00000E+00
    0.00000E+00         0.00000E+00        -0.48044E+08
 
   -0.35920E+08         0.45001E+05         0.00000E+00
    0.45001E+05        -0.59976E+08         0.00000E+00
    0.00000E+00         0.00000E+00        -0.48062E+08
 
   -0.36960E+08         0.67517E+05         0.00000E+00
    0.67517E+05        -0.59941E+08         0.00000E+00
    0.00000E+00         0.00000E+00        -0.48095E+08
 
   -0.37990E+08         0.88144E+05         0.00000E+00
    0.88144E+05        -0.59891E+08         0.00000E+00
    0.00000E+00         0.00000E+00        -0.48140E+08
 
   -0.39003E+08         0.10969E+06         0.00000E+00
    0.10969E+06        -0.59827E+08         0.00000E+00
    0.00000E+00         0.00000E+00        -0.48192E+08
 
   -0.39995E+08         0.13435E+06         0.00000E+00
    0.13435E+06        -0.59749E+08         0.00000E+00
    0.00000E+00         0.00000E+00        -0.48250E+08
 
   -0.40966E+08         0.16381E+06         0.00000E+00
    0.16381E+06        -0.59652E+08         0.00000E+00
    0.00000E+00         0.00000E+00        -0.48311E+08
 
   -0.41915E+08         0.19920E+06         0.00000E+00
    0.19920E+06        -0.59534E+08         0.00000E+00
    0.00000E+00         0.00000E+00        -0.48372E+08
 
   -0.42845E+08         0.24124E+06         0.00000E+00
    0.24124E+06        -0.59390E+08         0.00000E+00
    0.00000E+00         0.00000E+00        -0.48431E+08
 
   -0.43760E+08         0.29020E+06         0.00000E+00
    0.29020E+06        -0.59215E+08         0.00000E+00
    0.00000E+00         0.00000E+00        -0.48487E+08
 
   -0.44662E+08         0.34604E+06         0.00000E+00
    0.34604E+06        -0.59006E+08         0.00000E+00
    0.00000E+00         0.00000E+00        -0.48538E+08
 
   -0.45555E+08         0.40836E+06         0.00000E+00
    0.40836E+06        -0.58756E+08         0.00000E+00
    0.00000E+00         0.00000E+00        -0.48581E+08
 
   -0.46442E+08         0.47652E+06         0.00000E+00
    0.47652E+06        -0.58463E+08         0.00000E+00
    0.00000E+00         0.00000E+00        -0.48616E+08
 
   -0.47328E+08         0.54965E+06         0.00000E+00
    0.54965E+06        -0.58122E+08         0.00000E+00
    0.00000E+00         0.00000E+00        -0.48640E+08
 
   -0.48214E+08         0.62670E+06         0.00000E+00
    0.62670E+06        -0.57731E+08         0.00000E+00
    0.00000E+00         0.00000E+00        -0.48653E+08
 
   -0.34838E+08         0.27681E+05         0.00000E+00
    0.27681E+05        -0.59997E+08         0.00000E+00
    0.00000E+00         0.00000E+00        -0.47953E+08
 
   -0.35888E+08         0.72484E+05         0.00000E+00
    0.72484E+05        -0.59979E+08         0.00000E+00
    0.00000E+00         0.00000E+00        -0.47971E+08
 
   -0.36933E+08         0.10874E+06         0.00000E+00
    0.10874E+06        -0.59947E+08         0.00000E+00
    0.00000E+00         0.00000E+00        -0.48003E+08
 
   -0.37963E+08         0.14216E+06         0.00000E+00
    0.14216E+06        -0.59902E+08         0.00000E+00
    0.00000E+00         0.00000E+00        -0.48046E+08
 
   -0.38973E+08         0.17740E+06         0.00000E+00
    0.17740E+06        -0.59845E+08         0.00000E+00
    0.00000E+00         0.00000E+00        -0.48098E+08
 
   -0.39960E+08         0.21811E+06         0.00000E+00
    0.21811E+06        -0.59773E+08         0.00000E+00
    0.00000E+00         0.00000E+00        -0.48154E+08
 
   -0.40923E+08         0.26704E+06         0.00000E+00
    0.26704E+06        -0.59683E+08         0.00000E+00
    0.00000E+00         0.00000E+00        -0.48213E+08
 
   -0.41863E+08         0.32608E+06         0.00000E+00
    0.32608E+06        -0.59572E+08         0.00000E+00
    0.00000E+00         0.00000E+00        -0.48273E+08
 
   -0.42785E+08         0.39638E+06         0.00000E+00
    0.39638E+06        -0.59435E+08         0.00000E+00
    0.00000E+00         0.00000E+00        -0.48330E+08
 
   -0.43690E+08         0.47839E+06         0.00000E+00
    0.47839E+06        -0.59267E+08         0.00000E+00
    0.00000E+00         0.00000E+00        -0.48385E+08
 
   -0.44583E+08         0.57197E+06         0.00000E+00
    0.57197E+06        -0.59064E+08         0.00000E+00
    0.00000E+00         0.00000E+00        -0.48434E+08
 
   -0.45467E+08         0.67649E+06         0.00000E+00
    0.67649E+06        -0.58820E+08         0.00000E+00
    0.00000E+00         0.00000E+00        -0.48476E+08
 
   -0.46348E+08         0.79084E+06         0.00000E+00
    0.79084E+06        -0.58531E+08         0.00000E+00
    0.00000E+00         0.00000E+00        -0.48510E+08
 
   -0.47227E+08         0.91355E+06         0.00000E+00
    0.91355E+06        -0.58194E+08         0.00000E+00
    0.00000E+00         0.00000E+00        -0.48534E+08
 
   -0.48108E+08         0.10429E+07         0.00000E+00
    0.10429E+07        -0.57805E+08         0.00000E+00
    0.00000E+00         0.00000E+00        -0.48546E+08
 
   -0.34778E+08         0.36815E+05         0.00000E+00
    0.36815E+05        -0.59998E+08         0.00000E+00
    0.00000E+00         0.00000E+00        -0.47816E+08
 
   -0.35842E+08         0.96189E+05         0.00000E+00
    0.96189E+05        -0.59983E+08         0.00000E+00
    0.00000E+00         0.00000E+00        -0.47833E+08
 
   -0.36893E+08         0.14429E+06         0.00000E+00
    0.14429E+06        -0.59957E+08         0.00000E+00
    0.00000E+00         0.00000E+00        -0.47864E+08
 
   -0.37923E+08         0.18907E+06         0.00000E+00
    0.18907E+06        -0.59920E+08         0.00000E+00
    0.00000E+00         0.00000E+00        -0.47905E+08
 
   -0.38928E+08         0.23702E+06         0.00000E+00
    0.23702E+06        -0.59871E+08         0.00000E+00
    0.00000E+00         0.00000E+00        -0.47954E+08
 
   -0.39906E+08         0.29318E+06         0.00000E+00
    0.29318E+06        -0.59809E+08         0.00000E+00
    0.00000E+00         0.00000E+00        -0.48008E+08
 
   -0.40858E+08         0.36135E+06         0.00000E+00
    0.36135E+06        -0.59730E+08         0.00000E+00
    0.00000E+00         0.00000E+00        -0.48065E+08
 
   -0.41786E+08         0.44412E+06         0.00000E+00
    0.44412E+06        -0.59630E+08         0.00000E+00
    0.00000E+00         0.00000E+00        -0.48122E+08
 
   -0.42693E+08         0.54302E+06         0.00000E+00
    0.54302E+06        -0.59503E+08         0.00000E+00
    0.00000E+00         0.00000E+00        -0.48178E+08
 
   -0.43584E+08         0.65867E+06         0.00000E+00
    0.65867E+06        -0.59345E+08         0.00000E+00
    0.00000E+00         0.00000E+00        -0.48230E+08
 
   -0.44463E+08         0.79081E+06         0.00000E+00
    0.79081E+06        -0.59151E+08         0.00000E+00
    0.00000E+00         0.00000E+00        -0.48277E+08
 
   -0.45335E+08         0.93849E+06         0.00000E+00
    0.93849E+06        -0.58914E+08         0.00000E+00
    0.00000E+00         0.00000E+00        -0.48317E+08
 
   -0.46204E+08         0.11001E+07         0.00000E+00
    0.11001E+07        -0.58632E+08         0.00000E+00
    0.00000E+00         0.00000E+00        -0.48350E+08
 
   -0.47075E+08         0.12737E+07         0.00000E+00
    0.12737E+07        -0.58301E+08         0.00000E+00
    0.00000E+00         0.00000E+00        -0.48372E+08
 
   -0.47949E+08         0.14566E+07         0.00000E+00
    0.14566E+07        -0.57916E+08         0.00000E+00
    0.00000E+00         0.00000E+00        -0.48385E+08
 
   -0.34703E+08         0.44008E+05         0.00000E+00
    0.44008E+05        -0.59999E+08         0.00000E+00
    0.00000E+00         0.00000E+00        -0.47630E+08
 
   -0.35784E+08         0.11461E+06         0.00000E+00
    0.11461E+06        -0.59989E+08         0.00000E+00
    0.00000E+00         0.00000E+00        -0.47646E+08
 
   -0.36843E+08         0.17190E+06         0.00000E+00
    0.17190E+06        -0.59970E+08         0.00000E+00
    0.00000E+00         0.00000E+00        -0.47675E+08
 
   -0.37873E+08         0.22606E+06         0.00000E+00
    0.22606E+06        -0.59943E+08         0.00000E+00
    0.00000E+00         0.00000E+00        -0.47714E+08
 
   -0.38870E+08         0.28534E+06         0.00000E+00
    0.28534E+06        -0.59906E+08         0.00000E+00
    0.00000E+00         0.00000E+00        -0.47761E+08
 
   -0.39836E+08         0.35614E+06         0.00000E+00
    0.35614E+06        -0.59858E+08         0.00000E+00
    0.00000E+00         0.00000E+00        -0.47812E+08
 
   -0.40772E+08         0.44323E+06         0.00000E+00
    0.44323E+06        -0.59793E+08         0.00000E+00
    0.00000E+00         0.00000E+00        -0.47865E+08
 
   -0.41682E+08         0.54983E+06         0.00000E+00
    0.54983E+06        -0.59707E+08         0.00000E+00
    0.00000E+00         0.00000E+00        -0.47919E+08
 
   -0.42570E+08         0.67785E+06         0.00000E+00
    0.67785E+06        -0.59594E+08         0.00000E+00
    0.00000E+00         0.00000E+00        -0.47971E+08
 
   -0.43441E+08         0.82794E+06         0.00000E+00
    0.82794E+06        -0.59449E+08         0.00000E+00
    0.00000E+00         0.00000E+00        -0.48020E+08
 
   -0.44302E+08         0.99973E+06         0.00000E+00
    0.99973E+06        -0.59266E+08         0.00000E+00
    0.00000E+00         0.00000E+00        -0.48064E+08
 
   -0.45157E+08         0.11919E+07         0.00000E+00
    0.11919E+07        -0.59040E+08         0.00000E+00
    0.00000E+00         0.00000E+00        -0.48103E+08
 
   -0.46011E+08         0.14024E+07         0.00000E+00
    0.14024E+07        -0.58767E+08         0.00000E+00
    0.00000E+00         0.00000E+00        -0.48133E+08
 
   -0.46869E+08         0.16285E+07         0.00000E+00
    0.16285E+07        -0.58442E+08         0.00000E+00
    0.00000E+00         0.00000E+00        -0.48155E+08
 
   -0.47734E+08         0.18668E+07         0.00000E+00
    0.18668E+07        -0.58063E+08         0.00000E+00
    0.00000E+00         0.00000E+00        -0.48166E+08
 
   -0.34617E+08         0.48699E+05         0.00000E+00
    0.48699E+05        -0.60001E+08         0.00000E+00
    0.00000E+00         0.00000E+00        -0.47394E+08
 
   -0.35719E+08         0.12622E+06         0.00000E+00
    0.12622E+06        -0.59995E+08         0.00000E+00
    0.00000E+00         0.00000E+00        -0.47409E+08
 
   -0.36785E+08         0.18932E+06         0.00000E+00
    0.18932E+06        -0.59986E+08         0.00000E+00
    0.00000E+00         0.00000E+00        -0.47435E+08
 
   -0.37813E+08         0.25034E+06         0.00000E+00
    0.25034E+06        -0.59971E+08         0.00000E+00
    0.00000E+00         0.00000E+00        -0.47472E+08
 
   -0.38800E+08         0.31921E+06         0.00000E+00
    0.31921E+06        -0.59950E+08         0.00000E+00
    0.00000E+00         0.00000E+00        -0.47514E+08
 
   -0.39750E+08         0.40363E+06         0.00000E+00
    0.40363E+06        -0.59918E+08         0.00000E+00
    0.00000E+00         0.00000E+00        -0.47561E+08
 
   -0.40665E+08         0.50923E+06         0.00000E+00
    0.50923E+06        -0.59871E+08         0.00000E+00
    0.00000E+00         0.00000E+00        -0.47611E+08
 
   -0.41551E+08         0.63983E+06         0.00000E+00
    0.63983E+06        -0.59802E+08         0.00000E+00
    0.00000E+00         0.00000E+00        -0.47660E+08
 
   -0.42414E+08         0.79758E+06         0.00000E+00
    0.79758E+06        -0.59706E+08         0.00000E+00
    0.00000E+00         0.00000E+00        -0.47709E+08
 
   -0.43261E+08         0.98318E+06         0.00000E+00
    0.98318E+06        -0.59577E+08         0.00000E+00
    0.00000E+00         0.00000E+00        -0.47754E+08
 
   -0.44098E+08         0.11960E+07         0.00000E+00
    0.11960E+07        -0.59409E+08         0.00000E+00
    0.00000E+00         0.00000E+00        -0.47795E+08
 
   -0.44931E+08         0.14344E+07         0.00000E+00
    0.14344E+07        -0.59196E+08         0.00000E+00
    0.00000E+00         0.00000E+00        -0.47830E+08
 
   -0.45766E+08         0.16957E+07         0.00000E+00
    0.16957E+07        -0.58934E+08         0.00000E+00
    0.00000E+00         0.00000E+00        -0.47858E+08
 
   -0.46608E+08         0.19764E+07         0.00000E+00
    0.19764E+07        -0.58618E+08         0.00000E+00
    0.00000E+00         0.00000E+00        -0.47878E+08
 
   -0.47462E+08         0.22724E+07         0.00000E+00
    0.22724E+07        -0.58245E+08         0.00000E+00
    0.00000E+00         0.00000E+00        -0.47889E+08
 
   -0.34526E+08         0.50329E+05         0.00000E+00
    0.50329E+05        -0.60002E+08         0.00000E+00
    0.00000E+00         0.00000E+00        -0.47103E+08
 
   -0.35649E+08         0.12954E+06         0.00000E+00
    0.12954E+06        -0.60003E+08         0.00000E+00
    0.00000E+00         0.00000E+00        -0.47117E+08
 
   -0.36723E+08         0.19435E+06         0.00000E+00
    0.19435E+06        -0.60005E+08         0.00000E+00
    0.00000E+00         0.00000E+00        -0.47141E+08
 
   -0.37746E+08         0.25918E+06         0.00000E+00
    0.25918E+06        -0.60006E+08         0.00000E+00
    0.00000E+00         0.00000E+00        -0.47174E+08
 
   -0.38720E+08         0.33557E+06         0.00000E+00
    0.33557E+06        -0.60003E+08         0.00000E+00
    0.00000E+00         0.00000E+00        -0.47212E+08
 
   -0.39648E+08         0.43237E+06         0.00000E+00
    0.43237E+06        -0.59990E+08         0.00000E+00
    0.00000E+00         0.00000E+00        -0.47255E+08
 
   -0.40537E+08         0.55604E+06         0.00000E+00
    0.55604E+06        -0.59963E+08         0.00000E+00
    0.00000E+00         0.00000E+00        -0.47299E+08
 
   -0.41394E+08         0.71084E+06         0.00000E+00
    0.71084E+06        -0.59915E+08         0.00000E+00
    0.00000E+00         0.00000E+00        -0.47344E+08
 
   -0.42226E+08         0.89909E+06         0.00000E+00
    0.89909E+06        -0.59839E+08         0.00000E+00
    0.00000E+00         0.00000E+00        -0.47388E+08
 
   -0.43042E+08         0.11214E+07         0.00000E+00
    0.11214E+07        -0.59729E+08         0.00000E+00
    0.00000E+00         0.00000E+00        -0.47429E+08
 
   -0.43849E+08         0.13770E+07         0.00000E+00
    0.13770E+07        -0.59579E+08         0.00000E+00
    0.00000E+00         0.00000E+00        -0.47466E+08
 
   -0.44655E+08         0.16636E+07         0.00000E+00
    0.16636E+07        -0.59382E+08         0.00000E+00
    0.00000E+00         0.00000E+00        -0.47497E+08
 
   -0.45467E+08         0.19780E+07         0.00000E+00
    0.19780E+07        -0.59133E+08         0.00000E+00
    0.00000E+00         0.00000E+00        -0.47523E+08
 
   -0.46290E+08         0.23160E+07         0.00000E+00
    0.23160E+07        -0.58828E+08         0.00000E+00
    0.00000E+00         0.00000E+00        -0.47541E+08
 
   -0.47129E+08         0.26725E+07         0.00000E+00
    0.26725E+07        -0.58462E+08         0.00000E+00
    0.00000E+00         0.00000E+00        -0.47550E+08
 
   -0.34435E+08         0.48340E+05         0.00000E+00
    0.48340E+05        -0.60005E+08         0.00000E+00
    0.00000E+00         0.00000E+00        -0.46756E+08
 
   -0.35582E+08         0.12308E+06         0.00000E+00
    0.12308E+06        -0.60013E+08         0.00000E+00
    0.00000E+00         0.00000E+00        -0.46768E+08
 
   -0.36661E+08         0.18480E+06         0.00000E+00
    0.18480E+06        -0.60027E+08         0.00000E+00
    0.00000E+00         0.00000E+00        -0.46789E+08
 
   -0.37676E+08         0.24991E+06         0.00000E+00
    0.24991E+06        -0.60046E+08         0.00000E+00
    0.00000E+00         0.00000E+00        -0.46817E+08
 
   -0.38630E+08         0.33143E+06         0.00000E+00
    0.33143E+06        -0.60063E+08         0.00000E+00
    0.00000E+00         0.00000E+00        -0.46851E+08
 
   -0.39531E+08         0.43925E+06         0.00000E+00
    0.43925E+06        -0.60074E+08         0.00000E+00
    0.00000E+00         0.00000E+00        -0.46888E+08
 
   -0.40388E+08         0.58048E+06         0.00000E+00
    0.58048E+06        -0.60070E+08         0.00000E+00
    0.00000E+00         0.00000E+00        -0.46927E+08
 
   -0.41208E+08         0.75971E+06         0.00000E+00
    0.75971E+06        -0.60046E+08         0.00000E+00
    0.00000E+00         0.00000E+00        -0.46966E+08
 
   -0.42003E+08         0.97936E+06         0.00000E+00
    0.97936E+06        -0.59993E+08         0.00000E+00
    0.00000E+00         0.00000E+00        -0.47005E+08
 
   -0.42782E+08         0.12399E+07         0.00000E+00
    0.12399E+07        -0.59905E+08         0.00000E+00
    0.00000E+00         0.00000E+00        -0.47041E+08
 
   -0.43554E+08         0.15401E+07         0.00000E+00
    0.15401E+07        -0.59775E+08         0.00000E+00
    0.00000E+00         0.00000E+00        -0.47073E+08
 
   -0.44327E+08         0.18773E+07         0.00000E+00
    0.18773E+07        -0.59596E+08         0.00000E+00
    0.00000E+00         0.00000E+00        -0.47101E+08
 
   -0.45111E+08         0.22475E+07         0.00000E+00
    0.22475E+07        -0.59362E+08         0.00000E+00
    0.00000E+00         0.00000E+00        -0.47123E+08
 
   -0.45911E+08         0.26457E+07         0.00000E+00
    0.26457E+07        -0.59069E+08         0.00000E+00
    0.00000E+00         0.00000E+00        -0.47139E+08
 
   -0.46733E+08         0.30659E+07         0.00000E+00
    0.30659E+07        -0.58712E+08         0.00000E+00
    0.00000E+00         0.00000E+00        -0.47147E+08
 
   -0.34353E+08         0.42178E+05         0.00000E+00
    0.42178E+05        -0.60007E+08         0.00000E+00
    0.00000E+00         0.00000E+00        -0.46347E+08
 
   -0.35521E+08         0.10538E+06         0.00000E+00
    0.10538E+06        -0.60023E+08         0.00000E+00
    0.00000E+00         0.00000E+00        -0.46357E+08
 
   -0.36603E+08         0.15857E+06         0.00000E+00
    0.15857E+06        -0.60053E+08         0.00000E+00
    0.00000E+00         0.00000E+00        -0.46375E+08
 
   -0.37604E+08         0.21999E+06         0.00000E+00
    0.21999E+06        -0.60091E+08         0.00000E+00
    0.00000E+00         0.00000E+00        -0.46399E+08
 
   -0.38533E+08         0.30398E+06         0.00000E+00
    0.30398E+06        -0.60132E+08         0.00000E+00
    0.00000E+00         0.00000E+00        -0.46427E+08
 
   -0.39401E+08         0.42131E+06         0.00000E+00
    0.42131E+06        -0.60167E+08         0.00000E+00
    0.00000E+00         0.00000E+00        -0.46458E+08
 
   -0.40217E+08         0.57956E+06         0.00000E+00
    0.57956E+06        -0.60190E+08         0.00000E+00
    0.00000E+00         0.00000E+00        -0.46491E+08
 
   -0.40995E+08         0.78354E+06         0.00000E+00
    0.78354E+06        -0.60193E+08         0.00000E+00
    0.00000E+00         0.00000E+00        -0.46524E+08
 
   -0.41745E+08         0.10356E+07         0.00000E+00
    0.10356E+07        -0.60166E+08         0.00000E+00
    0.00000E+00         0.00000E+00        -0.46556E+08
 
   -0.42480E+08         0.13359E+07         0.00000E+00
    0.13359E+07        -0.60102E+08         0.00000E+00
    0.00000E+00         0.00000E+00        -0.46586E+08
 
   -0.43210E+08         0.16829E+07         0.00000E+00
    0.16829E+07        -0.59995E+08         0.00000E+00
    0.00000E+00         0.00000E+00        -0.46613E+08
 
   -0.43945E+08         0.20732E+07         0.00000E+00
    0.20732E+07        -0.59836E+08         0.00000E+00
    0.00000E+00         0.00000E+00        -0.46637E+08
 
   -0.44695E+08         0.25021E+07         0.00000E+00
    0.25021E+07        -0.59619E+08         0.00000E+00
    0.00000E+00         0.00000E+00        -0.46656E+08
 
   -0.45468E+08         0.29639E+07         0.00000E+00
    0.29639E+07        -0.59340E+08         0.00000E+00
    0.00000E+00         0.00000E+00        -0.46669E+08
 
   -0.46269E+08         0.34514E+07         0.00000E+00
    0.34514E+07        -0.58993E+08         0.00000E+00
    0.00000E+00         0.00000E+00        -0.46676E+08
 
   -0.34287E+08         0.31302E+05         0.00000E+00
    0.31302E+05        -0.60010E+08         0.00000E+00
    0.00000E+00         0.00000E+00        -0.45873E+08
 
   -0.35474E+08         0.75047E+05         0.00000E+00
    0.75047E+05        -0.60035E+08         0.00000E+00
    0.00000E+00         0.00000E+00        -0.45881E+08
 
   -0.36553E+08         0.11366E+06         0.00000E+00
    0.11366E+06        -0.60081E+08         0.00000E+00
    0.00000E+00         0.00000E+00        -0.45895E+08
 
   -0.37535E+08         0.16704E+06         0.00000E+00
    0.16704E+06        -0.60141E+08         0.00000E+00
    0.00000E+00         0.00000E+00        -0.45913E+08
 
   -0.38432E+08         0.25063E+06         0.00000E+00
    0.25063E+06        -0.60207E+08         0.00000E+00
    0.00000E+00         0.00000E+00        -0.45936E+08
 
   -0.39258E+08         0.37585E+06         0.00000E+00
    0.37585E+06        -0.60271E+08         0.00000E+00
    0.00000E+00         0.00000E+00        -0.45960E+08
 
   -0.40026E+08         0.55060E+06         0.00000E+00
    0.55060E+06        -0.60323E+08         0.00000E+00
    0.00000E+00         0.00000E+00        -0.45986E+08
 
   -0.40752E+08         0.77968E+06         0.00000E+00
    0.77968E+06        -0.60354E+08         0.00000E+00
    0.00000E+00         0.00000E+00        -0.46012E+08
 
   -0.41450E+08         0.10652E+07         0.00000E+00
    0.10652E+07        -0.60356E+08         0.00000E+00
    0.00000E+00         0.00000E+00        -0.46037E+08
 
   -0.42133E+08         0.14071E+07         0.00000E+00
    0.14071E+07        -0.60319E+08         0.00000E+00
    0.00000E+00         0.00000E+00        -0.46061E+08
 
   -0.42814E+08         0.18031E+07         0.00000E+00
    0.18031E+07        -0.60236E+08         0.00000E+00
    0.00000E+00         0.00000E+00        -0.46083E+08
 
   -0.43505E+08         0.22493E+07         0.00000E+00
    0.22493E+07        -0.60099E+08         0.00000E+00
    0.00000E+00         0.00000E+00        -0.46101E+08
 
   -0.44217E+08         0.27402E+07         0.00000E+00
    0.27402E+07        -0.59902E+08         0.00000E+00
    0.00000E+00         0.00000E+00        -0.46116E+08
 
   -0.44958E+08         0.32690E+07         0.00000E+00
    0.32690E+07        -0.59639E+08         0.00000E+00
    0.00000E+00         0.00000E+00        -0.46127E+08
 
   -0.45735E+08         0.38278E+07         0.00000E+00
    0.38278E+07        -0.59304E+08         0.00000E+00
    0.00000E+00         0.00000E+00        -0.46132E+08
 
   -0.34248E+08         0.15192E+05         0.00000E+00
    0.15192E+05        -0.60013E+08         0.00000E+00
    0.00000E+00         0.00000E+00        -0.45328E+08
 
   -0.35448E+08         0.30759E+05         0.00000E+00
    0.30759E+05        -0.60048E+08         0.00000E+00
    0.00000E+00         0.00000E+00        -0.45333E+08
 
   -0.36518E+08         0.48227E+05         0.00000E+00
    0.48227E+05        -0.60112E+08         0.00000E+00
    0.00000E+00         0.00000E+00        -0.45343E+08
 
   -0.37472E+08         0.88903E+05         0.00000E+00
    0.88903E+05        -0.60196E+08         0.00000E+00
    0.00000E+00         0.00000E+00        -0.45356E+08
 
   -0.38328E+08         0.16906E+06         0.00000E+00
    0.16906E+06        -0.60290E+08         0.00000E+00
    0.00000E+00         0.00000E+00        -0.45372E+08
 
   -0.39103E+08         0.30053E+06         0.00000E+00
    0.30053E+06        -0.60384E+08         0.00000E+00
    0.00000E+00         0.00000E+00        -0.45389E+08
 
   -0.39814E+08         0.49125E+06         0.00000E+00
    0.49125E+06        -0.60467E+08         0.00000E+00
    0.00000E+00         0.00000E+00        -0.45408E+08
 
   -0.40480E+08         0.74585E+06         0.00000E+00
    0.74585E+06        -0.60529E+08         0.00000E+00
    0.00000E+00         0.00000E+00        -0.45426E+08
 
   -0.41116E+08         0.10661E+07         0.00000E+00
    0.10661E+07        -0.60561E+08         0.00000E+00
    0.00000E+00         0.00000E+00        -0.45444E+08
 
   -0.41740E+08         0.14513E+07         0.00000E+00
    0.14513E+07        -0.60553E+08         0.00000E+00
    0.00000E+00         0.00000E+00        -0.45461E+08
 
   -0.42365E+08         0.18987E+07         0.00000E+00
    0.18987E+07        -0.60497E+08         0.00000E+00
    0.00000E+00         0.00000E+00        -0.45477E+08
 
   -0.43005E+08         0.24036E+07         0.00000E+00
    0.24036E+07        -0.60384E+08         0.00000E+00
    0.00000E+00         0.00000E+00        -0.45490E+08
 
   -0.43672E+08         0.29598E+07         0.00000E+00
    0.29598E+07        -0.60208E+08         0.00000E+00
    0.00000E+00         0.00000E+00        -0.45501E+08
 
   -0.44376E+08         0.35596E+07         0.00000E+00
    0.35596E+07        -0.59962E+08         0.00000E+00
    0.00000E+00         0.00000E+00        -0.45508E+08
 
   -0.45126E+08         0.41938E+07         0.00000E+00
    0.41938E+07        -0.59640E+08         0.00000E+00
    0.00000E+00         0.00000E+00        -0.45512E+08
 
   -0.34244E+08        -0.66432E+04         0.00000E+00
   -0.66432E+04        -0.60016E+08         0.00000E+00
    0.00000E+00         0.00000E+00        -0.44707E+08
 
   -0.35451E+08        -0.28695E+05         0.00000E+00
   -0.28695E+05        -0.60062E+08         0.00000E+00
    0.00000E+00         0.00000E+00        -0.44710E+08
 
   -0.36503E+08        -0.39374E+05         0.00000E+00
   -0.39374E+05        -0.60145E+08         0.00000E+00
    0.00000E+00         0.00000E+00        -0.44715E+08
 
   -0.37420E+08        -0.16288E+05         0.00000E+00
   -0.16288E+05        -0.60255E+08         0.00000E+00
    0.00000E+00         0.00000E+00        -0.44722E+08
 
   -0.38224E+08         0.57346E+05         0.00000E+00
    0.57346E+05        -0.60378E+08         0.00000E+00
    0.00000E+00         0.00000E+00        -0.44731E+08
 
   -0.38938E+08         0.19343E+06         0.00000E+00
    0.19343E+06        -0.60503E+08         0.00000E+00
    0.00000E+00         0.00000E+00        -0.44740E+08
 
   -0.39582E+08         0.39967E+06         0.00000E+00
    0.39967E+06        -0.60619E+08         0.00000E+00
    0.00000E+00         0.00000E+00        -0.44751E+08
 
   -0.40177E+08         0.68026E+06         0.00000E+00
    0.68026E+06        -0.60714E+08         0.00000E+00
    0.00000E+00         0.00000E+00        -0.44761E+08
 
   -0.40743E+08         0.10364E+07         0.00000E+00
    0.10364E+07        -0.60778E+08         0.00000E+00
    0.00000E+00         0.00000E+00        -0.44772E+08
 
   -0.41298E+08         0.14668E+07         0.00000E+00
    0.14668E+07        -0.60801E+08         0.00000E+00
    0.00000E+00         0.00000E+00        -0.44781E+08
 
   -0.41859E+08         0.19680E+07         0.00000E+00
    0.19680E+07        -0.60772E+08         0.00000E+00
    0.00000E+00         0.00000E+00        -0.44790E+08
 
   -0.42441E+08         0.25345E+07         0.00000E+00
    0.25345E+07        -0.60685E+08         0.00000E+00
    0.00000E+00         0.00000E+00        -0.44798E+08
 
   -0.43057E+08         0.31594E+07         0.00000E+00
    0.31594E+07        -0.60532E+08         0.00000E+00
    0.00000E+00         0.00000E+00        -0.44804E+08
 
   -0.43719E+08         0.38339E+07         0.00000E+00
    0.38339E+07        -0.60304E+08         0.00000E+00
    0.00000E+00         0.00000E+00        -0.44808E+08
 
   -0.44437E+08         0.45479E+07         0.00000E+00
    0.45479E+07        -0.59998E+08         0.00000E+00
    0.00000E+00         0.00000E+00        -0.44811E+08
 
   -0.34288E+08        -0.34649E+05         0.00000E+00
   -0.34649E+05        -0.60019E+08         0.00000E+00
    0.00000E+00         0.00000E+00        -0.44004E+08
 
   -0.35492E+08        -0.10437E+06         0.00000E+00
   -0.10437E+06        -0.60077E+08         0.00000E+00
    0.00000E+00         0.00000E+00        -0.44004E+08
 
   -0.36514E+08        -0.15050E+06         0.00000E+00
   -0.15050E+06        -0.60181E+08         0.00000E+00
    0.00000E+00         0.00000E+00        -0.44004E+08
 
   -0.37381E+08        -0.14998E+06         0.00000E+00
   -0.14998E+06        -0.60317E+08         0.00000E+00
    0.00000E+00         0.00000E+00        -0.44005E+08
 
   -0.38122E+08        -0.85925E+05         0.00000E+00
   -0.85925E+05        -0.60470E+08         0.00000E+00
    0.00000E+00         0.00000E+00        -0.44006E+08
 
   -0.38763E+08         0.53236E+05         0.00000E+00
    0.53236E+05        -0.60629E+08         0.00000E+00
    0.00000E+00         0.00000E+00        -0.44007E+08
 
   -0.39328E+08         0.27464E+06         0.00000E+00
    0.27464E+06        -0.60778E+08         0.00000E+00
    0.00000E+00         0.00000E+00        -0.44009E+08
 
   -0.39843E+08         0.58173E+06         0.00000E+00
    0.58173E+06        -0.60907E+08         0.00000E+00
    0.00000E+00         0.00000E+00        -0.44012E+08
 
   -0.40329E+08         0.97497E+06         0.00000E+00
    0.97497E+06        -0.61003E+08         0.00000E+00
    0.00000E+00         0.00000E+00        -0.44014E+08
 
   -0.40806E+08         0.14523E+07         0.00000E+00
    0.14523E+07        -0.61057E+08         0.00000E+00
    0.00000E+00         0.00000E+00        -0.44016E+08
 
   -0.41294E+08         0.20095E+07         0.00000E+00
    0.20095E+07        -0.61058E+08         0.00000E+00
    0.00000E+00         0.00000E+00        -0.44018E+08
 
   -0.41810E+08         0.26404E+07         0.00000E+00
    0.26404E+07        -0.60998E+08         0.00000E+00
    0.00000E+00         0.00000E+00        -0.44020E+08
 
   -0.42368E+08         0.33372E+07         0.00000E+00
    0.33372E+07        -0.60868E+08         0.00000E+00
    0.00000E+00         0.00000E+00        -0.44022E+08
 
   -0.42983E+08         0.40903E+07         0.00000E+00
    0.40903E+07        -0.60662E+08         0.00000E+00
    0.00000E+00         0.00000E+00        -0.44023E+08
 
   -0.43664E+08         0.48886E+07         0.00000E+00
    0.48886E+07        -0.60372E+08         0.00000E+00
    0.00000E+00         0.00000E+00        -0.44023E+08
 
   -0.34392E+08        -0.69210E+05         0.00000E+00
   -0.69210E+05        -0.60023E+08         0.00000E+00
    0.00000E+00         0.00000E+00        -0.43212E+08
 
   -0.35578E+08        -0.19711E+06         0.00000E+00
   -0.19711E+06        -0.60093E+08         0.00000E+00
    0.00000E+00         0.00000E+00        -0.43209E+08
 
   -0.36556E+08        -0.28615E+06         0.00000E+00
   -0.28615E+06        -0.60218E+08         0.00000E+00
    0.00000E+00         0.00000E+00        -0.43204E+08
 
   -0.37361E+08        -0.31310E+06         0.00000E+00
   -0.31310E+06        -0.60381E+08         0.00000E+00
    0.00000E+00         0.00000E+00        -0.43198E+08
 
   -0.38024E+08        -0.26151E+06         0.00000E+00
   -0.26151E+06        -0.60565E+08         0.00000E+00
    0.00000E+00         0.00000E+00        -0.43192E+08
 
   -0.38579E+08        -0.12062E+06         0.00000E+00
   -0.12062E+06        -0.60757E+08         0.00000E+00
    0.00000E+00         0.00000E+00        -0.43185E+08
 
   -0.39054E+08         0.11570E+06         0.00000E+00
    0.11570E+06        -0.60940E+08         0.00000E+00
    0.00000E+00         0.00000E+00        -0.43178E+08
 
   -0.39476E+08         0.44985E+06         0.00000E+00
    0.44985E+06        -0.61102E+08         0.00000E+00
    0.00000E+00         0.00000E+00        -0.43172E+08
 
   -0.39871E+08         0.88129E+06         0.00000E+00
    0.88129E+06        -0.61231E+08         0.00000E+00
    0.00000E+00         0.00000E+00        -0.43166E+08
 
   -0.40262E+08         0.14071E+07         0.00000E+00
    0.14071E+07        -0.61316E+08         0.00000E+00
    0.00000E+00         0.00000E+00        -0.43161E+08
 
   -0.40668E+08         0.20222E+07         0.00000E+00
    0.20222E+07        -0.61347E+08         0.00000E+00
    0.00000E+00         0.00000E+00        -0.43156E+08
 
   -0.41109E+08         0.27200E+07         0.00000E+00
    0.27200E+07        -0.61315E+08         0.00000E+00
    0.00000E+00         0.00000E+00        -0.43152E+08
 
   -0.41603E+08         0.34917E+07         0.00000E+00
    0.34917E+07        -0.61211E+08         0.00000E+00
    0.00000E+00         0.00000E+00        -0.43148E+08
 
   -0.42163E+08         0.43271E+07         0.00000E+00
    0.43271E+07        -0.61027E+08         0.00000E+00
    0.00000E+00         0.00000E+00        -0.43146E+08
 
   -0.42803E+08         0.52139E+07         0.00000E+00
    0.52139E+07        -0.60755E+08         0.00000E+00
    0.00000E+00         0.00000E+00        -0.43144E+08
 
   -0.34568E+08        -0.11063E+06         0.00000E+00
   -0.11063E+06        -0.60027E+08         0.00000E+00
    0.00000E+00         0.00000E+00        -0.42325E+08
 
   -0.35720E+08        -0.30749E+06         0.00000E+00
   -0.30749E+06        -0.60109E+08         0.00000E+00
    0.00000E+00         0.00000E+00        -0.42319E+08
 
   -0.36638E+08        -0.44683E+06         0.00000E+00
   -0.44683E+06        -0.60255E+08         0.00000E+00
    0.00000E+00         0.00000E+00        -0.42309E+08
 
   -0.37362E+08        -0.50589E+06         0.00000E+00
   -0.50589E+06        -0.60445E+08         0.00000E+00
    0.00000E+00         0.00000E+00        -0.42296E+08
 
   -0.37933E+08        -0.46931E+06         0.00000E+00
   -0.46931E+06        -0.60661E+08         0.00000E+00
    0.00000E+00         0.00000E+00        -0.42282E+08
 
   -0.38387E+08        -0.32774E+06         0.00000E+00
   -0.32774E+06        -0.60884E+08         0.00000E+00
    0.00000E+00         0.00000E+00        -0.42266E+08
 
   -0.38758E+08        -0.76562E+05         0.00000E+00
   -0.76562E+05        -0.61100E+08         0.00000E+00
    0.00000E+00         0.00000E+00        -0.42251E+08
 
   -0.39076E+08         0.28519E+06         0.00000E+00
    0.28519E+06        -0.61295E+08         0.00000E+00
    0.00000E+00         0.00000E+00        -0.42236E+08
 
   -0.39370E+08         0.75574E+06         0.00000E+00
    0.75574E+06        -0.61455E+08         0.00000E+00
    0.00000E+00         0.00000E+00        -0.42222E+08
 
   -0.39663E+08         0.13312E+07         0.00000E+00
    0.13312E+07        -0.61571E+08         0.00000E+00
    0.00000E+00         0.00000E+00        -0.42209E+08
 
   -0.39978E+08         0.20058E+07         0.00000E+00
    0.20058E+07        -0.61632E+08         0.00000E+00
    0.00000E+00         0.00000E+00        -0.42197E+08
 
   -0.40337E+08         0.27722E+07         0.00000E+00
    0.27722E+07        -0.61629E+08         0.00000E+00
    0.00000E+00         0.00000E+00        -0.42187E+08
 
   -0.40757E+08         0.36213E+07         0.00000E+00
    0.36213E+07        -0.61551E+08         0.00000E+00
    0.00000E+00         0.00000E+00        -0.42178E+08
 
   -0.41255E+08         0.45422E+07         0.00000E+00
    0.45422E+07        -0.61391E+08         0.00000E+00
    0.00000E+00         0.00000E+00        -0.42172E+08
 
   -0.41847E+08         0.55218E+07         0.00000E+00
    0.55218E+07        -0.61140E+08         0.00000E+00
    0.00000E+00         0.00000E+00        -0.42169E+08
 
   -0.34828E+08        -0.15910E+06         0.00000E+00
   -0.15910E+06        -0.60031E+08         0.00000E+00
    0.00000E+00         0.00000E+00        -0.41336E+08
 
   -0.35926E+08        -0.43575E+06         0.00000E+00
   -0.43575E+06        -0.60125E+08         0.00000E+00
    0.00000E+00         0.00000E+00        -0.41327E+08
 
   -0.36762E+08        -0.63245E+06         0.00000E+00
   -0.63245E+06        -0.60293E+08         0.00000E+00
    0.00000E+00         0.00000E+00        -0.41312E+08
 
   -0.37388E+08        -0.72775E+06         0.00000E+00
   -0.72775E+06        -0.60509E+08         0.00000E+00
    0.00000E+00         0.00000E+00        -0.41292E+08
 
   -0.37849E+08        -0.70817E+06         0.00000E+00
   -0.70817E+06        -0.60754E+08         0.00000E+00
    0.00000E+00         0.00000E+00        -0.41270E+08
 
   -0.38187E+08        -0.56653E+06         0.00000E+00
   -0.56653E+06        -0.61008E+08         0.00000E+00
    0.00000E+00         0.00000E+00        -0.41246E+08
 
   -0.38440E+08        -0.30033E+06         0.00000E+00
   -0.30033E+06        -0.61254E+08         0.00000E+00
    0.00000E+00         0.00000E+00        -0.41222E+08
 
   -0.38643E+08         0.89524E+05         0.00000E+00
    0.89524E+05        -0.61478E+08         0.00000E+00
    0.00000E+00         0.00000E+00        -0.41198E+08
 
   -0.38824E+08         0.59977E+06         0.00000E+00
    0.59977E+06        -0.61668E+08         0.00000E+00
    0.00000E+00         0.00000E+00        -0.41175E+08
 
   -0.39009E+08         0.12254E+07         0.00000E+00
    0.12254E+07        -0.61813E+08         0.00000E+00
    0.00000E+00         0.00000E+00        -0.41155E+08
 
   -0.39224E+08         0.19602E+07         0.00000E+00
    0.19602E+07        -0.61903E+08         0.00000E+00
    0.00000E+00         0.00000E+00        -0.41136E+08
 
   -0.39491E+08         0.27964E+07         0.00000E+00
    0.27964E+07        -0.61928E+08         0.00000E+00
    0.00000E+00         0.00000E+00        -0.41120E+08
 
   -0.39828E+08         0.37246E+07         0.00000E+00
    0.37246E+07        -0.61878E+08         0.00000E+00
    0.00000E+00         0.00000E+00        -0.41107E+08
 
   -0.40257E+08         0.47336E+07         0.00000E+00
    0.47336E+07        -0.61744E+08         0.00000E+00
    0.00000E+00         0.00000E+00        -0.41097E+08
 
   -0.40794E+08         0.58096E+07         0.00000E+00
    0.58096E+07        -0.61517E+08         0.00000E+00
    0.00000E+00         0.00000E+00        -0.41092E+08
 
   -0.35186E+08        -0.21469E+06         0.00000E+00
   -0.21469E+06        -0.60034E+08         0.00000E+00
    0.00000E+00         0.00000E+00        -0.40237E+08
 
   -0.36204E+08        -0.58167E+06         0.00000E+00
   -0.58167E+06        -0.60141E+08         0.00000E+00
    0.00000E+00         0.00000E+00        -0.40226E+08
 
   -0.36936E+08        -0.84215E+06         0.00000E+00
   -0.84215E+06        -0.60329E+08         0.00000E+00
    0.00000E+00         0.00000E+00        -0.40205E+08
 
   -0.37441E+08        -0.97698E+06         0.00000E+00
   -0.97698E+06        -0.60571E+08         0.00000E+00
    0.00000E+00         0.00000E+00        -0.40179E+08
 
   -0.37773E+08        -0.97559E+06         0.00000E+00
   -0.97559E+06        -0.60842E+08         0.00000E+00
    0.00000E+00         0.00000E+00        -0.40148E+08
 
   -0.37979E+08        -0.83387E+06         0.00000E+00
   -0.83387E+06        -0.61122E+08         0.00000E+00
    0.00000E+00         0.00000E+00        -0.40116E+08
 
   -0.38101E+08        -0.55220E+06         0.00000E+00
   -0.55220E+06        -0.61394E+08         0.00000E+00
    0.00000E+00         0.00000E+00        -0.40084E+08
 
   -0.38175E+08        -0.13387E+06         0.00000E+00
   -0.13387E+06        -0.61643E+08         0.00000E+00
    0.00000E+00         0.00000E+00        -0.40052E+08
 
   -0.38232E+08         0.41613E+06         0.00000E+00
    0.41613E+06        -0.61859E+08         0.00000E+00
    0.00000E+00         0.00000E+00        -0.40022E+08
 
   -0.38301E+08         0.10918E+07         0.00000E+00
    0.10918E+07        -0.62030E+08         0.00000E+00
    0.00000E+00         0.00000E+00        -0.39994E+08
 
   -0.38406E+08         0.18863E+07         0.00000E+00
    0.18863E+07        -0.62147E+08         0.00000E+00
    0.00000E+00         0.00000E+00        -0.39968E+08
 
   -0.38570E+08         0.27921E+07         0.00000E+00
    0.27921E+07        -0.62200E+08         0.00000E+00
    0.00000E+00         0.00000E+00        -0.39947E+08
 
   -0.38816E+08         0.37999E+07         0.00000E+00
    0.37999E+07        -0.62179E+08         0.00000E+00
    0.00000E+00         0.00000E+00        -0.39929E+08
 
   -0.39165E+08         0.48986E+07         0.00000E+00
    0.48986E+07        -0.62074E+08         0.00000E+00
    0.00000E+00         0.00000E+00        -0.39916E+08
 
   -0.39638E+08         0.60742E+07         0.00000E+00
    0.60742E+07        -0.61872E+08         0.00000E+00
    0.00000E+00         0.00000E+00        -0.39909E+08
 
   -0.35654E+08        -0.27730E+06         0.00000E+00
   -0.27730E+06        -0.60038E+08         0.00000E+00
    0.00000E+00         0.00000E+00        -0.39023E+08
 
   -0.36563E+08        -0.74451E+06         0.00000E+00
   -0.74451E+06        -0.60157E+08         0.00000E+00
    0.00000E+00         0.00000E+00        -0.39008E+08
 
   -0.37163E+08        -0.10741E+07         0.00000E+00
   -0.10741E+07        -0.60363E+08         0.00000E+00
    0.00000E+00         0.00000E+00        -0.38982E+08
 
   -0.37524E+08        -0.12505E+07         0.00000E+00
   -0.12505E+07        -0.60626E+08         0.00000E+00
    0.00000E+00         0.00000E+00        -0.38949E+08
 
   -0.37706E+08        -0.12674E+07         0.00000E+00
   -0.12674E+07        -0.60919E+08         0.00000E+00
    0.00000E+00         0.00000E+00        -0.38912E+08
 
   -0.37762E+08        -0.11248E+07         0.00000E+00
   -0.11248E+07        -0.61220E+08         0.00000E+00
    0.00000E+00         0.00000E+00        -0.38872E+08
 
   -0.37739E+08        -0.82686E+06         0.00000E+00
   -0.82686E+06        -0.61511E+08         0.00000E+00
    0.00000E+00         0.00000E+00        -0.38831E+08
 
   -0.37673E+08        -0.37990E+06         0.00000E+00
   -0.37990E+06        -0.61780E+08         0.00000E+00
    0.00000E+00         0.00000E+00        -0.38792E+08
 
   -0.37597E+08         0.20914E+06         0.00000E+00
    0.20914E+06        -0.62016E+08         0.00000E+00
    0.00000E+00         0.00000E+00        -0.38754E+08
 
   -0.37538E+08         0.93330E+06         0.00000E+00
    0.93330E+06        -0.62209E+08         0.00000E+00
    0.00000E+00         0.00000E+00        -0.38720E+08
 
   -0.37523E+08         0.17857E+07         0.00000E+00
    0.17857E+07        -0.62350E+08         0.00000E+00
    0.00000E+00         0.00000E+00        -0.38688E+08
 
   -0.37575E+08         0.27592E+07         0.00000E+00
    0.27592E+07        -0.62430E+08         0.00000E+00
    0.00000E+00         0.00000E+00        -0.38661E+08
 
   -0.37719E+08         0.38454E+07         0.00000E+00
    0.38454E+07        -0.62439E+08         0.00000E+00
    0.00000E+00         0.00000E+00        -0.38639E+08
 
   -0.37978E+08         0.50342E+07         0.00000E+00
    0.50342E+07        -0.62364E+08         0.00000E+00
    0.00000E+00         0.00000E+00        -0.38624E+08
 
   -0.38376E+08         0.63116E+07         0.00000E+00
    0.63116E+07        -0.62194E+08         0.00000E+00
    0.00000E+00         0.00000E+00        -0.38615E+08
 
   -0.36245E+08        -0.34666E+06         0.00000E+00
   -0.34666E+06        -0.60042E+08         0.00000E+00
    0.00000E+00         0.00000E+00        -0.37684E+08
 
   -0.37010E+08        -0.92288E+06         0.00000E+00
   -0.92288E+06        -0.60171E+08         0.00000E+00
    0.00000E+00         0.00000E+00        -0.37667E+08
 
   -0.37446E+08        -0.13253E+07         0.00000E+00
   -0.13253E+07        -0.60393E+08         0.00000E+00
    0.00000E+00         0.00000E+00        -0.37636E+08
 
   -0.37635E+08        -0.15436E+07         0.00000E+00
   -0.15436E+07        -0.60673E+08         0.00000E+00
    0.00000E+00         0.00000E+00        -0.37597E+08
 
   -0.37646E+08        -0.15772E+07         0.00000E+00
   -0.15772E+07        -0.60981E+08         0.00000E+00
    0.00000E+00         0.00000E+00        -0.37553E+08
 
   -0.37536E+08        -0.14319E+07         0.00000E+00
   -0.14319E+07        -0.61294E+08         0.00000E+00
    0.00000E+00         0.00000E+00        -0.37506E+08
 
   -0.37354E+08        -0.11166E+07         0.00000E+00
   -0.11166E+07        -0.61597E+08         0.00000E+00
    0.00000E+00         0.00000E+00        -0.37459E+08
 
   -0.37138E+08        -0.64129E+06         0.00000E+00
   -0.64129E+06        -0.61876E+08         0.00000E+00
    0.00000E+00         0.00000E+00        -0.37412E+08
 
   -0.36919E+08        -0.15023E+05         0.00000E+00
   -0.15023E+05        -0.62124E+08         0.00000E+00
    0.00000E+00         0.00000E+00        -0.37368E+08
 
   -0.36724E+08         0.75443E+06         0.00000E+00
    0.75443E+06        -0.62332E+08         0.00000E+00
    0.00000E+00         0.00000E+00        -0.37328E+08
 
   -0.36580E+08         0.16606E+07         0.00000E+00
    0.16606E+07        -0.62494E+08         0.00000E+00
    0.00000E+00         0.00000E+00        -0.37291E+08
 
   -0.36510E+08         0.26977E+07         0.00000E+00
    0.26977E+07        -0.62600E+08         0.00000E+00
    0.00000E+00         0.00000E+00        -0.37260E+08
 
   -0.36539E+08         0.38592E+07         0.00000E+00
    0.38592E+07        -0.62639E+08         0.00000E+00
    0.00000E+00         0.00000E+00        -0.37234E+08
 
   -0.36695E+08         0.51363E+07         0.00000E+00
    0.51363E+07        -0.62599E+08         0.00000E+00
    0.00000E+00         0.00000E+00        -0.37215E+08
 
   -0.37006E+08         0.65167E+07         0.00000E+00
    0.65167E+07        -0.62464E+08         0.00000E+00
    0.00000E+00         0.00000E+00        -0.37205E+08
 
   -0.36970E+08        -0.42226E+06         0.00000E+00
   -0.42226E+06        -0.60045E+08         0.00000E+00
    0.00000E+00         0.00000E+00        -0.36215E+08
 
   -0.37548E+08        -0.11146E+07         0.00000E+00
   -0.11146E+07        -0.60183E+08         0.00000E+00
    0.00000E+00         0.00000E+00        -0.36195E+08
 
   -0.37785E+08        -0.15913E+07         0.00000E+00
   -0.15913E+07        -0.60417E+08         0.00000E+00
    0.00000E+00         0.00000E+00        -0.36161E+08
 
   -0.37773E+08        -0.18493E+07         0.00000E+00
   -0.18493E+07        -0.60707E+08         0.00000E+00
    0.00000E+00         0.00000E+00        -0.36116E+08
 
   -0.37590E+08        -0.18962E+07         0.00000E+00
   -0.18962E+07        -0.61021E+08         0.00000E+00
    0.00000E+00         0.00000E+00        -0.36066E+08
 
   -0.37298E+08        -0.17450E+07         0.00000E+00
   -0.17450E+07        -0.61336E+08         0.00000E+00
    0.00000E+00         0.00000E+00        -0.36013E+08
 
   -0.36946E+08        -0.14110E+07         0.00000E+00
   -0.14110E+07        -0.61637E+08         0.00000E+00
    0.00000E+00         0.00000E+00        -0.35960E+08
 
   -0.36570E+08        -0.90818E+06         0.00000E+00
   -0.90818E+06        -0.61915E+08         0.00000E+00
    0.00000E+00         0.00000E+00        -0.35908E+08
 
   -0.36202E+08        -0.24807E+06         0.00000E+00
   -0.24807E+06        -0.62165E+08         0.00000E+00
    0.00000E+00         0.00000E+00        -0.35859E+08
 
   -0.35864E+08         0.56117E+06         0.00000E+00
    0.56117E+06        -0.62380E+08         0.00000E+00
    0.00000E+00         0.00000E+00        -0.35814E+08
 
   -0.35582E+08         0.15143E+07         0.00000E+00
    0.15143E+07        -0.62557E+08         0.00000E+00
    0.00000E+00         0.00000E+00        -0.35773E+08
 
   -0.35378E+08         0.26079E+07         0.00000E+00
    0.26079E+07        -0.62687E+08         0.00000E+00
    0.00000E+00         0.00000E+00        -0.35737E+08
 
   -0.35280E+08         0.38384E+07         0.00000E+00
    0.38384E+07        -0.62758E+08         0.00000E+00
    0.00000E+00         0.00000E+00        -0.35709E+08
 
   -0.35318E+08         0.52001E+07         0.00000E+00
    0.52001E+07        -0.62757E+08         0.00000E+00
    0.00000E+00         0.00000E+00        -0.35688E+08
 
   -0.35524E+08         0.66827E+07         0.00000E+00
    0.66827E+07        -0.62664E+08         0.00000E+00
    0.00000E+00         0.00000E+00        -0.35677E+08
 
   -0.37838E+08        -0.50332E+06         0.00000E+00
   -0.50332E+06        -0.60048E+08         0.00000E+00
    0.00000E+00         0.00000E+00        -0.34610E+08
 
   -0.38182E+08        -0.13163E+07         0.00000E+00
   -0.13163E+07        -0.60192E+08         0.00000E+00
    0.00000E+00         0.00000E+00        -0.34587E+08
 
   -0.38178E+08        -0.18656E+07         0.00000E+00
   -0.18656E+07        -0.60432E+08         0.00000E+00
    0.00000E+00         0.00000E+00        -0.34549E+08
 
   -0.37934E+08        -0.21581E+07         0.00000E+00
   -0.21581E+07        -0.60723E+08         0.00000E+00
    0.00000E+00         0.00000E+00        -0.34501E+08
 
   -0.37535E+08        -0.22121E+07         0.00000E+00
   -0.22121E+07        -0.61030E+08         0.00000E+00
    0.00000E+00         0.00000E+00        -0.34446E+08
 
   -0.37046E+08        -0.20505E+07         0.00000E+00
   -0.20505E+07        -0.61332E+08         0.00000E+00
    0.00000E+00         0.00000E+00        -0.34389E+08
 
   -0.36514E+08        -0.16960E+07         0.00000E+00
   -0.16960E+07        -0.61616E+08         0.00000E+00
    0.00000E+00         0.00000E+00        -0.34331E+08
 
   -0.35974E+08        -0.11677E+07         0.00000E+00
   -0.11677E+07        -0.61878E+08         0.00000E+00
    0.00000E+00         0.00000E+00        -0.34275E+08
 
   -0.35451E+08        -0.47934E+06         0.00000E+00
   -0.47934E+06        -0.62116E+08         0.00000E+00
    0.00000E+00         0.00000E+00        -0.34222E+08
 
   -0.34966E+08         0.36117E+06         0.00000E+00
    0.36117E+06        -0.62329E+08         0.00000E+00
    0.00000E+00         0.00000E+00        -0.34173E+08
 
   -0.34538E+08         0.13508E+07         0.00000E+00
    0.13508E+07        -0.62514E+08         0.00000E+00
    0.00000E+00         0.00000E+00        -0.34129E+08
 
   -0.34190E+08         0.24898E+07         0.00000E+00
    0.24898E+07        -0.62665E+08         0.00000E+00
    0.00000E+00         0.00000E+00        -0.34091E+08
 
   -0.33949E+08         0.37794E+07         0.00000E+00
    0.37794E+07        -0.62771E+08         0.00000E+00
    0.00000E+00         0.00000E+00        -0.34060E+08
 
   -0.33850E+08         0.52185E+07         0.00000E+00
    0.52185E+07        -0.62815E+08         0.00000E+00
    0.00000E+00         0.00000E+00        -0.34038E+08
 
   -0.33931E+08         0.68007E+07         0.00000E+00
    0.68007E+07        -0.62773E+08         0.00000E+00
    0.00000E+00         0.00000E+00        -0.34025E+08
 
   -0.38858E+08        -0.58881E+06         0.00000E+00
   -0.58881E+06        -0.60050E+08         0.00000E+00
    0.00000E+00         0.00000E+00        -0.32861E+08
 
   -0.38909E+08        -0.15238E+07         0.00000E+00
   -0.15238E+07        -0.60197E+08         0.00000E+00
    0.00000E+00         0.00000E+00        -0.32837E+08
 
   -0.38619E+08        -0.21394E+07         0.00000E+00
   -0.21394E+07        -0.60436E+08         0.00000E+00
    0.00000E+00         0.00000E+00        -0.32797E+08
 
   -0.38110E+08        -0.24568E+07         0.00000E+00
   -0.24568E+07        -0.60714E+08         0.00000E+00
    0.00000E+00         0.00000E+00        -0.32745E+08
 
   -0.37473E+08        -0.25087E+07         0.00000E+00
   -0.25087E+07        -0.60997E+08         0.00000E+00
    0.00000E+00         0.00000E+00        -0.32688E+08
 
   -0.36775E+08        -0.23305E+07         0.00000E+00
   -0.23305E+07        -0.61266E+08         0.00000E+00
    0.00000E+00         0.00000E+00        -0.32628E+08
 
   -0.36059E+08        -0.19540E+07         0.00000E+00
   -0.19540E+07        -0.61514E+08         0.00000E+00
    0.00000E+00         0.00000E+00        -0.32568E+08
 
   -0.35354E+08        -0.14039E+07         0.00000E+00
   -0.14039E+07        -0.61741E+08         0.00000E+00
    0.00000E+00         0.00000E+00        -0.32509E+08
 
   -0.34677E+08        -0.69567E+06         0.00000E+00
   -0.69567E+06        -0.61951E+08         0.00000E+00
    0.00000E+00         0.00000E+00        -0.32454E+08
 
   -0.34041E+08         0.16370E+06         0.00000E+00
    0.16370E+06        -0.62149E+08         0.00000E+00
    0.00000E+00         0.00000E+00        -0.32403E+08
 
   -0.33461E+08         0.11748E+07         0.00000E+00
    0.11748E+07        -0.62335E+08         0.00000E+00
    0.00000E+00         0.00000E+00        -0.32358E+08
 
   -0.32957E+08         0.23433E+07         0.00000E+00
    0.23433E+07        -0.62506E+08         0.00000E+00
    0.00000E+00         0.00000E+00        -0.32318E+08
 
   -0.32557E+08         0.36773E+07         0.00000E+00
    0.36773E+07        -0.62649E+08         0.00000E+00
    0.00000E+00         0.00000E+00        -0.32286E+08
 
   -0.32298E+08         0.51827E+07         0.00000E+00
    0.51827E+07        -0.62746E+08         0.00000E+00
    0.00000E+00         0.00000E+00        -0.32262E+08
 
   -0.32228E+08         0.68590E+07         0.00000E+00
    0.68590E+07        -0.62768E+08         0.00000E+00
    0.00000E+00         0.00000E+00        -0.32249E+08
 
   -0.40033E+08        -0.67730E+06         0.00000E+00
   -0.67730E+06        -0.60051E+08         0.00000E+00
    0.00000E+00         0.00000E+00        -0.30965E+08
 
   -0.39725E+08        -0.17307E+07         0.00000E+00
   -0.17307E+07        -0.60197E+08         0.00000E+00
    0.00000E+00         0.00000E+00        -0.30941E+08
 
   -0.39097E+08        -0.24005E+07         0.00000E+00
   -0.24005E+07        -0.60424E+08         0.00000E+00
    0.00000E+00         0.00000E+00        -0.30899E+08
 
   -0.38287E+08        -0.27277E+07         0.00000E+00
   -0.27277E+07        -0.60672E+08         0.00000E+00
    0.00000E+00         0.00000E+00        -0.30846E+08
 
   -0.37395E+08        -0.27645E+07         0.00000E+00
   -0.27645E+07        -0.60909E+08         0.00000E+00
    0.00000E+00         0.00000E+00        -0.30788E+08
 
   -0.36482E+08        -0.25621E+07         0.00000E+00
   -0.25621E+07        -0.61120E+08         0.00000E+00
    0.00000E+00         0.00000E+00        -0.30727E+08
 
   -0.35584E+08        -0.21631E+07         0.00000E+00
   -0.21631E+07        -0.61306E+08         0.00000E+00
    0.00000E+00         0.00000E+00        -0.30667E+08
 
   -0.34718E+08        -0.15973E+07         0.00000E+00
   -0.15973E+07        -0.61475E+08         0.00000E+00
    0.00000E+00         0.00000E+00        -0.30608E+08
 
   -0.33890E+08        -0.88151E+06         0.00000E+00
   -0.88151E+06        -0.61639E+08         0.00000E+00
    0.00000E+00         0.00000E+00        -0.30553E+08
 
   -0.33106E+08        -0.20399E+05         0.00000E+00
   -0.20399E+05        -0.61808E+08         0.00000E+00
    0.00000E+00         0.00000E+00        -0.30502E+08
 
   -0.32371E+08         0.99156E+06         0.00000E+00
    0.99156E+06        -0.61987E+08         0.00000E+00
    0.00000E+00         0.00000E+00        -0.30456E+08
 
   -0.31700E+08         0.21677E+07         0.00000E+00
    0.21677E+07        -0.62174E+08         0.00000E+00
    0.00000E+00         0.00000E+00        -0.30416E+08
 
   -0.31120E+08         0.35252E+07         0.00000E+00
    0.35252E+07        -0.62360E+08         0.00000E+00
    0.00000E+00         0.00000E+00        -0.30384E+08
 
   -0.30673E+08         0.50805E+07         0.00000E+00
    0.50805E+07        -0.62521E+08         0.00000E+00
    0.00000E+00         0.00000E+00        -0.30360E+08
 
   -0.30417E+08         0.68420E+07         0.00000E+00
    0.68420E+07        -0.62622E+08         0.00000E+00
    0.00000E+00         0.00000E+00        -0.30347E+08
 
   -0.41364E+08        -0.76696E+06         0.00000E+00
   -0.76696E+06        -0.60051E+08         0.00000E+00
    0.00000E+00         0.00000E+00        -0.28919E+08
 
   -0.40617E+08        -0.19285E+07         0.00000E+00
   -0.19285E+07        -0.60190E+08         0.00000E+00
    0.00000E+00         0.00000E+00        -0.28894E+08
 
   -0.39593E+08        -0.26318E+07         0.00000E+00
   -0.26318E+07        -0.60388E+08         0.00000E+00
    0.00000E+00         0.00000E+00        -0.28853E+08
 
   -0.38450E+08        -0.29465E+07         0.00000E+00
   -0.29465E+07        -0.60583E+08         0.00000E+00
    0.00000E+00         0.00000E+00        -0.28801E+08
 
   -0.37289E+08        -0.29514E+07         0.00000E+00
   -0.29514E+07        -0.60743E+08         0.00000E+00
    0.00000E+00         0.00000E+00        -0.28744E+08
 
   -0.36163E+08        -0.27173E+07         0.00000E+00
   -0.27173E+07        -0.60865E+08         0.00000E+00
    0.00000E+00         0.00000E+00        -0.28686E+08
 
   -0.35092E+08        -0.22974E+07         0.00000E+00
   -0.22974E+07        -0.60960E+08         0.00000E+00
    0.00000E+00         0.00000E+00        -0.28627E+08
 
   -0.34077E+08        -0.17260E+07         0.00000E+00
   -0.17260E+07        -0.61047E+08         0.00000E+00
    0.00000E+00         0.00000E+00        -0.28571E+08
 
   -0.33110E+08        -0.10195E+07         0.00000E+00
   -0.10195E+07        -0.61144E+08         0.00000E+00
    0.00000E+00         0.00000E+00        -0.28518E+08
 
   -0.32183E+08        -0.17914E+06         0.00000E+00
   -0.17914E+06        -0.61268E+08         0.00000E+00
    0.00000E+00         0.00000E+00        -0.28468E+08
 
   -0.31291E+08         0.80686E+06         0.00000E+00
    0.80686E+06        -0.61431E+08         0.00000E+00
    0.00000E+00         0.00000E+00        -0.28424E+08
 
   -0.30443E+08         0.19613E+07         0.00000E+00
    0.19613E+07        -0.61633E+08         0.00000E+00
    0.00000E+00         0.00000E+00        -0.28386E+08
 
   -0.29661E+08         0.33139E+07         0.00000E+00
    0.33139E+07        -0.61867E+08         0.00000E+00
    0.00000E+00         0.00000E+00        -0.28355E+08
 
   -0.28992E+08         0.48957E+07         0.00000E+00
    0.48957E+07        -0.62107E+08         0.00000E+00
    0.00000E+00         0.00000E+00        -0.28332E+08
 
   -0.28504E+08         0.67288E+07         0.00000E+00
    0.67288E+07        -0.62309E+08         0.00000E+00
    0.00000E+00         0.00000E+00        -0.28319E+08
 
   -0.42845E+08        -0.85528E+06         0.00000E+00
   -0.85528E+06        -0.60049E+08         0.00000E+00
    0.00000E+00         0.00000E+00        -0.26721E+08
 
   -0.41561E+08        -0.21045E+07         0.00000E+00
   -0.21045E+07        -0.60172E+08         0.00000E+00
    0.00000E+00         0.00000E+00        -0.26698E+08
 
   -0.40079E+08        -0.28084E+07         0.00000E+00
   -0.28084E+07        -0.60319E+08         0.00000E+00
    0.00000E+00         0.00000E+00        -0.26659E+08
 
   -0.38575E+08        -0.30799E+07         0.00000E+00
   -0.30799E+07        -0.60424E+08         0.00000E+00
    0.00000E+00         0.00000E+00        -0.26610E+08
 
   -0.37144E+08        -0.30339E+07         0.00000E+00
   -0.30339E+07        -0.60468E+08         0.00000E+00
    0.00000E+00         0.00000E+00        -0.26558E+08
 
   -0.35817E+08        -0.27625E+07         0.00000E+00
   -0.27625E+07        -0.60464E+08         0.00000E+00
    0.00000E+00         0.00000E+00        -0.26503E+08
 
   -0.34592E+08        -0.23283E+07         0.00000E+00
   -0.23283E+07        -0.60436E+08         0.00000E+00
    0.00000E+00         0.00000E+00        -0.26450E+08
 
   -0.33447E+08        -0.17666E+07         0.00000E+00
   -0.17666E+07        -0.60414E+08         0.00000E+00
    0.00000E+00         0.00000E+00        -0.26398E+08
 
   -0.32357E+08        -0.10916E+07         0.00000E+00
   -0.10916E+07        -0.60425E+08         0.00000E+00
    0.00000E+00         0.00000E+00        -0.26349E+08
 
   -0.31299E+08        -0.30001E+06         0.00000E+00
   -0.30001E+06        -0.60490E+08         0.00000E+00
    0.00000E+00         0.00000E+00        -0.26303E+08
 
   -0.30255E+08         0.62680E+06         0.00000E+00
    0.62680E+06        -0.60626E+08         0.00000E+00
    0.00000E+00         0.00000E+00        -0.26263E+08
 
   -0.29220E+08         0.17221E+07         0.00000E+00
    0.17221E+07        -0.60842E+08         0.00000E+00
    0.00000E+00         0.00000E+00        -0.26228E+08
 
   -0.28211E+08         0.30316E+07         0.00000E+00
    0.30316E+07        -0.61131E+08         0.00000E+00
    0.00000E+00         0.00000E+00        -0.26199E+08
 
   -0.27276E+08         0.46068E+07         0.00000E+00
    0.46068E+07        -0.61468E+08         0.00000E+00
    0.00000E+00         0.00000E+00        -0.26177E+08
 
   -0.26499E+08         0.64914E+07         0.00000E+00
    0.64914E+07        -0.61800E+08         0.00000E+00
    0.00000E+00         0.00000E+00        -0.26166E+08
 
   -0.44461E+08        -0.93866E+06         0.00000E+00
   -0.93866E+06        -0.60045E+08         0.00000E+00
    0.00000E+00         0.00000E+00        -0.24374E+08
 
   -0.42522E+08        -0.22386E+07         0.00000E+00
   -0.22386E+07        -0.60136E+08         0.00000E+00
    0.00000E+00         0.00000E+00        -0.24353E+08
 
   -0.40515E+08        -0.28926E+07         0.00000E+00
   -0.28926E+07        -0.60195E+08         0.00000E+00
    0.00000E+00         0.00000E+00        -0.24318E+08
 
   -0.38635E+08        -0.30818E+07         0.00000E+00
   -0.30818E+07        -0.60160E+08         0.00000E+00
    0.00000E+00         0.00000E+00        -0.24276E+08
 
   -0.36949E+08        -0.29676E+07         0.00000E+00
   -0.29676E+07        -0.60037E+08         0.00000E+00
    0.00000E+00         0.00000E+00        -0.24230E+08
 
   -0.35450E+08        -0.26613E+07         0.00000E+00
   -0.26613E+07        -0.59864E+08         0.00000E+00
    0.00000E+00         0.00000E+00        -0.24183E+08
 
   -0.34099E+08        -0.22275E+07         0.00000E+00
   -0.22275E+07        -0.59682E+08         0.00000E+00
    0.00000E+00         0.00000E+00        -0.24136E+08
 
   -0.32851E+08        -0.16979E+07         0.00000E+00
   -0.16979E+07        -0.59529E+08         0.00000E+00
    0.00000E+00         0.00000E+00        -0.24091E+08
 
   -0.31661E+08        -0.10817E+07         0.00000E+00
   -0.10817E+07        -0.59437E+08         0.00000E+00
    0.00000E+00         0.00000E+00        -0.24049E+08
 
   -0.30488E+08        -0.37111E+06         0.00000E+00
   -0.37111E+06        -0.59430E+08         0.00000E+00
    0.00000E+00         0.00000E+00        -0.24009E+08
 
   -0.29300E+08         0.45813E+06         0.00000E+00
    0.45813E+06        -0.59531E+08         0.00000E+00
    0.00000E+00         0.00000E+00        -0.23974E+08
 
   -0.28075E+08         0.14488E+07         0.00000E+00
    0.14488E+07        -0.59756E+08         0.00000E+00
    0.00000E+00         0.00000E+00        -0.23943E+08
 
   -0.26814E+08         0.26646E+07         0.00000E+00
    0.26646E+07        -0.60109E+08         0.00000E+00
    0.00000E+00         0.00000E+00        -0.23918E+08
 
   -0.25561E+08         0.41859E+07         0.00000E+00
    0.41859E+07        -0.60566E+08         0.00000E+00
    0.00000E+00         0.00000E+00        -0.23899E+08
 
   -0.24415E+08         0.60914E+07         0.00000E+00
    0.60914E+07        -0.61066E+08         0.00000E+00
    0.00000E+00         0.00000E+00        -0.23889E+08
 
   -0.46183E+08        -0.10111E+07         0.00000E+00
   -0.10111E+07        -0.60037E+08         0.00000E+00
    0.00000E+00         0.00000E+00        -0.21882E+08
 
   -0.43435E+08        -0.22949E+07         0.00000E+00
   -0.22949E+07        -0.60066E+08         0.00000E+00
    0.00000E+00         0.00000E+00        -0.21866E+08
 
   -0.40847E+08        -0.28236E+07         0.00000E+00
   -0.28236E+07        -0.59973E+08         0.00000E+00
    0.00000E+00         0.00000E+00        -0.21838E+08
 
   -0.38605E+08        -0.28892E+07         0.00000E+00
   -0.28892E+07        -0.59723E+08         0.00000E+00
    0.00000E+00         0.00000E+00        -0.21805E+08
 
   -0.36706E+08        -0.27032E+07         0.00000E+00
   -0.27032E+07        -0.59374E+08         0.00000E+00
    0.00000E+00         0.00000E+00        -0.21768E+08
 
   -0.35077E+08        -0.23798E+07         0.00000E+00
   -0.23798E+07        -0.58993E+08         0.00000E+00
    0.00000E+00         0.00000E+00        -0.21731E+08
 
   -0.33638E+08        -0.19732E+07         0.00000E+00
   -0.19732E+07        -0.58635E+08         0.00000E+00
    0.00000E+00         0.00000E+00        -0.21693E+08
 
   -0.32316E+08        -0.15053E+07         0.00000E+00
   -0.15053E+07        -0.58340E+08         0.00000E+00
    0.00000E+00         0.00000E+00        -0.21657E+08
 
   -0.31051E+08        -0.97902E+06         0.00000E+00
   -0.97902E+06        -0.58136E+08         0.00000E+00
    0.00000E+00         0.00000E+00        -0.21622E+08
 
   -0.29786E+08        -0.38309E+06         0.00000E+00
   -0.38309E+06        -0.58051E+08         0.00000E+00
    0.00000E+00         0.00000E+00        -0.21590E+08
 
   -0.28471E+08         0.30872E+06         0.00000E+00
    0.30872E+06        -0.58110E+08         0.00000E+00
    0.00000E+00         0.00000E+00        -0.21562E+08
 
   -0.27061E+08         0.11432E+07         0.00000E+00
    0.11432E+07        -0.58337E+08         0.00000E+00
    0.00000E+00         0.00000E+00        -0.21537E+08
 
   -0.25530E+08         0.21998E+07         0.00000E+00
    0.21998E+07        -0.58755E+08         0.00000E+00
    0.00000E+00         0.00000E+00        -0.21517E+08
 
   -0.23897E+08         0.35978E+07         0.00000E+00
    0.35978E+07        -0.59356E+08         0.00000E+00
    0.00000E+00         0.00000E+00        -0.21502E+08
 
   -0.22277E+08         0.54752E+07         0.00000E+00
    0.54752E+07        -0.60076E+08         0.00000E+00
    0.00000E+00         0.00000E+00        -0.21494E+08
 
   -0.47949E+08        -0.10597E+07         0.00000E+00
   -0.10597E+07        -0.60017E+08         0.00000E+00
    0.00000E+00         0.00000E+00        -0.19258E+08
 
   -0.44196E+08        -0.21988E+07         0.00000E+00
   -0.21988E+07        -0.59918E+08         0.00000E+00
    0.00000E+00         0.00000E+00        -0.19247E+08
 
   -0.41015E+08        -0.25004E+07         0.00000E+00
   -0.25004E+07        -0.59551E+08         0.00000E+00
    0.00000E+00         0.00000E+00        -0.19229E+08
 
   -0.38481E+08        -0.24271E+07         0.00000E+00
   -0.24271E+07        -0.58988E+08         0.00000E+00
    0.00000E+00         0.00000E+00        -0.19206E+08
 
   -0.36439E+08        -0.21992E+07         0.00000E+00
   -0.21992E+07        -0.58363E+08         0.00000E+00
    0.00000E+00         0.00000E+00        -0.19181E+08
 
   -0.34731E+08        -0.18992E+07         0.00000E+00
   -0.18992E+07        -0.57759E+08         0.00000E+00
    0.00000E+00         0.00000E+00        -0.19154E+08
 
   -0.33240E+08        -0.15586E+07         0.00000E+00
   -0.15586E+07        -0.57224E+08         0.00000E+00
    0.00000E+00         0.00000E+00        -0.19127E+08
 
   -0.31875E+08        -0.11872E+07         0.00000E+00
   -0.11872E+07        -0.56791E+08         0.00000E+00
    0.00000E+00         0.00000E+00        -0.19101E+08
 
   -0.30559E+08        -0.78246E+06         0.00000E+00
   -0.78246E+06        -0.56484E+08         0.00000E+00
    0.00000E+00         0.00000E+00        -0.19076E+08
 
   -0.29226E+08        -0.33229E+06         0.00000E+00
   -0.33229E+06        -0.56323E+08         0.00000E+00
    0.00000E+00         0.00000E+00        -0.19053E+08
 
   -0.27810E+08         0.18658E+06         0.00000E+00
    0.18658E+06        -0.56336E+08         0.00000E+00
    0.00000E+00         0.00000E+00        -0.19033E+08
 
   -0.26240E+08         0.81598E+06         0.00000E+00
    0.81598E+06        -0.56555E+08         0.00000E+00
    0.00000E+00         0.00000E+00        -0.19015E+08
 
   -0.24441E+08         0.16342E+07         0.00000E+00
    0.16342E+07        -0.57024E+08         0.00000E+00
    0.00000E+00         0.00000E+00        -0.19000E+08
 
   -0.22369E+08         0.28015E+07         0.00000E+00
    0.28015E+07        -0.57787E+08         0.00000E+00
    0.00000E+00         0.00000E+00        -0.18990E+08
 
   -0.20123E+08         0.45634E+07         0.00000E+00
    0.45634E+07        -0.58795E+08         0.00000E+00
    0.00000E+00         0.00000E+00        -0.18984E+08
 
   -0.49617E+08        -0.10393E+07         0.00000E+00
   -0.10393E+07        -0.59956E+08         0.00000E+00
    0.00000E+00         0.00000E+00        -0.16519E+08
 
   -0.44650E+08        -0.17665E+07         0.00000E+00
   -0.17665E+07        -0.59520E+08         0.00000E+00
    0.00000E+00         0.00000E+00        -0.16514E+08
 
   -0.41004E+08        -0.17887E+07         0.00000E+00
   -0.17887E+07        -0.58688E+08         0.00000E+00
    0.00000E+00         0.00000E+00        -0.16506E+08
 
   -0.38309E+08        -0.16454E+07         0.00000E+00
   -0.16454E+07        -0.57755E+08         0.00000E+00
    0.00000E+00         0.00000E+00        -0.16495E+08
 
   -0.36199E+08        -0.14484E+07         0.00000E+00
   -0.14484E+07        -0.56859E+08         0.00000E+00
    0.00000E+00         0.00000E+00        -0.16481E+08
 
   -0.34458E+08        -0.12303E+07         0.00000E+00
   -0.12303E+07        -0.56058E+08         0.00000E+00
    0.00000E+00         0.00000E+00        -0.16466E+08
 
   -0.32945E+08        -0.10007E+07         0.00000E+00
   -0.10007E+07        -0.55378E+08         0.00000E+00
    0.00000E+00         0.00000E+00        -0.16451E+08
 
   -0.31558E+08        -0.76032E+06         0.00000E+00
   -0.76032E+06        -0.54836E+08         0.00000E+00
    0.00000E+00         0.00000E+00        -0.16435E+08
 
   -0.30213E+08        -0.50473E+06         0.00000E+00
   -0.50473E+06        -0.54447E+08         0.00000E+00
    0.00000E+00         0.00000E+00        -0.16420E+08
 
   -0.28837E+08        -0.22470E+06         0.00000E+00
   -0.22470E+06        -0.54228E+08         0.00000E+00
    0.00000E+00         0.00000E+00        -0.16407E+08
 
   -0.27351E+08         0.95585E+05         0.00000E+00
    0.95585E+05        -0.54202E+08         0.00000E+00
    0.00000E+00         0.00000E+00        -0.16394E+08
 
   -0.25665E+08         0.48431E+06         0.00000E+00
    0.48431E+06        -0.54404E+08         0.00000E+00
    0.00000E+00         0.00000E+00        -0.16384E+08
 
   -0.23654E+08         0.99691E+06         0.00000E+00
    0.99691E+06        -0.54896E+08         0.00000E+00
    0.00000E+00         0.00000E+00        -0.16376E+08
 
   -0.21130E+08         0.17675E+07         0.00000E+00
    0.17675E+07        -0.55783E+08         0.00000E+00
    0.00000E+00         0.00000E+00        -0.16370E+08
 
   -0.18038E+08         0.32239E+07         0.00000E+00
    0.32239E+07        -0.57177E+08         0.00000E+00
    0.00000E+00         0.00000E+00        -0.16367E+08
 
   -0.50789E+08        -0.62154E+06         0.00000E+00
   -0.62154E+06        -0.59397E+08         0.00000E+00
    0.00000E+00         0.00000E+00        -0.13695E+08
 
   -0.44730E+08        -0.71668E+06         0.00000E+00
   -0.71668E+06        -0.58276E+08         0.00000E+00
    0.00000E+00         0.00000E+00        -0.13695E+08
 
   -0.40928E+08        -0.65893E+06         0.00000E+00
   -0.65893E+06        -0.56986E+08         0.00000E+00
    0.00000E+00         0.00000E+00        -0.13693E+08
 
   -0.38182E+08        -0.58575E+06         0.00000E+00
   -0.58575E+06        -0.55783E+08         0.00000E+00
    0.00000E+00         0.00000E+00        -0.13690E+08
 
   -0.36054E+08        -0.50653E+06         0.00000E+00
   -0.50653E+06        -0.54715E+08         0.00000E+00
    0.00000E+00         0.00000E+00        -0.13686E+08
 
   -0.34305E+08        -0.42594E+06         0.00000E+00
   -0.42594E+06        -0.53799E+08         0.00000E+00
    0.00000E+00         0.00000E+00        -0.13681E+08
 
   -0.32787E+08        -0.34447E+06         0.00000E+00
   -0.34447E+06        -0.53039E+08         0.00000E+00
    0.00000E+00         0.00000E+00        -0.13676E+08
 
   -0.31391E+08        -0.26111E+06         0.00000E+00
   -0.26111E+06        -0.52441E+08         0.00000E+00
    0.00000E+00         0.00000E+00        -0.13671E+08
 
   -0.30035E+08        -0.17369E+06         0.00000E+00
   -0.17369E+06        -0.52011E+08         0.00000E+00
    0.00000E+00         0.00000E+00        -0.13666E+08
 
   -0.28638E+08        -0.78765E+05         0.00000E+00
   -0.78765E+05        -0.51762E+08         0.00000E+00
    0.00000E+00         0.00000E+00        -0.13662E+08
 
   -0.27118E+08         0.29244E+05         0.00000E+00
    0.29244E+05        -0.51715E+08         0.00000E+00
    0.00000E+00         0.00000E+00        -0.13658E+08
 
   -0.25370E+08         0.16004E+06         0.00000E+00
    0.16004E+06        -0.51906E+08         0.00000E+00
    0.00000E+00         0.00000E+00        -0.13655E+08
 
   -0.23242E+08         0.33367E+06         0.00000E+00
    0.33367E+06        -0.52401E+08         0.00000E+00
    0.00000E+00         0.00000E+00        -0.13652E+08
 
   -0.20460E+08         0.59458E+06         0.00000E+00
    0.59458E+06        -0.53329E+08         0.00000E+00
    0.00000E+00         0.00000E+00        -0.13650E+08
 
   -0.16255E+08         0.12131E+07         0.00000E+00
    0.12131E+07        -0.55073E+08         0.00000E+00
    0.00000E+00         0.00000E+00        -0.13649E+08
 
SCALARS stresss double 
LOOKUP_TABLE default
  -47662216.5889590     
  -48006435.0206293     
  -48350895.5170854     
  -48691611.0322260     
  -49025268.0638386     
  -49349131.4189982     
  -49660955.4017935     
  -49958901.7808710     
  -50241464.7202587     
  -50507402.7297316     
  -50755677.6085332     
  -50985400.3157744     
  -51195783.6985832     
  -51386102.0403407     
  -51555657.4503498     
  -47640185.9778942     
  -47986291.7617746     
  -48332024.2088355     
  -48673490.4933919     
  -49007466.7877931     
  -49331302.2314458     
  -49642829.5781366     
  -49940282.8304554     
  -50222221.9971594     
  -50487464.9838293     
  -50735026.5473769     
  -50964064.2082582     
  -51173831.0169900     
  -51363635.1089945     
  -51532806.0480161     
  -47596282.2223991     
  -47946097.1046395     
  -48294309.2951318     
  -48637215.5824311     
  -48971772.3730883     
  -49295498.1097350     
  -49606382.8799108     
  -49902805.4265800     
  -50183457.6000567     
  -50447276.1687197     
  -50693381.8312382     
  -50921025.2438535     
  -51129539.8890524     
  -51318301.6619075     
  -51486695.1312781     
  -47530821.0919980     
  -47886034.4740701     
  -48237805.0179090     
  -48582716.8352994     
  -48917998.8638456     
  -49241425.0632854     
  -49551222.5729171     
  -49845987.8930140     
  -50124610.9835164     
  -50386207.0549140     
  -50630055.7588433     
  -50855547.4678925     
  -51062136.3621730     
  -51249300.1093897     
  -51416506.0288053     
  -47444278.1941547     
  -47806378.1447514     
  -48162589.7268513     
  -48509885.4782246     
  -48845861.6875826     
  -49168635.8241639     
  -49476752.9600404     
  -49769101.0480437     
  -50044834.7488666     
  -50303307.3863493     
  -50544010.5513772     
  -50766520.8714192     
  -50970453.5115405     
  -51155422.0684867     
  -51321004.6548201     
  -47337290.9298069     
  -47707491.8618061     
  -48068761.9692937     
  -48418567.6968562     
  -48754970.7137662     
  -49076522.2002126     
  -49382167.4257797     
  -49671160.2286505     
  -49942986.8316074     
  -50197298.3186002     
  -50433851.0465729     
  -50652454.2817630     
  -50852924.4251175     
  -51035045.3221219     
  -51198534.3297679     
  -47210660.4439519     
  -47589826.4184958     
  -47956434.7780038     
  -48308556.5924404     
  -48644820.7026878     
  -48964304.6979239     
  -49266437.7650043     
  -49550914.7058403     
  -49817620.2372028     
  -50066562.5736606     
  -50297815.2543090     
  -50511466.2094418     
  -50707573.1719455     
  -50886124.7134236     
  -51047006.4167958     
  -47065352.9905271     
  -47453915.6736351     
  -47825727.7129744     
  -48179581.4664002     
  -48514778.8825755     
  -48831019.2581377     
  -49128300.7481460     
  -49406834.5502040     
  -49666970.4818041     
  -49909132.5486463     
  -50133763.0685753     
  -50341273.9751355     
  -50532004.0742288     
  -50706181.2589253     
  -50863888.9885042     
  -46902499.9670504     
  -47300370.3420347     
  -47676756.0825231     
  -48031293.9677941     
  -48364069.3158020     
  -48675500.9056901     
  -48966241.8716259     
  -49237095.0426965     
  -49488940.9673595     
  -49722676.7201776     
  -49939163.5581883     
  -50139181.5804019     
  -50323389.7437431     
  -50492289.8915637     
  -50646193.8399746     
  -46723395.7043104     
  -47129868.7317198     
  -47509616.6253115     
  -47863250.5182871     
  -48191753.6281296     
  -48496364.0684420     
  -48778476.2437118     
  -49039558.7763097     
  -49281086.6183906     
  -49504484.8246383     
  -49711081.4272755     
  -49902066.9711661     
  -50078458.5296688     
  -50241066.4156489     
  -50390462.3035885     
  -46529491.9251600     
  -46943143.4323565     
  -47324368.7749649     
  -47674890.2909199     
  -47996707.5723873     
  -48291979.2676931     
  -48562926.5614551     
  -48811755.6630149     
  -49040596.2378052     
  -49251452.4780060     
  -49446163.4601558     
  -49626369.5894163     
  -49793482.2742219     
  -49948654.4869840     
  -50092750.5127551     
  -46322387.6237098     
  -46740962.7812365     
  -47121010.4469687     
  -47465507.8523908     
  -47777592.7696308     
  -48060445.8132112     
  -48317198.1409747     
  -48550861.1500045     
  -48764274.2102798     
  -48960066.1413516     
  -49140626.0614190     
  -49308079.4358053     
  -49464265.6050324     
  -49610713.7421116     
  -49748615.0236688     
  -46103812.9766394     
  -46524105.7463162     
  -46899447.0720631     
  -47234219.3662772     
  -47532822.7986672     
  -47799560.0382251     
  -48038550.9648129     
  -48253673.0623021     
  -48448522.4048202     
  -48626389.6572355     
  -48790245.3934425     
  -48942729.2993911     
  -49086138.4352530     
  -49222410.6166235     
  -49353100.0600603     
  -45875605.8022510     
  -46293328.6658304     
  -46659452.3289398     
  -46979920.9650680     
  -47260522.5575562     
  -47506778.4591545     
  -47723868.6949273     
  -47916587.6272058     
  -48089323.4173662     
  -48246054.0018446     
  -48390352.1301739     
  -48525392.3833025     
  -48653953.9268983     
  -48778413.9452441     
  -48900728.1250386     
  -45639679.0553517     
  -46049322.0553297     
  -46400618.6577335     
  -46701237.4758575     
  -46958479.4452639     
  -47179175.0029673     
  -47369624.5497166     
  -47535575.4022457     
  -47682226.6699189     
  -47814252.4507493     
  -47935833.5279892     
  -48050688.3093772     
  -48162094.9414603     
  -48272898.1645028     
  -48385496.3620107     
  -45397977.9129163     
  -45792655.3950709     
  -46122295.0808476     
  -46396459.0295398     
  -46624084.3201543     
  -46813391.0514771     
  -46971843.8320034     
  -47106158.0282092     
  -47222339.3756667     
  -47325744.0900367     
  -47421146.4171818     
  -47512801.4770118     
  -47604493.0063849     
  -47699557.8876283     
  -47800881.8832499     
  -45152425.1829273     
  -45523707.3514564     
  -45823508.9624792     
  -46063462.0258857     
  -46254259.2423488     
  -46405576.4169568     
  -46526062.6898247     
  -46623386.9786992     
  -46704325.0404435     
  -46774869.5893599     
  -46840345.9186969     
  -46905517.0568611     
  -46974665.1319431     
  -47051638.8423838     
  -47139860.3597057     
  -44904854.0397245     
  -45242578.0708816     
  -45502866.8134401     
  -45699609.1752139     
  -45845367.4753327     
  -45951318.3632748     
  -46027282.3650125     
  -46081825.8199700     
  -46122413.0837071     
  -46155584.4930623     
  -46187136.2992542     
  -46222281.6214242     
  -46265775.5051608     
  -46321991.7133141     
  -46394943.5093810     
  -44656927.3545470     
  -44948978.6157251     
  -45158426.5606491     
  -45301620.3952086     
  -45393098.7677049     
  -45445554.2709341     
  -45469917.7418726     
  -45475538.0285000     
  -45470424.4653628     
  -45461517.1292664     
  -45454952.5449185     
  -45456297.6960662     
  -45470731.2842172     
  -45503157.3784358     
  -45558242.7404570     
  -44410042.8691078     
  -44642089.4920512     
  -44787528.8621211     
  -44865401.3676563     
  -44892319.0654069     
  -44882461.3841487     
  -44847738.5663586     
  -44798083.3527627     
  -44741820.1127001     
  -44686060.7796821     
  -44637084.1548419     
  -44600664.5643327     
  -44582324.6061883     
  -44587494.4798516     
  -44621568.0662194     
  -44165222.4936293     
  -44320373.9260130     
  -44386566.1945140     
  -44385808.1269759     
  -44336867.8763738     
  -44255314.3247683     
  -44153801.6740090     
  -44042527.4774694     
  -43929781.7478033     
  -43822513.1884398     
  -43726856.5530747     
  -43648581.7939004     
  -43593436.8534540     
  -43567363.4361551     
  -43576573.4395069     
  -43922980.6013383     
  -43981318.7303782     
  -43950651.9273888     
  -43856311.7698895     
  -43719277.8836471     
  -43556298.4074331     
  -43380374.0385776     
  -43201473.1498038     
  -43027338.6946537     
  -42864280.8311030     
  -42717890.5210570     
  -42593637.6670829     
  -42497326.9312385     
  -42435385.4600972     
  -42414961.8027562     
  -43683157.1374753     
  -43621048.7991066     
  -43473120.1886709     
  -43268503.2188504     
  -43030380.2504092     
  -42776266.7288078     
  -42518852.0788105     
  -42267127.2390877     
  -42027559.3038377     
  -41805169.8847362     
  -41604465.9538197     
  -41430212.7955965     
  -41288034.4955726     
  -41184802.3796663     
  -41128765.6476539     
  -43444678.0395464     
  -43233703.9521900     
  -42944725.0014677     
  -42611338.4637645     
  -42258748.5958474     
  -41904439.0004754     
  -41559697.9264958     
  -41231429.1643948     
  -40923830.0711488     
  -40639787.9896960     
  -40382021.4026019     
  -40154041.2863847     
  -39960945.4236752     
  -39809977.3164346     
  -39710722.8323795     
  -43205151.5799304     
  -42810330.9608721     
  -42352283.4810018     
  -41869961.9448233     
  -41389941.9865488     
  -40928077.9038091     
  -40492448.6565235     
  -40086281.9342690     
  -39710244.5436137     
  -39364072.4881163     
  -39047821.6806328     
  -38762988.3564694     
  -38513601.0461572     
  -38307107.2378468     
  -38154777.8297768     
  -42960030.9934918     
  -42336730.4131095     
  -41676227.8861160     
  -41023887.8946333     
  -40405580.7115393     
  -39832287.1504961     
  -39305919.1317005     
  -38823943.1711656     
  -38382104.1784858     
  -37975930.8568567     
  -37601799.3894344     
  -37258133.8108102     
  -36946896.4826449     
  -36675305.0278828     
  -36456764.2853633     
  -42700712.2093958     
  -41788637.2554181     
  -40886078.8049546     
  -40044337.1207847     
  -39282633.4827654     
  -38600298.6676758     
  -37988785.5620075     
  -37437636.2809789     
  -36936498.3996381     
  -36475870.1435127     
  -36047521.9484650     
  -35645211.9278545     
  -35267026.7374151     
  -34918382.8141576     
  -34615448.4486764     
  -42407844.4999036     
  -41120434.5003799     
  -39931522.2940783     
  -38891817.4000646     
  -37994184.3170622     
  -37214761.5962389     
  -36530752.2868683     
  -35922412.6416772     
  -35372879.0338621     
  -34867422.6396841     
  -34392735.7400362     
  -33936618.1311918     
  -33488511.0274560     
  -33048698.9124455     
  -32634242.9687920     
  -42030459.2228640     
  -40228157.2803193     
  -38732672.2532978     
  -37519592.7951853     
  -36512952.9717989     
  -35660478.6289437     
  -34924356.8970128     
  -34276223.6885296     
  -33693538.6910971     
  -33157099.1126751     
  -32649061.4696847     
  -32150983.6712604     
  -31641938.9694606     
  -31094163.7177590     
  -30527111.1258909     
  -41293735.4423452     
  -38899997.9691611     
  -37202185.8741446     
  -35884844.2057712     
  -34818281.3037749     
  -33928318.7789476     
  -33167186.9936971     
  -32501063.3458620     
  -31903931.5105157     
  -31353872.1093414     
  -30830210.8782861     
  -30310428.3173899     
  -29764995.6476554     
  -29146393.2955629     
  -28325630.4400005     
SCALARS 2waySource double 
LOOKUP_TABLE default
 -3.649542104533356E-002
 -3.555322681527767E-002
 -3.482379528036292E-002
 -3.427617027818557E-002
 -3.388037992239493E-002
 -3.360773523661582E-002
 -3.343101714362984E-002
 -3.332457294262792E-002
 -3.326434189792389E-002
 -3.322782803267013E-002
 -3.319403665842769E-002
 -3.314338957550902E-002
 -3.305763225528476E-002
 -3.291974467016501E-002
 -3.271386577306081E-002
 -3.654728065302501E-002
 -3.561936294696744E-002
 -3.490410315802025E-002
 -3.437019666174967E-002
 -3.398742789559907E-002
 -3.372695024188156E-002
 -3.356145577340108E-002
 -3.346525594391613E-002
 -3.341429281920646E-002
 -3.338609892575360E-002
 -3.335972223405975E-002
 -3.331563119561609E-002
 -3.323561312498999E-002
 -3.310267756953587E-002
 -3.290097464322161E-002
 -3.662531909169874E-002
 -3.572592777995144E-002
 -3.503876575752665E-002
 -3.453188688873399E-002
 -3.417464226082052E-002
 -3.393792144427118E-002
 -3.379428688961026E-002
 -3.371802239831773E-002
 -3.368511516267447E-002
 -3.367318936985380E-002
 -3.366140780973760E-002
 -3.363035632614319E-002
 -3.356192432317739E-002
 -3.343919289496849E-002
 -3.324634049335881E-002
 -3.672946994137227E-002
 -3.587305223739726E-002
 -3.522794690976605E-002
 -3.476130837716252E-002
 -3.444189626715236E-002
 -3.424025852731298E-002
 -3.412881263330993E-002
 -3.408184562403825E-002
 -3.407545230721897E-002
 -3.408742949708477E-002
 -3.409714258638585E-002
 -3.408537914641968E-002
 -3.403420261960059E-002
 -3.392681753929300E-002
 -3.374745608776057E-002
 -3.685966970599741E-002
 -3.606094185751973E-002
 -3.547187901963459E-002
 -3.505853038825871E-002
 -3.478895291568191E-002
 -3.463331723418702E-002
 -3.456391821201205E-002
 -3.455511065200621E-002
 -3.458318930964394E-002
 -3.462623092437377E-002
 -3.466391437160771E-002
 -3.467733340606911E-002
 -3.464881482909372E-002
 -3.456175330395615E-002
 -3.440047247218061E-002
 -3.701585450557378E-002
 -3.628984169834314E-002
 -3.577080051812520E-002
 -3.542353774377487E-002
 -3.521535819381734E-002
 -3.511607499662371E-002
 -3.509793247175971E-002
 -3.513546197532681E-002
 -3.520528975294547E-002
 -3.528591431398925E-002
 -3.535746917766402E-002
 -3.540148513861852E-002
 -3.540066453471704E-002
 -3.533867841956140E-002
 -3.519999605614058E-002
 -3.719795710459049E-002
 -3.655999156608863E-002
 -3.612487489061243E-002
 -3.585611850879747E-002
 -3.572030171466152E-002
 -3.568696838387123E-002
 -3.572844559439187E-002
 -3.581960451195960E-002
 -3.593758254891273E-002
 -3.606148413818087E-002
 -3.617207563763640E-002
 -3.625148804453782E-002
 -3.628293947555494E-002
 -3.625048782393477E-002
 -3.613882265044993E-002
 -3.740590237495844E-002
 -3.687157011697714E-002
 -3.653409010943628E-002
 -3.635572465737359E-002
 -3.630244395264428E-002
 -3.634369177383372E-002
 -3.645208359556311E-002
 -3.660305779010017E-002
 -3.677449907298795E-002
 -3.694635138659724E-002
 -3.710023528189001E-002
 -3.721908278472595E-002
 -3.728680089842275E-002
 -3.728797339663645E-002
 -3.720760940530830E-002
 -3.763959850777328E-002
 -3.722462565573053E-002
 -3.699813657879465E-002
 -3.692130401921292E-002
 -3.695970857882749E-002
 -3.708295604420714E-002
 -3.726423883668426E-002
 -3.747986309518132E-002
 -3.770876096085780E-002
 -3.793200513224521E-002
 -3.813234009418731E-002
 -3.829374195084817E-002
 -3.840101677347549E-002
 -3.843944593974301E-002
 -3.839448608776222E-002
 -3.789892035401154E-002
 -3.761899050866498E-002
 -3.751626069211293E-002
 -3.755110074958439E-002
 -3.768903735868933E-002
 -3.790020514786517E-002
 -3.815875503337237E-002
 -3.844224286924237E-002
 -3.873101877782600E-002
 -3.900763408997518E-002
 -3.925627928657428E-002
 -3.946226322752247E-002
 -3.961154164937698E-002
 -3.969030157776152E-002
 -3.968460790258602E-002
 -3.818368019213334E-002
 -3.805417463617933E-002
 -3.808708971276586E-002
 -3.824242004847411E-002
 -3.848610355033337E-002
 -3.878928705563130E-002
 -3.912756415738449E-002
 -3.948021098433371E-002
 -3.982944158928353E-002
 -4.015969961419365E-002
 -4.045699798940293E-002
 -4.070831436035939E-002
 -4.090104722267682E-002
 -4.102253658276014E-002
 -4.105965325397306E-002
 -3.849358001553264E-002
 -3.852923261128220E-002
 -3.870842179127086E-002
 -3.899135070840522E-002
 -3.934497755080967E-002
 -3.974207356175757E-002
 -4.016027107718116E-002
 -4.058113157405530E-002
 -4.098925723414920E-002
 -4.137146207399899E-002
 -4.171601168489678E-002
 -4.201193517015778E-002
 -4.224840962097637E-002
 -4.241421662932024E-002
 -4.249727168154473E-002
 -3.882813815884387E-002
 -3.904259615100783E-002
 -3.937697234221277E-002
 -3.979243604629773E-002
 -4.025773542551500E-002
 -4.074802063500217E-002
 -4.124367962157378E-002
 -4.172922285226057E-002
 -4.219224287876910E-002
 -4.262246334316630E-002
 -4.301088191344635E-002
 -4.334900424657909E-002
 -4.362816221767870E-002
 -4.383890942866238E-002
 -4.397048996590817E-002
 -3.918658182668837E-002
 -3.959186192783885E-002
 -4.008806444125990E-002
 -4.063827950439219E-002
 -4.121399654834697E-002
 -4.179365706043267E-002
 -4.236125080131405E-002
 -4.290500073444601E-002
 -4.341616529624832E-002
 -4.388796944454471E-002
 -4.431466132057042E-002
 -4.469068142904882E-002
 -4.500992684676409E-002
 -4.526509393281137E-002
 -4.544708844062401E-002
 -3.956769597097474E-002
 -4.017352120377524E-002
 -4.083524591727272E-002
 -4.151906512153571E-002
 -4.220037033203304E-002
 -4.286198364091216E-002
 -4.349247996901683E-002
 -4.408465509725544E-002
 -4.463417044474983E-002
 -4.513837948884378E-002
 -4.559531985836782E-002
 -4.600284214112996E-002
 -4.635784198152935E-002
 -4.665556525193519E-002
 -4.688896528698355E-002
 -3.996961811939399E-002
 -4.078261354419117E-002
 -4.160980866399775E-002
 -4.242196429096955E-002
 -4.319978313182959E-002
 -4.393175765557993E-002
 -4.461217450732023E-002
 -4.523934924394086E-002
 -4.581412262042665E-002
 -4.633861039509785E-002
 -4.681516940880705E-002
 -4.724552658520970E-002
 -4.763001425504486E-002
 -4.796686254330104E-002
 -4.825151447704047E-002
 -4.038956829815160E-002
 -4.141228077377873E-002
 -4.240017512473664E-002
 -4.333038732100321E-002
 -4.419064366907725E-002
 -4.497662688489154E-002
 -4.568960703110962E-002
 -4.633443086839303E-002
 -4.691789530397114E-002
 -4.744747215509817E-002
 -4.793031192427359E-002
 -4.837243631648132E-002
 -4.877803013366802E-002
 -4.914875784661884E-002
 -4.948305348992116E-002
 -4.082350310336788E-002
 -4.205318809104019E-002
 -4.319110074904341E-002
 -4.422301902385313E-002
 -4.514578699619391E-002
 -4.596406345294242E-002
 -4.668751112247788E-002
 -4.732854123187673E-002
 -4.790061981356535E-002
 -4.841705662563475E-002
 -4.889014724225557E-002
 -4.933052344826478E-002
 -4.974657807255531E-002
 -5.014385749279357E-002
 -5.052435023501720E-002
 -4.126568292802419E-002
 -4.269276430564496E-002
 -4.396261568313515E-002
 -4.507254815682308E-002
 -4.603111059944306E-002
 -4.685402919540937E-002
 -4.756087797335561E-002
 -4.817260993725039E-002
 -4.870990576029063E-002
 -4.919217546794734E-002
 -4.963699205431996E-002
 -5.005973431813739E-002
 -5.047324840839804E-002
 -5.088738441668582E-002
 -5.130831475021588E-002
 -4.170814030972436E-002
 -4.331418758318846E-002
 -4.468858717806869E-002
 -4.584395486883755E-002
 -4.680377825046962E-002
 -4.759728104341829E-002
 -4.825550521470351E-002
 -4.880872877399366E-002
 -4.928506192625083E-002
 -4.970990184199564E-002
 -5.010588212225130E-002
 -5.049299027797825E-002
 -5.088859864020755E-002
 -5.130722926375651E-002
 -5.175993971207594E-002
 -4.214003286712678E-002
 -4.389499710406715E-002
 -4.533471339724955E-002
 -4.649214795891270E-002
 -4.740981341802463E-002
 -4.813319905164968E-002
 -4.870624938331918E-002
 -4.916891568360558E-002
 -4.955637185422684E-002
 -4.989929786991294E-002
 -5.022465624727120E-002
 -5.055651320669156E-002
 -5.091659535208544E-002
 -5.132438017526169E-002
 -5.179659360475623E-002
 -4.254685065663341E-002
 -4.440512465008847E-002
 -4.585563428512791E-002
 -4.695862709335723E-002
 -4.778083075905609E-002
 -4.838699982299779E-002
 -4.883495413098195E-002
 -4.917381984346011E-002
 -4.944452056498033E-002
 -4.968144657713695E-002
 -4.991445140607084E-002
 -5.017063115325347E-002
 -5.047557045511208E-002
 -5.085386562094879E-002
 -5.132879048689646E-002
 -4.290941363034338E-002
 -4.480396794619224E-002
 -4.619061478391104E-002
 -4.716665338917488E-002
 -4.782956530600832E-002
 -4.826621007777483E-002
 -4.854809624712454E-002
 -4.873149832790741E-002
 -4.886033139376784E-002
 -4.896994875486640E-002
 -4.909076842177747E-002
 -4.925122699164771E-002
 -4.947985950469669E-002
 -4.980637406661378E-002
 -5.026158141439911E-002
 -4.320250507919442E-002
 -4.503576823684670E-002
 -4.625680083843560E-002
 -4.701410092414890E-002
 -4.744378585117174E-002
 -4.765639166370407E-002
 -4.773436663678507E-002
 -4.773653514380451E-002
 -4.770504749843457E-002
 -4.767207550906177E-002
 -4.766528121931755E-002
 -4.771201611617862E-002
 -4.784232709138526E-002
 -4.809076034994676E-002
 -4.849674156640469E-002
 -4.339279959392534E-002
 -4.502168780911267E-002
 -4.593813071053782E-002
 -4.636266062589840E-002
 -4.647828071953473E-002
 -4.641650051822517E-002
 -4.626277890188740E-002
 -4.606997613071316E-002
 -4.587144413617147E-002
 -4.569073807487276E-002
 -4.554853670624726E-002
 -4.546784249331406E-002
 -4.547805290155794E-002
 -4.561773681242344E-002
 -4.593599544444657E-002
 -4.343496627036164E-002
 -4.464495653196860E-002
 -4.506578370486407E-002
 -4.502160988301137E-002
 -4.474533927903490E-002
 -4.437532944897075E-002
 -4.398253487321575E-002
 -4.360073902316899E-002
 -4.324597942485338E-002
 -4.292728469897781E-002
 -4.265352631778119E-002
 -4.243920379667251E-002
 -4.230953779775692E-002
 -4.230531493752318E-002
 -4.248569166463259E-002
 -4.326389503209552E-002
 -4.371776800380209E-002
 -4.338226388875312E-002
 -4.272458941995529E-002
 -4.200748969715313E-002
 -4.133256269373795E-002
 -4.072641918263387E-002
 -4.018914412918979E-002
 -3.971191064296739E-002
 -3.928457443222040E-002
 -3.889988425968168E-002
 -3.855788029561780E-002
 -3.827436761041850E-002
 -3.808690593522816E-002
 -3.806408127621829E-002
 -4.276261181671448E-002
 -4.190192414020034E-002
 -4.046899879996251E-002
 -3.911028930829043E-002
 -3.798441987605018E-002
 -3.706890108292808E-002
 -3.631931125277042E-002
 -3.569275475193966E-002
 -3.515282937339079E-002
 -3.466914968725299E-002
 -3.421636090335289E-002
 -3.377470347432548E-002
 -3.333489182492311E-002
 -3.292661415201203E-002
 -3.261330406481580E-002
 -4.166397010329983E-002
 -3.841665513038154E-002
 -3.567421229786463E-002
 -3.375936104716642E-002
 -3.238392906894071E-002
 -3.136781721062237E-002
 -3.059153734352205E-002
 -2.997383994259153E-002
 -2.945577834569402E-002
 -2.899091774525311E-002
 -2.853853197045776E-002
 -2.805817806379739E-002
 -2.750599027334060E-002
 -2.683532199971200E-002
 -2.613568409946915E-002
 -3.809837266811140E-002
 -3.167581304040883E-002
 -2.833677415704756E-002
 -2.629216867302470E-002
 -2.495643718102945E-002
 -2.404384809252241E-002
 -2.339404800723154E-002
 -2.290684947212488E-002
 -2.251329224382199E-002
 -2.216006536984444E-002
 -2.179909292657497E-002
 -2.137780372396724E-002
 -2.082548467750497E-002
 -2.002397186336423E-002
 -1.874168168907516E-002
SCALARS elementIsPlast double 
LOOKUP_TABLE default
  0.000000000000000E+000
  0.000000000000000E+000
  0.000000000000000E+000
  0.000000000000000E+000
  0.000000000000000E+000
  0.000000000000000E+000
  0.000000000000000E+000
  0.000000000000000E+000
  0.000000000000000E+000
  0.000000000000000E+000
  0.000000000000000E+000
  0.000000000000000E+000
  0.000000000000000E+000
  0.000000000000000E+000
  0.000000000000000E+000
  0.000000000000000E+000
  0.000000000000000E+000
  0.000000000000000E+000
  0.000000000000000E+000
  0.000000000000000E+000
  0.000000000000000E+000
  0.000000000000000E+000
  0.000000000000000E+000
  0.000000000000000E+000
  0.000000000000000E+000
  0.000000000000000E+000
  0.000000000000000E+000
  0.000000000000000E+000
  0.000000000000000E+000
  0.000000000000000E+000
  0.000000000000000E+000
  0.000000000000000E+000
  0.000000000000000E+000
  0.000000000000000E+000
  0.000000000000000E+000
  0.000000000000000E+000
  0.000000000000000E+000
  0.000000000000000E+000
  0.000000000000000E+000
  0.000000000000000E+000
  0.000000000000000E+000
  0.000000000000000E+000
  0.000000000000000E+000
  0.000000000000000E+000
  0.000000000000000E+000
  0.000000000000000E+000
  0.000000000000000E+000
  0.000000000000000E+000
  0.000000000000000E+000
  0.000000000000000E+000
  0.000000000000000E+000
  0.000000000000000E+000
  0.000000000000000E+000
  0.000000000000000E+000
  0.000000000000000E+000
  0.000000000000000E+000
  0.000000000000000E+000
  0.000000000000000E+000
  0.000000000000000E+000
  0.000000000000000E+000
  0.000000000000000E+000
  0.000000000000000E+000
  0.000000000000000E+000
  0.000000000000000E+000
  0.000000000000000E+000
  0.000000000000000E+000
  0.000000000000000E+000
  0.000000000000000E+000
  0.000000000000000E+000
  0.000000000000000E+000
  0.000000000000000E+000
  0.000000000000000E+000
  0.000000000000000E+000
  0.000000000000000E+000
  0.000000000000000E+000
  0.000000000000000E+000
  0.000000000000000E+000
  0.000000000000000E+000
  0.000000000000000E+000
  0.000000000000000E+000
  0.000000000000000E+000
  0.000000000000000E+000
  0.000000000000000E+000
  0.000000000000000E+000
  0.000000000000000E+000
  0.000000000000000E+000
  0.000000000000000E+000
  0.000000000000000E+000
  0.000000000000000E+000
  0.000000000000000E+000
  0.000000000000000E+000
  0.000000000000000E+000
  0.000000000000000E+000
  0.000000000000000E+000
  0.000000000000000E+000
  0.000000000000000E+000
  0.000000000000000E+000
  0.000000000000000E+000
  0.000000000000000E+000
  0.000000000000000E+000
  0.000000000000000E+000
  0.000000000000000E+000
  0.000000000000000E+000
  0.000000000000000E+000
  0.000000000000000E+000
  0.000000000000000E+000
  0.000000000000000E+000
  0.000000000000000E+000
  0.000000000000000E+000
  0.000000000000000E+000
  0.000000000000000E+000
  0.000000000000000E+000
  0.000000000000000E+000
  0.000000000000000E+000
  0.000000000000000E+000
  0.000000000000000E+000
  0.000000000000000E+000
  0.000000000000000E+000
  0.000000000000000E+000
  0.000000000000000E+000
  0.000000000000000E+000
  0.000000000000000E+000
  0.000000000000000E+000
  0.000000000000000E+000
  0.000000000000000E+000
  0.000000000000000E+000
  0.000000000000000E+000
  0.000000000000000E+000
  0.000000000000000E+000
  0.000000000000000E+000
  0.000000000000000E+000
  0.000000000000000E+000
  0.000000000000000E+000
  0.000000000000000E+000
  0.000000000000000E+000
  0.000000000000000E+000
  0.000000000000000E+000
  0.000000000000000E+000
  0.000000000000000E+000
  0.000000000000000E+000
  0.000000000000000E+000
  0.000000000000000E+000
  0.000000000000000E+000
  0.000000000000000E+000
  0.000000000000000E+000
  0.000000000000000E+000
  0.000000000000000E+000
  0.000000000000000E+000
  0.000000000000000E+000
  0.000000000000000E+000
  0.000000000000000E+000
  0.000000000000000E+000
  0.000000000000000E+000
  0.000000000000000E+000
  0.000000000000000E+000
  0.000000000000000E+000
  0.000000000000000E+000
  0.000000000000000E+000
  0.000000000000000E+000
  0.000000000000000E+000
  0.000000000000000E+000
  0.000000000000000E+000
  0.000000000000000E+000
  0.000000000000000E+000
  0.000000000000000E+000
  0.000000000000000E+000
  0.000000000000000E+000
  0.000000000000000E+000
  0.000000000000000E+000
  0.000000000000000E+000
  0.000000000000000E+000
  0.000000000000000E+000
  0.000000000000000E+000
  0.000000000000000E+000
  0.000000000000000E+000
  0.000000000000000E+000
  0.000000000000000E+000
  0.000000000000000E+000
  0.000000000000000E+000
  0.000000000000000E+000
  0.000000000000000E+000
  0.000000000000000E+000
  0.000000000000000E+000
  0.000000000000000E+000
  0.000000000000000E+000
  0.000000000000000E+000
  0.000000000000000E+000
  0.000000000000000E+000
  0.000000000000000E+000
  0.000000000000000E+000
  0.000000000000000E+000
  0.000000000000000E+000
  0.000000000000000E+000
  0.000000000000000E+000
  0.000000000000000E+000
  0.000000000000000E+000
  0.000000000000000E+000
  0.000000000000000E+000
  0.000000000000000E+000
  0.000000000000000E+000
  0.000000000000000E+000
  0.000000000000000E+000
  0.000000000000000E+000
  0.000000000000000E+000
  0.000000000000000E+000
  0.000000000000000E+000
  0.000000000000000E+000
  0.000000000000000E+000
  0.000000000000000E+000
  0.000000000000000E+000
  0.000000000000000E+000
  0.000000000000000E+000
  0.000000000000000E+000
  0.000000000000000E+000
  0.000000000000000E+000
  0.000000000000000E+000
  0.000000000000000E+000
  0.000000000000000E+000
  0.000000000000000E+000
  0.000000000000000E+000
  0.000000000000000E+000
  0.000000000000000E+000
  0.000000000000000E+000
  0.000000000000000E+000
  0.000000000000000E+000
  0.000000000000000E+000
  0.000000000000000E+000
  0.000000000000000E+000
  0.000000000000000E+000
  0.000000000000000E+000
  0.000000000000000E+000
  0.000000000000000E+000
  0.000000000000000E+000
  0.000000000000000E+000
  0.000000000000000E+000
  0.000000000000000E+000
  0.000000000000000E+000
  0.000000000000000E+000
  0.000000000000000E+000
  0.000000000000000E+000
  0.000000000000000E+000
  0.000000000000000E+000
  0.000000000000000E+000
  0.000000000000000E+000
  0.000000000000000E+000
  0.000000000000000E+000
  0.000000000000000E+000
  0.000000000000000E+000
  0.000000000000000E+000
  0.000000000000000E+000
  0.000000000000000E+000
  0.000000000000000E+000
  0.000000000000000E+000
  0.000000000000000E+000
  0.000000000000000E+000
  0.000000000000000E+000
  0.000000000000000E+000
  0.000000000000000E+000
  0.000000000000000E+000
  0.000000000000000E+000
  0.000000000000000E+000
  0.000000000000000E+000
  0.000000000000000E+000
  0.000000000000000E+000
  0.000000000000000E+000
  0.000000000000000E+000
  0.000000000000000E+000
  0.000000000000000E+000
  0.000000000000000E+000
  0.000000000000000E+000
  0.000000000000000E+000
  0.000000000000000E+000
  0.000000000000000E+000
  0.000000000000000E+000
  0.000000000000000E+000
  0.000000000000000E+000
  0.000000000000000E+000
  0.000000000000000E+000
  0.000000000000000E+000
  0.000000000000000E+000
  0.000000000000000E+000
  0.000000000000000E+000
  0.000000000000000E+000
  0.000000000000000E+000
  0.000000000000000E+000
  0.000000000000000E+000
  0.000000000000000E+000
  0.000000000000000E+000
  0.000000000000000E+000
  0.000000000000000E+000
  0.000000000000000E+000
  0.000000000000000E+000
  0.000000000000000E+000
  0.000000000000000E+000
  0.000000000000000E+000
  0.000000000000000E+000
  0.000000000000000E+000
  0.000000000000000E+000
  0.000000000000000E+000
  0.000000000000000E+000
  0.000000000000000E+000
  0.000000000000000E+000
  0.000000000000000E+000
  0.000000000000000E+000
  0.000000000000000E+000
  0.000000000000000E+000
  0.000000000000000E+000
  0.000000000000000E+000
  0.000000000000000E+000
  0.000000000000000E+000
  0.000000000000000E+000
  0.000000000000000E+000
  0.000000000000000E+000
  0.000000000000000E+000
  0.000000000000000E+000
  0.000000000000000E+000
  0.000000000000000E+000
  0.000000000000000E+000
  0.000000000000000E+000
  0.000000000000000E+000
  0.000000000000000E+000
  0.000000000000000E+000
  0.000000000000000E+000
  0.000000000000000E+000
  0.000000000000000E+000
  0.000000000000000E+000
  0.000000000000000E+000
  0.000000000000000E+000
  0.000000000000000E+000
  0.000000000000000E+000
  0.000000000000000E+000
  0.000000000000000E+000
  0.000000000000000E+000
  0.000000000000000E+000
  0.000000000000000E+000
  0.000000000000000E+000
  0.000000000000000E+000
  0.000000000000000E+000
  0.000000000000000E+000
  0.000000000000000E+000
  0.000000000000000E+000
  0.000000000000000E+000
  0.000000000000000E+000
  0.000000000000000E+000
  0.000000000000000E+000
  0.000000000000000E+000
  0.000000000000000E+000
  0.000000000000000E+000
  0.000000000000000E+000
  0.000000000000000E+000
  0.000000000000000E+000
  0.000000000000000E+000
  0.000000000000000E+000
  0.000000000000000E+000
  0.000000000000000E+000
  0.000000000000000E+000
  0.000000000000000E+000
  0.000000000000000E+000
  0.000000000000000E+000
  0.000000000000000E+000
  0.000000000000000E+000
  0.000000000000000E+000
  0.000000000000000E+000
  0.000000000000000E+000
  0.000000000000000E+000
  0.000000000000000E+000
  0.000000000000000E+000
  0.000000000000000E+000
  0.000000000000000E+000
  0.000000000000000E+000
  0.000000000000000E+000
  0.000000000000000E+000
  0.000000000000000E+000
  0.000000000000000E+000
  0.000000000000000E+000
  0.000000000000000E+000
  0.000000000000000E+000
  0.000000000000000E+000
  0.000000000000000E+000
  0.000000000000000E+000
  0.000000000000000E+000
  0.000000000000000E+000
  0.000000000000000E+000
  0.000000000000000E+000
  0.000000000000000E+000
  0.000000000000000E+000
  0.000000000000000E+000
  0.000000000000000E+000
  0.000000000000000E+000
  0.000000000000000E+000
  0.000000000000000E+000
  0.000000000000000E+000
  0.000000000000000E+000
  0.000000000000000E+000
  0.000000000000000E+000
  0.000000000000000E+000
  0.000000000000000E+000
  0.000000000000000E+000
  0.000000000000000E+000
  0.000000000000000E+000
  0.000000000000000E+000
  0.000000000000000E+000
  0.000000000000000E+000
  0.000000000000000E+000
  0.000000000000000E+000
  0.000000000000000E+000
  0.000000000000000E+000
  0.000000000000000E+000
  0.000000000000000E+000
  0.000000000000000E+000
  0.000000000000000E+000
  0.000000000000000E+000
  0.000000000000000E+000
  0.000000000000000E+000
  0.000000000000000E+000
  0.000000000000000E+000
  0.000000000000000E+000
  0.000000000000000E+000
  0.000000000000000E+000
  0.000000000000000E+000
  0.000000000000000E+000
  0.000000000000000E+000
  0.000000000000000E+000
  0.000000000000000E+000
  0.000000000000000E+000
  0.000000000000000E+000
  0.000000000000000E+000
  0.000000000000000E+000
  0.000000000000000E+000
  0.000000000000000E+000
  0.000000000000000E+000
  0.000000000000000E+000
  0.000000000000000E+000
  0.000000000000000E+000
  0.000000000000000E+000
  0.000000000000000E+000
  0.000000000000000E+000
  0.000000000000000E+000
  0.000000000000000E+000
  0.000000000000000E+000
  0.000000000000000E+000
  0.000000000000000E+000
  0.000000000000000E+000
  0.000000000000000E+000
  0.000000000000000E+000
  0.000000000000000E+000
  0.000000000000000E+000
  0.000000000000000E+000
  0.000000000000000E+000
  0.000000000000000E+000
SCALARS poroL double 
LOOKUP_TABLE default
  0.250320081890801     
  0.250075700443023     
  0.249842468806141     
  0.249620679240819     
  0.249410405284015     
  0.249211535195144     
  0.249023804500619     
  0.248846827024924     
  0.248680123891342     
  0.248523150061340     
  0.248375318057640     
  0.248236018582301     
  0.248104637798993     
  0.247980571100486     
  0.247863233231338     
  0.250302864624268     
  0.250056887408582     
  0.249822371626280     
  0.249599572910231     
  0.249388528919390     
  0.249189093409662     
  0.249000969312617     
  0.248823740217747     
  0.248656899750552     
  0.248499878425419     
  0.248352067628096     
  0.248212840447623     
  0.248081569133162     
  0.247957638999703     
  0.247840458651667     
  0.250267873481455     
  0.250018753911615     
  0.249781718158022     
  0.249556947911829     
  0.249344408493053     
  0.249143884162551     
  0.248955012258850     
  0.248777315571222     
  0.248610232460357     
  0.248453144326445     
  0.248305400100078     
  0.248166337493972     
  0.248035300804391     
  0.247911655092963     
  0.247794796616335     
  0.250213995695780     
  0.249960286476396     
  0.249719592357888     
  0.249491982413117     
  0.249277312008180     
  0.249075259954875     
  0.248885364208589     
  0.248707055547952     
  0.248539688778131     
  0.248382571091215     
  0.248234987292694     
  0.248096221662041     
  0.247965576258963     
  0.247842385518058     
  0.247726026998077     
  0.250139563451699     
  0.249879968529739     
  0.249634625768999     
  0.249403450927787     
  0.249186150102067     
  0.248982259291310     
  0.248791182127567     
  0.248612225239784     
  0.248444630839546     
  0.248287606211129     
  0.248140349865014     
  0.248002074168409     
  0.247872024299699     
  0.247749493389646     
  0.247633833716200     
  0.250042356053340     
  0.249775785301214     
  0.249525004741095     
  0.249289733473443     
  0.249069486796032     
  0.248863618719438     
  0.248671362151263     
  0.248491866269459     
  0.248324230732014     
  0.248167536475549     
  0.248020872933934     
  0.247883361557090     
  0.247754175530225     
  0.247632555588544     
  0.247517821799520     
  0.249919603767042     
  0.249645231248505     
  0.249388480879582     
  0.249148828525188     
  0.248925554484216     
  0.248717789443497     
  0.248524557480112     
  0.248344815695022     
  0.248177490207278     
  0.248021508357296     
  0.247875827051682     
  0.247739457225746     
  0.247611484402816     
  0.247491085296191     
  0.247377540339434     
  0.249767994163702     
  0.249485320783921     
  0.249222385440870     
  0.248978370414169     
  0.248752273732840     
  0.248542958998966     
  0.248349201493330     
  0.248169730224294     
  0.248003265757137     
  0.247848553803216     
  0.247704394643090     
  0.247569668496883     
  0.247443356936669     
  0.247324560365164     
  0.247212511474569     
  0.249583682006998     
  0.249292603288077     
  0.249023648588600     
  0.248775652000514     
  0.248547278619762     
  0.248337078605327     
  0.248143536577821     
  0.247965116113319     
  0.247800299310487     
  0.247647621588220     
  0.247505701985725     
  0.247373269273558     
  0.247249184139054     
  0.247132457589713     
  0.247022265539764     
  0.249362303963227     
  0.249063183620084     
  0.248788824639127     
  0.248537653648116     
  0.248307948518271     
  0.248097896956488     
  0.247905649272076     
  0.247729365183868     
  0.247567254828837     
  0.247417614372059     
  0.247278856766694     
  0.247149538250557     
  0.247028381087182     
  0.246914292873704     
  0.246806382467918     
  0.249098999649550     
  0.248792749575830     
  0.248514124663632     
  0.248261079754687     
  0.248031447429308     
  0.247823001369714     
  0.247633512436926     
  0.247460797451278     
  0.247302761077243     
  0.247157431546437     
  0.247022991156988     
  0.246897802532150     
  0.246780431498825     
  0.246669667172288     
  0.246564539439330     
  0.248788440791744     
  0.248476608015539     
  0.248195458091974     
  0.247942404360574     
  0.247714772208081     
  0.247509867406919     
  0.247325035292564     
  0.247157710906272     
  0.247005460823052     
  0.246866017865249     
  0.246737310192728     
  0.246617486318319     
  0.246504937415448     
  0.246398317888229     
  0.246296564611004     
  0.248424870531957     
  0.248109731691668     
  0.247828485301180     
  0.247577927699102     
  0.247354811338757     
  0.247155918325873     
  0.246978122315496     
  0.246818439044649     
  0.246674066659005     
  0.246542417698168     
  0.246421145022510     
  0.246308164039377     
  0.246201673317427     
  0.246100175108882     
  0.246002496503604     
  0.248002155213844     
  0.247686819179324     
  0.247408683603284     
  0.247163845999077     
  0.246948416321205     
  0.246758596041128     
  0.246590742185367     
  0.246441416788731     
  0.246307423549336     
  0.246185834516945     
  0.246074010243686     
  0.245969616912618     
  0.245870643554253     
  0.245775421642744     
  0.245682648245200     
  0.247513851281942     
  0.247202370779034     
  0.246931429628668     
  0.246696337468941     
  0.246492488302897     
  0.246315445715944     
  0.246161008230239     
  0.246025255494056     
  0.245904578039971     
  0.245795694884222     
  0.245695664069731     
  0.245601891322507     
  0.245512141361430     
  0.245424555215073     
  0.245337675330361     
  0.246953290276402     
  0.246650783887450     
  0.246392101923942     
  0.246171668280526     
  0.245984083401827     
  0.245824216724263     
  0.245687272164407     
  0.245568827778127     
  0.245464853827316     
  0.245371715720997     
  0.245286169392210     
  0.245205356632448     
  0.245126806897267     
  0.245048450362025     
  0.244968644806132     
  0.246313685313074     
  0.246026472225247     
  0.245786208802044     
  0.245586323686241     
  0.245420541349391     
  0.245282983592851     
  0.245168233369513     
  0.245071362925268     
  0.244987932993401     
  0.244913972912751     
  0.244845952848945     
  0.244780758947410     
  0.244715680600566     
  0.244648416466524     
  0.244577102796518     
  0.245588262980367     
  0.245324014671813     
  0.245109548359534     
  0.244937171399290     
  0.244799643822333     
  0.244690291754397     
  0.244603066549205     
  0.244532553562593     
  0.244473941602555     
  0.244422968273365     
  0.244375857679556     
  0.244329265864038     
  0.244280246661103     
  0.244226246945195     
  0.244165135983918     
  0.244770425405582     
  0.244538341649601     
  0.244358410566994     
  0.244221667449669     
  0.244119811396725     
  0.244045334614490     
  0.243991571258267     
  0.243952674056846     
  0.243923537374823     
  0.243899690373796     
  0.243877184297716     
  0.243852495235597     
  0.243822459399410     
  0.243784252755523     
  0.243735421058398     
  0.243853948652607     
  0.243664970713793     
  0.243529836249187     
  0.243438119559000     
  0.243380351805609     
  0.243348170615332     
  0.243334347423037     
  0.243332710426577     
  0.243337995585730     
  0.243345662566450     
  0.243351709954960     
  0.243352518262852     
  0.243344742712802     
  0.243325271055681     
  0.243291254237842     
  0.242833226237134     
  0.242700309564256     
  0.242621956068337     
  0.242586030732021     
  0.242581777542964     
  0.242599991532953     
  0.242633001112728     
  0.242674500073859     
  0.242719286887871     
  0.242762968495160     
  0.242801675416720     
  0.242831823548269     
  0.242849949191764     
  0.242852636850576     
  0.242836550807612     
  0.241703571694374     
  0.241642056765338     
  0.241634447097635     
  0.241666557981569     
  0.241726218162458     
  0.241803455452890     
  0.241890383470488     
  0.241980876554073     
  0.242070137092150     
  0.242154241408120     
  0.242229722102491     
  0.242293223751306     
  0.242341260512547     
  0.242370101386476     
  0.242375802281646     
  0.240461604484330     
  0.240489753821590     
  0.240569170660267     
  0.240683140712780     
  0.240817961405239     
  0.240963097486696     
  0.241110860548801     
  0.241255808723390     
  0.241394054029995     
  0.241522599206491     
  0.241638757853337     
  0.241739679623233     
  0.241822003046198     
  0.241881674835171     
  0.241913976105119     
  0.239105765982967     
  0.239245589548242     
  0.239431104690092     
  0.239642383888640     
  0.239864164434391     
  0.240085822015695     
  0.240300598160971     
  0.240504513313819     
  0.240695301620416     
  0.240871504335490     
  0.241031724754614     
  0.241174006431665     
  0.241295339649817     
  0.241391359321334     
  0.241456339004594     
  0.237637059893952     
  0.237915665259601     
  0.238229779249706     
  0.238555327393786     
  0.238875767659356     
  0.239181447516442     
  0.239467815153779     
  0.239733504805946     
  0.239978799842556     
  0.240204532770539     
  0.240411241319475     
  0.240598415106230     
  0.240763772513351     
  0.240902714403874     
  0.241008176362054     
  0.236060256246349     
  0.236512171529389     
  0.236981634652176     
  0.237439271087578     
  0.237868579886518     
  0.238263184629767     
  0.238622902617917     
  0.238950529704369     
  0.239249942103897     
  0.239525058423156     
  0.239779111701126     
  0.240013818312100     
  0.240228344346038     
  0.240418131509975     
  0.240574359516999     
  0.234386088069182     
  0.235057732648410     
  0.235714055341979     
  0.236320295555356     
  0.236864225372619     
  0.237347743329062     
  0.237778245337674     
  0.238164325036047     
  0.238514347033154     
  0.238835942669641     
  0.239135738127780     
  0.239418863774060     
  0.239687266851219     
  0.239937562655762     
  0.240158617635705     
  0.232637333355521     
  0.233594818517388     
  0.234472804903042     
  0.235235608761927     
  0.235889932859837     
  0.236454627567798     
  0.236947557608160     
  0.237384159774004     
  0.237777603492914     
  0.238139378062448     
  0.238479854251704     
  0.238808544211089     
  0.239133732324119     
  0.239455673816961     
  0.239762266875698     
  0.230866030714553     
  0.232214728020541     
  0.233330068276659     
  0.234231304518850     
  0.234976064011328     
  0.235604200984421     
  0.236144652137067     
  0.236619175302567     
  0.237045078525105     
  0.237437103686078     
  0.237808928670256     
  0.238174648882126     
  0.238550193446475     
  0.238956597651829     
  0.239379710211530     
  0.229300874528743     
  0.231095959022323     
  0.232368000262973     
  0.233353749950714     
  0.234150668486328     
  0.234814660473734     
  0.235381792044448     
  0.235877628248244     
  0.236321843675935     
  0.236731013634116     
  0.237120761405364     
  0.237508080752940     
  0.237915209091735     
  0.238377819433916     
  0.238992825097630     
