# vtk DataFile Version 3.0
vtk output
ASCII
DATASET UNSTRUCTURED_GRID
POINTS       496 double 
  0.00000000E+00  3.00000000E+02  0.00000000E+00
  0.00000000E+00  2.80000000E+02  0.00000000E+00
  0.00000000E+00  2.60000000E+02  0.00000000E+00
  0.00000000E+00  2.40000000E+02  0.00000000E+00
  0.00000000E+00  2.20000000E+02  0.00000000E+00
  0.00000000E+00  2.00000000E+02  0.00000000E+00
  0.00000000E+00  1.80000000E+02  0.00000000E+00
  0.00000000E+00  1.60000000E+02  0.00000000E+00
  0.00000000E+00  1.40000000E+02  0.00000000E+00
  0.00000000E+00  1.20000000E+02  0.00000000E+00
  0.00000000E+00  1.00000000E+02  0.00000000E+00
  0.00000000E+00  8.00000000E+01  0.00000000E+00
  0.00000000E+00  6.00000000E+01  0.00000000E+00
  0.00000000E+00  4.00000000E+01  0.00000000E+00
  0.00000000E+00  2.00000000E+01  0.00000000E+00
  0.00000000E+00  4.99600361E-14  0.00000000E+00
  2.00000000E+01  3.00000000E+02  0.00000000E+00
  2.00000000E+01  2.80000000E+02  0.00000000E+00
  2.00000000E+01  2.60000000E+02  0.00000000E+00
  2.00000000E+01  2.40000000E+02  0.00000000E+00
  2.00000000E+01  2.20000000E+02  0.00000000E+00
  2.00000000E+01  2.00000000E+02  0.00000000E+00
  2.00000000E+01  1.80000000E+02  0.00000000E+00
  2.00000000E+01  1.60000000E+02  0.00000000E+00
  2.00000000E+01  1.40000000E+02  0.00000000E+00
  2.00000000E+01  1.20000000E+02  0.00000000E+00
  2.00000000E+01  1.00000000E+02  0.00000000E+00
  2.00000000E+01  8.00000000E+01  0.00000000E+00
  2.00000000E+01  6.00000000E+01  0.00000000E+00
  2.00000000E+01  4.00000000E+01  0.00000000E+00
  2.00000000E+01  2.00000000E+01  0.00000000E+00
  2.00000000E+01  4.99600361E-14  0.00000000E+00
  4.00000000E+01  3.00000000E+02  0.00000000E+00
  4.00000000E+01  2.80000000E+02  0.00000000E+00
  4.00000000E+01  2.60000000E+02  0.00000000E+00
  4.00000000E+01  2.40000000E+02  0.00000000E+00
  4.00000000E+01  2.20000000E+02  0.00000000E+00
  4.00000000E+01  2.00000000E+02  0.00000000E+00
  4.00000000E+01  1.80000000E+02  0.00000000E+00
  4.00000000E+01  1.60000000E+02  0.00000000E+00
  4.00000000E+01  1.40000000E+02  0.00000000E+00
  4.00000000E+01  1.20000000E+02  0.00000000E+00
  4.00000000E+01  1.00000000E+02  0.00000000E+00
  4.00000000E+01  8.00000000E+01  0.00000000E+00
  4.00000000E+01  6.00000000E+01  0.00000000E+00
  4.00000000E+01  4.00000000E+01  0.00000000E+00
  4.00000000E+01  2.00000000E+01  0.00000000E+00
  4.00000000E+01  4.99600361E-14  0.00000000E+00
  6.00000000E+01  3.00000000E+02  0.00000000E+00
  6.00000000E+01  2.80000000E+02  0.00000000E+00
  6.00000000E+01  2.60000000E+02  0.00000000E+00
  6.00000000E+01  2.40000000E+02  0.00000000E+00
  6.00000000E+01  2.20000000E+02  0.00000000E+00
  6.00000000E+01  2.00000000E+02  0.00000000E+00
  6.00000000E+01  1.80000000E+02  0.00000000E+00
  6.00000000E+01  1.60000000E+02  0.00000000E+00
  6.00000000E+01  1.40000000E+02  0.00000000E+00
  6.00000000E+01  1.20000000E+02  0.00000000E+00
  6.00000000E+01  1.00000000E+02  0.00000000E+00
  6.00000000E+01  8.00000000E+01  0.00000000E+00
  6.00000000E+01  6.00000000E+01  0.00000000E+00
  6.00000000E+01  4.00000000E+01  0.00000000E+00
  6.00000000E+01  2.00000000E+01  0.00000000E+00
  6.00000000E+01  4.99600361E-14  0.00000000E+00
  8.00000000E+01  3.00000000E+02  0.00000000E+00
  8.00000000E+01  2.80000000E+02  0.00000000E+00
  8.00000000E+01  2.60000000E+02  0.00000000E+00
  8.00000000E+01  2.40000000E+02  0.00000000E+00
  8.00000000E+01  2.20000000E+02  0.00000000E+00
  8.00000000E+01  2.00000000E+02  0.00000000E+00
  8.00000000E+01  1.80000000E+02  0.00000000E+00
  8.00000000E+01  1.60000000E+02  0.00000000E+00
  8.00000000E+01  1.40000000E+02  0.00000000E+00
  8.00000000E+01  1.20000000E+02  0.00000000E+00
  8.00000000E+01  1.00000000E+02  0.00000000E+00
  8.00000000E+01  8.00000000E+01  0.00000000E+00
  8.00000000E+01  6.00000000E+01  0.00000000E+00
  8.00000000E+01  4.00000000E+01  0.00000000E+00
  8.00000000E+01  2.00000000E+01  0.00000000E+00
  8.00000000E+01  4.99600361E-14  0.00000000E+00
  1.00000000E+02  3.00000000E+02  0.00000000E+00
  1.00000000E+02  2.80000000E+02  0.00000000E+00
  1.00000000E+02  2.60000000E+02  0.00000000E+00
  1.00000000E+02  2.40000000E+02  0.00000000E+00
  1.00000000E+02  2.20000000E+02  0.00000000E+00
  1.00000000E+02  2.00000000E+02  0.00000000E+00
  1.00000000E+02  1.80000000E+02  0.00000000E+00
  1.00000000E+02  1.60000000E+02  0.00000000E+00
  1.00000000E+02  1.40000000E+02  0.00000000E+00
  1.00000000E+02  1.20000000E+02  0.00000000E+00
  1.00000000E+02  1.00000000E+02  0.00000000E+00
  1.00000000E+02  8.00000000E+01  0.00000000E+00
  1.00000000E+02  6.00000000E+01  0.00000000E+00
  1.00000000E+02  4.00000000E+01  0.00000000E+00
  1.00000000E+02  2.00000000E+01  0.00000000E+00
  1.00000000E+02  4.99600361E-14  0.00000000E+00
  1.20000000E+02  3.00000000E+02  0.00000000E+00
  1.20000000E+02  2.80000000E+02  0.00000000E+00
  1.20000000E+02  2.60000000E+02  0.00000000E+00
  1.20000000E+02  2.40000000E+02  0.00000000E+00
  1.20000000E+02  2.20000000E+02  0.00000000E+00
  1.20000000E+02  2.00000000E+02  0.00000000E+00
  1.20000000E+02  1.80000000E+02  0.00000000E+00
  1.20000000E+02  1.60000000E+02  0.00000000E+00
  1.20000000E+02  1.40000000E+02  0.00000000E+00
  1.20000000E+02  1.20000000E+02  0.00000000E+00
  1.20000000E+02  1.00000000E+02  0.00000000E+00
  1.20000000E+02  8.00000000E+01  0.00000000E+00
  1.20000000E+02  6.00000000E+01  0.00000000E+00
  1.20000000E+02  4.00000000E+01  0.00000000E+00
  1.20000000E+02  2.00000000E+01  0.00000000E+00
  1.20000000E+02  4.99600361E-14  0.00000000E+00
  1.40000000E+02  3.00000000E+02  0.00000000E+00
  1.40000000E+02  2.80000000E+02  0.00000000E+00
  1.40000000E+02  2.60000000E+02  0.00000000E+00
  1.40000000E+02  2.40000000E+02  0.00000000E+00
  1.40000000E+02  2.20000000E+02  0.00000000E+00
  1.40000000E+02  2.00000000E+02  0.00000000E+00
  1.40000000E+02  1.80000000E+02  0.00000000E+00
  1.40000000E+02  1.60000000E+02  0.00000000E+00
  1.40000000E+02  1.40000000E+02  0.00000000E+00
  1.40000000E+02  1.20000000E+02  0.00000000E+00
  1.40000000E+02  1.00000000E+02  0.00000000E+00
  1.40000000E+02  8.00000000E+01  0.00000000E+00
  1.40000000E+02  6.00000000E+01  0.00000000E+00
  1.40000000E+02  4.00000000E+01  0.00000000E+00
  1.40000000E+02  2.00000000E+01  0.00000000E+00
  1.40000000E+02  4.99600361E-14  0.00000000E+00
  1.60000000E+02  3.00000000E+02  0.00000000E+00
  1.60000000E+02  2.80000000E+02  0.00000000E+00
  1.60000000E+02  2.60000000E+02  0.00000000E+00
  1.60000000E+02  2.40000000E+02  0.00000000E+00
  1.60000000E+02  2.20000000E+02  0.00000000E+00
  1.60000000E+02  2.00000000E+02  0.00000000E+00
  1.60000000E+02  1.80000000E+02  0.00000000E+00
  1.60000000E+02  1.60000000E+02  0.00000000E+00
  1.60000000E+02  1.40000000E+02  0.00000000E+00
  1.60000000E+02  1.20000000E+02  0.00000000E+00
  1.60000000E+02  1.00000000E+02  0.00000000E+00
  1.60000000E+02  8.00000000E+01  0.00000000E+00
  1.60000000E+02  6.00000000E+01  0.00000000E+00
  1.60000000E+02  4.00000000E+01  0.00000000E+00
  1.60000000E+02  2.00000000E+01  0.00000000E+00
  1.60000000E+02  4.99600361E-14  0.00000000E+00
  1.80000000E+02  3.00000000E+02  0.00000000E+00
  1.80000000E+02  2.80000000E+02  0.00000000E+00
  1.80000000E+02  2.60000000E+02  0.00000000E+00
  1.80000000E+02  2.40000000E+02  0.00000000E+00
  1.80000000E+02  2.20000000E+02  0.00000000E+00
  1.80000000E+02  2.00000000E+02  0.00000000E+00
  1.80000000E+02  1.80000000E+02  0.00000000E+00
  1.80000000E+02  1.60000000E+02  0.00000000E+00
  1.80000000E+02  1.40000000E+02  0.00000000E+00
  1.80000000E+02  1.20000000E+02  0.00000000E+00
  1.80000000E+02  1.00000000E+02  0.00000000E+00
  1.80000000E+02  8.00000000E+01  0.00000000E+00
  1.80000000E+02  6.00000000E+01  0.00000000E+00
  1.80000000E+02  4.00000000E+01  0.00000000E+00
  1.80000000E+02  2.00000000E+01  0.00000000E+00
  1.80000000E+02  4.99600361E-14  0.00000000E+00
  2.00000000E+02  3.00000000E+02  0.00000000E+00
  2.00000000E+02  2.80000000E+02  0.00000000E+00
  2.00000000E+02  2.60000000E+02  0.00000000E+00
  2.00000000E+02  2.40000000E+02  0.00000000E+00
  2.00000000E+02  2.20000000E+02  0.00000000E+00
  2.00000000E+02  2.00000000E+02  0.00000000E+00
  2.00000000E+02  1.80000000E+02  0.00000000E+00
  2.00000000E+02  1.60000000E+02  0.00000000E+00
  2.00000000E+02  1.40000000E+02  0.00000000E+00
  2.00000000E+02  1.20000000E+02  0.00000000E+00
  2.00000000E+02  1.00000000E+02  0.00000000E+00
  2.00000000E+02  8.00000000E+01  0.00000000E+00
  2.00000000E+02  6.00000000E+01  0.00000000E+00
  2.00000000E+02  4.00000000E+01  0.00000000E+00
  2.00000000E+02  2.00000000E+01  0.00000000E+00
  2.00000000E+02  4.99600361E-14  0.00000000E+00
  2.20000000E+02  3.00000000E+02  0.00000000E+00
  2.20000000E+02  2.80000000E+02  0.00000000E+00
  2.20000000E+02  2.60000000E+02  0.00000000E+00
  2.20000000E+02  2.40000000E+02  0.00000000E+00
  2.20000000E+02  2.20000000E+02  0.00000000E+00
  2.20000000E+02  2.00000000E+02  0.00000000E+00
  2.20000000E+02  1.80000000E+02  0.00000000E+00
  2.20000000E+02  1.60000000E+02  0.00000000E+00
  2.20000000E+02  1.40000000E+02  0.00000000E+00
  2.20000000E+02  1.20000000E+02  0.00000000E+00
  2.20000000E+02  1.00000000E+02  0.00000000E+00
  2.20000000E+02  8.00000000E+01  0.00000000E+00
  2.20000000E+02  6.00000000E+01  0.00000000E+00
  2.20000000E+02  4.00000000E+01  0.00000000E+00
  2.20000000E+02  2.00000000E+01  0.00000000E+00
  2.20000000E+02  4.99600361E-14  0.00000000E+00
  2.40000000E+02  3.00000000E+02  0.00000000E+00
  2.40000000E+02  2.80000000E+02  0.00000000E+00
  2.40000000E+02  2.60000000E+02  0.00000000E+00
  2.40000000E+02  2.40000000E+02  0.00000000E+00
  2.40000000E+02  2.20000000E+02  0.00000000E+00
  2.40000000E+02  2.00000000E+02  0.00000000E+00
  2.40000000E+02  1.80000000E+02  0.00000000E+00
  2.40000000E+02  1.60000000E+02  0.00000000E+00
  2.40000000E+02  1.40000000E+02  0.00000000E+00
  2.40000000E+02  1.20000000E+02  0.00000000E+00
  2.40000000E+02  1.00000000E+02  0.00000000E+00
  2.40000000E+02  8.00000000E+01  0.00000000E+00
  2.40000000E+02  6.00000000E+01  0.00000000E+00
  2.40000000E+02  4.00000000E+01  0.00000000E+00
  2.40000000E+02  2.00000000E+01  0.00000000E+00
  2.40000000E+02  4.99600361E-14  0.00000000E+00
  2.60000000E+02  3.00000000E+02  0.00000000E+00
  2.60000000E+02  2.80000000E+02  0.00000000E+00
  2.60000000E+02  2.60000000E+02  0.00000000E+00
  2.60000000E+02  2.40000000E+02  0.00000000E+00
  2.60000000E+02  2.20000000E+02  0.00000000E+00
  2.60000000E+02  2.00000000E+02  0.00000000E+00
  2.60000000E+02  1.80000000E+02  0.00000000E+00
  2.60000000E+02  1.60000000E+02  0.00000000E+00
  2.60000000E+02  1.40000000E+02  0.00000000E+00
  2.60000000E+02  1.20000000E+02  0.00000000E+00
  2.60000000E+02  1.00000000E+02  0.00000000E+00
  2.60000000E+02  8.00000000E+01  0.00000000E+00
  2.60000000E+02  6.00000000E+01  0.00000000E+00
  2.60000000E+02  4.00000000E+01  0.00000000E+00
  2.60000000E+02  2.00000000E+01  0.00000000E+00
  2.60000000E+02  4.99600361E-14  0.00000000E+00
  2.80000000E+02  3.00000000E+02  0.00000000E+00
  2.80000000E+02  2.80000000E+02  0.00000000E+00
  2.80000000E+02  2.60000000E+02  0.00000000E+00
  2.80000000E+02  2.40000000E+02  0.00000000E+00
  2.80000000E+02  2.20000000E+02  0.00000000E+00
  2.80000000E+02  2.00000000E+02  0.00000000E+00
  2.80000000E+02  1.80000000E+02  0.00000000E+00
  2.80000000E+02  1.60000000E+02  0.00000000E+00
  2.80000000E+02  1.40000000E+02  0.00000000E+00
  2.80000000E+02  1.20000000E+02  0.00000000E+00
  2.80000000E+02  1.00000000E+02  0.00000000E+00
  2.80000000E+02  8.00000000E+01  0.00000000E+00
  2.80000000E+02  6.00000000E+01  0.00000000E+00
  2.80000000E+02  4.00000000E+01  0.00000000E+00
  2.80000000E+02  2.00000000E+01  0.00000000E+00
  2.80000000E+02  4.99600361E-14  0.00000000E+00
  3.00000000E+02  3.00000000E+02  0.00000000E+00
  3.00000000E+02  2.80000000E+02  0.00000000E+00
  3.00000000E+02  2.60000000E+02  0.00000000E+00
  3.00000000E+02  2.40000000E+02  0.00000000E+00
  3.00000000E+02  2.20000000E+02  0.00000000E+00
  3.00000000E+02  2.00000000E+02  0.00000000E+00
  3.00000000E+02  1.80000000E+02  0.00000000E+00
  3.00000000E+02  1.60000000E+02  0.00000000E+00
  3.00000000E+02  1.40000000E+02  0.00000000E+00
  3.00000000E+02  1.20000000E+02  0.00000000E+00
  3.00000000E+02  1.00000000E+02  0.00000000E+00
  3.00000000E+02  8.00000000E+01  0.00000000E+00
  3.00000000E+02  6.00000000E+01  0.00000000E+00
  3.00000000E+02  4.00000000E+01  0.00000000E+00
  3.00000000E+02  2.00000000E+01  0.00000000E+00
  3.00000000E+02  4.99600361E-14  0.00000000E+00
  3.20000000E+02  3.00000000E+02  0.00000000E+00
  3.20000000E+02  2.80000000E+02  0.00000000E+00
  3.20000000E+02  2.60000000E+02  0.00000000E+00
  3.20000000E+02  2.40000000E+02  0.00000000E+00
  3.20000000E+02  2.20000000E+02  0.00000000E+00
  3.20000000E+02  2.00000000E+02  0.00000000E+00
  3.20000000E+02  1.80000000E+02  0.00000000E+00
  3.20000000E+02  1.60000000E+02  0.00000000E+00
  3.20000000E+02  1.40000000E+02  0.00000000E+00
  3.20000000E+02  1.20000000E+02  0.00000000E+00
  3.20000000E+02  1.00000000E+02  0.00000000E+00
  3.20000000E+02  8.00000000E+01  0.00000000E+00
  3.20000000E+02  6.00000000E+01  0.00000000E+00
  3.20000000E+02  4.00000000E+01  0.00000000E+00
  3.20000000E+02  2.00000000E+01  0.00000000E+00
  3.20000000E+02  4.99600361E-14  0.00000000E+00
  3.40000000E+02  3.00000000E+02  0.00000000E+00
  3.40000000E+02  2.80000000E+02  0.00000000E+00
  3.40000000E+02  2.60000000E+02  0.00000000E+00
  3.40000000E+02  2.40000000E+02  0.00000000E+00
  3.40000000E+02  2.20000000E+02  0.00000000E+00
  3.40000000E+02  2.00000000E+02  0.00000000E+00
  3.40000000E+02  1.80000000E+02  0.00000000E+00
  3.40000000E+02  1.60000000E+02  0.00000000E+00
  3.40000000E+02  1.40000000E+02  0.00000000E+00
  3.40000000E+02  1.20000000E+02  0.00000000E+00
  3.40000000E+02  1.00000000E+02  0.00000000E+00
  3.40000000E+02  8.00000000E+01  0.00000000E+00
  3.40000000E+02  6.00000000E+01  0.00000000E+00
  3.40000000E+02  4.00000000E+01  0.00000000E+00
  3.40000000E+02  2.00000000E+01  0.00000000E+00
  3.40000000E+02  4.99600361E-14  0.00000000E+00
  3.60000000E+02  3.00000000E+02  0.00000000E+00
  3.60000000E+02  2.80000000E+02  0.00000000E+00
  3.60000000E+02  2.60000000E+02  0.00000000E+00
  3.60000000E+02  2.40000000E+02  0.00000000E+00
  3.60000000E+02  2.20000000E+02  0.00000000E+00
  3.60000000E+02  2.00000000E+02  0.00000000E+00
  3.60000000E+02  1.80000000E+02  0.00000000E+00
  3.60000000E+02  1.60000000E+02  0.00000000E+00
  3.60000000E+02  1.40000000E+02  0.00000000E+00
  3.60000000E+02  1.20000000E+02  0.00000000E+00
  3.60000000E+02  1.00000000E+02  0.00000000E+00
  3.60000000E+02  8.00000000E+01  0.00000000E+00
  3.60000000E+02  6.00000000E+01  0.00000000E+00
  3.60000000E+02  4.00000000E+01  0.00000000E+00
  3.60000000E+02  2.00000000E+01  0.00000000E+00
  3.60000000E+02  4.99600361E-14  0.00000000E+00
  3.80000000E+02  3.00000000E+02  0.00000000E+00
  3.80000000E+02  2.80000000E+02  0.00000000E+00
  3.80000000E+02  2.60000000E+02  0.00000000E+00
  3.80000000E+02  2.40000000E+02  0.00000000E+00
  3.80000000E+02  2.20000000E+02  0.00000000E+00
  3.80000000E+02  2.00000000E+02  0.00000000E+00
  3.80000000E+02  1.80000000E+02  0.00000000E+00
  3.80000000E+02  1.60000000E+02  0.00000000E+00
  3.80000000E+02  1.40000000E+02  0.00000000E+00
  3.80000000E+02  1.20000000E+02  0.00000000E+00
  3.80000000E+02  1.00000000E+02  0.00000000E+00
  3.80000000E+02  8.00000000E+01  0.00000000E+00
  3.80000000E+02  6.00000000E+01  0.00000000E+00
  3.80000000E+02  4.00000000E+01  0.00000000E+00
  3.80000000E+02  2.00000000E+01  0.00000000E+00
  3.80000000E+02  4.99600361E-14  0.00000000E+00
  4.00000000E+02  3.00000000E+02  0.00000000E+00
  4.00000000E+02  2.80000000E+02  0.00000000E+00
  4.00000000E+02  2.60000000E+02  0.00000000E+00
  4.00000000E+02  2.40000000E+02  0.00000000E+00
  4.00000000E+02  2.20000000E+02  0.00000000E+00
  4.00000000E+02  2.00000000E+02  0.00000000E+00
  4.00000000E+02  1.80000000E+02  0.00000000E+00
  4.00000000E+02  1.60000000E+02  0.00000000E+00
  4.00000000E+02  1.40000000E+02  0.00000000E+00
  4.00000000E+02  1.20000000E+02  0.00000000E+00
  4.00000000E+02  1.00000000E+02  0.00000000E+00
  4.00000000E+02  8.00000000E+01  0.00000000E+00
  4.00000000E+02  6.00000000E+01  0.00000000E+00
  4.00000000E+02  4.00000000E+01  0.00000000E+00
  4.00000000E+02  2.00000000E+01  0.00000000E+00
  4.00000000E+02  4.99600361E-14  0.00000000E+00
  4.20000000E+02  3.00000000E+02  0.00000000E+00
  4.20000000E+02  2.80000000E+02  0.00000000E+00
  4.20000000E+02  2.60000000E+02  0.00000000E+00
  4.20000000E+02  2.40000000E+02  0.00000000E+00
  4.20000000E+02  2.20000000E+02  0.00000000E+00
  4.20000000E+02  2.00000000E+02  0.00000000E+00
  4.20000000E+02  1.80000000E+02  0.00000000E+00
  4.20000000E+02  1.60000000E+02  0.00000000E+00
  4.20000000E+02  1.40000000E+02  0.00000000E+00
  4.20000000E+02  1.20000000E+02  0.00000000E+00
  4.20000000E+02  1.00000000E+02  0.00000000E+00
  4.20000000E+02  8.00000000E+01  0.00000000E+00
  4.20000000E+02  6.00000000E+01  0.00000000E+00
  4.20000000E+02  4.00000000E+01  0.00000000E+00
  4.20000000E+02  2.00000000E+01  0.00000000E+00
  4.20000000E+02  4.99600361E-14  0.00000000E+00
  4.40000000E+02  3.00000000E+02  0.00000000E+00
  4.40000000E+02  2.80000000E+02  0.00000000E+00
  4.40000000E+02  2.60000000E+02  0.00000000E+00
  4.40000000E+02  2.40000000E+02  0.00000000E+00
  4.40000000E+02  2.20000000E+02  0.00000000E+00
  4.40000000E+02  2.00000000E+02  0.00000000E+00
  4.40000000E+02  1.80000000E+02  0.00000000E+00
  4.40000000E+02  1.60000000E+02  0.00000000E+00
  4.40000000E+02  1.40000000E+02  0.00000000E+00
  4.40000000E+02  1.20000000E+02  0.00000000E+00
  4.40000000E+02  1.00000000E+02  0.00000000E+00
  4.40000000E+02  8.00000000E+01  0.00000000E+00
  4.40000000E+02  6.00000000E+01  0.00000000E+00
  4.40000000E+02  4.00000000E+01  0.00000000E+00
  4.40000000E+02  2.00000000E+01  0.00000000E+00
  4.40000000E+02  4.99600361E-14  0.00000000E+00
  4.60000000E+02  3.00000000E+02  0.00000000E+00
  4.60000000E+02  2.80000000E+02  0.00000000E+00
  4.60000000E+02  2.60000000E+02  0.00000000E+00
  4.60000000E+02  2.40000000E+02  0.00000000E+00
  4.60000000E+02  2.20000000E+02  0.00000000E+00
  4.60000000E+02  2.00000000E+02  0.00000000E+00
  4.60000000E+02  1.80000000E+02  0.00000000E+00
  4.60000000E+02  1.60000000E+02  0.00000000E+00
  4.60000000E+02  1.40000000E+02  0.00000000E+00
  4.60000000E+02  1.20000000E+02  0.00000000E+00
  4.60000000E+02  1.00000000E+02  0.00000000E+00
  4.60000000E+02  8.00000000E+01  0.00000000E+00
  4.60000000E+02  6.00000000E+01  0.00000000E+00
  4.60000000E+02  4.00000000E+01  0.00000000E+00
  4.60000000E+02  2.00000000E+01  0.00000000E+00
  4.60000000E+02  4.99600361E-14  0.00000000E+00
  4.80000000E+02  3.00000000E+02  0.00000000E+00
  4.80000000E+02  2.80000000E+02  0.00000000E+00
  4.80000000E+02  2.60000000E+02  0.00000000E+00
  4.80000000E+02  2.40000000E+02  0.00000000E+00
  4.80000000E+02  2.20000000E+02  0.00000000E+00
  4.80000000E+02  2.00000000E+02  0.00000000E+00
  4.80000000E+02  1.80000000E+02  0.00000000E+00
  4.80000000E+02  1.60000000E+02  0.00000000E+00
  4.80000000E+02  1.40000000E+02  0.00000000E+00
  4.80000000E+02  1.20000000E+02  0.00000000E+00
  4.80000000E+02  1.00000000E+02  0.00000000E+00
  4.80000000E+02  8.00000000E+01  0.00000000E+00
  4.80000000E+02  6.00000000E+01  0.00000000E+00
  4.80000000E+02  4.00000000E+01  0.00000000E+00
  4.80000000E+02  2.00000000E+01  0.00000000E+00
  4.80000000E+02  4.99600361E-14  0.00000000E+00
  5.00000000E+02  3.00000000E+02  0.00000000E+00
  5.00000000E+02  2.80000000E+02  0.00000000E+00
  5.00000000E+02  2.60000000E+02  0.00000000E+00
  5.00000000E+02  2.40000000E+02  0.00000000E+00
  5.00000000E+02  2.20000000E+02  0.00000000E+00
  5.00000000E+02  2.00000000E+02  0.00000000E+00
  5.00000000E+02  1.80000000E+02  0.00000000E+00
  5.00000000E+02  1.60000000E+02  0.00000000E+00
  5.00000000E+02  1.40000000E+02  0.00000000E+00
  5.00000000E+02  1.20000000E+02  0.00000000E+00
  5.00000000E+02  1.00000000E+02  0.00000000E+00
  5.00000000E+02  8.00000000E+01  0.00000000E+00
  5.00000000E+02  6.00000000E+01  0.00000000E+00
  5.00000000E+02  4.00000000E+01  0.00000000E+00
  5.00000000E+02  2.00000000E+01  0.00000000E+00
  5.00000000E+02  4.99600361E-14  0.00000000E+00
  5.20000000E+02  3.00000000E+02  0.00000000E+00
  5.20000000E+02  2.80000000E+02  0.00000000E+00
  5.20000000E+02  2.60000000E+02  0.00000000E+00
  5.20000000E+02  2.40000000E+02  0.00000000E+00
  5.20000000E+02  2.20000000E+02  0.00000000E+00
  5.20000000E+02  2.00000000E+02  0.00000000E+00
  5.20000000E+02  1.80000000E+02  0.00000000E+00
  5.20000000E+02  1.60000000E+02  0.00000000E+00
  5.20000000E+02  1.40000000E+02  0.00000000E+00
  5.20000000E+02  1.20000000E+02  0.00000000E+00
  5.20000000E+02  1.00000000E+02  0.00000000E+00
  5.20000000E+02  8.00000000E+01  0.00000000E+00
  5.20000000E+02  6.00000000E+01  0.00000000E+00
  5.20000000E+02  4.00000000E+01  0.00000000E+00
  5.20000000E+02  2.00000000E+01  0.00000000E+00
  5.20000000E+02  4.99600361E-14  0.00000000E+00
  5.40000000E+02  3.00000000E+02  0.00000000E+00
  5.40000000E+02  2.80000000E+02  0.00000000E+00
  5.40000000E+02  2.60000000E+02  0.00000000E+00
  5.40000000E+02  2.40000000E+02  0.00000000E+00
  5.40000000E+02  2.20000000E+02  0.00000000E+00
  5.40000000E+02  2.00000000E+02  0.00000000E+00
  5.40000000E+02  1.80000000E+02  0.00000000E+00
  5.40000000E+02  1.60000000E+02  0.00000000E+00
  5.40000000E+02  1.40000000E+02  0.00000000E+00
  5.40000000E+02  1.20000000E+02  0.00000000E+00
  5.40000000E+02  1.00000000E+02  0.00000000E+00
  5.40000000E+02  8.00000000E+01  0.00000000E+00
  5.40000000E+02  6.00000000E+01  0.00000000E+00
  5.40000000E+02  4.00000000E+01  0.00000000E+00
  5.40000000E+02  2.00000000E+01  0.00000000E+00
  5.40000000E+02  4.99600361E-14  0.00000000E+00
  5.60000000E+02  3.00000000E+02  0.00000000E+00
  5.60000000E+02  2.80000000E+02  0.00000000E+00
  5.60000000E+02  2.60000000E+02  0.00000000E+00
  5.60000000E+02  2.40000000E+02  0.00000000E+00
  5.60000000E+02  2.20000000E+02  0.00000000E+00
  5.60000000E+02  2.00000000E+02  0.00000000E+00
  5.60000000E+02  1.80000000E+02  0.00000000E+00
  5.60000000E+02  1.60000000E+02  0.00000000E+00
  5.60000000E+02  1.40000000E+02  0.00000000E+00
  5.60000000E+02  1.20000000E+02  0.00000000E+00
  5.60000000E+02  1.00000000E+02  0.00000000E+00
  5.60000000E+02  8.00000000E+01  0.00000000E+00
  5.60000000E+02  6.00000000E+01  0.00000000E+00
  5.60000000E+02  4.00000000E+01  0.00000000E+00
  5.60000000E+02  2.00000000E+01  0.00000000E+00
  5.60000000E+02  4.99600361E-14  0.00000000E+00
  5.80000000E+02  3.00000000E+02  0.00000000E+00
  5.80000000E+02  2.80000000E+02  0.00000000E+00
  5.80000000E+02  2.60000000E+02  0.00000000E+00
  5.80000000E+02  2.40000000E+02  0.00000000E+00
  5.80000000E+02  2.20000000E+02  0.00000000E+00
  5.80000000E+02  2.00000000E+02  0.00000000E+00
  5.80000000E+02  1.80000000E+02  0.00000000E+00
  5.80000000E+02  1.60000000E+02  0.00000000E+00
  5.80000000E+02  1.40000000E+02  0.00000000E+00
  5.80000000E+02  1.20000000E+02  0.00000000E+00
  5.80000000E+02  1.00000000E+02  0.00000000E+00
  5.80000000E+02  8.00000000E+01  0.00000000E+00
  5.80000000E+02  6.00000000E+01  0.00000000E+00
  5.80000000E+02  4.00000000E+01  0.00000000E+00
  5.80000000E+02  2.00000000E+01  0.00000000E+00
  5.80000000E+02  4.99600361E-14  0.00000000E+00
  6.00000000E+02  3.00000000E+02  0.00000000E+00
  6.00000000E+02  2.80000000E+02  0.00000000E+00
  6.00000000E+02  2.60000000E+02  0.00000000E+00
  6.00000000E+02  2.40000000E+02  0.00000000E+00
  6.00000000E+02  2.20000000E+02  0.00000000E+00
  6.00000000E+02  2.00000000E+02  0.00000000E+00
  6.00000000E+02  1.80000000E+02  0.00000000E+00
  6.00000000E+02  1.60000000E+02  0.00000000E+00
  6.00000000E+02  1.40000000E+02  0.00000000E+00
  6.00000000E+02  1.20000000E+02  0.00000000E+00
  6.00000000E+02  1.00000000E+02  0.00000000E+00
  6.00000000E+02  8.00000000E+01  0.00000000E+00
  6.00000000E+02  6.00000000E+01  0.00000000E+00
  6.00000000E+02  4.00000000E+01  0.00000000E+00
  6.00000000E+02  2.00000000E+01  0.00000000E+00
  6.00000000E+02  4.99600361E-14  0.00000000E+00
CELLS       450      2250
         4           0           1          17          16
         4           1           2          18          17
         4           2           3          19          18
         4           3           4          20          19
         4           4           5          21          20
         4           5           6          22          21
         4           6           7          23          22
         4           7           8          24          23
         4           8           9          25          24
         4           9          10          26          25
         4          10          11          27          26
         4          11          12          28          27
         4          12          13          29          28
         4          13          14          30          29
         4          14          15          31          30
         4          16          17          33          32
         4          17          18          34          33
         4          18          19          35          34
         4          19          20          36          35
         4          20          21          37          36
         4          21          22          38          37
         4          22          23          39          38
         4          23          24          40          39
         4          24          25          41          40
         4          25          26          42          41
         4          26          27          43          42
         4          27          28          44          43
         4          28          29          45          44
         4          29          30          46          45
         4          30          31          47          46
         4          32          33          49          48
         4          33          34          50          49
         4          34          35          51          50
         4          35          36          52          51
         4          36          37          53          52
         4          37          38          54          53
         4          38          39          55          54
         4          39          40          56          55
         4          40          41          57          56
         4          41          42          58          57
         4          42          43          59          58
         4          43          44          60          59
         4          44          45          61          60
         4          45          46          62          61
         4          46          47          63          62
         4          48          49          65          64
         4          49          50          66          65
         4          50          51          67          66
         4          51          52          68          67
         4          52          53          69          68
         4          53          54          70          69
         4          54          55          71          70
         4          55          56          72          71
         4          56          57          73          72
         4          57          58          74          73
         4          58          59          75          74
         4          59          60          76          75
         4          60          61          77          76
         4          61          62          78          77
         4          62          63          79          78
         4          64          65          81          80
         4          65          66          82          81
         4          66          67          83          82
         4          67          68          84          83
         4          68          69          85          84
         4          69          70          86          85
         4          70          71          87          86
         4          71          72          88          87
         4          72          73          89          88
         4          73          74          90          89
         4          74          75          91          90
         4          75          76          92          91
         4          76          77          93          92
         4          77          78          94          93
         4          78          79          95          94
         4          80          81          97          96
         4          81          82          98          97
         4          82          83          99          98
         4          83          84         100          99
         4          84          85         101         100
         4          85          86         102         101
         4          86          87         103         102
         4          87          88         104         103
         4          88          89         105         104
         4          89          90         106         105
         4          90          91         107         106
         4          91          92         108         107
         4          92          93         109         108
         4          93          94         110         109
         4          94          95         111         110
         4          96          97         113         112
         4          97          98         114         113
         4          98          99         115         114
         4          99         100         116         115
         4         100         101         117         116
         4         101         102         118         117
         4         102         103         119         118
         4         103         104         120         119
         4         104         105         121         120
         4         105         106         122         121
         4         106         107         123         122
         4         107         108         124         123
         4         108         109         125         124
         4         109         110         126         125
         4         110         111         127         126
         4         112         113         129         128
         4         113         114         130         129
         4         114         115         131         130
         4         115         116         132         131
         4         116         117         133         132
         4         117         118         134         133
         4         118         119         135         134
         4         119         120         136         135
         4         120         121         137         136
         4         121         122         138         137
         4         122         123         139         138
         4         123         124         140         139
         4         124         125         141         140
         4         125         126         142         141
         4         126         127         143         142
         4         128         129         145         144
         4         129         130         146         145
         4         130         131         147         146
         4         131         132         148         147
         4         132         133         149         148
         4         133         134         150         149
         4         134         135         151         150
         4         135         136         152         151
         4         136         137         153         152
         4         137         138         154         153
         4         138         139         155         154
         4         139         140         156         155
         4         140         141         157         156
         4         141         142         158         157
         4         142         143         159         158
         4         144         145         161         160
         4         145         146         162         161
         4         146         147         163         162
         4         147         148         164         163
         4         148         149         165         164
         4         149         150         166         165
         4         150         151         167         166
         4         151         152         168         167
         4         152         153         169         168
         4         153         154         170         169
         4         154         155         171         170
         4         155         156         172         171
         4         156         157         173         172
         4         157         158         174         173
         4         158         159         175         174
         4         160         161         177         176
         4         161         162         178         177
         4         162         163         179         178
         4         163         164         180         179
         4         164         165         181         180
         4         165         166         182         181
         4         166         167         183         182
         4         167         168         184         183
         4         168         169         185         184
         4         169         170         186         185
         4         170         171         187         186
         4         171         172         188         187
         4         172         173         189         188
         4         173         174         190         189
         4         174         175         191         190
         4         176         177         193         192
         4         177         178         194         193
         4         178         179         195         194
         4         179         180         196         195
         4         180         181         197         196
         4         181         182         198         197
         4         182         183         199         198
         4         183         184         200         199
         4         184         185         201         200
         4         185         186         202         201
         4         186         187         203         202
         4         187         188         204         203
         4         188         189         205         204
         4         189         190         206         205
         4         190         191         207         206
         4         192         193         209         208
         4         193         194         210         209
         4         194         195         211         210
         4         195         196         212         211
         4         196         197         213         212
         4         197         198         214         213
         4         198         199         215         214
         4         199         200         216         215
         4         200         201         217         216
         4         201         202         218         217
         4         202         203         219         218
         4         203         204         220         219
         4         204         205         221         220
         4         205         206         222         221
         4         206         207         223         222
         4         208         209         225         224
         4         209         210         226         225
         4         210         211         227         226
         4         211         212         228         227
         4         212         213         229         228
         4         213         214         230         229
         4         214         215         231         230
         4         215         216         232         231
         4         216         217         233         232
         4         217         218         234         233
         4         218         219         235         234
         4         219         220         236         235
         4         220         221         237         236
         4         221         222         238         237
         4         222         223         239         238
         4         224         225         241         240
         4         225         226         242         241
         4         226         227         243         242
         4         227         228         244         243
         4         228         229         245         244
         4         229         230         246         245
         4         230         231         247         246
         4         231         232         248         247
         4         232         233         249         248
         4         233         234         250         249
         4         234         235         251         250
         4         235         236         252         251
         4         236         237         253         252
         4         237         238         254         253
         4         238         239         255         254
         4         240         241         257         256
         4         241         242         258         257
         4         242         243         259         258
         4         243         244         260         259
         4         244         245         261         260
         4         245         246         262         261
         4         246         247         263         262
         4         247         248         264         263
         4         248         249         265         264
         4         249         250         266         265
         4         250         251         267         266
         4         251         252         268         267
         4         252         253         269         268
         4         253         254         270         269
         4         254         255         271         270
         4         256         257         273         272
         4         257         258         274         273
         4         258         259         275         274
         4         259         260         276         275
         4         260         261         277         276
         4         261         262         278         277
         4         262         263         279         278
         4         263         264         280         279
         4         264         265         281         280
         4         265         266         282         281
         4         266         267         283         282
         4         267         268         284         283
         4         268         269         285         284
         4         269         270         286         285
         4         270         271         287         286
         4         272         273         289         288
         4         273         274         290         289
         4         274         275         291         290
         4         275         276         292         291
         4         276         277         293         292
         4         277         278         294         293
         4         278         279         295         294
         4         279         280         296         295
         4         280         281         297         296
         4         281         282         298         297
         4         282         283         299         298
         4         283         284         300         299
         4         284         285         301         300
         4         285         286         302         301
         4         286         287         303         302
         4         288         289         305         304
         4         289         290         306         305
         4         290         291         307         306
         4         291         292         308         307
         4         292         293         309         308
         4         293         294         310         309
         4         294         295         311         310
         4         295         296         312         311
         4         296         297         313         312
         4         297         298         314         313
         4         298         299         315         314
         4         299         300         316         315
         4         300         301         317         316
         4         301         302         318         317
         4         302         303         319         318
         4         304         305         321         320
         4         305         306         322         321
         4         306         307         323         322
         4         307         308         324         323
         4         308         309         325         324
         4         309         310         326         325
         4         310         311         327         326
         4         311         312         328         327
         4         312         313         329         328
         4         313         314         330         329
         4         314         315         331         330
         4         315         316         332         331
         4         316         317         333         332
         4         317         318         334         333
         4         318         319         335         334
         4         320         321         337         336
         4         321         322         338         337
         4         322         323         339         338
         4         323         324         340         339
         4         324         325         341         340
         4         325         326         342         341
         4         326         327         343         342
         4         327         328         344         343
         4         328         329         345         344
         4         329         330         346         345
         4         330         331         347         346
         4         331         332         348         347
         4         332         333         349         348
         4         333         334         350         349
         4         334         335         351         350
         4         336         337         353         352
         4         337         338         354         353
         4         338         339         355         354
         4         339         340         356         355
         4         340         341         357         356
         4         341         342         358         357
         4         342         343         359         358
         4         343         344         360         359
         4         344         345         361         360
         4         345         346         362         361
         4         346         347         363         362
         4         347         348         364         363
         4         348         349         365         364
         4         349         350         366         365
         4         350         351         367         366
         4         352         353         369         368
         4         353         354         370         369
         4         354         355         371         370
         4         355         356         372         371
         4         356         357         373         372
         4         357         358         374         373
         4         358         359         375         374
         4         359         360         376         375
         4         360         361         377         376
         4         361         362         378         377
         4         362         363         379         378
         4         363         364         380         379
         4         364         365         381         380
         4         365         366         382         381
         4         366         367         383         382
         4         368         369         385         384
         4         369         370         386         385
         4         370         371         387         386
         4         371         372         388         387
         4         372         373         389         388
         4         373         374         390         389
         4         374         375         391         390
         4         375         376         392         391
         4         376         377         393         392
         4         377         378         394         393
         4         378         379         395         394
         4         379         380         396         395
         4         380         381         397         396
         4         381         382         398         397
         4         382         383         399         398
         4         384         385         401         400
         4         385         386         402         401
         4         386         387         403         402
         4         387         388         404         403
         4         388         389         405         404
         4         389         390         406         405
         4         390         391         407         406
         4         391         392         408         407
         4         392         393         409         408
         4         393         394         410         409
         4         394         395         411         410
         4         395         396         412         411
         4         396         397         413         412
         4         397         398         414         413
         4         398         399         415         414
         4         400         401         417         416
         4         401         402         418         417
         4         402         403         419         418
         4         403         404         420         419
         4         404         405         421         420
         4         405         406         422         421
         4         406         407         423         422
         4         407         408         424         423
         4         408         409         425         424
         4         409         410         426         425
         4         410         411         427         426
         4         411         412         428         427
         4         412         413         429         428
         4         413         414         430         429
         4         414         415         431         430
         4         416         417         433         432
         4         417         418         434         433
         4         418         419         435         434
         4         419         420         436         435
         4         420         421         437         436
         4         421         422         438         437
         4         422         423         439         438
         4         423         424         440         439
         4         424         425         441         440
         4         425         426         442         441
         4         426         427         443         442
         4         427         428         444         443
         4         428         429         445         444
         4         429         430         446         445
         4         430         431         447         446
         4         432         433         449         448
         4         433         434         450         449
         4         434         435         451         450
         4         435         436         452         451
         4         436         437         453         452
         4         437         438         454         453
         4         438         439         455         454
         4         439         440         456         455
         4         440         441         457         456
         4         441         442         458         457
         4         442         443         459         458
         4         443         444         460         459
         4         444         445         461         460
         4         445         446         462         461
         4         446         447         463         462
         4         448         449         465         464
         4         449         450         466         465
         4         450         451         467         466
         4         451         452         468         467
         4         452         453         469         468
         4         453         454         470         469
         4         454         455         471         470
         4         455         456         472         471
         4         456         457         473         472
         4         457         458         474         473
         4         458         459         475         474
         4         459         460         476         475
         4         460         461         477         476
         4         461         462         478         477
         4         462         463         479         478
         4         464         465         481         480
         4         465         466         482         481
         4         466         467         483         482
         4         467         468         484         483
         4         468         469         485         484
         4         469         470         486         485
         4         470         471         487         486
         4         471         472         488         487
         4         472         473         489         488
         4         473         474         490         489
         4         474         475         491         490
         4         475         476         492         491
         4         476         477         493         492
         4         477         478         494         493
         4         478         479         495         494
CELL_TYPES        450
9
9
9
9
9
9
9
9
9
9
9
9
9
9
9
9
9
9
9
9
9
9
9
9
9
9
9
9
9
9
9
9
9
9
9
9
9
9
9
9
9
9
9
9
9
9
9
9
9
9
9
9
9
9
9
9
9
9
9
9
9
9
9
9
9
9
9
9
9
9
9
9
9
9
9
9
9
9
9
9
9
9
9
9
9
9
9
9
9
9
9
9
9
9
9
9
9
9
9
9
9
9
9
9
9
9
9
9
9
9
9
9
9
9
9
9
9
9
9
9
9
9
9
9
9
9
9
9
9
9
9
9
9
9
9
9
9
9
9
9
9
9
9
9
9
9
9
9
9
9
9
9
9
9
9
9
9
9
9
9
9
9
9
9
9
9
9
9
9
9
9
9
9
9
9
9
9
9
9
9
9
9
9
9
9
9
9
9
9
9
9
9
9
9
9
9
9
9
9
9
9
9
9
9
9
9
9
9
9
9
9
9
9
9
9
9
9
9
9
9
9
9
9
9
9
9
9
9
9
9
9
9
9
9
9
9
9
9
9
9
9
9
9
9
9
9
9
9
9
9
9
9
9
9
9
9
9
9
9
9
9
9
9
9
9
9
9
9
9
9
9
9
9
9
9
9
9
9
9
9
9
9
9
9
9
9
9
9
9
9
9
9
9
9
9
9
9
9
9
9
9
9
9
9
9
9
9
9
9
9
9
9
9
9
9
9
9
9
9
9
9
9
9
9
9
9
9
9
9
9
9
9
9
9
9
9
9
9
9
9
9
9
9
9
9
9
9
9
9
9
9
9
9
9
9
9
9
9
9
9
9
9
9
9
9
9
9
9
9
9
9
9
9
9
9
9
9
9
9
9
9
9
9
9
9
9
9
9
9
9
9
9
9
9
9
9
9
9
9
9
9
9
9
9
9
9
9
9
9
9
9
9
9
9
9
9
9
9
9
9
9
9
9
9
9
9
9
9
9
9
9
9
9
9
9
9
9
9
9
9
9
9
9
9
9
9
9
9
9
9
POINT_DATA       496
SCALARS p double 
LOOKUP_TABLE default
   55236244.3595742     
   55262631.5842980     
   55337293.0065571     
   55452817.4777201     
   55601226.6026754     
   55774320.9008535     
   55963942.8178468     
   56162156.3011861     
   56361350.9426246     
   56554284.9300364     
   56734085.2390181     
   56894225.9892168     
   57028506.9960856     
   57131054.1002642     
   57196360.1894064     
   57219380.3876972     
   55228079.1927820     
   55254819.6841722     
   55330439.4555913     
   55447380.6651449     
   55597528.4808355     
   55772561.9241383     
   55964219.3836489     
   56164478.5842404     
   56365659.2599588     
   56560463.2243508     
   56741970.7575816     
   56903614.6683398     
   57039154.4031498     
   57142672.0566056     
   57208609.4772308     
   57231860.0993575     
   55203924.8202060     
   55231725.7683759     
   55310223.1530836     
   55431416.7243087     
   55586780.8644193     
   55767629.2284347     
   55965387.9017419     
   56171776.4788004     
   56378906.1551575     
   56579310.9201380     
   56765932.2722725     
   56932080.1392455     
   57071393.4177011     
   57177822.8170612     
   57245656.0084970     
   57269599.8821576     
   55164435.9766554     
   55194008.4092861     
   55277309.9906446     
   55405596.9953359     
   55569654.0653737     
   55760183.0713689     
   55968089.2699718     
   56184663.9815085     
   56401674.4525699     
   56611379.4668558     
   56806493.7448787     
   56980126.1016050     
   57125716.5699567     
   57236996.5932752     
   57307993.6861674     
   57333097.1522527     
   55110719.7890740     
   55142780.8315193     
   55232824.1681165     
   55371051.1272104     
   55547269.8337076     
   55751319.8696563     
   55973377.0598667     
   56204137.7499936     
   56434895.8308745     
   56657534.8486868     
   56864462.1434597     
   57048513.3496865     
   57202855.0791935     
   57320911.9376829     
   57396341.2518509     
   57423074.6454890     
   55044361.3971037     
   55079636.1885423     
   55178370.5557023     
   55329383.1667216     
   55521207.4056212     
   55742564.6863020     
   55982693.5106069     
   56231534.4367898     
   56479788.1583327     
   56718874.4172466     
   56940824.1038232     
   57138137.4597346     
   57303639.7098607     
   57430362.9741641     
   57511480.3973281     
   57540314.9056299     
   54967461.2868525     
   55006683.6333430     
   55116065.7322542     
   55282692.5148366     
   55493509.0444866     
   55735856.4623701     
   55997830.4741479     
   56268464.4981326     
   56537760.4825663     
   56796602.5095598     
   57036592.7228051     
   57249848.4419981     
   57428796.2355224     
   57565995.1353205     
   57654018.0097164     
   57685417.4095089     
   54882681.4760660     
   54926592.4749128     
   55048574.4091581     
   55233595.5093699     
   55466679.5920166     
   55733519.2478842     
   56020867.4657771     
   56316713.7909449     
   56610276.4179913     
   56891855.2408682     
   57152594.6433779     
   57384202.3112916     
   57578665.2069789     
   57727998.7504580     
   57824061.6514288     
   57858467.0416581     
   54793294.7845879     
   54842638.4561207     
   54979144.4214043     
   55185239.3091055     
   55443669.9337774     
   55738207.6673963     
   56054073.7588957     
   56378099.0924254     
   56698661.7402834     
   57005460.3259499     
   57289183.5356182     
   57541130.9634273     
   57752832.5843695     
   57915707.0434569     
   58020794.6609886     
   58058600.1732538     
   54703227.6184171     
   54758741.9546337     
   54911628.2923397     
   55141293.5886965     
   55427827.3125098     
   55752807.4362037     
   56099754.0044489     
   56454256.5667310     
   56803835.5475285     
   57137612.2023189     
   57445861.4648397     
   57719513.0889720     
   57949654.9851749     
   58127082.9312581     
   58241935.4958036     
   58283452.9400640     
   54617080.2793083     
   54679480.8470975     
   54850470.9665310     
   55105895.7782370     
   55422784.7144404     
   55780260.7310333     
   56160006.1887940     
   56546332.4379406     
   56925935.8923830     
   57287435.8309458     
   57620784.3913054     
   57916625.2111640     
   58165661.0768681     
   58358077.9121496     
   58483065.5503381     
   58528476.1670179     
   54540097.2519879     
   54610048.3778509     
   54800629.2315427     
   55083510.0116665     
   55432245.2562194     
   55823270.1591911     
   56236345.8171601     
   56654532.0263302     
   57063799.9629504     
   57452404.2283746     
   57810122.2720172     
   58127448.5934982     
   58394809.4712228     
   58601846.9133947     
   58736811.4324186     
   58786103.5597382     
   54478040.0301252     
   54556105.4259609     
   54767365.5618699     
   55078635.9585543     
   55459593.6017184     
   55883812.6199673     
   56329130.2970471     
   56777466.6407777     
   57214245.8354399     
   57627565.4343561     
   58007238.5026703     
   58343805.4249558     
   58627584.1786551     
   58847806.1778511     
   58991872.6291962     
   59044765.4001445     
   54436882.7308810     
   54523443.0642924     
   54755824.0868656     
   55095268.6496751     
   55507233.3558192     
   55962364.9675120     
   56436692.8986166     
   56911218.4808411     
   57371088.7601788     
   57804525.6021320     
   58201649.1282513     
   58553297.7133531     
   58849912.5983745     
   59080528.4806001     
   59231895.0792497     
   59287750.5302318     
   54422201.1360811     
   54517320.7296729     
   54770245.7281536     
   55135962.5494716     
   55575507.1442181     
   56056708.5645563     
   56554068.8960978     
   57048024.7182232     
   57523813.0183575     
   57970129.1920372     
   58377722.0301676     
   58738027.0269944     
   59041900.2027149     
   59278483.0633125     
   59434207.2263574     
   59491936.7421474     
   54438054.3125973     
   54541273.9548158     
   54812611.7884370     
   55200293.7884318     
   55661008.5416134     
   56160145.2009196     
   56671174.0918954     
   57174469.9681151     
   57655816.8238888     
   58104780.2999027     
   58513084.7099338     
   58873086.2964963     
   59176393.4766453     
   59412649.1128587     
   59568459.8688193     
   59626435.9714185     
   54485063.3038357     
   54595093.8111977     
   54880424.5585418     
   55282451.8933851     
   55754053.5002652     
   56258935.3728079     
   56770290.9827239     
   57269083.6112643     
   57742163.1935639     
   58180369.8082058     
   58576733.3711345     
   58924841.7096541     
   59217412.3127136     
   59445064.4011729     
   59595246.9577056     
   59651238.1660730     
   54557281.7266840     
   54671578.9810317     
   54963256.4402448     
   55367648.0963177     
   55835067.6286613     
   56328785.8327609     
   56822752.7637370     
   57299284.3850798     
   57746820.3512043     
   58157824.2218560     
   58526885.6622096     
   58849070.5754815     
   59118540.0009626     
   59327418.2064953     
   59464833.7121002     
   59515988.2818632     
   54637357.4269040     
   54751583.8440410     
   55037665.5095983     
   55427045.1140050     
   55869707.8783041     
   56330305.9817434     
   56784823.7430913     
   57217726.6882677     
   57619482.6884903     
   57984390.3924477     
   58308707.1059972     
   58589098.6983327     
   58821428.8839045     
   58999863.0038503     
   59116182.3983095     
   59159095.2482854     
   54689470.5250245     
   54796904.8666003     
   55060162.9400369     
   55411068.7325687     
   55802739.8930574     
   56203577.0792399     
   56592999.3403919     
   56958313.4149503     
   57292251.6448389     
   57590933.7086250     
   57852179.9106415     
   58074197.1540550     
   58254677.7708922     
   58390304.3784047     
   58476544.0091438     
   58507448.0044691     
   54649732.3039599     
   54740796.7940336     
   54958255.2661305     
   55241366.0724669     
   55551122.1922266     
   55862396.2609196     
   56159331.1779043     
   56432476.0180644     
   56676743.1999344     
   56889768.3346279     
   57070581.3676518     
   57218658.8823512     
   57333465.1899244     
   57414531.1766591     
   57461970.4473521     
   57477094.7324485     
   54414357.8944512     
   54476599.6448221     
   54620351.6855686     
   54802460.4311709     
   54997486.7453692     
   55189409.8257276     
   55367937.2510533     
   55526784.4725326     
   55662570.4350923     
   55773851.5575011     
   55860292.9155732     
   55922175.6058363     
   55960474.0793590     
   55977658.2362011     
   55979182.9216842     
   55975311.2467939     
   53827278.5972436     
   53846351.7260758     
   53886707.0498904     
   53935406.5070964     
   53986262.4086306     
   54034198.4741164     
   54074524.0045497     
   54103476.0666623     
   54118571.8738284     
   54118517.2786918     
   54102937.1581662     
   54072349.0108398     
   54028795.1386604     
   53977447.8046497     
   53929280.6654563     
   53904513.2437060     
   52671210.4942712     
   52633558.6868289     
   52545605.3708434     
   52437372.2301672     
   52325878.6164269     
   52217209.9762702     
   52111327.1112720     
   52005912.7138914     
   51898482.0319845     
   51787188.6285995     
   51671055.2250455     
   51550331.3898177     
   51427593.8485636     
   51310104.6337230     
   51213742.2738894     
   51168405.9568989     
   50669483.2039865     
   50567282.9954321     
   50341265.1435133     
   50072529.9186816     
   49801265.4689150     
   49542769.1671458     
   49299977.2473847     
   49070980.6134184     
   48852723.1302984     
   48642499.0819100     
   48438532.7959667     
   48240574.4112355     
   48051269.9046123     
   47879021.4369637     
   47742988.4120367     
   47680545.3738917     
   47509104.2962217     
   47347213.2659615     
   47001159.9585393     
   46599701.3756182     
   46200219.3395223     
   45823467.4922241     
   45473858.3503561     
   45149611.1837289     
   44847294.8857456     
   44563678.1039515     
   44296519.4403249     
   44045276.5881689     
   43812476.4535808     
   43606570.8229605     
   43447351.4549604     
   43375033.3099661     
   42895704.5577541     
   42698568.1261667     
   42288139.0752244     
   41818979.3305295     
   41353856.9221748     
   40915268.1786392     
   40509059.8825287     
   40134564.5278606     
   39789032.5624566     
   39469620.2542994     
   39174394.8213533     
   38903144.8897203     
   38658546.0682179     
   38448288.6506413     
   38289569.1990294     
   38218341.1415631     
   36643615.3387714     
   36457581.3295844     
   36073994.3032876     
   35631298.8210624     
   35184683.1492961     
   34757597.8645145     
   34359120.5099488     
   33991428.7698246     
   33653764.8003422     
   33344661.5384421     
   33063288.2532640     
   32810456.8436684     
   32589584.9570676     
   32407721.5553511     
   32276903.9792999     
   32220331.6770994     
   28786094.5984669     
   28670775.9774906     
   28414460.2582408     
   28092029.4181150     
   27747457.1567307     
   27407219.5208353     
   27084682.1416038     
   26785344.0029297     
   26510783.4842862     
   26261204.8776891     
   26037080.2081549     
   25840344.5838901     
   25675337.8941295     
   25549169.2027938     
   25470117.3841911     
   25441373.9732214     
   19669481.1619125     
   19666364.5049570     
   19582090.8777030     
   19428544.5218260     
   19243875.8869036     
   19052562.4582761     
   18867364.4380445     
   18694096.1375549     
   18535081.6933745     
   18391299.6111952     
   18263740.3346443     
   18154398.0500114     
   18067101.6056928     
   18007986.7217204     
   17984292.4264978     
   17993399.1502883     
   10000000.0000000     
   10000000.0000000     
   10000000.0000000     
   10000000.0000000     
   10000000.0000000     
   10000000.0000000     
   10000000.0000000     
   10000000.0000000     
   10000000.0000000     
   10000000.0000000     
   10000000.0000000     
   10000000.0000000     
   10000000.0000000     
  10000000.00000000     
   10000000.0000000     
   10000000.0000000     
VECTORS u double 
    0.00000E+00        -0.19506E+00         0.00000E+00
    0.00000E+00        -0.17138E+00         0.00000E+00
    0.00000E+00        -0.14823E+00         0.00000E+00
    0.00000E+00        -0.12608E+00         0.00000E+00
    0.00000E+00        -0.10531E+00         0.00000E+00
    0.00000E+00        -0.86231E-01         0.00000E+00
    0.00000E+00        -0.69055E-01         0.00000E+00
    0.00000E+00        -0.53920E-01         0.00000E+00
    0.00000E+00        -0.40886E-01         0.00000E+00
    0.00000E+00        -0.29944E-01         0.00000E+00
    0.00000E+00        -0.21018E-01         0.00000E+00
    0.00000E+00        -0.13970E-01         0.00000E+00
    0.00000E+00        -0.86095E-02         0.00000E+00
    0.00000E+00        -0.46916E-02         0.00000E+00
    0.00000E+00        -0.19295E-02         0.00000E+00
    0.00000E+00         0.00000E+00         0.00000E+00
    0.25907E-01        -0.19528E+00         0.00000E+00
    0.25218E-01        -0.17155E+00         0.00000E+00
    0.24076E-01        -0.14837E+00         0.00000E+00
    0.22560E-01        -0.12618E+00         0.00000E+00
    0.20751E-01        -0.10539E+00         0.00000E+00
    0.18725E-01        -0.86284E-01         0.00000E+00
    0.16556E-01        -0.69089E-01         0.00000E+00
    0.14313E-01        -0.53937E-01         0.00000E+00
    0.12059E-01        -0.40891E-01         0.00000E+00
    0.98525E-02        -0.29940E-01         0.00000E+00
    0.77439E-02        -0.21008E-01         0.00000E+00
    0.57788E-02        -0.13958E-01         0.00000E+00
    0.39956E-02        -0.85973E-02         0.00000E+00
    0.24256E-02        -0.46821E-02         0.00000E+00
    0.10904E-02        -0.19246E-02         0.00000E+00
    0.00000E+00         0.00000E+00         0.00000E+00
    0.52037E-01        -0.19595E+00         0.00000E+00
    0.50623E-01        -0.17210E+00         0.00000E+00
    0.48306E-01        -0.14881E+00         0.00000E+00
    0.45245E-01        -0.12652E+00         0.00000E+00
    0.41600E-01        -0.10564E+00         0.00000E+00
    0.37525E-01        -0.86465E-01         0.00000E+00
    0.33169E-01        -0.69210E-01         0.00000E+00
    0.28668E-01        -0.54010E-01         0.00000E+00
    0.24149E-01        -0.40926E-01         0.00000E+00
    0.19726E-01        -0.29946E-01         0.00000E+00
    0.15500E-01        -0.20994E-01         0.00000E+00
    0.11562E-01        -0.13932E-01         0.00000E+00
    0.79902E-02        -0.85690E-02         0.00000E+00
    0.48463E-02        -0.46592E-02         0.00000E+00
    0.21755E-02        -0.19127E-02         0.00000E+00
    0.00000E+00         0.00000E+00         0.00000E+00
    0.78615E-01        -0.19712E+00         0.00000E+00
    0.76404E-01        -0.17309E+00         0.00000E+00
    0.72845E-01        -0.14961E+00         0.00000E+00
    0.68178E-01        -0.12716E+00         0.00000E+00
    0.62645E-01        -0.10614E+00         0.00000E+00
    0.56478E-01        -0.86839E-01         0.00000E+00
    0.49899E-01        -0.69482E-01         0.00000E+00
    0.43112E-01        -0.54198E-01         0.00000E+00
    0.36304E-01        -0.41045E-01         0.00000E+00
    0.29645E-01        -0.30011E-01         0.00000E+00
    0.23285E-01        -0.21017E-01         0.00000E+00
    0.17360E-01        -0.13928E-01         0.00000E+00
    0.11987E-01        -0.85500E-02         0.00000E+00
    0.72605E-02        -0.46390E-02         0.00000E+00
    0.32521E-02        -0.19012E-02         0.00000E+00
    0.00000E+00         0.00000E+00         0.00000E+00
    0.10587E+00        -0.19890E+00         0.00000E+00
    0.10275E+00        -0.17460E+00         0.00000E+00
    0.97846E-01        -0.15087E+00         0.00000E+00
    0.91483E-01        -0.12820E+00         0.00000E+00
    0.83984E-01        -0.10698E+00         0.00000E+00
    0.75661E-01        -0.87514E-01         0.00000E+00
    0.66808E-01        -0.70013E-01         0.00000E+00
    0.57693E-01        -0.54605E-01         0.00000E+00
    0.48563E-01        -0.41345E-01         0.00000E+00
    0.39640E-01        -0.30220E-01         0.00000E+00
    0.31123E-01        -0.21150E-01         0.00000E+00
    0.23190E-01        -0.14002E-01         0.00000E+00
    0.15996E-01        -0.85834E-02         0.00000E+00
    0.96726E-02        -0.46493E-02         0.00000E+00
    0.43205E-02        -0.19032E-02         0.00000E+00
    0.00000E+00         0.00000E+00         0.00000E+00
    0.13402E+00        -0.20141E+00         0.00000E+00
    0.12985E+00        -0.17679E+00         0.00000E+00
    0.12346E+00        -0.15275E+00         0.00000E+00
    0.11528E+00        -0.12980E+00         0.00000E+00
    0.10571E+00        -0.10833E+00         0.00000E+00
    0.95152E-01        -0.88649E-01         0.00000E+00
    0.83958E-01        -0.70957E-01         0.00000E+00
    0.72465E-01        -0.55378E-01         0.00000E+00
    0.60973E-01        -0.41963E-01         0.00000E+00
    0.49753E-01        -0.30695E-01         0.00000E+00
    0.39049E-01        -0.21499E-01         0.00000E+00
    0.29080E-01        -0.14240E-01         0.00000E+00
    0.20039E-01        -0.87318E-02         0.00000E+00
    0.12096E-01        -0.47303E-02         0.00000E+00
    0.53863E-02        -0.19376E-02         0.00000E+00
    0.00000E+00         0.00000E+00         0.00000E+00
    0.16330E+00        -0.20483E+00         0.00000E+00
    0.15788E+00        -0.17983E+00         0.00000E+00
    0.14984E+00        -0.15543E+00         0.00000E+00
    0.13969E+00        -0.13216E+00         0.00000E+00
    0.12793E+00        -0.11040E+00         0.00000E+00
    0.11503E+00        -0.90454E-01         0.00000E+00
    0.10142E+00        -0.72519E-01         0.00000E+00
    0.87490E-01        -0.56714E-01         0.00000E+00
    0.73592E-01        -0.43080E-01         0.00000E+00
    0.60040E-01        -0.31602E-01         0.00000E+00
    0.47116E-01        -0.22203E-01         0.00000E+00
    0.35077E-01        -0.14756E-01         0.00000E+00
    0.24155E-01        -0.90789E-02         0.00000E+00
    0.14558E-01        -0.49359E-02         0.00000E+00
    0.64628E-02        -0.20298E-02         0.00000E+00
    0.00000E+00         0.00000E+00         0.00000E+00
    0.19394E+00        -0.20938E+00         0.00000E+00
    0.18703E+00        -0.18396E+00         0.00000E+00
    0.17712E+00        -0.15918E+00         0.00000E+00
    0.16482E+00        -0.13554E+00         0.00000E+00
    0.15072E+00        -0.11345E+00         0.00000E+00
    0.13537E+00        -0.93193E-01         0.00000E+00
    0.11926E+00        -0.74962E-01         0.00000E+00
    0.10284E+00        -0.58862E-01         0.00000E+00
    0.86490E-01        -0.44930E-01         0.00000E+00
    0.70571E-01        -0.33146E-01         0.00000E+00
    0.55393E-01        -0.23440E-01         0.00000E+00
    0.41247E-01        -0.15691E-01         0.00000E+00
    0.28400E-01        -0.97317E-02         0.00000E+00
    0.17101E-01        -0.53354E-02         0.00000E+00
    0.75727E-02        -0.22126E-02         0.00000E+00
    0.00000E+00         0.00000E+00         0.00000E+00
    0.22617E+00        -0.21535E+00         0.00000E+00
    0.21748E+00        -0.18949E+00         0.00000E+00
    0.20544E+00        -0.16428E+00         0.00000E+00
    0.19078E+00        -0.14026E+00         0.00000E+00
    0.17418E+00        -0.11780E+00         0.00000E+00
    0.15625E+00        -0.97195E-01         0.00000E+00
    0.13756E+00        -0.78607E-01         0.00000E+00
    0.11859E+00        -0.62132E-01         0.00000E+00
    0.99753E-01        -0.47798E-01         0.00000E+00
    0.81438E-01        -0.35586E-01         0.00000E+00
    0.63976E-01        -0.25430E-01         0.00000E+00
    0.47682E-01        -0.17226E-01         0.00000E+00
    0.32855E-01        -0.10823E-01         0.00000E+00
    0.19786E-01        -0.60150E-02         0.00000E+00
    0.87505E-02        -0.25269E-02         0.00000E+00
    0.00000E+00         0.00000E+00         0.00000E+00
    0.26021E+00        -0.22306E+00         0.00000E+00
    0.24939E+00        -0.19676E+00         0.00000E+00
    0.23493E+00        -0.17113E+00         0.00000E+00
    0.21766E+00        -0.14671E+00         0.00000E+00
    0.19837E+00        -0.12386E+00         0.00000E+00
    0.17775E+00        -0.10286E+00         0.00000E+00
    0.15639E+00        -0.83843E-01         0.00000E+00
    0.13482E+00        -0.66894E-01         0.00000E+00
    0.11348E+00        -0.52029E-01         0.00000E+00
    0.92755E-01        -0.39229E-01         0.00000E+00
    0.72986E-01        -0.28439E-01         0.00000E+00
    0.54503E-01        -0.19576E-01         0.00000E+00
    0.37631E-01        -0.12515E-01         0.00000E+00
    0.22699E-01        -0.70794E-02         0.00000E+00
    0.10045E-01        -0.30224E-02         0.00000E+00
    0.00000E+00         0.00000E+00         0.00000E+00
    0.29628E+00        -0.23292E+00         0.00000E+00
    0.28292E+00        -0.20620E+00         0.00000E+00
    0.26568E+00        -0.18016E+00         0.00000E+00
    0.24554E+00        -0.15534E+00         0.00000E+00
    0.22337E+00        -0.13210E+00         0.00000E+00
    0.19992E+00        -0.11065E+00         0.00000E+00
    0.17583E+00        -0.91130E-01         0.00000E+00
    0.15165E+00        -0.73587E-01         0.00000E+00
    0.12780E+00        -0.58030E-01         0.00000E+00
    0.10466E+00        -0.44441E-01         0.00000E+00
    0.82572E-01        -0.32781E-01         0.00000E+00
    0.61862E-01        -0.22995E-01         0.00000E+00
    0.42866E-01        -0.14996E-01         0.00000E+00
    0.25953E-01        -0.86534E-02         0.00000E+00
    0.11522E-01        -0.37588E-02         0.00000E+00
    0.00000E+00         0.00000E+00         0.00000E+00
    0.33458E+00        -0.24542E+00         0.00000E+00
    0.31819E+00        -0.21831E+00         0.00000E+00
    0.29779E+00        -0.19191E+00         0.00000E+00
    0.27448E+00        -0.16671E+00         0.00000E+00
    0.24921E+00        -0.14306E+00         0.00000E+00
    0.22282E+00        -0.12112E+00         0.00000E+00
    0.19596E+00        -0.10100E+00         0.00000E+00
    0.16916E+00        -0.82721E-01         0.00000E+00
    0.14283E+00        -0.66272E-01         0.00000E+00
    0.11731E+00        -0.51642E-01         0.00000E+00
    0.92915E-01        -0.38816E-01         0.00000E+00
    0.69944E-01        -0.27777E-01         0.00000E+00
    0.48736E-01        -0.18490E-01         0.00000E+00
    0.29687E-01        -0.10882E-01         0.00000E+00
    0.13264E-01        -0.48060E-02         0.00000E+00
    0.00000E+00         0.00000E+00         0.00000E+00
    0.37530E+00        -0.26110E+00         0.00000E+00
    0.35532E+00        -0.23369E+00         0.00000E+00
    0.33130E+00        -0.20698E+00         0.00000E+00
    0.30448E+00        -0.18145E+00         0.00000E+00
    0.27592E+00        -0.15738E+00         0.00000E+00
    0.24649E+00        -0.13491E+00         0.00000E+00
    0.21684E+00        -0.11408E+00         0.00000E+00
    0.18746E+00        -0.94874E-01         0.00000E+00
    0.15872E+00        -0.77285E-01         0.00000E+00
    0.13089E+00        -0.61307E-01         0.00000E+00
    0.10422E+00        -0.46954E-01         0.00000E+00
    0.78970E-01        -0.34256E-01         0.00000E+00
    0.55450E-01        -0.23248E-01         0.00000E+00
    0.34075E-01        -0.13932E-01         0.00000E+00
    0.15373E-01        -0.62441E-02         0.00000E+00
    0.00000E+00         0.00000E+00         0.00000E+00
    0.41859E+00        -0.28065E+00         0.00000E+00
    0.39436E+00        -0.25304E+00         0.00000E+00
    0.36620E+00        -0.22610E+00         0.00000E+00
    0.33552E+00        -0.20029E+00         0.00000E+00
    0.30346E+00        -0.17581E+00         0.00000E+00
    0.27092E+00        -0.15273E+00         0.00000E+00
    0.23851E+00        -0.13104E+00         0.00000E+00
    0.20666E+00        -0.11069E+00         0.00000E+00
    0.17564E+00        -0.91661E-01         0.00000E+00
    0.14561E+00        -0.73960E-01         0.00000E+00
    0.11673E+00        -0.57641E-01         0.00000E+00
    0.89188E-01        -0.42798E-01         0.00000E+00
    0.63246E-01        -0.29545E-01         0.00000E+00
    0.39313E-01        -0.17986E-01         0.00000E+00
    0.17972E-01        -0.81632E-02         0.00000E+00
    0.00000E+00         0.00000E+00         0.00000E+00
    0.46456E+00        -0.30484E+00         0.00000E+00
    0.43531E+00        -0.27716E+00         0.00000E+00
    0.40243E+00        -0.25011E+00         0.00000E+00
    0.36751E+00        -0.22407E+00         0.00000E+00
    0.33177E+00        -0.19916E+00         0.00000E+00
    0.29609E+00        -0.17538E+00         0.00000E+00
    0.26101E+00        -0.15264E+00         0.00000E+00
    0.22685E+00        -0.13087E+00         0.00000E+00
    0.19372E+00        -0.11003E+00         0.00000E+00
    0.16166E+00        -0.90157E-01         0.00000E+00
    0.13069E+00        -0.71355E-01         0.00000E+00
    0.10087E+00        -0.53792E-01         0.00000E+00
    0.72388E-01        -0.37681E-01         0.00000E+00
    0.45627E-01        -0.23244E-01         0.00000E+00
    0.21199E-01        -0.10662E-01         0.00000E+00
    0.00000E+00         0.00000E+00         0.00000E+00
    0.51327E+00        -0.33463E+00         0.00000E+00
    0.47809E+00        -0.30701E+00         0.00000E+00
    0.43983E+00        -0.27996E+00         0.00000E+00
    0.40028E+00        -0.25374E+00         0.00000E+00
    0.36070E+00        -0.22837E+00         0.00000E+00
    0.32190E+00        -0.20373E+00         0.00000E+00
    0.28431E+00        -0.17969E+00         0.00000E+00
    0.24807E+00        -0.15614E+00         0.00000E+00
    0.21310E+00        -0.13304E+00         0.00000E+00
    0.17924E+00        -0.11047E+00         0.00000E+00
    0.14633E+00        -0.88580E-01         0.00000E+00
    0.11428E+00        -0.67634E-01         0.00000E+00
    0.83150E-01        -0.47958E-01         0.00000E+00
    0.53252E-01        -0.29913E-01         0.00000E+00
    0.25204E-01        -0.13843E-01         0.00000E+00
    0.00000E+00         0.00000E+00         0.00000E+00
    0.56465E+00        -0.37112E+00         0.00000E+00
    0.52247E+00        -0.34371E+00         0.00000E+00
    0.47811E+00        -0.31675E+00         0.00000E+00
    0.43352E+00        -0.29036E+00         0.00000E+00
    0.38998E+00        -0.26442E+00         0.00000E+00
    0.34818E+00        -0.23871E+00         0.00000E+00
    0.30833E+00        -0.21302E+00         0.00000E+00
    0.27033E+00        -0.18724E+00         0.00000E+00
    0.23386E+00        -0.16134E+00         0.00000E+00
    0.19851E+00        -0.13544E+00         0.00000E+00
    0.16388E+00        -0.10978E+00         0.00000E+00
    0.12967E+00        -0.84707E-01         0.00000E+00
    0.95789E-01        -0.60673E-01         0.00000E+00
    0.62421E-01        -0.38197E-01         0.00000E+00
    0.30139E-01        -0.17813E-01         0.00000E+00
    0.00000E+00         0.00000E+00         0.00000E+00
    0.61849E+00        -0.41567E+00         0.00000E+00
    0.56805E+00        -0.38858E+00         0.00000E+00
    0.51680E+00        -0.36175E+00         0.00000E+00
    0.46680E+00        -0.33511E+00         0.00000E+00
    0.41926E+00        -0.30838E+00         0.00000E+00
    0.37464E+00        -0.28124E+00         0.00000E+00
    0.33288E+00        -0.25344E+00         0.00000E+00
    0.29355E+00        -0.22485E+00         0.00000E+00
    0.25600E+00        -0.19550E+00         0.00000E+00
    0.21953E+00        -0.16557E+00         0.00000E+00
    0.18346E+00        -0.13536E+00         0.00000E+00
    0.14722E+00        -0.10534E+00         0.00000E+00
    0.11051E+00        -0.76090E-01         0.00000E+00
    0.73332E-01        -0.48285E-01         0.00000E+00
    0.36143E-01        -0.22673E-01         0.00000E+00
    0.00000E+00         0.00000E+00         0.00000E+00
    0.67434E+00        -0.46989E+00         0.00000E+00
    0.61419E+00        -0.44312E+00         0.00000E+00
    0.55518E+00        -0.41634E+00         0.00000E+00
    0.49944E+00        -0.38923E+00         0.00000E+00
    0.44796E+00        -0.36132E+00         0.00000E+00
    0.40085E+00        -0.33222E+00         0.00000E+00
    0.35764E+00        -0.30165E+00         0.00000E+00
    0.31749E+00        -0.26954E+00         0.00000E+00
    0.27938E+00        -0.23597E+00         0.00000E+00
    0.24224E+00        -0.20119E+00         0.00000E+00
    0.20507E+00        -0.16561E+00         0.00000E+00
    0.16700E+00        -0.12979E+00         0.00000E+00
    0.12743E+00        -0.94412E-01         0.00000E+00
    0.86115E-01        -0.60331E-01         0.00000E+00
    0.43322E-01        -0.28511E-01         0.00000E+00
    0.00000E+00         0.00000E+00         0.00000E+00
    0.73135E+00        -0.53572E+00         0.00000E+00
    0.65983E+00        -0.50908E+00         0.00000E+00
    0.59221E+00        -0.48205E+00         0.00000E+00
    0.53050E+00        -0.45398E+00         0.00000E+00
    0.47528E+00        -0.42424E+00         0.00000E+00
    0.42615E+00        -0.39239E+00         0.00000E+00
    0.38208E+00        -0.35820E+00         0.00000E+00
    0.34173E+00        -0.32167E+00         0.00000E+00
    0.30365E+00        -0.28299E+00         0.00000E+00
    0.26636E+00        -0.24249E+00         0.00000E+00
    0.22849E+00        -0.20066E+00         0.00000E+00
    0.18885E+00        -0.15815E+00         0.00000E+00
    0.14647E+00        -0.11575E+00         0.00000E+00
    0.10077E+00        -0.74435E-01         0.00000E+00
    0.51716E-01        -0.35396E-01         0.00000E+00
    0.00000E+00         0.00000E+00         0.00000E+00
    0.78811E+00        -0.61542E+00         0.00000E+00
    0.70339E+00        -0.58841E+00         0.00000E+00
    0.62637E+00        -0.56045E+00         0.00000E+00
    0.55865E+00        -0.53055E+00         0.00000E+00
    0.50011E+00        -0.49796E+00         0.00000E+00
    0.44959E+00        -0.46226E+00         0.00000E+00
    0.40537E+00        -0.42332E+00         0.00000E+00
    0.36554E+00        -0.38129E+00         0.00000E+00
    0.32813E+00        -0.33648E+00         0.00000E+00
    0.29127E+00        -0.28932E+00         0.00000E+00
    0.25320E+00        -0.24039E+00         0.00000E+00
    0.21233E+00        -0.19035E+00         0.00000E+00
    0.16731E+00        -0.14007E+00         0.00000E+00
    0.11712E+00        -0.90616E-01         0.00000E+00
    0.61258E-01        -0.43362E-01         0.00000E+00
    0.00000E+00         0.00000E+00         0.00000E+00
    0.84233E+00        -0.71157E+00         0.00000E+00
    0.74254E+00        -0.68313E+00         0.00000E+00
    0.65558E+00        -0.65303E+00         0.00000E+00
    0.58212E+00        -0.61991E+00         0.00000E+00
    0.52094E+00        -0.58296E+00         0.00000E+00
    0.46986E+00        -0.54188E+00         0.00000E+00
    0.42634E+00        -0.49677E+00         0.00000E+00
    0.38778E+00        -0.44797E+00         0.00000E+00
    0.35174E+00        -0.39594E+00         0.00000E+00
    0.31592E+00        -0.34120E+00         0.00000E+00
    0.27819E+00        -0.28435E+00         0.00000E+00
    0.23658E+00        -0.22606E+00         0.00000E+00
    0.18926E+00        -0.16717E+00         0.00000E+00
    0.13469E+00        -0.10879E+00         0.00000E+00
    0.71731E-01        -0.52403E-01         0.00000E+00
    0.00000E+00         0.00000E+00         0.00000E+00
    0.89048E+00        -0.82690E+00         0.00000E+00
    0.77397E+00        -0.79520E+00         0.00000E+00
    0.67698E+00        -0.76096E+00         0.00000E+00
    0.59851E+00        -0.72250E+00         0.00000E+00
    0.53574E+00        -0.67909E+00         0.00000E+00
    0.48516E+00        -0.63069E+00         0.00000E+00
    0.44326E+00        -0.57771E+00         0.00000E+00
    0.40679E+00        -0.52073E+00         0.00000E+00
    0.37281E+00        -0.46036E+00         0.00000E+00
    0.33867E+00        -0.39718E+00         0.00000E+00
    0.30192E+00        -0.33176E+00         0.00000E+00
    0.26018E+00        -0.26467E+00         0.00000E+00
    0.21115E+00        -0.19666E+00         0.00000E+00
    0.15264E+00        -0.12875E+00         0.00000E+00
    0.82705E-01        -0.62460E-01         0.00000E+00
    0.00000E+00         0.00000E+00         0.00000E+00
    0.92735E+00        -0.96397E+00         0.00000E+00
    0.79315E+00        -0.92610E+00         0.00000E+00
    0.68686E+00        -0.88472E+00         0.00000E+00
    0.60479E+00        -0.83794E+00         0.00000E+00
    0.54190E+00        -0.78531E+00         0.00000E+00
    0.49310E+00        -0.72722E+00         0.00000E+00
    0.45383E+00        -0.66445E+00         0.00000E+00
    0.42022E+00        -0.59784E+00         0.00000E+00
    0.38897E+00        -0.52809E+00         0.00000E+00
    0.35716E+00        -0.45579E+00         0.00000E+00
    0.32207E+00        -0.38137E+00         0.00000E+00
    0.28101E+00        -0.30523E+00         0.00000E+00
    0.23118E+00        -0.22788E+00         0.00000E+00
    0.16965E+00        -0.15014E+00         0.00000E+00
    0.93477E-01        -0.73413E-01         0.00000E+00
    0.00000E+00         0.00000E+00         0.00000E+00
    0.94556E+00        -0.11245E+01         0.00000E+00
    0.79410E+00        -0.10762E+01         0.00000E+00
    0.68053E+00        -0.10235E+01         0.00000E+00
    0.59719E+00        -0.96451E+00         0.00000E+00
    0.53617E+00        -0.89932E+00         0.00000E+00
    0.49061E+00        -0.82888E+00         0.00000E+00
    0.45499E+00        -0.75436E+00         0.00000E+00
    0.42497E+00        -0.67677E+00         0.00000E+00
    0.39703E+00        -0.59684E+00         0.00000E+00
    0.36815E+00        -0.51502E+00         0.00000E+00
    0.33550E+00        -0.43152E+00         0.00000E+00
    0.29614E+00        -0.34645E+00         0.00000E+00
    0.24683E+00        -0.25995E+00         0.00000E+00
    0.18383E+00        -0.17246E+00         0.00000E+00
    0.10301E+00        -0.85073E-01         0.00000E+00
    0.00000E+00         0.00000E+00         0.00000E+00
    0.93524E+00        -0.13083E+01         0.00000E+00
    0.76941E+00        -0.12439E+01         0.00000E+00
    0.65248E+00        -0.11744E+01         0.00000E+00
    0.57131E+00        -0.10986E+01         0.00000E+00
    0.51464E+00        -0.10171E+01         0.00000E+00
    0.47390E+00        -0.93172E+00         0.00000E+00
    0.44288E+00        -0.84372E+00         0.00000E+00
    0.41703E+00        -0.75419E+00         0.00000E+00
    0.39288E+00        -0.66367E+00         0.00000E+00
    0.36751E+00        -0.57236E+00         0.00000E+00
    0.33814E+00        -0.48015E+00         0.00000E+00
    0.30173E+00        -0.38673E+00         0.00000E+00
    0.25472E+00        -0.29173E+00         0.00000E+00
    0.19260E+00        -0.19504E+00         0.00000E+00
    0.10984E+00        -0.97187E-01         0.00000E+00
    0.00000E+00         0.00000E+00         0.00000E+00
    0.88402E+00        -0.15119E+01         0.00000E+00
    0.71054E+00        -0.14242E+01         0.00000E+00
    0.59666E+00        -0.13317E+01         0.00000E+00
    0.52234E+00        -0.12340E+01         0.00000E+00
    0.47287E+00        -0.11328E+01         0.00000E+00
    0.43848E+00        -0.10303E+01         0.00000E+00
    0.41281E+00        -0.92784E+00         0.00000E+00
    0.39156E+00        -0.82606E+00         0.00000E+00
    0.37157E+00        -0.72517E+00         0.00000E+00
    0.35024E+00        -0.62495E+00         0.00000E+00
    0.32502E+00        -0.52487E+00         0.00000E+00
    0.29303E+00        -0.42414E+00         0.00000E+00
    0.25057E+00        -0.32184E+00         0.00000E+00
    0.19258E+00        -0.21706E+00         0.00000E+00
    0.11206E+00        -0.10943E+00         0.00000E+00
    0.00000E+00         0.00000E+00         0.00000E+00
    0.77760E+00        -0.17262E+01         0.00000E+00
    0.60870E+00        -0.16075E+01         0.00000E+00
    0.50730E+00        -0.14854E+01         0.00000E+00
    0.44544E+00        -0.13614E+01         0.00000E+00
    0.40596E+00        -0.12384E+01         0.00000E+00
    0.37917E+00        -0.11181E+01         0.00000E+00
    0.35938E+00        -0.10013E+01         0.00000E+00
    0.34300E+00        -0.88797E+00         0.00000E+00
    0.32746E+00        -0.77770E+00         0.00000E+00
    0.31065E+00        -0.66974E+00         0.00000E+00
    0.29048E+00        -0.56311E+00         0.00000E+00
    0.26446E+00        -0.45658E+00         0.00000E+00
    0.22920E+00        -0.34864E+00         0.00000E+00
    0.17948E+00        -0.23747E+00         0.00000E+00
    0.10709E+00        -0.12139E+00         0.00000E+00
    0.00000E+00         0.00000E+00         0.00000E+00
    0.60116E+00        -0.19342E+01         0.00000E+00
    0.45672E+00        -0.17770E+01         0.00000E+00
    0.37997E+00        -0.16203E+01         0.00000E+00
    0.33600E+00        -0.14684E+01         0.00000E+00
    0.30865E+00        -0.13241E+01         0.00000E+00
    0.29027E+00        -0.11877E+01         0.00000E+00
    0.27669E+00        -0.10585E+01         0.00000E+00
    0.26538E+00        -0.93565E+00         0.00000E+00
    0.25456E+00        -0.81785E+00         0.00000E+00
    0.24277E+00        -0.70390E+00         0.00000E+00
    0.22851E+00        -0.59241E+00         0.00000E+00
    0.20999E+00        -0.48182E+00         0.00000E+00
    0.18454E+00        -0.37018E+00         0.00000E+00
    0.14783E+00        -0.25493E+00         0.00000E+00
    0.91453E-01        -0.13251E+00         0.00000E+00
    0.00000E+00         0.00000E+00         0.00000E+00
    0.34194E+00        -0.21065E+01         0.00000E+00
    0.25243E+00        -0.19060E+01         0.00000E+00
    0.21201E+00        -0.17155E+01         0.00000E+00
    0.18930E+00        -0.15406E+01         0.00000E+00
    0.17527E+00        -0.13803E+01         0.00000E+00
    0.16580E+00        -0.12324E+01         0.00000E+00
    0.15873E+00        -0.10948E+01         0.00000E+00
    0.15279E+00        -0.96555E+00         0.00000E+00
    0.14708E+00        -0.84288E+00         0.00000E+00
    0.14085E+00        -0.72516E+00         0.00000E+00
    0.13334E+00        -0.61074E+00         0.00000E+00
    0.12359E+00        -0.49783E+00         0.00000E+00
    0.11017E+00        -0.38430E+00         0.00000E+00
    0.90562E-01        -0.26723E+00         0.00000E+00
    0.59641E-01        -0.14191E+00         0.00000E+00
    0.00000E+00         0.00000E+00         0.00000E+00
    0.00000E+00        -0.21874E+01         0.00000E+00
    0.00000E+00        -0.19562E+01         0.00000E+00
    0.00000E+00        -0.17503E+01         0.00000E+00
    0.00000E+00        -0.15662E+01         0.00000E+00
    0.00000E+00        -0.13999E+01         0.00000E+00
    0.00000E+00        -0.12478E+01         0.00000E+00
    0.00000E+00        -0.11071E+01         0.00000E+00
    0.00000E+00        -0.97562E+00         0.00000E+00
    0.00000E+00        -0.85127E+00         0.00000E+00
    0.00000E+00        -0.73228E+00         0.00000E+00
    0.00000E+00        -0.61689E+00         0.00000E+00
    0.00000E+00        -0.50326E+00         0.00000E+00
    0.00000E+00        -0.38920E+00         0.00000E+00
    0.00000E+00        -0.27172E+00         0.00000E+00
    0.00000E+00        -0.14606E+00         0.00000E+00
    0.00000E+00         0.00000E+00         0.00000E+00
CELL_DATA        450
VECTORS vDarcy double 
    0.31954E-10         0.10626E-09         0.00000E+00
    0.29331E-10         0.30056E-09         0.00000E+00
    0.24581E-10         0.46493E-09         0.00000E+00
    0.18270E-10         0.59711E-09         0.00000E+00
    0.10914E-10         0.69626E-09         0.00000E+00
    0.29648E-11         0.76256E-09         0.00000E+00
   -0.51977E-11         0.79695E-09         0.00000E+00
   -0.13261E-10         0.80075E-09         0.00000E+00
   -0.20973E-10         0.77548E-09         0.00000E+00
   -0.28128E-10         0.72262E-09         0.00000E+00
   -0.34548E-10         0.64357E-09         0.00000E+00
   -0.40072E-10         0.53964E-09         0.00000E+00
   -0.44531E-10         0.41213E-09         0.00000E+00
   -0.47734E-10         0.26249E-09         0.00000E+00
   -0.49458E-10         0.92542E-10         0.00000E+00
    0.94497E-10         0.10908E-09         0.00000E+00
    0.86620E-10         0.30823E-09         0.00000E+00
    0.72360E-10         0.47627E-09         0.00000E+00
    0.53423E-10         0.61102E-09         0.00000E+00
    0.31361E-10         0.71176E-09         0.00000E+00
    0.75284E-11         0.77883E-09         0.00000E+00
   -0.16933E-10         0.81330E-09         0.00000E+00
   -0.41090E-10         0.81662E-09         0.00000E+00
   -0.64189E-10         0.79042E-09         0.00000E+00
   -0.85618E-10         0.73626E-09         0.00000E+00
   -0.10485E-09         0.65558E-09         0.00000E+00
   -0.12141E-09         0.54971E-09         0.00000E+00
   -0.13478E-09         0.41989E-09         0.00000E+00
   -0.14439E-09         0.26754E-09         0.00000E+00
   -0.14957E-09         0.94389E-10         0.00000E+00
    0.15441E-09         0.11475E-09         0.00000E+00
    0.14126E-09         0.32360E-09         0.00000E+00
    0.11747E-09         0.49896E-09         0.00000E+00
    0.85893E-10         0.63884E-09         0.00000E+00
    0.49146E-10         0.74275E-09         0.00000E+00
    0.94896E-11         0.81133E-09         0.00000E+00
   -0.31178E-10         0.84593E-09         0.00000E+00
   -0.71312E-10         0.84828E-09         0.00000E+00
   -0.10967E-09         0.82022E-09         0.00000E+00
   -0.14526E-09         0.76347E-09         0.00000E+00
   -0.17721E-09         0.67956E-09         0.00000E+00
   -0.20474E-09         0.56981E-09         0.00000E+00
   -0.22699E-09         0.43542E-09         0.00000E+00
   -0.24302E-09         0.27766E-09         0.00000E+00
   -0.25167E-09         0.98095E-10         0.00000E+00
    0.20989E-09         0.12327E-09         0.00000E+00
    0.19143E-09         0.34669E-09         0.00000E+00
    0.15806E-09         0.53303E-09         0.00000E+00
    0.11386E-09         0.68055E-09         0.00000E+00
    0.62495E-10         0.78916E-09         0.00000E+00
    0.71508E-11         0.85993E-09         0.00000E+00
   -0.49523E-10         0.89467E-09         0.00000E+00
   -0.10539E-09         0.89554E-09         0.00000E+00
   -0.15875E-09         0.86469E-09         0.00000E+00
   -0.20825E-09         0.80408E-09         0.00000E+00
   -0.25271E-09         0.71537E-09         0.00000E+00
   -0.29105E-09         0.59986E-09         0.00000E+00
   -0.32211E-09         0.45867E-09         0.00000E+00
   -0.34453E-09         0.29285E-09         0.00000E+00
   -0.35665E-09         0.10367E-09         0.00000E+00
    0.25901E-09         0.13467E-09         0.00000E+00
    0.23520E-09         0.37756E-09         0.00000E+00
    0.19224E-09         0.57848E-09         0.00000E+00
    0.13546E-09         0.73609E-09         0.00000E+00
    0.69635E-10         0.85081E-09         0.00000E+00
   -0.11225E-11         0.92437E-09         0.00000E+00
   -0.73426E-10         0.95920E-09         0.00000E+00
   -0.14458E-09         0.95802E-09         0.00000E+00
   -0.21246E-09         0.92345E-09         0.00000E+00
   -0.27540E-09         0.85775E-09         0.00000E+00
   -0.33197E-09         0.76273E-09         0.00000E+00
   -0.38082E-09         0.63969E-09         0.00000E+00
   -0.42047E-09         0.48956E-09         0.00000E+00
   -0.44918E-09         0.31309E-09         0.00000E+00
   -0.46476E-09         0.11114E-09         0.00000E+00
    0.29971E-09         0.14899E-09         0.00000E+00
    0.27051E-09         0.41623E-09         0.00000E+00
    0.21799E-09         0.63528E-09         0.00000E+00
    0.14878E-09         0.80528E-09         0.00000E+00
    0.68813E-10         0.92741E-09         0.00000E+00
   -0.16857E-10         0.10042E-08         0.00000E+00
   -0.10413E-09         0.10389E-08         0.00000E+00
   -0.18980E-09         0.10351E-08         0.00000E+00
   -0.27140E-09         0.99586E-09         0.00000E+00
   -0.34699E-09         0.92388E-09         0.00000E+00
   -0.41496E-09         0.82114E-09         0.00000E+00
   -0.47374E-09         0.68890E-09         0.00000E+00
   -0.52158E-09         0.52784E-09         0.00000E+00
   -0.55634E-09         0.33828E-09         0.00000E+00
   -0.57528E-09         0.12047E-09         0.00000E+00
    0.32974E-09         0.16627E-09         0.00000E+00
    0.29516E-09         0.46273E-09         0.00000E+00
    0.23318E-09         0.70330E-09         0.00000E+00
    0.15185E-09         0.88780E-09         0.00000E+00
    0.58333E-10         0.10184E-08         0.00000E+00
   -0.41400E-10         0.10986E-08         0.00000E+00
   -0.14257E-09         0.11330E-08         0.00000E+00
   -0.24153E-09         0.11257E-08         0.00000E+00
   -0.33554E-09         0.10808E-08         0.00000E+00
   -0.42251E-09         0.10015E-08         0.00000E+00
   -0.50071E-09         0.88973E-09         0.00000E+00
   -0.56845E-09         0.74682E-09         0.00000E+00
   -0.62375E-09         0.57306E-09         0.00000E+00
   -0.66409E-09         0.36817E-09         0.00000E+00
   -0.68619E-09         0.13161E-09         0.00000E+00
    0.34668E-09         0.18651E-09         0.00000E+00
    0.30677E-09         0.51698E-09         0.00000E+00
    0.23557E-09         0.78223E-09         0.00000E+00
    0.14273E-09         0.98303E-09         0.00000E+00
    0.36642E-10         0.11228E-08         0.00000E+00
   -0.75789E-10         0.12064E-08         0.00000E+00
   -0.18918E-09         0.12397E-08         0.00000E+00
   -0.29954E-09         0.12283E-08         0.00000E+00
   -0.40398E-09         0.11768E-08         0.00000E+00
   -0.50039E-09         0.10889E-08         0.00000E+00
   -0.58704E-09         0.96711E-09         0.00000E+00
   -0.66219E-09         0.81233E-09         0.00000E+00
   -0.72375E-09         0.62442E-09         0.00000E+00
   -0.76888E-09         0.40230E-09         0.00000E+00
   -0.79373E-09         0.14442E-09         0.00000E+00
    0.34793E-09         0.20972E-09         0.00000E+00
    0.30283E-09         0.57878E-09         0.00000E+00
    0.22292E-09         0.87152E-09         0.00000E+00
    0.11958E-09         0.10899E-08         0.00000E+00
    0.24857E-11         0.12390E-08         0.00000E+00
   -0.12056E-09         0.13256E-08         0.00000E+00
   -0.24368E-09         0.13571E-08         0.00000E+00
   -0.36266E-09         0.13403E-08         0.00000E+00
   -0.47465E-09         0.12812E-08         0.00000E+00
   -0.57766E-09         0.11839E-08         0.00000E+00
   -0.67012E-09         0.10512E-08         0.00000E+00
   -0.75041E-09         0.88369E-09         0.00000E+00
   -0.81640E-09         0.68060E-09         0.00000E+00
   -0.86503E-09         0.43988E-09         0.00000E+00
   -0.89199E-09         0.15865E-09         0.00000E+00
    0.33082E-09         0.23583E-09         0.00000E+00
    0.28084E-09         0.64775E-09         0.00000E+00
    0.19311E-09         0.97018E-09         0.00000E+00
    0.80881E-10         0.12068E-08         0.00000E+00
   -0.44821E-10         0.13649E-08         0.00000E+00
   -0.17541E-09         0.14534E-08         0.00000E+00
   -0.30466E-09         0.14817E-08         0.00000E+00
   -0.42835E-09         0.14584E-08         0.00000E+00
   -0.54385E-09         0.13906E-08         0.00000E+00
   -0.64949E-09         0.12832E-08         0.00000E+00
   -0.74407E-09         0.11390E-08         0.00000E+00
   -0.82624E-09         0.95836E-09         0.00000E+00
   -0.89400E-09         0.73969E-09         0.00000E+00
   -0.94425E-09         0.47968E-09         0.00000E+00
   -0.97231E-09         0.17386E-09         0.00000E+00
    0.29283E-09         0.26470E-09         0.00000E+00
    0.23855E-09         0.72314E-09         0.00000E+00
    0.14446E-09         0.10766E-08         0.00000E+00
    0.25850E-10         0.13312E-08         0.00000E+00
   -0.10494E-09         0.14970E-08         0.00000E+00
   -0.23870E-09         0.15856E-08         0.00000E+00
   -0.36908E-09         0.16090E-08         0.00000E+00
   -0.49213E-09         0.15777E-08         0.00000E+00
   -0.60566E-09         0.15002E-08         0.00000E+00
   -0.70861E-09         0.13821E-08         0.00000E+00
   -0.80032E-09         0.12263E-08         0.00000E+00
   -0.87994E-09         0.10328E-08         0.00000E+00
   -0.94583E-09         0.79891E-09         0.00000E+00
   -0.99503E-09         0.51990E-09         0.00000E+00
   -0.10227E-08         0.18941E-09         0.00000E+00
    0.23200E-09         0.29603E-09         0.00000E+00
    0.17441E-09         0.80368E-09         0.00000E+00
    0.76275E-10         0.11883E-08         0.00000E+00
   -0.44949E-10         0.14594E-08         0.00000E+00
   -0.17578E-09         0.16305E-08         0.00000E+00
   -0.30665E-09         0.17168E-08         0.00000E+00
   -0.43144E-09         0.17330E-08         0.00000E+00
   -0.54676E-09         0.16921E-08         0.00000E+00
   -0.65121E-09         0.16038E-08         0.00000E+00
   -0.74455E-09         0.14748E-08         0.00000E+00
   -0.82695E-09         0.13078E-08         0.00000E+00
   -0.89826E-09         0.11023E-08         0.00000E+00
   -0.95747E-09         0.85452E-09         0.00000E+00
   -0.10020E-08         0.55806E-09         0.00000E+00
   -0.10274E-08         0.20437E-09         0.00000E+00
    0.14764E-09         0.32925E-09         0.00000E+00
    0.88408E-10         0.88728E-09         0.00000E+00
   -0.10182E-10         0.13014E-08         0.00000E+00
   -0.12854E-09         0.15858E-08         0.00000E+00
   -0.25238E-09         0.17587E-08         0.00000E+00
   -0.37223E-09         0.18393E-08         0.00000E+00
   -0.48263E-09         0.18457E-08         0.00000E+00
   -0.58119E-09         0.17933E-08         0.00000E+00
   -0.66761E-09         0.16935E-08         0.00000E+00
   -0.74274E-09         0.15536E-08         0.00000E+00
   -0.80781E-09         0.13764E-08         0.00000E+00
   -0.86364E-09         0.11608E-08         0.00000E+00
   -0.91010E-09         0.90168E-09         0.00000E+00
   -0.94549E-09         0.59087E-09         0.00000E+00
   -0.96602E-09         0.21750E-09         0.00000E+00
    0.41608E-10         0.36336E-09         0.00000E+00
   -0.16599E-10         0.97061E-09         0.00000E+00
   -0.11023E-09         0.14103E-08         0.00000E+00
   -0.21794E-09         0.17030E-08         0.00000E+00
   -0.32523E-09         0.18727E-08         0.00000E+00
   -0.42344E-09         0.19434E-08         0.00000E+00
   -0.50836E-09         0.19370E-08         0.00000E+00
   -0.57906E-09         0.18713E-08         0.00000E+00
   -0.63666E-09         0.17595E-08         0.00000E+00
   -0.68335E-09         0.16094E-08         0.00000E+00
   -0.72160E-09         0.14239E-08         0.00000E+00
   -0.75343E-09         0.12010E-08         0.00000E+00
   -0.77988E-09         0.93440E-09         0.00000E+00
   -0.80053E-09         0.61418E-09         0.00000E+00
   -0.81300E-09         0.22717E-09         0.00000E+00
   -0.79613E-10         0.39668E-09         0.00000E+00
   -0.13264E-09         0.10485E-08         0.00000E+00
   -0.21339E-09         0.15068E-08         0.00000E+00
   -0.29967E-09         0.18005E-08         0.00000E+00
   -0.37788E-09         0.19607E-08         0.00000E+00
   -0.44108E-09         0.20168E-08         0.00000E+00
   -0.48710E-09         0.19945E-08         0.00000E+00
   -0.51690E-09         0.19143E-08         0.00000E+00
   -0.53331E-09         0.17906E-08         0.00000E+00
   -0.54003E-09         0.16318E-08         0.00000E+00
   -0.54084E-09         0.14406E-08         0.00000E+00
   -0.53911E-09         0.12144E-08         0.00000E+00
   -0.53732E-09         0.94568E-09         0.00000E+00
   -0.53684E-09         0.62307E-09         0.00000E+00
   -0.53750E-09         0.23141E-09         0.00000E+00
   -0.20166E-09         0.42650E-09         0.00000E+00
   -0.24327E-09         0.11133E-08         0.00000E+00
   -0.29994E-09         0.15794E-08         0.00000E+00
   -0.35041E-09         0.18646E-08         0.00000E+00
   -0.38367E-09         0.20080E-08         0.00000E+00
   -0.39581E-09         0.20448E-08         0.00000E+00
   -0.38746E-09         0.20042E-08         0.00000E+00
   -0.36192E-09         0.19089E-08         0.00000E+00
   -0.32387E-09         0.17743E-08         0.00000E+00
   -0.27848E-09         0.16093E-08         0.00000E+00
   -0.23081E-09         0.14162E-08         0.00000E+00
   -0.18555E-09         0.11918E-08         0.00000E+00
   -0.14687E-09         0.92782E-09         0.00000E+00
   -0.11840E-09         0.61199E-09         0.00000E+00
   -0.10318E-09         0.22793E-09         0.00000E+00
   -0.29741E-09         0.44866E-09         0.00000E+00
   -0.31863E-09         0.11540E-08         0.00000E+00
   -0.33606E-09         0.16128E-08         0.00000E+00
   -0.33242E-09         0.18780E-08         0.00000E+00
   -0.30173E-09         0.19972E-08         0.00000E+00
   -0.24462E-09         0.20106E-08         0.00000E+00
   -0.16533E-09         0.19506E-08         0.00000E+00
   -0.69716E-10         0.18412E-08         0.00000E+00
    0.35777E-10         0.16984E-08         0.00000E+00
    0.14479E-09         0.15309E-08         0.00000E+00
    0.25124E-09         0.13406E-08         0.00000E+00
    0.34929E-09         0.11241E-08         0.00000E+00
    0.43304E-09         0.87306E-09         0.00000E+00
    0.49612E-09         0.57520E-09         0.00000E+00
    0.53133E-09         0.21429E-09         0.00000E+00
   -0.32016E-09         0.45705E-09         0.00000E+00
   -0.30883E-09         0.11555E-08         0.00000E+00
   -0.26761E-09         0.15875E-08         0.00000E+00
   -0.18807E-09         0.18202E-08         0.00000E+00
   -0.72321E-10         0.19086E-08         0.00000E+00
    0.72818E-10         0.18970E-08         0.00000E+00
    0.23897E-09         0.18189E-08         0.00000E+00
    0.41779E-09         0.16986E-08         0.00000E+00
    0.60154E-09         0.15518E-08         0.00000E+00
    0.78322E-09         0.13868E-08         0.00000E+00
    0.95630E-09         0.12052E-08         0.00000E+00
    0.11142E-08         0.10036E-08         0.00000E+00
    0.12493E-08         0.77462E-09         0.00000E+00
    0.13524E-08         0.50747E-09         0.00000E+00
    0.14111E-08         0.18813E-09         0.00000E+00
   -0.19487E-09         0.44332E-09         0.00000E+00
   -0.13564E-09         0.10987E-08         0.00000E+00
   -0.13042E-10         0.14806E-08         0.00000E+00
    0.16589E-09         0.16687E-08         0.00000E+00
    0.38739E-09         0.17229E-08         0.00000E+00
    0.63711E-09         0.16879E-08         0.00000E+00
    0.90248E-09         0.15964E-08         0.00000E+00
    0.11733E-08         0.14714E-08         0.00000E+00
    0.14414E-08         0.13272E-08         0.00000E+00
    0.17000E-08         0.11711E-08         0.00000E+00
    0.19429E-08         0.10048E-08         0.00000E+00
    0.21633E-08         0.82562E-09         0.00000E+00
    0.23526E-08         0.62812E-09         0.00000E+00
    0.24984E-08         0.40512E-09         0.00000E+00
    0.25826E-08         0.14763E-09         0.00000E+00
    0.19169E-09         0.39700E-09         0.00000E+00
    0.31603E-09         0.96143E-09         0.00000E+00
    0.54322E-09         0.12680E-08         0.00000E+00
    0.84264E-09         0.14029E-08         0.00000E+00
    0.11856E-08         0.14242E-08         0.00000E+00
    0.15497E-08         0.13727E-08         0.00000E+00
    0.19190E-08         0.12769E-08         0.00000E+00
    0.22827E-08         0.11564E-08         0.00000E+00
    0.26333E-08         0.10234E-08         0.00000E+00
    0.29655E-08         0.88412E-09         0.00000E+00
    0.32743E-08         0.74019E-09         0.00000E+00
    0.35535E-08         0.59057E-09         0.00000E+00
    0.37940E-08         0.43339E-09         0.00000E+00
    0.39807E-08         0.26736E-09         0.00000E+00
    0.40899E-08         0.92057E-10         0.00000E+00
    0.99914E-09         0.30661E-09         0.00000E+00
    0.12042E-08         0.72242E-09         0.00000E+00
    0.15536E-08         0.93044E-09         0.00000E+00
    0.19851E-08         0.10096E-08         0.00000E+00
    0.24532E-08         0.10064E-08         0.00000E+00
    0.29288E-08         0.95092E-09         0.00000E+00
    0.33942E-08         0.86398E-09         0.00000E+00
    0.38397E-08         0.76011E-09         0.00000E+00
    0.42602E-08         0.64861E-09         0.00000E+00
    0.46524E-08         0.53451E-09         0.00000E+00
    0.50135E-08         0.41992E-09         0.00000E+00
    0.53389E-08         0.30621E-09         0.00000E+00
    0.56197E-08         0.19650E-09         0.00000E+00
    0.58393E-08         0.97928E-10         0.00000E+00
    0.59691E-08         0.22505E-10         0.00000E+00
    0.24347E-08         0.16263E-09         0.00000E+00
    0.27278E-08         0.36821E-09         0.00000E+00
    0.32014E-08         0.46162E-09         0.00000E+00
    0.37566E-08         0.49176E-09         0.00000E+00
    0.43329E-08         0.47972E-09         0.00000E+00
    0.48972E-08         0.43771E-09         0.00000E+00
    0.54334E-08         0.37560E-09         0.00000E+00
    0.59346E-08         0.30176E-09         0.00000E+00
    0.63987E-08         0.22245E-09         0.00000E+00
    0.68254E-08         0.14172E-09         0.00000E+00
    0.72144E-08         0.62589E-10         0.00000E+00
    0.75630E-08        -0.10511E-10         0.00000E+00
    0.78638E-08        -0.68326E-10         0.00000E+00
    0.81002E-08        -0.93285E-10         0.00000E+00
    0.82414E-08        -0.57278E-10         0.00000E+00
    0.47377E-08        -0.37157E-10         0.00000E+00
    0.51078E-08        -0.95196E-10         0.00000E+00
    0.56783E-08        -0.11907E-09         0.00000E+00
    0.63168E-08        -0.12128E-09         0.00000E+00
    0.69547E-08        -0.12147E-09         0.00000E+00
    0.75604E-08        -0.13111E-09         0.00000E+00
    0.81215E-08        -0.15292E-09         0.00000E+00
    0.86353E-08        -0.18467E-09         0.00000E+00
    0.91028E-08        -0.22270E-09         0.00000E+00
    0.95264E-08        -0.26343E-09         0.00000E+00
    0.99078E-08        -0.30262E-09         0.00000E+00
    0.10246E-07        -0.33258E-09         0.00000E+00
    0.10537E-07        -0.33767E-09         0.00000E+00
    0.10766E-07        -0.28906E-09         0.00000E+00
    0.10903E-07        -0.14021E-09         0.00000E+00
    0.81360E-08        -0.27970E-09         0.00000E+00
    0.85412E-08        -0.62794E-09         0.00000E+00
    0.91384E-08        -0.75394E-09         0.00000E+00
    0.97789E-08        -0.76552E-09         0.00000E+00
    0.10398E-07        -0.73433E-09         0.00000E+00
    0.10972E-07        -0.69735E-09         0.00000E+00
    0.11493E-07        -0.66882E-09         0.00000E+00
    0.11961E-07        -0.65138E-09         0.00000E+00
    0.12381E-07        -0.64303E-09         0.00000E+00
    0.12754E-07        -0.64020E-09         0.00000E+00
    0.13085E-07        -0.63736E-09         0.00000E+00
    0.13372E-07        -0.62408E-09         0.00000E+00
    0.13615E-07        -0.57948E-09         0.00000E+00
    0.13804E-07        -0.46479E-09         0.00000E+00
    0.13917E-07        -0.21556E-09         0.00000E+00
    0.12761E-07        -0.52818E-09         0.00000E+00
    0.13120E-07        -0.11441E-08         0.00000E+00
    0.13626E-07        -0.13404E-08         0.00000E+00
    0.14148E-07        -0.13415E-08         0.00000E+00
    0.14641E-07        -0.12705E-08         0.00000E+00
    0.15091E-07        -0.11848E-08         0.00000E+00
    0.15495E-07        -0.11065E-08         0.00000E+00
    0.15854E-07        -0.10411E-08         0.00000E+00
    0.16168E-07        -0.98768E-09         0.00000E+00
    0.16442E-07        -0.94225E-09         0.00000E+00
    0.16675E-07        -0.89840E-09         0.00000E+00
    0.16868E-07        -0.84421E-09         0.00000E+00
    0.17022E-07        -0.75631E-09         0.00000E+00
    0.17136E-07        -0.59050E-09         0.00000E+00
    0.17202E-07        -0.26952E-09         0.00000E+00
    0.18524E-07        -0.71805E-09         0.00000E+00
    0.18723E-07        -0.15130E-08         0.00000E+00
    0.18987E-07        -0.17412E-08         0.00000E+00
    0.19254E-07        -0.17292E-08         0.00000E+00
    0.19509E-07        -0.16307E-08         0.00000E+00
    0.19746E-07        -0.15116E-08         0.00000E+00
    0.19960E-07        -0.13975E-08         0.00000E+00
    0.20147E-07        -0.12957E-08         0.00000E+00
    0.20305E-07        -0.12061E-08         0.00000E+00
    0.20432E-07        -0.11248E-08         0.00000E+00
    0.20529E-07        -0.10450E-08         0.00000E+00
    0.20592E-07        -0.95480E-09         0.00000E+00
    0.20624E-07        -0.83233E-09         0.00000E+00
    0.20632E-07        -0.63588E-09         0.00000E+00
    0.20629E-07        -0.28709E-09         0.00000E+00
    0.24986E-07        -0.76634E-09         0.00000E+00
    0.24910E-07        -0.15880E-08         0.00000E+00
    0.24804E-07        -0.18237E-08         0.00000E+00
    0.24714E-07        -0.18235E-08         0.00000E+00
    0.24654E-07        -0.17313E-08         0.00000E+00
    0.24615E-07        -0.16094E-08         0.00000E+00
    0.24586E-07        -0.14844E-08         0.00000E+00
    0.24557E-07        -0.13664E-08         0.00000E+00
    0.24520E-07        -0.12570E-08         0.00000E+00
    0.24472E-07        -0.11532E-08         0.00000E+00
    0.24408E-07        -0.10482E-08         0.00000E+00
    0.24323E-07        -0.93094E-09         0.00000E+00
    0.24219E-07        -0.78424E-09         0.00000E+00
    0.24106E-07        -0.57907E-09         0.00000E+00
    0.24021E-07        -0.25560E-09         0.00000E+00
    0.31289E-07        -0.60271E-09         0.00000E+00
    0.30893E-07        -0.12798E-08         0.00000E+00
    0.30398E-07        -0.15303E-08         0.00000E+00
    0.29953E-07        -0.15824E-08         0.00000E+00
    0.29575E-07        -0.15346E-08         0.00000E+00
    0.29250E-07        -0.14420E-08         0.00000E+00
    0.28961E-07        -0.13341E-08         0.00000E+00
    0.28698E-07        -0.12244E-08         0.00000E+00
    0.28453E-07        -0.11174E-08         0.00000E+00
    0.28219E-07        -0.10110E-08         0.00000E+00
    0.27993E-07        -0.89913E-09         0.00000E+00
    0.27769E-07        -0.77176E-09         0.00000E+00
    0.27546E-07        -0.61606E-09         0.00000E+00
    0.27331E-07        -0.41974E-09         0.00000E+00
    0.27171E-07        -0.17063E-09         0.00000E+00
    0.36242E-07        -0.23687E-09         0.00000E+00
    0.35674E-07        -0.68118E-09         0.00000E+00
    0.34992E-07        -0.95195E-09         0.00000E+00
    0.34334E-07        -0.10585E-08         0.00000E+00
    0.33716E-07        -0.10631E-08         0.00000E+00
    0.33144E-07        -0.10155E-08         0.00000E+00
    0.32617E-07        -0.94521E-09         0.00000E+00
    0.32134E-07        -0.86715E-09         0.00000E+00
    0.31691E-07        -0.78672E-09         0.00000E+00
    0.31286E-07        -0.70337E-09         0.00000E+00
    0.30919E-07        -0.61216E-09         0.00000E+00
    0.30588E-07        -0.50461E-09         0.00000E+00
    0.30299E-07        -0.37057E-09         0.00000E+00
    0.30054E-07        -0.20549E-09         0.00000E+00
    0.29868E-07        -0.39273E-10         0.00000E+00
    0.38672E-07        -0.62333E-11         0.00000E+00
    0.38497E-07        -0.16855E-09         0.00000E+00
    0.38021E-07        -0.30709E-09         0.00000E+00
    0.37345E-07        -0.36934E-09         0.00000E+00
    0.36593E-07        -0.38263E-09         0.00000E+00
    0.35840E-07        -0.37040E-09         0.00000E+00
    0.35123E-07        -0.34654E-09         0.00000E+00
    0.34458E-07        -0.31803E-09         0.00000E+00
    0.33853E-07        -0.28756E-09         0.00000E+00
    0.33310E-07        -0.25512E-09         0.00000E+00
    0.32836E-07        -0.21868E-09         0.00000E+00
    0.32443E-07        -0.17459E-09         0.00000E+00
    0.32150E-07        -0.11823E-09         0.00000E+00
    0.31985E-07        -0.47389E-10         0.00000E+00
    0.31955E-07         0.18213E-10         0.00000E+00
POINT_DATA        496
VECTORS vDarcyNodal double 
    0.32661E-10         0.10555E-09         0.00000E+00
    0.31248E-10         0.20210E-09         0.00000E+00
    0.27414E-10         0.38037E-09         0.00000E+00
    0.21747E-10         0.52787E-09         0.00000E+00
    0.14792E-10         0.64301E-09         0.00000E+00
    0.70359E-11         0.72543E-09         0.00000E+00
   -0.11063E-11         0.77567E-09         0.00000E+00
   -0.92891E-11         0.79482E-09         0.00000E+00
   -0.17233E-10         0.78426E-09         0.00000E+00
   -0.24713E-10         0.74547E-09         0.00000E+00
   -0.31542E-10         0.67988E-09         0.00000E+00
   -0.37555E-10         0.58884E-09         0.00000E+00
   -0.42590E-10         0.47366E-09         0.00000E+00
   -0.46472E-10         0.33571E-09         0.00000E+00
   -0.48997E-10         0.17665E-09         0.00000E+00
   -0.49919E-10         0.92081E-10         0.00000E+00
    0.64639E-10         0.10696E-09         0.00000E+00
    0.61812E-10         0.20472E-09         0.00000E+00
    0.54140E-10         0.38512E-09         0.00000E+00
    0.42802E-10         0.53418E-09         0.00000E+00
    0.28891E-10         0.65036E-09         0.00000E+00
    0.13383E-10         0.73338E-09         0.00000E+00
   -0.28902E-11         0.78383E-09         0.00000E+00
   -0.19240E-10         0.80288E-09         0.00000E+00
   -0.35110E-10         0.79197E-09         0.00000E+00
   -0.50052E-10         0.75262E-09         0.00000E+00
   -0.63694E-10         0.68630E-09         0.00000E+00
   -0.75708E-10         0.59437E-09         0.00000E+00
   -0.85773E-10         0.47811E-09         0.00000E+00
   -0.93537E-10         0.33891E-09         0.00000E+00
   -0.98592E-10         0.17838E-09         0.00000E+00
   -0.10044E-09         0.93002E-10         0.00000E+00
    0.12729E-09         0.11120E-09         0.00000E+00
    0.12162E-09         0.21260E-09         0.00000E+00
    0.10626E-09         0.39938E-09         0.00000E+00
    0.83567E-10         0.55312E-09         0.00000E+00
    0.55749E-10         0.67243E-09         0.00000E+00
    0.24758E-10         0.75721E-09         0.00000E+00
   -0.77398E-11         0.80829E-09         0.00000E+00
   -0.40371E-10         0.82704E-09         0.00000E+00
   -0.72030E-10         0.81507E-09         0.00000E+00
   -0.10183E-09         0.77405E-09         0.00000E+00
   -0.12905E-09         0.70554E-09         0.00000E+00
   -0.15302E-09         0.61092E-09         0.00000E+00
   -0.17312E-09         0.49149E-09         0.00000E+00
   -0.18865E-09         0.34853E-09         0.00000E+00
   -0.19877E-09         0.18355E-09         0.00000E+00
   -0.20247E-09         0.95775E-10         0.00000E+00
    0.18641E-09         0.11829E-09         0.00000E+00
    0.17789E-09         0.22575E-09         0.00000E+00
    0.15480E-09         0.42318E-09         0.00000E+00
    0.12073E-09         0.58469E-09         0.00000E+00
    0.79022E-10         0.70917E-09         0.00000E+00
    0.32619E-10         0.79687E-09         0.00000E+00
   -0.15978E-10         0.84896E-09         0.00000E+00
   -0.64723E-10         0.86717E-09         0.00000E+00
   -0.11198E-09         0.85343E-09         0.00000E+00
   -0.15645E-09         0.80964E-09         0.00000E+00
   -0.19706E-09         0.73749E-09         0.00000E+00
   -0.23287E-09         0.63845E-09         0.00000E+00
   -0.26292E-09         0.51374E-09         0.00000E+00
   -0.28618E-09         0.36455E-09         0.00000E+00
   -0.30137E-09         0.19220E-09         0.00000E+00
   -0.30695E-09         0.10041E-09         0.00000E+00
    0.24015E-09         0.12824E-09         0.00000E+00
    0.22874E-09         0.24421E-09         0.00000E+00
    0.19788E-09         0.45654E-09         0.00000E+00
    0.15243E-09         0.62889E-09         0.00000E+00
    0.96893E-10         0.76054E-09         0.00000E+00
    0.35237E-10         0.85221E-09         0.00000E+00
   -0.29208E-10         0.90564E-09         0.00000E+00
   -0.93741E-10         0.92304E-09         0.00000E+00
   -0.15623E-09         0.90679E-09         0.00000E+00
   -0.21499E-09         0.85913E-09         0.00000E+00
   -0.26866E-09         0.78196E-09         0.00000E+00
   -0.31602E-09         0.67679E-09         0.00000E+00
   -0.35585E-09         0.54480E-09         0.00000E+00
   -0.38673E-09         0.38697E-09         0.00000E+00
   -0.40697E-09         0.20433E-09         0.00000E+00
   -0.41444E-09         0.10693E-09         0.00000E+00
    0.28652E-09         0.14110E-09         0.00000E+00
    0.27219E-09         0.26802E-09         0.00000E+00
    0.23352E-09         0.49949E-09         0.00000E+00
    0.17672E-09         0.68567E-09         0.00000E+00
    0.10752E-09         0.82636E-09         0.00000E+00
    0.30927E-10         0.92297E-09         0.00000E+00
   -0.48907E-10         0.97794E-09         0.00000E+00
   -0.12865E-09         0.99419E-09         0.00000E+00
   -0.20573E-09         0.97468E-09         0.00000E+00
   -0.27814E-09         0.92207E-09         0.00000E+00
   -0.34426E-09         0.83853E-09         0.00000E+00
   -0.40267E-09         0.72563E-09         0.00000E+00
   -0.45188E-09         0.58445E-09         0.00000E+00
   -0.49017E-09         0.41568E-09         0.00000E+00
   -0.51535E-09         0.21990E-09         0.00000E+00
   -0.52469E-09         0.11534E-09         0.00000E+00
    0.32336E-09         0.15689E-09         0.00000E+00
    0.30609E-09         0.29721E-09         0.00000E+00
    0.25959E-09         0.55202E-09         0.00000E+00
    0.19158E-09         0.75489E-09         0.00000E+00
    0.10906E-09         0.90633E-09         0.00000E+00
    0.18091E-10         0.10086E-08         0.00000E+00
   -0.76348E-10         0.10652E-08         0.00000E+00
   -0.17036E-09         0.10799E-08         0.00000E+00
   -0.26098E-09         0.10563E-08         0.00000E+00
   -0.34596E-09         0.99766E-09         0.00000E+00
   -0.42354E-09         0.90649E-09         0.00000E+00
   -0.49213E-09         0.78441E-09         0.00000E+00
   -0.55005E-09         0.63229E-09         0.00000E+00
   -0.59527E-09         0.45044E-09         0.00000E+00
   -0.62516E-09         0.23884E-09         0.00000E+00
   -0.63630E-09         0.12560E-09         0.00000E+00
    0.34833E-09         0.17564E-09         0.00000E+00
    0.32809E-09         0.33179E-09         0.00000E+00
    0.27384E-09         0.61401E-09         0.00000E+00
    0.19491E-09         0.83621E-09         0.00000E+00
    0.99678E-10         0.99985E-09         0.00000E+00
   -0.47024E-11         0.11084E-08         0.00000E+00
   -0.11249E-09         0.11664E-08         0.00000E+00
   -0.21927E-09         0.11788E-08         0.00000E+00
   -0.32180E-09         0.11503E-08         0.00000E+00
   -0.41772E-09         0.10846E-08         0.00000E+00
   -0.50518E-09         0.98469E-09         0.00000E+00
   -0.58257E-09         0.85214E-09         0.00000E+00
   -0.64807E-09         0.68759E-09         0.00000E+00
   -0.69942E-09         0.49079E-09         0.00000E+00
   -0.73355E-09         0.26094E-09         0.00000E+00
   -0.74637E-09         0.13762E-09         0.00000E+00
    0.35891E-09         0.19737E-09         0.00000E+00
    0.33570E-09         0.37170E-09         0.00000E+00
    0.27389E-09         0.68520E-09         0.00000E+00
    0.18460E-09         0.92905E-09         0.00000E+00
    0.77705E-10         0.11059E-08         0.00000E+00
   -0.38576E-10         0.12208E-08         0.00000E+00
   -0.15777E-09         0.12798E-08         0.00000E+00
   -0.27509E-09         0.12892E-08         0.00000E+00
   -0.38712E-09         0.12547E-08         0.00000E+00
   -0.49151E-09         0.11810E-08         0.00000E+00
   -0.58653E-09         0.10713E-08         0.00000E+00
   -0.67062E-09         0.92730E-09         0.00000E+00
   -0.74198E-09         0.74915E-09         0.00000E+00
   -0.79817E-09         0.53592E-09         0.00000E+00
   -0.83575E-09         0.28579E-09         0.00000E+00
   -0.84997E-09         0.15122E-09         0.00000E+00
    0.35243E-09         0.22206E-09         0.00000E+00
    0.32632E-09         0.41680E-09         0.00000E+00
    0.25735E-09         0.76510E-09         0.00000E+00
    0.15869E-09         0.10324E-08         0.00000E+00
    0.41770E-10         0.12230E-08         0.00000E+00
   -0.84106E-10         0.13439E-08         0.00000E+00
   -0.21186E-09         0.14029E-08         0.00000E+00
   -0.33647E-09         0.14082E-08         0.00000E+00
   -0.45455E-09         0.13667E-08         0.00000E+00
   -0.56395E-09         0.12841E-08         0.00000E+00
   -0.66320E-09         0.11638E-08         0.00000E+00
   -0.75099E-09         0.10076E-08         0.00000E+00
   -0.82566E-09         0.81514E-09         0.00000E+00
   -0.88474E-09         0.58456E-09         0.00000E+00
   -0.92454E-09         0.31274E-09         0.00000E+00
   -0.93975E-09         0.16607E-09         0.00000E+00
    0.32626E-09         0.24960E-09         0.00000E+00
    0.29739E-09         0.46678E-09         0.00000E+00
    0.22200E-09         0.85283E-09         0.00000E+00
    0.11557E-09         0.11446E-08         0.00000E+00
   -0.88359E-11         0.13487E-08         0.00000E+00
   -0.14093E-09         0.14744E-08         0.00000E+00
   -0.27318E-09         0.15321E-08         0.00000E+00
   -0.40055E-09         0.15319E-08         0.00000E+00
   -0.51993E-09         0.14822E-08         0.00000E+00
   -0.62958E-09         0.13897E-08         0.00000E+00
   -0.72852E-09         0.12584E-08         0.00000E+00
   -0.81587E-09         0.10898E-08         0.00000E+00
   -0.89031E-09         0.88291E-09         0.00000E+00
   -0.94953E-09         0.63481E-09         0.00000E+00
   -0.98975E-09         0.34080E-09         0.00000E+00
   -0.10053E-08         0.18164E-09         0.00000E+00
    0.27808E-09         0.27980E-09         0.00000E+00
    0.24675E-09         0.52106E-09         0.00000E+00
    0.16621E-09         0.94692E-09         0.00000E+00
    0.54520E-10         0.12632E-08         0.00000E+00
   -0.73618E-10         0.14795E-08         0.00000E+00
   -0.20710E-09         0.16082E-08         0.00000E+00
   -0.33825E-09         0.16625E-08         0.00000E+00
   -0.46227E-09         0.16549E-08         0.00000E+00
   -0.57662E-09         0.15957E-08         0.00000E+00
   -0.68026E-09         0.14926E-08         0.00000E+00
   -0.77291E-09         0.13501E-08         0.00000E+00
   -0.85436E-09         0.11694E-08         0.00000E+00
   -0.92385E-09         0.94880E-09         0.00000E+00
   -0.97946E-09         0.68400E-09         0.00000E+00
   -0.10176E-08         0.36851E-09         0.00000E+00
   -0.10326E-08         0.19717E-09         0.00000E+00
    0.20643E-09         0.31226E-09         0.00000E+00
    0.17321E-09         0.57865E-09         0.00000E+00
    0.89610E-10         0.10451E-08         0.00000E+00
   -0.23517E-10         0.13845E-08         0.00000E+00
   -0.14998E-09         0.16104E-08         0.00000E+00
   -0.27819E-09         0.17391E-08         0.00000E+00
   -0.40069E-09         0.17873E-08         0.00000E+00
   -0.51337E-09         0.17702E-08         0.00000E+00
   -0.61458E-09         0.17002E-08         0.00000E+00
   -0.70424E-09         0.15860E-08         0.00000E+00
   -0.78305E-09         0.14325E-08         0.00000E+00
   -0.85170E-09         0.12407E-08         0.00000E+00
   -0.91021E-09         0.10080E-08         0.00000E+00
   -0.95736E-09         0.72858E-09         0.00000E+00
   -0.99017E-09         0.39392E-09         0.00000E+00
   -0.10033E-08         0.21157E-09         0.00000E+00
    0.11168E-09         0.34624E-09         0.00000E+00
    0.77569E-10         0.63788E-09         0.00000E+00
   -0.57603E-11         0.11437E-08         0.00000E+00
   -0.11465E-09         0.15028E-08         0.00000E+00
   -0.23183E-09         0.17342E-08         0.00000E+00
   -0.34579E-09         0.18589E-08         0.00000E+00
   -0.44988E-09         0.18977E-08         0.00000E+00
   -0.54112E-09         0.18688E-08         0.00000E+00
   -0.61913E-09         0.17866E-08         0.00000E+00
   -0.68513E-09         0.16611E-08         0.00000E+00
   -0.74097E-09         0.14975E-08         0.00000E+00
   -0.78844E-09         0.12965E-08         0.00000E+00
   -0.82863E-09         0.10545E-08         0.00000E+00
   -0.86135E-09         0.76396E-09         0.00000E+00
   -0.88467E-09         0.41444E-09         0.00000E+00
   -0.89434E-09         0.22342E-09         0.00000E+00
   -0.23432E-11         0.38048E-09         0.00000E+00
   -0.35662E-10         0.69609E-09         0.00000E+00
   -0.11358E-09         0.12373E-08         0.00000E+00
   -0.21005E-09         0.16105E-08         0.00000E+00
   -0.30755E-09         0.18415E-08         0.00000E+00
   -0.39556E-09         0.19571E-08         0.00000E+00
   -0.46896E-09         0.19826E-08         0.00000E+00
   -0.52650E-09         0.19395E-08         0.00000E+00
   -0.56946E-09         0.18442E-08         0.00000E+00
   -0.60051E-09         0.17078E-08         0.00000E+00
   -0.62287E-09         0.15358E-08         0.00000E+00
   -0.63958E-09         0.13284E-08         0.00000E+00
   -0.65296E-09         0.10809E-08         0.00000E+00
   -0.66424E-09         0.78461E-09         0.00000E+00
   -0.67313E-09         0.42691E-09         0.00000E+00
   -0.67737E-09         0.23092E-09         0.00000E+00
   -0.12572E-09         0.41288E-09         0.00000E+00
   -0.15555E-09         0.74911E-09         0.00000E+00
   -0.22036E-09         0.13180E-08         0.00000E+00
   -0.29298E-09         0.16968E-08         0.00000E+00
   -0.35709E-09         0.19197E-08         0.00000E+00
   -0.40445E-09         0.20203E-08         0.00000E+00
   -0.43244E-09         0.20286E-08         0.00000E+00
   -0.44212E-09         0.19693E-08         0.00000E+00
   -0.43670E-09         0.18606E-08         0.00000E+00
   -0.42048E-09         0.17145E-08         0.00000E+00
   -0.39802E-09         0.15366E-08         0.00000E+00
   -0.37363E-09         0.13266E-08         0.00000E+00
   -0.35102E-09         0.10791E-08         0.00000E+00
   -0.33316E-09         0.78413E-09         0.00000E+00
   -0.32208E-09         0.42757E-09         0.00000E+00
   -0.31860E-09         0.23190E-09         0.00000E+00
   -0.23845E-09         0.44012E-09         0.00000E+00
   -0.26061E-09         0.79072E-09         0.00000E+00
   -0.30129E-09         0.13747E-08         0.00000E+00
   -0.33471E-09         0.17473E-08         0.00000E+00
   -0.34812E-09         0.19530E-08         0.00000E+00
   -0.33728E-09         0.20325E-08         0.00000E+00
   -0.30316E-09         0.20203E-08         0.00000E+00
   -0.24963E-09         0.19437E-08         0.00000E+00
   -0.18201E-09         0.18226E-08         0.00000E+00
   -0.10609E-09         0.16691E-08         0.00000E+00
   -0.27602E-10         0.14889E-08         0.00000E+00
    0.48031E-10         0.12814E-08         0.00000E+00
    0.11571E-09         0.10404E-08         0.00000E+00
    0.17046E-09         0.75567E-09         0.00000E+00
    0.20725E-09         0.41235E-09         0.00000E+00
    0.22090E-09         0.22396E-09         0.00000E+00
   -0.30459E-09         0.45719E-09         0.00000E+00
   -0.31298E-09         0.81195E-09         0.00000E+00
   -0.31448E-09         0.13921E-08         0.00000E+00
   -0.28919E-09         0.17436E-08         0.00000E+00
   -0.23131E-09         0.19223E-08         0.00000E+00
   -0.14274E-09         0.19754E-08         0.00000E+00
   -0.29066E-10         0.19410E-08         0.00000E+00
    0.10271E-09         0.18481E-08         0.00000E+00
    0.24536E-09         0.17171E-08         0.00000E+00
    0.39196E-09         0.15601E-08         0.00000E+00
    0.53605E-09         0.13825E-08         0.00000E+00
    0.67149E-09         0.11833E-08         0.00000E+00
    0.79197E-09         0.95670E-09         0.00000E+00
    0.89040E-09         0.69259E-09         0.00000E+00
    0.95813E-09         0.37714E-09         0.00000E+00
    0.98429E-09         0.20462E-09         0.00000E+00
   -0.26438E-09         0.45691E-09         0.00000E+00
   -0.25065E-09         0.80062E-09         0.00000E+00
   -0.19381E-09         0.13509E-08         0.00000E+00
   -0.86841E-10         0.16641E-08         0.00000E+00
    0.64655E-10         0.18065E-08         0.00000E+00
    0.25042E-09         0.18302E-08         0.00000E+00
    0.45951E-09         0.17748E-08         0.00000E+00
    0.68194E-09         0.16693E-08         0.00000E+00
    0.90914E-09         0.15333E-08         0.00000E+00
    0.11338E-08         0.13784E-08         0.00000E+00
    0.13494E-08         0.12094E-08         0.00000E+00
    0.15497E-08         0.10254E-08         0.00000E+00
    0.17277E-08         0.82153E-09         0.00000E+00
    0.18742E-08         0.58951E-09         0.00000E+00
    0.19766E-08         0.31846E-09         0.00000E+00
    0.20171E-08         0.17165E-09         0.00000E+00
   -0.24750E-10         0.42974E-09         0.00000E+00
    0.21574E-10         0.74138E-09         0.00000E+00
    0.15882E-09         0.12283E-08         0.00000E+00
    0.37136E-09         0.14852E-08         0.00000E+00
    0.63717E-09         0.15850E-08         0.00000E+00
    0.93582E-09         0.15805E-08         0.00000E+00
    0.12510E-08         0.15095E-08         0.00000E+00
    0.15705E-08         0.13985E-08         0.00000E+00
    0.18855E-08         0.12652E-08         0.00000E+00
    0.21892E-08         0.11199E-08         0.00000E+00
    0.24763E-08         0.96653E-09         0.00000E+00
    0.27409E-08         0.80500E-09         0.00000E+00
    0.29759E-08         0.63221E-09         0.00000E+00
    0.31707E-08         0.44373E-09         0.00000E+00
    0.33084E-08         0.23429E-09         0.00000E+00
    0.33640E-08         0.12362E-09         0.00000E+00
    0.55023E-09         0.36426E-09         0.00000E+00
    0.64061E-09         0.61705E-09         0.00000E+00
    0.87962E-09         0.10011E-08         0.00000E+00
    0.12172E-08         0.11857E-08         0.00000E+00
    0.16105E-08         0.12421E-08         0.00000E+00
    0.20283E-08         0.12164E-08         0.00000E+00
    0.24501E-08         0.11402E-08         0.00000E+00
    0.28631E-08         0.10348E-08         0.00000E+00
    0.32594E-08         0.91458E-09         0.00000E+00
    0.36342E-08         0.78768E-09         0.00000E+00
    0.39838E-08         0.65778E-09         0.00000E+00
    0.43040E-08         0.52577E-09         0.00000E+00
    0.45884E-08         0.39174E-09         0.00000E+00
    0.48253E-08         0.25701E-09         0.00000E+00
    0.49947E-08         0.12513E-09         0.00000E+00
    0.50643E-08         0.60497E-10         0.00000E+00
    0.16449E-08         0.24897E-09         0.00000E+00
    0.17889E-08         0.41199E-09         0.00000E+00
    0.21431E-08         0.65172E-09         0.00000E+00
    0.26119E-08         0.75427E-09         0.00000E+00
    0.31297E-08         0.77390E-09         0.00000E+00
    0.36564E-08         0.74090E-09         0.00000E+00
    0.41696E-08         0.67475E-09         0.00000E+00
    0.46580E-08         0.58927E-09         0.00000E+00
    0.51163E-08         0.49413E-09         0.00000E+00
    0.55425E-08         0.39544E-09         0.00000E+00
    0.59353E-08         0.29665E-09         0.00000E+00
    0.62926E-08         0.20036E-09         0.00000E+00
    0.66093E-08         0.11097E-09         0.00000E+00
    0.68742E-08         0.37418E-10         0.00000E+00
    0.70654E-08        -0.46940E-11         0.00000E+00
    0.71452E-08        -0.15487E-10         0.00000E+00
    0.34863E-08         0.76293E-10         0.00000E+00
    0.36861E-08         0.11886E-09         0.00000E+00
    0.41495E-08         0.17811E-09         0.00000E+00
    0.47302E-08         0.19911E-09         0.00000E+00
    0.53432E-08         0.19758E-09         0.00000E+00
    0.59444E-08         0.17652E-09         0.00000E+00
    0.65132E-08         0.13856E-09         0.00000E+00
    0.70417E-08         0.88096E-10         0.00000E+00
    0.75282E-08         0.30082E-10         0.00000E+00
    0.79733E-08        -0.31269E-10         0.00000E+00
    0.83785E-08        -0.92337E-10         0.00000E+00
    0.87437E-08        -0.14828E-09         0.00000E+00
    0.90658E-08        -0.18980E-09         0.00000E+00
    0.93351E-08        -0.19903E-09         0.00000E+00
    0.95309E-08        -0.14587E-09         0.00000E+00
    0.96138E-08        -0.99070E-10         0.00000E+00
    0.63156E-08        -0.15061E-09         0.00000E+00
    0.65581E-08        -0.25121E-09         0.00000E+00
    0.70909E-08        -0.39237E-09         0.00000E+00
    0.77258E-08        -0.43945E-09         0.00000E+00
    0.83700E-08        -0.44032E-09         0.00000E+00
    0.89829E-08        -0.42910E-09         0.00000E+00
    0.95491E-08        -0.42259E-09         0.00000E+00
    0.10065E-07        -0.42569E-09         0.00000E+00
    0.10532E-07        -0.43745E-09         0.00000E+00
    0.10952E-07        -0.45485E-09         0.00000E+00
    0.11329E-07        -0.47371E-09         0.00000E+00
    0.11664E-07        -0.48692E-09         0.00000E+00
    0.11955E-07        -0.48045E-09         0.00000E+00
    0.12197E-07        -0.42770E-09         0.00000E+00
    0.12373E-07        -0.28340E-09         0.00000E+00
    0.12448E-07        -0.18135E-09         0.00000E+00
    0.10324E-07        -0.40880E-09         0.00000E+00
    0.10573E-07        -0.65644E-09         0.00000E+00
    0.11089E-07        -0.98951E-09         0.00000E+00
    0.11675E-07        -0.10800E-08         0.00000E+00
    0.12251E-07        -0.10595E-08         0.00000E+00
    0.12787E-07        -0.10026E-08         0.00000E+00
    0.13275E-07        -0.94358E-09         0.00000E+00
    0.13713E-07        -0.89451E-09         0.00000E+00
    0.14102E-07        -0.85696E-09         0.00000E+00
    0.14447E-07        -0.82838E-09         0.00000E+00
    0.14749E-07        -0.80385E-09         0.00000E+00
    0.15010E-07        -0.77453E-09         0.00000E+00
    0.15230E-07        -0.72311E-09         0.00000E+00
    0.15407E-07        -0.61656E-09         0.00000E+00
    0.15533E-07        -0.39695E-09         0.00000E+00
    0.15587E-07        -0.24977E-09         0.00000E+00
    0.15548E-07        -0.64756E-09         0.00000E+00
    0.15737E-07        -0.10159E-08         0.00000E+00
    0.16106E-07        -0.14950E-08         0.00000E+00
    0.16507E-07        -0.16019E-08         0.00000E+00
    0.16895E-07        -0.15525E-08         0.00000E+00
    0.17255E-07        -0.14527E-08         0.00000E+00
    0.17582E-07        -0.13477E-08         0.00000E+00
    0.17873E-07        -0.12531E-08         0.00000E+00
    0.18127E-07        -0.11719E-08         0.00000E+00
    0.18346E-07        -0.11016E-08         0.00000E+00
    0.18528E-07        -0.10368E-08         0.00000E+00
    0.18675E-07        -0.96809E-09         0.00000E+00
    0.18785E-07        -0.87741E-09         0.00000E+00
    0.18861E-07        -0.73025E-09         0.00000E+00
    0.18907E-07        -0.46308E-09         0.00000E+00
    0.18924E-07        -0.28927E-09         0.00000E+00
    0.21731E-07        -0.78855E-09         0.00000E+00
    0.21779E-07        -0.12151E-08         0.00000E+00
    0.21854E-07        -0.17592E-08         0.00000E+00
    0.21937E-07        -0.18686E-08         0.00000E+00
    0.22031E-07        -0.18074E-08         0.00000E+00
    0.22132E-07        -0.16896E-08         0.00000E+00
    0.22229E-07        -0.15614E-08         0.00000E+00
    0.22316E-07        -0.14401E-08         0.00000E+00
    0.22387E-07        -0.13299E-08         0.00000E+00
    0.22438E-07        -0.12293E-08         0.00000E+00
    0.22466E-07        -0.11330E-08         0.00000E+00
    0.22470E-07        -0.10317E-08         0.00000E+00
    0.22446E-07        -0.90971E-09         0.00000E+00
    0.22398E-07        -0.73795E-09         0.00000E+00
    0.22341E-07        -0.45990E-09         0.00000E+00
    0.22309E-07        -0.28491E-09         0.00000E+00
    0.28219E-07        -0.74414E-09         0.00000E+00
    0.28056E-07        -0.11392E-08         0.00000E+00
    0.27747E-07        -0.16526E-08         0.00000E+00
    0.27454E-07        -0.17786E-08         0.00000E+00
    0.27213E-07        -0.17474E-08         0.00000E+00
    0.27016E-07        -0.16511E-08         0.00000E+00
    0.26849E-07        -0.15323E-08         0.00000E+00
    0.26698E-07        -0.14107E-08         0.00000E+00
    0.26556E-07        -0.12935E-08         0.00000E+00
    0.26417E-07        -0.11810E-08         0.00000E+00
    0.26275E-07        -0.10684E-08         0.00000E+00
    0.26126E-07        -0.94741E-09         0.00000E+00
    0.25966E-07        -0.80547E-09         0.00000E+00
    0.25798E-07        -0.62536E-09         0.00000E+00
    0.25639E-07        -0.37478E-09         0.00000E+00
    0.25554E-07        -0.22629E-09         0.00000E+00
    0.33948E-07        -0.46127E-09         0.00000E+00
    0.33582E-07        -0.74327E-09         0.00000E+00
    0.32984E-07        -0.11575E-08         0.00000E+00
    0.32406E-07        -0.13340E-08         0.00000E+00
    0.31882E-07        -0.13696E-08         0.00000E+00
    0.31410E-07        -0.13256E-08         0.00000E+00
    0.30984E-07        -0.12438E-08         0.00000E+00
    0.30595E-07        -0.11478E-08         0.00000E+00
    0.30237E-07        -0.10483E-08         0.00000E+00
    0.29907E-07        -0.94741E-09         0.00000E+00
    0.29599E-07        -0.84172E-09         0.00000E+00
    0.29312E-07        -0.72348E-09         0.00000E+00
    0.29045E-07        -0.58235E-09         0.00000E+00
    0.28799E-07        -0.41044E-09         0.00000E+00
    0.28585E-07        -0.21559E-09         0.00000E+00
    0.28454E-07        -0.11497E-09         0.00000E+00
    0.37572E-07        -0.12467E-10         0.00000E+00
    0.37342E-07        -0.17478E-09         0.00000E+00
    0.36829E-07        -0.47564E-09         0.00000E+00
    0.36184E-07        -0.67643E-09         0.00000E+00
    0.35495E-07        -0.75196E-09         0.00000E+00
    0.34814E-07        -0.75302E-09         0.00000E+00
    0.34169E-07        -0.71693E-09         0.00000E+00
    0.33571E-07        -0.66457E-09         0.00000E+00
    0.33022E-07        -0.60559E-09         0.00000E+00
    0.32522E-07        -0.54268E-09         0.00000E+00
    0.32074E-07        -0.47380E-09         0.00000E+00
    0.31681E-07        -0.39328E-09         0.00000E+00
    0.31351E-07        -0.29282E-09         0.00000E+00
    0.31098E-07        -0.16562E-09         0.00000E+00
    0.30940E-07        -0.29175E-10         0.00000E+00
    0.30883E-07         0.36427E-10         0.00000E+00
    0.38678E-07         0.00000E+00         0.00000E+00
    0.38665E-07         0.00000E+00         0.00000E+00
    0.38328E-07        -0.10943E-21         0.00000E+00
    0.37714E-07         0.00000E+00         0.00000E+00
    0.36976E-07         0.10710E-21         0.00000E+00
    0.36210E-07         0.00000E+00         0.00000E+00
    0.35469E-07         0.00000E+00         0.00000E+00
    0.34776E-07        -0.97789E-22         0.00000E+00
    0.34140E-07        -0.97789E-22         0.00000E+00
    0.33565E-07         0.95461E-22         0.00000E+00
    0.33055E-07         0.95461E-22         0.00000E+00
    0.32618E-07        -0.95461E-22         0.00000E+00
    0.32268E-07        -0.23283E-23         0.00000E+00
    0.32032E-07         0.93132E-22         0.00000E+00
    0.31937E-07         0.46566E-23         0.00000E+00
    0.31974E-07         0.00000E+00         0.00000E+00
CELL_DATA        450
TENSORS stressef double 
    0.51124E+07         0.14717E+05         0.00000E+00
    0.14717E+05        -0.47405E+07         0.00000E+00
    0.00000E+00         0.00000E+00         0.00000E+00
 
    0.49293E+07         0.41207E+05         0.00000E+00
    0.41207E+05        -0.46337E+07         0.00000E+00
    0.00000E+00         0.00000E+00         0.00000E+00
 
    0.46636E+07         0.63443E+05         0.00000E+00
    0.63443E+05        -0.44334E+07         0.00000E+00
    0.00000E+00         0.00000E+00         0.00000E+00
 
    0.43311E+07         0.81279E+05         0.00000E+00
    0.81279E+05        -0.41559E+07         0.00000E+00
    0.00000E+00         0.00000E+00         0.00000E+00
 
    0.39475E+07         0.94771E+05         0.00000E+00
    0.94771E+05        -0.38183E+07         0.00000E+00
    0.00000E+00         0.00000E+00         0.00000E+00
 
    0.35280E+07         0.10412E+06         0.00000E+00
    0.10412E+06        -0.34372E+07         0.00000E+00
    0.00000E+00         0.00000E+00         0.00000E+00
 
    0.30868E+07         0.10959E+06         0.00000E+00
    0.10959E+06        -0.30286E+07         0.00000E+00
    0.00000E+00         0.00000E+00         0.00000E+00
 
    0.26372E+07         0.11153E+06         0.00000E+00
    0.11153E+06        -0.26080E+07         0.00000E+00
    0.00000E+00         0.00000E+00         0.00000E+00
 
    0.21912E+07         0.11026E+06         0.00000E+00
    0.11026E+06        -0.21893E+07         0.00000E+00
    0.00000E+00         0.00000E+00         0.00000E+00
 
    0.17596E+07         0.10609E+06         0.00000E+00
    0.10609E+06        -0.17858E+07         0.00000E+00
    0.00000E+00         0.00000E+00         0.00000E+00
 
    0.13523E+07         0.99353E+05         0.00000E+00
    0.99353E+05        -0.14097E+07         0.00000E+00
    0.00000E+00         0.00000E+00         0.00000E+00
 
    0.97744E+06         0.90385E+05         0.00000E+00
    0.90385E+05        -0.10722E+07         0.00000E+00
    0.00000E+00         0.00000E+00         0.00000E+00
 
    0.64212E+06         0.79584E+05         0.00000E+00
    0.79584E+05        -0.78330E+06         0.00000E+00
    0.00000E+00         0.00000E+00         0.00000E+00
 
    0.35160E+06         0.67472E+05         0.00000E+00
    0.67472E+05        -0.55196E+06         0.00000E+00
    0.00000E+00         0.00000E+00         0.00000E+00
 
    0.10904E+06         0.54761E+05         0.00000E+00
    0.54761E+05        -0.38541E+06         0.00000E+00
    0.00000E+00         0.00000E+00         0.00000E+00
 
    0.51536E+07         0.44091E+05         0.00000E+00
    0.44091E+05        -0.47564E+07         0.00000E+00
    0.00000E+00         0.00000E+00         0.00000E+00
 
    0.49636E+07         0.12334E+06         0.00000E+00
    0.12334E+06        -0.46486E+07         0.00000E+00
    0.00000E+00         0.00000E+00         0.00000E+00
 
    0.46915E+07         0.18979E+06         0.00000E+00
    0.18979E+06        -0.44467E+07         0.00000E+00
    0.00000E+00         0.00000E+00         0.00000E+00
 
    0.43533E+07         0.24304E+06         0.00000E+00
    0.24304E+06        -0.41675E+07         0.00000E+00
    0.00000E+00         0.00000E+00         0.00000E+00
 
    0.39649E+07         0.28329E+06         0.00000E+00
    0.28329E+06        -0.38280E+07         0.00000E+00
    0.00000E+00         0.00000E+00         0.00000E+00
 
    0.35414E+07         0.31114E+06         0.00000E+00
    0.31114E+06        -0.34451E+07         0.00000E+00
    0.00000E+00         0.00000E+00         0.00000E+00
 
    0.30969E+07         0.32748E+06         0.00000E+00
    0.32748E+06        -0.30351E+07         0.00000E+00
    0.00000E+00         0.00000E+00         0.00000E+00
 
    0.26446E+07         0.33327E+06         0.00000E+00
    0.33327E+06        -0.26130E+07         0.00000E+00
    0.00000E+00         0.00000E+00         0.00000E+00
 
    0.21963E+07         0.32952E+06         0.00000E+00
    0.32952E+06        -0.21931E+07         0.00000E+00
    0.00000E+00         0.00000E+00         0.00000E+00
 
    0.17630E+07         0.31717E+06         0.00000E+00
    0.31717E+06        -0.17884E+07         0.00000E+00
    0.00000E+00         0.00000E+00         0.00000E+00
 
    0.13540E+07         0.29716E+06         0.00000E+00
    0.29716E+06        -0.14111E+07         0.00000E+00
    0.00000E+00         0.00000E+00         0.00000E+00
 
    0.97783E+06         0.27047E+06         0.00000E+00
    0.27047E+06        -0.10724E+07         0.00000E+00
    0.00000E+00         0.00000E+00         0.00000E+00
 
    0.64153E+06         0.23826E+06         0.00000E+00
    0.23826E+06        -0.78249E+06         0.00000E+00
    0.00000E+00         0.00000E+00         0.00000E+00
 
    0.35058E+06         0.20204E+06         0.00000E+00
    0.20204E+06        -0.55040E+06         0.00000E+00
    0.00000E+00         0.00000E+00         0.00000E+00
 
    0.10851E+06         0.16389E+06         0.00000E+00
    0.16389E+06        -0.38373E+06         0.00000E+00
    0.00000E+00         0.00000E+00         0.00000E+00
 
    0.52359E+07         0.73228E+05         0.00000E+00
    0.73228E+05        -0.47876E+07         0.00000E+00
    0.00000E+00         0.00000E+00         0.00000E+00
 
    0.50320E+07         0.20459E+06         0.00000E+00
    0.20459E+06        -0.46780E+07         0.00000E+00
    0.00000E+00         0.00000E+00         0.00000E+00
 
    0.47472E+07         0.31448E+06         0.00000E+00
    0.31448E+06        -0.44731E+07         0.00000E+00
    0.00000E+00         0.00000E+00         0.00000E+00
 
    0.43978E+07         0.40236E+06         0.00000E+00
    0.40236E+06        -0.41904E+07         0.00000E+00
    0.00000E+00         0.00000E+00         0.00000E+00
 
    0.39998E+07         0.46864E+06         0.00000E+00
    0.46864E+06        -0.38474E+07         0.00000E+00
    0.00000E+00         0.00000E+00         0.00000E+00
 
    0.35683E+07         0.51447E+06         0.00000E+00
    0.51447E+06        -0.34613E+07         0.00000E+00
    0.00000E+00         0.00000E+00         0.00000E+00
 
    0.31174E+07         0.54135E+06         0.00000E+00
    0.54135E+06        -0.30483E+07         0.00000E+00
    0.00000E+00         0.00000E+00         0.00000E+00
 
    0.26599E+07         0.55096E+06         0.00000E+00
    0.55096E+06        -0.26237E+07         0.00000E+00
    0.00000E+00         0.00000E+00         0.00000E+00
 
    0.22074E+07         0.54495E+06         0.00000E+00
    0.54495E+06        -0.22015E+07         0.00000E+00
    0.00000E+00         0.00000E+00         0.00000E+00
 
    0.17704E+07         0.52487E+06         0.00000E+00
    0.52487E+06        -0.17946E+07         0.00000E+00
    0.00000E+00         0.00000E+00         0.00000E+00
 
    0.13583E+07         0.49221E+06         0.00000E+00
    0.49221E+06        -0.14151E+07         0.00000E+00
    0.00000E+00         0.00000E+00         0.00000E+00
 
    0.97944E+06         0.44848E+06         0.00000E+00
    0.44848E+06        -0.10741E+07         0.00000E+00
    0.00000E+00         0.00000E+00         0.00000E+00
 
    0.64107E+06         0.39547E+06         0.00000E+00
    0.39547E+06        -0.78207E+06         0.00000E+00
    0.00000E+00         0.00000E+00         0.00000E+00
 
    0.34908E+06         0.33554E+06         0.00000E+00
    0.33554E+06        -0.54844E+06         0.00000E+00
    0.00000E+00         0.00000E+00         0.00000E+00
 
    0.10766E+06         0.27196E+06         0.00000E+00
    0.27196E+06        -0.38139E+06         0.00000E+00
    0.00000E+00         0.00000E+00         0.00000E+00
 
    0.53597E+07         0.10192E+06         0.00000E+00
    0.10192E+06        -0.48334E+07         0.00000E+00
    0.00000E+00         0.00000E+00         0.00000E+00
 
    0.51346E+07         0.28424E+06         0.00000E+00
    0.28424E+06        -0.47211E+07         0.00000E+00
    0.00000E+00         0.00000E+00         0.00000E+00
 
    0.48305E+07         0.43622E+06         0.00000E+00
    0.43622E+06        -0.45119E+07         0.00000E+00
    0.00000E+00         0.00000E+00         0.00000E+00
 
    0.44644E+07         0.55734E+06         0.00000E+00
    0.55734E+06        -0.42242E+07         0.00000E+00
    0.00000E+00         0.00000E+00         0.00000E+00
 
    0.40522E+07         0.64845E+06         0.00000E+00
    0.64845E+06        -0.38764E+07         0.00000E+00
    0.00000E+00         0.00000E+00         0.00000E+00
 
    0.36091E+07         0.71131E+06         0.00000E+00
    0.71131E+06        -0.34859E+07         0.00000E+00
    0.00000E+00         0.00000E+00         0.00000E+00
 
    0.31489E+07         0.74821E+06         0.00000E+00
    0.74821E+06        -0.30691E+07         0.00000E+00
    0.00000E+00         0.00000E+00         0.00000E+00
 
    0.26840E+07         0.76157E+06         0.00000E+00
    0.76157E+06        -0.26413E+07         0.00000E+00
    0.00000E+00         0.00000E+00         0.00000E+00
 
    0.22254E+07         0.75370E+06         0.00000E+00
    0.75370E+06        -0.22161E+07         0.00000E+00
    0.00000E+00         0.00000E+00         0.00000E+00
 
    0.17833E+07         0.72670E+06         0.00000E+00
    0.72670E+06        -0.18063E+07         0.00000E+00
    0.00000E+00         0.00000E+00         0.00000E+00
 
    0.13667E+07         0.68250E+06         0.00000E+00
    0.68250E+06        -0.14238E+07         0.00000E+00
    0.00000E+00         0.00000E+00         0.00000E+00
 
    0.98383E+06         0.62296E+06         0.00000E+00
    0.62296E+06        -0.10796E+07         0.00000E+00
    0.00000E+00         0.00000E+00         0.00000E+00
 
    0.64212E+06         0.55029E+06         0.00000E+00
    0.55029E+06        -0.78451E+06         0.00000E+00
    0.00000E+00         0.00000E+00         0.00000E+00
 
    0.34805E+06         0.46741E+06         0.00000E+00
    0.46741E+06        -0.54840E+06         0.00000E+00
    0.00000E+00         0.00000E+00         0.00000E+00
 
    0.10684E+06         0.37853E+06         0.00000E+00
    0.37853E+06        -0.38044E+06         0.00000E+00
    0.00000E+00         0.00000E+00         0.00000E+00
 
    0.55249E+07         0.12991E+06         0.00000E+00
    0.12991E+06        -0.48923E+07         0.00000E+00
    0.00000E+00         0.00000E+00         0.00000E+00
 
    0.52711E+07         0.36143E+06         0.00000E+00
    0.36143E+06        -0.47767E+07         0.00000E+00
    0.00000E+00         0.00000E+00         0.00000E+00
 
    0.49412E+07         0.55346E+06         0.00000E+00
    0.55346E+06        -0.45622E+07         0.00000E+00
    0.00000E+00         0.00000E+00         0.00000E+00
 
    0.45527E+07         0.70577E+06         0.00000E+00
    0.70577E+06        -0.42685E+07         0.00000E+00
    0.00000E+00         0.00000E+00         0.00000E+00
 
    0.41221E+07         0.81987E+06         0.00000E+00
    0.81987E+06        -0.39149E+07         0.00000E+00
    0.00000E+00         0.00000E+00         0.00000E+00
 
    0.36642E+07         0.89841E+06         0.00000E+00
    0.89841E+06        -0.35194E+07         0.00000E+00
    0.00000E+00         0.00000E+00         0.00000E+00
 
    0.31923E+07         0.94456E+06         0.00000E+00
    0.94456E+06        -0.30987E+07         0.00000E+00
    0.00000E+00         0.00000E+00         0.00000E+00
 
    0.27182E+07         0.96159E+06         0.00000E+00
    0.96159E+06        -0.26675E+07         0.00000E+00
    0.00000E+00         0.00000E+00         0.00000E+00
 
    0.22523E+07         0.95249E+06         0.00000E+00
    0.95249E+06        -0.22393E+07         0.00000E+00
    0.00000E+00         0.00000E+00         0.00000E+00
 
    0.18040E+07         0.91983E+06         0.00000E+00
    0.91983E+06        -0.18266E+07         0.00000E+00
    0.00000E+00         0.00000E+00         0.00000E+00
 
    0.13817E+07         0.86578E+06         0.00000E+00
    0.86578E+06        -0.14407E+07         0.00000E+00
    0.00000E+00         0.00000E+00         0.00000E+00
 
    0.99337E+06         0.79236E+06         0.00000E+00
    0.79236E+06        -0.10927E+07         0.00000E+00
    0.00000E+00         0.00000E+00         0.00000E+00
 
    0.64674E+06         0.70184E+06         0.00000E+00
    0.70184E+06        -0.79357E+06         0.00000E+00
    0.00000E+00         0.00000E+00         0.00000E+00
 
    0.34897E+06         0.59734E+06         0.00000E+00
    0.59734E+06        -0.55388E+06         0.00000E+00
    0.00000E+00         0.00000E+00         0.00000E+00
 
    0.10658E+06         0.48362E+06         0.00000E+00
    0.48362E+06        -0.38407E+06         0.00000E+00
    0.00000E+00         0.00000E+00         0.00000E+00
 
    0.57316E+07         0.15686E+06         0.00000E+00
    0.15686E+06        -0.49627E+07         0.00000E+00
    0.00000E+00         0.00000E+00         0.00000E+00
 
    0.54410E+07         0.43505E+06         0.00000E+00
    0.43505E+06        -0.48432E+07         0.00000E+00
    0.00000E+00         0.00000E+00         0.00000E+00
 
    0.50785E+07         0.66427E+06         0.00000E+00
    0.66427E+06        -0.46226E+07         0.00000E+00
    0.00000E+00         0.00000E+00         0.00000E+00
 
    0.46624E+07         0.84492E+06         0.00000E+00
    0.84492E+06        -0.43224E+07         0.00000E+00
    0.00000E+00         0.00000E+00         0.00000E+00
 
    0.42093E+07         0.97952E+06         0.00000E+00
    0.97952E+06        -0.39629E+07         0.00000E+00
    0.00000E+00         0.00000E+00         0.00000E+00
 
    0.37338E+07         0.10718E+07         0.00000E+00
    0.10718E+07        -0.35627E+07         0.00000E+00
    0.00000E+00         0.00000E+00         0.00000E+00
 
    0.32486E+07         0.11262E+07         0.00000E+00
    0.11262E+07        -0.31385E+07         0.00000E+00
    0.00000E+00         0.00000E+00         0.00000E+00
 
    0.27644E+07         0.11468E+07         0.00000E+00
    0.11468E+07        -0.27048E+07         0.00000E+00
    0.00000E+00         0.00000E+00         0.00000E+00
 
    0.22905E+07         0.11374E+07         0.00000E+00
    0.11374E+07        -0.22746E+07         0.00000E+00
    0.00000E+00         0.00000E+00         0.00000E+00
 
    0.18353E+07         0.11009E+07         0.00000E+00
    0.11009E+07        -0.18595E+07         0.00000E+00
    0.00000E+00         0.00000E+00         0.00000E+00
 
    0.14063E+07         0.10395E+07         0.00000E+00
    0.10395E+07        -0.14706E+07         0.00000E+00
    0.00000E+00         0.00000E+00         0.00000E+00
 
    0.10113E+07         0.95499E+06         0.00000E+00
    0.95499E+06        -0.11185E+07         0.00000E+00
    0.00000E+00         0.00000E+00         0.00000E+00
 
    0.65775E+06         0.84935E+06         0.00000E+00
    0.84935E+06        -0.81445E+06         0.00000E+00
    0.00000E+00         0.00000E+00         0.00000E+00
 
    0.35383E+06         0.72539E+06         0.00000E+00
    0.72539E+06        -0.56988E+06         0.00000E+00
    0.00000E+00         0.00000E+00         0.00000E+00
 
    0.10765E+06         0.58784E+06         0.00000E+00
    0.58784E+06        -0.39674E+06         0.00000E+00
    0.00000E+00         0.00000E+00         0.00000E+00
 
    0.59794E+07         0.18236E+06         0.00000E+00
    0.18236E+06        -0.50421E+07         0.00000E+00
    0.00000E+00         0.00000E+00         0.00000E+00
 
    0.56434E+07         0.50374E+06         0.00000E+00
    0.50374E+06        -0.49183E+07         0.00000E+00
    0.00000E+00         0.00000E+00         0.00000E+00
 
    0.52414E+07         0.76628E+06         0.00000E+00
    0.76628E+06        -0.46914E+07         0.00000E+00
    0.00000E+00         0.00000E+00         0.00000E+00
 
    0.47925E+07         0.97146E+06         0.00000E+00
    0.97146E+06        -0.43848E+07         0.00000E+00
    0.00000E+00         0.00000E+00         0.00000E+00
 
    0.43134E+07         0.11232E+07         0.00000E+00
    0.11232E+07        -0.40200E+07         0.00000E+00
    0.00000E+00         0.00000E+00         0.00000E+00
 
    0.38184E+07         0.12269E+07         0.00000E+00
    0.12269E+07        -0.36165E+07         0.00000E+00
    0.00000E+00         0.00000E+00         0.00000E+00
 
    0.33189E+07         0.12881E+07         0.00000E+00
    0.12881E+07        -0.31906E+07         0.00000E+00
    0.00000E+00         0.00000E+00         0.00000E+00
 
    0.28246E+07         0.13123E+07         0.00000E+00
    0.13123E+07        -0.27565E+07         0.00000E+00
    0.00000E+00         0.00000E+00         0.00000E+00
 
    0.23429E+07         0.13039E+07         0.00000E+00
    0.13039E+07        -0.23263E+07         0.00000E+00
    0.00000E+00         0.00000E+00         0.00000E+00
 
    0.18809E+07         0.12660E+07         0.00000E+00
    0.12660E+07        -0.19105E+07         0.00000E+00
    0.00000E+00         0.00000E+00         0.00000E+00
 
    0.14448E+07         0.12006E+07         0.00000E+00
    0.12006E+07        -0.15196E+07         0.00000E+00
    0.00000E+00         0.00000E+00         0.00000E+00
 
    0.10415E+07         0.11090E+07         0.00000E+00
    0.11090E+07        -0.11636E+07         0.00000E+00
    0.00000E+00         0.00000E+00         0.00000E+00
 
    0.67873E+06         0.99218E+06         0.00000E+00
    0.99218E+06        -0.85393E+06         0.00000E+00
    0.00000E+00         0.00000E+00         0.00000E+00
 
    0.36522E+06         0.85206E+06         0.00000E+00
    0.85206E+06        -0.60289E+06         0.00000E+00
    0.00000E+00         0.00000E+00         0.00000E+00
 
    0.11099E+06         0.69263E+06         0.00000E+00
    0.69263E+06        -0.42424E+06         0.00000E+00
    0.00000E+00         0.00000E+00         0.00000E+00
 
    0.62677E+07         0.20587E+06         0.00000E+00
    0.20587E+06        -0.51277E+07         0.00000E+00
    0.00000E+00         0.00000E+00         0.00000E+00
 
    0.58771E+07         0.56580E+06         0.00000E+00
    0.56580E+06        -0.49995E+07         0.00000E+00
    0.00000E+00         0.00000E+00         0.00000E+00
 
    0.54283E+07         0.85655E+06         0.00000E+00
    0.85655E+06        -0.47665E+07         0.00000E+00
    0.00000E+00         0.00000E+00         0.00000E+00
 
    0.49416E+07         0.10813E+07         0.00000E+00
    0.10813E+07        -0.44544E+07         0.00000E+00
    0.00000E+00         0.00000E+00         0.00000E+00
 
    0.44337E+07         0.12459E+07         0.00000E+00
    0.12459E+07        -0.40862E+07         0.00000E+00
    0.00000E+00         0.00000E+00         0.00000E+00
 
    0.39180E+07         0.13577E+07         0.00000E+00
    0.13577E+07        -0.36819E+07         0.00000E+00
    0.00000E+00         0.00000E+00         0.00000E+00
 
    0.34047E+07         0.14242E+07         0.00000E+00
    0.14242E+07        -0.32576E+07         0.00000E+00
    0.00000E+00         0.00000E+00         0.00000E+00
 
    0.29011E+07         0.14521E+07         0.00000E+00
    0.14521E+07        -0.28266E+07         0.00000E+00
    0.00000E+00         0.00000E+00         0.00000E+00
 
    0.24130E+07         0.14464E+07         0.00000E+00
    0.14464E+07        -0.23996E+07         0.00000E+00
    0.00000E+00         0.00000E+00         0.00000E+00
 
    0.19450E+07         0.14105E+07         0.00000E+00
    0.14105E+07        -0.19862E+07         0.00000E+00
    0.00000E+00         0.00000E+00         0.00000E+00
 
    0.15018E+07         0.13457E+07         0.00000E+00
    0.13457E+07        -0.15952E+07         0.00000E+00
    0.00000E+00         0.00000E+00         0.00000E+00
 
    0.10891E+07         0.12524E+07         0.00000E+00
    0.12524E+07        -0.12363E+07         0.00000E+00
    0.00000E+00         0.00000E+00         0.00000E+00
 
    0.71406E+06         0.11299E+07         0.00000E+00
    0.11299E+07        -0.92046E+06         0.00000E+00
    0.00000E+00         0.00000E+00         0.00000E+00
 
    0.38630E+06         0.97847E+06         0.00000E+00
    0.97847E+06        -0.66109E+06         0.00000E+00
    0.00000E+00         0.00000E+00         0.00000E+00
 
    0.11779E+06         0.80045E+06         0.00000E+00
    0.80045E+06        -0.47395E+06         0.00000E+00
    0.00000E+00         0.00000E+00         0.00000E+00
 
    0.65951E+07         0.22673E+06         0.00000E+00
    0.22673E+06        -0.52158E+07         0.00000E+00
    0.00000E+00         0.00000E+00         0.00000E+00
 
    0.61398E+07         0.61912E+06         0.00000E+00
    0.61912E+06        -0.50836E+07         0.00000E+00
    0.00000E+00         0.00000E+00         0.00000E+00
 
    0.56369E+07         0.93149E+06         0.00000E+00
    0.93149E+06        -0.48453E+07         0.00000E+00
    0.00000E+00         0.00000E+00         0.00000E+00
 
    0.51078E+07         0.11694E+07         0.00000E+00
    0.11694E+07        -0.45296E+07         0.00000E+00
    0.00000E+00         0.00000E+00         0.00000E+00
 
    0.45689E+07         0.13414E+07         0.00000E+00
    0.13414E+07        -0.41612E+07         0.00000E+00
    0.00000E+00         0.00000E+00         0.00000E+00
 
    0.40326E+07         0.14575E+07         0.00000E+00
    0.14575E+07        -0.37603E+07         0.00000E+00
    0.00000E+00         0.00000E+00         0.00000E+00
 
    0.35069E+07         0.15273E+07         0.00000E+00
    0.15273E+07        -0.33425E+07         0.00000E+00
    0.00000E+00         0.00000E+00         0.00000E+00
 
    0.29966E+07         0.15589E+07         0.00000E+00
    0.15589E+07        -0.29198E+07         0.00000E+00
    0.00000E+00         0.00000E+00         0.00000E+00
 
    0.25046E+07         0.15584E+07         0.00000E+00
    0.15584E+07        -0.25013E+07         0.00000E+00
    0.00000E+00         0.00000E+00         0.00000E+00
 
    0.20326E+07         0.15289E+07         0.00000E+00
    0.15289E+07        -0.20945E+07         0.00000E+00
    0.00000E+00         0.00000E+00         0.00000E+00
 
    0.15830E+07         0.14709E+07         0.00000E+00
    0.14709E+07        -0.17067E+07         0.00000E+00
    0.00000E+00         0.00000E+00         0.00000E+00
 
    0.11596E+07         0.13829E+07         0.00000E+00
    0.13829E+07        -0.13464E+07         0.00000E+00
    0.00000E+00         0.00000E+00         0.00000E+00
 
    0.76885E+06         0.12623E+07         0.00000E+00
    0.12623E+07        -0.10243E+07         0.00000E+00
    0.00000E+00         0.00000E+00         0.00000E+00
 
    0.42080E+06         0.11065E+07         0.00000E+00
    0.11065E+07        -0.75452E+06         0.00000E+00
    0.00000E+00         0.00000E+00         0.00000E+00
 
    0.12947E+06         0.91501E+06         0.00000E+00
    0.91501E+06        -0.55493E+06         0.00000E+00
    0.00000E+00         0.00000E+00         0.00000E+00
 
    0.69595E+07         0.24417E+06         0.00000E+00
    0.24417E+06        -0.53024E+07         0.00000E+00
    0.00000E+00         0.00000E+00         0.00000E+00
 
    0.64284E+07         0.66117E+06         0.00000E+00
    0.66117E+06        -0.51666E+07         0.00000E+00
    0.00000E+00         0.00000E+00         0.00000E+00
 
    0.58638E+07         0.98675E+06         0.00000E+00
    0.98675E+06        -0.49248E+07         0.00000E+00
    0.00000E+00         0.00000E+00         0.00000E+00
 
    0.52878E+07         0.12298E+07         0.00000E+00
    0.12298E+07        -0.46089E+07         0.00000E+00
    0.00000E+00         0.00000E+00         0.00000E+00
 
    0.47169E+07         0.14025E+07         0.00000E+00
    0.14025E+07        -0.42450E+07         0.00000E+00
    0.00000E+00         0.00000E+00         0.00000E+00
 
    0.41614E+07         0.15180E+07         0.00000E+00
    0.15180E+07        -0.38535E+07         0.00000E+00
    0.00000E+00         0.00000E+00         0.00000E+00
 
    0.36265E+07         0.15888E+07         0.00000E+00
    0.15888E+07        -0.34492E+07         0.00000E+00
    0.00000E+00         0.00000E+00         0.00000E+00
 
    0.31136E+07         0.16248E+07         0.00000E+00
    0.16248E+07        -0.30421E+07         0.00000E+00
    0.00000E+00         0.00000E+00         0.00000E+00
 
    0.26217E+07         0.16326E+07         0.00000E+00
    0.16326E+07        -0.26390E+07         0.00000E+00
    0.00000E+00         0.00000E+00         0.00000E+00
 
    0.21490E+07         0.16151E+07         0.00000E+00
    0.16151E+07        -0.22449E+07         0.00000E+00
    0.00000E+00         0.00000E+00         0.00000E+00
 
    0.16944E+07         0.15716E+07         0.00000E+00
    0.15716E+07        -0.18650E+07         0.00000E+00
    0.00000E+00         0.00000E+00         0.00000E+00
 
    0.12594E+07         0.14984E+07         0.00000E+00
    0.14984E+07        -0.15059E+07         0.00000E+00
    0.00000E+00         0.00000E+00         0.00000E+00
 
    0.84891E+06         0.13895E+07         0.00000E+00
    0.13895E+07        -0.11778E+07         0.00000E+00
    0.00000E+00         0.00000E+00         0.00000E+00
 
    0.47302E+06         0.12387E+07         0.00000E+00
    0.12387E+07        -0.89516E+06         0.00000E+00
    0.00000E+00         0.00000E+00         0.00000E+00
 
    0.14766E+06         0.10415E+07         0.00000E+00
    0.10415E+07        -0.67812E+06         0.00000E+00
    0.00000E+00         0.00000E+00         0.00000E+00
 
    0.73576E+07         0.25723E+06         0.00000E+00
    0.25723E+06        -0.53826E+07         0.00000E+00
    0.00000E+00         0.00000E+00         0.00000E+00
 
    0.67385E+07         0.68890E+06         0.00000E+00
    0.68890E+06        -0.52442E+07         0.00000E+00
    0.00000E+00         0.00000E+00         0.00000E+00
 
    0.61039E+07         0.10171E+07         0.00000E+00
    0.10171E+07        -0.50017E+07         0.00000E+00
    0.00000E+00         0.00000E+00         0.00000E+00
 
    0.54775E+07         0.12554E+07         0.00000E+00
    0.12554E+07        -0.46903E+07         0.00000E+00
    0.00000E+00         0.00000E+00         0.00000E+00
 
    0.48745E+07         0.14205E+07         0.00000E+00
    0.14205E+07        -0.43377E+07         0.00000E+00
    0.00000E+00         0.00000E+00         0.00000E+00
 
    0.43028E+07         0.15300E+07         0.00000E+00
    0.15300E+07        -0.39641E+07         0.00000E+00
    0.00000E+00         0.00000E+00         0.00000E+00
 
    0.37637E+07         0.15992E+07         0.00000E+00
    0.15992E+07        -0.35826E+07         0.00000E+00
    0.00000E+00         0.00000E+00         0.00000E+00
 
    0.32542E+07         0.16403E+07         0.00000E+00
    0.16403E+07        -0.32006E+07         0.00000E+00
    0.00000E+00         0.00000E+00         0.00000E+00
 
    0.27683E+07         0.16605E+07         0.00000E+00
    0.16605E+07        -0.28220E+07         0.00000E+00
    0.00000E+00         0.00000E+00         0.00000E+00
 
    0.22995E+07         0.16623E+07         0.00000E+00
    0.16623E+07        -0.24485E+07         0.00000E+00
    0.00000E+00         0.00000E+00         0.00000E+00
 
    0.18425E+07         0.16432E+07         0.00000E+00
    0.16432E+07        -0.20825E+07         0.00000E+00
    0.00000E+00         0.00000E+00         0.00000E+00
 
    0.13953E+07         0.15963E+07         0.00000E+00
    0.15963E+07        -0.17285E+07         0.00000E+00
    0.00000E+00         0.00000E+00         0.00000E+00
 
    0.96050E+06         0.15120E+07         0.00000E+00
    0.15120E+07        -0.13951E+07         0.00000E+00
    0.00000E+00         0.00000E+00         0.00000E+00
 
    0.54767E+06         0.13789E+07         0.00000E+00
    0.13789E+07        -0.10971E+07         0.00000E+00
    0.00000E+00         0.00000E+00         0.00000E+00
 
    0.17419E+06         0.11869E+07         0.00000E+00
    0.11869E+07        -0.85648E+06         0.00000E+00
    0.00000E+00         0.00000E+00         0.00000E+00
 
    0.77845E+07         0.26480E+06         0.00000E+00
    0.26480E+06        -0.54510E+07         0.00000E+00
    0.00000E+00         0.00000E+00         0.00000E+00
 
    0.70634E+07         0.69865E+06         0.00000E+00
    0.69865E+06        -0.53118E+07         0.00000E+00
    0.00000E+00         0.00000E+00         0.00000E+00
 
    0.63507E+07         0.10164E+07         0.00000E+00
    0.10164E+07        -0.50726E+07         0.00000E+00
    0.00000E+00         0.00000E+00         0.00000E+00
 
    0.56706E+07         0.12378E+07         0.00000E+00
    0.12378E+07        -0.47725E+07         0.00000E+00
    0.00000E+00         0.00000E+00         0.00000E+00
 
    0.50371E+07         0.13856E+07         0.00000E+00
    0.13856E+07        -0.44404E+07         0.00000E+00
    0.00000E+00         0.00000E+00         0.00000E+00
 
    0.44541E+07         0.14825E+07         0.00000E+00
    0.14825E+07        -0.40955E+07         0.00000E+00
    0.00000E+00         0.00000E+00         0.00000E+00
 
    0.39181E+07         0.15476E+07         0.00000E+00
    0.15476E+07        -0.37486E+07         0.00000E+00
    0.00000E+00         0.00000E+00         0.00000E+00
 
    0.34200E+07         0.15952E+07         0.00000E+00
    0.15952E+07        -0.34037E+07         0.00000E+00
    0.00000E+00         0.00000E+00         0.00000E+00
 
    0.29479E+07         0.16332E+07         0.00000E+00
    0.16332E+07        -0.30608E+07         0.00000E+00
    0.00000E+00         0.00000E+00         0.00000E+00
 
    0.24893E+07         0.16632E+07         0.00000E+00
    0.16632E+07        -0.27179E+07         0.00000E+00
    0.00000E+00         0.00000E+00         0.00000E+00
 
    0.20335E+07         0.16804E+07         0.00000E+00
    0.16804E+07        -0.23736E+07         0.00000E+00
    0.00000E+00         0.00000E+00         0.00000E+00
 
    0.15739E+07         0.16746E+07         0.00000E+00
    0.16746E+07        -0.20296E+07         0.00000E+00
    0.00000E+00         0.00000E+00         0.00000E+00
 
    0.11100E+07         0.16309E+07         0.00000E+00
    0.16309E+07        -0.16924E+07         0.00000E+00
    0.00000E+00         0.00000E+00         0.00000E+00
 
    0.64967E+06         0.15319E+07         0.00000E+00
    0.15319E+07        -0.13764E+07         0.00000E+00
    0.00000E+00         0.00000E+00         0.00000E+00
 
    0.21096E+06         0.13599E+07         0.00000E+00
    0.13599E+07        -0.11050E+07         0.00000E+00
    0.00000E+00         0.00000E+00         0.00000E+00
 
    0.82329E+07         0.26553E+06         0.00000E+00
    0.26553E+06        -0.55020E+07         0.00000E+00
    0.00000E+00         0.00000E+00         0.00000E+00
 
    0.73943E+07         0.68604E+06         0.00000E+00
    0.68604E+06        -0.53644E+07         0.00000E+00
    0.00000E+00         0.00000E+00         0.00000E+00
 
    0.65945E+07         0.97730E+06         0.00000E+00
    0.97730E+06        -0.51344E+07         0.00000E+00
    0.00000E+00         0.00000E+00         0.00000E+00
 
    0.58587E+07         0.11673E+07         0.00000E+00
    0.11673E+07        -0.48548E+07         0.00000E+00
    0.00000E+00         0.00000E+00         0.00000E+00
 
    0.51979E+07         0.12866E+07         0.00000E+00
    0.12866E+07        -0.45551E+07         0.00000E+00
    0.00000E+00         0.00000E+00         0.00000E+00
 
    0.46111E+07         0.13639E+07         0.00000E+00
    0.13639E+07        -0.42528E+07         0.00000E+00
    0.00000E+00         0.00000E+00         0.00000E+00
 
    0.40877E+07         0.14224E+07         0.00000E+00
    0.14224E+07        -0.39551E+07         0.00000E+00
    0.00000E+00         0.00000E+00         0.00000E+00
 
    0.36114E+07         0.14788E+07         0.00000E+00
    0.14788E+07        -0.36617E+07         0.00000E+00
    0.00000E+00         0.00000E+00         0.00000E+00
 
    0.31629E+07         0.15413E+07         0.00000E+00
    0.15413E+07        -0.33679E+07         0.00000E+00
    0.00000E+00         0.00000E+00         0.00000E+00
 
    0.27224E+07         0.16103E+07         0.00000E+00
    0.16103E+07        -0.30672E+07         0.00000E+00
    0.00000E+00         0.00000E+00         0.00000E+00
 
    0.22727E+07         0.16785E+07         0.00000E+00
    0.16785E+07        -0.27540E+07         0.00000E+00
    0.00000E+00         0.00000E+00         0.00000E+00
 
    0.18014E+07         0.17311E+07         0.00000E+00
    0.17311E+07        -0.24261E+07         0.00000E+00
    0.00000E+00         0.00000E+00         0.00000E+00
 
    0.13035E+07         0.17478E+07         0.00000E+00
    0.17478E+07        -0.20876E+07         0.00000E+00
    0.00000E+00         0.00000E+00         0.00000E+00
 
    0.78379E+06         0.17034E+07         0.00000E+00
    0.17034E+07        -0.17510E+07         0.00000E+00
    0.00000E+00         0.00000E+00         0.00000E+00
 
    0.25990E+06         0.15713E+07         0.00000E+00
    0.15713E+07        -0.14407E+07         0.00000E+00
    0.00000E+00         0.00000E+00         0.00000E+00
 
    0.86924E+07         0.25780E+06         0.00000E+00
    0.25780E+06        -0.55302E+07         0.00000E+00
    0.00000E+00         0.00000E+00         0.00000E+00
 
    0.77182E+07         0.64582E+06         0.00000E+00
    0.64582E+06        -0.53980E+07         0.00000E+00
    0.00000E+00         0.00000E+00         0.00000E+00
 
    0.68224E+07         0.89118E+06         0.00000E+00
    0.89118E+06        -0.51853E+07         0.00000E+00
    0.00000E+00         0.00000E+00         0.00000E+00
 
    0.60301E+07         0.10329E+07         0.00000E+00
    0.10329E+07        -0.49384E+07         0.00000E+00
    0.00000E+00         0.00000E+00         0.00000E+00
 
    0.53477E+07         0.11112E+07         0.00000E+00
    0.11112E+07        -0.46863E+07         0.00000E+00
    0.00000E+00         0.00000E+00         0.00000E+00
 
    0.47668E+07         0.11615E+07         0.00000E+00
    0.11615E+07        -0.44434E+07         0.00000E+00
    0.00000E+00         0.00000E+00         0.00000E+00
 
    0.42683E+07         0.12118E+07         0.00000E+00
    0.12118E+07        -0.42120E+07         0.00000E+00
    0.00000E+00         0.00000E+00         0.00000E+00
 
    0.38266E+07         0.12804E+07         0.00000E+00
    0.12804E+07        -0.39867E+07         0.00000E+00
    0.00000E+00         0.00000E+00         0.00000E+00
 
    0.34134E+07         0.13759E+07         0.00000E+00
    0.13759E+07        -0.37573E+07         0.00000E+00
    0.00000E+00         0.00000E+00         0.00000E+00
 
    0.30007E+07         0.14969E+07         0.00000E+00
    0.14969E+07        -0.35121E+07         0.00000E+00
    0.00000E+00         0.00000E+00         0.00000E+00
 
    0.25635E+07         0.16329E+07         0.00000E+00
    0.16329E+07        -0.32406E+07         0.00000E+00
    0.00000E+00         0.00000E+00         0.00000E+00
 
    0.20822E+07         0.17646E+07         0.00000E+00
    0.17646E+07        -0.29364E+07         0.00000E+00
    0.00000E+00         0.00000E+00         0.00000E+00
 
    0.15456E+07         0.18650E+07         0.00000E+00
    0.18650E+07        -0.25996E+07         0.00000E+00
    0.00000E+00         0.00000E+00         0.00000E+00
 
    0.95407E+06         0.19006E+07         0.00000E+00
    0.19006E+07        -0.22405E+07         0.00000E+00
    0.00000E+00         0.00000E+00         0.00000E+00
 
    0.32268E+06         0.18337E+07         0.00000E+00
    0.18337E+07        -0.18825E+07         0.00000E+00
    0.00000E+00         0.00000E+00         0.00000E+00
 
    0.91477E+07         0.23957E+06         0.00000E+00
    0.23957E+06        -0.55312E+07         0.00000E+00
    0.00000E+00         0.00000E+00         0.00000E+00
 
    0.80172E+07         0.57156E+06         0.00000E+00
    0.57156E+06        -0.54099E+07         0.00000E+00
    0.00000E+00         0.00000E+00         0.00000E+00
 
    0.70166E+07         0.74797E+06         0.00000E+00
    0.74797E+06        -0.52257E+07         0.00000E+00
    0.00000E+00         0.00000E+00         0.00000E+00
 
    0.61689E+07         0.82237E+06         0.00000E+00
    0.82237E+06        -0.50275E+07         0.00000E+00
    0.00000E+00         0.00000E+00         0.00000E+00
 
    0.54734E+07         0.84624E+06         0.00000E+00
    0.84624E+06        -0.48419E+07         0.00000E+00
    0.00000E+00         0.00000E+00         0.00000E+00
 
    0.49113E+07         0.86289E+06         0.00000E+00
    0.86289E+06        -0.46781E+07         0.00000E+00
    0.00000E+00         0.00000E+00         0.00000E+00
 
    0.44525E+07         0.90438E+06         0.00000E+00
    0.90438E+06        -0.45326E+07         0.00000E+00
    0.00000E+00         0.00000E+00         0.00000E+00
 
    0.40603E+07         0.99056E+06         0.00000E+00
    0.99056E+06        -0.43935E+07         0.00000E+00
    0.00000E+00         0.00000E+00         0.00000E+00
 
    0.36963E+07         0.11293E+07         0.00000E+00
    0.11293E+07        -0.42447E+07         0.00000E+00
    0.00000E+00         0.00000E+00         0.00000E+00
 
    0.33227E+07         0.13173E+07         0.00000E+00
    0.13173E+07        -0.40691E+07         0.00000E+00
    0.00000E+00         0.00000E+00         0.00000E+00
 
    0.29057E+07         0.15404E+07         0.00000E+00
    0.15404E+07        -0.38509E+07         0.00000E+00
    0.00000E+00         0.00000E+00         0.00000E+00
 
    0.24174E+07         0.17744E+07         0.00000E+00
    0.17744E+07        -0.35787E+07         0.00000E+00
    0.00000E+00         0.00000E+00         0.00000E+00
 
    0.18387E+07         0.19856E+07         0.00000E+00
    0.19856E+07        -0.32482E+07         0.00000E+00
    0.00000E+00         0.00000E+00         0.00000E+00
 
    0.11630E+07         0.21313E+07         0.00000E+00
    0.21313E+07        -0.28652E+07         0.00000E+00
    0.00000E+00         0.00000E+00         0.00000E+00
 
    0.40047E+06         0.21611E+07         0.00000E+00
    0.21611E+07        -0.24505E+07         0.00000E+00
    0.00000E+00         0.00000E+00         0.00000E+00
 
    0.95760E+07         0.20821E+06         0.00000E+00
    0.20821E+06        -0.55035E+07         0.00000E+00
    0.00000E+00         0.00000E+00         0.00000E+00
 
    0.82657E+07         0.45542E+06         0.00000E+00
    0.45542E+06        -0.54011E+07         0.00000E+00
    0.00000E+00         0.00000E+00         0.00000E+00
 
    0.71524E+07         0.53601E+06         0.00000E+00
    0.53601E+06        -0.52607E+07         0.00000E+00
    0.00000E+00         0.00000E+00         0.00000E+00
 
    0.62536E+07         0.52219E+06         0.00000E+00
    0.52219E+06        -0.51314E+07         0.00000E+00
    0.00000E+00         0.00000E+00         0.00000E+00
 
    0.55570E+07         0.47864E+06         0.00000E+00
    0.47864E+06        -0.50347E+07         0.00000E+00
    0.00000E+00         0.00000E+00         0.00000E+00
 
    0.50299E+07         0.45639E+06         0.00000E+00
    0.45639E+06        -0.49726E+07         0.00000E+00
    0.00000E+00         0.00000E+00         0.00000E+00
 
    0.46283E+07         0.49082E+06         0.00000E+00
    0.49082E+06        -0.49337E+07         0.00000E+00
    0.00000E+00         0.00000E+00         0.00000E+00
 
    0.43026E+07         0.60213E+06         0.00000E+00
    0.60213E+06        -0.48993E+07         0.00000E+00
    0.00000E+00         0.00000E+00         0.00000E+00
 
    0.40028E+07         0.79664E+06         0.00000E+00
    0.79664E+06        -0.48473E+07         0.00000E+00
    0.00000E+00         0.00000E+00         0.00000E+00
 
    0.36811E+07         0.10683E+07         0.00000E+00
    0.10683E+07        -0.47551E+07         0.00000E+00
    0.00000E+00         0.00000E+00         0.00000E+00
 
    0.32936E+07         0.13994E+07         0.00000E+00
    0.13994E+07        -0.46020E+07         0.00000E+00
    0.00000E+00         0.00000E+00         0.00000E+00
 
    0.28031E+07         0.17612E+07         0.00000E+00
    0.17612E+07        -0.43710E+07         0.00000E+00
    0.00000E+00         0.00000E+00         0.00000E+00
 
    0.21807E+07         0.21134E+07         0.00000E+00
    0.21134E+07        -0.40521E+07         0.00000E+00
    0.00000E+00         0.00000E+00         0.00000E+00
 
    0.14103E+07         0.24038E+07         0.00000E+00
    0.24038E+07        -0.36453E+07         0.00000E+00
    0.00000E+00         0.00000E+00         0.00000E+00
 
    0.49349E+06         0.25686E+07         0.00000E+00
    0.25686E+07        -0.31657E+07         0.00000E+00
    0.00000E+00         0.00000E+00         0.00000E+00
 
    0.99433E+07         0.16024E+06         0.00000E+00
    0.16024E+06        -0.54510E+07         0.00000E+00
    0.00000E+00         0.00000E+00         0.00000E+00
 
    0.84277E+07         0.28772E+06         0.00000E+00
    0.28772E+06        -0.53788E+07         0.00000E+00
    0.00000E+00         0.00000E+00         0.00000E+00
 
    0.71963E+07         0.24204E+06         0.00000E+00
    0.24204E+06        -0.53025E+07         0.00000E+00
    0.00000E+00         0.00000E+00         0.00000E+00
 
    0.62550E+07         0.11861E+06         0.00000E+00
    0.11861E+06        -0.52672E+07         0.00000E+00
    0.00000E+00         0.00000E+00         0.00000E+00
 
    0.55739E+07        -0.36354E+04         0.00000E+00
   -0.36354E+04        -0.52854E+07         0.00000E+00
    0.00000E+00         0.00000E+00         0.00000E+00
 
    0.51017E+07        -0.66954E+05         0.00000E+00
   -0.66954E+05        -0.53488E+07         0.00000E+00
    0.00000E+00         0.00000E+00         0.00000E+00
 
    0.47770E+07        -0.34510E+05         0.00000E+00
   -0.34510E+05        -0.54371E+07         0.00000E+00
    0.00000E+00         0.00000E+00         0.00000E+00
 
    0.45360E+07         0.11231E+06         0.00000E+00
    0.11231E+06        -0.55245E+07         0.00000E+00
    0.00000E+00         0.00000E+00         0.00000E+00
 
    0.43165E+07         0.37697E+06         0.00000E+00
    0.37697E+06        -0.55835E+07         0.00000E+00
    0.00000E+00         0.00000E+00         0.00000E+00
 
    0.40601E+07         0.75019E+06         0.00000E+00
    0.75019E+06        -0.55868E+07         0.00000E+00
    0.00000E+00         0.00000E+00         0.00000E+00
 
    0.37132E+07         0.12111E+07         0.00000E+00
    0.12111E+07        -0.55092E+07         0.00000E+00
    0.00000E+00         0.00000E+00         0.00000E+00
 
    0.32277E+07         0.17270E+07         0.00000E+00
    0.17270E+07        -0.53286E+07         0.00000E+00
    0.00000E+00         0.00000E+00         0.00000E+00
 
    0.25635E+07         0.22523E+07         0.00000E+00
    0.22523E+07        -0.50281E+07         0.00000E+00
    0.00000E+00         0.00000E+00         0.00000E+00
 
    0.16916E+07         0.27261E+07         0.00000E+00
    0.27261E+07        -0.45995E+07         0.00000E+00
    0.00000E+00         0.00000E+00         0.00000E+00
 
    0.60046E+06         0.30711E+07         0.00000E+00
    0.30711E+07        -0.40486E+07         0.00000E+00
    0.00000E+00         0.00000E+00         0.00000E+00
 
    0.10198E+08         0.90979E+05         0.00000E+00
    0.90979E+05        -0.53870E+07         0.00000E+00
    0.00000E+00         0.00000E+00         0.00000E+00
 
    0.84519E+07         0.56614E+05         0.00000E+00
    0.56614E+05        -0.53609E+07         0.00000E+00
    0.00000E+00         0.00000E+00         0.00000E+00
 
    0.71023E+07        -0.14848E+06         0.00000E+00
   -0.14848E+06        -0.53750E+07         0.00000E+00
    0.00000E+00         0.00000E+00         0.00000E+00
 
    0.61340E+07        -0.40151E+06         0.00000E+00
   -0.40151E+06        -0.54635E+07         0.00000E+00
    0.00000E+00         0.00000E+00         0.00000E+00
 
    0.54906E+07        -0.60964E+06         0.00000E+00
   -0.60964E+06        -0.56245E+07         0.00000E+00
    0.00000E+00         0.00000E+00         0.00000E+00
 
    0.50966E+07        -0.71118E+06         0.00000E+00
   -0.71118E+06        -0.58366E+07         0.00000E+00
    0.00000E+00         0.00000E+00         0.00000E+00
 
    0.48704E+07        -0.67114E+06         0.00000E+00
   -0.67114E+06        -0.60697E+07         0.00000E+00
    0.00000E+00         0.00000E+00         0.00000E+00
 
    0.47326E+07        -0.47522E+06         0.00000E+00
   -0.47522E+06        -0.62918E+07         0.00000E+00
    0.00000E+00         0.00000E+00         0.00000E+00
 
    0.46093E+07        -0.12439E+06         0.00000E+00
   -0.12439E+06        -0.64714E+07         0.00000E+00
    0.00000E+00         0.00000E+00         0.00000E+00
 
    0.44323E+07         0.36851E+06         0.00000E+00
    0.36851E+06        -0.65785E+07         0.00000E+00
    0.00000E+00         0.00000E+00         0.00000E+00
 
    0.41384E+07         0.98014E+06         0.00000E+00
    0.98014E+06        -0.65846E+07         0.00000E+00
    0.00000E+00         0.00000E+00         0.00000E+00
 
    0.36687E+07         0.16757E+07         0.00000E+00
    0.16757E+07        -0.64628E+07         0.00000E+00
    0.00000E+00         0.00000E+00         0.00000E+00
 
    0.29697E+07         0.24063E+07         0.00000E+00
    0.24063E+07        -0.61886E+07         0.00000E+00
    0.00000E+00         0.00000E+00         0.00000E+00
 
    0.19962E+07         0.31048E+07         0.00000E+00
    0.31048E+07        -0.57432E+07         0.00000E+00
    0.00000E+00         0.00000E+00         0.00000E+00
 
    0.71791E+06         0.36814E+07         0.00000E+00
    0.36814E+07        -0.51184E+07         0.00000E+00
    0.00000E+00         0.00000E+00         0.00000E+00
 
    0.10265E+08        -0.58854E+04         0.00000E+00
   -0.58854E+04        -0.53405E+07         0.00000E+00
    0.00000E+00         0.00000E+00         0.00000E+00
 
    0.82665E+07        -0.25202E+06         0.00000E+00
   -0.25202E+06        -0.53818E+07         0.00000E+00
    0.00000E+00         0.00000E+00         0.00000E+00
 
    0.68084E+07        -0.65053E+06         0.00000E+00
   -0.65053E+06        -0.55186E+07         0.00000E+00
    0.00000E+00         0.00000E+00         0.00000E+00
 
    0.58381E+07        -0.10486E+07         0.00000E+00
   -0.10486E+07        -0.57641E+07         0.00000E+00
    0.00000E+00         0.00000E+00         0.00000E+00
 
    0.52619E+07        -0.13427E+07         0.00000E+00
   -0.13427E+07        -0.60953E+07         0.00000E+00
    0.00000E+00         0.00000E+00         0.00000E+00
 
    0.49731E+07        -0.14724E+07         0.00000E+00
   -0.14724E+07        -0.64750E+07         0.00000E+00
    0.00000E+00         0.00000E+00         0.00000E+00
 
    0.48674E+07        -0.14095E+07         0.00000E+00
   -0.14095E+07        -0.68639E+07         0.00000E+00
    0.00000E+00         0.00000E+00         0.00000E+00
 
    0.48505E+07        -0.11476E+07         0.00000E+00
   -0.11476E+07        -0.72256E+07         0.00000E+00
    0.00000E+00         0.00000E+00         0.00000E+00
 
    0.48380E+07        -0.69402E+06         0.00000E+00
   -0.69402E+06        -0.75278E+07         0.00000E+00
    0.00000E+00         0.00000E+00         0.00000E+00
 
    0.47541E+07        -0.64962E+05         0.00000E+00
   -0.64962E+05        -0.77405E+07         0.00000E+00
    0.00000E+00         0.00000E+00         0.00000E+00
 
    0.45275E+07         0.71528E+06         0.00000E+00
    0.71528E+06        -0.78341E+07         0.00000E+00
    0.00000E+00         0.00000E+00         0.00000E+00
 
    0.40888E+07         0.16126E+07         0.00000E+00
    0.16126E+07        -0.77778E+07         0.00000E+00
    0.00000E+00         0.00000E+00         0.00000E+00
 
    0.33698E+07         0.25784E+07         0.00000E+00
    0.25784E+07        -0.75393E+07         0.00000E+00
    0.00000E+00         0.00000E+00         0.00000E+00
 
    0.23052E+07         0.35431E+07         0.00000E+00
    0.35431E+07        -0.70859E+07         0.00000E+00
    0.00000E+00         0.00000E+00         0.00000E+00
 
    0.83933E+06         0.44077E+07         0.00000E+00
    0.44077E+07        -0.63907E+07         0.00000E+00
    0.00000E+00         0.00000E+00         0.00000E+00
 
    0.10032E+08        -0.13865E+06         0.00000E+00
   -0.13865E+06        -0.53640E+07         0.00000E+00
    0.00000E+00         0.00000E+00         0.00000E+00
 
    0.77723E+07        -0.65422E+06         0.00000E+00
   -0.65422E+06        -0.54998E+07         0.00000E+00
    0.00000E+00         0.00000E+00         0.00000E+00
 
    0.62322E+07        -0.12776E+07         0.00000E+00
   -0.12776E+07        -0.57966E+07         0.00000E+00
    0.00000E+00         0.00000E+00         0.00000E+00
 
    0.52990E+07        -0.18273E+07         0.00000E+00
   -0.18273E+07        -0.62323E+07         0.00000E+00
    0.00000E+00         0.00000E+00         0.00000E+00
 
    0.48277E+07        -0.21966E+07         0.00000E+00
   -0.21966E+07        -0.67557E+07         0.00000E+00
    0.00000E+00         0.00000E+00         0.00000E+00
 
    0.46740E+07        -0.23349E+07         0.00000E+00
   -0.23349E+07        -0.73124E+07         0.00000E+00
    0.00000E+00         0.00000E+00         0.00000E+00
 
    0.47103E+07        -0.22276E+07         0.00000E+00
   -0.22276E+07        -0.78559E+07         0.00000E+00
    0.00000E+00         0.00000E+00         0.00000E+00
 
    0.48290E+07        -0.18804E+07         0.00000E+00
   -0.18804E+07        -0.83499E+07         0.00000E+00
    0.00000E+00         0.00000E+00         0.00000E+00
 
    0.49394E+07        -0.13085E+07         0.00000E+00
   -0.13085E+07        -0.87653E+07         0.00000E+00
    0.00000E+00         0.00000E+00         0.00000E+00
 
    0.49614E+07        -0.53097E+06         0.00000E+00
   -0.53097E+06        -0.90762E+07         0.00000E+00
    0.00000E+00         0.00000E+00         0.00000E+00
 
    0.48185E+07         0.42962E+06         0.00000E+00
    0.42962E+06        -0.92550E+07         0.00000E+00
    0.00000E+00         0.00000E+00         0.00000E+00
 
    0.44322E+07         0.15439E+07         0.00000E+00
    0.15439E+07        -0.92686E+07         0.00000E+00
    0.00000E+00         0.00000E+00         0.00000E+00
 
    0.37187E+07         0.27690E+07         0.00000E+00
    0.27690E+07        -0.90762E+07         0.00000E+00
    0.00000E+00         0.00000E+00         0.00000E+00
 
    0.25888E+07         0.40386E+07         0.00000E+00
    0.40386E+07        -0.86294E+07         0.00000E+00
    0.00000E+00         0.00000E+00         0.00000E+00
 
    0.95424E+06         0.52504E+07         0.00000E+00
    0.52504E+07        -0.78757E+07         0.00000E+00
    0.00000E+00         0.00000E+00         0.00000E+00
 
    0.93370E+07        -0.31770E+06         0.00000E+00
   -0.31770E+06        -0.55444E+07         0.00000E+00
    0.00000E+00         0.00000E+00         0.00000E+00
 
    0.68356E+07        -0.11665E+07         0.00000E+00
   -0.11665E+07        -0.58064E+07         0.00000E+00
    0.00000E+00         0.00000E+00         0.00000E+00
 
    0.52668E+07        -0.20381E+07         0.00000E+00
   -0.20381E+07        -0.63014E+07         0.00000E+00
    0.00000E+00         0.00000E+00         0.00000E+00
 
    0.44288E+07        -0.27316E+07         0.00000E+00
   -0.27316E+07        -0.69540E+07         0.00000E+00
    0.00000E+00         0.00000E+00         0.00000E+00
 
    0.41097E+07        -0.31507E+07         0.00000E+00
   -0.31507E+07        -0.76784E+07         0.00000E+00
    0.00000E+00         0.00000E+00         0.00000E+00
 
    0.41232E+07        -0.32668E+07         0.00000E+00
   -0.32668E+07        -0.84043E+07         0.00000E+00
    0.00000E+00         0.00000E+00         0.00000E+00
 
    0.43201E+07        -0.30876E+07         0.00000E+00
   -0.30876E+07        -0.90831E+07         0.00000E+00
    0.00000E+00         0.00000E+00         0.00000E+00
 
    0.45848E+07        -0.26351E+07         0.00000E+00
   -0.26351E+07        -0.96846E+07         0.00000E+00
    0.00000E+00         0.00000E+00         0.00000E+00
 
    0.48259E+07        -0.19333E+07         0.00000E+00
   -0.19333E+07        -0.10189E+08         0.00000E+00
    0.00000E+00         0.00000E+00         0.00000E+00
 
    0.49650E+07        -0.10024E+07         0.00000E+00
   -0.10024E+07        -0.10579E+08         0.00000E+00
    0.00000E+00         0.00000E+00         0.00000E+00
 
    0.49247E+07         0.14035E+06         0.00000E+00
    0.14035E+06        -0.10833E+08         0.00000E+00
    0.00000E+00         0.00000E+00         0.00000E+00
 
    0.46202E+07         0.14759E+07         0.00000E+00
    0.14759E+07        -0.10917E+08         0.00000E+00
    0.00000E+00         0.00000E+00         0.00000E+00
 
    0.39519E+07         0.29740E+07         0.00000E+00
    0.29740E+07        -0.10783E+08         0.00000E+00
    0.00000E+00         0.00000E+00         0.00000E+00
 
    0.28040E+07         0.45800E+07         0.00000E+00
    0.45800E+07        -0.10364E+08         0.00000E+00
    0.00000E+00         0.00000E+00         0.00000E+00
 
    0.10473E+07         0.61974E+07         0.00000E+00
    0.61974E+07        -0.95765E+07         0.00000E+00
    0.00000E+00         0.00000E+00         0.00000E+00
 
    0.79586E+07        -0.55505E+06         0.00000E+00
   -0.55505E+06        -0.60136E+07         0.00000E+00
    0.00000E+00         0.00000E+00         0.00000E+00
 
    0.52837E+07        -0.18027E+07         0.00000E+00
   -0.18027E+07        -0.64342E+07         0.00000E+00
    0.00000E+00         0.00000E+00         0.00000E+00
 
    0.37797E+07        -0.29301E+07         0.00000E+00
   -0.29301E+07        -0.71580E+07         0.00000E+00
    0.00000E+00         0.00000E+00         0.00000E+00
 
    0.31192E+07        -0.37386E+07         0.00000E+00
   -0.37386E+07        -0.80370E+07         0.00000E+00
    0.00000E+00         0.00000E+00         0.00000E+00
 
    0.30096E+07        -0.41641E+07         0.00000E+00
   -0.41641E+07        -0.89473E+07         0.00000E+00
    0.00000E+00         0.00000E+00         0.00000E+00
 
    0.32224E+07        -0.42159E+07         0.00000E+00
   -0.42159E+07        -0.98084E+07         0.00000E+00
    0.00000E+00         0.00000E+00         0.00000E+00
 
    0.35933E+07        -0.39332E+07         0.00000E+00
   -0.39332E+07        -0.10578E+08         0.00000E+00
    0.00000E+00         0.00000E+00         0.00000E+00
 
    0.40076E+07        -0.33578E+07         0.00000E+00
   -0.33578E+07        -0.11240E+08         0.00000E+00
    0.00000E+00         0.00000E+00         0.00000E+00
 
    0.43823E+07        -0.25222E+07         0.00000E+00
   -0.25222E+07        -0.11791E+08         0.00000E+00
    0.00000E+00         0.00000E+00         0.00000E+00
 
    0.46477E+07        -0.14448E+07         0.00000E+00
   -0.14448E+07        -0.12228E+08         0.00000E+00
    0.00000E+00         0.00000E+00         0.00000E+00
 
    0.47322E+07        -0.13254E+06         0.00000E+00
   -0.13254E+06        -0.12538E+08         0.00000E+00
    0.00000E+00         0.00000E+00         0.00000E+00
 
    0.45486E+07         0.14126E+07         0.00000E+00
    0.14126E+07        -0.12690E+08         0.00000E+00
    0.00000E+00         0.00000E+00         0.00000E+00
 
    0.39837E+07         0.31820E+07         0.00000E+00
    0.31820E+07        -0.12629E+08         0.00000E+00
    0.00000E+00         0.00000E+00         0.00000E+00
 
    0.28923E+07         0.51435E+07         0.00000E+00
    0.51435E+07        -0.12268E+08         0.00000E+00
    0.00000E+00         0.00000E+00         0.00000E+00
 
    0.10974E+07         0.72189E+07         0.00000E+00
    0.72189E+07        -0.11486E+08         0.00000E+00
    0.00000E+00         0.00000E+00         0.00000E+00
 
    0.56042E+07        -0.86254E+06         0.00000E+00
   -0.86254E+06        -0.69579E+07         0.00000E+00
    0.00000E+00         0.00000E+00         0.00000E+00
 
    0.29052E+07        -0.25680E+07         0.00000E+00
   -0.25680E+07        -0.75616E+07         0.00000E+00
    0.00000E+00         0.00000E+00         0.00000E+00
 
    0.16152E+07        -0.39330E+07         0.00000E+00
   -0.39330E+07        -0.85234E+07         0.00000E+00
    0.00000E+00         0.00000E+00         0.00000E+00
 
    0.12439E+07        -0.48001E+07         0.00000E+00
   -0.48001E+07        -0.96051E+07         0.00000E+00
    0.00000E+00         0.00000E+00         0.00000E+00
 
    0.14098E+07        -0.51689E+07         0.00000E+00
   -0.51689E+07        -0.10649E+08         0.00000E+00
    0.00000E+00         0.00000E+00         0.00000E+00
 
    0.18507E+07        -0.51057E+07         0.00000E+00
   -0.51057E+07        -0.11575E+08         0.00000E+00
    0.00000E+00         0.00000E+00         0.00000E+00
 
    0.24007E+07        -0.46885E+07         0.00000E+00
   -0.46885E+07        -0.12360E+08         0.00000E+00
    0.00000E+00         0.00000E+00         0.00000E+00
 
    0.29599E+07        -0.39805E+07         0.00000E+00
   -0.39805E+07        -0.13011E+08         0.00000E+00
    0.00000E+00         0.00000E+00         0.00000E+00
 
    0.34646E+07        -0.30197E+07         0.00000E+00
   -0.30197E+07        -0.13548E+08         0.00000E+00
    0.00000E+00         0.00000E+00         0.00000E+00
 
    0.38636E+07        -0.18186E+07         0.00000E+00
   -0.18186E+07        -0.13985E+08         0.00000E+00
    0.00000E+00         0.00000E+00         0.00000E+00
 
    0.40985E+07        -0.36828E+06         0.00000E+00
   -0.36828E+06        -0.14322E+08         0.00000E+00
    0.00000E+00         0.00000E+00         0.00000E+00
 
    0.40865E+07         0.13538E+07         0.00000E+00
    0.13538E+07        -0.14536E+08         0.00000E+00
    0.00000E+00         0.00000E+00         0.00000E+00
 
    0.37047E+07         0.33712E+07         0.00000E+00
    0.33712E+07        -0.14565E+08         0.00000E+00
    0.00000E+00         0.00000E+00         0.00000E+00
 
    0.27788E+07         0.56881E+07         0.00000E+00
    0.56881E+07        -0.14302E+08         0.00000E+00
    0.00000E+00         0.00000E+00         0.00000E+00
 
    0.10772E+07         0.82615E+07         0.00000E+00
    0.82615E+07        -0.13587E+08         0.00000E+00
    0.00000E+00         0.00000E+00         0.00000E+00
 
    0.19159E+07        -0.12483E+07         0.00000E+00
   -0.12483E+07        -0.86190E+07         0.00000E+00
    0.00000E+00         0.00000E+00         0.00000E+00
 
   -0.53728E+06        -0.34500E+07         0.00000E+00
   -0.34500E+07        -0.94085E+07         0.00000E+00
    0.00000E+00         0.00000E+00         0.00000E+00
 
   -0.13925E+07        -0.49960E+07         0.00000E+00
   -0.49960E+07        -0.10575E+08         0.00000E+00
    0.00000E+00         0.00000E+00         0.00000E+00
 
   -0.13333E+07        -0.58333E+07         0.00000E+00
   -0.58333E+07        -0.11782E+08         0.00000E+00
    0.00000E+00         0.00000E+00         0.00000E+00
 
   -0.82212E+06        -0.60655E+07         0.00000E+00
   -0.60655E+07        -0.12853E+08         0.00000E+00
    0.00000E+00         0.00000E+00         0.00000E+00
 
   -0.13300E+06        -0.58342E+07         0.00000E+00
   -0.58342E+07        -0.13729E+08         0.00000E+00
    0.00000E+00         0.00000E+00         0.00000E+00
 
    0.59014E+06        -0.52603E+07         0.00000E+00
   -0.52603E+07        -0.14421E+08         0.00000E+00
    0.00000E+00         0.00000E+00         0.00000E+00
 
    0.12798E+07        -0.44242E+07         0.00000E+00
   -0.44242E+07        -0.14967E+08         0.00000E+00
    0.00000E+00         0.00000E+00         0.00000E+00
 
    0.19047E+07        -0.33644E+07         0.00000E+00
   -0.33644E+07        -0.15413E+08         0.00000E+00
    0.00000E+00         0.00000E+00         0.00000E+00
 
    0.24421E+07        -0.20822E+07         0.00000E+00
   -0.20822E+07        -0.15792E+08         0.00000E+00
    0.00000E+00         0.00000E+00         0.00000E+00
 
    0.28563E+07        -0.54799E+06         0.00000E+00
   -0.54799E+06        -0.16121E+08         0.00000E+00
    0.00000E+00         0.00000E+00         0.00000E+00
 
    0.30779E+07         0.12926E+07         0.00000E+00
    0.12926E+07        -0.16384E+08         0.00000E+00
    0.00000E+00         0.00000E+00         0.00000E+00
 
    0.29829E+07         0.35064E+07         0.00000E+00
    0.35064E+07        -0.16523E+08         0.00000E+00
    0.00000E+00         0.00000E+00         0.00000E+00
 
    0.23712E+07         0.61512E+07         0.00000E+00
    0.61512E+07        -0.16412E+08         0.00000E+00
    0.00000E+00         0.00000E+00         0.00000E+00
 
    0.95292E+06         0.92411E+07         0.00000E+00
    0.92411E+07        -0.15849E+08         0.00000E+00
    0.00000E+00         0.00000E+00         0.00000E+00
 
   -0.35007E+07        -0.17108E+07         0.00000E+00
   -0.17108E+07        -0.11279E+08         0.00000E+00
    0.00000E+00         0.00000E+00         0.00000E+00
 
   -0.52743E+07        -0.44053E+07         0.00000E+00
   -0.44053E+07        -0.12215E+08         0.00000E+00
    0.00000E+00         0.00000E+00         0.00000E+00
 
   -0.53935E+07        -0.60241E+07         0.00000E+00
   -0.60241E+07        -0.13483E+08         0.00000E+00
    0.00000E+00         0.00000E+00         0.00000E+00
 
   -0.47406E+07        -0.67101E+07         0.00000E+00
   -0.67101E+07        -0.14661E+08         0.00000E+00
    0.00000E+00         0.00000E+00         0.00000E+00
 
   -0.38229E+07        -0.67183E+07         0.00000E+00
   -0.67183E+07        -0.15587E+08         0.00000E+00
    0.00000E+00         0.00000E+00         0.00000E+00
 
   -0.28818E+07        -0.62776E+07         0.00000E+00
   -0.62776E+07        -0.16252E+08         0.00000E+00
    0.00000E+00         0.00000E+00         0.00000E+00
 
   -0.20057E+07        -0.55452E+07         0.00000E+00
   -0.55452E+07        -0.16713E+08         0.00000E+00
    0.00000E+00         0.00000E+00         0.00000E+00
 
   -0.12088E+07        -0.46080E+07         0.00000E+00
   -0.46080E+07        -0.17044E+08         0.00000E+00
    0.00000E+00         0.00000E+00         0.00000E+00
 
   -0.47844E+06        -0.34967E+07         0.00000E+00
   -0.34967E+07        -0.17313E+08         0.00000E+00
    0.00000E+00         0.00000E+00         0.00000E+00
 
    0.19978E+06        -0.21974E+07         0.00000E+00
   -0.21974E+07        -0.17571E+08         0.00000E+00
    0.00000E+00         0.00000E+00         0.00000E+00
 
    0.82274E+06        -0.65722E+06         0.00000E+00
   -0.65722E+06        -0.17850E+08         0.00000E+00
    0.00000E+00         0.00000E+00         0.00000E+00
 
    0.13483E+07         0.12140E+07         0.00000E+00
    0.12140E+07        -0.18149E+08         0.00000E+00
    0.00000E+00         0.00000E+00         0.00000E+00
 
    0.16657E+07         0.35372E+07         0.00000E+00
    0.35372E+07        -0.18418E+08         0.00000E+00
    0.00000E+00         0.00000E+00         0.00000E+00
 
    0.15605E+07         0.64445E+07         0.00000E+00
    0.64445E+07        -0.18525E+08         0.00000E+00
    0.00000E+00         0.00000E+00         0.00000E+00
 
    0.68383E+06         0.10037E+08         0.00000E+00
    0.10037E+08        -0.18226E+08         0.00000E+00
    0.00000E+00         0.00000E+00         0.00000E+00
 
   -0.11009E+08        -0.22307E+07         0.00000E+00
   -0.22307E+07        -0.15218E+08         0.00000E+00
    0.00000E+00         0.00000E+00         0.00000E+00
 
   -0.11469E+08        -0.53407E+07         0.00000E+00
   -0.53407E+07        -0.16196E+08         0.00000E+00
    0.00000E+00         0.00000E+00         0.00000E+00
 
   -0.10479E+08        -0.68582E+07         0.00000E+00
   -0.68582E+07        -0.17359E+08         0.00000E+00
    0.00000E+00         0.00000E+00         0.00000E+00
 
   -0.90745E+07        -0.72472E+07         0.00000E+00
   -0.72472E+07        -0.18254E+08         0.00000E+00
    0.00000E+00         0.00000E+00         0.00000E+00
 
   -0.77199E+07        -0.69590E+07         0.00000E+00
   -0.69590E+07        -0.18793E+08         0.00000E+00
    0.00000E+00         0.00000E+00         0.00000E+00
 
   -0.65493E+07        -0.63015E+07         0.00000E+00
   -0.63015E+07        -0.19049E+08         0.00000E+00
    0.00000E+00         0.00000E+00         0.00000E+00
 
   -0.55536E+07        -0.54442E+07         0.00000E+00
   -0.54442E+07        -0.19132E+08         0.00000E+00
    0.00000E+00         0.00000E+00         0.00000E+00
 
   -0.46776E+07        -0.44619E+07         0.00000E+00
   -0.44619E+07        -0.19140E+08         0.00000E+00
    0.00000E+00         0.00000E+00         0.00000E+00
 
   -0.38581E+07        -0.33690E+07         0.00000E+00
   -0.33690E+07        -0.19153E+08         0.00000E+00
    0.00000E+00         0.00000E+00         0.00000E+00
 
   -0.30393E+07        -0.21349E+07         0.00000E+00
   -0.21349E+07        -0.19230E+08         0.00000E+00
    0.00000E+00         0.00000E+00         0.00000E+00
 
   -0.21826E+07        -0.68716E+06         0.00000E+00
   -0.68716E+06        -0.19415E+08         0.00000E+00
    0.00000E+00         0.00000E+00         0.00000E+00
 
   -0.12849E+07         0.10971E+07         0.00000E+00
    0.10971E+07        -0.19729E+08         0.00000E+00
    0.00000E+00         0.00000E+00         0.00000E+00
 
   -0.41636E+06         0.33994E+07         0.00000E+00
    0.33994E+07        -0.20147E+08         0.00000E+00
    0.00000E+00         0.00000E+00         0.00000E+00
 
    0.21925E+06         0.64511E+07         0.00000E+00
    0.64511E+07        -0.20549E+08         0.00000E+00
    0.00000E+00         0.00000E+00         0.00000E+00
 
    0.22138E+06         0.10483E+08         0.00000E+00
    0.10483E+08        -0.20662E+08         0.00000E+00
    0.00000E+00         0.00000E+00         0.00000E+00
 
   -0.20825E+08        -0.27606E+07         0.00000E+00
   -0.27606E+07        -0.20647E+08         0.00000E+00
    0.00000E+00         0.00000E+00         0.00000E+00
 
   -0.19119E+08        -0.60839E+07         0.00000E+00
   -0.60839E+07        -0.21462E+08         0.00000E+00
    0.00000E+00         0.00000E+00         0.00000E+00
 
   -0.16626E+08        -0.72466E+07         0.00000E+00
   -0.72466E+07        -0.22172E+08         0.00000E+00
    0.00000E+00         0.00000E+00         0.00000E+00
 
   -0.14381E+08        -0.72010E+07         0.00000E+00
   -0.72010E+07        -0.22416E+08         0.00000E+00
    0.00000E+00         0.00000E+00         0.00000E+00
 
   -0.12622E+08        -0.66045E+07         0.00000E+00
   -0.66045E+07        -0.22278E+08         0.00000E+00
    0.00000E+00         0.00000E+00         0.00000E+00
 
   -0.11274E+08        -0.57872E+07         0.00000E+00
   -0.57872E+07        -0.21929E+08         0.00000E+00
    0.00000E+00         0.00000E+00         0.00000E+00
 
   -0.10198E+08        -0.48867E+07         0.00000E+00
   -0.48867E+07        -0.21510E+08         0.00000E+00
    0.00000E+00         0.00000E+00         0.00000E+00
 
   -0.92669E+07        -0.39463E+07         0.00000E+00
   -0.39463E+07        -0.21116E+08         0.00000E+00
    0.00000E+00         0.00000E+00         0.00000E+00
 
   -0.83703E+07        -0.29592E+07         0.00000E+00
   -0.29592E+07        -0.20818E+08         0.00000E+00
    0.00000E+00         0.00000E+00         0.00000E+00
 
   -0.74130E+07        -0.18822E+07         0.00000E+00
   -0.18822E+07        -0.20671E+08         0.00000E+00
    0.00000E+00         0.00000E+00         0.00000E+00
 
   -0.63106E+07        -0.63389E+06         0.00000E+00
   -0.63389E+06        -0.20725E+08         0.00000E+00
    0.00000E+00         0.00000E+00         0.00000E+00
 
   -0.49943E+07         0.92395E+06         0.00000E+00
    0.92395E+06        -0.21024E+08         0.00000E+00
    0.00000E+00         0.00000E+00         0.00000E+00
 
   -0.34480E+07         0.30251E+07         0.00000E+00
    0.30251E+07        -0.21595E+08         0.00000E+00
    0.00000E+00         0.00000E+00         0.00000E+00
 
   -0.18067E+07         0.60264E+07         0.00000E+00
    0.60264E+07        -0.22371E+08         0.00000E+00
    0.00000E+00         0.00000E+00         0.00000E+00
 
   -0.49641E+06         0.10360E+08         0.00000E+00
    0.10360E+08        -0.23082E+08         0.00000E+00
    0.00000E+00         0.00000E+00         0.00000E+00
 
   -0.32842E+08        -0.32091E+07         0.00000E+00
   -0.32091E+07        -0.27592E+08         0.00000E+00
    0.00000E+00         0.00000E+00         0.00000E+00
 
   -0.27931E+08        -0.63147E+07         0.00000E+00
   -0.63147E+07        -0.27888E+08         0.00000E+00
    0.00000E+00         0.00000E+00         0.00000E+00
 
   -0.23676E+08        -0.68014E+07         0.00000E+00
   -0.68014E+07        -0.27585E+08         0.00000E+00
    0.00000E+00         0.00000E+00         0.00000E+00
 
   -0.20675E+08        -0.62946E+07         0.00000E+00
   -0.62946E+07        -0.26733E+08         0.00000E+00
    0.00000E+00         0.00000E+00         0.00000E+00
 
   -0.18621E+08        -0.55086E+07         0.00000E+00
   -0.55086E+07        -0.25668E+08         0.00000E+00
    0.00000E+00         0.00000E+00         0.00000E+00
 
   -0.17159E+08        -0.46751E+07         0.00000E+00
   -0.46751E+07        -0.24595E+08         0.00000E+00
    0.00000E+00         0.00000E+00         0.00000E+00
 
   -0.16031E+08        -0.38616E+07         0.00000E+00
   -0.38616E+07        -0.23621E+08         0.00000E+00
    0.00000E+00         0.00000E+00         0.00000E+00
 
   -0.15052E+08        -0.30729E+07         0.00000E+00
   -0.30729E+07        -0.22807E+08         0.00000E+00
    0.00000E+00         0.00000E+00         0.00000E+00
 
   -0.14078E+08        -0.22848E+07         0.00000E+00
   -0.22848E+07        -0.22191E+08         0.00000E+00
    0.00000E+00         0.00000E+00         0.00000E+00
 
   -0.12984E+08        -0.14518E+07         0.00000E+00
   -0.14518E+07        -0.21811E+08         0.00000E+00
    0.00000E+00         0.00000E+00         0.00000E+00
 
   -0.11644E+08        -0.49990E+06         0.00000E+00
   -0.49990E+06        -0.21712E+08         0.00000E+00
    0.00000E+00         0.00000E+00         0.00000E+00
 
   -0.99130E+07         0.69664E+06         0.00000E+00
    0.69664E+06        -0.21958E+08         0.00000E+00
    0.00000E+00         0.00000E+00         0.00000E+00
 
   -0.76303E+07         0.23718E+07         0.00000E+00
    0.23718E+07        -0.22642E+08         0.00000E+00
    0.00000E+00         0.00000E+00         0.00000E+00
 
   -0.47288E+07         0.50092E+07         0.00000E+00
    0.50092E+07        -0.23850E+08         0.00000E+00
    0.00000E+00         0.00000E+00         0.00000E+00
 
   -0.15641E+07         0.93715E+07         0.00000E+00
    0.93715E+07        -0.25390E+08         0.00000E+00
    0.00000E+00         0.00000E+00         0.00000E+00
 
   -0.46351E+08        -0.33662E+07         0.00000E+00
   -0.33662E+07        -0.35769E+08         0.00000E+00
    0.00000E+00         0.00000E+00         0.00000E+00
 
   -0.37226E+08        -0.53510E+07         0.00000E+00
   -0.53510E+07        -0.34727E+08         0.00000E+00
    0.00000E+00         0.00000E+00         0.00000E+00
 
   -0.31467E+08        -0.50414E+07         0.00000E+00
   -0.50414E+07        -0.32672E+08         0.00000E+00
    0.00000E+00         0.00000E+00         0.00000E+00
 
   -0.28008E+08        -0.43564E+07         0.00000E+00
   -0.43564E+07        -0.30459E+08         0.00000E+00
    0.00000E+00         0.00000E+00         0.00000E+00
 
   -0.25785E+08        -0.36576E+07         0.00000E+00
   -0.36576E+07        -0.28431E+08         0.00000E+00
    0.00000E+00         0.00000E+00         0.00000E+00
 
   -0.24243E+08        -0.30199E+07         0.00000E+00
   -0.30199E+07        -0.26677E+08         0.00000E+00
    0.00000E+00         0.00000E+00         0.00000E+00
 
   -0.23055E+08        -0.24468E+07         0.00000E+00
   -0.24468E+07        -0.25216E+08         0.00000E+00
    0.00000E+00         0.00000E+00         0.00000E+00
 
   -0.22007E+08        -0.19203E+07         0.00000E+00
   -0.19203E+07        -0.24047E+08         0.00000E+00
    0.00000E+00         0.00000E+00         0.00000E+00
 
   -0.20940E+08        -0.14136E+07         0.00000E+00
   -0.14136E+07        -0.23168E+08         0.00000E+00
    0.00000E+00         0.00000E+00         0.00000E+00
 
   -0.19709E+08        -0.89147E+06         0.00000E+00
   -0.89147E+06        -0.22591E+08         0.00000E+00
    0.00000E+00         0.00000E+00         0.00000E+00
 
   -0.18156E+08        -0.30310E+06         0.00000E+00
   -0.30310E+06        -0.22350E+08         0.00000E+00
    0.00000E+00         0.00000E+00         0.00000E+00
 
   -0.16076E+08         0.43683E+06         0.00000E+00
    0.43683E+06        -0.22517E+08         0.00000E+00
    0.00000E+00         0.00000E+00         0.00000E+00
 
   -0.13164E+08         0.14955E+07         0.00000E+00
    0.14955E+07        -0.23232E+08         0.00000E+00
    0.00000E+00         0.00000E+00         0.00000E+00
 
   -0.89081E+07         0.32799E+07         0.00000E+00
    0.32799E+07        -0.24773E+08         0.00000E+00
    0.00000E+00         0.00000E+00         0.00000E+00
 
   -0.31813E+07         0.70846E+07         0.00000E+00
    0.70846E+07        -0.27442E+08         0.00000E+00
    0.00000E+00         0.00000E+00         0.00000E+00
 
   -0.59438E+08        -0.20759E+07         0.00000E+00
   -0.20759E+07        -0.43170E+08         0.00000E+00
    0.00000E+00         0.00000E+00         0.00000E+00
 
   -0.46444E+08        -0.22260E+07         0.00000E+00
   -0.22260E+07        -0.39642E+08         0.00000E+00
    0.00000E+00         0.00000E+00         0.00000E+00
 
   -0.40131E+08        -0.18809E+07         0.00000E+00
   -0.18809E+07        -0.35888E+08         0.00000E+00
    0.00000E+00         0.00000E+00         0.00000E+00
 
   -0.36457E+08        -0.15532E+07         0.00000E+00
   -0.15532E+07        -0.32666E+08         0.00000E+00
    0.00000E+00         0.00000E+00         0.00000E+00
 
   -0.34107E+08        -0.12682E+07         0.00000E+00
   -0.12682E+07        -0.30000E+08         0.00000E+00
    0.00000E+00         0.00000E+00         0.00000E+00
 
   -0.32453E+08        -0.10276E+07         0.00000E+00
   -0.10276E+07        -0.27826E+08         0.00000E+00
    0.00000E+00         0.00000E+00         0.00000E+00
 
   -0.31153E+08        -0.82103E+06         0.00000E+00
   -0.82103E+06        -0.26077E+08         0.00000E+00
    0.00000E+00         0.00000E+00         0.00000E+00
 
   -0.29987E+08        -0.63698E+06         0.00000E+00
   -0.63698E+06        -0.24702E+08         0.00000E+00
    0.00000E+00         0.00000E+00         0.00000E+00
 
   -0.28793E+08        -0.46364E+06         0.00000E+00
   -0.46364E+06        -0.23672E+08         0.00000E+00
    0.00000E+00         0.00000E+00         0.00000E+00
 
   -0.27419E+08        -0.28777E+06         0.00000E+00
   -0.28777E+06        -0.22981E+08         0.00000E+00
    0.00000E+00         0.00000E+00         0.00000E+00
 
   -0.25694E+08        -0.91458E+05         0.00000E+00
   -0.91458E+05        -0.22654E+08         0.00000E+00
    0.00000E+00         0.00000E+00         0.00000E+00
 
   -0.23377E+08         0.15463E+06         0.00000E+00
    0.15463E+06        -0.22759E+08         0.00000E+00
    0.00000E+00         0.00000E+00         0.00000E+00
 
   -0.20074E+08         0.51092E+06         0.00000E+00
    0.51092E+06        -0.23455E+08         0.00000E+00
    0.00000E+00         0.00000E+00         0.00000E+00
 
   -0.15020E+08         0.11138E+07         0.00000E+00
    0.11138E+07        -0.25097E+08         0.00000E+00
    0.00000E+00         0.00000E+00         0.00000E+00
 
   -0.59641E+07         0.27745E+07         0.00000E+00
    0.27745E+07        -0.28797E+08         0.00000E+00
    0.00000E+00         0.00000E+00         0.00000E+00
 
TENSORS stresstot double 
   -0.50133E+08         0.14717E+05         0.00000E+00
    0.14717E+05        -0.59986E+08         0.00000E+00
    0.00000E+00         0.00000E+00        -0.55245E+08
 
   -0.50367E+08         0.41207E+05         0.00000E+00
    0.41207E+05        -0.59930E+08         0.00000E+00
    0.00000E+00         0.00000E+00        -0.55296E+08
 
   -0.50728E+08         0.63443E+05         0.00000E+00
    0.63443E+05        -0.59825E+08         0.00000E+00
    0.00000E+00         0.00000E+00        -0.55392E+08
 
   -0.51194E+08         0.81279E+05         0.00000E+00
    0.81279E+05        -0.59681E+08         0.00000E+00
    0.00000E+00         0.00000E+00        -0.55525E+08
 
   -0.51739E+08         0.94771E+05         0.00000E+00
    0.94771E+05        -0.59505E+08         0.00000E+00
    0.00000E+00         0.00000E+00        -0.55686E+08
 
   -0.52341E+08         0.10412E+06         0.00000E+00
    0.10412E+06        -0.59306E+08         0.00000E+00
    0.00000E+00         0.00000E+00        -0.55869E+08
 
   -0.52977E+08         0.10959E+06         0.00000E+00
    0.10959E+06        -0.59092E+08         0.00000E+00
    0.00000E+00         0.00000E+00        -0.56064E+08
 
   -0.53626E+08         0.11153E+06         0.00000E+00
    0.11153E+06        -0.58871E+08         0.00000E+00
    0.00000E+00         0.00000E+00        -0.56263E+08
 
   -0.54269E+08         0.11026E+06         0.00000E+00
    0.11026E+06        -0.58650E+08         0.00000E+00
    0.00000E+00         0.00000E+00        -0.56460E+08
 
   -0.54888E+08         0.10609E+06         0.00000E+00
    0.10609E+06        -0.58434E+08         0.00000E+00
    0.00000E+00         0.00000E+00        -0.56648E+08
 
   -0.55466E+08         0.99353E+05         0.00000E+00
    0.99353E+05        -0.58228E+08         0.00000E+00
    0.00000E+00         0.00000E+00        -0.56818E+08
 
   -0.55989E+08         0.90385E+05         0.00000E+00
    0.90385E+05        -0.58039E+08         0.00000E+00
    0.00000E+00         0.00000E+00        -0.56966E+08
 
   -0.56443E+08         0.79584E+05         0.00000E+00
    0.79584E+05        -0.57869E+08         0.00000E+00
    0.00000E+00         0.00000E+00        -0.57085E+08
 
   -0.56818E+08         0.67472E+05         0.00000E+00
    0.67472E+05        -0.57722E+08         0.00000E+00
    0.00000E+00         0.00000E+00        -0.57170E+08
 
   -0.57105E+08         0.54761E+05         0.00000E+00
    0.54761E+05        -0.57599E+08         0.00000E+00
    0.00000E+00         0.00000E+00        -0.57214E+08
 
   -0.50076E+08         0.44091E+05         0.00000E+00
    0.44091E+05        -0.59986E+08         0.00000E+00
    0.00000E+00         0.00000E+00        -0.55230E+08
 
   -0.50318E+08         0.12334E+06         0.00000E+00
    0.12334E+06        -0.59930E+08         0.00000E+00
    0.00000E+00         0.00000E+00        -0.55282E+08
 
   -0.50688E+08         0.18979E+06         0.00000E+00
    0.18979E+06        -0.59827E+08         0.00000E+00
    0.00000E+00         0.00000E+00        -0.55380E+08
 
   -0.51162E+08         0.24304E+06         0.00000E+00
    0.24304E+06        -0.59683E+08         0.00000E+00
    0.00000E+00         0.00000E+00        -0.55516E+08
 
   -0.51716E+08         0.28329E+06         0.00000E+00
    0.28329E+06        -0.59509E+08         0.00000E+00
    0.00000E+00         0.00000E+00        -0.55681E+08
 
   -0.52326E+08         0.31114E+06         0.00000E+00
    0.31114E+06        -0.59313E+08         0.00000E+00
    0.00000E+00         0.00000E+00        -0.55867E+08
 
   -0.52970E+08         0.32748E+06         0.00000E+00
    0.32748E+06        -0.59102E+08         0.00000E+00
    0.00000E+00         0.00000E+00        -0.56066E+08
 
   -0.53626E+08         0.33327E+06         0.00000E+00
    0.33327E+06        -0.58883E+08         0.00000E+00
    0.00000E+00         0.00000E+00        -0.56270E+08
 
   -0.54275E+08         0.32952E+06         0.00000E+00
    0.32952E+06        -0.58664E+08         0.00000E+00
    0.00000E+00         0.00000E+00        -0.56471E+08
 
   -0.54899E+08         0.31717E+06         0.00000E+00
    0.31717E+06        -0.58450E+08         0.00000E+00
    0.00000E+00         0.00000E+00        -0.56662E+08
 
   -0.55482E+08         0.29716E+06         0.00000E+00
    0.29716E+06        -0.58247E+08         0.00000E+00
    0.00000E+00         0.00000E+00        -0.56836E+08
 
   -0.56009E+08         0.27047E+06         0.00000E+00
    0.27047E+06        -0.58059E+08         0.00000E+00
    0.00000E+00         0.00000E+00        -0.56987E+08
 
   -0.56466E+08         0.23826E+06         0.00000E+00
    0.23826E+06        -0.57890E+08         0.00000E+00
    0.00000E+00         0.00000E+00        -0.57108E+08
 
   -0.56843E+08         0.20204E+06         0.00000E+00
    0.20204E+06        -0.57744E+08         0.00000E+00
    0.00000E+00         0.00000E+00        -0.57194E+08
 
   -0.57130E+08         0.16389E+06         0.00000E+00
    0.16389E+06        -0.57623E+08         0.00000E+00
    0.00000E+00         0.00000E+00        -0.57239E+08
 
   -0.49963E+08         0.73228E+05         0.00000E+00
    0.73228E+05        -0.59986E+08         0.00000E+00
    0.00000E+00         0.00000E+00        -0.55199E+08
 
   -0.50221E+08         0.20459E+06         0.00000E+00
    0.20459E+06        -0.59931E+08         0.00000E+00
    0.00000E+00         0.00000E+00        -0.55253E+08
 
   -0.50609E+08         0.31448E+06         0.00000E+00
    0.31448E+06        -0.59829E+08         0.00000E+00
    0.00000E+00         0.00000E+00        -0.55356E+08
 
   -0.51101E+08         0.40236E+06         0.00000E+00
    0.40236E+06        -0.59689E+08         0.00000E+00
    0.00000E+00         0.00000E+00        -0.55498E+08
 
   -0.51671E+08         0.46864E+06         0.00000E+00
    0.46864E+06        -0.59518E+08         0.00000E+00
    0.00000E+00         0.00000E+00        -0.55671E+08
 
   -0.52297E+08         0.51447E+06         0.00000E+00
    0.51447E+06        -0.59327E+08         0.00000E+00
    0.00000E+00         0.00000E+00        -0.55865E+08
 
   -0.52955E+08         0.54135E+06         0.00000E+00
    0.54135E+06        -0.59121E+08         0.00000E+00
    0.00000E+00         0.00000E+00        -0.56072E+08
 
   -0.53624E+08         0.55096E+06         0.00000E+00
    0.55096E+06        -0.58908E+08         0.00000E+00
    0.00000E+00         0.00000E+00        -0.56284E+08
 
   -0.54285E+08         0.54495E+06         0.00000E+00
    0.54495E+06        -0.58694E+08         0.00000E+00
    0.00000E+00         0.00000E+00        -0.56493E+08
 
   -0.54920E+08         0.52487E+06         0.00000E+00
    0.52487E+06        -0.58485E+08         0.00000E+00
    0.00000E+00         0.00000E+00        -0.56691E+08
 
   -0.55513E+08         0.49221E+06         0.00000E+00
    0.49221E+06        -0.58286E+08         0.00000E+00
    0.00000E+00         0.00000E+00        -0.56871E+08
 
   -0.56048E+08         0.44848E+06         0.00000E+00
    0.44848E+06        -0.58101E+08         0.00000E+00
    0.00000E+00         0.00000E+00        -0.57027E+08
 
   -0.56512E+08         0.39547E+06         0.00000E+00
    0.39547E+06        -0.57935E+08         0.00000E+00
    0.00000E+00         0.00000E+00        -0.57153E+08
 
   -0.56893E+08         0.33554E+06         0.00000E+00
    0.33554E+06        -0.57791E+08         0.00000E+00
    0.00000E+00         0.00000E+00        -0.57242E+08
 
   -0.57181E+08         0.27196E+06         0.00000E+00
    0.27196E+06        -0.57670E+08         0.00000E+00
    0.00000E+00         0.00000E+00        -0.57289E+08
 
   -0.49793E+08         0.10192E+06         0.00000E+00
    0.10192E+06        -0.59986E+08         0.00000E+00
    0.00000E+00         0.00000E+00        -0.55153E+08
 
   -0.50077E+08         0.28424E+06         0.00000E+00
    0.28424E+06        -0.59933E+08         0.00000E+00
    0.00000E+00         0.00000E+00        -0.55212E+08
 
   -0.50491E+08         0.43622E+06         0.00000E+00
    0.43622E+06        -0.59834E+08         0.00000E+00
    0.00000E+00         0.00000E+00        -0.55322E+08
 
   -0.51009E+08         0.55734E+06         0.00000E+00
    0.55734E+06        -0.59698E+08         0.00000E+00
    0.00000E+00         0.00000E+00        -0.55473E+08
 
   -0.51605E+08         0.64845E+06         0.00000E+00
    0.64845E+06        -0.59533E+08         0.00000E+00
    0.00000E+00         0.00000E+00        -0.55657E+08
 
   -0.52254E+08         0.71131E+06         0.00000E+00
    0.71131E+06        -0.59349E+08         0.00000E+00
    0.00000E+00         0.00000E+00        -0.55863E+08
 
   -0.52934E+08         0.74821E+06         0.00000E+00
    0.74821E+06        -0.59152E+08         0.00000E+00
    0.00000E+00         0.00000E+00        -0.56083E+08
 
   -0.53622E+08         0.76157E+06         0.00000E+00
    0.76157E+06        -0.58948E+08         0.00000E+00
    0.00000E+00         0.00000E+00        -0.56306E+08
 
   -0.54301E+08         0.75370E+06         0.00000E+00
    0.75370E+06        -0.58742E+08         0.00000E+00
    0.00000E+00         0.00000E+00        -0.56526E+08
 
   -0.54952E+08         0.72670E+06         0.00000E+00
    0.72670E+06        -0.58541E+08         0.00000E+00
    0.00000E+00         0.00000E+00        -0.56735E+08
 
   -0.55558E+08         0.68250E+06         0.00000E+00
    0.68250E+06        -0.58349E+08         0.00000E+00
    0.00000E+00         0.00000E+00        -0.56925E+08
 
   -0.56105E+08         0.62296E+06         0.00000E+00
    0.62296E+06        -0.58169E+08         0.00000E+00
    0.00000E+00         0.00000E+00        -0.57089E+08
 
   -0.56580E+08         0.55029E+06         0.00000E+00
    0.55029E+06        -0.58006E+08         0.00000E+00
    0.00000E+00         0.00000E+00        -0.57222E+08
 
   -0.56968E+08         0.46741E+06         0.00000E+00
    0.46741E+06        -0.57864E+08         0.00000E+00
    0.00000E+00         0.00000E+00        -0.57316E+08
 
   -0.57258E+08         0.37853E+06         0.00000E+00
    0.37853E+06        -0.57746E+08         0.00000E+00
    0.00000E+00         0.00000E+00        -0.57365E+08
 
   -0.49569E+08         0.12991E+06         0.00000E+00
    0.12991E+06        -0.59987E+08         0.00000E+00
    0.00000E+00         0.00000E+00        -0.55094E+08
 
   -0.49887E+08         0.36143E+06         0.00000E+00
    0.36143E+06        -0.59935E+08         0.00000E+00
    0.00000E+00         0.00000E+00        -0.55158E+08
 
   -0.50337E+08         0.55346E+06         0.00000E+00
    0.55346E+06        -0.59840E+08         0.00000E+00
    0.00000E+00         0.00000E+00        -0.55278E+08
 
   -0.50890E+08         0.70577E+06         0.00000E+00
    0.70577E+06        -0.59711E+08         0.00000E+00
    0.00000E+00         0.00000E+00        -0.55442E+08
 
   -0.51519E+08         0.81987E+06         0.00000E+00
    0.81987E+06        -0.59555E+08         0.00000E+00
    0.00000E+00         0.00000E+00        -0.55641E+08
 
   -0.52198E+08         0.89841E+06         0.00000E+00
    0.89841E+06        -0.59382E+08         0.00000E+00
    0.00000E+00         0.00000E+00        -0.55862E+08
 
   -0.52906E+08         0.94456E+06         0.00000E+00
    0.94456E+06        -0.59197E+08         0.00000E+00
    0.00000E+00         0.00000E+00        -0.56098E+08
 
   -0.53619E+08         0.96159E+06         0.00000E+00
    0.96159E+06        -0.59005E+08         0.00000E+00
    0.00000E+00         0.00000E+00        -0.56338E+08
 
   -0.54320E+08         0.95249E+06         0.00000E+00
    0.95249E+06        -0.58812E+08         0.00000E+00
    0.00000E+00         0.00000E+00        -0.56573E+08
 
   -0.54991E+08         0.91983E+06         0.00000E+00
    0.91983E+06        -0.58622E+08         0.00000E+00
    0.00000E+00         0.00000E+00        -0.56795E+08
 
   -0.55616E+08         0.86578E+06         0.00000E+00
    0.86578E+06        -0.58439E+08         0.00000E+00
    0.00000E+00         0.00000E+00        -0.56998E+08
 
   -0.56180E+08         0.79236E+06         0.00000E+00
    0.79236E+06        -0.58266E+08         0.00000E+00
    0.00000E+00         0.00000E+00        -0.57173E+08
 
   -0.56668E+08         0.70184E+06         0.00000E+00
    0.70184E+06        -0.58108E+08         0.00000E+00
    0.00000E+00         0.00000E+00        -0.57314E+08
 
   -0.57066E+08         0.59734E+06         0.00000E+00
    0.59734E+06        -0.57969E+08         0.00000E+00
    0.00000E+00         0.00000E+00        -0.57415E+08
 
   -0.57361E+08         0.48362E+06         0.00000E+00
    0.48362E+06        -0.57852E+08         0.00000E+00
    0.00000E+00         0.00000E+00        -0.57468E+08
 
   -0.49293E+08         0.15686E+06         0.00000E+00
    0.15686E+06        -0.59987E+08         0.00000E+00
    0.00000E+00         0.00000E+00        -0.55025E+08
 
   -0.49654E+08         0.43505E+06         0.00000E+00
    0.43505E+06        -0.59938E+08         0.00000E+00
    0.00000E+00         0.00000E+00        -0.55095E+08
 
   -0.50148E+08         0.66427E+06         0.00000E+00
    0.66427E+06        -0.59849E+08         0.00000E+00
    0.00000E+00         0.00000E+00        -0.55227E+08
 
   -0.50744E+08         0.84492E+06         0.00000E+00
    0.84492E+06        -0.59729E+08         0.00000E+00
    0.00000E+00         0.00000E+00        -0.55407E+08
 
   -0.51414E+08         0.97952E+06         0.00000E+00
    0.97952E+06        -0.59586E+08         0.00000E+00
    0.00000E+00         0.00000E+00        -0.55623E+08
 
   -0.52131E+08         0.10718E+07         0.00000E+00
    0.10718E+07        -0.59427E+08         0.00000E+00
    0.00000E+00         0.00000E+00        -0.55865E+08
 
   -0.52872E+08         0.11262E+07         0.00000E+00
    0.11262E+07        -0.59259E+08         0.00000E+00
    0.00000E+00         0.00000E+00        -0.56120E+08
 
   -0.53615E+08         0.11468E+07         0.00000E+00
    0.11468E+07        -0.59084E+08         0.00000E+00
    0.00000E+00         0.00000E+00        -0.56379E+08
 
   -0.54343E+08         0.11374E+07         0.00000E+00
    0.11374E+07        -0.58908E+08         0.00000E+00
    0.00000E+00         0.00000E+00        -0.56633E+08
 
   -0.55038E+08         0.11009E+07         0.00000E+00
    0.11009E+07        -0.58733E+08         0.00000E+00
    0.00000E+00         0.00000E+00        -0.56873E+08
 
   -0.55685E+08         0.10395E+07         0.00000E+00
    0.10395E+07        -0.58562E+08         0.00000E+00
    0.00000E+00         0.00000E+00        -0.57091E+08
 
   -0.56269E+08         0.95499E+06         0.00000E+00
    0.95499E+06        -0.58399E+08         0.00000E+00
    0.00000E+00         0.00000E+00        -0.57280E+08
 
   -0.56774E+08         0.84935E+06         0.00000E+00
    0.84935E+06        -0.58247E+08         0.00000E+00
    0.00000E+00         0.00000E+00        -0.57432E+08
 
   -0.57187E+08         0.72539E+06         0.00000E+00
    0.72539E+06        -0.58110E+08         0.00000E+00
    0.00000E+00         0.00000E+00        -0.57540E+08
 
   -0.57490E+08         0.58784E+06         0.00000E+00
    0.58784E+06        -0.57995E+08         0.00000E+00
    0.00000E+00         0.00000E+00        -0.57598E+08
 
   -0.48966E+08         0.18236E+06         0.00000E+00
    0.18236E+06        -0.59988E+08         0.00000E+00
    0.00000E+00         0.00000E+00        -0.54946E+08
 
   -0.49381E+08         0.50374E+06         0.00000E+00
    0.50374E+06        -0.59943E+08         0.00000E+00
    0.00000E+00         0.00000E+00        -0.55024E+08
 
   -0.49929E+08         0.76628E+06         0.00000E+00
    0.76628E+06        -0.59862E+08         0.00000E+00
    0.00000E+00         0.00000E+00        -0.55170E+08
 
   -0.50577E+08         0.97146E+06         0.00000E+00
    0.97146E+06        -0.59754E+08         0.00000E+00
    0.00000E+00         0.00000E+00        -0.55369E+08
 
   -0.51294E+08         0.11232E+07         0.00000E+00
    0.11232E+07        -0.59627E+08         0.00000E+00
    0.00000E+00         0.00000E+00        -0.55607E+08
 
   -0.52054E+08         0.12269E+07         0.00000E+00
    0.12269E+07        -0.59488E+08         0.00000E+00
    0.00000E+00         0.00000E+00        -0.55872E+08
 
   -0.52832E+08         0.12881E+07         0.00000E+00
    0.12881E+07        -0.59342E+08         0.00000E+00
    0.00000E+00         0.00000E+00        -0.56151E+08
 
   -0.53609E+08         0.13123E+07         0.00000E+00
    0.13123E+07        -0.59190E+08         0.00000E+00
    0.00000E+00         0.00000E+00        -0.56433E+08
 
   -0.54366E+08         0.13039E+07         0.00000E+00
    0.13039E+07        -0.59035E+08         0.00000E+00
    0.00000E+00         0.00000E+00        -0.56709E+08
 
   -0.55089E+08         0.12660E+07         0.00000E+00
    0.12660E+07        -0.58880E+08         0.00000E+00
    0.00000E+00         0.00000E+00        -0.56969E+08
 
   -0.55761E+08         0.12006E+07         0.00000E+00
    0.12006E+07        -0.58725E+08         0.00000E+00
    0.00000E+00         0.00000E+00        -0.57206E+08
 
   -0.56369E+08         0.11090E+07         0.00000E+00
    0.11090E+07        -0.58574E+08         0.00000E+00
    0.00000E+00         0.00000E+00        -0.57410E+08
 
   -0.56897E+08         0.99218E+06         0.00000E+00
    0.99218E+06        -0.58429E+08         0.00000E+00
    0.00000E+00         0.00000E+00        -0.57575E+08
 
   -0.57328E+08         0.85206E+06         0.00000E+00
    0.85206E+06        -0.58296E+08         0.00000E+00
    0.00000E+00         0.00000E+00        -0.57693E+08
 
   -0.57645E+08         0.69263E+06         0.00000E+00
    0.69263E+06        -0.58180E+08         0.00000E+00
    0.00000E+00         0.00000E+00        -0.57755E+08
 
   -0.48594E+08         0.20587E+06         0.00000E+00
    0.20587E+06        -0.59989E+08         0.00000E+00
    0.00000E+00         0.00000E+00        -0.54861E+08
 
   -0.49072E+08         0.56580E+06         0.00000E+00
    0.56580E+06        -0.59949E+08         0.00000E+00
    0.00000E+00         0.00000E+00        -0.54949E+08
 
   -0.49683E+08         0.85655E+06         0.00000E+00
    0.85655E+06        -0.59878E+08         0.00000E+00
    0.00000E+00         0.00000E+00        -0.55112E+08
 
   -0.50391E+08         0.10813E+07         0.00000E+00
    0.10813E+07        -0.59787E+08         0.00000E+00
    0.00000E+00         0.00000E+00        -0.55332E+08
 
   -0.51162E+08         0.12459E+07         0.00000E+00
    0.12459E+07        -0.59682E+08         0.00000E+00
    0.00000E+00         0.00000E+00        -0.55596E+08
 
   -0.51969E+08         0.13577E+07         0.00000E+00
    0.13577E+07        -0.59569E+08         0.00000E+00
    0.00000E+00         0.00000E+00        -0.55887E+08
 
   -0.52788E+08         0.14242E+07         0.00000E+00
    0.14242E+07        -0.59450E+08         0.00000E+00
    0.00000E+00         0.00000E+00        -0.56192E+08
 
   -0.53600E+08         0.14521E+07         0.00000E+00
    0.14521E+07        -0.59328E+08         0.00000E+00
    0.00000E+00         0.00000E+00        -0.56501E+08
 
   -0.54389E+08         0.14464E+07         0.00000E+00
    0.14464E+07        -0.59201E+08         0.00000E+00
    0.00000E+00         0.00000E+00        -0.56802E+08
 
   -0.55140E+08         0.14105E+07         0.00000E+00
    0.14105E+07        -0.59071E+08         0.00000E+00
    0.00000E+00         0.00000E+00        -0.57085E+08
 
   -0.55840E+08         0.13457E+07         0.00000E+00
    0.13457E+07        -0.58937E+08         0.00000E+00
    0.00000E+00         0.00000E+00        -0.57342E+08
 
   -0.56475E+08         0.12524E+07         0.00000E+00
    0.12524E+07        -0.58800E+08         0.00000E+00
    0.00000E+00         0.00000E+00        -0.57564E+08
 
   -0.57030E+08         0.11299E+07         0.00000E+00
    0.11299E+07        -0.58664E+08         0.00000E+00
    0.00000E+00         0.00000E+00        -0.57744E+08
 
   -0.57486E+08         0.97847E+06         0.00000E+00
    0.97847E+06        -0.58533E+08         0.00000E+00
    0.00000E+00         0.00000E+00        -0.57872E+08
 
   -0.57823E+08         0.80045E+06         0.00000E+00
    0.80045E+06        -0.58414E+08         0.00000E+00
    0.00000E+00         0.00000E+00        -0.57940E+08
 
   -0.48179E+08         0.22673E+06         0.00000E+00
    0.22673E+06        -0.59990E+08         0.00000E+00
    0.00000E+00         0.00000E+00        -0.54774E+08
 
   -0.48733E+08         0.61912E+06         0.00000E+00
    0.61912E+06        -0.59957E+08         0.00000E+00
    0.00000E+00         0.00000E+00        -0.54873E+08
 
   -0.49417E+08         0.93149E+06         0.00000E+00
    0.93149E+06        -0.59900E+08         0.00000E+00
    0.00000E+00         0.00000E+00        -0.55054E+08
 
   -0.50192E+08         0.11694E+07         0.00000E+00
    0.11694E+07        -0.59829E+08         0.00000E+00
    0.00000E+00         0.00000E+00        -0.55300E+08
 
   -0.51022E+08         0.13414E+07         0.00000E+00
    0.13414E+07        -0.59752E+08         0.00000E+00
    0.00000E+00         0.00000E+00        -0.55591E+08
 
   -0.51879E+08         0.14575E+07         0.00000E+00
    0.14575E+07        -0.59671E+08         0.00000E+00
    0.00000E+00         0.00000E+00        -0.55911E+08
 
   -0.52740E+08         0.15273E+07         0.00000E+00
    0.15273E+07        -0.59589E+08         0.00000E+00
    0.00000E+00         0.00000E+00        -0.56247E+08
 
   -0.53587E+08         0.15589E+07         0.00000E+00
    0.15589E+07        -0.59504E+08         0.00000E+00
    0.00000E+00         0.00000E+00        -0.56584E+08
 
   -0.54407E+08         0.15584E+07         0.00000E+00
    0.15584E+07        -0.59413E+08         0.00000E+00
    0.00000E+00         0.00000E+00        -0.56911E+08
 
   -0.55187E+08         0.15289E+07         0.00000E+00
    0.15289E+07        -0.59314E+08         0.00000E+00
    0.00000E+00         0.00000E+00        -0.57220E+08
 
   -0.55916E+08         0.14709E+07         0.00000E+00
    0.14709E+07        -0.59206E+08         0.00000E+00
    0.00000E+00         0.00000E+00        -0.57499E+08
 
   -0.56581E+08         0.13829E+07         0.00000E+00
    0.13829E+07        -0.59087E+08         0.00000E+00
    0.00000E+00         0.00000E+00        -0.57741E+08
 
   -0.57167E+08         0.12623E+07         0.00000E+00
    0.12623E+07        -0.58961E+08         0.00000E+00
    0.00000E+00         0.00000E+00        -0.57936E+08
 
   -0.57656E+08         0.11065E+07         0.00000E+00
    0.11065E+07        -0.58831E+08         0.00000E+00
    0.00000E+00         0.00000E+00        -0.58076E+08
 
   -0.58022E+08         0.91501E+06         0.00000E+00
    0.91501E+06        -0.58706E+08         0.00000E+00
    0.00000E+00         0.00000E+00        -0.58151E+08
 
   -0.47730E+08         0.24417E+06         0.00000E+00
    0.24417E+06        -0.59992E+08         0.00000E+00
    0.00000E+00         0.00000E+00        -0.54690E+08
 
   -0.48372E+08         0.66117E+06         0.00000E+00
    0.66117E+06        -0.59967E+08         0.00000E+00
    0.00000E+00         0.00000E+00        -0.54800E+08
 
   -0.49139E+08         0.98675E+06         0.00000E+00
    0.98675E+06        -0.59927E+08         0.00000E+00
    0.00000E+00         0.00000E+00        -0.55002E+08
 
   -0.49987E+08         0.12298E+07         0.00000E+00
    0.12298E+07        -0.59883E+08         0.00000E+00
    0.00000E+00         0.00000E+00        -0.55274E+08
 
   -0.50879E+08         0.14025E+07         0.00000E+00
    0.14025E+07        -0.59841E+08         0.00000E+00
    0.00000E+00         0.00000E+00        -0.55596E+08
 
   -0.51787E+08         0.15180E+07         0.00000E+00
    0.15180E+07        -0.59802E+08         0.00000E+00
    0.00000E+00         0.00000E+00        -0.55948E+08
 
   -0.52689E+08         0.15888E+07         0.00000E+00
    0.15888E+07        -0.59764E+08         0.00000E+00
    0.00000E+00         0.00000E+00        -0.56315E+08
 
   -0.53569E+08         0.16248E+07         0.00000E+00
    0.16248E+07        -0.59725E+08         0.00000E+00
    0.00000E+00         0.00000E+00        -0.56683E+08
 
   -0.54417E+08         0.16326E+07         0.00000E+00
    0.16326E+07        -0.59678E+08         0.00000E+00
    0.00000E+00         0.00000E+00        -0.57039E+08
 
   -0.55224E+08         0.16151E+07         0.00000E+00
    0.16151E+07        -0.59618E+08         0.00000E+00
    0.00000E+00         0.00000E+00        -0.57373E+08
 
   -0.55981E+08         0.15716E+07         0.00000E+00
    0.15716E+07        -0.59541E+08         0.00000E+00
    0.00000E+00         0.00000E+00        -0.57676E+08
 
   -0.56678E+08         0.14984E+07         0.00000E+00
    0.14984E+07        -0.59444E+08         0.00000E+00
    0.00000E+00         0.00000E+00        -0.57938E+08
 
   -0.57301E+08         0.13895E+07         0.00000E+00
    0.13895E+07        -0.59328E+08         0.00000E+00
    0.00000E+00         0.00000E+00        -0.58150E+08
 
   -0.57830E+08         0.12387E+07         0.00000E+00
    0.12387E+07        -0.59198E+08         0.00000E+00
    0.00000E+00         0.00000E+00        -0.58303E+08
 
   -0.58237E+08         0.10415E+07         0.00000E+00
    0.10415E+07        -0.59062E+08         0.00000E+00
    0.00000E+00         0.00000E+00        -0.58384E+08
 
   -0.47254E+08         0.25723E+06         0.00000E+00
    0.25723E+06        -0.59994E+08         0.00000E+00
    0.00000E+00         0.00000E+00        -0.54612E+08
 
   -0.47997E+08         0.68890E+06         0.00000E+00
    0.68890E+06        -0.59979E+08         0.00000E+00
    0.00000E+00         0.00000E+00        -0.54735E+08
 
   -0.48856E+08         0.10171E+07         0.00000E+00
    0.10171E+07        -0.59962E+08         0.00000E+00
    0.00000E+00         0.00000E+00        -0.54960E+08
 
   -0.49784E+08         0.12554E+07         0.00000E+00
    0.12554E+07        -0.59951E+08         0.00000E+00
    0.00000E+00         0.00000E+00        -0.55261E+08
 
   -0.50740E+08         0.14205E+07         0.00000E+00
    0.14205E+07        -0.59952E+08         0.00000E+00
    0.00000E+00         0.00000E+00        -0.55615E+08
 
   -0.51697E+08         0.15300E+07         0.00000E+00
    0.15300E+07        -0.59964E+08         0.00000E+00
    0.00000E+00         0.00000E+00        -0.56000E+08
 
   -0.52636E+08         0.15992E+07         0.00000E+00
    0.15992E+07        -0.59982E+08         0.00000E+00
    0.00000E+00         0.00000E+00        -0.56399E+08
 
   -0.53543E+08         0.16403E+07         0.00000E+00
    0.16403E+07        -0.59998E+08         0.00000E+00
    0.00000E+00         0.00000E+00        -0.56798E+08
 
   -0.54414E+08         0.16605E+07         0.00000E+00
    0.16605E+07        -0.60004E+08         0.00000E+00
    0.00000E+00         0.00000E+00        -0.57182E+08
 
   -0.55243E+08         0.16623E+07         0.00000E+00
    0.16623E+07        -0.59991E+08         0.00000E+00
    0.00000E+00         0.00000E+00        -0.57543E+08
 
   -0.56026E+08         0.16432E+07         0.00000E+00
    0.16432E+07        -0.59951E+08         0.00000E+00
    0.00000E+00         0.00000E+00        -0.57869E+08
 
   -0.56756E+08         0.15963E+07         0.00000E+00
    0.15963E+07        -0.59880E+08         0.00000E+00
    0.00000E+00         0.00000E+00        -0.58151E+08
 
   -0.57420E+08         0.15120E+07         0.00000E+00
    0.15120E+07        -0.59775E+08         0.00000E+00
    0.00000E+00         0.00000E+00        -0.58380E+08
 
   -0.57997E+08         0.13789E+07         0.00000E+00
    0.13789E+07        -0.59642E+08         0.00000E+00
    0.00000E+00         0.00000E+00        -0.58545E+08
 
   -0.58459E+08         0.11869E+07         0.00000E+00
    0.11869E+07        -0.59490E+08         0.00000E+00
    0.00000E+00         0.00000E+00        -0.58634E+08
 
   -0.46762E+08         0.26480E+06         0.00000E+00
    0.26480E+06        -0.59997E+08         0.00000E+00
    0.00000E+00         0.00000E+00        -0.54546E+08
 
   -0.47620E+08         0.69865E+06         0.00000E+00
    0.69865E+06        -0.59995E+08         0.00000E+00
    0.00000E+00         0.00000E+00        -0.54684E+08
 
   -0.48582E+08         0.10164E+07         0.00000E+00
    0.10164E+07        -0.60005E+08         0.00000E+00
    0.00000E+00         0.00000E+00        -0.54933E+08
 
   -0.49593E+08         0.12378E+07         0.00000E+00
    0.12378E+07        -0.60036E+08         0.00000E+00
    0.00000E+00         0.00000E+00        -0.55263E+08
 
   -0.50613E+08         0.13856E+07         0.00000E+00
    0.13856E+07        -0.60090E+08         0.00000E+00
    0.00000E+00         0.00000E+00        -0.55650E+08
 
   -0.51614E+08         0.14825E+07         0.00000E+00
    0.14825E+07        -0.60164E+08         0.00000E+00
    0.00000E+00         0.00000E+00        -0.56068E+08
 
   -0.52581E+08         0.15476E+07         0.00000E+00
    0.15476E+07        -0.60248E+08         0.00000E+00
    0.00000E+00         0.00000E+00        -0.56499E+08
 
   -0.53507E+08         0.15952E+07         0.00000E+00
    0.15952E+07        -0.60331E+08         0.00000E+00
    0.00000E+00         0.00000E+00        -0.56928E+08
 
   -0.54392E+08         0.16332E+07         0.00000E+00
    0.16332E+07        -0.60400E+08         0.00000E+00
    0.00000E+00         0.00000E+00        -0.57340E+08
 
   -0.55235E+08         0.16632E+07         0.00000E+00
    0.16632E+07        -0.60442E+08         0.00000E+00
    0.00000E+00         0.00000E+00        -0.57724E+08
 
   -0.56039E+08         0.16804E+07         0.00000E+00
    0.16804E+07        -0.60446E+08         0.00000E+00
    0.00000E+00         0.00000E+00        -0.58072E+08
 
   -0.56799E+08         0.16746E+07         0.00000E+00
    0.16746E+07        -0.60403E+08         0.00000E+00
    0.00000E+00         0.00000E+00        -0.58373E+08
 
   -0.57508E+08         0.16309E+07         0.00000E+00
    0.16309E+07        -0.60310E+08         0.00000E+00
    0.00000E+00         0.00000E+00        -0.58618E+08
 
   -0.58145E+08         0.15319E+07         0.00000E+00
    0.15319E+07        -0.60171E+08         0.00000E+00
    0.00000E+00         0.00000E+00        -0.58795E+08
 
   -0.58679E+08         0.13599E+07         0.00000E+00
    0.13599E+07        -0.59995E+08         0.00000E+00
    0.00000E+00         0.00000E+00        -0.58890E+08
 
   -0.46266E+08         0.26553E+06         0.00000E+00
    0.26553E+06        -0.60001E+08         0.00000E+00
    0.00000E+00         0.00000E+00        -0.54499E+08
 
   -0.47256E+08         0.68604E+06         0.00000E+00
    0.68604E+06        -0.60015E+08         0.00000E+00
    0.00000E+00         0.00000E+00        -0.54651E+08
 
   -0.48330E+08         0.97730E+06         0.00000E+00
    0.97730E+06        -0.60059E+08         0.00000E+00
    0.00000E+00         0.00000E+00        -0.54924E+08
 
   -0.49426E+08         0.11673E+07         0.00000E+00
    0.11673E+07        -0.60140E+08         0.00000E+00
    0.00000E+00         0.00000E+00        -0.55285E+08
 
   -0.50505E+08         0.12866E+07         0.00000E+00
    0.12866E+07        -0.60258E+08         0.00000E+00
    0.00000E+00         0.00000E+00        -0.55703E+08
 
   -0.51542E+08         0.13639E+07         0.00000E+00
    0.13639E+07        -0.60406E+08         0.00000E+00
    0.00000E+00         0.00000E+00        -0.56153E+08
 
   -0.52526E+08         0.14224E+07         0.00000E+00
    0.14224E+07        -0.60569E+08         0.00000E+00
    0.00000E+00         0.00000E+00        -0.56614E+08
 
   -0.53457E+08         0.14788E+07         0.00000E+00
    0.14788E+07        -0.60730E+08         0.00000E+00
    0.00000E+00         0.00000E+00        -0.57069E+08
 
   -0.54341E+08         0.15413E+07         0.00000E+00
    0.15413E+07        -0.60872E+08         0.00000E+00
    0.00000E+00         0.00000E+00        -0.57504E+08
 
   -0.55188E+08         0.16103E+07         0.00000E+00
    0.16103E+07        -0.60977E+08         0.00000E+00
    0.00000E+00         0.00000E+00        -0.57910E+08
 
   -0.56004E+08         0.16785E+07         0.00000E+00
    0.16785E+07        -0.61031E+08         0.00000E+00
    0.00000E+00         0.00000E+00        -0.58276E+08
 
   -0.56792E+08         0.17311E+07         0.00000E+00
    0.17311E+07        -0.61020E+08         0.00000E+00
    0.00000E+00         0.00000E+00        -0.58594E+08
 
   -0.57548E+08         0.17478E+07         0.00000E+00
    0.17478E+07        -0.60939E+08         0.00000E+00
    0.00000E+00         0.00000E+00        -0.58851E+08
 
   -0.58254E+08         0.17034E+07         0.00000E+00
    0.17034E+07        -0.60789E+08         0.00000E+00
    0.00000E+00         0.00000E+00        -0.59038E+08
 
   -0.58879E+08         0.15713E+07         0.00000E+00
    0.15713E+07        -0.60580E+08         0.00000E+00
    0.00000E+00         0.00000E+00        -0.59139E+08
 
   -0.45783E+08         0.25780E+06         0.00000E+00
    0.25780E+06        -0.60005E+08         0.00000E+00
    0.00000E+00         0.00000E+00        -0.54475E+08
 
   -0.46924E+08         0.64582E+06         0.00000E+00
    0.64582E+06        -0.60040E+08         0.00000E+00
    0.00000E+00         0.00000E+00        -0.54642E+08
 
   -0.48117E+08         0.89118E+06         0.00000E+00
    0.89118E+06        -0.60125E+08         0.00000E+00
    0.00000E+00         0.00000E+00        -0.54939E+08
 
   -0.49298E+08         0.10329E+07         0.00000E+00
    0.10329E+07        -0.60267E+08         0.00000E+00
    0.00000E+00         0.00000E+00        -0.55328E+08
 
   -0.50428E+08         0.11112E+07         0.00000E+00
    0.11112E+07        -0.60462E+08         0.00000E+00
    0.00000E+00         0.00000E+00        -0.55775E+08
 
   -0.51486E+08         0.11615E+07         0.00000E+00
    0.11615E+07        -0.60696E+08         0.00000E+00
    0.00000E+00         0.00000E+00        -0.56252E+08
 
   -0.52469E+08         0.12118E+07         0.00000E+00
    0.12118E+07        -0.60950E+08         0.00000E+00
    0.00000E+00         0.00000E+00        -0.56738E+08
 
   -0.53387E+08         0.12804E+07         0.00000E+00
    0.12804E+07        -0.61200E+08         0.00000E+00
    0.00000E+00         0.00000E+00        -0.57214E+08
 
   -0.54254E+08         0.13759E+07         0.00000E+00
    0.13759E+07        -0.61425E+08         0.00000E+00
    0.00000E+00         0.00000E+00        -0.57667E+08
 
   -0.55088E+08         0.14969E+07         0.00000E+00
    0.14969E+07        -0.61601E+08         0.00000E+00
    0.00000E+00         0.00000E+00        -0.58089E+08
 
   -0.55904E+08         0.16329E+07         0.00000E+00
    0.16329E+07        -0.61708E+08         0.00000E+00
    0.00000E+00         0.00000E+00        -0.58468E+08
 
   -0.56714E+08         0.17646E+07         0.00000E+00
    0.17646E+07        -0.61732E+08         0.00000E+00
    0.00000E+00         0.00000E+00        -0.58796E+08
 
   -0.57517E+08         0.18650E+07         0.00000E+00
    0.18650E+07        -0.61662E+08         0.00000E+00
    0.00000E+00         0.00000E+00        -0.59063E+08
 
   -0.58302E+08         0.19006E+07         0.00000E+00
    0.19006E+07        -0.61497E+08         0.00000E+00
    0.00000E+00         0.00000E+00        -0.59256E+08
 
   -0.59039E+08         0.18337E+07         0.00000E+00
    0.18337E+07        -0.61244E+08         0.00000E+00
    0.00000E+00         0.00000E+00        -0.59361E+08
 
   -0.45332E+08         0.23957E+06         0.00000E+00
    0.23957E+06        -0.60011E+08         0.00000E+00
    0.00000E+00         0.00000E+00        -0.54480E+08
 
   -0.46643E+08         0.57156E+06         0.00000E+00
    0.57156E+06        -0.60070E+08         0.00000E+00
    0.00000E+00         0.00000E+00        -0.54660E+08
 
   -0.47963E+08         0.74797E+06         0.00000E+00
    0.74797E+06        -0.60206E+08         0.00000E+00
    0.00000E+00         0.00000E+00        -0.54980E+08
 
   -0.49224E+08         0.82237E+06         0.00000E+00
    0.82237E+06        -0.60421E+08         0.00000E+00
    0.00000E+00         0.00000E+00        -0.55393E+08
 
   -0.50390E+08         0.84624E+06         0.00000E+00
    0.84624E+06        -0.60705E+08         0.00000E+00
    0.00000E+00         0.00000E+00        -0.55863E+08
 
   -0.51449E+08         0.86289E+06         0.00000E+00
    0.86289E+06        -0.61039E+08         0.00000E+00
    0.00000E+00         0.00000E+00        -0.56361E+08
 
   -0.52409E+08         0.90438E+06         0.00000E+00
    0.90438E+06        -0.61394E+08         0.00000E+00
    0.00000E+00         0.00000E+00        -0.56862E+08
 
   -0.53290E+08         0.99056E+06         0.00000E+00
    0.99056E+06        -0.61744E+08         0.00000E+00
    0.00000E+00         0.00000E+00        -0.57351E+08
 
   -0.54117E+08         0.11293E+07         0.00000E+00
    0.11293E+07        -0.62058E+08         0.00000E+00
    0.00000E+00         0.00000E+00        -0.57814E+08
 
   -0.54919E+08         0.13173E+07         0.00000E+00
    0.13173E+07        -0.62310E+08         0.00000E+00
    0.00000E+00         0.00000E+00        -0.58241E+08
 
   -0.55720E+08         0.15404E+07         0.00000E+00
    0.15404E+07        -0.62476E+08         0.00000E+00
    0.00000E+00         0.00000E+00        -0.58625E+08
 
   -0.56540E+08         0.17744E+07         0.00000E+00
    0.17744E+07        -0.62536E+08         0.00000E+00
    0.00000E+00         0.00000E+00        -0.58957E+08
 
   -0.57389E+08         0.19856E+07         0.00000E+00
    0.19856E+07        -0.62476E+08         0.00000E+00
    0.00000E+00         0.00000E+00        -0.59227E+08
 
   -0.58260E+08         0.21313E+07         0.00000E+00
    0.21313E+07        -0.62289E+08         0.00000E+00
    0.00000E+00         0.00000E+00        -0.59423E+08
 
   -0.59130E+08         0.21611E+07         0.00000E+00
    0.21611E+07        -0.61981E+08         0.00000E+00
    0.00000E+00         0.00000E+00        -0.59530E+08
 
   -0.44939E+08         0.20821E+06         0.00000E+00
    0.20821E+06        -0.60018E+08         0.00000E+00
    0.00000E+00         0.00000E+00        -0.54515E+08
 
   -0.46442E+08         0.45542E+06         0.00000E+00
    0.45542E+06        -0.60108E+08         0.00000E+00
    0.00000E+00         0.00000E+00        -0.54707E+08
 
   -0.47892E+08         0.53601E+06         0.00000E+00
    0.53601E+06        -0.60305E+08         0.00000E+00
    0.00000E+00         0.00000E+00        -0.55044E+08
 
   -0.49221E+08         0.52219E+06         0.00000E+00
    0.52219E+06        -0.60606E+08         0.00000E+00
    0.00000E+00         0.00000E+00        -0.55474E+08
 
   -0.50402E+08         0.47864E+06         0.00000E+00
    0.47864E+06        -0.60993E+08         0.00000E+00
    0.00000E+00         0.00000E+00        -0.55959E+08
 
   -0.51435E+08         0.45639E+06         0.00000E+00
    0.45639E+06        -0.61438E+08         0.00000E+00
    0.00000E+00         0.00000E+00        -0.56465E+08
 
   -0.52343E+08         0.49082E+06         0.00000E+00
    0.49082E+06        -0.61905E+08         0.00000E+00
    0.00000E+00         0.00000E+00        -0.56971E+08
 
   -0.53158E+08         0.60213E+06         0.00000E+00
    0.60213E+06        -0.62360E+08         0.00000E+00
    0.00000E+00         0.00000E+00        -0.57460E+08
 
   -0.53918E+08         0.79664E+06         0.00000E+00
    0.79664E+06        -0.62768E+08         0.00000E+00
    0.00000E+00         0.00000E+00        -0.57921E+08
 
   -0.54663E+08         0.10683E+07         0.00000E+00
    0.10683E+07        -0.63099E+08         0.00000E+00
    0.00000E+00         0.00000E+00        -0.58344E+08
 
   -0.55428E+08         0.13994E+07         0.00000E+00
    0.13994E+07        -0.63324E+08         0.00000E+00
    0.00000E+00         0.00000E+00        -0.58722E+08
 
   -0.56245E+08         0.17612E+07         0.00000E+00
    0.17612E+07        -0.63419E+08         0.00000E+00
    0.00000E+00         0.00000E+00        -0.59048E+08
 
   -0.57132E+08         0.21134E+07         0.00000E+00
    0.21134E+07        -0.63365E+08         0.00000E+00
    0.00000E+00         0.00000E+00        -0.59313E+08
 
   -0.58095E+08         0.24038E+07         0.00000E+00
    0.24038E+07        -0.63151E+08         0.00000E+00
    0.00000E+00         0.00000E+00        -0.59505E+08
 
   -0.59117E+08         0.25686E+07         0.00000E+00
    0.25686E+07        -0.62776E+08         0.00000E+00
    0.00000E+00         0.00000E+00        -0.59610E+08
 
   -0.44634E+08         0.16024E+06         0.00000E+00
    0.16024E+06        -0.60028E+08         0.00000E+00
    0.00000E+00         0.00000E+00        -0.54577E+08
 
   -0.46350E+08         0.28772E+06         0.00000E+00
    0.28772E+06        -0.60156E+08         0.00000E+00
    0.00000E+00         0.00000E+00        -0.54778E+08
 
   -0.47927E+08         0.24204E+06         0.00000E+00
    0.24204E+06        -0.60426E+08         0.00000E+00
    0.00000E+00         0.00000E+00        -0.55123E+08
 
   -0.49305E+08         0.11861E+06         0.00000E+00
    0.11861E+06        -0.60827E+08         0.00000E+00
    0.00000E+00         0.00000E+00        -0.55560E+08
 
   -0.50470E+08        -0.36354E+04         0.00000E+00
   -0.36354E+04        -0.61330E+08         0.00000E+00
    0.00000E+00         0.00000E+00        -0.56044E+08
 
   -0.51444E+08        -0.66954E+05         0.00000E+00
   -0.66954E+05        -0.61894E+08         0.00000E+00
    0.00000E+00         0.00000E+00        -0.56545E+08
 
   -0.52263E+08        -0.34510E+05         0.00000E+00
   -0.34510E+05        -0.62477E+08         0.00000E+00
    0.00000E+00         0.00000E+00        -0.57040E+08
 
   -0.52978E+08         0.11231E+06         0.00000E+00
    0.11231E+06        -0.63039E+08         0.00000E+00
    0.00000E+00         0.00000E+00        -0.57514E+08
 
   -0.53640E+08         0.37697E+06         0.00000E+00
    0.37697E+06        -0.63540E+08         0.00000E+00
    0.00000E+00         0.00000E+00        -0.57957E+08
 
   -0.54300E+08         0.75019E+06         0.00000E+00
    0.75019E+06        -0.63947E+08         0.00000E+00
    0.00000E+00         0.00000E+00        -0.58360E+08
 
   -0.55006E+08         0.12111E+07         0.00000E+00
    0.12111E+07        -0.64229E+08         0.00000E+00
    0.00000E+00         0.00000E+00        -0.58719E+08
 
   -0.55800E+08         0.17270E+07         0.00000E+00
    0.17270E+07        -0.64356E+08         0.00000E+00
    0.00000E+00         0.00000E+00        -0.59027E+08
 
   -0.56714E+08         0.22523E+07         0.00000E+00
    0.22523E+07        -0.64305E+08         0.00000E+00
    0.00000E+00         0.00000E+00        -0.59277E+08
 
   -0.57767E+08         0.27261E+07         0.00000E+00
    0.27261E+07        -0.64058E+08         0.00000E+00
    0.00000E+00         0.00000E+00        -0.59458E+08
 
   -0.58956E+08         0.30711E+07         0.00000E+00
    0.30711E+07        -0.63605E+08         0.00000E+00
    0.00000E+00         0.00000E+00        -0.59557E+08
 
   -0.44456E+08         0.90979E+05         0.00000E+00
    0.90979E+05        -0.60041E+08         0.00000E+00
    0.00000E+00         0.00000E+00        -0.54654E+08
 
   -0.46404E+08         0.56614E+05         0.00000E+00
    0.56614E+05        -0.60217E+08         0.00000E+00
    0.00000E+00         0.00000E+00        -0.54856E+08
 
   -0.48097E+08        -0.14848E+06         0.00000E+00
   -0.14848E+06        -0.60574E+08         0.00000E+00
    0.00000E+00         0.00000E+00        -0.55199E+08
 
   -0.49491E+08        -0.40151E+06         0.00000E+00
   -0.40151E+06        -0.61088E+08         0.00000E+00
    0.00000E+00         0.00000E+00        -0.55625E+08
 
   -0.50600E+08        -0.60964E+06         0.00000E+00
   -0.60964E+06        -0.61715E+08         0.00000E+00
    0.00000E+00         0.00000E+00        -0.56091E+08
 
   -0.51470E+08        -0.71118E+06         0.00000E+00
   -0.71118E+06        -0.62403E+08         0.00000E+00
    0.00000E+00         0.00000E+00        -0.56567E+08
 
   -0.52161E+08        -0.67114E+06         0.00000E+00
   -0.67114E+06        -0.63101E+08         0.00000E+00
    0.00000E+00         0.00000E+00        -0.57031E+08
 
   -0.52738E+08        -0.47522E+06         0.00000E+00
   -0.47522E+06        -0.63763E+08         0.00000E+00
    0.00000E+00         0.00000E+00        -0.57471E+08
 
   -0.53268E+08        -0.12439E+06         0.00000E+00
   -0.12439E+06        -0.64349E+08         0.00000E+00
    0.00000E+00         0.00000E+00        -0.57877E+08
 
   -0.53812E+08         0.36851E+06         0.00000E+00
    0.36851E+06        -0.64823E+08         0.00000E+00
    0.00000E+00         0.00000E+00        -0.58244E+08
 
   -0.54430E+08         0.98014E+06         0.00000E+00
    0.98014E+06        -0.65153E+08         0.00000E+00
    0.00000E+00         0.00000E+00        -0.58568E+08
 
   -0.55176E+08         0.16757E+07         0.00000E+00
    0.16757E+07        -0.65307E+08         0.00000E+00
    0.00000E+00         0.00000E+00        -0.58845E+08
 
   -0.56097E+08         0.24063E+07         0.00000E+00
    0.24063E+07        -0.65255E+08         0.00000E+00
    0.00000E+00         0.00000E+00        -0.59067E+08
 
   -0.57231E+08         0.31048E+07         0.00000E+00
    0.31048E+07        -0.64970E+08         0.00000E+00
    0.00000E+00         0.00000E+00        -0.59227E+08
 
   -0.58596E+08         0.36814E+07         0.00000E+00
    0.36814E+07        -0.64432E+08         0.00000E+00
    0.00000E+00         0.00000E+00        -0.59314E+08
 
   -0.44454E+08        -0.58854E+04         0.00000E+00
   -0.58854E+04        -0.60059E+08         0.00000E+00
    0.00000E+00         0.00000E+00        -0.54719E+08
 
   -0.46645E+08        -0.25202E+06         0.00000E+00
   -0.25202E+06        -0.60293E+08         0.00000E+00
    0.00000E+00         0.00000E+00        -0.54912E+08
 
   -0.48426E+08        -0.65053E+06         0.00000E+00
   -0.65053E+06        -0.60753E+08         0.00000E+00
    0.00000E+00         0.00000E+00        -0.55234E+08
 
   -0.49790E+08        -0.10486E+07         0.00000E+00
   -0.10486E+07        -0.61392E+08         0.00000E+00
    0.00000E+00         0.00000E+00        -0.55628E+08
 
   -0.50790E+08        -0.13427E+07         0.00000E+00
   -0.13427E+07        -0.62147E+08         0.00000E+00
    0.00000E+00         0.00000E+00        -0.56052E+08
 
   -0.51505E+08        -0.14724E+07         0.00000E+00
   -0.14724E+07        -0.62953E+08         0.00000E+00
    0.00000E+00         0.00000E+00        -0.56478E+08
 
   -0.52021E+08        -0.14095E+07         0.00000E+00
   -0.14095E+07        -0.63752E+08         0.00000E+00
    0.00000E+00         0.00000E+00        -0.56888E+08
 
   -0.52421E+08        -0.11476E+07         0.00000E+00
   -0.11476E+07        -0.64498E+08         0.00000E+00
    0.00000E+00         0.00000E+00        -0.57272E+08
 
   -0.52784E+08        -0.69402E+06         0.00000E+00
   -0.69402E+06        -0.65150E+08         0.00000E+00
    0.00000E+00         0.00000E+00        -0.57622E+08
 
   -0.53180E+08        -0.64962E+05         0.00000E+00
   -0.64962E+05        -0.65675E+08         0.00000E+00
    0.00000E+00         0.00000E+00        -0.57934E+08
 
   -0.53679E+08         0.71528E+06         0.00000E+00
    0.71528E+06        -0.66040E+08         0.00000E+00
    0.00000E+00         0.00000E+00        -0.58206E+08
 
   -0.54346E+08         0.16126E+07         0.00000E+00
    0.16126E+07        -0.66213E+08         0.00000E+00
    0.00000E+00         0.00000E+00        -0.58435E+08
 
   -0.55247E+08         0.25784E+07         0.00000E+00
    0.25784E+07        -0.66156E+08         0.00000E+00
    0.00000E+00         0.00000E+00        -0.58617E+08
 
   -0.56441E+08         0.35431E+07         0.00000E+00
    0.35431E+07        -0.65832E+08         0.00000E+00
    0.00000E+00         0.00000E+00        -0.58746E+08
 
   -0.57975E+08         0.44077E+07         0.00000E+00
    0.44077E+07        -0.65206E+08         0.00000E+00
    0.00000E+00         0.00000E+00        -0.58815E+08
 
   -0.44687E+08        -0.13865E+06         0.00000E+00
   -0.13865E+06        -0.60083E+08         0.00000E+00
    0.00000E+00         0.00000E+00        -0.54719E+08
 
   -0.47117E+08        -0.65422E+06         0.00000E+00
   -0.65422E+06        -0.60389E+08         0.00000E+00
    0.00000E+00         0.00000E+00        -0.54889E+08
 
   -0.48936E+08        -0.12776E+07         0.00000E+00
   -0.12776E+07        -0.60964E+08         0.00000E+00
    0.00000E+00         0.00000E+00        -0.55168E+08
 
   -0.50203E+08        -0.18273E+07         0.00000E+00
   -0.18273E+07        -0.61734E+08         0.00000E+00
    0.00000E+00         0.00000E+00        -0.55502E+08
 
   -0.51027E+08        -0.21966E+07         0.00000E+00
   -0.21966E+07        -0.62611E+08         0.00000E+00
    0.00000E+00         0.00000E+00        -0.55855E+08
 
   -0.51531E+08        -0.23349E+07         0.00000E+00
   -0.23349E+07        -0.63517E+08         0.00000E+00
    0.00000E+00         0.00000E+00        -0.56205E+08
 
   -0.51825E+08        -0.22276E+07         0.00000E+00
   -0.22276E+07        -0.64392E+08         0.00000E+00
    0.00000E+00         0.00000E+00        -0.56536E+08
 
   -0.52011E+08        -0.18804E+07         0.00000E+00
   -0.18804E+07        -0.65190E+08         0.00000E+00
    0.00000E+00         0.00000E+00        -0.56840E+08
 
   -0.52173E+08        -0.13085E+07         0.00000E+00
   -0.13085E+07        -0.65878E+08         0.00000E+00
    0.00000E+00         0.00000E+00        -0.57112E+08
 
   -0.52390E+08        -0.53097E+06         0.00000E+00
   -0.53097E+06        -0.66427E+08         0.00000E+00
    0.00000E+00         0.00000E+00        -0.57351E+08
 
   -0.52735E+08         0.42962E+06         0.00000E+00
    0.42962E+06        -0.66809E+08         0.00000E+00
    0.00000E+00         0.00000E+00        -0.57554E+08
 
   -0.53288E+08         0.15439E+07         0.00000E+00
    0.15439E+07        -0.66989E+08         0.00000E+00
    0.00000E+00         0.00000E+00        -0.57720E+08
 
   -0.54130E+08         0.27690E+07         0.00000E+00
    0.27690E+07        -0.66924E+08         0.00000E+00
    0.00000E+00         0.00000E+00        -0.57848E+08
 
   -0.55347E+08         0.40386E+07         0.00000E+00
    0.40386E+07        -0.66565E+08         0.00000E+00
    0.00000E+00         0.00000E+00        -0.57936E+08
 
   -0.57027E+08         0.52504E+07         0.00000E+00
    0.52504E+07        -0.65857E+08         0.00000E+00
    0.00000E+00         0.00000E+00        -0.57981E+08
 
   -0.45233E+08        -0.31770E+06         0.00000E+00
   -0.31770E+06        -0.60115E+08         0.00000E+00
    0.00000E+00         0.00000E+00        -0.54570E+08
 
   -0.47863E+08        -0.11665E+07         0.00000E+00
   -0.11665E+07        -0.60505E+08         0.00000E+00
    0.00000E+00         0.00000E+00        -0.54699E+08
 
   -0.49639E+08        -0.20381E+07         0.00000E+00
   -0.20381E+07        -0.61207E+08         0.00000E+00
    0.00000E+00         0.00000E+00        -0.54906E+08
 
   -0.50719E+08        -0.27316E+07         0.00000E+00
   -0.27316E+07        -0.62102E+08         0.00000E+00
    0.00000E+00         0.00000E+00        -0.55148E+08
 
   -0.51290E+08        -0.31507E+07         0.00000E+00
   -0.31507E+07        -0.63079E+08         0.00000E+00
    0.00000E+00         0.00000E+00        -0.55400E+08
 
   -0.51522E+08        -0.32668E+07         0.00000E+00
   -0.32668E+07        -0.64049E+08         0.00000E+00
    0.00000E+00         0.00000E+00        -0.55645E+08
 
   -0.51552E+08        -0.30876E+07         0.00000E+00
   -0.30876E+07        -0.64955E+08         0.00000E+00
    0.00000E+00         0.00000E+00        -0.55872E+08
 
   -0.51490E+08        -0.26351E+07         0.00000E+00
   -0.26351E+07        -0.65759E+08         0.00000E+00
    0.00000E+00         0.00000E+00        -0.56075E+08
 
   -0.51425E+08        -0.19333E+07         0.00000E+00
   -0.19333E+07        -0.66440E+08         0.00000E+00
    0.00000E+00         0.00000E+00        -0.56251E+08
 
   -0.51434E+08        -0.10024E+07         0.00000E+00
   -0.10024E+07        -0.66978E+08         0.00000E+00
    0.00000E+00         0.00000E+00        -0.56399E+08
 
   -0.51593E+08         0.14035E+06         0.00000E+00
    0.14035E+06        -0.67351E+08         0.00000E+00
    0.00000E+00         0.00000E+00        -0.56518E+08
 
   -0.51989E+08         0.14759E+07         0.00000E+00
    0.14759E+07        -0.67526E+08         0.00000E+00
    0.00000E+00         0.00000E+00        -0.56609E+08
 
   -0.52720E+08         0.29740E+07         0.00000E+00
    0.29740E+07        -0.67455E+08         0.00000E+00
    0.00000E+00         0.00000E+00        -0.56672E+08
 
   -0.53904E+08         0.45800E+07         0.00000E+00
    0.45800E+07        -0.67073E+08         0.00000E+00
    0.00000E+00         0.00000E+00        -0.56708E+08
 
   -0.55676E+08         0.61974E+07         0.00000E+00
    0.61974E+07        -0.66300E+08         0.00000E+00
    0.00000E+00         0.00000E+00        -0.56723E+08
 
   -0.46183E+08        -0.55505E+06         0.00000E+00
   -0.55505E+06        -0.60155E+08         0.00000E+00
    0.00000E+00         0.00000E+00        -0.54141E+08
 
   -0.48924E+08        -0.18027E+07         0.00000E+00
   -0.18027E+07        -0.60642E+08         0.00000E+00
    0.00000E+00         0.00000E+00        -0.54208E+08
 
   -0.50532E+08        -0.29301E+07         0.00000E+00
   -0.29301E+07        -0.61469E+08         0.00000E+00
    0.00000E+00         0.00000E+00        -0.54311E+08
 
   -0.51311E+08        -0.37386E+07         0.00000E+00
   -0.37386E+07        -0.62467E+08         0.00000E+00
    0.00000E+00         0.00000E+00        -0.54430E+08
 
   -0.51542E+08        -0.41641E+07         0.00000E+00
   -0.41641E+07        -0.63499E+08         0.00000E+00
    0.00000E+00         0.00000E+00        -0.54552E+08
 
   -0.51444E+08        -0.42159E+07         0.00000E+00
   -0.42159E+07        -0.64475E+08         0.00000E+00
    0.00000E+00         0.00000E+00        -0.54667E+08
 
   -0.51175E+08        -0.39332E+07         0.00000E+00
   -0.39332E+07        -0.65346E+08         0.00000E+00
    0.00000E+00         0.00000E+00        -0.54768E+08
 
   -0.50845E+08        -0.33578E+07         0.00000E+00
   -0.33578E+07        -0.66093E+08         0.00000E+00
    0.00000E+00         0.00000E+00        -0.54853E+08
 
   -0.50536E+08        -0.25222E+07         0.00000E+00
   -0.25222E+07        -0.66710E+08         0.00000E+00
    0.00000E+00         0.00000E+00        -0.54918E+08
 
   -0.50316E+08        -0.14448E+07         0.00000E+00
   -0.14448E+07        -0.67192E+08         0.00000E+00
    0.00000E+00         0.00000E+00        -0.54964E+08
 
   -0.50257E+08        -0.13254E+06         0.00000E+00
   -0.13254E+06        -0.67527E+08         0.00000E+00
    0.00000E+00         0.00000E+00        -0.54989E+08
 
   -0.50447E+08         0.14126E+07         0.00000E+00
    0.14126E+07        -0.67686E+08         0.00000E+00
    0.00000E+00         0.00000E+00        -0.54996E+08
 
   -0.51002E+08         0.31820E+07         0.00000E+00
    0.31820E+07        -0.67615E+08         0.00000E+00
    0.00000E+00         0.00000E+00        -0.54986E+08
 
   -0.52074E+08         0.51435E+07         0.00000E+00
    0.51435E+07        -0.67234E+08         0.00000E+00
    0.00000E+00         0.00000E+00        -0.54966E+08
 
   -0.53850E+08         0.72189E+07         0.00000E+00
    0.72189E+07        -0.66433E+08         0.00000E+00
    0.00000E+00         0.00000E+00        -0.54947E+08
 
   -0.47640E+08        -0.86254E+06         0.00000E+00
   -0.86254E+06        -0.60202E+08         0.00000E+00
    0.00000E+00         0.00000E+00        -0.53245E+08
 
   -0.50323E+08        -0.25680E+07         0.00000E+00
   -0.25680E+07        -0.60790E+08         0.00000E+00
    0.00000E+00         0.00000E+00        -0.53228E+08
 
   -0.51586E+08        -0.39330E+07         0.00000E+00
   -0.39330E+07        -0.61725E+08         0.00000E+00
    0.00000E+00         0.00000E+00        -0.53201E+08
 
   -0.51927E+08        -0.48001E+07         0.00000E+00
   -0.48001E+07        -0.62776E+08         0.00000E+00
    0.00000E+00         0.00000E+00        -0.53171E+08
 
   -0.51731E+08        -0.51689E+07         0.00000E+00
   -0.51689E+07        -0.63789E+08         0.00000E+00
    0.00000E+00         0.00000E+00        -0.53141E+08
 
   -0.51259E+08        -0.51057E+07         0.00000E+00
   -0.51057E+07        -0.64684E+08         0.00000E+00
    0.00000E+00         0.00000E+00        -0.53109E+08
 
   -0.50673E+08        -0.46885E+07         0.00000E+00
   -0.46885E+07        -0.65434E+08         0.00000E+00
    0.00000E+00         0.00000E+00        -0.53074E+08
 
   -0.50072E+08        -0.39805E+07         0.00000E+00
   -0.39805E+07        -0.66043E+08         0.00000E+00
    0.00000E+00         0.00000E+00        -0.53032E+08
 
   -0.49516E+08        -0.30197E+07         0.00000E+00
   -0.30197E+07        -0.66529E+08         0.00000E+00
    0.00000E+00         0.00000E+00        -0.52981E+08
 
   -0.49056E+08        -0.18186E+07         0.00000E+00
   -0.18186E+07        -0.66905E+08         0.00000E+00
    0.00000E+00         0.00000E+00        -0.52920E+08
 
   -0.48751E+08        -0.36828E+06         0.00000E+00
   -0.36828E+06        -0.67171E+08         0.00000E+00
    0.00000E+00         0.00000E+00        -0.52849E+08
 
   -0.48683E+08         0.13538E+07         0.00000E+00
    0.13538E+07        -0.67305E+08         0.00000E+00
    0.00000E+00         0.00000E+00        -0.52770E+08
 
   -0.48981E+08         0.33712E+07         0.00000E+00
    0.33712E+07        -0.67251E+08         0.00000E+00
    0.00000E+00         0.00000E+00        -0.52686E+08
 
   -0.49829E+08         0.56881E+07         0.00000E+00
    0.56881E+07        -0.66910E+08         0.00000E+00
    0.00000E+00         0.00000E+00        -0.52608E+08
 
   -0.51477E+08         0.82615E+07         0.00000E+00
    0.82615E+07        -0.66141E+08         0.00000E+00
    0.00000E+00         0.00000E+00        -0.52554E+08
 
   -0.49720E+08        -0.12483E+07         0.00000E+00
   -0.12483E+07        -0.60254E+08         0.00000E+00
    0.00000E+00         0.00000E+00        -0.51635E+08
 
   -0.52059E+08        -0.34500E+07         0.00000E+00
   -0.34500E+07        -0.60930E+08         0.00000E+00
    0.00000E+00         0.00000E+00        -0.51522E+08
 
   -0.52742E+08        -0.49960E+07         0.00000E+00
   -0.49960E+07        -0.61924E+08         0.00000E+00
    0.00000E+00         0.00000E+00        -0.51349E+08
 
   -0.52493E+08        -0.58333E+07         0.00000E+00
   -0.58333E+07        -0.62941E+08         0.00000E+00
    0.00000E+00         0.00000E+00        -0.51159E+08
 
   -0.51794E+08        -0.60655E+07         0.00000E+00
   -0.60655E+07        -0.63825E+08         0.00000E+00
    0.00000E+00         0.00000E+00        -0.50972E+08
 
   -0.50926E+08        -0.58342E+07         0.00000E+00
   -0.58342E+07        -0.64522E+08         0.00000E+00
    0.00000E+00         0.00000E+00        -0.50793E+08
 
   -0.50032E+08        -0.52603E+07         0.00000E+00
   -0.52603E+07        -0.65043E+08         0.00000E+00
    0.00000E+00         0.00000E+00        -0.50622E+08
 
   -0.49177E+08        -0.44242E+07         0.00000E+00
   -0.44242E+07        -0.65424E+08         0.00000E+00
    0.00000E+00         0.00000E+00        -0.50457E+08
 
   -0.48391E+08        -0.33644E+07         0.00000E+00
   -0.33644E+07        -0.65708E+08         0.00000E+00
    0.00000E+00         0.00000E+00        -0.50295E+08
 
   -0.47693E+08        -0.20822E+07         0.00000E+00
   -0.20822E+07        -0.65927E+08         0.00000E+00
    0.00000E+00         0.00000E+00        -0.50135E+08
 
   -0.47119E+08        -0.54799E+06         0.00000E+00
   -0.54799E+06        -0.66096E+08         0.00000E+00
    0.00000E+00         0.00000E+00        -0.49975E+08
 
   -0.46740E+08         0.12926E+07         0.00000E+00
    0.12926E+07        -0.66202E+08         0.00000E+00
    0.00000E+00         0.00000E+00        -0.49817E+08
 
   -0.46684E+08         0.35064E+07         0.00000E+00
    0.35064E+07        -0.66190E+08         0.00000E+00
    0.00000E+00         0.00000E+00        -0.49667E+08
 
   -0.47165E+08         0.61512E+07         0.00000E+00
    0.61512E+07        -0.65949E+08         0.00000E+00
    0.00000E+00         0.00000E+00        -0.49536E+08
 
   -0.48498E+08         0.92411E+07         0.00000E+00
    0.92411E+07        -0.65300E+08         0.00000E+00
    0.00000E+00         0.00000E+00        -0.49451E+08
 
   -0.52524E+08        -0.17108E+07         0.00000E+00
   -0.17108E+07        -0.60302E+08         0.00000E+00
    0.00000E+00         0.00000E+00        -0.49023E+08
 
   -0.54089E+08        -0.44053E+07         0.00000E+00
   -0.44053E+07        -0.61029E+08         0.00000E+00
    0.00000E+00         0.00000E+00        -0.48814E+08
 
   -0.53897E+08        -0.60241E+07         0.00000E+00
   -0.60241E+07        -0.61986E+08         0.00000E+00
    0.00000E+00         0.00000E+00        -0.48504E+08
 
   -0.52909E+08        -0.67101E+07         0.00000E+00
   -0.67101E+07        -0.62829E+08         0.00000E+00
    0.00000E+00         0.00000E+00        -0.48168E+08
 
   -0.51665E+08        -0.67183E+07         0.00000E+00
   -0.67183E+07        -0.63429E+08         0.00000E+00
    0.00000E+00         0.00000E+00        -0.47842E+08
 
   -0.50417E+08        -0.62776E+07         0.00000E+00
   -0.62776E+07        -0.63787E+08         0.00000E+00
    0.00000E+00         0.00000E+00        -0.47535E+08
 
   -0.49254E+08        -0.55452E+07         0.00000E+00
   -0.55452E+07        -0.63962E+08         0.00000E+00
    0.00000E+00         0.00000E+00        -0.47249E+08
 
   -0.48189E+08        -0.46080E+07         0.00000E+00
   -0.46080E+07        -0.64025E+08         0.00000E+00
    0.00000E+00         0.00000E+00        -0.46980E+08
 
   -0.47205E+08        -0.34967E+07         0.00000E+00
   -0.34967E+07        -0.64040E+08         0.00000E+00
    0.00000E+00         0.00000E+00        -0.46727E+08
 
   -0.46286E+08        -0.21974E+07         0.00000E+00
   -0.21974E+07        -0.64056E+08         0.00000E+00
    0.00000E+00         0.00000E+00        -0.46485E+08
 
   -0.45432E+08        -0.65722E+06         0.00000E+00
   -0.65722E+06        -0.64105E+08         0.00000E+00
    0.00000E+00         0.00000E+00        -0.46255E+08
 
   -0.44689E+08         0.12140E+07         0.00000E+00
    0.12140E+07        -0.64186E+08         0.00000E+00
    0.00000E+00         0.00000E+00        -0.46037E+08
 
   -0.44172E+08         0.35372E+07         0.00000E+00
    0.35372E+07        -0.64255E+08         0.00000E+00
    0.00000E+00         0.00000E+00        -0.45837E+08
 
   -0.44109E+08         0.64445E+07         0.00000E+00
    0.64445E+07        -0.64194E+08         0.00000E+00
    0.00000E+00         0.00000E+00        -0.45669E+08
 
   -0.44878E+08         0.10037E+08         0.00000E+00
    0.10037E+08        -0.63787E+08         0.00000E+00
    0.00000E+00         0.00000E+00        -0.45561E+08
 
   -0.56122E+08        -0.22307E+07         0.00000E+00
   -0.22307E+07        -0.60331E+08         0.00000E+00
    0.00000E+00         0.00000E+00        -0.45113E+08
 
   -0.56303E+08        -0.53407E+07         0.00000E+00
   -0.53407E+07        -0.61030E+08         0.00000E+00
    0.00000E+00         0.00000E+00        -0.44834E+08
 
   -0.54906E+08        -0.68582E+07         0.00000E+00
   -0.68582E+07        -0.61786E+08         0.00000E+00
    0.00000E+00         0.00000E+00        -0.44427E+08
 
   -0.53068E+08        -0.72472E+07         0.00000E+00
   -0.72472E+07        -0.62247E+08         0.00000E+00
    0.00000E+00         0.00000E+00        -0.43993E+08
 
   -0.51293E+08        -0.69590E+07         0.00000E+00
   -0.69590E+07        -0.62366E+08         0.00000E+00
    0.00000E+00         0.00000E+00        -0.43573E+08
 
   -0.49730E+08        -0.63015E+07         0.00000E+00
   -0.63015E+07        -0.62230E+08         0.00000E+00
    0.00000E+00         0.00000E+00        -0.43180E+08
 
   -0.48370E+08        -0.54442E+07         0.00000E+00
   -0.54442E+07        -0.61949E+08         0.00000E+00
    0.00000E+00         0.00000E+00        -0.42817E+08
 
   -0.47158E+08        -0.44619E+07         0.00000E+00
   -0.44619E+07        -0.61621E+08         0.00000E+00
    0.00000E+00         0.00000E+00        -0.42480E+08
 
   -0.46026E+08        -0.33690E+07         0.00000E+00
   -0.33690E+07        -0.61320E+08         0.00000E+00
    0.00000E+00         0.00000E+00        -0.42167E+08
 
   -0.44915E+08        -0.21349E+07         0.00000E+00
   -0.21349E+07        -0.61106E+08         0.00000E+00
    0.00000E+00         0.00000E+00        -0.41876E+08
 
   -0.43787E+08        -0.68716E+06         0.00000E+00
   -0.68716E+06        -0.61020E+08         0.00000E+00
    0.00000E+00         0.00000E+00        -0.41605E+08
 
   -0.42640E+08         0.10971E+07         0.00000E+00
    0.10971E+07        -0.61084E+08         0.00000E+00
    0.00000E+00         0.00000E+00        -0.41355E+08
 
   -0.41548E+08         0.33994E+07         0.00000E+00
    0.33994E+07        -0.61279E+08         0.00000E+00
    0.00000E+00         0.00000E+00        -0.41131E+08
 
   -0.40729E+08         0.64511E+07         0.00000E+00
    0.64511E+07        -0.61497E+08         0.00000E+00
    0.00000E+00         0.00000E+00        -0.40948E+08
 
   -0.40611E+08         0.10483E+08         0.00000E+00
    0.10483E+08        -0.61494E+08         0.00000E+00
    0.00000E+00         0.00000E+00        -0.40833E+08
 
   -0.60499E+08        -0.27606E+07         0.00000E+00
   -0.27606E+07        -0.60321E+08         0.00000E+00
    0.00000E+00         0.00000E+00        -0.39674E+08
 
   -0.58499E+08        -0.60839E+07         0.00000E+00
   -0.60839E+07        -0.60841E+08         0.00000E+00
    0.00000E+00         0.00000E+00        -0.39380E+08
 
   -0.55579E+08        -0.72466E+07         0.00000E+00
   -0.72466E+07        -0.61125E+08         0.00000E+00
    0.00000E+00         0.00000E+00        -0.38953E+08
 
   -0.52878E+08        -0.72010E+07         0.00000E+00
   -0.72010E+07        -0.60913E+08         0.00000E+00
    0.00000E+00         0.00000E+00        -0.38497E+08
 
   -0.50675E+08        -0.66045E+07         0.00000E+00
   -0.66045E+07        -0.60330E+08         0.00000E+00
    0.00000E+00         0.00000E+00        -0.38053E+08
 
   -0.48909E+08        -0.57872E+07         0.00000E+00
   -0.57872E+07        -0.59565E+08         0.00000E+00
    0.00000E+00         0.00000E+00        -0.37635E+08
 
   -0.47447E+08        -0.48867E+07         0.00000E+00
   -0.48867E+07        -0.58758E+08         0.00000E+00
    0.00000E+00         0.00000E+00        -0.37249E+08
 
   -0.46159E+08        -0.39463E+07         0.00000E+00
   -0.39463E+07        -0.58008E+08         0.00000E+00
    0.00000E+00         0.00000E+00        -0.36892E+08
 
   -0.44935E+08        -0.29592E+07         0.00000E+00
   -0.29592E+07        -0.57382E+08         0.00000E+00
    0.00000E+00         0.00000E+00        -0.36564E+08
 
   -0.43676E+08        -0.18822E+07         0.00000E+00
   -0.18822E+07        -0.56934E+08         0.00000E+00
    0.00000E+00         0.00000E+00        -0.36263E+08
 
   -0.42298E+08        -0.63389E+06         0.00000E+00
   -0.63389E+06        -0.56713E+08         0.00000E+00
    0.00000E+00         0.00000E+00        -0.35988E+08
 
   -0.40735E+08         0.92395E+06         0.00000E+00
    0.92395E+06        -0.56765E+08         0.00000E+00
    0.00000E+00         0.00000E+00        -0.35740E+08
 
   -0.38974E+08         0.30251E+07         0.00000E+00
    0.30251E+07        -0.57121E+08         0.00000E+00
    0.00000E+00         0.00000E+00        -0.35526E+08
 
   -0.37162E+08         0.60264E+07         0.00000E+00
    0.60264E+07        -0.57727E+08         0.00000E+00
    0.00000E+00         0.00000E+00        -0.35356E+08
 
   -0.35748E+08         0.10360E+08         0.00000E+00
    0.10360E+08        -0.58333E+08         0.00000E+00
    0.00000E+00         0.00000E+00        -0.35251E+08
 
   -0.65482E+08        -0.32091E+07         0.00000E+00
   -0.32091E+07        -0.60232E+08         0.00000E+00
    0.00000E+00         0.00000E+00        -0.32640E+08
 
   -0.60335E+08        -0.63147E+07         0.00000E+00
   -0.63147E+07        -0.60292E+08         0.00000E+00
    0.00000E+00         0.00000E+00        -0.32404E+08
 
   -0.55729E+08        -0.68014E+07         0.00000E+00
   -0.68014E+07        -0.59638E+08         0.00000E+00
    0.00000E+00         0.00000E+00        -0.32053E+08
 
   -0.52339E+08        -0.62946E+07         0.00000E+00
   -0.62946E+07        -0.58397E+08         0.00000E+00
    0.00000E+00         0.00000E+00        -0.31664E+08
 
   -0.49896E+08        -0.55086E+07         0.00000E+00
   -0.55086E+07        -0.56942E+08         0.00000E+00
    0.00000E+00         0.00000E+00        -0.31274E+08
 
   -0.48061E+08        -0.46751E+07         0.00000E+00
   -0.46751E+07        -0.55497E+08         0.00000E+00
    0.00000E+00         0.00000E+00        -0.30902E+08
 
   -0.46586E+08        -0.38616E+07         0.00000E+00
   -0.38616E+07        -0.54176E+08         0.00000E+00
    0.00000E+00         0.00000E+00        -0.30555E+08
 
   -0.45287E+08        -0.30729E+07         0.00000E+00
   -0.30729E+07        -0.53042E+08         0.00000E+00
    0.00000E+00         0.00000E+00        -0.30235E+08
 
   -0.44021E+08        -0.22848E+07         0.00000E+00
   -0.22848E+07        -0.52134E+08         0.00000E+00
    0.00000E+00         0.00000E+00        -0.29943E+08
 
   -0.42661E+08        -0.14518E+07         0.00000E+00
   -0.14518E+07        -0.51488E+08         0.00000E+00
    0.00000E+00         0.00000E+00        -0.29677E+08
 
   -0.41081E+08        -0.49990E+06         0.00000E+00
   -0.49990E+06        -0.51150E+08         0.00000E+00
    0.00000E+00         0.00000E+00        -0.29438E+08
 
   -0.39142E+08         0.69664E+06         0.00000E+00
    0.69664E+06        -0.51187E+08         0.00000E+00
    0.00000E+00         0.00000E+00        -0.29229E+08
 
   -0.36686E+08         0.23718E+07         0.00000E+00
    0.23718E+07        -0.51698E+08         0.00000E+00
    0.00000E+00         0.00000E+00        -0.29055E+08
 
   -0.33655E+08         0.50092E+07         0.00000E+00
    0.50092E+07        -0.52776E+08         0.00000E+00
    0.00000E+00         0.00000E+00        -0.28926E+08
 
   -0.30416E+08         0.93715E+07         0.00000E+00
    0.93715E+07        -0.54242E+08         0.00000E+00
    0.00000E+00         0.00000E+00        -0.28852E+08
 
   -0.70549E+08        -0.33662E+07         0.00000E+00
   -0.33662E+07        -0.59968E+08         0.00000E+00
    0.00000E+00         0.00000E+00        -0.24198E+08
 
   -0.61309E+08        -0.53510E+07         0.00000E+00
   -0.53510E+07        -0.58810E+08         0.00000E+00
    0.00000E+00         0.00000E+00        -0.24083E+08
 
   -0.55346E+08        -0.50414E+07         0.00000E+00
   -0.50414E+07        -0.56552E+08         0.00000E+00
    0.00000E+00         0.00000E+00        -0.23879E+08
 
   -0.51636E+08        -0.43564E+07         0.00000E+00
   -0.43564E+07        -0.54087E+08         0.00000E+00
    0.00000E+00         0.00000E+00        -0.23628E+08
 
   -0.49147E+08        -0.36576E+07         0.00000E+00
   -0.36576E+07        -0.51793E+08         0.00000E+00
    0.00000E+00         0.00000E+00        -0.23363E+08
 
   -0.47346E+08        -0.30199E+07         0.00000E+00
   -0.30199E+07        -0.49780E+08         0.00000E+00
    0.00000E+00         0.00000E+00        -0.23103E+08
 
   -0.45913E+08        -0.24468E+07         0.00000E+00
   -0.24468E+07        -0.48074E+08         0.00000E+00
    0.00000E+00         0.00000E+00        -0.22858E+08
 
   -0.44639E+08        -0.19203E+07         0.00000E+00
   -0.19203E+07        -0.46678E+08         0.00000E+00
    0.00000E+00         0.00000E+00        -0.22631E+08
 
   -0.43365E+08        -0.14136E+07         0.00000E+00
   -0.14136E+07        -0.45592E+08         0.00000E+00
    0.00000E+00         0.00000E+00        -0.22425E+08
 
   -0.41947E+08        -0.89147E+06         0.00000E+00
   -0.89147E+06        -0.44829E+08         0.00000E+00
    0.00000E+00         0.00000E+00        -0.22238E+08
 
   -0.40230E+08        -0.30310E+06         0.00000E+00
   -0.30310E+06        -0.44424E+08         0.00000E+00
    0.00000E+00         0.00000E+00        -0.22074E+08
 
   -0.38010E+08         0.43683E+06         0.00000E+00
    0.43683E+06        -0.44452E+08         0.00000E+00
    0.00000E+00         0.00000E+00        -0.21934E+08
 
   -0.34988E+08         0.14955E+07         0.00000E+00
    0.14955E+07        -0.45057E+08         0.00000E+00
    0.00000E+00         0.00000E+00        -0.21825E+08
 
   -0.30661E+08         0.32799E+07         0.00000E+00
    0.32799E+07        -0.46526E+08         0.00000E+00
    0.00000E+00         0.00000E+00        -0.21753E+08
 
   -0.24904E+08         0.70846E+07         0.00000E+00
    0.70846E+07        -0.49164E+08         0.00000E+00
    0.00000E+00         0.00000E+00        -0.21722E+08
 
   -0.74272E+08        -0.20759E+07         0.00000E+00
   -0.20759E+07        -0.58004E+08         0.00000E+00
    0.00000E+00         0.00000E+00        -0.14834E+08
 
   -0.61256E+08        -0.22260E+07         0.00000E+00
   -0.22260E+07        -0.54454E+08         0.00000E+00
    0.00000E+00         0.00000E+00        -0.14812E+08
 
   -0.54883E+08        -0.18809E+07         0.00000E+00
   -0.18809E+07        -0.50641E+08         0.00000E+00
    0.00000E+00         0.00000E+00        -0.14753E+08
 
   -0.51125E+08        -0.15532E+07         0.00000E+00
   -0.15532E+07        -0.47334E+08         0.00000E+00
    0.00000E+00         0.00000E+00        -0.14668E+08
 
   -0.48681E+08        -0.12682E+07         0.00000E+00
   -0.12682E+07        -0.44575E+08         0.00000E+00
    0.00000E+00         0.00000E+00        -0.14574E+08
 
   -0.46933E+08        -0.10276E+07         0.00000E+00
   -0.10276E+07        -0.42306E+08         0.00000E+00
    0.00000E+00         0.00000E+00        -0.14480E+08
 
   -0.45543E+08        -0.82103E+06         0.00000E+00
   -0.82103E+06        -0.40467E+08         0.00000E+00
    0.00000E+00         0.00000E+00        -0.14390E+08
 
   -0.44294E+08        -0.63698E+06         0.00000E+00
   -0.63698E+06        -0.39009E+08         0.00000E+00
    0.00000E+00         0.00000E+00        -0.14307E+08
 
   -0.43024E+08        -0.46364E+06         0.00000E+00
   -0.46364E+06        -0.37904E+08         0.00000E+00
    0.00000E+00         0.00000E+00        -0.14232E+08
 
   -0.41583E+08        -0.28777E+06         0.00000E+00
   -0.28777E+06        -0.37145E+08         0.00000E+00
    0.00000E+00         0.00000E+00        -0.14164E+08
 
   -0.39798E+08        -0.91458E+05         0.00000E+00
   -0.91458E+05        -0.36758E+08         0.00000E+00
    0.00000E+00         0.00000E+00        -0.14105E+08
 
   -0.37432E+08         0.15463E+06         0.00000E+00
    0.15463E+06        -0.36815E+08         0.00000E+00
    0.00000E+00         0.00000E+00        -0.14055E+08
 
   -0.34092E+08         0.51092E+06         0.00000E+00
    0.51092E+06        -0.37474E+08         0.00000E+00
    0.00000E+00         0.00000E+00        -0.14019E+08
 
   -0.29018E+08         0.11138E+07         0.00000E+00
    0.11138E+07        -0.39095E+08         0.00000E+00
    0.00000E+00         0.00000E+00        -0.13998E+08
 
   -0.19959E+08         0.27745E+07         0.00000E+00
    0.27745E+07        -0.42792E+08         0.00000E+00
    0.00000E+00         0.00000E+00        -0.13994E+08
 
SCALARS stresss double 
LOOKUP_TABLE default
  -55121463.8832021     
  -55197759.1778562     
  -55315238.9940586     
  -55466345.3911036     
  -55643325.5057397     
  -55838472.9291472     
  -56044302.8162172     
  -56253666.7788143     
  -56459817.2161053     
  -56656434.3882249     
  -56837631.9000728     
  -56997957.4844638     
  -57132406.0819480     
  -57236460.9285612     
  -57306176.1207145     
  -55097238.6589730     
  -55176823.7898818     
  -55298283.1817493     
  -55453820.3339764     
  -55635475.1616907     
  -55835364.4134611     
  -56045856.7168660     
  -56259684.6500450     
  -56470003.8537679     
  -56670413.1423946     
  -56854952.0167005     
  -57018093.1379110     
  -57154747.3139324     
  -57260297.2458869     
  -57330671.7461079     
  -55049081.6870121     
  -55135316.0810341     
  -55264782.1543258     
  -55429216.0143293     
  -55620243.6288285     
  -55829629.3077826     
  -56049450.9501371     
  -56272206.4356737     
  -56490861.9621730     
  -56698857.7811884     
  -56890089.2731655     
  -57058882.3030103     
  -57199981.6107864     
  -57308569.3991372     
  -57380328.7165025     
  -54977544.7798098     
  -55073898.4796784     
  -55215489.8641358     
  -55393352.9651809     
  -55598493.4987109     
  -55822149.9245050     
  -56055970.0282814     
  -56292108.3539755     
  -56523257.4734403     
  -56742631.0023513     
  -56943918.7662375     
  -57121235.2307625     
  -57269081.7948179     
  -57382342.0417666     
  -57456326.2280324     
  -54883508.1224040     
  -54993610.6673459     
  -55151574.7629085     
  -55347490.7021975     
  -55571535.5739538     
  -55814251.8365041     
  -56066725.4744363     
  -56320670.3679626     
  -56568434.9311242     
  -56802952.6019795     
  -57017660.1065412     
  -57206407.6425595     
  -57363384.1516030     
  -57483079.0989274     
  -57560299.6648200     
  -54768229.1179007     
  -54895918.5700554     
  -55074664.4206566     
  -55293362.0313247     
  -55541148.5913974     
  -55807705.0354619     
  -56083435.2664406     
  -56359531.7837540     
  -56627948.2247955     
  -56881305.4772978     
  -57112760.0151200     
  -57315862.5604852     
  -57484433.4652274     
  -57612479.1430253     
  -57694171.6701979     
  -54633411.0999605     
  -54782780.2553718     
  -54986904.3122302     
  -55233218.0001894     
  -55509603.6161512     
  -55804722.1496631     
  -56108191.5917102     
  -56410625.7668532     
  -56703560.6130745     
  -56979301.3955042     
  -57230725.5991304     
  -57451074.4960016     
  -57633763.6093849     
  -57772239.7553409     
  -57859910.4922194     
  -54481286.2070047     
  -54656727.7226928     
  -54891030.2196088     
  -55169881.4813334     
  -55479689.7973375     
  -55807948.9830943     
  -56143410.8708419     
  -56476085.6439398     
  -56797106.0236864     
  -57098497.7665535     
  -57372898.7838038     
  -57613265.6270071     
  -57812601.7925906     
  -57963739.0493938     
  -58059201.5328211     
  -54314709.0833411     
  -54520961.9837750     
  -54790451.6154660     
  -55106805.2382245     
  -55454735.2356928     
  -55820439.1588859     
  -56191756.2466876     
  -56558112.0886154     
  -56910300.0555304     
  -57240153.4217168     
  -57540159.5083283     
  -57803060.9300636     
  -58021482.6259696     
  -58187619.0964165     
  -58293015.1911971     
  -54137257.1788563     
  -54379457.8499049     
  -54689340.8386395     
  -55048126.5118032     
  -55438611.9435427     
  -55845599.2661086     
  -56256017.2287379     
  -56658785.0935271     
  -57044484.5427143     
  -57404907.6426367     
  -57732542.3594520     
  -58020047.0752374     
  -58259756.3181940     
  -58443254.2778160     
  -58561051.9223807     
  -53953331.8671715     
  -54237072.3103561     
  -54592718.4285902     
  -54998703.7745288     
  -55435706.1666812     
  -55887082.6726526     
  -56338923.1845150     
  -56779797.4996142     
  -57200283.6993152     
  -57592362.3419183     
  -57948748.4792095     
  -58262218.3424748     
  -58524974.6869110     
  -58728087.3365267     
  -58861044.8976275     
  -53768251.7683585     
  -54099645.3555473     
  -54506516.9237796     
  -54964110.6847948     
  -55450823.2970338     
  -55948597.9775846     
  -56442856.1396709     
  -56922077.3890833     
  -57377142.6497194     
  -57800542.5250143     
  -58185532.1917744     
  -58525292.5239412     
  -58812139.9695260     
  -59036818.0497835     
  -59187902.6762194     
  -53588324.7120077     
  -53974072.8487321     
  -54437591.6805629     
  -54950545.4493264     
  -55488978.7020023     
  -56033580.9748466     
  -56569413.4729120     
  -57085254.8923911     
  -57572710.9416425     
  -58025205.5804441     
  -58436940.6540075     
  -58801881.6785992     
  -59112805.7306503     
  -59360435.2483381     
  -59532680.2855347     
  -53420876.3791655     
  -53868315.1831543     
  -54393625.2530066     
  -54964588.7095737     
  -55555000.8477826     
  -56144656.7172683     
  -56718753.0552148     
  -57266915.9121328     
  -57782025.7302180     
  -58258966.9725875     
  -58693386.4050338     
  -59080508.1930463     
  -59414028.0542316     
  -59685094.0556072     
  -59881378.9322758     
  -53274199.9710829     
  -53791279.9139179     
  -54382838.8898198     
  -55012708.2883538     
  -55652841.2074627     
  -56282792.2326973     
  -56888634.5061712     
  -57461573.6916546     
  -57996444.5520038     
  -58490211.2318592     
  -58940539.4026356     
  -59344468.0754598     
  -59697180.7571486     
  -59990858.8438425     
  -60213594.5736356     
  -53157370.0927992     
  -53752478.1727443     
  -54413379.0696840     
  -55100365.4362102     
  -55784449.7255482     
  -56446015.3965522     
  -57073056.0676109     
  -57659284.6737136     
  -58202281.1720517     
  -58701767.2509863     
  -59158040.7259068     
  -59570563.8358851     
  -59936673.1854459     
  -60250360.9774814     
  -60501066.4396432     
  -53079833.6602364     
  -53761301.8505925     
  -54492190.5134697     
  -55230530.3943769     
  -55948043.8663211     
  -56627561.7456918     
  -57260387.6363854     
  -57843847.4211107     
  -58379118.2605871     
  -58869352.6286639     
  -59318069.9029948     
  -59727762.6842767     
  -60098646.2907623     
  -60427461.4918316     
  -60706220.9861687     
  -53050651.5626896     
  -53825704.7128555     
  -54623129.5326184     
  -55401380.3473087     
  -56135591.6301724     
  -56813327.1452331     
  -57430933.8635462     
  -57990567.2304615     
  -58497819.6309031     
  -58959842.4535082     
  -59383848.6350144     
  -59775886.8448132     
  -60139775.2242391     
  -60476064.5245906     
  -60780866.6405600     
  -53077223.5406543     
  -53950010.6524094     
  -54804037.4598888     
  -55602960.3834608     
  -56329375.4185875     
  -56978578.5999889     
  -57553950.9737848     
  -58063663.7657863     
  -58518357.3118057     
  -58929504.4806703     
  -59308243.1880010     
  -59664516.3179374     
  -60006376.9889571     
  -60339298.2035404     
  -60665270.1154584     
  -53163304.1118401     
  -54131552.1509123     
  -55022530.9694315     
  -55812687.7728347     
  -56497649.0837002     
  -57084044.6390443     
  -57584314.9391833     
  -58013564.9602809     
  -58387719.3621704     
  -58722475.1578694     
  -59032742.3401880     
  -59332383.6363532     
  -59634109.9367148     
  -59949363.3365771     
  -60287932.1167539     
  -53306149.5372343     
  -54355929.8760422     
  -55250450.4131544     
  -55989838.9677072     
  -56589696.0191752     
  -57071805.3493776     
  -57459318.5161497     
  -57774580.1096699     
  -58038379.8441125     
  -58269932.7260694     
  -58487238.4552234     
  -58707663.6431267     
  -58948653.6562281     
  -59228438.6803669     
  -59566468.1573051     
  -53492794.3225381     
  -54590984.4718805     
  -55437332.9530446     
  -56069640.8711332     
  -56531074.1643278     
  -56861839.6447692     
  -57096455.5555963     
  -57263766.5189946     
  -57388078.4159677     
  -57490640.9141809     
  -57591213.8605296     
  -57709697.7992550     
  -57867860.3854243     
  -58091108.1441951     
  -58410067.2698498     
  -53695835.2684212     
  -54780196.4986591     
  -55504005.3973624     
  -55958294.4745588     
  -56220456.6580637     
  -56350606.9644672     
  -56393470.6183883     
  -56382136.1832653     
  -56341918.2689179     
  -56293742.5976518     
  -56257096.0564824     
  -56252812.7266241     
  -56305947.0066217     
  -56448811.5454529     
  -56724011.3170616     
  -53869767.8561403     
  -54837194.7705784     
  -55338317.2443300     
  -55531021.2269520     
  -55530061.0195048     
  -55413473.3517327     
  -55232257.7094681     
  -55019555.7287755     
  -54797927.3518718     
  -54584776.8504765     
  -54396613.9696721     
  -54252940.1314762     
  -54180307.3113362     
  -54216777.2752816     
  -54416638.0636624     
  -53949772.8815353     
  -54643986.4772526     
  -54795666.3277219     
  -54635557.2901761     
  -54311834.8317308     
  -53912841.5990516     
  -53488136.3712980     
  -53064550.5972427     
  -52657041.2387560     
  -52275700.3092328     
  -51930830.7022489     
  -51637623.3779061     
  -51421419.4173312     
  -51323731.8229859     
  -51408867.9285806     
  -53855135.2736704     
  -54055291.8986860     
  -53706064.1867691     
  -53102697.8357117     
  -52410864.9512769     
  -51713208.5617219     
  -51045322.9571028     
  -50419461.8249698     
  -49837698.2615276     
  -49298994.7459083     
  -48803924.8563084     
  -48359613.5401916     
  -47986047.8067164     
  -47724444.3231893     
  -47645953.2280226     
  -53497943.9679413     
  -52906525.0761039     
  -51885618.5474382     
  -50762809.6555826     
  -49686068.1640356     
  -48702931.2359720     
  -47817796.0816384     
  -47019840.2043039     
  -46293760.7309291     
  -45624434.2753594     
  -44999629.7590336     
  -44413301.4012402     
  -43873812.6919333     
  -43414930.7870195     
  -43110695.3801481     
  -52784453.3966664     
  -51010582.0099638     
  -49140046.5489000     
  -47466469.1569036     
  -46037284.6292957     
  -44819973.4017979     
  -43772376.1162203     
  -42854764.3910411     
  -42032437.0234610     
  -41275206.4834542     
  -40556371.7202160     
  -39852618.5530285     
  -39146240.8789351     
  -38452330.2497503     
  -37836824.5230260     
  -51571504.4501512     
  -48067485.4395552     
  -45259109.7382212     
  -43117050.6942091     
  -41434475.8264421     
  -40076276.1028165     
  -38948344.6820532     
  -37982704.8821110     
  -37127128.7189578     
  -36338233.4853947     
  -35576068.7372736     
  -34798717.8706051     
  -33956858.6192260     
  -32980072.6516224     
  -31930042.2046475     
  -49036468.8408881     
  -43507396.6288957     
  -40092216.2320857     
  -37709192.1743794     
  -35943149.5735369     
  -34573125.0637238     
  -33466867.5562833     
  -32536925.1581142     
  -31719779.7360030     
  -30963776.1087103     
  -30220240.2267186     
  -29434113.9966400     
  -28528351.2985006     
  -27370501.7300512     
  -25581571.3395712     
SCALARS 2waySource double 
LOOKUP_TABLE default
 -1.159290567363353E-002
 -1.137486829307817E-002
 -1.105569974617679E-002
 -1.064971213121342E-002
 -1.017267682412003E-002
 -9.641675869460384E-003
 -9.074775505080129E-003
 -8.490601484555391E-003
 -7.907889087930177E-003
 -7.345049567855508E-003
 -6.819761533906614E-003
 -6.348582188490921E-003
 -5.946589737885090E-003
 -5.627106008492597E-003
 -5.401576128709843E-003
 -1.161091315808288E-002
 -1.138588604559623E-002
 -1.105991907692773E-002
 -1.064706904489114E-002
 -1.016294580389397E-002
 -9.624555511925190E-003
 -9.049956606155665E-003
 -8.457812743221155E-003
 -7.866925329666957E-003
 -7.295795115914965E-003
 -6.762224441805406E-003
 -6.282953079274377E-003
 -5.873332347467712E-003
 -5.547076162244525E-003
 -5.316154131448653E-003
 -1.164775247543072E-002
 -1.140884991475795E-002
 -1.106961453114710E-002
 -1.064366150072787E-002
 -1.014629852699968E-002
 -9.594365849400214E-003
 -9.005864062595594E-003
 -8.399468459316545E-003
 -7.794031914693930E-003
 -7.208140301618234E-003
 -6.659737881384882E-003
 -6.165812370426751E-003
 -5.742132752376228E-003
 -5.403060214836653E-003
 -5.161476413966574E-003
 -1.170027296261048E-002
 -1.144054770245778E-002
 -1.108167028483764E-002
 -1.063666126979712E-002
 -1.012039013138121E-002
 -9.549429328328828E-003
 -8.941649267245411E-003
 -8.315680773302943E-003
 -7.690377131537605E-003
 -7.084361321030486E-003
 -6.515684803389246E-003
 -6.001583605626295E-003
 -5.558309183881272E-003
 -5.201029658592074E-003
 -4.943817211578689E-003
 -1.176386526190587E-002
 -1.147622431524221E-002
 -1.109146001549129E-002
 -1.062187635642464E-002
 -1.008177112848975E-002
 -9.487326324032225E-003
 -8.856172732282449E-003
 -8.206792631721586E-003
 -7.557932122114384E-003
 -6.928137320811640E-003
 -6.335453234721899E-003
 -5.797267404601833E-003
 -5.330257867715089E-003
 -4.950411860362137E-003
 -4.673097497489636E-003
 -1.183253425261127E-002
 -1.150961033956425E-002
 -1.109285817628707E-002
 -1.059377721746384E-002
 -1.002595505532966E-002
 -9.405022479299696E-003
 -8.748201773965960E-003
 -8.073651025516958E-003
 -7.399822052883283E-003
 -6.744981316145741E-003
 -6.126949445236093E-003
 -5.563039879343649E-003
 -5.070138325696217E-003
 -4.664858987749115E-003
 -4.363724510190644E-003
 -1.189901028893396E-002
 -1.153298521348849E-002
 -1.107829129688543E-002
 -1.054558086651367E-002
 -9.947570121544215E-003
 -9.299108267215918E-003
 -8.616745921551570E-003
 -7.918038232853182E-003
 -7.220850122427928E-003
 -6.542854768739935E-003
 -5.901303955984127E-003
 -5.313053989016898E-003
 -4.794774744093384E-003
 -4.363250360095522E-003
 -4.035686281989638E-003
 -1.195489453382921E-002
 -1.153726633540564E-002
 -1.103883776588953E-002
 -1.046942169395516E-002
 -9.840639903610535E-003
 -9.166204887290454E-003
 -8.461585271381463E-003
 -7.743310044296263E-003
 -7.028231225554400E-003
 -6.332986487314660E-003
 -5.673773061817485E-003
 -5.066429026124666E-003
 -4.526744102682682E-003
 -4.070889818709418E-003
 -3.715860903559512E-003
 -1.199085253177530E-002
 -1.151214078055315E-002
 -1.096441444147433E-002
 -1.035667301056463E-002
 -9.699076485679751E-003
 -9.003628390265341E-003
 -8.284080537703893E-003
 -7.555316398727489E-003
 -6.832589667015083E-003
 -6.130924278771537E-003
 -5.464836224833476E-003
 -4.848401275978627E-003
 -4.295600554224732E-003
 -3.820830995562303E-003
 -3.439466943422530E-003
 -1.199688971180583E-002
 -1.144629400179745E-002
 -1.084413904758617E-002
 -1.019854109452899E-002
 -9.517528020223976E-003
 -8.810457445619875E-003
 -8.088397664066577E-003
 -7.363711979687127E-003
 -6.649294299598409E-003
 -5.957853353598196E-003
 -5.301482014404093E-003
 -4.691588328065226E-003
 -4.139152869747602E-003
 -3.655220338499837E-003
 -3.251531827366276E-003
 -1.196276630559610E-002
 -1.132784075683340E-002
 -1.066702874050265E-002
 -9.987132719595591E-003
 -9.292797646265186E-003
 -8.589212430074818E-003
 -7.883324963093626E-003
 -7.183791000049450E-003
 -6.500213329824896E-003
 -5.842207809982909E-003
 -5.218652136123807E-003
 -4.637281610560640E-003
 -4.104659709319075E-003
 -3.626483032176377E-003
 -3.208181307385705E-003
 -1.187864656564652E-002
 -1.114513943796316E-002
 -1.042329428176090E-002
 -9.717297395104945E-003
 -9.026134637945204E-003
 -8.348411569493137E-003
 -7.684890595628109E-003
 -7.038984380111332E-003
 -6.415953392605846E-003
 -5.821566273624795E-003
 -5.260762826107080E-003
 -4.736617353076911E-003
 -4.249728863700088E-003
 -3.798084209848627E-003
 -3.377448610655823E-003
 -1.173613636015487E-002
 -1.088828427361865E-002
 -1.010661976403375E-002
 -9.389658053119310E-003
 -8.726771431301805E-003
 -8.106296200864782E-003
 -7.519972375080963E-003
 -6.964109283734581E-003
 -6.438577327123989E-003
 -5.944738851320389E-003
 -5.483129705538569E-003
 -5.051374490064223E-003
 -4.642594409379572E-003
 -4.244472245634792E-003
 -3.839161773320632E-003
 -1.152994699246852E-002
 -1.055172310673285E-002
 -9.717966630729442E-003
 -9.015336285586342E-003
 -8.417094845241776E-003
 -7.895958009845600E-003
 -7.430976863772865E-003
 -7.009312392261231E-003
 -6.624632502657435E-003
 -6.273789391144109E-003
 -5.952964728030660E-003
 -5.653995963536150E-003
 -5.361293697437540E-003
 -5.049650778979524E-003
 -4.683291852716129E-003
 -1.126052269386856E-002
 -1.013862068736580E-002
 -9.271557503437996E-003
 -8.622873405122720E-003
 -8.139704868607187E-003
 -7.771863736966264E-003
 -7.481366589810520E-003
 -7.244329334822044E-003
 -7.048012044073362E-003
 -6.885455253748520E-003
 -6.749366616297808E-003
 -6.626214350038396E-003
 -6.491071669760216E-003
 -6.303636727150482E-003
 -6.005942133564217E-003
 -1.093805089311830E-002
 -9.667708563129155E-003
 -8.803661662387960E-003
 -8.267597677351947E-003
 -7.966176023371170E-003
 -7.817218544198380E-003
 -7.761219353720561E-003
 -7.762106979707363E-003
 -7.801653265336640E-003
 -7.870985748853709E-003
 -7.961366367770267E-003
 -8.055376693130979E-003
 -8.119110357281991E-003
 -8.095861925909147E-003
 -7.901955110813942E-003
 -1.058825487371785E-002
 -9.183269965770688E-003
 -8.384390506456757E-003
 -8.042943353660452E-003
 -8.006372202751378E-003
 -8.150564059874386E-003
 -8.390990016731339E-003
 -8.679924860181392E-003
 -8.996305819819413E-003
 -9.332798149968334E-003
 -9.682612838739550E-003
 -1.002721864685859E-002
 -1.032544451819429E-002
 -1.050440994867433E-002
 -1.045296524161135E-002
 -1.026007906114927E-002
 -8.768285473237967E-003
 -8.131535266387267E-003
 -8.091638815971044E-003
 -8.415418540924990E-003
 -8.928318021415074E-003
 -9.520145959522205E-003
 -1.013489737591611E-002
 -1.075359877320613E-002
 -1.137558403580204E-002
 -1.200073530299600E-002
 -1.261348821349452E-002
 -1.316874713796861E-002
 -1.357993191540068E-002
 -1.370973317888466E-002
 -1.003452357986928E-002
 -8.559086008435012E-003
 -8.223007090264975E-003
 -8.611874373739600E-003
 -9.392737911813520E-003
 -1.033764097912828E-002
 -1.131548600905192E-002
 -1.226931318345158E-002
 -1.318958204785442E-002
 -1.408875523734865E-002
 -1.497894736024804E-002
 -1.585259867090959E-002
 -1.666568524401968E-002
 -1.732330430862382E-002
 -1.766793214263224E-002
 -1.003203581121048E-002
 -8.756405505580182E-003
 -8.900142424062453E-003
 -9.849401749972269E-003
 -1.116414579344871E-002
 -1.257151939477284E-002
 -1.393227454119750E-002
 -1.520020895344024E-002
 -1.638429064425042E-002
 -1.751679902793413E-002
 -1.862738889225179E-002
 -1.972167258558572E-002
 -2.076299994603225E-002
 -2.165681783474543E-002
 -2.223748066243755E-002
 -1.041256465306893E-002
 -9.621865514367016E-003
 -1.044801404850130E-002
 -1.206173471831816E-002
 -1.393505384153092E-002
 -1.577662145682466E-002
 -1.746110442932079E-002
 -1.896799949741622E-002
 -2.033361583221543E-002
 -2.161498160259145E-002
 -2.286265634637927E-002
 -2.409941746689002E-002
 -2.530275727802991E-002
 -2.639027354926657E-002
 -2.720738584562973E-002
 -1.135758484014531E-002
 -1.144104458028905E-002
 -1.313268978966758E-002
 -1.543790264802697E-002
 -1.780327458649720E-002
 -1.996698044285115E-002
 -2.184689191165057E-002
 -2.346273099157616E-002
 -2.488336350341173E-002
 -2.619112526928234E-002
 -2.745694584826026E-002
 -2.872203954034867E-002
 -2.998395039315449E-002
 -3.118626902321318E-002
 -3.221127852408438E-002
 -1.301870569590647E-002
 -1.442800503101219E-002
 -1.707472234470100E-002
 -1.996248659684258E-002
 -2.262884358249248E-002
 -2.490683709524401E-002
 -2.678657506194828E-002
 -2.833588450700792E-002
 -2.965370512210831E-002
 -3.084146928285306E-002
 -3.198456213435284E-002
 -3.313991409077557E-002
 -3.432855412612850E-002
 -3.553361852294228E-002
 -3.670362496748696E-002
 -1.541875432471649E-002
 -1.855202531041317E-002
 -2.205436014575207E-002
 -2.523486104024616E-002
 -2.788152504181559E-002
 -2.998755479944574E-002
 -3.163108662279465E-002
 -3.292212738536988E-002
 -3.397652185530231E-002
 -3.490106657777239E-002
 -3.578429452402664E-002
 -3.669184577597177E-002
 -3.766771128694454E-002
 -3.874424638277849E-002
 -3.996254200890562E-002
 -1.831153419831708E-002
 -2.330410238303342E-002
 -2.729058593328687E-002
 -3.029952849132585E-002
 -3.252504819350249E-002
 -3.415474143752054E-002
 -3.534259348399379E-002
 -3.621661832383469E-002
 -3.688642411517865E-002
 -3.744523044259082E-002
 -3.797019507860359E-002
 -3.852549436455065E-002
 -3.917290210789743E-002
 -3.999547974433653E-002
 -4.114012184524536E-002
 -2.105937259417699E-002
 -2.750202803496398E-002
 -3.130969537036811E-002
 -3.359893974997667E-002
 -3.503570660486563E-002
 -3.596867689601016E-002
 -3.657735883793535E-002
 -3.696851389411458E-002
 -3.721897014785044E-002
 -3.738996107218961E-002
 -3.753340056449282E-002
 -3.770103458708812E-002
 -3.796253469278878E-002
 -3.844188823664495E-002
 -3.938028281721220E-002
 -2.266123349855168E-002
 -2.931610920171005E-002
 -3.206906574270439E-002
 -3.317838126186191E-002
 -3.365683088548085E-002
 -3.387436404805374E-002
 -3.395267958621261E-002
 -3.393862376255605E-002
 -3.385735101360238E-002
 -3.372769885322545E-002
 -3.356796970164680E-002
 -3.340598374366896E-002
 -3.330633910751808E-002
 -3.340967415516592E-002
 -3.401076704313404E-002
 -2.203464380636494E-002
 -2.665393068099876E-002
 -2.740266083541038E-002
 -2.720713634629784E-002
 -2.692033879301329E-002
 -2.668199396176703E-002
 -2.648755420057286E-002
 -2.630598426700983E-002
 -2.611028002855798E-002
 -2.588026212898542E-002
 -2.560135361747443E-002
 -2.526946035179004E-002
 -2.491120227033803E-002
 -2.466053810618343E-002
 -2.478372867374809E-002
 -1.844315183356976E-002
 -1.744685714765591E-002
 -1.570121856166454E-002
 -1.475118400741593E-002
 -1.429388766177338E-002
 -1.411997271747130E-002
 -1.408517983431452E-002
 -1.409870836827038E-002
 -1.410251048106064E-002
 -1.405530057441525E-002
 -1.392124007216989E-002
 -1.366347077731127E-002
 -1.324521181370036E-002
 -1.264323743727600E-002
 -1.212656051257985E-002
 -8.694929598770516E-003
  4.494546516787263E-004
  3.033634311332623E-003
  3.585993024569960E-003
  3.347055634706781E-003
  2.807283700713275E-003
  2.181394876545619E-003
  1.570743677989112E-003
  1.027995205535090E-003
  5.883443395295240E-004
  2.886302681579962E-004
  1.848796313534417E-004
  3.781999979335607E-004
  1.073467883523356E-003
  2.718996333483444E-003
SCALARS elementIsPlast double 
LOOKUP_TABLE default
  0.000000000000000E+000
  0.000000000000000E+000
  0.000000000000000E+000
  0.000000000000000E+000
  0.000000000000000E+000
  0.000000000000000E+000
  0.000000000000000E+000
  0.000000000000000E+000
  0.000000000000000E+000
  0.000000000000000E+000
  0.000000000000000E+000
  0.000000000000000E+000
  0.000000000000000E+000
  0.000000000000000E+000
  0.000000000000000E+000
  0.000000000000000E+000
  0.000000000000000E+000
  0.000000000000000E+000
  0.000000000000000E+000
  0.000000000000000E+000
  0.000000000000000E+000
  0.000000000000000E+000
  0.000000000000000E+000
  0.000000000000000E+000
  0.000000000000000E+000
  0.000000000000000E+000
  0.000000000000000E+000
  0.000000000000000E+000
  0.000000000000000E+000
  0.000000000000000E+000
  0.000000000000000E+000
  0.000000000000000E+000
  0.000000000000000E+000
  0.000000000000000E+000
  0.000000000000000E+000
  0.000000000000000E+000
  0.000000000000000E+000
  0.000000000000000E+000
  0.000000000000000E+000
  0.000000000000000E+000
  0.000000000000000E+000
  0.000000000000000E+000
  0.000000000000000E+000
  0.000000000000000E+000
  0.000000000000000E+000
  0.000000000000000E+000
  0.000000000000000E+000
  0.000000000000000E+000
  0.000000000000000E+000
  0.000000000000000E+000
  0.000000000000000E+000
  0.000000000000000E+000
  0.000000000000000E+000
  0.000000000000000E+000
  0.000000000000000E+000
  0.000000000000000E+000
  0.000000000000000E+000
  0.000000000000000E+000
  0.000000000000000E+000
  0.000000000000000E+000
  0.000000000000000E+000
  0.000000000000000E+000
  0.000000000000000E+000
  0.000000000000000E+000
  0.000000000000000E+000
  0.000000000000000E+000
  0.000000000000000E+000
  0.000000000000000E+000
  0.000000000000000E+000
  0.000000000000000E+000
  0.000000000000000E+000
  0.000000000000000E+000
  0.000000000000000E+000
  0.000000000000000E+000
  0.000000000000000E+000
  0.000000000000000E+000
  0.000000000000000E+000
  0.000000000000000E+000
  0.000000000000000E+000
  0.000000000000000E+000
  0.000000000000000E+000
  0.000000000000000E+000
  0.000000000000000E+000
  0.000000000000000E+000
  0.000000000000000E+000
  0.000000000000000E+000
  0.000000000000000E+000
  0.000000000000000E+000
  0.000000000000000E+000
  0.000000000000000E+000
  0.000000000000000E+000
  0.000000000000000E+000
  0.000000000000000E+000
  0.000000000000000E+000
  0.000000000000000E+000
  0.000000000000000E+000
  0.000000000000000E+000
  0.000000000000000E+000
  0.000000000000000E+000
  0.000000000000000E+000
  0.000000000000000E+000
  0.000000000000000E+000
  0.000000000000000E+000
  0.000000000000000E+000
  0.000000000000000E+000
  0.000000000000000E+000
  0.000000000000000E+000
  0.000000000000000E+000
  0.000000000000000E+000
  0.000000000000000E+000
  0.000000000000000E+000
  0.000000000000000E+000
  0.000000000000000E+000
  0.000000000000000E+000
  0.000000000000000E+000
  0.000000000000000E+000
  0.000000000000000E+000
  0.000000000000000E+000
  0.000000000000000E+000
  0.000000000000000E+000
  0.000000000000000E+000
  0.000000000000000E+000
  0.000000000000000E+000
  0.000000000000000E+000
  0.000000000000000E+000
  0.000000000000000E+000
  0.000000000000000E+000
  0.000000000000000E+000
  0.000000000000000E+000
  0.000000000000000E+000
  0.000000000000000E+000
  0.000000000000000E+000
  0.000000000000000E+000
  0.000000000000000E+000
  0.000000000000000E+000
  0.000000000000000E+000
  0.000000000000000E+000
  0.000000000000000E+000
  0.000000000000000E+000
  0.000000000000000E+000
  0.000000000000000E+000
  0.000000000000000E+000
  0.000000000000000E+000
  0.000000000000000E+000
  0.000000000000000E+000
  0.000000000000000E+000
  0.000000000000000E+000
  0.000000000000000E+000
  0.000000000000000E+000
  0.000000000000000E+000
  0.000000000000000E+000
  0.000000000000000E+000
  0.000000000000000E+000
  0.000000000000000E+000
  0.000000000000000E+000
  0.000000000000000E+000
  0.000000000000000E+000
  0.000000000000000E+000
  0.000000000000000E+000
  0.000000000000000E+000
  0.000000000000000E+000
  0.000000000000000E+000
  0.000000000000000E+000
  0.000000000000000E+000
  0.000000000000000E+000
  0.000000000000000E+000
  0.000000000000000E+000
  0.000000000000000E+000
  0.000000000000000E+000
  0.000000000000000E+000
  0.000000000000000E+000
  0.000000000000000E+000
  0.000000000000000E+000
  0.000000000000000E+000
  0.000000000000000E+000
  0.000000000000000E+000
  0.000000000000000E+000
  0.000000000000000E+000
  0.000000000000000E+000
  0.000000000000000E+000
  0.000000000000000E+000
  0.000000000000000E+000
  0.000000000000000E+000
  0.000000000000000E+000
  0.000000000000000E+000
  0.000000000000000E+000
  0.000000000000000E+000
  0.000000000000000E+000
  0.000000000000000E+000
  0.000000000000000E+000
  0.000000000000000E+000
  0.000000000000000E+000
  0.000000000000000E+000
  0.000000000000000E+000
  0.000000000000000E+000
  0.000000000000000E+000
  0.000000000000000E+000
  0.000000000000000E+000
  0.000000000000000E+000
  0.000000000000000E+000
  0.000000000000000E+000
  0.000000000000000E+000
  0.000000000000000E+000
  0.000000000000000E+000
  0.000000000000000E+000
  0.000000000000000E+000
  0.000000000000000E+000
  0.000000000000000E+000
  0.000000000000000E+000
  0.000000000000000E+000
  0.000000000000000E+000
  0.000000000000000E+000
  0.000000000000000E+000
  0.000000000000000E+000
  0.000000000000000E+000
  0.000000000000000E+000
  0.000000000000000E+000
  0.000000000000000E+000
  0.000000000000000E+000
  0.000000000000000E+000
  0.000000000000000E+000
  0.000000000000000E+000
  0.000000000000000E+000
  0.000000000000000E+000
  0.000000000000000E+000
  0.000000000000000E+000
  0.000000000000000E+000
  0.000000000000000E+000
  0.000000000000000E+000
  0.000000000000000E+000
  0.000000000000000E+000
  0.000000000000000E+000
  0.000000000000000E+000
  0.000000000000000E+000
  0.000000000000000E+000
  0.000000000000000E+000
  0.000000000000000E+000
  0.000000000000000E+000
  0.000000000000000E+000
  0.000000000000000E+000
  0.000000000000000E+000
  0.000000000000000E+000
  0.000000000000000E+000
  0.000000000000000E+000
  0.000000000000000E+000
  0.000000000000000E+000
  0.000000000000000E+000
  0.000000000000000E+000
  0.000000000000000E+000
  0.000000000000000E+000
  0.000000000000000E+000
  0.000000000000000E+000
  0.000000000000000E+000
  0.000000000000000E+000
  0.000000000000000E+000
  0.000000000000000E+000
  0.000000000000000E+000
  0.000000000000000E+000
  0.000000000000000E+000
  0.000000000000000E+000
  0.000000000000000E+000
  0.000000000000000E+000
  0.000000000000000E+000
  0.000000000000000E+000
  0.000000000000000E+000
  0.000000000000000E+000
  0.000000000000000E+000
  0.000000000000000E+000
  0.000000000000000E+000
  0.000000000000000E+000
  0.000000000000000E+000
  0.000000000000000E+000
  0.000000000000000E+000
  0.000000000000000E+000
  0.000000000000000E+000
  0.000000000000000E+000
  0.000000000000000E+000
  0.000000000000000E+000
  0.000000000000000E+000
  0.000000000000000E+000
  0.000000000000000E+000
  0.000000000000000E+000
  0.000000000000000E+000
  0.000000000000000E+000
  0.000000000000000E+000
  0.000000000000000E+000
  0.000000000000000E+000
  0.000000000000000E+000
  0.000000000000000E+000
  0.000000000000000E+000
  0.000000000000000E+000
  0.000000000000000E+000
  0.000000000000000E+000
  0.000000000000000E+000
  0.000000000000000E+000
  0.000000000000000E+000
  0.000000000000000E+000
  0.000000000000000E+000
  0.000000000000000E+000
  0.000000000000000E+000
  0.000000000000000E+000
  0.000000000000000E+000
  0.000000000000000E+000
  0.000000000000000E+000
  0.000000000000000E+000
  0.000000000000000E+000
  0.000000000000000E+000
  0.000000000000000E+000
  0.000000000000000E+000
  0.000000000000000E+000
  0.000000000000000E+000
  0.000000000000000E+000
  0.000000000000000E+000
  0.000000000000000E+000
  0.000000000000000E+000
  0.000000000000000E+000
  0.000000000000000E+000
  0.000000000000000E+000
  0.000000000000000E+000
  0.000000000000000E+000
  0.000000000000000E+000
  0.000000000000000E+000
  0.000000000000000E+000
  0.000000000000000E+000
  0.000000000000000E+000
  0.000000000000000E+000
  0.000000000000000E+000
  0.000000000000000E+000
  0.000000000000000E+000
  0.000000000000000E+000
  0.000000000000000E+000
  0.000000000000000E+000
  0.000000000000000E+000
  0.000000000000000E+000
  0.000000000000000E+000
  0.000000000000000E+000
  0.000000000000000E+000
  0.000000000000000E+000
  0.000000000000000E+000
  0.000000000000000E+000
  0.000000000000000E+000
  0.000000000000000E+000
  0.000000000000000E+000
  0.000000000000000E+000
  0.000000000000000E+000
  0.000000000000000E+000
  0.000000000000000E+000
  0.000000000000000E+000
  0.000000000000000E+000
  0.000000000000000E+000
  0.000000000000000E+000
  0.000000000000000E+000
  0.000000000000000E+000
  0.000000000000000E+000
  0.000000000000000E+000
  0.000000000000000E+000
  0.000000000000000E+000
  0.000000000000000E+000
  0.000000000000000E+000
  0.000000000000000E+000
  0.000000000000000E+000
  0.000000000000000E+000
  0.000000000000000E+000
  0.000000000000000E+000
  0.000000000000000E+000
  0.000000000000000E+000
  0.000000000000000E+000
  0.000000000000000E+000
  0.000000000000000E+000
  0.000000000000000E+000
  0.000000000000000E+000
  0.000000000000000E+000
  0.000000000000000E+000
  0.000000000000000E+000
  0.000000000000000E+000
  0.000000000000000E+000
  0.000000000000000E+000
  0.000000000000000E+000
  0.000000000000000E+000
  0.000000000000000E+000
  0.000000000000000E+000
  0.000000000000000E+000
  0.000000000000000E+000
  0.000000000000000E+000
  0.000000000000000E+000
  0.000000000000000E+000
  0.000000000000000E+000
  0.000000000000000E+000
  0.000000000000000E+000
  0.000000000000000E+000
  0.000000000000000E+000
  0.000000000000000E+000
  0.000000000000000E+000
  0.000000000000000E+000
  0.000000000000000E+000
  0.000000000000000E+000
  0.000000000000000E+000
  0.000000000000000E+000
  0.000000000000000E+000
  0.000000000000000E+000
  0.000000000000000E+000
  0.000000000000000E+000
  0.000000000000000E+000
  0.000000000000000E+000
  0.000000000000000E+000
  0.000000000000000E+000
  0.000000000000000E+000
  0.000000000000000E+000
  0.000000000000000E+000
  0.000000000000000E+000
  0.000000000000000E+000
  0.000000000000000E+000
  0.000000000000000E+000
  0.000000000000000E+000
  0.000000000000000E+000
  0.000000000000000E+000
  0.000000000000000E+000
  0.000000000000000E+000
  0.000000000000000E+000
  0.000000000000000E+000
  0.000000000000000E+000
  0.000000000000000E+000
  0.000000000000000E+000
  0.000000000000000E+000
  0.000000000000000E+000
  0.000000000000000E+000
  0.000000000000000E+000
  0.000000000000000E+000
  0.000000000000000E+000
  0.000000000000000E+000
  0.000000000000000E+000
  0.000000000000000E+000
  0.000000000000000E+000
  0.000000000000000E+000
  0.000000000000000E+000
  0.000000000000000E+000
  0.000000000000000E+000
  0.000000000000000E+000
  0.000000000000000E+000
  0.000000000000000E+000
  0.000000000000000E+000
  0.000000000000000E+000
  0.000000000000000E+000
  0.000000000000000E+000
  0.000000000000000E+000
  0.000000000000000E+000
  0.000000000000000E+000
  0.000000000000000E+000
  0.000000000000000E+000
  0.000000000000000E+000
