# vtk DataFile Version 3.0
vtk output
ASCII
DATASET UNSTRUCTURED_GRID
POINTS       496 double 
  0.00000000E+00  3.00000000E+02  0.00000000E+00
  0.00000000E+00  2.80000000E+02  0.00000000E+00
  0.00000000E+00  2.60000000E+02  0.00000000E+00
  0.00000000E+00  2.40000000E+02  0.00000000E+00
  0.00000000E+00  2.20000000E+02  0.00000000E+00
  0.00000000E+00  2.00000000E+02  0.00000000E+00
  0.00000000E+00  1.80000000E+02  0.00000000E+00
  0.00000000E+00  1.60000000E+02  0.00000000E+00
  0.00000000E+00  1.40000000E+02  0.00000000E+00
  0.00000000E+00  1.20000000E+02  0.00000000E+00
  0.00000000E+00  1.00000000E+02  0.00000000E+00
  0.00000000E+00  8.00000000E+01  0.00000000E+00
  0.00000000E+00  6.00000000E+01  0.00000000E+00
  0.00000000E+00  4.00000000E+01  0.00000000E+00
  0.00000000E+00  2.00000000E+01  0.00000000E+00
  0.00000000E+00  4.99600361E-14  0.00000000E+00
  2.00000000E+01  3.00000000E+02  0.00000000E+00
  2.00000000E+01  2.80000000E+02  0.00000000E+00
  2.00000000E+01  2.60000000E+02  0.00000000E+00
  2.00000000E+01  2.40000000E+02  0.00000000E+00
  2.00000000E+01  2.20000000E+02  0.00000000E+00
  2.00000000E+01  2.00000000E+02  0.00000000E+00
  2.00000000E+01  1.80000000E+02  0.00000000E+00
  2.00000000E+01  1.60000000E+02  0.00000000E+00
  2.00000000E+01  1.40000000E+02  0.00000000E+00
  2.00000000E+01  1.20000000E+02  0.00000000E+00
  2.00000000E+01  1.00000000E+02  0.00000000E+00
  2.00000000E+01  8.00000000E+01  0.00000000E+00
  2.00000000E+01  6.00000000E+01  0.00000000E+00
  2.00000000E+01  4.00000000E+01  0.00000000E+00
  2.00000000E+01  2.00000000E+01  0.00000000E+00
  2.00000000E+01  4.99600361E-14  0.00000000E+00
  4.00000000E+01  3.00000000E+02  0.00000000E+00
  4.00000000E+01  2.80000000E+02  0.00000000E+00
  4.00000000E+01  2.60000000E+02  0.00000000E+00
  4.00000000E+01  2.40000000E+02  0.00000000E+00
  4.00000000E+01  2.20000000E+02  0.00000000E+00
  4.00000000E+01  2.00000000E+02  0.00000000E+00
  4.00000000E+01  1.80000000E+02  0.00000000E+00
  4.00000000E+01  1.60000000E+02  0.00000000E+00
  4.00000000E+01  1.40000000E+02  0.00000000E+00
  4.00000000E+01  1.20000000E+02  0.00000000E+00
  4.00000000E+01  1.00000000E+02  0.00000000E+00
  4.00000000E+01  8.00000000E+01  0.00000000E+00
  4.00000000E+01  6.00000000E+01  0.00000000E+00
  4.00000000E+01  4.00000000E+01  0.00000000E+00
  4.00000000E+01  2.00000000E+01  0.00000000E+00
  4.00000000E+01  4.99600361E-14  0.00000000E+00
  6.00000000E+01  3.00000000E+02  0.00000000E+00
  6.00000000E+01  2.80000000E+02  0.00000000E+00
  6.00000000E+01  2.60000000E+02  0.00000000E+00
  6.00000000E+01  2.40000000E+02  0.00000000E+00
  6.00000000E+01  2.20000000E+02  0.00000000E+00
  6.00000000E+01  2.00000000E+02  0.00000000E+00
  6.00000000E+01  1.80000000E+02  0.00000000E+00
  6.00000000E+01  1.60000000E+02  0.00000000E+00
  6.00000000E+01  1.40000000E+02  0.00000000E+00
  6.00000000E+01  1.20000000E+02  0.00000000E+00
  6.00000000E+01  1.00000000E+02  0.00000000E+00
  6.00000000E+01  8.00000000E+01  0.00000000E+00
  6.00000000E+01  6.00000000E+01  0.00000000E+00
  6.00000000E+01  4.00000000E+01  0.00000000E+00
  6.00000000E+01  2.00000000E+01  0.00000000E+00
  6.00000000E+01  4.99600361E-14  0.00000000E+00
  8.00000000E+01  3.00000000E+02  0.00000000E+00
  8.00000000E+01  2.80000000E+02  0.00000000E+00
  8.00000000E+01  2.60000000E+02  0.00000000E+00
  8.00000000E+01  2.40000000E+02  0.00000000E+00
  8.00000000E+01  2.20000000E+02  0.00000000E+00
  8.00000000E+01  2.00000000E+02  0.00000000E+00
  8.00000000E+01  1.80000000E+02  0.00000000E+00
  8.00000000E+01  1.60000000E+02  0.00000000E+00
  8.00000000E+01  1.40000000E+02  0.00000000E+00
  8.00000000E+01  1.20000000E+02  0.00000000E+00
  8.00000000E+01  1.00000000E+02  0.00000000E+00
  8.00000000E+01  8.00000000E+01  0.00000000E+00
  8.00000000E+01  6.00000000E+01  0.00000000E+00
  8.00000000E+01  4.00000000E+01  0.00000000E+00
  8.00000000E+01  2.00000000E+01  0.00000000E+00
  8.00000000E+01  4.99600361E-14  0.00000000E+00
  1.00000000E+02  3.00000000E+02  0.00000000E+00
  1.00000000E+02  2.80000000E+02  0.00000000E+00
  1.00000000E+02  2.60000000E+02  0.00000000E+00
  1.00000000E+02  2.40000000E+02  0.00000000E+00
  1.00000000E+02  2.20000000E+02  0.00000000E+00
  1.00000000E+02  2.00000000E+02  0.00000000E+00
  1.00000000E+02  1.80000000E+02  0.00000000E+00
  1.00000000E+02  1.60000000E+02  0.00000000E+00
  1.00000000E+02  1.40000000E+02  0.00000000E+00
  1.00000000E+02  1.20000000E+02  0.00000000E+00
  1.00000000E+02  1.00000000E+02  0.00000000E+00
  1.00000000E+02  8.00000000E+01  0.00000000E+00
  1.00000000E+02  6.00000000E+01  0.00000000E+00
  1.00000000E+02  4.00000000E+01  0.00000000E+00
  1.00000000E+02  2.00000000E+01  0.00000000E+00
  1.00000000E+02  4.99600361E-14  0.00000000E+00
  1.20000000E+02  3.00000000E+02  0.00000000E+00
  1.20000000E+02  2.80000000E+02  0.00000000E+00
  1.20000000E+02  2.60000000E+02  0.00000000E+00
  1.20000000E+02  2.40000000E+02  0.00000000E+00
  1.20000000E+02  2.20000000E+02  0.00000000E+00
  1.20000000E+02  2.00000000E+02  0.00000000E+00
  1.20000000E+02  1.80000000E+02  0.00000000E+00
  1.20000000E+02  1.60000000E+02  0.00000000E+00
  1.20000000E+02  1.40000000E+02  0.00000000E+00
  1.20000000E+02  1.20000000E+02  0.00000000E+00
  1.20000000E+02  1.00000000E+02  0.00000000E+00
  1.20000000E+02  8.00000000E+01  0.00000000E+00
  1.20000000E+02  6.00000000E+01  0.00000000E+00
  1.20000000E+02  4.00000000E+01  0.00000000E+00
  1.20000000E+02  2.00000000E+01  0.00000000E+00
  1.20000000E+02  4.99600361E-14  0.00000000E+00
  1.40000000E+02  3.00000000E+02  0.00000000E+00
  1.40000000E+02  2.80000000E+02  0.00000000E+00
  1.40000000E+02  2.60000000E+02  0.00000000E+00
  1.40000000E+02  2.40000000E+02  0.00000000E+00
  1.40000000E+02  2.20000000E+02  0.00000000E+00
  1.40000000E+02  2.00000000E+02  0.00000000E+00
  1.40000000E+02  1.80000000E+02  0.00000000E+00
  1.40000000E+02  1.60000000E+02  0.00000000E+00
  1.40000000E+02  1.40000000E+02  0.00000000E+00
  1.40000000E+02  1.20000000E+02  0.00000000E+00
  1.40000000E+02  1.00000000E+02  0.00000000E+00
  1.40000000E+02  8.00000000E+01  0.00000000E+00
  1.40000000E+02  6.00000000E+01  0.00000000E+00
  1.40000000E+02  4.00000000E+01  0.00000000E+00
  1.40000000E+02  2.00000000E+01  0.00000000E+00
  1.40000000E+02  4.99600361E-14  0.00000000E+00
  1.60000000E+02  3.00000000E+02  0.00000000E+00
  1.60000000E+02  2.80000000E+02  0.00000000E+00
  1.60000000E+02  2.60000000E+02  0.00000000E+00
  1.60000000E+02  2.40000000E+02  0.00000000E+00
  1.60000000E+02  2.20000000E+02  0.00000000E+00
  1.60000000E+02  2.00000000E+02  0.00000000E+00
  1.60000000E+02  1.80000000E+02  0.00000000E+00
  1.60000000E+02  1.60000000E+02  0.00000000E+00
  1.60000000E+02  1.40000000E+02  0.00000000E+00
  1.60000000E+02  1.20000000E+02  0.00000000E+00
  1.60000000E+02  1.00000000E+02  0.00000000E+00
  1.60000000E+02  8.00000000E+01  0.00000000E+00
  1.60000000E+02  6.00000000E+01  0.00000000E+00
  1.60000000E+02  4.00000000E+01  0.00000000E+00
  1.60000000E+02  2.00000000E+01  0.00000000E+00
  1.60000000E+02  4.99600361E-14  0.00000000E+00
  1.80000000E+02  3.00000000E+02  0.00000000E+00
  1.80000000E+02  2.80000000E+02  0.00000000E+00
  1.80000000E+02  2.60000000E+02  0.00000000E+00
  1.80000000E+02  2.40000000E+02  0.00000000E+00
  1.80000000E+02  2.20000000E+02  0.00000000E+00
  1.80000000E+02  2.00000000E+02  0.00000000E+00
  1.80000000E+02  1.80000000E+02  0.00000000E+00
  1.80000000E+02  1.60000000E+02  0.00000000E+00
  1.80000000E+02  1.40000000E+02  0.00000000E+00
  1.80000000E+02  1.20000000E+02  0.00000000E+00
  1.80000000E+02  1.00000000E+02  0.00000000E+00
  1.80000000E+02  8.00000000E+01  0.00000000E+00
  1.80000000E+02  6.00000000E+01  0.00000000E+00
  1.80000000E+02  4.00000000E+01  0.00000000E+00
  1.80000000E+02  2.00000000E+01  0.00000000E+00
  1.80000000E+02  4.99600361E-14  0.00000000E+00
  2.00000000E+02  3.00000000E+02  0.00000000E+00
  2.00000000E+02  2.80000000E+02  0.00000000E+00
  2.00000000E+02  2.60000000E+02  0.00000000E+00
  2.00000000E+02  2.40000000E+02  0.00000000E+00
  2.00000000E+02  2.20000000E+02  0.00000000E+00
  2.00000000E+02  2.00000000E+02  0.00000000E+00
  2.00000000E+02  1.80000000E+02  0.00000000E+00
  2.00000000E+02  1.60000000E+02  0.00000000E+00
  2.00000000E+02  1.40000000E+02  0.00000000E+00
  2.00000000E+02  1.20000000E+02  0.00000000E+00
  2.00000000E+02  1.00000000E+02  0.00000000E+00
  2.00000000E+02  8.00000000E+01  0.00000000E+00
  2.00000000E+02  6.00000000E+01  0.00000000E+00
  2.00000000E+02  4.00000000E+01  0.00000000E+00
  2.00000000E+02  2.00000000E+01  0.00000000E+00
  2.00000000E+02  4.99600361E-14  0.00000000E+00
  2.20000000E+02  3.00000000E+02  0.00000000E+00
  2.20000000E+02  2.80000000E+02  0.00000000E+00
  2.20000000E+02  2.60000000E+02  0.00000000E+00
  2.20000000E+02  2.40000000E+02  0.00000000E+00
  2.20000000E+02  2.20000000E+02  0.00000000E+00
  2.20000000E+02  2.00000000E+02  0.00000000E+00
  2.20000000E+02  1.80000000E+02  0.00000000E+00
  2.20000000E+02  1.60000000E+02  0.00000000E+00
  2.20000000E+02  1.40000000E+02  0.00000000E+00
  2.20000000E+02  1.20000000E+02  0.00000000E+00
  2.20000000E+02  1.00000000E+02  0.00000000E+00
  2.20000000E+02  8.00000000E+01  0.00000000E+00
  2.20000000E+02  6.00000000E+01  0.00000000E+00
  2.20000000E+02  4.00000000E+01  0.00000000E+00
  2.20000000E+02  2.00000000E+01  0.00000000E+00
  2.20000000E+02  4.99600361E-14  0.00000000E+00
  2.40000000E+02  3.00000000E+02  0.00000000E+00
  2.40000000E+02  2.80000000E+02  0.00000000E+00
  2.40000000E+02  2.60000000E+02  0.00000000E+00
  2.40000000E+02  2.40000000E+02  0.00000000E+00
  2.40000000E+02  2.20000000E+02  0.00000000E+00
  2.40000000E+02  2.00000000E+02  0.00000000E+00
  2.40000000E+02  1.80000000E+02  0.00000000E+00
  2.40000000E+02  1.60000000E+02  0.00000000E+00
  2.40000000E+02  1.40000000E+02  0.00000000E+00
  2.40000000E+02  1.20000000E+02  0.00000000E+00
  2.40000000E+02  1.00000000E+02  0.00000000E+00
  2.40000000E+02  8.00000000E+01  0.00000000E+00
  2.40000000E+02  6.00000000E+01  0.00000000E+00
  2.40000000E+02  4.00000000E+01  0.00000000E+00
  2.40000000E+02  2.00000000E+01  0.00000000E+00
  2.40000000E+02  4.99600361E-14  0.00000000E+00
  2.60000000E+02  3.00000000E+02  0.00000000E+00
  2.60000000E+02  2.80000000E+02  0.00000000E+00
  2.60000000E+02  2.60000000E+02  0.00000000E+00
  2.60000000E+02  2.40000000E+02  0.00000000E+00
  2.60000000E+02  2.20000000E+02  0.00000000E+00
  2.60000000E+02  2.00000000E+02  0.00000000E+00
  2.60000000E+02  1.80000000E+02  0.00000000E+00
  2.60000000E+02  1.60000000E+02  0.00000000E+00
  2.60000000E+02  1.40000000E+02  0.00000000E+00
  2.60000000E+02  1.20000000E+02  0.00000000E+00
  2.60000000E+02  1.00000000E+02  0.00000000E+00
  2.60000000E+02  8.00000000E+01  0.00000000E+00
  2.60000000E+02  6.00000000E+01  0.00000000E+00
  2.60000000E+02  4.00000000E+01  0.00000000E+00
  2.60000000E+02  2.00000000E+01  0.00000000E+00
  2.60000000E+02  4.99600361E-14  0.00000000E+00
  2.80000000E+02  3.00000000E+02  0.00000000E+00
  2.80000000E+02  2.80000000E+02  0.00000000E+00
  2.80000000E+02  2.60000000E+02  0.00000000E+00
  2.80000000E+02  2.40000000E+02  0.00000000E+00
  2.80000000E+02  2.20000000E+02  0.00000000E+00
  2.80000000E+02  2.00000000E+02  0.00000000E+00
  2.80000000E+02  1.80000000E+02  0.00000000E+00
  2.80000000E+02  1.60000000E+02  0.00000000E+00
  2.80000000E+02  1.40000000E+02  0.00000000E+00
  2.80000000E+02  1.20000000E+02  0.00000000E+00
  2.80000000E+02  1.00000000E+02  0.00000000E+00
  2.80000000E+02  8.00000000E+01  0.00000000E+00
  2.80000000E+02  6.00000000E+01  0.00000000E+00
  2.80000000E+02  4.00000000E+01  0.00000000E+00
  2.80000000E+02  2.00000000E+01  0.00000000E+00
  2.80000000E+02  4.99600361E-14  0.00000000E+00
  3.00000000E+02  3.00000000E+02  0.00000000E+00
  3.00000000E+02  2.80000000E+02  0.00000000E+00
  3.00000000E+02  2.60000000E+02  0.00000000E+00
  3.00000000E+02  2.40000000E+02  0.00000000E+00
  3.00000000E+02  2.20000000E+02  0.00000000E+00
  3.00000000E+02  2.00000000E+02  0.00000000E+00
  3.00000000E+02  1.80000000E+02  0.00000000E+00
  3.00000000E+02  1.60000000E+02  0.00000000E+00
  3.00000000E+02  1.40000000E+02  0.00000000E+00
  3.00000000E+02  1.20000000E+02  0.00000000E+00
  3.00000000E+02  1.00000000E+02  0.00000000E+00
  3.00000000E+02  8.00000000E+01  0.00000000E+00
  3.00000000E+02  6.00000000E+01  0.00000000E+00
  3.00000000E+02  4.00000000E+01  0.00000000E+00
  3.00000000E+02  2.00000000E+01  0.00000000E+00
  3.00000000E+02  4.99600361E-14  0.00000000E+00
  3.20000000E+02  3.00000000E+02  0.00000000E+00
  3.20000000E+02  2.80000000E+02  0.00000000E+00
  3.20000000E+02  2.60000000E+02  0.00000000E+00
  3.20000000E+02  2.40000000E+02  0.00000000E+00
  3.20000000E+02  2.20000000E+02  0.00000000E+00
  3.20000000E+02  2.00000000E+02  0.00000000E+00
  3.20000000E+02  1.80000000E+02  0.00000000E+00
  3.20000000E+02  1.60000000E+02  0.00000000E+00
  3.20000000E+02  1.40000000E+02  0.00000000E+00
  3.20000000E+02  1.20000000E+02  0.00000000E+00
  3.20000000E+02  1.00000000E+02  0.00000000E+00
  3.20000000E+02  8.00000000E+01  0.00000000E+00
  3.20000000E+02  6.00000000E+01  0.00000000E+00
  3.20000000E+02  4.00000000E+01  0.00000000E+00
  3.20000000E+02  2.00000000E+01  0.00000000E+00
  3.20000000E+02  4.99600361E-14  0.00000000E+00
  3.40000000E+02  3.00000000E+02  0.00000000E+00
  3.40000000E+02  2.80000000E+02  0.00000000E+00
  3.40000000E+02  2.60000000E+02  0.00000000E+00
  3.40000000E+02  2.40000000E+02  0.00000000E+00
  3.40000000E+02  2.20000000E+02  0.00000000E+00
  3.40000000E+02  2.00000000E+02  0.00000000E+00
  3.40000000E+02  1.80000000E+02  0.00000000E+00
  3.40000000E+02  1.60000000E+02  0.00000000E+00
  3.40000000E+02  1.40000000E+02  0.00000000E+00
  3.40000000E+02  1.20000000E+02  0.00000000E+00
  3.40000000E+02  1.00000000E+02  0.00000000E+00
  3.40000000E+02  8.00000000E+01  0.00000000E+00
  3.40000000E+02  6.00000000E+01  0.00000000E+00
  3.40000000E+02  4.00000000E+01  0.00000000E+00
  3.40000000E+02  2.00000000E+01  0.00000000E+00
  3.40000000E+02  4.99600361E-14  0.00000000E+00
  3.60000000E+02  3.00000000E+02  0.00000000E+00
  3.60000000E+02  2.80000000E+02  0.00000000E+00
  3.60000000E+02  2.60000000E+02  0.00000000E+00
  3.60000000E+02  2.40000000E+02  0.00000000E+00
  3.60000000E+02  2.20000000E+02  0.00000000E+00
  3.60000000E+02  2.00000000E+02  0.00000000E+00
  3.60000000E+02  1.80000000E+02  0.00000000E+00
  3.60000000E+02  1.60000000E+02  0.00000000E+00
  3.60000000E+02  1.40000000E+02  0.00000000E+00
  3.60000000E+02  1.20000000E+02  0.00000000E+00
  3.60000000E+02  1.00000000E+02  0.00000000E+00
  3.60000000E+02  8.00000000E+01  0.00000000E+00
  3.60000000E+02  6.00000000E+01  0.00000000E+00
  3.60000000E+02  4.00000000E+01  0.00000000E+00
  3.60000000E+02  2.00000000E+01  0.00000000E+00
  3.60000000E+02  4.99600361E-14  0.00000000E+00
  3.80000000E+02  3.00000000E+02  0.00000000E+00
  3.80000000E+02  2.80000000E+02  0.00000000E+00
  3.80000000E+02  2.60000000E+02  0.00000000E+00
  3.80000000E+02  2.40000000E+02  0.00000000E+00
  3.80000000E+02  2.20000000E+02  0.00000000E+00
  3.80000000E+02  2.00000000E+02  0.00000000E+00
  3.80000000E+02  1.80000000E+02  0.00000000E+00
  3.80000000E+02  1.60000000E+02  0.00000000E+00
  3.80000000E+02  1.40000000E+02  0.00000000E+00
  3.80000000E+02  1.20000000E+02  0.00000000E+00
  3.80000000E+02  1.00000000E+02  0.00000000E+00
  3.80000000E+02  8.00000000E+01  0.00000000E+00
  3.80000000E+02  6.00000000E+01  0.00000000E+00
  3.80000000E+02  4.00000000E+01  0.00000000E+00
  3.80000000E+02  2.00000000E+01  0.00000000E+00
  3.80000000E+02  4.99600361E-14  0.00000000E+00
  4.00000000E+02  3.00000000E+02  0.00000000E+00
  4.00000000E+02  2.80000000E+02  0.00000000E+00
  4.00000000E+02  2.60000000E+02  0.00000000E+00
  4.00000000E+02  2.40000000E+02  0.00000000E+00
  4.00000000E+02  2.20000000E+02  0.00000000E+00
  4.00000000E+02  2.00000000E+02  0.00000000E+00
  4.00000000E+02  1.80000000E+02  0.00000000E+00
  4.00000000E+02  1.60000000E+02  0.00000000E+00
  4.00000000E+02  1.40000000E+02  0.00000000E+00
  4.00000000E+02  1.20000000E+02  0.00000000E+00
  4.00000000E+02  1.00000000E+02  0.00000000E+00
  4.00000000E+02  8.00000000E+01  0.00000000E+00
  4.00000000E+02  6.00000000E+01  0.00000000E+00
  4.00000000E+02  4.00000000E+01  0.00000000E+00
  4.00000000E+02  2.00000000E+01  0.00000000E+00
  4.00000000E+02  4.99600361E-14  0.00000000E+00
  4.20000000E+02  3.00000000E+02  0.00000000E+00
  4.20000000E+02  2.80000000E+02  0.00000000E+00
  4.20000000E+02  2.60000000E+02  0.00000000E+00
  4.20000000E+02  2.40000000E+02  0.00000000E+00
  4.20000000E+02  2.20000000E+02  0.00000000E+00
  4.20000000E+02  2.00000000E+02  0.00000000E+00
  4.20000000E+02  1.80000000E+02  0.00000000E+00
  4.20000000E+02  1.60000000E+02  0.00000000E+00
  4.20000000E+02  1.40000000E+02  0.00000000E+00
  4.20000000E+02  1.20000000E+02  0.00000000E+00
  4.20000000E+02  1.00000000E+02  0.00000000E+00
  4.20000000E+02  8.00000000E+01  0.00000000E+00
  4.20000000E+02  6.00000000E+01  0.00000000E+00
  4.20000000E+02  4.00000000E+01  0.00000000E+00
  4.20000000E+02  2.00000000E+01  0.00000000E+00
  4.20000000E+02  4.99600361E-14  0.00000000E+00
  4.40000000E+02  3.00000000E+02  0.00000000E+00
  4.40000000E+02  2.80000000E+02  0.00000000E+00
  4.40000000E+02  2.60000000E+02  0.00000000E+00
  4.40000000E+02  2.40000000E+02  0.00000000E+00
  4.40000000E+02  2.20000000E+02  0.00000000E+00
  4.40000000E+02  2.00000000E+02  0.00000000E+00
  4.40000000E+02  1.80000000E+02  0.00000000E+00
  4.40000000E+02  1.60000000E+02  0.00000000E+00
  4.40000000E+02  1.40000000E+02  0.00000000E+00
  4.40000000E+02  1.20000000E+02  0.00000000E+00
  4.40000000E+02  1.00000000E+02  0.00000000E+00
  4.40000000E+02  8.00000000E+01  0.00000000E+00
  4.40000000E+02  6.00000000E+01  0.00000000E+00
  4.40000000E+02  4.00000000E+01  0.00000000E+00
  4.40000000E+02  2.00000000E+01  0.00000000E+00
  4.40000000E+02  4.99600361E-14  0.00000000E+00
  4.60000000E+02  3.00000000E+02  0.00000000E+00
  4.60000000E+02  2.80000000E+02  0.00000000E+00
  4.60000000E+02  2.60000000E+02  0.00000000E+00
  4.60000000E+02  2.40000000E+02  0.00000000E+00
  4.60000000E+02  2.20000000E+02  0.00000000E+00
  4.60000000E+02  2.00000000E+02  0.00000000E+00
  4.60000000E+02  1.80000000E+02  0.00000000E+00
  4.60000000E+02  1.60000000E+02  0.00000000E+00
  4.60000000E+02  1.40000000E+02  0.00000000E+00
  4.60000000E+02  1.20000000E+02  0.00000000E+00
  4.60000000E+02  1.00000000E+02  0.00000000E+00
  4.60000000E+02  8.00000000E+01  0.00000000E+00
  4.60000000E+02  6.00000000E+01  0.00000000E+00
  4.60000000E+02  4.00000000E+01  0.00000000E+00
  4.60000000E+02  2.00000000E+01  0.00000000E+00
  4.60000000E+02  4.99600361E-14  0.00000000E+00
  4.80000000E+02  3.00000000E+02  0.00000000E+00
  4.80000000E+02  2.80000000E+02  0.00000000E+00
  4.80000000E+02  2.60000000E+02  0.00000000E+00
  4.80000000E+02  2.40000000E+02  0.00000000E+00
  4.80000000E+02  2.20000000E+02  0.00000000E+00
  4.80000000E+02  2.00000000E+02  0.00000000E+00
  4.80000000E+02  1.80000000E+02  0.00000000E+00
  4.80000000E+02  1.60000000E+02  0.00000000E+00
  4.80000000E+02  1.40000000E+02  0.00000000E+00
  4.80000000E+02  1.20000000E+02  0.00000000E+00
  4.80000000E+02  1.00000000E+02  0.00000000E+00
  4.80000000E+02  8.00000000E+01  0.00000000E+00
  4.80000000E+02  6.00000000E+01  0.00000000E+00
  4.80000000E+02  4.00000000E+01  0.00000000E+00
  4.80000000E+02  2.00000000E+01  0.00000000E+00
  4.80000000E+02  4.99600361E-14  0.00000000E+00
  5.00000000E+02  3.00000000E+02  0.00000000E+00
  5.00000000E+02  2.80000000E+02  0.00000000E+00
  5.00000000E+02  2.60000000E+02  0.00000000E+00
  5.00000000E+02  2.40000000E+02  0.00000000E+00
  5.00000000E+02  2.20000000E+02  0.00000000E+00
  5.00000000E+02  2.00000000E+02  0.00000000E+00
  5.00000000E+02  1.80000000E+02  0.00000000E+00
  5.00000000E+02  1.60000000E+02  0.00000000E+00
  5.00000000E+02  1.40000000E+02  0.00000000E+00
  5.00000000E+02  1.20000000E+02  0.00000000E+00
  5.00000000E+02  1.00000000E+02  0.00000000E+00
  5.00000000E+02  8.00000000E+01  0.00000000E+00
  5.00000000E+02  6.00000000E+01  0.00000000E+00
  5.00000000E+02  4.00000000E+01  0.00000000E+00
  5.00000000E+02  2.00000000E+01  0.00000000E+00
  5.00000000E+02  4.99600361E-14  0.00000000E+00
  5.20000000E+02  3.00000000E+02  0.00000000E+00
  5.20000000E+02  2.80000000E+02  0.00000000E+00
  5.20000000E+02  2.60000000E+02  0.00000000E+00
  5.20000000E+02  2.40000000E+02  0.00000000E+00
  5.20000000E+02  2.20000000E+02  0.00000000E+00
  5.20000000E+02  2.00000000E+02  0.00000000E+00
  5.20000000E+02  1.80000000E+02  0.00000000E+00
  5.20000000E+02  1.60000000E+02  0.00000000E+00
  5.20000000E+02  1.40000000E+02  0.00000000E+00
  5.20000000E+02  1.20000000E+02  0.00000000E+00
  5.20000000E+02  1.00000000E+02  0.00000000E+00
  5.20000000E+02  8.00000000E+01  0.00000000E+00
  5.20000000E+02  6.00000000E+01  0.00000000E+00
  5.20000000E+02  4.00000000E+01  0.00000000E+00
  5.20000000E+02  2.00000000E+01  0.00000000E+00
  5.20000000E+02  4.99600361E-14  0.00000000E+00
  5.40000000E+02  3.00000000E+02  0.00000000E+00
  5.40000000E+02  2.80000000E+02  0.00000000E+00
  5.40000000E+02  2.60000000E+02  0.00000000E+00
  5.40000000E+02  2.40000000E+02  0.00000000E+00
  5.40000000E+02  2.20000000E+02  0.00000000E+00
  5.40000000E+02  2.00000000E+02  0.00000000E+00
  5.40000000E+02  1.80000000E+02  0.00000000E+00
  5.40000000E+02  1.60000000E+02  0.00000000E+00
  5.40000000E+02  1.40000000E+02  0.00000000E+00
  5.40000000E+02  1.20000000E+02  0.00000000E+00
  5.40000000E+02  1.00000000E+02  0.00000000E+00
  5.40000000E+02  8.00000000E+01  0.00000000E+00
  5.40000000E+02  6.00000000E+01  0.00000000E+00
  5.40000000E+02  4.00000000E+01  0.00000000E+00
  5.40000000E+02  2.00000000E+01  0.00000000E+00
  5.40000000E+02  4.99600361E-14  0.00000000E+00
  5.60000000E+02  3.00000000E+02  0.00000000E+00
  5.60000000E+02  2.80000000E+02  0.00000000E+00
  5.60000000E+02  2.60000000E+02  0.00000000E+00
  5.60000000E+02  2.40000000E+02  0.00000000E+00
  5.60000000E+02  2.20000000E+02  0.00000000E+00
  5.60000000E+02  2.00000000E+02  0.00000000E+00
  5.60000000E+02  1.80000000E+02  0.00000000E+00
  5.60000000E+02  1.60000000E+02  0.00000000E+00
  5.60000000E+02  1.40000000E+02  0.00000000E+00
  5.60000000E+02  1.20000000E+02  0.00000000E+00
  5.60000000E+02  1.00000000E+02  0.00000000E+00
  5.60000000E+02  8.00000000E+01  0.00000000E+00
  5.60000000E+02  6.00000000E+01  0.00000000E+00
  5.60000000E+02  4.00000000E+01  0.00000000E+00
  5.60000000E+02  2.00000000E+01  0.00000000E+00
  5.60000000E+02  4.99600361E-14  0.00000000E+00
  5.80000000E+02  3.00000000E+02  0.00000000E+00
  5.80000000E+02  2.80000000E+02  0.00000000E+00
  5.80000000E+02  2.60000000E+02  0.00000000E+00
  5.80000000E+02  2.40000000E+02  0.00000000E+00
  5.80000000E+02  2.20000000E+02  0.00000000E+00
  5.80000000E+02  2.00000000E+02  0.00000000E+00
  5.80000000E+02  1.80000000E+02  0.00000000E+00
  5.80000000E+02  1.60000000E+02  0.00000000E+00
  5.80000000E+02  1.40000000E+02  0.00000000E+00
  5.80000000E+02  1.20000000E+02  0.00000000E+00
  5.80000000E+02  1.00000000E+02  0.00000000E+00
  5.80000000E+02  8.00000000E+01  0.00000000E+00
  5.80000000E+02  6.00000000E+01  0.00000000E+00
  5.80000000E+02  4.00000000E+01  0.00000000E+00
  5.80000000E+02  2.00000000E+01  0.00000000E+00
  5.80000000E+02  4.99600361E-14  0.00000000E+00
  6.00000000E+02  3.00000000E+02  0.00000000E+00
  6.00000000E+02  2.80000000E+02  0.00000000E+00
  6.00000000E+02  2.60000000E+02  0.00000000E+00
  6.00000000E+02  2.40000000E+02  0.00000000E+00
  6.00000000E+02  2.20000000E+02  0.00000000E+00
  6.00000000E+02  2.00000000E+02  0.00000000E+00
  6.00000000E+02  1.80000000E+02  0.00000000E+00
  6.00000000E+02  1.60000000E+02  0.00000000E+00
  6.00000000E+02  1.40000000E+02  0.00000000E+00
  6.00000000E+02  1.20000000E+02  0.00000000E+00
  6.00000000E+02  1.00000000E+02  0.00000000E+00
  6.00000000E+02  8.00000000E+01  0.00000000E+00
  6.00000000E+02  6.00000000E+01  0.00000000E+00
  6.00000000E+02  4.00000000E+01  0.00000000E+00
  6.00000000E+02  2.00000000E+01  0.00000000E+00
  6.00000000E+02  4.99600361E-14  0.00000000E+00
CELLS       450      2250
         4           0           1          17          16
         4           1           2          18          17
         4           2           3          19          18
         4           3           4          20          19
         4           4           5          21          20
         4           5           6          22          21
         4           6           7          23          22
         4           7           8          24          23
         4           8           9          25          24
         4           9          10          26          25
         4          10          11          27          26
         4          11          12          28          27
         4          12          13          29          28
         4          13          14          30          29
         4          14          15          31          30
         4          16          17          33          32
         4          17          18          34          33
         4          18          19          35          34
         4          19          20          36          35
         4          20          21          37          36
         4          21          22          38          37
         4          22          23          39          38
         4          23          24          40          39
         4          24          25          41          40
         4          25          26          42          41
         4          26          27          43          42
         4          27          28          44          43
         4          28          29          45          44
         4          29          30          46          45
         4          30          31          47          46
         4          32          33          49          48
         4          33          34          50          49
         4          34          35          51          50
         4          35          36          52          51
         4          36          37          53          52
         4          37          38          54          53
         4          38          39          55          54
         4          39          40          56          55
         4          40          41          57          56
         4          41          42          58          57
         4          42          43          59          58
         4          43          44          60          59
         4          44          45          61          60
         4          45          46          62          61
         4          46          47          63          62
         4          48          49          65          64
         4          49          50          66          65
         4          50          51          67          66
         4          51          52          68          67
         4          52          53          69          68
         4          53          54          70          69
         4          54          55          71          70
         4          55          56          72          71
         4          56          57          73          72
         4          57          58          74          73
         4          58          59          75          74
         4          59          60          76          75
         4          60          61          77          76
         4          61          62          78          77
         4          62          63          79          78
         4          64          65          81          80
         4          65          66          82          81
         4          66          67          83          82
         4          67          68          84          83
         4          68          69          85          84
         4          69          70          86          85
         4          70          71          87          86
         4          71          72          88          87
         4          72          73          89          88
         4          73          74          90          89
         4          74          75          91          90
         4          75          76          92          91
         4          76          77          93          92
         4          77          78          94          93
         4          78          79          95          94
         4          80          81          97          96
         4          81          82          98          97
         4          82          83          99          98
         4          83          84         100          99
         4          84          85         101         100
         4          85          86         102         101
         4          86          87         103         102
         4          87          88         104         103
         4          88          89         105         104
         4          89          90         106         105
         4          90          91         107         106
         4          91          92         108         107
         4          92          93         109         108
         4          93          94         110         109
         4          94          95         111         110
         4          96          97         113         112
         4          97          98         114         113
         4          98          99         115         114
         4          99         100         116         115
         4         100         101         117         116
         4         101         102         118         117
         4         102         103         119         118
         4         103         104         120         119
         4         104         105         121         120
         4         105         106         122         121
         4         106         107         123         122
         4         107         108         124         123
         4         108         109         125         124
         4         109         110         126         125
         4         110         111         127         126
         4         112         113         129         128
         4         113         114         130         129
         4         114         115         131         130
         4         115         116         132         131
         4         116         117         133         132
         4         117         118         134         133
         4         118         119         135         134
         4         119         120         136         135
         4         120         121         137         136
         4         121         122         138         137
         4         122         123         139         138
         4         123         124         140         139
         4         124         125         141         140
         4         125         126         142         141
         4         126         127         143         142
         4         128         129         145         144
         4         129         130         146         145
         4         130         131         147         146
         4         131         132         148         147
         4         132         133         149         148
         4         133         134         150         149
         4         134         135         151         150
         4         135         136         152         151
         4         136         137         153         152
         4         137         138         154         153
         4         138         139         155         154
         4         139         140         156         155
         4         140         141         157         156
         4         141         142         158         157
         4         142         143         159         158
         4         144         145         161         160
         4         145         146         162         161
         4         146         147         163         162
         4         147         148         164         163
         4         148         149         165         164
         4         149         150         166         165
         4         150         151         167         166
         4         151         152         168         167
         4         152         153         169         168
         4         153         154         170         169
         4         154         155         171         170
         4         155         156         172         171
         4         156         157         173         172
         4         157         158         174         173
         4         158         159         175         174
         4         160         161         177         176
         4         161         162         178         177
         4         162         163         179         178
         4         163         164         180         179
         4         164         165         181         180
         4         165         166         182         181
         4         166         167         183         182
         4         167         168         184         183
         4         168         169         185         184
         4         169         170         186         185
         4         170         171         187         186
         4         171         172         188         187
         4         172         173         189         188
         4         173         174         190         189
         4         174         175         191         190
         4         176         177         193         192
         4         177         178         194         193
         4         178         179         195         194
         4         179         180         196         195
         4         180         181         197         196
         4         181         182         198         197
         4         182         183         199         198
         4         183         184         200         199
         4         184         185         201         200
         4         185         186         202         201
         4         186         187         203         202
         4         187         188         204         203
         4         188         189         205         204
         4         189         190         206         205
         4         190         191         207         206
         4         192         193         209         208
         4         193         194         210         209
         4         194         195         211         210
         4         195         196         212         211
         4         196         197         213         212
         4         197         198         214         213
         4         198         199         215         214
         4         199         200         216         215
         4         200         201         217         216
         4         201         202         218         217
         4         202         203         219         218
         4         203         204         220         219
         4         204         205         221         220
         4         205         206         222         221
         4         206         207         223         222
         4         208         209         225         224
         4         209         210         226         225
         4         210         211         227         226
         4         211         212         228         227
         4         212         213         229         228
         4         213         214         230         229
         4         214         215         231         230
         4         215         216         232         231
         4         216         217         233         232
         4         217         218         234         233
         4         218         219         235         234
         4         219         220         236         235
         4         220         221         237         236
         4         221         222         238         237
         4         222         223         239         238
         4         224         225         241         240
         4         225         226         242         241
         4         226         227         243         242
         4         227         228         244         243
         4         228         229         245         244
         4         229         230         246         245
         4         230         231         247         246
         4         231         232         248         247
         4         232         233         249         248
         4         233         234         250         249
         4         234         235         251         250
         4         235         236         252         251
         4         236         237         253         252
         4         237         238         254         253
         4         238         239         255         254
         4         240         241         257         256
         4         241         242         258         257
         4         242         243         259         258
         4         243         244         260         259
         4         244         245         261         260
         4         245         246         262         261
         4         246         247         263         262
         4         247         248         264         263
         4         248         249         265         264
         4         249         250         266         265
         4         250         251         267         266
         4         251         252         268         267
         4         252         253         269         268
         4         253         254         270         269
         4         254         255         271         270
         4         256         257         273         272
         4         257         258         274         273
         4         258         259         275         274
         4         259         260         276         275
         4         260         261         277         276
         4         261         262         278         277
         4         262         263         279         278
         4         263         264         280         279
         4         264         265         281         280
         4         265         266         282         281
         4         266         267         283         282
         4         267         268         284         283
         4         268         269         285         284
         4         269         270         286         285
         4         270         271         287         286
         4         272         273         289         288
         4         273         274         290         289
         4         274         275         291         290
         4         275         276         292         291
         4         276         277         293         292
         4         277         278         294         293
         4         278         279         295         294
         4         279         280         296         295
         4         280         281         297         296
         4         281         282         298         297
         4         282         283         299         298
         4         283         284         300         299
         4         284         285         301         300
         4         285         286         302         301
         4         286         287         303         302
         4         288         289         305         304
         4         289         290         306         305
         4         290         291         307         306
         4         291         292         308         307
         4         292         293         309         308
         4         293         294         310         309
         4         294         295         311         310
         4         295         296         312         311
         4         296         297         313         312
         4         297         298         314         313
         4         298         299         315         314
         4         299         300         316         315
         4         300         301         317         316
         4         301         302         318         317
         4         302         303         319         318
         4         304         305         321         320
         4         305         306         322         321
         4         306         307         323         322
         4         307         308         324         323
         4         308         309         325         324
         4         309         310         326         325
         4         310         311         327         326
         4         311         312         328         327
         4         312         313         329         328
         4         313         314         330         329
         4         314         315         331         330
         4         315         316         332         331
         4         316         317         333         332
         4         317         318         334         333
         4         318         319         335         334
         4         320         321         337         336
         4         321         322         338         337
         4         322         323         339         338
         4         323         324         340         339
         4         324         325         341         340
         4         325         326         342         341
         4         326         327         343         342
         4         327         328         344         343
         4         328         329         345         344
         4         329         330         346         345
         4         330         331         347         346
         4         331         332         348         347
         4         332         333         349         348
         4         333         334         350         349
         4         334         335         351         350
         4         336         337         353         352
         4         337         338         354         353
         4         338         339         355         354
         4         339         340         356         355
         4         340         341         357         356
         4         341         342         358         357
         4         342         343         359         358
         4         343         344         360         359
         4         344         345         361         360
         4         345         346         362         361
         4         346         347         363         362
         4         347         348         364         363
         4         348         349         365         364
         4         349         350         366         365
         4         350         351         367         366
         4         352         353         369         368
         4         353         354         370         369
         4         354         355         371         370
         4         355         356         372         371
         4         356         357         373         372
         4         357         358         374         373
         4         358         359         375         374
         4         359         360         376         375
         4         360         361         377         376
         4         361         362         378         377
         4         362         363         379         378
         4         363         364         380         379
         4         364         365         381         380
         4         365         366         382         381
         4         366         367         383         382
         4         368         369         385         384
         4         369         370         386         385
         4         370         371         387         386
         4         371         372         388         387
         4         372         373         389         388
         4         373         374         390         389
         4         374         375         391         390
         4         375         376         392         391
         4         376         377         393         392
         4         377         378         394         393
         4         378         379         395         394
         4         379         380         396         395
         4         380         381         397         396
         4         381         382         398         397
         4         382         383         399         398
         4         384         385         401         400
         4         385         386         402         401
         4         386         387         403         402
         4         387         388         404         403
         4         388         389         405         404
         4         389         390         406         405
         4         390         391         407         406
         4         391         392         408         407
         4         392         393         409         408
         4         393         394         410         409
         4         394         395         411         410
         4         395         396         412         411
         4         396         397         413         412
         4         397         398         414         413
         4         398         399         415         414
         4         400         401         417         416
         4         401         402         418         417
         4         402         403         419         418
         4         403         404         420         419
         4         404         405         421         420
         4         405         406         422         421
         4         406         407         423         422
         4         407         408         424         423
         4         408         409         425         424
         4         409         410         426         425
         4         410         411         427         426
         4         411         412         428         427
         4         412         413         429         428
         4         413         414         430         429
         4         414         415         431         430
         4         416         417         433         432
         4         417         418         434         433
         4         418         419         435         434
         4         419         420         436         435
         4         420         421         437         436
         4         421         422         438         437
         4         422         423         439         438
         4         423         424         440         439
         4         424         425         441         440
         4         425         426         442         441
         4         426         427         443         442
         4         427         428         444         443
         4         428         429         445         444
         4         429         430         446         445
         4         430         431         447         446
         4         432         433         449         448
         4         433         434         450         449
         4         434         435         451         450
         4         435         436         452         451
         4         436         437         453         452
         4         437         438         454         453
         4         438         439         455         454
         4         439         440         456         455
         4         440         441         457         456
         4         441         442         458         457
         4         442         443         459         458
         4         443         444         460         459
         4         444         445         461         460
         4         445         446         462         461
         4         446         447         463         462
         4         448         449         465         464
         4         449         450         466         465
         4         450         451         467         466
         4         451         452         468         467
         4         452         453         469         468
         4         453         454         470         469
         4         454         455         471         470
         4         455         456         472         471
         4         456         457         473         472
         4         457         458         474         473
         4         458         459         475         474
         4         459         460         476         475
         4         460         461         477         476
         4         461         462         478         477
         4         462         463         479         478
         4         464         465         481         480
         4         465         466         482         481
         4         466         467         483         482
         4         467         468         484         483
         4         468         469         485         484
         4         469         470         486         485
         4         470         471         487         486
         4         471         472         488         487
         4         472         473         489         488
         4         473         474         490         489
         4         474         475         491         490
         4         475         476         492         491
         4         476         477         493         492
         4         477         478         494         493
         4         478         479         495         494
CELL_TYPES        450
9
9
9
9
9
9
9
9
9
9
9
9
9
9
9
9
9
9
9
9
9
9
9
9
9
9
9
9
9
9
9
9
9
9
9
9
9
9
9
9
9
9
9
9
9
9
9
9
9
9
9
9
9
9
9
9
9
9
9
9
9
9
9
9
9
9
9
9
9
9
9
9
9
9
9
9
9
9
9
9
9
9
9
9
9
9
9
9
9
9
9
9
9
9
9
9
9
9
9
9
9
9
9
9
9
9
9
9
9
9
9
9
9
9
9
9
9
9
9
9
9
9
9
9
9
9
9
9
9
9
9
9
9
9
9
9
9
9
9
9
9
9
9
9
9
9
9
9
9
9
9
9
9
9
9
9
9
9
9
9
9
9
9
9
9
9
9
9
9
9
9
9
9
9
9
9
9
9
9
9
9
9
9
9
9
9
9
9
9
9
9
9
9
9
9
9
9
9
9
9
9
9
9
9
9
9
9
9
9
9
9
9
9
9
9
9
9
9
9
9
9
9
9
9
9
9
9
9
9
9
9
9
9
9
9
9
9
9
9
9
9
9
9
9
9
9
9
9
9
9
9
9
9
9
9
9
9
9
9
9
9
9
9
9
9
9
9
9
9
9
9
9
9
9
9
9
9
9
9
9
9
9
9
9
9
9
9
9
9
9
9
9
9
9
9
9
9
9
9
9
9
9
9
9
9
9
9
9
9
9
9
9
9
9
9
9
9
9
9
9
9
9
9
9
9
9
9
9
9
9
9
9
9
9
9
9
9
9
9
9
9
9
9
9
9
9
9
9
9
9
9
9
9
9
9
9
9
9
9
9
9
9
9
9
9
9
9
9
9
9
9
9
9
9
9
9
9
9
9
9
9
9
9
9
9
9
9
9
9
9
9
9
9
9
9
9
9
9
9
9
9
9
9
9
9
9
9
9
9
9
9
9
9
9
9
9
9
9
9
9
9
9
9
9
9
9
9
9
9
9
9
9
9
9
9
9
9
9
9
9
9
9
9
9
9
9
9
9
9
9
POINT_DATA       496
SCALARS p double 
LOOKUP_TABLE default
   68573572.4153689     
   68590381.6295216     
   68628802.0822139     
   68674265.6581882     
   68723225.1954297     
   68773468.0070819     
   68823569.2048842     
   68872502.2864185     
   68919475.2553797     
   68963832.4196531     
   69004984.9975232     
   69042347.5526355     
   69075262.1666994     
   69102837.5655857     
   69123828.6542380     
   69132533.4489478     
   66747947.6679711     
   66755025.4662417     
   66775481.7304328     
   66805602.8544822     
   66841003.2364701     
   66879203.0151130     
   66918489.6658379     
   66957609.6838747     
   66995581.7430099     
   67031584.5816958     
   67064874.3105081     
   67094708.3269711     
   67120248.7218136     
   67140431.3278637     
   67153415.0670810     
   67157817.4367272     
   64902748.6695632     
   64906413.7321237     
   64917859.4238658     
   64936746.9953539     
   64961085.4297254     
   64988826.8882110     
   65018372.4067349     
   65048452.4031888     
   65078029.1109036     
   65106213.4399307     
   65132196.3540658     
   65155185.4637359     
   65174343.8608182     
   65188712.2581825     
   65197448.9060095     
   65200347.0678516     
   63045106.6384489     
   63047077.4457004     
   63053557.6653803     
   63065089.9967233     
   63081036.8606727     
   63100218.4693426     
   63121408.9766318     
   63143509.9116795     
   63165558.8071089     
   63186702.3452850     
   63206161.1294180     
   63223198.5375208     
   63237104.3904186     
   63247255.3113252     
   63253276.7625532     
   63255247.2994635     
   61178536.9146873     
   61179513.4036161     
   61182948.1505224     
   61189588.1903926     
   61199406.9902390     
   61211854.6777087     
   61226145.6281892     
   61241449.0391136     
   61256970.7663042     
   61271975.5778187     
   61285788.4280192     
   61297795.1981155     
   61307464.6469848     
   61314407.1994529     
   61318465.6567524     
   61319788.8740178     
   59305102.0061444     
   59305442.8097511     
   59306875.8365642     
   59310143.2761035     
   59315487.4419641     
   59322740.2329649     
   59331473.9039375     
   59341137.3929535     
   59351146.1434945     
   59360930.6680839     
   59369962.9840499     
   59377778.8408707     
   59384008.2874802     
   59388418.9583820     
   59390960.9686729     
   59391787.7655626     
   57426133.4314923     
   57426042.3966705     
   57426092.1943691     
   57426956.4154899     
   57428988.8766321     
   57432245.7504700     
   57436558.5241708     
   57441619.5304669     
   57447054.3294598     
   57452473.8212925     
   57457511.1103449     
   57461851.6991949     
   57465263.1944260     
   57467624.5102478     
   57468946.9697175     
   57469374.6534454     
   55542503.1432382     
   55542104.0939741     
   55541156.2121003     
   55540251.5888106     
   55539784.3910839     
   55539943.6379545     
   55540743.6786609     
   55542073.2132859     
   55543746.2618847     
   55545546.3577569     
   55547262.5089604     
   55548718.9797921     
   55549800.5624017     
   55550472.1345674     
   55550787.9613459     
   55550884.8003982     
   53654758.9262119     
   53654128.3346393     
   53652427.3142148     
   53650172.5403162     
   53647768.1739233     
   53645485.2853678     
   53643468.7203258     
   53641761.7614379     
   53640338.4243727     
   53639136.1313154     
   53638085.1575261     
   53637133.6311957     
   53636267.3476863     
   53635522.7766361     
   53634990.5728218     
   53634806.8746995     
   51763196.6357900     
   51762380.3454545     
   51760078.2190141     
   51756745.1733834     
   51752785.3175274     
   51748524.8775013     
   51744205.4054962     
   51739992.3079911     
   51735992.5037711     
   51732275.7751147     
   51728895.9914600     
   51725909.7798083     
   51723390.8746270     
   51721438.4330209     
   51720177.5856894     
   51719750.9839598     
   49867903.1616649     
   49866925.7420682     
   49864109.9846422     
   49859865.9351880     
   49854598.3010420     
   49848675.8240591     
   49842416.1225268     
   49836083.3577095     
   49829894.8742176     
   49824032.8674004     
   49818657.7177915     
   49813920.3769634     
   49809971.7664618     
   49806967.5422132     
   49805066.9804960     
   49804425.3902630     
   47968783.8296229     
   47967654.3347844     
   47964365.3581922     
   47959300.5544835     
   47952871.9266354     
   47945486.8911670     
   47937527.6358276     
   47929341.2941834     
   47921238.4494518     
   47913497.0926654     
   47906369.2645168     
   47900087.9727680     
   47894872.4160192     
   47890930.0029706     
   47888454.1807518     
   47887617.7452385     
   46065581.0019214     
   46064296.8304764     
   46060539.8410936     
   46054686.7994059     
   46047167.4297956     
   46038429.6625982     
   46028915.1401058     
   46019044.1122347     
   46009208.0282884     
   45999767.6700927     
   45991054.5616243     
   45983373.5414444     
   45977004.7019337     
   45972203.3282877     
   45969196.9961241     
   45968179.6057352     
   44157887.3013379     
   44156436.9981885     
   44152190.6603973     
   44145538.5573972     
   44136941.0993361     
   44126892.4076336     
   44115892.9419119     
   44104430.6431078     
   44092969.3546962     
   44081942.8149546     
   44071752.3087409     
   44062766.1050440     
   44055319.0395349     
   44049710.9839486     
   44046203.4403601     
   44045014.0743414     
   42245155.2855237     
   42243520.7229409     
   42238743.9405611     
   42231250.0572837     
   42221545.0463493     
   42210177.5889354     
   42197709.4389259     
   42184693.9450989     
   42171661.7314682     
   42159112.0599986     
   42147508.1474913     
   42137274.6873720     
   42128796.0128568     
   42122413.6912221     
   42118422.8155827     
   42117066.8137977     
   40326704.5550219     
   40324862.7385465     
   40319500.3098411     
   40311099.7051165     
   40300228.9216181     
   40287501.4919050     
   40273545.0108203     
   40258977.9647499     
   40244393.9410943     
   40230351.7837358     
   40217369.9724989     
   40205923.4578530     
   40196441.3567529     
   40189304.2709303     
   40184840.4751499     
   40183320.7858815     
   38401726.8123801     
   38399651.4620780     
   38393639.0866160     
   38384253.2877922     
   38372141.9704699     
   38357995.1640510     
   38342512.0421202     
   38326376.9267099     
   38310243.2790816     
   38294724.0909039     
   38280386.7686424     
   38267750.5601844     
   38257284.7750280     
   38249406.4463061     
   38244476.6166276     
   38242795.0409734     
   36469289.1177899     
   36466952.1291360     
   36460221.1104362     
   36449766.4202835     
   36436335.1232264     
   36420706.2626131     
   36403656.6890228     
   36385937.1830500     
   36368257.6098942     
   36351279.1371429     
   36335611.2033933     
   36321810.9247152     
   36310382.9039519     
   36301777.8910311     
   36296389.3647588     
   36294547.8073845     
   34528335.4185205     
   34525708.2863171     
   34518190.2195057     
   34506586.1711008     
   34491763.0032325     
   34474601.6756163     
   34455962.2821643     
   34436661.4766937     
   34417460.4797895     
   34399061.0067264     
   34382106.1355152     
   34367183.2491258     
   34354826.6036869     
   34345517.6890690     
   34339682.2947315     
   34337684.0240228     
   32577686.3165314     
   32574741.6003526     
   32566373.3346642     
   32553551.8518887     
   32537285.8890001     
   32518571.0122740     
   32498354.5095765     
   32477515.7877252     
   32456859.4544776     
   32437117.2919082     
   32418955.1601220     
   32402981.2367194     
   32389752.6378322     
   32379778.2410722     
   32373516.4118431     
   32371367.3252287     
   30616036.9517534     
   30612749.8718852     
   30603479.0969607     
   30589395.0477148     
   30571671.8737057     
   30551431.3471190     
   30529708.8266370     
   30507439.1766659     
   30485457.9902556     
   30464512.5475611     
   30445277.2395422     
   30428369.0499580     
   30414359.6401981     
   30403781.4806808     
   30397126.4286461     
   30394836.3103081     
   28641952.7950209     
   28638303.0826587     
   28628095.0393602     
   28612739.1585468     
   28593599.8272171     
   28571934.0620728     
   28548860.9821692     
   28525357.3571179     
   28502271.2850765     
   28480345.7563041     
   28460245.3029417     
   28442580.7049098     
   28427928.0199728     
   28416839.0229631     
   28409840.9471040     
   28407424.6985093     
   26653863.0400093     
   26649837.2481637     
   26638683.3950818     
   26622099.1365624     
   26601664.4541753     
   26578775.4322508     
   26554622.2470737     
   26530201.1565644     
   26506346.6534547     
   26483771.7535286     
   26463108.3361493     
   26444942.7124249     
   26429843.0618862     
   26418375.5264606     
   26411105.8497910     
   26408584.6772322     
   24650051.1166600     
   24645645.7884670     
   24633575.9573104     
   24615882.9824735     
   24594386.0764394     
   24570614.0150973     
   24545802.0210849     
   24520931.5561159     
   24496788.9294382     
   24474026.0864163     
   24453215.7749266     
   24434898.5347747     
   24419619.8543875     
   24407954.0794016     
   24400509.8350884     
   24397912.4102092     
   22628641.5651141     
   22623868.0710498     
   22610969.1721314     
   22592398.4657502     
   22570230.3672602     
   22546100.3303738     
   22521242.0525036     
   22496573.5075912     
   22472791.0301044     
   22450451.8129421     
   22430041.7529315     
   22412032.1736220     
   22396927.6907384     
   22385301.7797227     
   22377810.6209175     
   22375174.3345118     
   20587581.8515570     
   20582474.8379386     
   20568922.6283468     
   20549872.8006933     
   20527648.3522103     
   20503928.1403532     
   20479868.2435467     
   20456260.7422476     
   20433668.8141464     
   20412525.1435389     
   20393204.7167762     
   20376086.1266365     
   20361609.9505154     
   20350332.7478548     
   20342959.9580397     
   20340332.6106801     
   18524617.0325782     
   18519250.6320341     
   18505369.6966834     
   18486503.3446690     
   18465156.4596808     
   18442921.4876320     
   18420766.2393695     
   18399292.2072882     
   18378897.6762672     
   18359874.8025049     
   18342475.2091261     
   18326965.4541630     
   18313692.4479765     
   18303164.2457552     
   18296125.1326245     
   18293568.2806044     
   16437249.3107177     
   16431777.7149686     
   16418167.6672583     
   16400582.0066279     
   16381492.6768472     
   16362171.6918778     
   16343281.3520140     
   16325196.4391744     
   16308146.1867217     
   16292289.5954948     
   16277761.8783143     
   16264714.5450158     
   16253366.4761087     
   16244117.4359116     
   16237704.8755296     
   16235300.2213143     
   14322692.6774629     
   14317443.6335231     
   14305277.4731805     
   14290803.7044452     
   14275885.2535823     
   14261216.2414297     
   14247129.2596730     
   14233792.9427137     
   14221300.6736272     
   14209711.2803605     
   14199072.9901393     
   14189443.1155078     
   14180918.0525546     
   14173683.0045124     
   14168330.0596702     
   14166208.8335331     
   12177719.3181070     
   12173672.2187467     
   12165480.2636764     
   12156872.2111768     
   12148370.9318805     
   12140210.4427754     
   12132483.9299758     
   12125232.8399406     
   12118474.7366414     
   12112216.9029034     
   12106463.7272406     
   12101222.5070338     
   12096509.3858802     
   12092373.8222890     
   12088866.9827443     
   12087211.3597745     
   10000000.0000000     
   10000000.0000000     
   10000000.0000000     
   10000000.0000000     
   10000000.0000000     
   10000000.0000000     
   10000000.0000000     
   10000000.0000000     
   10000000.0000000     
   10000000.0000000     
   10000000.0000000     
   10000000.0000000     
   10000000.0000000     
  10000000.00000000     
   10000000.0000000     
   10000000.0000000     
VECTORS u double 
    0.00000E+00         0.35661E+00         0.00000E+00
    0.00000E+00         0.31725E+00         0.00000E+00
    0.00000E+00         0.28272E+00         0.00000E+00
    0.00000E+00         0.25271E+00         0.00000E+00
    0.00000E+00         0.22665E+00         0.00000E+00
    0.00000E+00         0.20398E+00         0.00000E+00
    0.00000E+00         0.18410E+00         0.00000E+00
    0.00000E+00         0.16637E+00         0.00000E+00
    0.00000E+00         0.15013E+00         0.00000E+00
    0.00000E+00         0.13466E+00         0.00000E+00
    0.00000E+00         0.11914E+00         0.00000E+00
    0.00000E+00         0.10269E+00         0.00000E+00
    0.00000E+00         0.84230E-01         0.00000E+00
    0.00000E+00         0.62451E-01         0.00000E+00
    0.00000E+00         0.35565E-01         0.00000E+00
    0.00000E+00         0.00000E+00         0.00000E+00
    0.21439E+00         0.33407E+00         0.00000E+00
    0.18311E+00         0.30061E+00         0.00000E+00
    0.16221E+00         0.26927E+00         0.00000E+00
    0.14597E+00         0.24138E+00         0.00000E+00
    0.13252E+00         0.21692E+00         0.00000E+00
    0.12087E+00         0.19554E+00         0.00000E+00
    0.11042E+00         0.17674E+00         0.00000E+00
    0.10071E+00         0.15996E+00         0.00000E+00
    0.91404E-01         0.14456E+00         0.00000E+00
    0.82174E-01         0.12985E+00         0.00000E+00
    0.72713E-01         0.11505E+00         0.00000E+00
    0.62668E-01         0.99262E-01         0.00000E+00
    0.51587E-01         0.81443E-01         0.00000E+00
    0.38777E-01         0.60294E-01         0.00000E+00
    0.22960E-01         0.34036E-01         0.00000E+00
    0.00000E+00         0.00000E+00         0.00000E+00
    0.41280E+00         0.27912E+00         0.00000E+00
    0.35633E+00         0.25461E+00         0.00000E+00
    0.31524E+00         0.23067E+00         0.00000E+00
    0.28296E+00         0.20838E+00         0.00000E+00
    0.25611E+00         0.18837E+00         0.00000E+00
    0.23284E+00         0.17066E+00         0.00000E+00
    0.21194E+00         0.15500E+00         0.00000E+00
    0.19255E+00         0.14097E+00         0.00000E+00
    0.17395E+00         0.12806E+00         0.00000E+00
    0.15555E+00         0.11562E+00         0.00000E+00
    0.13671E+00         0.10294E+00         0.00000E+00
    0.11677E+00         0.89173E-01         0.00000E+00
    0.94872E-01         0.73319E-01         0.00000E+00
    0.69790E-01         0.54166E-01         0.00000E+00
    0.39391E-01         0.30198E-01         0.00000E+00
    0.00000E+00         0.00000E+00         0.00000E+00
    0.59394E+00         0.20141E+00         0.00000E+00
    0.51766E+00         0.18610E+00         0.00000E+00
    0.45858E+00         0.17084E+00         0.00000E+00
    0.41100E+00         0.15616E+00         0.00000E+00
    0.37108E+00         0.14263E+00         0.00000E+00
    0.33635E+00         0.13050E+00         0.00000E+00
    0.30512E+00         0.11974E+00         0.00000E+00
    0.27614E+00         0.11010E+00         0.00000E+00
    0.24838E+00         0.10118E+00         0.00000E+00
    0.22095E+00         0.92452E-01         0.00000E+00
    0.19297E+00         0.83274E-01         0.00000E+00
    0.16346E+00         0.72887E-01         0.00000E+00
    0.13129E+00         0.60396E-01         0.00000E+00
    0.94914E-01         0.44769E-01         0.00000E+00
    0.52143E-01         0.24925E-01         0.00000E+00
    0.00000E+00         0.00000E+00         0.00000E+00
    0.75823E+00         0.10599E+00         0.00000E+00
    0.66591E+00         0.99994E-01         0.00000E+00
    0.59137E+00         0.93807E-01         0.00000E+00
    0.52979E+00         0.87634E-01         0.00000E+00
    0.47747E+00         0.81834E-01         0.00000E+00
    0.43166E+00         0.76669E-01         0.00000E+00
    0.39037E+00         0.72208E-01         0.00000E+00
    0.35203E+00         0.68328E-01         0.00000E+00
    0.31535E+00         0.64747E-01         0.00000E+00
    0.27917E+00         0.61046E-01         0.00000E+00
    0.24238E+00         0.56685E-01         0.00000E+00
    0.20380E+00         0.51015E-01         0.00000E+00
    0.16211E+00         0.43283E-01         0.00000E+00
    0.11566E+00         0.32682E-01         0.00000E+00
    0.62434E-01         0.18442E-01         0.00000E+00
    0.00000E+00         0.00000E+00         0.00000E+00
    0.90618E+00        -0.36418E-02         0.00000E+00
    0.80070E+00        -0.28110E-03         0.00000E+00
    0.71297E+00         0.27815E-02         0.00000E+00
    0.63892E+00         0.55491E-02         0.00000E+00
    0.57514E+00         0.82036E-02         0.00000E+00
    0.51889E+00         0.10932E-01         0.00000E+00
    0.46798E+00         0.13822E-01         0.00000E+00
    0.42066E+00         0.16820E-01         0.00000E+00
    0.37540E+00         0.19733E-01         0.00000E+00
    0.33086E+00         0.22239E-01         0.00000E+00
    0.28575E+00         0.23905E-01         0.00000E+00
    0.23873E+00         0.24201E-01         0.00000E+00
    0.18836E+00         0.22531E-01         0.00000E+00
    0.13304E+00         0.18280E-01         0.00000E+00
    0.70927E-01         0.10897E-01         0.00000E+00
    0.00000E+00         0.00000E+00         0.00000E+00
    0.10383E+01        -0.12487E+00         0.00000E+00
    0.92198E+00        -0.11211E+00         0.00000E+00
    0.82303E+00        -0.99707E-01         0.00000E+00
    0.73804E+00        -0.87756E-01         0.00000E+00
    0.66391E+00        -0.76208E-01         0.00000E+00
    0.59802E+00        -0.64958E-01         0.00000E+00
    0.53812E+00        -0.53941E-01         0.00000E+00
    0.48233E+00        -0.43182E-01         0.00000E+00
    0.42899E+00        -0.32814E-01         0.00000E+00
    0.37660E+00        -0.23079E-01         0.00000E+00
    0.32374E+00        -0.14313E-01         0.00000E+00
    0.26897E+00        -0.69281E-02         0.00000E+00
    0.21083E+00        -0.13834E-02         0.00000E+00
    0.14774E+00         0.18624E-02         0.00000E+00
    0.78033E-01         0.24125E-02         0.00000E+00
    0.00000E+00         0.00000E+00         0.00000E+00
    0.11553E+01        -0.25561E+00         0.00000E+00
    0.10299E+01        -0.23343E+00         0.00000E+00
    0.92143E+00        -0.21161E+00         0.00000E+00
    0.82694E+00        -0.19033E+00         0.00000E+00
    0.74364E+00        -0.16960E+00         0.00000E+00
    0.66902E+00        -0.14939E+00         0.00000E+00
    0.60088E+00        -0.12967E+00         0.00000E+00
    0.53727E+00        -0.11046E+00         0.00000E+00
    0.47646E+00        -0.91852E-01         0.00000E+00
    0.41684E+00        -0.74024E-01         0.00000E+00
    0.35689E+00        -0.57230E-01         0.00000E+00
    0.29513E+00        -0.41785E-01         0.00000E+00
    0.23007E+00        -0.28032E-01         0.00000E+00
    0.16021E+00        -0.16308E-01         0.00000E+00
    0.84023E-01        -0.69005E-02         0.00000E+00
    0.00000E+00         0.00000E+00         0.00000E+00
    0.12574E+01        -0.39416E+00         0.00000E+00
    0.11246E+01        -0.36253E+00         0.00000E+00
    0.10082E+01        -0.33126E+00         0.00000E+00
    0.90553E+00        -0.30053E+00         0.00000E+00
    0.81422E+00        -0.27042E+00         0.00000E+00
    0.73186E+00        -0.24094E+00         0.00000E+00
    0.65633E+00        -0.21209E+00         0.00000E+00
    0.58566E+00        -0.18388E+00         0.00000E+00
    0.51807E+00        -0.15639E+00         0.00000E+00
    0.45191E+00        -0.12975E+00         0.00000E+00
    0.38560E+00        -0.10415E+00         0.00000E+00
    0.31763E+00        -0.79825E-01         0.00000E+00
    0.24651E+00        -0.57021E-01         0.00000E+00
    0.17080E+00        -0.35989E-01         0.00000E+00
    0.89081E-01        -0.16936E-01         0.00000E+00
    0.00000E+00         0.00000E+00         0.00000E+00
    0.13454E+01        -0.53909E+00         0.00000E+00
    0.12064E+01        -0.49800E+00         0.00000E+00
    0.10833E+01        -0.45723E+00         0.00000E+00
    0.97377E+00        -0.41697E+00         0.00000E+00
    0.87558E+00        -0.37734E+00         0.00000E+00
    0.78651E+00        -0.33835E+00         0.00000E+00
    0.70449E+00        -0.30003E+00         0.00000E+00
    0.62759E+00        -0.26240E+00         0.00000E+00
    0.55402E+00        -0.22552E+00         0.00000E+00
    0.48208E+00        -0.18949E+00         0.00000E+00
    0.41018E+00        -0.15444E+00         0.00000E+00
    0.33679E+00        -0.12055E+00         0.00000E+00
    0.26045E+00        -0.87992E-01         0.00000E+00
    0.17974E+00        -0.56956E-01         0.00000E+00
    0.93334E-01        -0.27592E-01         0.00000E+00
    0.00000E+00         0.00000E+00         0.00000E+00
    0.14195E+01        -0.68922E+00         0.00000E+00
    0.12755E+01        -0.63864E+00         0.00000E+00
    0.11469E+01        -0.58833E+00         0.00000E+00
    0.10317E+01        -0.53849E+00         0.00000E+00
    0.92773E+00        -0.48920E+00         0.00000E+00
    0.83296E+00        -0.44053E+00         0.00000E+00
    0.74540E+00        -0.39249E+00         0.00000E+00
    0.66316E+00        -0.34510E+00         0.00000E+00
    0.58443E+00        -0.29843E+00         0.00000E+00
    0.50753E+00        -0.25253E+00         0.00000E+00
    0.43084E+00        -0.20751E+00         0.00000E+00
    0.35284E+00        -0.16349E+00         0.00000E+00
    0.27207E+00        -0.12061E+00         0.00000E+00
    0.18718E+00        -0.79001E-01         0.00000E+00
    0.96868E-01        -0.38771E-01         0.00000E+00
    0.00000E+00         0.00000E+00         0.00000E+00
    0.14801E+01        -0.84350E+00         0.00000E+00
    0.13321E+01        -0.78341E+00         0.00000E+00
    0.11992E+01        -0.72354E+00         0.00000E+00
    0.10793E+01        -0.66406E+00         0.00000E+00
    0.97065E+00        -0.60503E+00         0.00000E+00
    0.87121E+00        -0.54653E+00         0.00000E+00
    0.77908E+00        -0.48856E+00         0.00000E+00
    0.69241E+00        -0.43116E+00         0.00000E+00
    0.60941E+00        -0.37437E+00         0.00000E+00
    0.52839E+00        -0.31823E+00         0.00000E+00
    0.44774E+00        -0.26282E+00         0.00000E+00
    0.36594E+00        -0.20824E+00         0.00000E+00
    0.28155E+00        -0.15457E+00         0.00000E+00
    0.19322E+00        -0.10193E+00         0.00000E+00
    0.99743E-01        -0.50381E-01         0.00000E+00
    0.00000E+00         0.00000E+00         0.00000E+00
    0.15276E+01        -0.10011E+01         0.00000E+00
    0.13765E+01        -0.93144E+00         0.00000E+00
    0.12401E+01        -0.86198E+00         0.00000E+00
    0.11167E+01        -0.79280E+00         0.00000E+00
    0.10044E+01        -0.72396E+00         0.00000E+00
    0.90126E+00        -0.65551E+00         0.00000E+00
    0.80554E+00        -0.58746E+00         0.00000E+00
    0.71538E+00        -0.51985E+00         0.00000E+00
    0.62901E+00        -0.45269E+00         0.00000E+00
    0.54475E+00        -0.38602E+00         0.00000E+00
    0.46098E+00        -0.31991E+00         0.00000E+00
    0.37619E+00        -0.25441E+00         0.00000E+00
    0.28896E+00        -0.18960E+00         0.00000E+00
    0.19796E+00        -0.12555E+00         0.00000E+00
    0.10200E+00        -0.62336E-01         0.00000E+00
    0.00000E+00         0.00000E+00         0.00000E+00
    0.15621E+01        -0.11611E+01         0.00000E+00
    0.14088E+01        -0.10819E+01         0.00000E+00
    0.12699E+01        -0.10028E+01         0.00000E+00
    0.11439E+01        -0.92393E+00         0.00000E+00
    0.10289E+01        -0.84521E+00         0.00000E+00
    0.92311E+00        -0.76673E+00         0.00000E+00
    0.82478E+00        -0.68849E+00         0.00000E+00
    0.73209E+00        -0.61050E+00         0.00000E+00
    0.64327E+00        -0.53279E+00         0.00000E+00
    0.55665E+00        -0.45538E+00         0.00000E+00
    0.47062E+00        -0.37832E+00         0.00000E+00
    0.38366E+00        -0.30165E+00         0.00000E+00
    0.29437E+00        -0.22543E+00         0.00000E+00
    0.20142E+00        -0.14971E+00         0.00000E+00
    0.10365E+00        -0.74552E-01         0.00000E+00
    0.00000E+00         0.00000E+00         0.00000E+00
    0.15839E+01        -0.13229E+01         0.00000E+00
    0.14291E+01        -0.12342E+01         0.00000E+00
    0.12886E+01        -0.11454E+01         0.00000E+00
    0.11609E+01        -0.10567E+01         0.00000E+00
    0.10442E+01        -0.96810E+00         0.00000E+00
    0.93676E+00        -0.87951E+00         0.00000E+00
    0.83681E+00        -0.79098E+00         0.00000E+00
    0.74253E+00        -0.70252E+00         0.00000E+00
    0.65220E+00        -0.61412E+00         0.00000E+00
    0.56412E+00        -0.52582E+00         0.00000E+00
    0.47669E+00        -0.43765E+00         0.00000E+00
    0.38839E+00        -0.34963E+00         0.00000E+00
    0.29781E+00        -0.26181E+00         0.00000E+00
    0.20364E+00        -0.17424E+00         0.00000E+00
    0.10472E+00        -0.86951E-01         0.00000E+00
    0.00000E+00         0.00000E+00         0.00000E+00
    0.15930E+01        -0.14859E+01         0.00000E+00
    0.14374E+01        -0.13875E+01         0.00000E+00
    0.12962E+01        -0.12891E+01         0.00000E+00
    0.11677E+01        -0.11906E+01         0.00000E+00
    0.10503E+01        -0.10920E+01         0.00000E+00
    0.94218E+00        -0.99322E+00         0.00000E+00
    0.84159E+00        -0.89434E+00         0.00000E+00
    0.74672E+00        -0.79532E+00         0.00000E+00
    0.65581E+00        -0.69617E+00         0.00000E+00
    0.56718E+00        -0.59689E+00         0.00000E+00
    0.47921E+00        -0.49750E+00         0.00000E+00
    0.39039E+00        -0.39804E+00         0.00000E+00
    0.29930E+00        -0.29852E+00         0.00000E+00
    0.20463E+00        -0.19898E+00         0.00000E+00
    0.10521E+00        -0.99457E-01         0.00000E+00
    0.00000E+00         0.00000E+00         0.00000E+00
    0.15894E+01        -0.16493E+01         0.00000E+00
    0.14338E+01        -0.15413E+01         0.00000E+00
    0.12926E+01        -0.14331E+01         0.00000E+00
    0.11643E+01        -0.13248E+01         0.00000E+00
    0.10471E+01        -0.12162E+01         0.00000E+00
    0.93936E+00        -0.11072E+01         0.00000E+00
    0.83912E+00        -0.99797E+00         0.00000E+00
    0.74462E+00        -0.88837E+00         0.00000E+00
    0.65408E+00        -0.77842E+00         0.00000E+00
    0.56580E+00        -0.66813E+00         0.00000E+00
    0.47818E+00        -0.55751E+00         0.00000E+00
    0.38966E+00        -0.44656E+00         0.00000E+00
    0.29884E+00        -0.33531E+00         0.00000E+00
    0.20439E+00        -0.22378E+00         0.00000E+00
    0.10512E+00        -0.11199E+00         0.00000E+00
    0.00000E+00         0.00000E+00         0.00000E+00
    0.15730E+01        -0.18125E+01         0.00000E+00
    0.14180E+01        -0.16948E+01         0.00000E+00
    0.12778E+01        -0.15769E+01         0.00000E+00
    0.11506E+01        -0.14587E+01         0.00000E+00
    0.10347E+01        -0.13400E+01         0.00000E+00
    0.92824E+00        -0.12209E+01         0.00000E+00
    0.82936E+00        -0.11013E+01         0.00000E+00
    0.73620E+00        -0.98109E+00         0.00000E+00
    0.64697E+00        -0.86036E+00         0.00000E+00
    0.55997E+00        -0.73909E+00         0.00000E+00
    0.47356E+00        -0.61726E+00         0.00000E+00
    0.38618E+00        -0.49488E+00         0.00000E+00
    0.29641E+00        -0.37195E+00         0.00000E+00
    0.20290E+00        -0.24848E+00         0.00000E+00
    0.10445E+00        -0.12448E+00         0.00000E+00
    0.00000E+00         0.00000E+00         0.00000E+00
    0.15436E+01        -0.19749E+01         0.00000E+00
    0.13900E+01        -0.18475E+01         0.00000E+00
    0.12516E+01        -0.17198E+01         0.00000E+00
    0.11265E+01        -0.15917E+01         0.00000E+00
    0.10129E+01        -0.14630E+01         0.00000E+00
    0.90879E+00        -0.13336E+01         0.00000E+00
    0.81225E+00        -0.12036E+01         0.00000E+00
    0.72142E+00        -0.10729E+01         0.00000E+00
    0.63446E+00        -0.94146E+00         0.00000E+00
    0.54964E+00        -0.80929E+00         0.00000E+00
    0.46531E+00        -0.67637E+00         0.00000E+00
    0.37991E+00        -0.54268E+00         0.00000E+00
    0.29197E+00        -0.40820E+00         0.00000E+00
    0.20014E+00        -0.27292E+00         0.00000E+00
    0.10319E+00        -0.13684E+00         0.00000E+00
    0.00000E+00         0.00000E+00         0.00000E+00
    0.15009E+01        -0.21357E+01         0.00000E+00
    0.13496E+01        -0.19985E+01         0.00000E+00
    0.12140E+01        -0.18610E+01         0.00000E+00
    0.10920E+01        -0.17229E+01         0.00000E+00
    0.98167E+00        -0.15842E+01         0.00000E+00
    0.88093E+00        -0.14446E+01         0.00000E+00
    0.78775E+00        -0.13043E+01         0.00000E+00
    0.70022E+00        -0.11631E+01         0.00000E+00
    0.61647E+00        -0.10211E+01         0.00000E+00
    0.53474E+00        -0.87823E+00         0.00000E+00
    0.45337E+00        -0.73440E+00         0.00000E+00
    0.37078E+00        -0.58961E+00         0.00000E+00
    0.28548E+00        -0.44380E+00         0.00000E+00
    0.19608E+00        -0.29693E+00         0.00000E+00
    0.10130E+00        -0.14899E+00         0.00000E+00
    0.00000E+00         0.00000E+00         0.00000E+00
    0.14446E+01        -0.22941E+01         0.00000E+00
    0.12965E+01        -0.21471E+01         0.00000E+00
    0.11647E+01        -0.19997E+01         0.00000E+00
    0.10469E+01        -0.18517E+01         0.00000E+00
    0.94091E+00        -0.17028E+01         0.00000E+00
    0.84459E+00        -0.15532E+01         0.00000E+00
    0.75579E+00        -0.14026E+01         0.00000E+00
    0.67253E+00        -0.12511E+01         0.00000E+00
    0.59292E+00        -0.10987E+01         0.00000E+00
    0.51518E+00        -0.94533E+00         0.00000E+00
    0.43764E+00        -0.79088E+00         0.00000E+00
    0.35870E+00        -0.63529E+00         0.00000E+00
    0.27684E+00        -0.47847E+00         0.00000E+00
    0.19064E+00        -0.32034E+00         0.00000E+00
    0.98769E-01        -0.16085E+00         0.00000E+00
    0.00000E+00         0.00000E+00         0.00000E+00
    0.13741E+01        -0.24492E+01         0.00000E+00
    0.12303E+01        -0.22923E+01         0.00000E+00
    0.11034E+01        -0.21350E+01         0.00000E+00
    0.99099E+00        -0.19769E+01         0.00000E+00
    0.89053E+00        -0.18181E+01         0.00000E+00
    0.79970E+00        -0.16583E+01         0.00000E+00
    0.71630E+00        -0.14977E+01         0.00000E+00
    0.63827E+00        -0.13361E+01         0.00000E+00
    0.56370E+00        -0.11735E+01         0.00000E+00
    0.49083E+00        -0.10100E+01         0.00000E+00
    0.41797E+00        -0.84528E+00         0.00000E+00
    0.34352E+00        -0.67930E+00         0.00000E+00
    0.26594E+00        -0.51189E+00         0.00000E+00
    0.18375E+00        -0.34293E+00         0.00000E+00
    0.95538E-01        -0.17231E+00         0.00000E+00
    0.00000E+00         0.00000E+00         0.00000E+00
    0.12890E+01        -0.25999E+01         0.00000E+00
    0.11507E+01        -0.24330E+01         0.00000E+00
    0.10301E+01        -0.22657E+01         0.00000E+00
    0.92422E+00        -0.20976E+01         0.00000E+00
    0.83044E+00        -0.19288E+01         0.00000E+00
    0.74620E+00        -0.17590E+01         0.00000E+00
    0.66919E+00        -0.15885E+01         0.00000E+00
    0.59732E+00        -0.14171E+01         0.00000E+00
    0.52868E+00        -0.12448E+01         0.00000E+00
    0.46152E+00        -0.10715E+01         0.00000E+00
    0.39417E+00        -0.89701E+00         0.00000E+00
    0.32505E+00        -0.72117E+00         0.00000E+00
    0.25260E+00        -0.54374E+00         0.00000E+00
    0.17526E+00        -0.36449E+00         0.00000E+00
    0.91541E-01        -0.18327E+00         0.00000E+00
    0.00000E+00         0.00000E+00         0.00000E+00
    0.11887E+01        -0.27448E+01         0.00000E+00
    0.10573E+01        -0.25679E+01         0.00000E+00
    0.94436E+00        -0.23906E+01         0.00000E+00
    0.84646E+00        -0.22125E+01         0.00000E+00
    0.76059E+00        -0.20337E+01         0.00000E+00
    0.68403E+00        -0.18542E+01         0.00000E+00
    0.61438E+00        -0.16740E+01         0.00000E+00
    0.54954E+00        -0.14931E+01         0.00000E+00
    0.48765E+00        -0.13115E+01         0.00000E+00
    0.42700E+00        -0.11290E+01         0.00000E+00
    0.36598E+00        -0.94544E+00         0.00000E+00
    0.30303E+00        -0.76042E+00         0.00000E+00
    0.23657E+00        -0.57364E+00         0.00000E+00
    0.16500E+00        -0.38480E+00         0.00000E+00
    0.86677E-01        -0.19364E+00         0.00000E+00
    0.00000E+00         0.00000E+00         0.00000E+00
    0.10725E+01        -0.28826E+01         0.00000E+00
    0.94977E+00        -0.26956E+01         0.00000E+00
    0.84610E+00        -0.25081E+01         0.00000E+00
    0.75764E+00        -0.23200E+01         0.00000E+00
    0.68096E+00        -0.21314E+01         0.00000E+00
    0.61315E+00        -0.19423E+01         0.00000E+00
    0.55177E+00        -0.17528E+01         0.00000E+00
    0.49477E+00        -0.15630E+01         0.00000E+00
    0.44037E+00        -0.13728E+01         0.00000E+00
    0.38697E+00        -0.11818E+01         0.00000E+00
    0.33304E+00        -0.98985E+00         0.00000E+00
    0.27708E+00        -0.79647E+00         0.00000E+00
    0.21752E+00        -0.60120E+00         0.00000E+00
    0.15269E+00        -0.40360E+00         0.00000E+00
    0.80801E-01        -0.20328E+00         0.00000E+00
    0.00000E+00         0.00000E+00         0.00000E+00
    0.93962E+00        -0.30113E+01         0.00000E+00
    0.82762E+00        -0.28141E+01         0.00000E+00
    0.73518E+00        -0.26164E+01         0.00000E+00
    0.65777E+00        -0.24184E+01         0.00000E+00
    0.59157E+00        -0.22201E+01         0.00000E+00
    0.53352E+00        -0.20218E+01         0.00000E+00
    0.48124E+00        -0.18236E+01         0.00000E+00
    0.43277E+00        -0.16255E+01         0.00000E+00
    0.38651E+00        -0.14274E+01         0.00000E+00
    0.34101E+00        -0.12289E+01         0.00000E+00
    0.29487E+00        -0.10295E+01         0.00000E+00
    0.24671E+00        -0.82873E+00         0.00000E+00
    0.19499E+00        -0.62599E+00         0.00000E+00
    0.13798E+00        -0.42063E+00         0.00000E+00
    0.73709E-01        -0.21209E+00         0.00000E+00
    0.00000E+00         0.00000E+00         0.00000E+00
    0.78938E+00        -0.31286E+01         0.00000E+00
    0.69061E+00        -0.29210E+01         0.00000E+00
    0.61163E+00        -0.27132E+01         0.00000E+00
    0.54699E+00        -0.25053E+01         0.00000E+00
    0.49251E+00        -0.22978E+01         0.00000E+00
    0.44512E+00        -0.20909E+01         0.00000E+00
    0.40260E+00        -0.18848E+01         0.00000E+00
    0.36325E+00        -0.16793E+01         0.00000E+00
    0.32566E+00        -0.14743E+01         0.00000E+00
    0.28860E+00        -0.12692E+01         0.00000E+00
    0.25089E+00        -0.10635E+01         0.00000E+00
    0.21128E+00        -0.85655E+00         0.00000E+00
    0.16834E+00        -0.64752E+00         0.00000E+00
    0.12035E+00        -0.43558E+00         0.00000E+00
    0.65103E-01        -0.21994E+00         0.00000E+00
    0.00000E+00         0.00000E+00         0.00000E+00
    0.62094E+00        -0.32316E+01         0.00000E+00
    0.53864E+00        -0.30137E+01         0.00000E+00
    0.47569E+00        -0.27957E+01         0.00000E+00
    0.42557E+00        -0.25783E+01         0.00000E+00
    0.38389E+00        -0.23622E+01         0.00000E+00
    0.34786E+00        -0.21477E+01         0.00000E+00
    0.31562E+00        -0.19347E+01         0.00000E+00
    0.28579E+00        -0.17230E+01         0.00000E+00
    0.25727E+00        -0.15123E+01         0.00000E+00
    0.22910E+00        -0.13019E+01         0.00000E+00
    0.20033E+00        -0.10911E+01         0.00000E+00
    0.16996E+00        -0.87924E+00         0.00000E+00
    0.13674E+00        -0.66528E+00         0.00000E+00
    0.99054E-01        -0.44815E+00         0.00000E+00
    0.54540E-01        -0.22669E+00         0.00000E+00
    0.00000E+00         0.00000E+00         0.00000E+00
    0.43343E+00        -0.33164E+01         0.00000E+00
    0.37195E+00        -0.30880E+01         0.00000E+00
    0.32797E+00        -0.28601E+01         0.00000E+00
    0.29386E+00        -0.26342E+01         0.00000E+00
    0.26575E+00        -0.24108E+01         0.00000E+00
    0.24154E+00        -0.21901E+01         0.00000E+00
    0.21990E+00        -0.19717E+01         0.00000E+00
    0.19988E+00        -0.17553E+01         0.00000E+00
    0.18071E+00        -0.15403E+01         0.00000E+00
    0.16175E+00        -0.13260E+01         0.00000E+00
    0.14234E+00        -0.11115E+01         0.00000E+00
    0.12175E+00        -0.89613E+00         0.00000E+00
    0.99082E-01        -0.67869E+00         0.00000E+00
    0.73029E-01        -0.45791E+00         0.00000E+00
    0.41312E-01        -0.23219E+00         0.00000E+00
    0.00000E+00         0.00000E+00         0.00000E+00
    0.22608E+00        -0.33771E+01         0.00000E+00
    0.19170E+00        -0.31383E+01         0.00000E+00
    0.16928E+00        -0.29019E+01         0.00000E+00
    0.15207E+00        -0.26695E+01         0.00000E+00
    0.13794E+00        -0.24412E+01         0.00000E+00
    0.12578E+00        -0.22164E+01         0.00000E+00
    0.11492E+00        -0.19946E+01         0.00000E+00
    0.10486E+00        -0.17752E+01         0.00000E+00
    0.95234E-01        -0.15575E+01         0.00000E+00
    0.85694E-01        -0.13407E+01         0.00000E+00
    0.75910E-01        -0.11241E+01         0.00000E+00
    0.65508E-01        -0.90657E+00         0.00000E+00
    0.54007E-01        -0.68709E+00         0.00000E+00
    0.40668E-01        -0.46427E+00         0.00000E+00
    0.24131E-01        -0.23619E+00         0.00000E+00
    0.00000E+00         0.00000E+00         0.00000E+00
    0.00000E+00        -0.34024E+01         0.00000E+00
    0.00000E+00        -0.31566E+01         0.00000E+00
    0.00000E+00        -0.29165E+01         0.00000E+00
    0.00000E+00        -0.26817E+01         0.00000E+00
    0.00000E+00        -0.24515E+01         0.00000E+00
    0.00000E+00        -0.22253E+01         0.00000E+00
    0.00000E+00        -0.20023E+01         0.00000E+00
    0.00000E+00        -0.17819E+01         0.00000E+00
    0.00000E+00        -0.15633E+01         0.00000E+00
    0.00000E+00        -0.13457E+01         0.00000E+00
    0.00000E+00        -0.11283E+01         0.00000E+00
    0.00000E+00        -0.91010E+00         0.00000E+00
    0.00000E+00        -0.68997E+00         0.00000E+00
    0.00000E+00        -0.46649E+00         0.00000E+00
    0.00000E+00        -0.23778E+00         0.00000E+00
    0.00000E+00         0.00000E+00         0.00000E+00
CELL_DATA        450
VECTORS vDarcy double 
    0.11648E-05         0.75998E-08         0.00000E+00
    0.11582E-05         0.18486E-07         0.00000E+00
    0.11569E-05         0.23493E-07         0.00000E+00
    0.11561E-05         0.26002E-07         0.00000E+00
    0.11557E-05         0.27066E-07         0.00000E+00
    0.11555E-05         0.27185E-07         0.00000E+00
    0.11553E-05         0.26631E-07         0.00000E+00
    0.11552E-05         0.25563E-07         0.00000E+00
    0.11551E-05         0.24072E-07         0.00000E+00
    0.11551E-05         0.22205E-07         0.00000E+00
    0.11550E-05         0.19963E-07         0.00000E+00
    0.11548E-05         0.17297E-07         0.00000E+00
    0.11546E-05         0.14076E-07         0.00000E+00
    0.11542E-05         0.99709E-08         0.00000E+00
    0.11518E-05         0.38268E-08         0.00000E+00
    0.11646E-05         0.33870E-08         0.00000E+00
    0.11560E-05         0.99502E-08         0.00000E+00
    0.11515E-05         0.15144E-07         0.00000E+00
    0.11492E-05         0.18314E-07         0.00000E+00
    0.11479E-05         0.20076E-07         0.00000E+00
    0.11470E-05         0.20829E-07         0.00000E+00
    0.11464E-05         0.20827E-07         0.00000E+00
    0.11460E-05         0.20230E-07         0.00000E+00
    0.11457E-05         0.19137E-07         0.00000E+00
    0.11454E-05         0.17597E-07         0.00000E+00
    0.11451E-05         0.15621E-07         0.00000E+00
    0.11446E-05         0.13167E-07         0.00000E+00
    0.11438E-05         0.10139E-07         0.00000E+00
    0.11423E-05         0.63491E-08         0.00000E+00
    0.11394E-05         0.21256E-08         0.00000E+00
    0.11595E-05         0.17581E-08         0.00000E+00
    0.11516E-05         0.55439E-08         0.00000E+00
    0.11462E-05         0.93325E-08         0.00000E+00
    0.11427E-05         0.12270E-07         0.00000E+00
    0.11405E-05         0.14200E-07         0.00000E+00
    0.11390E-05         0.15266E-07         0.00000E+00
    0.11380E-05         0.15619E-07         0.00000E+00
    0.11373E-05         0.15380E-07         0.00000E+00
    0.11367E-05         0.14632E-07         0.00000E+00
    0.11361E-05         0.13425E-07         0.00000E+00
    0.11355E-05         0.11780E-07         0.00000E+00
    0.11346E-05         0.96960E-08         0.00000E+00
    0.11334E-05         0.71650E-08         0.00000E+00
    0.11316E-05         0.42979E-08         0.00000E+00
    0.11290E-05         0.14133E-08         0.00000E+00
    0.11522E-05         0.90943E-09         0.00000E+00
    0.11453E-05         0.30378E-08         0.00000E+00
    0.11399E-05         0.55298E-08         0.00000E+00
    0.11360E-05         0.77906E-08         0.00000E+00
    0.11333E-05         0.95079E-08         0.00000E+00
    0.11313E-05         0.10609E-07         0.00000E+00
    0.11299E-05         0.11130E-07         0.00000E+00
    0.11289E-05         0.11130E-07         0.00000E+00
    0.11280E-05         0.10665E-07         0.00000E+00
    0.11272E-05         0.97788E-08         0.00000E+00
    0.11263E-05         0.85060E-08         0.00000E+00
    0.11252E-05         0.68812E-08         0.00000E+00
    0.11238E-05         0.49735E-08         0.00000E+00
    0.11220E-05         0.29242E-08         0.00000E+00
    0.11198E-05         0.95298E-09         0.00000E+00
    0.11437E-05         0.40203E-09         0.00000E+00
    0.11378E-05         0.14769E-08         0.00000E+00
    0.11328E-05         0.29886E-08         0.00000E+00
    0.11289E-05         0.45486E-08         0.00000E+00
    0.11260E-05         0.58792E-08         0.00000E+00
    0.11238E-05         0.68382E-08         0.00000E+00
    0.11221E-05         0.73821E-08         0.00000E+00
    0.11208E-05         0.75178E-08         0.00000E+00
    0.11197E-05         0.72719E-08         0.00000E+00
    0.11187E-05         0.66780E-08         0.00000E+00
    0.11176E-05         0.57755E-08         0.00000E+00
    0.11164E-05         0.46182E-08         0.00000E+00
    0.11150E-05         0.32885E-08         0.00000E+00
    0.11133E-05         0.19070E-08         0.00000E+00
    0.11114E-05         0.61976E-09         0.00000E+00
    0.11345E-05         0.75398E-10         0.00000E+00
    0.11295E-05         0.44543E-09         0.00000E+00
    0.11251E-05         0.12350E-08         0.00000E+00
    0.11215E-05         0.21945E-08         0.00000E+00
    0.11185E-05         0.31124E-08         0.00000E+00
    0.11162E-05         0.38471E-08         0.00000E+00
    0.11144E-05         0.43245E-08         0.00000E+00
    0.11129E-05         0.45188E-08         0.00000E+00
    0.11117E-05         0.44334E-08         0.00000E+00
    0.11106E-05         0.40894E-08         0.00000E+00
    0.11094E-05         0.35229E-08         0.00000E+00
    0.11082E-05         0.27863E-08         0.00000E+00
    0.11069E-05         0.19522E-08         0.00000E+00
    0.11053E-05         0.11116E-08         0.00000E+00
    0.11037E-05         0.36014E-09         0.00000E+00
    0.11250E-05        -0.14634E-09         0.00000E+00
    0.11208E-05        -0.26707E-09         0.00000E+00
    0.11170E-05        -0.11965E-10         0.00000E+00
    0.11137E-05         0.46166E-09         0.00000E+00
    0.11109E-05         0.10036E-08         0.00000E+00
    0.11087E-05         0.14964E-08         0.00000E+00
    0.11069E-05         0.18637E-08         0.00000E+00
    0.11054E-05         0.20660E-08         0.00000E+00
    0.11041E-05         0.20920E-08         0.00000E+00
    0.11029E-05         0.19513E-08         0.00000E+00
    0.11018E-05         0.16705E-08         0.00000E+00
    0.11006E-05         0.12916E-08         0.00000E+00
    0.10993E-05         0.86995E-09         0.00000E+00
    0.10980E-05         0.46902E-09         0.00000E+00
    0.10966E-05         0.14992E-09         0.00000E+00
    0.11154E-05        -0.30416E-09         0.00000E+00
    0.11118E-05        -0.77983E-09         0.00000E+00
    0.11086E-05        -0.92688E-09         0.00000E+00
    0.11057E-05        -0.83951E-09         0.00000E+00
    0.11032E-05        -0.61875E-09         0.00000E+00
    0.11012E-05        -0.35330E-09         0.00000E+00
    0.10995E-05        -0.10927E-09         0.00000E+00
    0.10980E-05         0.72084E-10         0.00000E+00
    0.10968E-05         0.17210E-09         0.00000E+00
    0.10957E-05         0.19101E-09         0.00000E+00
    0.10946E-05         0.14466E-09         0.00000E+00
    0.10935E-05         0.61548E-10         0.00000E+00
    0.10924E-05        -0.20829E-10         0.00000E+00
    0.10912E-05        -0.61636E-10         0.00000E+00
    0.10900E-05        -0.24707E-10         0.00000E+00
    0.11057E-05        -0.42287E-09         0.00000E+00
    0.11028E-05        -0.11667E-08         0.00000E+00
    0.11001E-05        -0.16238E-08         0.00000E+00
    0.10977E-05        -0.18440E-08         0.00000E+00
    0.10956E-05        -0.18905E-08         0.00000E+00
    0.10937E-05        -0.18255E-08         0.00000E+00
    0.10922E-05        -0.17011E-08         0.00000E+00
    0.10909E-05        -0.15544E-08         0.00000E+00
    0.10898E-05        -0.14066E-08         0.00000E+00
    0.10888E-05        -0.12642E-08         0.00000E+00
    0.10878E-05        -0.11212E-08         0.00000E+00
    0.10869E-05        -0.96214E-09         0.00000E+00
    0.10859E-05        -0.76530E-09         0.00000E+00
    0.10849E-05        -0.50807E-09         0.00000E+00
    0.10839E-05        -0.17272E-09         0.00000E+00
    0.10962E-05        -0.51871E-09         0.00000E+00
    0.10939E-05        -0.14766E-08         0.00000E+00
    0.10917E-05        -0.21809E-08         0.00000E+00
    0.10897E-05        -0.26495E-08         0.00000E+00
    0.10879E-05        -0.29169E-08         0.00000E+00
    0.10864E-05        -0.30233E-08         0.00000E+00
    0.10852E-05        -0.30071E-08         0.00000E+00
    0.10841E-05        -0.28989E-08         0.00000E+00
    0.10831E-05        -0.27200E-08         0.00000E+00
    0.10823E-05        -0.24815E-08         0.00000E+00
    0.10815E-05        -0.21854E-08         0.00000E+00
    0.10807E-05        -0.18272E-08         0.00000E+00
    0.10800E-05        -0.13984E-08         0.00000E+00
    0.10791E-05        -0.89086E-09         0.00000E+00
    0.10783E-05        -0.30071E-09         0.00000E+00
    0.10869E-05        -0.60291E-09         0.00000E+00
    0.10851E-05        -0.17437E-08         0.00000E+00
    0.10834E-05        -0.26538E-08         0.00000E+00
    0.10818E-05        -0.33279E-08         0.00000E+00
    0.10805E-05        -0.37789E-08         0.00000E+00
    0.10793E-05        -0.40301E-08         0.00000E+00
    0.10784E-05        -0.41076E-08         0.00000E+00
    0.10775E-05        -0.40361E-08         0.00000E+00
    0.10768E-05        -0.38355E-08         0.00000E+00
    0.10762E-05        -0.35199E-08         0.00000E+00
    0.10756E-05        -0.30976E-08         0.00000E+00
    0.10750E-05        -0.25730E-08         0.00000E+00
    0.10745E-05        -0.19482E-08         0.00000E+00
    0.10738E-05        -0.12262E-08         0.00000E+00
    0.10732E-05        -0.41377E-09         0.00000E+00
    0.10779E-05        -0.68350E-09         0.00000E+00
    0.10766E-05        -0.19924E-08         0.00000E+00
    0.10753E-05        -0.30826E-08         0.00000E+00
    0.10742E-05        -0.39322E-08         0.00000E+00
    0.10732E-05        -0.45384E-08         0.00000E+00
    0.10725E-05        -0.49113E-08         0.00000E+00
    0.10718E-05        -0.50680E-08         0.00000E+00
    0.10713E-05        -0.50278E-08         0.00000E+00
    0.10709E-05        -0.48094E-08         0.00000E+00
    0.10705E-05        -0.44287E-08         0.00000E+00
    0.10702E-05        -0.38992E-08         0.00000E+00
    0.10698E-05        -0.32319E-08         0.00000E+00
    0.10694E-05        -0.24372E-08         0.00000E+00
    0.10690E-05        -0.15269E-08         0.00000E+00
    0.10685E-05        -0.51600E-09         0.00000E+00
    0.10693E-05        -0.76630E-09         0.00000E+00
    0.10683E-05        -0.22404E-08         0.00000E+00
    0.10675E-05        -0.34968E-08         0.00000E+00
    0.10668E-05        -0.45017E-08         0.00000E+00
    0.10663E-05        -0.52414E-08         0.00000E+00
    0.10659E-05        -0.57171E-08         0.00000E+00
    0.10656E-05        -0.59392E-08         0.00000E+00
    0.10654E-05        -0.59232E-08         0.00000E+00
    0.10653E-05        -0.56868E-08         0.00000E+00
    0.10652E-05        -0.52477E-08         0.00000E+00
    0.10651E-05        -0.46231E-08         0.00000E+00
    0.10650E-05        -0.38294E-08         0.00000E+00
    0.10648E-05        -0.28833E-08         0.00000E+00
    0.10646E-05        -0.18033E-08         0.00000E+00
    0.10643E-05        -0.61062E-09         0.00000E+00
    0.10610E-05        -0.85551E-09         0.00000E+00
    0.10604E-05        -0.25006E-08         0.00000E+00
    0.10600E-05        -0.39174E-08         0.00000E+00
    0.10597E-05        -0.50646E-08         0.00000E+00
    0.10596E-05        -0.59219E-08         0.00000E+00
    0.10597E-05        -0.64845E-08         0.00000E+00
    0.10598E-05        -0.67590E-08         0.00000E+00
    0.10599E-05        -0.67589E-08         0.00000E+00
    0.10601E-05        -0.65018E-08         0.00000E+00
    0.10603E-05        -0.60070E-08         0.00000E+00
    0.10605E-05        -0.52945E-08         0.00000E+00
    0.10606E-05        -0.43851E-08         0.00000E+00
    0.10607E-05        -0.33001E-08         0.00000E+00
    0.10606E-05        -0.20630E-08         0.00000E+00
    0.10605E-05        -0.70009E-09         0.00000E+00
    0.10530E-05        -0.95403E-09         0.00000E+00
    0.10528E-05        -0.27815E-08         0.00000E+00
    0.10529E-05        -0.43587E-08         0.00000E+00
    0.10531E-05        -0.56404E-08         0.00000E+00
    0.10534E-05        -0.66028E-08         0.00000E+00
    0.10538E-05        -0.72388E-08         0.00000E+00
    0.10543E-05        -0.75536E-08         0.00000E+00
    0.10548E-05        -0.75605E-08         0.00000E+00
    0.10554E-05        -0.72781E-08         0.00000E+00
    0.10559E-05        -0.67273E-08         0.00000E+00
    0.10564E-05        -0.59308E-08         0.00000E+00
    0.10567E-05        -0.49123E-08         0.00000E+00
    0.10570E-05        -0.36969E-08         0.00000E+00
    0.10572E-05        -0.23116E-08         0.00000E+00
    0.10572E-05        -0.78612E-09         0.00000E+00
    0.10455E-05        -0.10637E-08         0.00000E+00
    0.10457E-05        -0.30887E-08         0.00000E+00
    0.10461E-05        -0.48296E-08         0.00000E+00
    0.10468E-05        -0.62406E-08         0.00000E+00
    0.10475E-05        -0.72977E-08         0.00000E+00
    0.10484E-05        -0.79947E-08         0.00000E+00
    0.10493E-05        -0.83380E-08         0.00000E+00
    0.10502E-05        -0.83428E-08         0.00000E+00
    0.10511E-05        -0.80292E-08         0.00000E+00
    0.10519E-05        -0.74207E-08         0.00000E+00
    0.10527E-05        -0.65420E-08         0.00000E+00
    0.10533E-05        -0.54190E-08         0.00000E+00
    0.10538E-05        -0.40793E-08         0.00000E+00
    0.10542E-05        -0.25521E-08         0.00000E+00
    0.10544E-05        -0.86974E-09         0.00000E+00
    0.10384E-05        -0.11854E-08         0.00000E+00
    0.10390E-05        -0.34247E-08         0.00000E+00
    0.10399E-05        -0.53340E-08         0.00000E+00
    0.10409E-05        -0.68698E-08         0.00000E+00
    0.10421E-05        -0.80117E-08         0.00000E+00
    0.10434E-05        -0.87574E-08         0.00000E+00
    0.10447E-05        -0.91173E-08         0.00000E+00
    0.10460E-05        -0.91100E-08         0.00000E+00
    0.10473E-05        -0.87592E-08         0.00000E+00
    0.10484E-05        -0.80905E-08         0.00000E+00
    0.10495E-05        -0.71308E-08         0.00000E+00
    0.10504E-05        -0.59074E-08         0.00000E+00
    0.10511E-05        -0.44488E-08         0.00000E+00
    0.10517E-05        -0.27856E-08         0.00000E+00
    0.10521E-05        -0.95129E-09         0.00000E+00
    0.10317E-05        -0.13193E-08         0.00000E+00
    0.10327E-05        -0.37895E-08         0.00000E+00
    0.10340E-05        -0.58709E-08         0.00000E+00
    0.10356E-05        -0.75261E-08         0.00000E+00
    0.10372E-05        -0.87416E-08         0.00000E+00
    0.10389E-05        -0.95225E-08         0.00000E+00
    0.10407E-05        -0.98860E-08         0.00000E+00
    0.10423E-05        -0.98566E-08         0.00000E+00
    0.10439E-05        -0.94623E-08         0.00000E+00
    0.10454E-05        -0.87317E-08         0.00000E+00
    0.10467E-05        -0.76930E-08         0.00000E+00
    0.10479E-05        -0.63742E-08         0.00000E+00
    0.10489E-05        -0.48034E-08         0.00000E+00
    0.10497E-05        -0.30109E-08         0.00000E+00
    0.10502E-05        -0.10304E-08         0.00000E+00
    0.10255E-05        -0.14645E-08         0.00000E+00
    0.10269E-05        -0.41802E-08         0.00000E+00
    0.10287E-05        -0.64348E-08         0.00000E+00
    0.10307E-05        -0.82006E-08         0.00000E+00
    0.10328E-05        -0.94755E-08         0.00000E+00
    0.10350E-05        -0.10276E-07         0.00000E+00
    0.10371E-05        -0.10628E-07         0.00000E+00
    0.10392E-05        -0.10566E-07         0.00000E+00
    0.10411E-05        -0.10123E-07         0.00000E+00
    0.10429E-05        -0.93304E-08         0.00000E+00
    0.10445E-05        -0.82171E-08         0.00000E+00
    0.10459E-05        -0.68105E-08         0.00000E+00
    0.10472E-05        -0.51370E-08         0.00000E+00
    0.10482E-05        -0.32248E-08         0.00000E+00
    0.10489E-05        -0.11062E-08         0.00000E+00
    0.10197E-05        -0.16196E-08         0.00000E+00
    0.10216E-05        -0.45914E-08         0.00000E+00
    0.10239E-05        -0.70152E-08         0.00000E+00
    0.10264E-05        -0.88775E-08         0.00000E+00
    0.10290E-05        -0.10193E-07         0.00000E+00
    0.10316E-05        -0.10992E-07         0.00000E+00
    0.10341E-05        -0.11318E-07         0.00000E+00
    0.10365E-05        -0.11213E-07         0.00000E+00
    0.10388E-05        -0.10716E-07         0.00000E+00
    0.10409E-05        -0.98638E-08         0.00000E+00
    0.10427E-05        -0.86842E-08         0.00000E+00
    0.10444E-05        -0.72021E-08         0.00000E+00
    0.10459E-05        -0.54401E-08         0.00000E+00
    0.10471E-05        -0.34221E-08         0.00000E+00
    0.10480E-05        -0.11769E-08         0.00000E+00
    0.10144E-05        -0.17820E-08         0.00000E+00
    0.10168E-05        -0.50145E-08         0.00000E+00
    0.10197E-05        -0.75957E-08         0.00000E+00
    0.10227E-05        -0.95325E-08         0.00000E+00
    0.10257E-05        -0.10862E-07         0.00000E+00
    0.10288E-05        -0.11636E-07         0.00000E+00
    0.10317E-05        -0.11916E-07         0.00000E+00
    0.10344E-05        -0.11757E-07         0.00000E+00
    0.10370E-05        -0.11205E-07         0.00000E+00
    0.10393E-05        -0.10300E-07         0.00000E+00
    0.10415E-05        -0.90679E-08         0.00000E+00
    0.10434E-05        -0.75289E-08         0.00000E+00
    0.10451E-05        -0.56990E-08         0.00000E+00
    0.10465E-05        -0.35952E-08         0.00000E+00
    0.10476E-05        -0.12405E-08         0.00000E+00
    0.10095E-05        -0.19485E-08         0.00000E+00
    0.10126E-05        -0.54376E-08         0.00000E+00
    0.10160E-05        -0.81533E-08         0.00000E+00
    0.10196E-05        -0.10131E-07         0.00000E+00
    0.10231E-05        -0.11439E-07         0.00000E+00
    0.10266E-05        -0.12159E-07         0.00000E+00
    0.10298E-05        -0.12371E-07         0.00000E+00
    0.10329E-05        -0.12148E-07         0.00000E+00
    0.10357E-05        -0.11544E-07         0.00000E+00
    0.10383E-05        -0.10598E-07         0.00000E+00
    0.10407E-05        -0.93340E-08         0.00000E+00
    0.10428E-05        -0.77649E-08         0.00000E+00
    0.10447E-05        -0.58964E-08         0.00000E+00
    0.10464E-05        -0.37349E-08         0.00000E+00
    0.10477E-05        -0.12940E-08         0.00000E+00
    0.10051E-05        -0.21142E-08         0.00000E+00
    0.10088E-05        -0.58437E-08         0.00000E+00
    0.10129E-05        -0.86558E-08         0.00000E+00
    0.10171E-05        -0.10626E-07         0.00000E+00
    0.10212E-05        -0.11866E-07         0.00000E+00
    0.10250E-05        -0.12494E-07         0.00000E+00
    0.10286E-05        -0.12618E-07         0.00000E+00
    0.10319E-05        -0.12324E-07         0.00000E+00
    0.10349E-05        -0.11674E-07         0.00000E+00
    0.10377E-05        -0.10707E-07         0.00000E+00
    0.10403E-05        -0.94410E-08         0.00000E+00
    0.10426E-05        -0.78784E-08         0.00000E+00
    0.10448E-05        -0.60111E-08         0.00000E+00
    0.10466E-05        -0.38298E-08         0.00000E+00
    0.10482E-05        -0.13342E-08         0.00000E+00
    0.10012E-05        -0.22728E-08         0.00000E+00
    0.10058E-05        -0.62093E-08         0.00000E+00
    0.10106E-05        -0.90577E-08         0.00000E+00
    0.10154E-05        -0.10954E-07         0.00000E+00
    0.10199E-05        -0.12067E-07         0.00000E+00
    0.10241E-05        -0.12563E-07         0.00000E+00
    0.10280E-05        -0.12577E-07         0.00000E+00
    0.10314E-05        -0.12210E-07         0.00000E+00
    0.10346E-05        -0.11529E-07         0.00000E+00
    0.10375E-05        -0.10569E-07         0.00000E+00
    0.10403E-05        -0.93398E-08         0.00000E+00
    0.10428E-05        -0.78316E-08         0.00000E+00
    0.10451E-05        -0.60174E-08         0.00000E+00
    0.10472E-05        -0.38663E-08         0.00000E+00
    0.10490E-05        -0.13571E-08         0.00000E+00
    0.99778E-06        -0.24149E-08         0.00000E+00
    0.10034E-05        -0.64995E-08         0.00000E+00
    0.10090E-05        -0.92937E-08         0.00000E+00
    0.10145E-05        -0.11024E-07         0.00000E+00
    0.10195E-05        -0.11942E-07         0.00000E+00
    0.10239E-05        -0.12266E-07         0.00000E+00
    0.10279E-05        -0.12158E-07         0.00000E+00
    0.10315E-05        -0.11726E-07         0.00000E+00
    0.10348E-05        -0.11036E-07         0.00000E+00
    0.10378E-05        -0.10119E-07         0.00000E+00
    0.10406E-05        -0.89750E-08         0.00000E+00
    0.10432E-05        -0.75797E-08         0.00000E+00
    0.10457E-05        -0.58843E-08         0.00000E+00
    0.10481E-05        -0.38279E-08         0.00000E+00
    0.10502E-05        -0.13583E-08         0.00000E+00
    0.99500E-06        -0.25256E-08         0.00000E+00
    0.10018E-05        -0.66593E-08         0.00000E+00
    0.10084E-05        -0.92645E-08         0.00000E+00
    0.10144E-05        -0.10713E-07         0.00000E+00
    0.10198E-05        -0.11365E-07         0.00000E+00
    0.10244E-05        -0.11491E-07         0.00000E+00
    0.10285E-05        -0.11265E-07         0.00000E+00
    0.10321E-05        -0.10790E-07         0.00000E+00
    0.10353E-05        -0.10124E-07         0.00000E+00
    0.10383E-05        -0.92915E-08         0.00000E+00
    0.10411E-05        -0.82857E-08         0.00000E+00
    0.10439E-05        -0.70700E-08         0.00000E+00
    0.10465E-05        -0.55726E-08         0.00000E+00
    0.10492E-05        -0.36933E-08         0.00000E+00
    0.10516E-05        -0.13318E-08         0.00000E+00
    0.99290E-06        -0.25776E-08         0.00000E+00
    0.10011E-05        -0.65925E-08         0.00000E+00
    0.10087E-05        -0.88112E-08         0.00000E+00
    0.10153E-05        -0.98465E-08         0.00000E+00
    0.10209E-05        -0.10187E-07         0.00000E+00
    0.10256E-05        -0.10123E-07         0.00000E+00
    0.10296E-05        -0.98107E-08         0.00000E+00
    0.10331E-05        -0.93330E-08         0.00000E+00
    0.10362E-05        -0.87336E-08         0.00000E+00
    0.10391E-05        -0.80283E-08         0.00000E+00
    0.10419E-05        -0.72093E-08         0.00000E+00
    0.10446E-05        -0.62386E-08         0.00000E+00
    0.10474E-05        -0.50287E-08         0.00000E+00
    0.10503E-05        -0.34314E-08         0.00000E+00
    0.10532E-05        -0.12694E-08         0.00000E+00
    0.99165E-06        -0.25139E-08         0.00000E+00
    0.10017E-05        -0.61078E-08         0.00000E+00
    0.10103E-05        -0.76701E-08         0.00000E+00
    0.10172E-05        -0.82063E-08         0.00000E+00
    0.10228E-05        -0.82642E-08         0.00000E+00
    0.10273E-05        -0.80719E-08         0.00000E+00
    0.10312E-05        -0.77373E-08         0.00000E+00
    0.10345E-05        -0.73142E-08         0.00000E+00
    0.10374E-05        -0.68288E-08         0.00000E+00
    0.10401E-05        -0.62901E-08         0.00000E+00
    0.10427E-05        -0.56923E-08         0.00000E+00
    0.10454E-05        -0.50088E-08         0.00000E+00
    0.10483E-05        -0.41709E-08         0.00000E+00
    0.10515E-05        -0.29883E-08         0.00000E+00
    0.10549E-05        -0.11536E-08         0.00000E+00
    0.99158E-06        -0.21493E-08         0.00000E+00
    0.10038E-05        -0.47706E-08         0.00000E+00
    0.10130E-05        -0.54713E-08         0.00000E+00
    0.10199E-05        -0.56051E-08         0.00000E+00
    0.10253E-05        -0.55092E-08         0.00000E+00
    0.10295E-05        -0.53021E-08         0.00000E+00
    0.10331E-05        -0.50361E-08         0.00000E+00
    0.10361E-05        -0.47360E-08         0.00000E+00
    0.10388E-05        -0.44138E-08         0.00000E+00
    0.10412E-05        -0.40733E-08         0.00000E+00
    0.10437E-05        -0.37122E-08         0.00000E+00
    0.10462E-05        -0.33190E-08         0.00000E+00
    0.10489E-05        -0.28631E-08         0.00000E+00
    0.10523E-05        -0.22408E-08         0.00000E+00
    0.10564E-05        -0.95948E-09         0.00000E+00
    0.99361E-06        -0.92412E-09         0.00000E+00
    0.10078E-05        -0.19026E-08         0.00000E+00
    0.10167E-05        -0.20248E-08         0.00000E+00
    0.10232E-05        -0.20205E-08         0.00000E+00
    0.10281E-05        -0.19564E-08         0.00000E+00
    0.10320E-05        -0.18663E-08         0.00000E+00
    0.10352E-05        -0.17631E-08         0.00000E+00
    0.10379E-05        -0.16529E-08         0.00000E+00
    0.10403E-05        -0.15388E-08         0.00000E+00
    0.10425E-05        -0.14217E-08         0.00000E+00
    0.10447E-05        -0.13013E-08         0.00000E+00
    0.10469E-05        -0.11755E-08         0.00000E+00
    0.10495E-05        -0.10361E-08         0.00000E+00
    0.10527E-05        -0.88290E-09         0.00000E+00
    0.10576E-05        -0.41928E-09         0.00000E+00
POINT_DATA        496
VECTORS vDarcyNodal double 
    0.11617E-05         0.10696E-07         0.00000E+00
    0.11602E-05         0.17411E-07         0.00000E+00
    0.11580E-05         0.26194E-07         0.00000E+00
    0.11568E-05         0.29222E-07         0.00000E+00
    0.11562E-05         0.30467E-07         0.00000E+00
    0.11558E-05         0.30613E-07         0.00000E+00
    0.11556E-05         0.30037E-07         0.00000E+00
    0.11554E-05         0.28935E-07         0.00000E+00
    0.11553E-05         0.27423E-07         0.00000E+00
    0.11552E-05         0.25563E-07         0.00000E+00
    0.11551E-05         0.23375E-07         0.00000E+00
    0.11549E-05         0.20839E-07         0.00000E+00
    0.11547E-05         0.17867E-07         0.00000E+00
    0.11543E-05         0.14288E-07         0.00000E+00
    0.11536E-05         0.87019E-08         0.00000E+00
    0.11531E-05         0.50830E-08         0.00000E+00
    0.11626E-05         0.44833E-08         0.00000E+00
    0.11598E-05         0.86433E-08         0.00000E+00
    0.11557E-05         0.15737E-07         0.00000E+00
    0.11536E-05         0.20217E-07         0.00000E+00
    0.11524E-05         0.22542E-07         0.00000E+00
    0.11517E-05         0.23578E-07         0.00000E+00
    0.11512E-05         0.23721E-07         0.00000E+00
    0.11509E-05         0.23202E-07         0.00000E+00
    0.11506E-05         0.22159E-07         0.00000E+00
    0.11504E-05         0.20666E-07         0.00000E+00
    0.11502E-05         0.18749E-07         0.00000E+00
    0.11499E-05         0.16383E-07         0.00000E+00
    0.11495E-05         0.13476E-07         0.00000E+00
    0.11488E-05         0.97385E-08         0.00000E+00
    0.11474E-05         0.50864E-08         0.00000E+00
    0.11465E-05         0.25671E-08         0.00000E+00
    0.11613E-05         0.22988E-08         0.00000E+00
    0.11572E-05         0.47043E-08         0.00000E+00
    0.11510E-05         0.93703E-08         0.00000E+00
    0.11473E-05         0.13253E-07         0.00000E+00
    0.11451E-05         0.15858E-07         0.00000E+00
    0.11437E-05         0.17336E-07         0.00000E+00
    0.11427E-05         0.17944E-07         0.00000E+00
    0.11420E-05         0.17863E-07         0.00000E+00
    0.11415E-05         0.17216E-07         0.00000E+00
    0.11411E-05         0.16077E-07         0.00000E+00
    0.11406E-05         0.14477E-07         0.00000E+00
    0.11400E-05         0.12413E-07         0.00000E+00
    0.11392E-05         0.98385E-08         0.00000E+00
    0.11380E-05         0.67567E-08         0.00000E+00
    0.11359E-05         0.33916E-08         0.00000E+00
    0.11346E-05         0.16851E-08         0.00000E+00
    0.11555E-05         0.12229E-08         0.00000E+00
    0.11518E-05         0.26062E-08         0.00000E+00
    0.11454E-05         0.55184E-08         0.00000E+00
    0.11410E-05         0.83631E-08         0.00000E+00
    0.11381E-05         0.10625E-07         0.00000E+00
    0.11361E-05         0.12142E-07         0.00000E+00
    0.11346E-05         0.12952E-07         0.00000E+00
    0.11336E-05         0.13146E-07         0.00000E+00
    0.11328E-05         0.12805E-07         0.00000E+00
    0.11321E-05         0.11989E-07         0.00000E+00
    0.11313E-05         0.10736E-07         0.00000E+00
    0.11305E-05         0.90703E-08         0.00000E+00
    0.11294E-05         0.70283E-08         0.00000E+00
    0.11279E-05         0.47101E-08         0.00000E+00
    0.11258E-05         0.23213E-08         0.00000E+00
    0.11246E-05         0.11422E-08         0.00000E+00
    0.11477E-05         0.59933E-09         0.00000E+00
    0.11445E-05         0.13469E-08         0.00000E+00
    0.11387E-05         0.30590E-08         0.00000E+00
    0.11343E-05         0.49689E-08         0.00000E+00
    0.11310E-05         0.66855E-08         0.00000E+00
    0.11286E-05         0.79870E-08         0.00000E+00
    0.11268E-05         0.87980E-08         0.00000E+00
    0.11254E-05         0.91237E-08         0.00000E+00
    0.11244E-05         0.89986E-08         0.00000E+00
    0.11234E-05         0.84629E-08         0.00000E+00
    0.11225E-05         0.75560E-08         0.00000E+00
    0.11215E-05         0.63228E-08         0.00000E+00
    0.11203E-05         0.48310E-08         0.00000E+00
    0.11187E-05         0.31904E-08         0.00000E+00
    0.11168E-05         0.15571E-08         0.00000E+00
    0.11157E-05         0.76427E-09         0.00000E+00
    0.11390E-05         0.20689E-09         0.00000E+00
    0.11362E-05         0.53607E-09         0.00000E+00
    0.11311E-05         0.14138E-08         0.00000E+00
    0.11269E-05         0.25777E-08         0.00000E+00
    0.11236E-05         0.37527E-08         0.00000E+00
    0.11211E-05         0.47407E-08         0.00000E+00
    0.11191E-05         0.54323E-08         0.00000E+00
    0.11176E-05         0.57856E-08         0.00000E+00
    0.11163E-05         0.57996E-08         0.00000E+00
    0.11152E-05         0.54945E-08         0.00000E+00
    0.11142E-05         0.49039E-08         0.00000E+00
    0.11130E-05         0.40760E-08         0.00000E+00
    0.11118E-05         0.30794E-08         0.00000E+00
    0.11103E-05         0.20073E-08         0.00000E+00
    0.11086E-05         0.97065E-09         0.00000E+00
    0.11077E-05         0.47569E-09         0.00000E+00
    0.11297E-05        -0.54664E-10         0.00000E+00
    0.11273E-05        -0.12448E-10         0.00000E+00
    0.11230E-05         0.27202E-09         0.00000E+00
    0.11192E-05         0.85919E-09         0.00000E+00
    0.11161E-05         0.15627E-08         0.00000E+00
    0.11135E-05         0.22276E-08         0.00000E+00
    0.11115E-05         0.27482E-08         0.00000E+00
    0.11099E-05         0.30662E-08         0.00000E+00
    0.11086E-05         0.31603E-08         0.00000E+00
    0.11074E-05         0.30351E-08         0.00000E+00
    0.11062E-05         0.27141E-08         0.00000E+00
    0.11051E-05         0.22377E-08         0.00000E+00
    0.11039E-05         0.16623E-08         0.00000E+00
    0.11025E-05         0.10585E-08         0.00000E+00
    0.11010E-05         0.50201E-09         0.00000E+00
    0.11002E-05         0.24502E-09         0.00000E+00
    0.11201E-05        -0.23704E-09         0.00000E+00
    0.11182E-05        -0.39899E-09         0.00000E+00
    0.11145E-05        -0.54712E-09         0.00000E+00
    0.11111E-05        -0.40384E-09         0.00000E+00
    0.11083E-05        -0.90601E-10         0.00000E+00
    0.11059E-05         0.27984E-09         0.00000E+00
    0.11040E-05         0.61958E-09         0.00000E+00
    0.11024E-05         0.87096E-09         0.00000E+00
    0.11011E-05         0.10045E-08         0.00000E+00
    0.10999E-05         0.10142E-08         0.00000E+00
    0.10988E-05         0.91281E-09         0.00000E+00
    0.10977E-05         0.72854E-09         0.00000E+00
    0.10965E-05         0.50219E-09         0.00000E+00
    0.10953E-05         0.28232E-09         0.00000E+00
    0.10940E-05         0.11780E-09         0.00000E+00
    0.10934E-05         0.55224E-10         0.00000E+00
    0.11105E-05        -0.37058E-09         0.00000E+00
    0.11089E-05        -0.68355E-09         0.00000E+00
    0.11058E-05        -0.11566E-08         0.00000E+00
    0.11030E-05        -0.13581E-08         0.00000E+00
    0.11005E-05        -0.13622E-08         0.00000E+00
    0.10984E-05        -0.12457E-08         0.00000E+00
    0.10966E-05        -0.10757E-08         0.00000E+00
    0.10951E-05        -0.90176E-09         0.00000E+00
    0.10939E-05        -0.75437E-09         0.00000E+00
    0.10928E-05        -0.64578E-09         0.00000E+00
    0.10918E-05        -0.57259E-09         0.00000E+00
    0.10908E-05        -0.51870E-09         0.00000E+00
    0.10897E-05        -0.45879E-09         0.00000E+00
    0.10887E-05        -0.36306E-09         0.00000E+00
    0.10876E-05        -0.20332E-09         0.00000E+00
    0.10870E-05        -0.10424E-09         0.00000E+00
    0.11009E-05        -0.47463E-09         0.00000E+00
    0.10996E-05        -0.90488E-09         0.00000E+00
    0.10971E-05        -0.16315E-08         0.00000E+00
    0.10947E-05        -0.21061E-08         0.00000E+00
    0.10927E-05        -0.23678E-08         0.00000E+00
    0.10909E-05        -0.24651E-08         0.00000E+00
    0.10894E-05        -0.24454E-08         0.00000E+00
    0.10881E-05        -0.23482E-08         0.00000E+00
    0.10870E-05        -0.22014E-08         0.00000E+00
    0.10860E-05        -0.20202E-08         0.00000E+00
    0.10852E-05        -0.18088E-08         0.00000E+00
    0.10843E-05        -0.15614E-08         0.00000E+00
    0.10834E-05        -0.12662E-08         0.00000E+00
    0.10826E-05        -0.90871E-09         0.00000E+00
    0.10816E-05        -0.47670E-09         0.00000E+00
    0.10812E-05        -0.24083E-09         0.00000E+00
    0.10915E-05        -0.56235E-09         0.00000E+00
    0.10905E-05        -0.10895E-08         0.00000E+00
    0.10885E-05        -0.20241E-08         0.00000E+00
    0.10866E-05        -0.27214E-08         0.00000E+00
    0.10849E-05        -0.31948E-08         0.00000E+00
    0.10835E-05        -0.34707E-08         0.00000E+00
    0.10823E-05        -0.35802E-08         0.00000E+00
    0.10813E-05        -0.35530E-08         0.00000E+00
    0.10804E-05        -0.34130E-08         0.00000E+00
    0.10796E-05        -0.31771E-08         0.00000E+00
    0.10789E-05        -0.28545E-08         0.00000E+00
    0.10783E-05        -0.24482E-08         0.00000E+00
    0.10776E-05        -0.19572E-08         0.00000E+00
    0.10769E-05        -0.13791E-08         0.00000E+00
    0.10762E-05        -0.71414E-09         0.00000E+00
    0.10758E-05        -0.36023E-09         0.00000E+00
    0.10824E-05        -0.64306E-09         0.00000E+00
    0.10816E-05        -0.12563E-08         0.00000E+00
    0.10800E-05        -0.23717E-08         0.00000E+00
    0.10786E-05        -0.32577E-08         0.00000E+00
    0.10774E-05        -0.39087E-08         0.00000E+00
    0.10763E-05        -0.43344E-08         0.00000E+00
    0.10755E-05        -0.45533E-08         0.00000E+00
    0.10747E-05        -0.45865E-08         0.00000E+00
    0.10741E-05        -0.44545E-08         0.00000E+00
    0.10736E-05        -0.41745E-08         0.00000E+00
    0.10732E-05        -0.37597E-08         0.00000E+00
    0.10727E-05        -0.32197E-08         0.00000E+00
    0.10722E-05        -0.25620E-08         0.00000E+00
    0.10717E-05        -0.17939E-08         0.00000E+00
    0.10712E-05        -0.92511E-09         0.00000E+00
    0.10709E-05        -0.46698E-09         0.00000E+00
    0.10736E-05        -0.72352E-09         0.00000E+00
    0.10730E-05        -0.14188E-08         0.00000E+00
    0.10719E-05        -0.27017E-08         0.00000E+00
    0.10709E-05        -0.37547E-08         0.00000E+00
    0.10701E-05        -0.45588E-08         0.00000E+00
    0.10694E-05        -0.51116E-08         0.00000E+00
    0.10689E-05        -0.54222E-08         0.00000E+00
    0.10685E-05        -0.55055E-08         0.00000E+00
    0.10682E-05        -0.53789E-08         0.00000E+00
    0.10680E-05        -0.50601E-08         0.00000E+00
    0.10678E-05        -0.45652E-08         0.00000E+00
    0.10675E-05        -0.39088E-08         0.00000E+00
    0.10673E-05        -0.31052E-08         0.00000E+00
    0.10670E-05        -0.21689E-08         0.00000E+00
    0.10666E-05        -0.11172E-08         0.00000E+00
    0.10664E-05        -0.56470E-09         0.00000E+00
    0.10651E-05        -0.80864E-09         0.00000E+00
    0.10647E-05        -0.15871E-08         0.00000E+00
    0.10640E-05        -0.30339E-08         0.00000E+00
    0.10635E-05        -0.42414E-08         0.00000E+00
    0.10631E-05        -0.51813E-08         0.00000E+00
    0.10628E-05        -0.58435E-08         0.00000E+00
    0.10627E-05        -0.62305E-08         0.00000E+00
    0.10627E-05        -0.63532E-08         0.00000E+00
    0.10627E-05        -0.62275E-08         0.00000E+00
    0.10628E-05        -0.58711E-08         0.00000E+00
    0.10628E-05        -0.53028E-08         0.00000E+00
    0.10628E-05        -0.45413E-08         0.00000E+00
    0.10628E-05        -0.36058E-08         0.00000E+00
    0.10627E-05        -0.25165E-08         0.00000E+00
    0.10625E-05        -0.12961E-08         0.00000E+00
    0.10624E-05        -0.65623E-09         0.00000E+00
    0.10569E-05        -0.90188E-09         0.00000E+00
    0.10568E-05        -0.17680E-08         0.00000E+00
    0.10565E-05        -0.33822E-08         0.00000E+00
    0.10564E-05        -0.47381E-08         0.00000E+00
    0.10564E-05        -0.58021E-08         0.00000E+00
    0.10566E-05        -0.65595E-08         0.00000E+00
    0.10569E-05        -0.70095E-08         0.00000E+00
    0.10572E-05        -0.71612E-08         0.00000E+00
    0.10576E-05        -0.70299E-08         0.00000E+00
    0.10579E-05        -0.66346E-08         0.00000E+00
    0.10583E-05        -0.59960E-08         0.00000E+00
    0.10586E-05        -0.51360E-08         0.00000E+00
    0.10588E-05        -0.40777E-08         0.00000E+00
    0.10589E-05        -0.28455E-08         0.00000E+00
    0.10589E-05        -0.14664E-08         0.00000E+00
    0.10589E-05        -0.74365E-09         0.00000E+00
    0.10492E-05        -0.10056E-08         0.00000E+00
    0.10492E-05        -0.19664E-08         0.00000E+00
    0.10493E-05        -0.37560E-08         0.00000E+00
    0.10497E-05        -0.52583E-08         0.00000E+00
    0.10502E-05        -0.64378E-08         0.00000E+00
    0.10508E-05        -0.72786E-08         0.00000E+00
    0.10514E-05        -0.77793E-08         0.00000E+00
    0.10522E-05        -0.79495E-08         0.00000E+00
    0.10529E-05        -0.78055E-08         0.00000E+00
    0.10536E-05        -0.73678E-08         0.00000E+00
    0.10542E-05        -0.66596E-08         0.00000E+00
    0.10548E-05        -0.57050E-08         0.00000E+00
    0.10553E-05        -0.45299E-08         0.00000E+00
    0.10556E-05        -0.31619E-08         0.00000E+00
    0.10558E-05        -0.16307E-08         0.00000E+00
    0.10558E-05        -0.82831E-09         0.00000E+00
    0.10419E-05        -0.11211E-08         0.00000E+00
    0.10421E-05        -0.21848E-08         0.00000E+00
    0.10426E-05        -0.41601E-08         0.00000E+00
    0.10434E-05        -0.58090E-08         0.00000E+00
    0.10443E-05        -0.70971E-08         0.00000E+00
    0.10454E-05        -0.80103E-08         0.00000E+00
    0.10464E-05        -0.85499E-08         0.00000E+00
    0.10476E-05        -0.87279E-08         0.00000E+00
    0.10486E-05        -0.85634E-08         0.00000E+00
    0.10497E-05        -0.80792E-08         0.00000E+00
    0.10506E-05        -0.73006E-08         0.00000E+00
    0.10515E-05        -0.62540E-08         0.00000E+00
    0.10522E-05        -0.49668E-08         0.00000E+00
    0.10527E-05        -0.34684E-08         0.00000E+00
    0.10531E-05        -0.17906E-08         0.00000E+00
    0.10533E-05        -0.91091E-09         0.00000E+00
    0.10350E-05        -0.12489E-08         0.00000E+00
    0.10354E-05        -0.24240E-08         0.00000E+00
    0.10364E-05        -0.45961E-08         0.00000E+00
    0.10376E-05        -0.63916E-08         0.00000E+00
    0.10389E-05        -0.77809E-08         0.00000E+00
    0.10404E-05        -0.87552E-08         0.00000E+00
    0.10419E-05        -0.93213E-08         0.00000E+00
    0.10434E-05        -0.94961E-08         0.00000E+00
    0.10449E-05        -0.93028E-08         0.00000E+00
    0.10463E-05        -0.87678E-08         0.00000E+00
    0.10475E-05        -0.79184E-08         0.00000E+00
    0.10486E-05        -0.67824E-08         0.00000E+00
    0.10496E-05        -0.53880E-08         0.00000E+00
    0.10504E-05        -0.37650E-08         0.00000E+00
    0.10510E-05        -0.19458E-08         0.00000E+00
    0.10512E-05        -0.99143E-09         0.00000E+00
    0.10285E-05        -0.13887E-08         0.00000E+00
    0.10292E-05        -0.26832E-08         0.00000E+00
    0.10306E-05        -0.50615E-08         0.00000E+00
    0.10322E-05        -0.70019E-08         0.00000E+00
    0.10341E-05        -0.84831E-08         0.00000E+00
    0.10360E-05        -0.95052E-08         0.00000E+00
    0.10379E-05        -0.10084E-07         0.00000E+00
    0.10398E-05        -0.10243E-07         0.00000E+00
    0.10416E-05        -0.10013E-07         0.00000E+00
    0.10433E-05        -0.94237E-08         0.00000E+00
    0.10449E-05        -0.85043E-08         0.00000E+00
    0.10463E-05        -0.72832E-08         0.00000E+00
    0.10475E-05        -0.57883E-08         0.00000E+00
    0.10485E-05        -0.40484E-08         0.00000E+00
    0.10493E-05        -0.20951E-08         0.00000E+00
    0.10496E-05        -0.10692E-08         0.00000E+00
    0.10225E-05        -0.15393E-08         0.00000E+00
    0.10234E-05        -0.29597E-08         0.00000E+00
    0.10253E-05        -0.55505E-08         0.00000E+00
    0.10274E-05        -0.76299E-08         0.00000E+00
    0.10297E-05        -0.91894E-08         0.00000E+00
    0.10321E-05        -0.10242E-07         0.00000E+00
    0.10345E-05        -0.10817E-07         0.00000E+00
    0.10367E-05        -0.10949E-07         0.00000E+00
    0.10389E-05        -0.10674E-07         0.00000E+00
    0.10409E-05        -0.10028E-07         0.00000E+00
    0.10428E-05        -0.90415E-08         0.00000E+00
    0.10444E-05        -0.77431E-08         0.00000E+00
    0.10459E-05        -0.61582E-08         0.00000E+00
    0.10471E-05        -0.43127E-08         0.00000E+00
    0.10481E-05        -0.22356E-08         0.00000E+00
    0.10485E-05        -0.11430E-08         0.00000E+00
    0.10169E-05        -0.16987E-08         0.00000E+00
    0.10181E-05        -0.32492E-08         0.00000E+00
    0.10205E-05        -0.60529E-08         0.00000E+00
    0.10231E-05        -0.82591E-08         0.00000E+00
    0.10260E-05        -0.98771E-08         0.00000E+00
    0.10288E-05        -0.10939E-07         0.00000E+00
    0.10315E-05        -0.11490E-07         0.00000E+00
    0.10342E-05        -0.11580E-07         0.00000E+00
    0.10367E-05        -0.11253E-07         0.00000E+00
    0.10390E-05        -0.10551E-07         0.00000E+00
    0.10411E-05        -0.95052E-08         0.00000E+00
    0.10430E-05        -0.81422E-08         0.00000E+00
    0.10447E-05        -0.64833E-08         0.00000E+00
    0.10462E-05        -0.45489E-08         0.00000E+00
    0.10473E-05        -0.23632E-08         0.00000E+00
    0.10479E-05        -0.12108E-08         0.00000E+00
    0.10118E-05        -0.18641E-08         0.00000E+00
    0.10132E-05        -0.35452E-08         0.00000E+00
    0.10162E-05        -0.65541E-08         0.00000E+00
    0.10195E-05        -0.88655E-08         0.00000E+00
    0.10228E-05        -0.10514E-07         0.00000E+00
    0.10261E-05        -0.11556E-07         0.00000E+00
    0.10292E-05        -0.12060E-07         0.00000E+00
    0.10322E-05        -0.12092E-07         0.00000E+00
    0.10350E-05        -0.11708E-07         0.00000E+00
    0.10376E-05        -0.10954E-07         0.00000E+00
    0.10400E-05        -0.98619E-08         0.00000E+00
    0.10421E-05        -0.84539E-08         0.00000E+00
    0.10440E-05        -0.67442E-08         0.00000E+00
    0.10457E-05        -0.47451E-08         0.00000E+00
    0.10471E-05        -0.24724E-08         0.00000E+00
    0.10477E-05        -0.12701E-08         0.00000E+00
    0.10072E-05        -0.20315E-08         0.00000E+00
    0.10089E-05        -0.38386E-08         0.00000E+00
    0.10126E-05        -0.70336E-08         0.00000E+00
    0.10164E-05        -0.94157E-08         0.00000E+00
    0.10203E-05        -0.11054E-07         0.00000E+00
    0.10240E-05        -0.12039E-07         0.00000E+00
    0.10275E-05        -0.12469E-07         0.00000E+00
    0.10308E-05        -0.12427E-07         0.00000E+00
    0.10339E-05        -0.11984E-07         0.00000E+00
    0.10367E-05        -0.11188E-07         0.00000E+00
    0.10392E-05        -0.10070E-07         0.00000E+00
    0.10416E-05        -0.86449E-08         0.00000E+00
    0.10437E-05        -0.69171E-08         0.00000E+00
    0.10456E-05        -0.48864E-08         0.00000E+00
    0.10472E-05        -0.25566E-08         0.00000E+00
    0.10479E-05        -0.13179E-08         0.00000E+00
    0.10030E-05        -0.21955E-08         0.00000E+00
    0.10051E-05        -0.41171E-08         0.00000E+00
    0.10095E-05        -0.74629E-08         0.00000E+00
    0.10140E-05        -0.98638E-08         0.00000E+00
    0.10184E-05        -0.11437E-07         0.00000E+00
    0.10226E-05        -0.12321E-07         0.00000E+00
    0.10265E-05        -0.12644E-07         0.00000E+00
    0.10300E-05        -0.12515E-07         0.00000E+00
    0.10332E-05        -0.12015E-07         0.00000E+00
    0.10362E-05        -0.11194E-07         0.00000E+00
    0.10389E-05        -0.10079E-07         0.00000E+00
    0.10415E-05        -0.86751E-08         0.00000E+00
    0.10438E-05        -0.69729E-08         0.00000E+00
    0.10459E-05        -0.49549E-08         0.00000E+00
    0.10478E-05        -0.26076E-08         0.00000E+00
    0.10486E-05        -0.13506E-08         0.00000E+00
    0.99938E-06        -0.23487E-08         0.00000E+00
    0.10020E-05        -0.43629E-08         0.00000E+00
    0.10072E-05        -0.78017E-08         0.00000E+00
    0.10124E-05        -0.10146E-07         0.00000E+00
    0.10174E-05        -0.11584E-07         0.00000E+00
    0.10219E-05        -0.12311E-07         0.00000E+00
    0.10260E-05        -0.12498E-07         0.00000E+00
    0.10297E-05        -0.12274E-07         0.00000E+00
    0.10331E-05        -0.11726E-07         0.00000E+00
    0.10362E-05        -0.10906E-07         0.00000E+00
    0.10390E-05        -0.98313E-08         0.00000E+00
    0.10417E-05        -0.84977E-08         0.00000E+00
    0.10442E-05        -0.68771E-08         0.00000E+00
    0.10465E-05        -0.49294E-08         0.00000E+00
    0.10486E-05        -0.26162E-08         0.00000E+00
    0.10496E-05        -0.13639E-08         0.00000E+00
    0.99632E-06        -0.24797E-08         0.00000E+00
    0.99945E-06        -0.45497E-08         0.00000E+00
    0.10057E-05        -0.79902E-08         0.00000E+00
    0.10117E-05        -0.10172E-07         0.00000E+00
    0.10171E-05        -0.11385E-07         0.00000E+00
    0.10219E-05        -0.11901E-07         0.00000E+00
    0.10262E-05        -0.11930E-07         0.00000E+00
    0.10300E-05        -0.11614E-07         0.00000E+00
    0.10334E-05        -0.11040E-07         0.00000E+00
    0.10365E-05        -0.10253E-07         0.00000E+00
    0.10394E-05        -0.92650E-08         0.00000E+00
    0.10421E-05        -0.80592E-08         0.00000E+00
    0.10448E-05        -0.65885E-08         0.00000E+00
    0.10473E-05        -0.47837E-08         0.00000E+00
    0.10497E-05        -0.25705E-08         0.00000E+00
    0.10509E-05        -0.13529E-08         0.00000E+00
    0.99391E-06        -0.25704E-08         0.00000E+00
    0.99771E-06        -0.46343E-08         0.00000E+00
    0.10051E-05        -0.79342E-08         0.00000E+00
    0.10118E-05        -0.98084E-08         0.00000E+00
    0.10177E-05        -0.10698E-07         0.00000E+00
    0.10227E-05        -0.10961E-07         0.00000E+00
    0.10270E-05        -0.10832E-07         0.00000E+00
    0.10308E-05        -0.10447E-07         0.00000E+00
    0.10342E-05        -0.98803E-08         0.00000E+00
    0.10372E-05        -0.91680E-08         0.00000E+00
    0.10400E-05        -0.83160E-08         0.00000E+00
    0.10428E-05        -0.72995E-08         0.00000E+00
    0.10455E-05        -0.60563E-08         0.00000E+00
    0.10483E-05        -0.44836E-08         0.00000E+00
    0.10510E-05        -0.24553E-08         0.00000E+00
    0.10524E-05        -0.13110E-08         0.00000E+00
    0.99229E-06        -0.25844E-08         0.00000E+00
    0.99692E-06        -0.45365E-08         0.00000E+00
    0.10056E-05        -0.74734E-08         0.00000E+00
    0.10130E-05        -0.88564E-08         0.00000E+00
    0.10191E-05        -0.93444E-08         0.00000E+00
    0.10242E-05        -0.93585E-08         0.00000E+00
    0.10284E-05        -0.91107E-08         0.00000E+00
    0.10321E-05        -0.87047E-08         0.00000E+00
    0.10353E-05        -0.81933E-08         0.00000E+00
    0.10382E-05        -0.75999E-08         0.00000E+00
    0.10409E-05        -0.69266E-08         0.00000E+00
    0.10436E-05        -0.61522E-08         0.00000E+00
    0.10463E-05        -0.52138E-08         0.00000E+00
    0.10493E-05        -0.39782E-08         0.00000E+00
    0.10524E-05        -0.22463E-08         0.00000E+00
    0.10540E-05        -0.12281E-08         0.00000E+00
    0.99178E-06        -0.24445E-08         0.00000E+00
    0.99741E-06        -0.40891E-08         0.00000E+00
    0.10074E-05        -0.63137E-08         0.00000E+00
    0.10152E-05        -0.70320E-08         0.00000E+00
    0.10213E-05        -0.71384E-08         0.00000E+00
    0.10262E-05        -0.69893E-08         0.00000E+00
    0.10303E-05        -0.67092E-08         0.00000E+00
    0.10337E-05        -0.63563E-08         0.00000E+00
    0.10366E-05        -0.59580E-08         0.00000E+00
    0.10393E-05        -0.55261E-08         0.00000E+00
    0.10419E-05        -0.50619E-08         0.00000E+00
    0.10444E-05        -0.45536E-08         0.00000E+00
    0.10471E-05        -0.39692E-08         0.00000E+00
    0.10501E-05        -0.31829E-08         0.00000E+00
    0.10536E-05        -0.18965E-08         0.00000E+00
    0.10555E-05        -0.10796E-08         0.00000E+00
    0.99319E-06        -0.18598E-08         0.00000E+00
    0.99960E-06        -0.28411E-08         0.00000E+00
    0.10105E-05        -0.39438E-08         0.00000E+00
    0.10183E-05        -0.40602E-08         0.00000E+00
    0.10241E-05        -0.39904E-08         0.00000E+00
    0.10287E-05        -0.38350E-08         0.00000E+00
    0.10324E-05        -0.36406E-08         0.00000E+00
    0.10355E-05        -0.34262E-08         0.00000E+00
    0.10382E-05        -0.32010E-08         0.00000E+00
    0.10407E-05        -0.29689E-08         0.00000E+00
    0.10430E-05        -0.27305E-08         0.00000E+00
    0.10453E-05        -0.24834E-08         0.00000E+00
    0.10478E-05        -0.22173E-08         0.00000E+00
    0.10507E-05        -0.19237E-08         0.00000E+00
    0.10546E-05        -0.13049E-08         0.00000E+00
    0.10567E-05        -0.83988E-09         0.00000E+00
    0.99453E-06         0.00000E+00         0.00000E+00
    0.10012E-05         0.00000E+00         0.00000E+00
    0.10123E-05        -0.27384E-20         0.00000E+00
    0.10200E-05         0.28391E-22         0.00000E+00
    0.10256E-05         0.30435E-20         0.00000E+00
    0.10300E-05         0.00000E+00         0.00000E+00
    0.10336E-05         0.00000E+00         0.00000E+00
    0.10365E-05        -0.28473E-20         0.00000E+00
    0.10391E-05        -0.28473E-20         0.00000E+00
    0.10414E-05         0.28768E-20         0.00000E+00
    0.10435E-05         0.31645E-20         0.00000E+00
    0.10457E-05        -0.31938E-20         0.00000E+00
    0.10481E-05        -0.27840E-21         0.00000E+00
    0.10510E-05         0.32112E-20         0.00000E+00
    0.10549E-05         0.58619E-21         0.00000E+00
    0.10572E-05         0.00000E+00         0.00000E+00
CELL_DATA        450
TENSORS stressef double 
    0.39750E+08        -0.39430E+06         0.00000E+00
   -0.39430E+06         0.72826E+07         0.00000E+00
    0.00000E+00         0.00000E+00         0.00000E+00
 
    0.34532E+08        -0.45981E+06         0.00000E+00
   -0.45981E+06         0.65871E+07         0.00000E+00
    0.00000E+00         0.00000E+00         0.00000E+00
 
    0.30818E+08        -0.42680E+06         0.00000E+00
   -0.42680E+06         0.57902E+07         0.00000E+00
    0.00000E+00         0.00000E+00         0.00000E+00
 
    0.27849E+08        -0.38048E+06         0.00000E+00
   -0.38048E+06         0.50513E+07         0.00000E+00
    0.00000E+00         0.00000E+00         0.00000E+00
 
    0.25339E+08        -0.32641E+06         0.00000E+00
   -0.32641E+06         0.44053E+07         0.00000E+00
    0.00000E+00         0.00000E+00         0.00000E+00
 
    0.23129E+08        -0.26729E+06         0.00000E+00
   -0.26729E+06         0.38682E+07         0.00000E+00
    0.00000E+00         0.00000E+00         0.00000E+00
 
    0.21113E+08        -0.20335E+06         0.00000E+00
   -0.20335E+06         0.34507E+07         0.00000E+00
    0.00000E+00         0.00000E+00         0.00000E+00
 
    0.19212E+08        -0.13389E+06         0.00000E+00
   -0.13389E+06         0.31634E+07         0.00000E+00
    0.00000E+00         0.00000E+00         0.00000E+00
 
    0.17358E+08        -0.57550E+05         0.00000E+00
   -0.57550E+05         0.30184E+07         0.00000E+00
    0.00000E+00         0.00000E+00         0.00000E+00
 
    0.15489E+08         0.27886E+05         0.00000E+00
    0.27886E+05         0.30316E+07         0.00000E+00
    0.00000E+00         0.00000E+00         0.00000E+00
 
    0.13538E+08         0.12604E+06         0.00000E+00
    0.12604E+06         0.32243E+07         0.00000E+00
    0.00000E+00         0.00000E+00         0.00000E+00
 
    0.11426E+08         0.24335E+06         0.00000E+00
    0.24335E+06         0.36278E+07         0.00000E+00
    0.00000E+00         0.00000E+00         0.00000E+00
 
    0.90364E+07         0.39332E+06         0.00000E+00
    0.39332E+06         0.42928E+07         0.00000E+00
    0.00000E+00         0.00000E+00         0.00000E+00
 
    0.61737E+07         0.60646E+06         0.00000E+00
    0.60646E+06         0.53144E+07         0.00000E+00
    0.00000E+00         0.00000E+00         0.00000E+00
 
    0.22960E+07         0.10715E+07         0.00000E+00
    0.10715E+07         0.69601E+07         0.00000E+00
    0.00000E+00         0.00000E+00         0.00000E+00
 
    0.37163E+08        -0.65927E+06         0.00000E+00
   -0.65927E+06         0.57972E+07         0.00000E+00
    0.00000E+00         0.00000E+00         0.00000E+00
 
    0.32625E+08        -0.11307E+07         0.00000E+00
   -0.11307E+07         0.55292E+07         0.00000E+00
    0.00000E+00         0.00000E+00         0.00000E+00
 
    0.29001E+08        -0.11534E+07         0.00000E+00
   -0.11534E+07         0.50172E+07         0.00000E+00
    0.00000E+00         0.00000E+00         0.00000E+00
 
    0.26058E+08        -0.10621E+07         0.00000E+00
   -0.10621E+07         0.44469E+07         0.00000E+00
    0.00000E+00         0.00000E+00         0.00000E+00
 
    0.23556E+08        -0.92548E+06         0.00000E+00
   -0.92548E+06         0.39094E+07         0.00000E+00
    0.00000E+00         0.00000E+00         0.00000E+00
 
    0.21349E+08        -0.76315E+06         0.00000E+00
   -0.76315E+06         0.34460E+07         0.00000E+00
    0.00000E+00         0.00000E+00         0.00000E+00
 
    0.19335E+08        -0.58094E+06         0.00000E+00
   -0.58094E+06         0.30807E+07         0.00000E+00
    0.00000E+00         0.00000E+00         0.00000E+00
 
    0.17438E+08        -0.37913E+06         0.00000E+00
   -0.37913E+06         0.28314E+07         0.00000E+00
    0.00000E+00         0.00000E+00         0.00000E+00
 
    0.15592E+08        -0.15482E+06         0.00000E+00
   -0.15482E+06         0.27145E+07         0.00000E+00
    0.00000E+00         0.00000E+00         0.00000E+00
 
    0.13737E+08         0.97923E+05         0.00000E+00
    0.97923E+05         0.27483E+07         0.00000E+00
    0.00000E+00         0.00000E+00         0.00000E+00
 
    0.11810E+08         0.38942E+06         0.00000E+00
    0.38942E+06         0.29555E+07         0.00000E+00
    0.00000E+00         0.00000E+00         0.00000E+00
 
    0.97387E+07         0.73836E+06         0.00000E+00
    0.73836E+06         0.33672E+07         0.00000E+00
    0.00000E+00         0.00000E+00         0.00000E+00
 
    0.74299E+07         0.11821E+07         0.00000E+00
    0.11821E+07         0.40302E+07         0.00000E+00
    0.00000E+00         0.00000E+00         0.00000E+00
 
    0.47444E+07         0.18125E+07         0.00000E+00
    0.18125E+07         0.50227E+07         0.00000E+00
    0.00000E+00         0.00000E+00         0.00000E+00
 
    0.16431E+07         0.29257E+07         0.00000E+00
    0.29257E+07         0.64234E+07         0.00000E+00
    0.00000E+00         0.00000E+00         0.00000E+00
 
    0.34247E+08        -0.67359E+06         0.00000E+00
   -0.67359E+06         0.39813E+07         0.00000E+00
    0.00000E+00         0.00000E+00         0.00000E+00
 
    0.30467E+08        -0.14084E+07         0.00000E+00
   -0.14084E+07         0.39211E+07         0.00000E+00
    0.00000E+00         0.00000E+00         0.00000E+00
 
    0.27138E+08        -0.16096E+07         0.00000E+00
   -0.16096E+07         0.36959E+07         0.00000E+00
    0.00000E+00         0.00000E+00         0.00000E+00
 
    0.24301E+08        -0.15600E+07         0.00000E+00
   -0.15600E+07         0.33544E+07         0.00000E+00
    0.00000E+00         0.00000E+00         0.00000E+00
 
    0.21848E+08        -0.13948E+07         0.00000E+00
   -0.13948E+07         0.29837E+07         0.00000E+00
    0.00000E+00         0.00000E+00         0.00000E+00
 
    0.19669E+08        -0.11642E+07         0.00000E+00
   -0.11642E+07         0.26421E+07         0.00000E+00
    0.00000E+00         0.00000E+00         0.00000E+00
 
    0.17677E+08        -0.88743E+06         0.00000E+00
   -0.88743E+06         0.23666E+07         0.00000E+00
    0.00000E+00         0.00000E+00         0.00000E+00
 
    0.15802E+08        -0.57009E+06         0.00000E+00
   -0.57009E+06         0.21840E+07         0.00000E+00
    0.00000E+00         0.00000E+00         0.00000E+00
 
    0.13984E+08        -0.21040E+06         0.00000E+00
   -0.21040E+06         0.21165E+07         0.00000E+00
    0.00000E+00         0.00000E+00         0.00000E+00
 
    0.12166E+08         0.19944E+06         0.00000E+00
    0.19944E+06         0.21858E+07         0.00000E+00
    0.00000E+00         0.00000E+00         0.00000E+00
 
    0.10294E+08         0.67467E+06         0.00000E+00
    0.67467E+06         0.24155E+07         0.00000E+00
    0.00000E+00         0.00000E+00         0.00000E+00
 
    0.83108E+07         0.12430E+07         0.00000E+00
    0.12430E+07         0.28344E+07         0.00000E+00
    0.00000E+00         0.00000E+00         0.00000E+00
 
    0.61542E+07         0.19569E+07         0.00000E+00
    0.19569E+07         0.34781E+07         0.00000E+00
    0.00000E+00         0.00000E+00         0.00000E+00
 
    0.37876E+07         0.29250E+07         0.00000E+00
    0.29250E+07         0.43811E+07         0.00000E+00
    0.00000E+00         0.00000E+00         0.00000E+00
 
    0.12752E+07         0.43131E+07         0.00000E+00
    0.43131E+07         0.55123E+07         0.00000E+00
    0.00000E+00         0.00000E+00         0.00000E+00
 
    0.31254E+08        -0.64635E+06         0.00000E+00
   -0.64635E+06         0.21301E+07         0.00000E+00
    0.00000E+00         0.00000E+00         0.00000E+00
 
    0.28105E+08        -0.14758E+07         0.00000E+00
   -0.14758E+07         0.21448E+07         0.00000E+00
    0.00000E+00         0.00000E+00         0.00000E+00
 
    0.25158E+08        -0.18202E+07         0.00000E+00
   -0.18202E+07         0.20851E+07         0.00000E+00
    0.00000E+00         0.00000E+00         0.00000E+00
 
    0.22518E+08        -0.18539E+07         0.00000E+00
   -0.18539E+07         0.19331E+07         0.00000E+00
    0.00000E+00         0.00000E+00         0.00000E+00
 
    0.20170E+08        -0.17049E+07         0.00000E+00
   -0.17049E+07         0.17291E+07         0.00000E+00
    0.00000E+00         0.00000E+00         0.00000E+00
 
    0.18057E+08        -0.14426E+07         0.00000E+00
   -0.14426E+07         0.15221E+07         0.00000E+00
    0.00000E+00         0.00000E+00         0.00000E+00
 
    0.16115E+08        -0.10994E+07         0.00000E+00
   -0.10994E+07         0.13521E+07         0.00000E+00
    0.00000E+00         0.00000E+00         0.00000E+00
 
    0.14286E+08        -0.68855E+06         0.00000E+00
   -0.68855E+06         0.12503E+07         0.00000E+00
    0.00000E+00         0.00000E+00         0.00000E+00
 
    0.12518E+08        -0.21148E+06         0.00000E+00
   -0.21148E+06         0.12430E+07         0.00000E+00
    0.00000E+00         0.00000E+00         0.00000E+00
 
    0.10763E+08         0.33928E+06         0.00000E+00
    0.33928E+06         0.13538E+07         0.00000E+00
    0.00000E+00         0.00000E+00         0.00000E+00
 
    0.89757E+07         0.98083E+06         0.00000E+00
    0.98083E+06         0.16058E+07         0.00000E+00
    0.00000E+00         0.00000E+00         0.00000E+00
 
    0.71164E+07         0.17439E+07         0.00000E+00
    0.17439E+07         0.20222E+07         0.00000E+00
    0.00000E+00         0.00000E+00         0.00000E+00
 
    0.51569E+07         0.26812E+07         0.00000E+00
    0.26812E+07         0.26229E+07         0.00000E+00
    0.00000E+00         0.00000E+00         0.00000E+00
 
    0.31040E+07         0.38715E+07         0.00000E+00
    0.38715E+07         0.34084E+07         0.00000E+00
    0.00000E+00         0.00000E+00         0.00000E+00
 
    0.10291E+07         0.54047E+07         0.00000E+00
    0.54047E+07         0.43367E+07         0.00000E+00
    0.00000E+00         0.00000E+00         0.00000E+00
 
    0.28274E+08        -0.60603E+06         0.00000E+00
   -0.60603E+06         0.26358E+06         0.00000E+00
    0.00000E+00         0.00000E+00         0.00000E+00
 
    0.25639E+08        -0.14509E+07         0.00000E+00
   -0.14509E+07         0.31240E+06         0.00000E+00
    0.00000E+00         0.00000E+00         0.00000E+00
 
    0.23072E+08        -0.18741E+07         0.00000E+00
   -0.18741E+07         0.34053E+06         0.00000E+00
    0.00000E+00         0.00000E+00         0.00000E+00
 
    0.20680E+08        -0.19805E+07         0.00000E+00
   -0.19805E+07         0.31457E+06         0.00000E+00
    0.00000E+00         0.00000E+00         0.00000E+00
 
    0.18489E+08        -0.18657E+07         0.00000E+00
   -0.18657E+07         0.24361E+06         0.00000E+00
    0.00000E+00         0.00000E+00         0.00000E+00
 
    0.16483E+08        -0.15965E+07         0.00000E+00
   -0.15965E+07         0.15715E+06         0.00000E+00
    0.00000E+00         0.00000E+00         0.00000E+00
 
    0.14623E+08        -0.12113E+07         0.00000E+00
   -0.12113E+07         0.88198E+05         0.00000E+00
    0.00000E+00         0.00000E+00         0.00000E+00
 
    0.12868E+08        -0.72911E+06         0.00000E+00
   -0.72911E+06         0.66852E+05         0.00000E+00
    0.00000E+00         0.00000E+00         0.00000E+00
 
    0.11175E+08        -0.15511E+06         0.00000E+00
   -0.15511E+06         0.11949E+06         0.00000E+00
    0.00000E+00         0.00000E+00         0.00000E+00
 
    0.95064E+07         0.51604E+06         0.00000E+00
    0.51604E+06         0.26947E+06         0.00000E+00
    0.00000E+00         0.00000E+00         0.00000E+00
 
    0.78289E+07         0.13000E+07         0.00000E+00
    0.13000E+07         0.53744E+06         0.00000E+00
    0.00000E+00         0.00000E+00         0.00000E+00
 
    0.61175E+07         0.22245E+07         0.00000E+00
    0.22245E+07         0.94012E+06         0.00000E+00
    0.00000E+00         0.00000E+00         0.00000E+00
 
    0.43635E+07         0.33306E+07         0.00000E+00
    0.33306E+07         0.14852E+07         0.00000E+00
    0.00000E+00         0.00000E+00         0.00000E+00
 
    0.25874E+07         0.46700E+07         0.00000E+00
    0.46700E+07         0.21624E+07         0.00000E+00
    0.00000E+00         0.00000E+00         0.00000E+00
 
    0.84929E+06         0.62909E+07         0.00000E+00
    0.62909E+07         0.29339E+07         0.00000E+00
    0.00000E+00         0.00000E+00         0.00000E+00
 
    0.25345E+08        -0.56084E+06         0.00000E+00
   -0.56084E+06        -0.16115E+07         0.00000E+00
    0.00000E+00         0.00000E+00         0.00000E+00
 
    0.23134E+08        -0.13818E+07         0.00000E+00
   -0.13818E+07        -0.15471E+07         0.00000E+00
    0.00000E+00         0.00000E+00         0.00000E+00
 
    0.20918E+08        -0.18375E+07         0.00000E+00
   -0.18375E+07        -0.14718E+07         0.00000E+00
    0.00000E+00         0.00000E+00         0.00000E+00
 
    0.18790E+08        -0.19907E+07         0.00000E+00
   -0.19907E+07        -0.14203E+07         0.00000E+00
    0.00000E+00         0.00000E+00         0.00000E+00
 
    0.16791E+08        -0.19077E+07         0.00000E+00
   -0.19077E+07        -0.13979E+07         0.00000E+00
    0.00000E+00         0.00000E+00         0.00000E+00
 
    0.14927E+08        -0.16427E+07         0.00000E+00
   -0.16427E+07        -0.13907E+07         0.00000E+00
    0.00000E+00         0.00000E+00         0.00000E+00
 
    0.13181E+08        -0.12324E+07         0.00000E+00
   -0.12324E+07        -0.13757E+07         0.00000E+00
    0.00000E+00         0.00000E+00         0.00000E+00
 
    0.11526E+08        -0.69778E+06         0.00000E+00
   -0.69778E+06        -0.13280E+07         0.00000E+00
    0.00000E+00         0.00000E+00         0.00000E+00
 
    0.99327E+07        -0.46986E+05         0.00000E+00
   -0.46986E+05        -0.12241E+07         0.00000E+00
    0.00000E+00         0.00000E+00         0.00000E+00
 
    0.83731E+07         0.72233E+06         0.00000E+00
    0.72233E+06        -0.10432E+07         0.00000E+00
    0.00000E+00         0.00000E+00         0.00000E+00
 
    0.68239E+07         0.16220E+07         0.00000E+00
    0.16220E+07        -0.76811E+06         0.00000E+00
    0.00000E+00         0.00000E+00         0.00000E+00
 
    0.52712E+07         0.26731E+07         0.00000E+00
    0.26731E+07        -0.38748E+06         0.00000E+00
    0.00000E+00         0.00000E+00         0.00000E+00
 
    0.37158E+07         0.39040E+07         0.00000E+00
    0.39040E+07         0.10051E+06         0.00000E+00
    0.00000E+00         0.00000E+00         0.00000E+00
 
    0.21799E+07         0.53460E+07         0.00000E+00
    0.53460E+07         0.68330E+06         0.00000E+00
    0.00000E+00         0.00000E+00         0.00000E+00
 
    0.71057E+06         0.70238E+07         0.00000E+00
    0.70238E+07         0.13309E+07         0.00000E+00
    0.00000E+00         0.00000E+00         0.00000E+00
 
    0.22481E+08        -0.51450E+06         0.00000E+00
   -0.51450E+06        -0.34930E+07         0.00000E+00
    0.00000E+00         0.00000E+00         0.00000E+00
 
    0.20629E+08        -0.12916E+07         0.00000E+00
   -0.12916E+07        -0.34225E+07         0.00000E+00
    0.00000E+00         0.00000E+00         0.00000E+00
 
    0.18730E+08        -0.17502E+07         0.00000E+00
   -0.17502E+07        -0.33237E+07         0.00000E+00
    0.00000E+00         0.00000E+00         0.00000E+00
 
    0.16863E+08        -0.19268E+07         0.00000E+00
   -0.19268E+07        -0.32276E+07         0.00000E+00
    0.00000E+00         0.00000E+00         0.00000E+00
 
    0.15073E+08        -0.18655E+07         0.00000E+00
   -0.18655E+07        -0.31458E+07         0.00000E+00
    0.00000E+00         0.00000E+00         0.00000E+00
 
    0.13377E+08        -0.16065E+07         0.00000E+00
   -0.16065E+07        -0.30737E+07         0.00000E+00
    0.00000E+00         0.00000E+00         0.00000E+00
 
    0.11771E+08        -0.11808E+07         0.00000E+00
   -0.11808E+07        -0.29971E+07         0.00000E+00
    0.00000E+00         0.00000E+00         0.00000E+00
 
    0.10242E+08        -0.60826E+06         0.00000E+00
   -0.60826E+06        -0.28977E+07         0.00000E+00
    0.00000E+00         0.00000E+00         0.00000E+00
 
    0.87703E+07         0.10143E+06         0.00000E+00
    0.10143E+06        -0.27563E+07         0.00000E+00
    0.00000E+00         0.00000E+00         0.00000E+00
 
    0.73382E+07         0.94762E+06         0.00000E+00
    0.94762E+06        -0.25559E+07         0.00000E+00
    0.00000E+00         0.00000E+00         0.00000E+00
 
    0.59304E+07         0.19375E+07         0.00000E+00
    0.19375E+07        -0.22830E+07         0.00000E+00
    0.00000E+00         0.00000E+00         0.00000E+00
 
    0.45401E+07         0.30846E+07         0.00000E+00
    0.30846E+07        -0.19298E+07         0.00000E+00
    0.00000E+00         0.00000E+00         0.00000E+00
 
    0.31722E+07         0.44066E+07         0.00000E+00
    0.44066E+07        -0.14970E+07         0.00000E+00
    0.00000E+00         0.00000E+00         0.00000E+00
 
    0.18466E+07         0.59207E+07         0.00000E+00
    0.59207E+07        -0.99574E+06         0.00000E+00
    0.00000E+00         0.00000E+00         0.00000E+00
 
    0.59896E+06         0.76371E+07         0.00000E+00
    0.76371E+07        -0.44880E+06         0.00000E+00
    0.00000E+00         0.00000E+00         0.00000E+00
 
    0.19690E+08        -0.46929E+06         0.00000E+00
   -0.46929E+06        -0.53798E+07         0.00000E+00
    0.00000E+00         0.00000E+00         0.00000E+00
 
    0.18144E+08        -0.11934E+07         0.00000E+00
   -0.11934E+07        -0.53093E+07         0.00000E+00
    0.00000E+00         0.00000E+00         0.00000E+00
 
    0.16531E+08        -0.16371E+07         0.00000E+00
   -0.16371E+07        -0.52016E+07         0.00000E+00
    0.00000E+00         0.00000E+00         0.00000E+00
 
    0.14916E+08        -0.18200E+07         0.00000E+00
   -0.18200E+07        -0.50837E+07         0.00000E+00
    0.00000E+00         0.00000E+00         0.00000E+00
 
    0.13342E+08        -0.17696E+07         0.00000E+00
   -0.17696E+07        -0.49686E+07         0.00000E+00
    0.00000E+00         0.00000E+00         0.00000E+00
 
    0.11829E+08        -0.15143E+07         0.00000E+00
   -0.15143E+07        -0.48574E+07         0.00000E+00
    0.00000E+00         0.00000E+00         0.00000E+00
 
    0.10383E+08        -0.10780E+07         0.00000E+00
   -0.10780E+07        -0.47420E+07         0.00000E+00
    0.00000E+00         0.00000E+00         0.00000E+00
 
    0.89997E+07        -0.47793E+06         0.00000E+00
   -0.47793E+06        -0.46098E+07         0.00000E+00
    0.00000E+00         0.00000E+00         0.00000E+00
 
    0.76686E+07         0.27587E+06         0.00000E+00
    0.27587E+06        -0.44467E+07         0.00000E+00
    0.00000E+00         0.00000E+00         0.00000E+00
 
    0.63786E+07         0.11804E+07         0.00000E+00
    0.11804E+07        -0.42393E+07         0.00000E+00
    0.00000E+00         0.00000E+00         0.00000E+00
 
    0.51213E+07         0.22384E+07         0.00000E+00
    0.22384E+07        -0.39774E+07         0.00000E+00
    0.00000E+00         0.00000E+00         0.00000E+00
 
    0.38940E+07         0.34569E+07         0.00000E+00
    0.34569E+07        -0.36557E+07         0.00000E+00
    0.00000E+00         0.00000E+00         0.00000E+00
 
    0.27030E+07         0.48450E+07         0.00000E+00
    0.48450E+07        -0.32756E+07         0.00000E+00
    0.00000E+00         0.00000E+00         0.00000E+00
 
    0.15648E+07         0.64099E+07         0.00000E+00
    0.64099E+07        -0.28460E+07         0.00000E+00
    0.00000E+00         0.00000E+00         0.00000E+00
 
    0.50580E+06         0.81534E+07         0.00000E+00
    0.81534E+07        -0.23836E+07         0.00000E+00
    0.00000E+00         0.00000E+00         0.00000E+00
 
    0.16970E+08        -0.42689E+06         0.00000E+00
   -0.42689E+06        -0.72713E+07         0.00000E+00
    0.00000E+00         0.00000E+00         0.00000E+00
 
    0.15691E+08        -0.10955E+07         0.00000E+00
   -0.10955E+07        -0.72047E+07         0.00000E+00
    0.00000E+00         0.00000E+00         0.00000E+00
 
    0.14336E+08        -0.15149E+07         0.00000E+00
   -0.15149E+07        -0.70983E+07         0.00000E+00
    0.00000E+00         0.00000E+00         0.00000E+00
 
    0.12961E+08        -0.16928E+07         0.00000E+00
   -0.16928E+07        -0.69747E+07         0.00000E+00
    0.00000E+00         0.00000E+00         0.00000E+00
 
    0.11602E+08        -0.16448E+07         0.00000E+00
   -0.16448E+07        -0.68465E+07         0.00000E+00
    0.00000E+00         0.00000E+00         0.00000E+00
 
    0.10282E+08        -0.13897E+07         0.00000E+00
   -0.13897E+07        -0.67174E+07         0.00000E+00
    0.00000E+00         0.00000E+00         0.00000E+00
 
    0.90102E+07        -0.94502E+06         0.00000E+00
   -0.94502E+06        -0.65835E+07         0.00000E+00
    0.00000E+00         0.00000E+00         0.00000E+00
 
    0.77882E+07        -0.32475E+06         0.00000E+00
   -0.32475E+06        -0.64368E+07         0.00000E+00
    0.00000E+00         0.00000E+00         0.00000E+00
 
    0.66117E+07         0.46163E+06         0.00000E+00
    0.46163E+06        -0.62672E+07         0.00000E+00
    0.00000E+00         0.00000E+00         0.00000E+00
 
    0.54750E+07         0.14094E+07         0.00000E+00
    0.14094E+07        -0.60648E+07         0.00000E+00
    0.00000E+00         0.00000E+00         0.00000E+00
 
    0.43742E+07         0.25176E+07         0.00000E+00
    0.25176E+07        -0.58223E+07         0.00000E+00
    0.00000E+00         0.00000E+00         0.00000E+00
 
    0.33093E+07         0.37883E+07         0.00000E+00
    0.37883E+07        -0.55358E+07         0.00000E+00
    0.00000E+00         0.00000E+00         0.00000E+00
 
    0.22864E+07         0.52240E+07         0.00000E+00
    0.52240E+07        -0.52067E+07         0.00000E+00
    0.00000E+00         0.00000E+00         0.00000E+00
 
    0.13187E+07         0.68252E+07         0.00000E+00
    0.68252E+07        -0.48418E+07         0.00000E+00
    0.00000E+00         0.00000E+00         0.00000E+00
 
    0.42530E+06         0.85879E+07         0.00000E+00
    0.85879E+07        -0.44528E+07         0.00000E+00
    0.00000E+00         0.00000E+00         0.00000E+00
 
    0.14319E+08        -0.38862E+06         0.00000E+00
   -0.38862E+06        -0.91672E+07         0.00000E+00
    0.00000E+00         0.00000E+00         0.00000E+00
 
    0.13273E+08        -0.10039E+07         0.00000E+00
   -0.10039E+07        -0.91076E+07         0.00000E+00
    0.00000E+00         0.00000E+00         0.00000E+00
 
    0.12154E+08        -0.13951E+07         0.00000E+00
   -0.13951E+07        -0.90098E+07         0.00000E+00
    0.00000E+00         0.00000E+00         0.00000E+00
 
    0.11006E+08        -0.15616E+07         0.00000E+00
   -0.15616E+07        -0.88922E+07         0.00000E+00
    0.00000E+00         0.00000E+00         0.00000E+00
 
    0.98594E+07        -0.15104E+07         0.00000E+00
   -0.15104E+07        -0.87662E+07         0.00000E+00
    0.00000E+00         0.00000E+00         0.00000E+00
 
    0.87364E+07        -0.12528E+07         0.00000E+00
   -0.12528E+07        -0.86362E+07         0.00000E+00
    0.00000E+00         0.00000E+00         0.00000E+00
 
    0.76480E+07        -0.80071E+06         0.00000E+00
   -0.80071E+06        -0.85010E+07         0.00000E+00
    0.00000E+00         0.00000E+00         0.00000E+00
 
    0.65981E+07        -0.16528E+06         0.00000E+00
   -0.16528E+06        -0.83557E+07         0.00000E+00
    0.00000E+00         0.00000E+00         0.00000E+00
 
    0.55866E+07         0.64498E+06         0.00000E+00
    0.64498E+06        -0.81933E+07         0.00000E+00
    0.00000E+00         0.00000E+00         0.00000E+00
 
    0.46115E+07         0.16242E+07         0.00000E+00
    0.16242E+07        -0.80069E+07         0.00000E+00
    0.00000E+00         0.00000E+00         0.00000E+00
 
    0.36715E+07         0.27690E+07         0.00000E+00
    0.27690E+07        -0.77912E+07         0.00000E+00
    0.00000E+00         0.00000E+00         0.00000E+00
 
    0.27681E+07         0.40774E+07         0.00000E+00
    0.40774E+07        -0.75434E+07         0.00000E+00
    0.00000E+00         0.00000E+00         0.00000E+00
 
    0.19067E+07         0.55472E+07         0.00000E+00
    0.55472E+07        -0.72646E+07         0.00000E+00
    0.00000E+00         0.00000E+00         0.00000E+00
 
    0.10972E+07         0.71744E+07         0.00000E+00
    0.71744E+07        -0.69594E+07         0.00000E+00
    0.00000E+00         0.00000E+00         0.00000E+00
 
    0.35346E+06         0.89511E+07         0.00000E+00
    0.89511E+07        -0.66362E+07         0.00000E+00
    0.00000E+00         0.00000E+00         0.00000E+00
 
    0.11728E+08        -0.35556E+06         0.00000E+00
   -0.35556E+06        -0.11067E+08         0.00000E+00
    0.00000E+00         0.00000E+00         0.00000E+00
 
    0.10890E+08        -0.92291E+06         0.00000E+00
   -0.92291E+06        -0.11017E+08         0.00000E+00
    0.00000E+00         0.00000E+00         0.00000E+00
 
    0.99874E+07        -0.12862E+07         0.00000E+00
   -0.12862E+07        -0.10933E+08         0.00000E+00
    0.00000E+00         0.00000E+00         0.00000E+00
 
    0.90544E+07        -0.14388E+07         0.00000E+00
   -0.14388E+07        -0.10831E+08         0.00000E+00
    0.00000E+00         0.00000E+00         0.00000E+00
 
    0.81169E+07        -0.13813E+07         0.00000E+00
   -0.13813E+07        -0.10718E+08         0.00000E+00
    0.00000E+00         0.00000E+00         0.00000E+00
 
    0.71928E+07        -0.11193E+07         0.00000E+00
   -0.11193E+07        -0.10601E+08         0.00000E+00
    0.00000E+00         0.00000E+00         0.00000E+00
 
    0.62930E+07        -0.66072E+06         0.00000E+00
   -0.66072E+06        -0.10478E+08         0.00000E+00
    0.00000E+00         0.00000E+00         0.00000E+00
 
    0.54228E+07        -0.13750E+05         0.00000E+00
   -0.13750E+05        -0.10347E+08         0.00000E+00
    0.00000E+00         0.00000E+00         0.00000E+00
 
    0.45837E+07         0.81394E+06         0.00000E+00
    0.81394E+06        -0.10204E+08         0.00000E+00
    0.00000E+00         0.00000E+00         0.00000E+00
 
    0.37760E+07         0.18160E+07         0.00000E+00
    0.18160E+07        -0.10043E+08         0.00000E+00
    0.00000E+00         0.00000E+00         0.00000E+00
 
    0.29998E+07         0.29870E+07         0.00000E+00
    0.29870E+07        -0.98602E+07         0.00000E+00
    0.00000E+00         0.00000E+00         0.00000E+00
 
    0.22570E+07         0.43224E+07         0.00000E+00
    0.43224E+07        -0.96544E+07         0.00000E+00
    0.00000E+00         0.00000E+00         0.00000E+00
 
    0.15521E+07         0.58166E+07         0.00000E+00
    0.58166E+07        -0.94258E+07         0.00000E+00
    0.00000E+00         0.00000E+00         0.00000E+00
 
    0.89239E+06         0.74626E+07         0.00000E+00
    0.74626E+07        -0.91775E+07         0.00000E+00
    0.00000E+00         0.00000E+00         0.00000E+00
 
    0.28744E+06         0.92500E+07         0.00000E+00
    0.92500E+07        -0.89152E+07         0.00000E+00
    0.00000E+00         0.00000E+00         0.00000E+00
 
    0.91871E+07        -0.32858E+06         0.00000E+00
   -0.32858E+06        -0.12972E+08         0.00000E+00
    0.00000E+00         0.00000E+00         0.00000E+00
 
    0.85375E+07        -0.85591E+06         0.00000E+00
   -0.85591E+06        -0.12933E+08         0.00000E+00
    0.00000E+00         0.00000E+00         0.00000E+00
 
    0.78362E+07        -0.11946E+07         0.00000E+00
   -0.11946E+07        -0.12867E+08         0.00000E+00
    0.00000E+00         0.00000E+00         0.00000E+00
 
    0.71091E+07        -0.13335E+07         0.00000E+00
   -0.13335E+07        -0.12786E+08         0.00000E+00
    0.00000E+00         0.00000E+00         0.00000E+00
 
    0.63758E+07        -0.12688E+07         0.00000E+00
   -0.12688E+07        -0.12696E+08         0.00000E+00
    0.00000E+00         0.00000E+00         0.00000E+00
 
    0.56507E+07        -0.10020E+07         0.00000E+00
   -0.10020E+07        -0.12601E+08         0.00000E+00
    0.00000E+00         0.00000E+00         0.00000E+00
 
    0.49427E+07        -0.53754E+06         0.00000E+00
   -0.53754E+06        -0.12501E+08         0.00000E+00
    0.00000E+00         0.00000E+00         0.00000E+00
 
    0.42569E+07         0.11823E+06         0.00000E+00
    0.11823E+06        -0.12396E+08         0.00000E+00
    0.00000E+00         0.00000E+00         0.00000E+00
 
    0.35954E+07         0.95862E+06         0.00000E+00
    0.95862E+06        -0.12280E+08         0.00000E+00
    0.00000E+00         0.00000E+00         0.00000E+00
 
    0.29590E+07         0.19770E+07         0.00000E+00
    0.19770E+07        -0.12152E+08         0.00000E+00
    0.00000E+00         0.00000E+00         0.00000E+00
 
    0.23487E+07         0.31669E+07         0.00000E+00
    0.31669E+07        -0.12008E+08         0.00000E+00
    0.00000E+00         0.00000E+00         0.00000E+00
 
    0.17661E+07         0.45215E+07         0.00000E+00
    0.45215E+07        -0.11847E+08         0.00000E+00
    0.00000E+00         0.00000E+00         0.00000E+00
 
    0.12144E+07         0.60334E+07         0.00000E+00
    0.60334E+07        -0.11669E+08         0.00000E+00
    0.00000E+00         0.00000E+00         0.00000E+00
 
    0.69864E+06         0.76932E+07         0.00000E+00
    0.76932E+07        -0.11476E+08         0.00000E+00
    0.00000E+00         0.00000E+00         0.00000E+00
 
    0.22524E+06         0.94892E+07         0.00000E+00
    0.94892E+07        -0.11272E+08         0.00000E+00
    0.00000E+00         0.00000E+00         0.00000E+00
 
    0.66853E+07        -0.30839E+06         0.00000E+00
   -0.30839E+06        -0.14881E+08         0.00000E+00
    0.00000E+00         0.00000E+00         0.00000E+00
 
    0.62089E+07        -0.80537E+06         0.00000E+00
   -0.80537E+06        -0.14854E+08         0.00000E+00
    0.00000E+00         0.00000E+00         0.00000E+00
 
    0.56975E+07        -0.11247E+07         0.00000E+00
   -0.11247E+07        -0.14810E+08         0.00000E+00
    0.00000E+00         0.00000E+00         0.00000E+00
 
    0.51686E+07        -0.12523E+07         0.00000E+00
   -0.12523E+07        -0.14755E+08         0.00000E+00
    0.00000E+00         0.00000E+00         0.00000E+00
 
    0.46359E+07        -0.11812E+07         0.00000E+00
   -0.11812E+07        -0.14694E+08         0.00000E+00
    0.00000E+00         0.00000E+00         0.00000E+00
 
    0.41092E+07        -0.90994E+06         0.00000E+00
   -0.90994E+06        -0.14629E+08         0.00000E+00
    0.00000E+00         0.00000E+00         0.00000E+00
 
    0.35948E+07        -0.44074E+06         0.00000E+00
   -0.44074E+06        -0.14560E+08         0.00000E+00
    0.00000E+00         0.00000E+00         0.00000E+00
 
    0.30965E+07         0.22168E+06         0.00000E+00
    0.22168E+06        -0.14487E+08         0.00000E+00
    0.00000E+00         0.00000E+00         0.00000E+00
 
    0.26159E+07         0.10713E+07         0.00000E+00
    0.10713E+07        -0.14407E+08         0.00000E+00
    0.00000E+00         0.00000E+00         0.00000E+00
 
    0.21538E+07         0.21013E+07         0.00000E+00
    0.21013E+07        -0.14318E+08         0.00000E+00
    0.00000E+00         0.00000E+00         0.00000E+00
 
    0.17108E+07         0.33046E+07         0.00000E+00
    0.33046E+07        -0.14217E+08         0.00000E+00
    0.00000E+00         0.00000E+00         0.00000E+00
 
    0.12879E+07         0.46730E+07         0.00000E+00
    0.46730E+07        -0.14103E+08         0.00000E+00
    0.00000E+00         0.00000E+00         0.00000E+00
 
    0.88728E+06         0.61978E+07         0.00000E+00
    0.61978E+07        -0.13976E+08         0.00000E+00
    0.00000E+00         0.00000E+00         0.00000E+00
 
    0.51184E+06         0.78681E+07         0.00000E+00
    0.78681E+07        -0.13838E+08         0.00000E+00
    0.00000E+00         0.00000E+00         0.00000E+00
 
    0.16544E+06         0.96714E+07         0.00000E+00
    0.96714E+07        -0.13689E+08         0.00000E+00
    0.00000E+00         0.00000E+00         0.00000E+00
 
    0.42089E+07        -0.29552E+06         0.00000E+00
   -0.29552E+06        -0.16795E+08         0.00000E+00
    0.00000E+00         0.00000E+00         0.00000E+00
 
    0.38956E+07        -0.77310E+06         0.00000E+00
   -0.77310E+06        -0.16782E+08         0.00000E+00
    0.00000E+00         0.00000E+00         0.00000E+00
 
    0.35663E+07        -0.10800E+07         0.00000E+00
   -0.10800E+07        -0.16761E+08         0.00000E+00
    0.00000E+00         0.00000E+00         0.00000E+00
 
    0.32305E+07        -0.12002E+07         0.00000E+00
   -0.12002E+07        -0.16735E+08         0.00000E+00
    0.00000E+00         0.00000E+00         0.00000E+00
 
    0.28955E+07        -0.11246E+07         0.00000E+00
   -0.11246E+07        -0.16707E+08         0.00000E+00
    0.00000E+00         0.00000E+00         0.00000E+00
 
    0.25667E+07        -0.84994E+06         0.00000E+00
   -0.84994E+06        -0.16677E+08         0.00000E+00
    0.00000E+00         0.00000E+00         0.00000E+00
 
    0.22470E+07        -0.37714E+06         0.00000E+00
   -0.37714E+06        -0.16645E+08         0.00000E+00
    0.00000E+00         0.00000E+00         0.00000E+00
 
    0.19381E+07         0.29013E+06         0.00000E+00
    0.29013E+06        -0.16610E+08         0.00000E+00
    0.00000E+00         0.00000E+00         0.00000E+00
 
    0.16407E+07         0.11463E+07         0.00000E+00
    0.11463E+07        -0.16571E+08         0.00000E+00
    0.00000E+00         0.00000E+00         0.00000E+00
 
    0.13548E+07         0.21845E+07         0.00000E+00
    0.21845E+07        -0.16524E+08         0.00000E+00
    0.00000E+00         0.00000E+00         0.00000E+00
 
    0.10801E+07         0.33972E+07         0.00000E+00
    0.33972E+07        -0.16469E+08         0.00000E+00
    0.00000E+00         0.00000E+00         0.00000E+00
 
    0.81709E+06         0.47756E+07         0.00000E+00
    0.47756E+07        -0.16404E+08         0.00000E+00
    0.00000E+00         0.00000E+00         0.00000E+00
 
    0.56631E+06         0.63098E+07         0.00000E+00
    0.63098E+07        -0.16329E+08         0.00000E+00
    0.00000E+00         0.00000E+00         0.00000E+00
 
    0.32905E+06         0.79886E+07         0.00000E+00
    0.79886E+07        -0.16244E+08         0.00000E+00
    0.00000E+00         0.00000E+00         0.00000E+00
 
    0.10700E+06         0.97985E+07         0.00000E+00
    0.97985E+07        -0.16150E+08         0.00000E+00
    0.00000E+00         0.00000E+00         0.00000E+00
 
    0.17437E+07        -0.29032E+06         0.00000E+00
   -0.29032E+06        -0.18715E+08         0.00000E+00
    0.00000E+00         0.00000E+00         0.00000E+00
 
    0.15878E+07        -0.76032E+06         0.00000E+00
   -0.76032E+06        -0.18716E+08         0.00000E+00
    0.00000E+00         0.00000E+00         0.00000E+00
 
    0.14362E+07        -0.10626E+07         0.00000E+00
   -0.10626E+07        -0.18719E+08         0.00000E+00
    0.00000E+00         0.00000E+00         0.00000E+00
 
    0.12907E+07        -0.11799E+07         0.00000E+00
   -0.11799E+07        -0.18725E+08         0.00000E+00
    0.00000E+00         0.00000E+00         0.00000E+00
 
    0.11523E+07        -0.11025E+07         0.00000E+00
   -0.11025E+07        -0.18732E+08         0.00000E+00
    0.00000E+00         0.00000E+00         0.00000E+00
 
    0.10212E+07        -0.82616E+06         0.00000E+00
   -0.82616E+06        -0.18741E+08         0.00000E+00
    0.00000E+00         0.00000E+00         0.00000E+00
 
    0.89701E+06        -0.35108E+06         0.00000E+00
   -0.35108E+06        -0.18749E+08         0.00000E+00
    0.00000E+00         0.00000E+00         0.00000E+00
 
    0.77904E+06         0.31943E+06         0.00000E+00
    0.31943E+06        -0.18755E+08         0.00000E+00
    0.00000E+00         0.00000E+00         0.00000E+00
 
    0.66630E+06         0.11800E+07         0.00000E+00
    0.11800E+07        -0.18758E+08         0.00000E+00
    0.00000E+00         0.00000E+00         0.00000E+00
 
    0.55774E+06         0.22238E+07         0.00000E+00
    0.22238E+07        -0.18756E+08         0.00000E+00
    0.00000E+00         0.00000E+00         0.00000E+00
 
    0.45236E+06         0.34428E+07         0.00000E+00
    0.34428E+07        -0.18748E+08         0.00000E+00
    0.00000E+00         0.00000E+00         0.00000E+00
 
    0.34933E+06         0.48281E+07         0.00000E+00
    0.48281E+07        -0.18734E+08         0.00000E+00
    0.00000E+00         0.00000E+00         0.00000E+00
 
    0.24802E+06         0.63694E+07         0.00000E+00
    0.63694E+07        -0.18711E+08         0.00000E+00
    0.00000E+00         0.00000E+00         0.00000E+00
 
    0.14803E+06         0.80550E+07         0.00000E+00
    0.80550E+07        -0.18681E+08         0.00000E+00
    0.00000E+00         0.00000E+00         0.00000E+00
 
    0.49168E+05         0.98713E+07         0.00000E+00
    0.98713E+07        -0.18641E+08         0.00000E+00
    0.00000E+00         0.00000E+00         0.00000E+00
 
   -0.72553E+06        -0.29299E+06         0.00000E+00
   -0.29299E+06        -0.20640E+08         0.00000E+00
    0.00000E+00         0.00000E+00         0.00000E+00
 
   -0.72531E+06        -0.76762E+06         0.00000E+00
   -0.76762E+06        -0.20656E+08         0.00000E+00
    0.00000E+00         0.00000E+00         0.00000E+00
 
   -0.69977E+06        -0.10734E+07         0.00000E+00
   -0.10734E+07        -0.20685E+08         0.00000E+00
    0.00000E+00         0.00000E+00         0.00000E+00
 
   -0.65507E+06        -0.11931E+07         0.00000E+00
   -0.11931E+07        -0.20722E+08         0.00000E+00
    0.00000E+00         0.00000E+00         0.00000E+00
 
   -0.59672E+06        -0.11169E+07         0.00000E+00
   -0.11169E+07        -0.20766E+08         0.00000E+00
    0.00000E+00         0.00000E+00         0.00000E+00
 
   -0.52949E+06        -0.84059E+06         0.00000E+00
   -0.84059E+06        -0.20813E+08         0.00000E+00
    0.00000E+00         0.00000E+00         0.00000E+00
 
   -0.45735E+06        -0.36461E+06         0.00000E+00
   -0.36461E+06        -0.20862E+08         0.00000E+00
    0.00000E+00         0.00000E+00         0.00000E+00
 
   -0.38352E+06         0.30765E+06         0.00000E+00
    0.30765E+06        -0.20910E+08         0.00000E+00
    0.00000E+00         0.00000E+00         0.00000E+00
 
   -0.31065E+06         0.11707E+07         0.00000E+00
    0.11707E+07        -0.20957E+08         0.00000E+00
    0.00000E+00         0.00000E+00         0.00000E+00
 
   -0.24094E+06         0.22176E+07         0.00000E+00
    0.22176E+07        -0.21001E+08         0.00000E+00
    0.00000E+00         0.00000E+00         0.00000E+00
 
   -0.17638E+06         0.34404E+07         0.00000E+00
    0.34404E+07        -0.21041E+08         0.00000E+00
    0.00000E+00         0.00000E+00         0.00000E+00
 
   -0.11890E+06         0.48301E+07         0.00000E+00
    0.48301E+07        -0.21077E+08         0.00000E+00
    0.00000E+00         0.00000E+00         0.00000E+00
 
   -0.70439E+05         0.63764E+07         0.00000E+00
    0.63764E+07        -0.21107E+08         0.00000E+00
    0.00000E+00         0.00000E+00         0.00000E+00
 
   -0.33021E+05         0.80675E+07         0.00000E+00
    0.80675E+07        -0.21130E+08         0.00000E+00
    0.00000E+00         0.00000E+00         0.00000E+00
 
   -0.86640E+04         0.98900E+07         0.00000E+00
    0.98900E+07        -0.21145E+08         0.00000E+00
    0.00000E+00         0.00000E+00         0.00000E+00
 
   -0.32142E+07        -0.30356E+06         0.00000E+00
   -0.30356E+06        -0.22573E+08         0.00000E+00
    0.00000E+00         0.00000E+00         0.00000E+00
 
   -0.30546E+07        -0.79508E+06         0.00000E+00
   -0.79508E+06        -0.22603E+08         0.00000E+00
    0.00000E+00         0.00000E+00         0.00000E+00
 
   -0.28491E+07        -0.11126E+07         0.00000E+00
   -0.11126E+07        -0.22657E+08         0.00000E+00
    0.00000E+00         0.00000E+00         0.00000E+00
 
   -0.26118E+07        -0.12397E+07         0.00000E+00
   -0.12397E+07        -0.22726E+08         0.00000E+00
    0.00000E+00         0.00000E+00         0.00000E+00
 
   -0.23548E+07        -0.11675E+07         0.00000E+00
   -0.11675E+07        -0.22805E+08         0.00000E+00
    0.00000E+00         0.00000E+00         0.00000E+00
 
   -0.20878E+07        -0.89305E+06         0.00000E+00
   -0.89305E+06        -0.22890E+08         0.00000E+00
    0.00000E+00         0.00000E+00         0.00000E+00
 
   -0.18184E+07        -0.41750E+06         0.00000E+00
   -0.41750E+06        -0.22978E+08         0.00000E+00
    0.00000E+00         0.00000E+00         0.00000E+00
 
   -0.15522E+07         0.25503E+06         0.00000E+00
    0.25503E+06        -0.23067E+08         0.00000E+00
    0.00000E+00         0.00000E+00         0.00000E+00
 
   -0.12932E+07         0.11186E+07         0.00000E+00
    0.11186E+07        -0.23156E+08         0.00000E+00
    0.00000E+00         0.00000E+00         0.00000E+00
 
   -0.10448E+07         0.21663E+07         0.00000E+00
    0.21663E+07        -0.23245E+08         0.00000E+00
    0.00000E+00         0.00000E+00         0.00000E+00
 
   -0.80973E+06         0.33902E+07         0.00000E+00
    0.33902E+07        -0.23333E+08         0.00000E+00
    0.00000E+00         0.00000E+00         0.00000E+00
 
   -0.59098E+06         0.47816E+07         0.00000E+00
    0.47816E+07        -0.23418E+08         0.00000E+00
    0.00000E+00         0.00000E+00         0.00000E+00
 
   -0.39179E+06         0.63306E+07         0.00000E+00
    0.63306E+07        -0.23501E+08         0.00000E+00
    0.00000E+00         0.00000E+00         0.00000E+00
 
   -0.21584E+06         0.80260E+07         0.00000E+00
    0.80260E+07        -0.23578E+08         0.00000E+00
    0.00000E+00         0.00000E+00         0.00000E+00
 
   -0.67079E+05         0.98545E+07         0.00000E+00
    0.98545E+07        -0.23647E+08         0.00000E+00
    0.00000E+00         0.00000E+00         0.00000E+00
 
   -0.57377E+07        -0.32191E+06         0.00000E+00
   -0.32191E+06        -0.24514E+08         0.00000E+00
    0.00000E+00         0.00000E+00         0.00000E+00
 
   -0.54110E+07        -0.84218E+06         0.00000E+00
   -0.84218E+06        -0.24558E+08         0.00000E+00
    0.00000E+00         0.00000E+00         0.00000E+00
 
   -0.50189E+07        -0.11791E+07         0.00000E+00
   -0.11791E+07        -0.24635E+08         0.00000E+00
    0.00000E+00         0.00000E+00         0.00000E+00
 
   -0.45840E+07        -0.13181E+07         0.00000E+00
   -0.13181E+07        -0.24734E+08         0.00000E+00
    0.00000E+00         0.00000E+00         0.00000E+00
 
   -0.41248E+07        -0.12525E+07         0.00000E+00
   -0.12525E+07        -0.24846E+08         0.00000E+00
    0.00000E+00         0.00000E+00         0.00000E+00
 
   -0.36560E+07        -0.98121E+06         0.00000E+00
   -0.98121E+06        -0.24966E+08         0.00000E+00
    0.00000E+00         0.00000E+00         0.00000E+00
 
   -0.31884E+07        -0.50725E+06         0.00000E+00
   -0.50725E+06        -0.25090E+08         0.00000E+00
    0.00000E+00         0.00000E+00         0.00000E+00
 
   -0.27296E+07         0.16403E+06         0.00000E+00
    0.16403E+06        -0.25216E+08         0.00000E+00
    0.00000E+00         0.00000E+00         0.00000E+00
 
   -0.22847E+07         0.10260E+07         0.00000E+00
    0.10260E+07        -0.25344E+08         0.00000E+00
    0.00000E+00         0.00000E+00         0.00000E+00
 
   -0.18576E+07         0.20716E+07         0.00000E+00
    0.20716E+07        -0.25474E+08         0.00000E+00
    0.00000E+00         0.00000E+00         0.00000E+00
 
   -0.14516E+07         0.32932E+07         0.00000E+00
    0.32932E+07        -0.25607E+08         0.00000E+00
    0.00000E+00         0.00000E+00         0.00000E+00
 
   -0.10706E+07         0.46831E+07         0.00000E+00
    0.46831E+07        -0.25741E+08         0.00000E+00
    0.00000E+00         0.00000E+00         0.00000E+00
 
   -0.71902E+06         0.62322E+07         0.00000E+00
    0.62322E+07        -0.25876E+08         0.00000E+00
    0.00000E+00         0.00000E+00         0.00000E+00
 
   -0.40233E+06         0.79300E+07         0.00000E+00
    0.79300E+07        -0.26007E+08         0.00000E+00
    0.00000E+00         0.00000E+00         0.00000E+00
 
   -0.12673E+06         0.97639E+07         0.00000E+00
    0.97639E+07        -0.26132E+08         0.00000E+00
    0.00000E+00         0.00000E+00         0.00000E+00
 
   -0.83111E+07        -0.34774E+06         0.00000E+00
   -0.34774E+06        -0.26464E+08         0.00000E+00
    0.00000E+00         0.00000E+00         0.00000E+00
 
   -0.78048E+07        -0.90784E+06         0.00000E+00
   -0.90784E+06        -0.26521E+08         0.00000E+00
    0.00000E+00         0.00000E+00         0.00000E+00
 
   -0.72159E+07        -0.12709E+07         0.00000E+00
   -0.12709E+07        -0.26620E+08         0.00000E+00
    0.00000E+00         0.00000E+00         0.00000E+00
 
   -0.65756E+07        -0.14253E+07         0.00000E+00
   -0.14253E+07        -0.26745E+08         0.00000E+00
    0.00000E+00         0.00000E+00         0.00000E+00
 
   -0.59093E+07        -0.13677E+07         0.00000E+00
   -0.13677E+07        -0.26886E+08         0.00000E+00
    0.00000E+00         0.00000E+00         0.00000E+00
 
   -0.52362E+07        -0.11004E+07         0.00000E+00
   -0.11004E+07        -0.27035E+08         0.00000E+00
    0.00000E+00         0.00000E+00         0.00000E+00
 
   -0.45698E+07        -0.62894E+06         0.00000E+00
   -0.62894E+06        -0.27188E+08         0.00000E+00
    0.00000E+00         0.00000E+00         0.00000E+00
 
   -0.39188E+07         0.39361E+05         0.00000E+00
    0.39361E+05        -0.27345E+08         0.00000E+00
    0.00000E+00         0.00000E+00         0.00000E+00
 
   -0.32890E+07         0.89697E+06         0.00000E+00
    0.89697E+06        -0.27506E+08         0.00000E+00
    0.00000E+00         0.00000E+00         0.00000E+00
 
   -0.26839E+07         0.19367E+07         0.00000E+00
    0.19367E+07        -0.27674E+08         0.00000E+00
    0.00000E+00         0.00000E+00         0.00000E+00
 
   -0.21069E+07         0.31518E+07         0.00000E+00
    0.31518E+07        -0.27848E+08         0.00000E+00
    0.00000E+00         0.00000E+00         0.00000E+00
 
   -0.15624E+07         0.45356E+07         0.00000E+00
    0.45356E+07        -0.28029E+08         0.00000E+00
    0.00000E+00         0.00000E+00         0.00000E+00
 
   -0.10559E+07         0.60809E+07         0.00000E+00
    0.60809E+07        -0.28215E+08         0.00000E+00
    0.00000E+00         0.00000E+00         0.00000E+00
 
   -0.59491E+06         0.77785E+07         0.00000E+00
    0.77785E+07        -0.28402E+08         0.00000E+00
    0.00000E+00         0.00000E+00         0.00000E+00
 
   -0.18844E+06         0.96168E+07         0.00000E+00
    0.96168E+07        -0.28584E+08         0.00000E+00
    0.00000E+00         0.00000E+00         0.00000E+00
 
   -0.10949E+08        -0.38059E+06         0.00000E+00
   -0.38059E+06        -0.28423E+08         0.00000E+00
    0.00000E+00         0.00000E+00         0.00000E+00
 
   -0.10245E+08        -0.99034E+06         0.00000E+00
   -0.99034E+06        -0.28492E+08         0.00000E+00
    0.00000E+00         0.00000E+00         0.00000E+00
 
   -0.94454E+07        -0.13846E+07         0.00000E+00
   -0.13846E+07        -0.28610E+08         0.00000E+00
    0.00000E+00         0.00000E+00         0.00000E+00
 
   -0.85895E+07        -0.15563E+07         0.00000E+00
   -0.15563E+07        -0.28757E+08         0.00000E+00
    0.00000E+00         0.00000E+00         0.00000E+00
 
   -0.77099E+07        -0.15069E+07         0.00000E+00
   -0.15069E+07        -0.28919E+08         0.00000E+00
    0.00000E+00         0.00000E+00         0.00000E+00
 
   -0.68298E+07        -0.12434E+07         0.00000E+00
   -0.12434E+07        -0.29089E+08         0.00000E+00
    0.00000E+00         0.00000E+00         0.00000E+00
 
   -0.59647E+07        -0.77507E+06         0.00000E+00
   -0.77507E+06        -0.29263E+08         0.00000E+00
    0.00000E+00         0.00000E+00         0.00000E+00
 
   -0.51235E+07        -0.11177E+06         0.00000E+00
   -0.11177E+06        -0.29443E+08         0.00000E+00
    0.00000E+00         0.00000E+00         0.00000E+00
 
   -0.43109E+07         0.73779E+06         0.00000E+00
    0.73779E+06        -0.29630E+08         0.00000E+00
    0.00000E+00         0.00000E+00         0.00000E+00
 
   -0.35294E+07         0.17666E+07         0.00000E+00
    0.17666E+07        -0.29827E+08         0.00000E+00
    0.00000E+00         0.00000E+00         0.00000E+00
 
   -0.27818E+07         0.29691E+07         0.00000E+00
    0.29691E+07        -0.30038E+08         0.00000E+00
    0.00000E+00         0.00000E+00         0.00000E+00
 
   -0.20722E+07         0.43408E+07         0.00000E+00
    0.43408E+07        -0.30263E+08         0.00000E+00
    0.00000E+00         0.00000E+00         0.00000E+00
 
   -0.14073E+07         0.58766E+07         0.00000E+00
    0.58766E+07        -0.30500E+08         0.00000E+00
    0.00000E+00         0.00000E+00         0.00000E+00
 
   -0.79685E+06         0.75699E+07         0.00000E+00
    0.75699E+07        -0.30743E+08         0.00000E+00
    0.00000E+00         0.00000E+00         0.00000E+00
 
   -0.25334E+06         0.94108E+07         0.00000E+00
    0.94108E+07        -0.30984E+08         0.00000E+00
    0.00000E+00         0.00000E+00         0.00000E+00
 
   -0.13664E+08        -0.41986E+06         0.00000E+00
   -0.41986E+06        -0.30394E+08         0.00000E+00
    0.00000E+00         0.00000E+00         0.00000E+00
 
   -0.12740E+08        -0.10873E+07         0.00000E+00
   -0.10873E+07        -0.30474E+08         0.00000E+00
    0.00000E+00         0.00000E+00         0.00000E+00
 
   -0.11711E+08        -0.15156E+07         0.00000E+00
   -0.15156E+07        -0.30606E+08         0.00000E+00
    0.00000E+00         0.00000E+00         0.00000E+00
 
   -0.10627E+08        -0.17040E+07         0.00000E+00
   -0.17040E+07        -0.30768E+08         0.00000E+00
    0.00000E+00         0.00000E+00         0.00000E+00
 
   -0.95268E+07        -0.16611E+07         0.00000E+00
   -0.16611E+07        -0.30942E+08         0.00000E+00
    0.00000E+00         0.00000E+00         0.00000E+00
 
   -0.84379E+07        -0.14000E+07         0.00000E+00
   -0.14000E+07        -0.31122E+08         0.00000E+00
    0.00000E+00         0.00000E+00         0.00000E+00
 
   -0.73758E+07        -0.93519E+06         0.00000E+00
   -0.93519E+06        -0.31305E+08         0.00000E+00
    0.00000E+00         0.00000E+00         0.00000E+00
 
   -0.63479E+07        -0.27954E+06         0.00000E+00
   -0.27954E+06        -0.31495E+08         0.00000E+00
    0.00000E+00         0.00000E+00         0.00000E+00
 
   -0.53566E+07         0.55699E+06         0.00000E+00
    0.55699E+06        -0.31696E+08         0.00000E+00
    0.00000E+00         0.00000E+00         0.00000E+00
 
   -0.44019E+07         0.15678E+07         0.00000E+00
    0.15678E+07        -0.31916E+08         0.00000E+00
    0.00000E+00         0.00000E+00         0.00000E+00
 
   -0.34846E+07         0.27494E+07         0.00000E+00
    0.27494E+07        -0.32157E+08         0.00000E+00
    0.00000E+00         0.00000E+00         0.00000E+00
 
   -0.26081E+07         0.41001E+07         0.00000E+00
    0.41001E+07        -0.32423E+08         0.00000E+00
    0.00000E+00         0.00000E+00         0.00000E+00
 
   -0.17799E+07         0.56186E+07         0.00000E+00
    0.56186E+07        -0.32709E+08         0.00000E+00
    0.00000E+00         0.00000E+00         0.00000E+00
 
   -0.10126E+07         0.73018E+07         0.00000E+00
    0.73018E+07        -0.33011E+08         0.00000E+00
    0.00000E+00         0.00000E+00         0.00000E+00
 
   -0.32303E+06         0.91423E+07         0.00000E+00
    0.91423E+07        -0.33316E+08         0.00000E+00
    0.00000E+00         0.00000E+00         0.00000E+00
 
   -0.16468E+08        -0.46474E+06         0.00000E+00
   -0.46474E+06        -0.32378E+08         0.00000E+00
    0.00000E+00         0.00000E+00         0.00000E+00
 
   -0.15294E+08        -0.11954E+07         0.00000E+00
   -0.11954E+07        -0.32465E+08         0.00000E+00
    0.00000E+00         0.00000E+00         0.00000E+00
 
   -0.14013E+08        -0.16573E+07         0.00000E+00
   -0.16573E+07        -0.32607E+08         0.00000E+00
    0.00000E+00         0.00000E+00         0.00000E+00
 
   -0.12686E+08        -0.18588E+07         0.00000E+00
   -0.18588E+07        -0.32773E+08         0.00000E+00
    0.00000E+00         0.00000E+00         0.00000E+00
 
   -0.11359E+08        -0.18181E+07         0.00000E+00
   -0.18181E+07        -0.32948E+08         0.00000E+00
    0.00000E+00         0.00000E+00         0.00000E+00
 
   -0.10061E+08        -0.15568E+07         0.00000E+00
   -0.15568E+07        -0.33122E+08         0.00000E+00
    0.00000E+00         0.00000E+00         0.00000E+00
 
   -0.88058E+07        -0.10957E+07         0.00000E+00
   -0.10957E+07        -0.33298E+08         0.00000E+00
    0.00000E+00         0.00000E+00         0.00000E+00
 
   -0.75977E+07        -0.45129E+06         0.00000E+00
   -0.45129E+06        -0.33483E+08         0.00000E+00
    0.00000E+00         0.00000E+00         0.00000E+00
 
   -0.64342E+07         0.36529E+06         0.00000E+00
    0.36529E+06        -0.33687E+08         0.00000E+00
    0.00000E+00         0.00000E+00         0.00000E+00
 
   -0.53113E+07         0.13485E+07         0.00000E+00
    0.13485E+07        -0.33917E+08         0.00000E+00
    0.00000E+00         0.00000E+00         0.00000E+00
 
   -0.42263E+07         0.24977E+07         0.00000E+00
    0.24977E+07        -0.34182E+08         0.00000E+00
    0.00000E+00         0.00000E+00         0.00000E+00
 
   -0.31809E+07         0.38155E+07         0.00000E+00
    0.38155E+07        -0.34484E+08         0.00000E+00
    0.00000E+00         0.00000E+00         0.00000E+00
 
   -0.21831E+07         0.53055E+07         0.00000E+00
    0.53055E+07        -0.34821E+08         0.00000E+00
    0.00000E+00         0.00000E+00         0.00000E+00
 
   -0.12485E+07         0.69699E+07         0.00000E+00
    0.69699E+07        -0.35184E+08         0.00000E+00
    0.00000E+00         0.00000E+00         0.00000E+00
 
   -0.39970E+06         0.88057E+07         0.00000E+00
    0.88057E+07        -0.35558E+08         0.00000E+00
    0.00000E+00         0.00000E+00         0.00000E+00
 
   -0.19372E+08        -0.51428E+06         0.00000E+00
   -0.51428E+06        -0.34377E+08         0.00000E+00
    0.00000E+00         0.00000E+00         0.00000E+00
 
   -0.17910E+08        -0.13103E+07         0.00000E+00
   -0.13103E+07        -0.34468E+08         0.00000E+00
    0.00000E+00         0.00000E+00         0.00000E+00
 
   -0.16348E+08        -0.18009E+07         0.00000E+00
   -0.18009E+07        -0.34611E+08         0.00000E+00
    0.00000E+00         0.00000E+00         0.00000E+00
 
   -0.14762E+08        -0.20075E+07         0.00000E+00
   -0.20075E+07        -0.34770E+08         0.00000E+00
    0.00000E+00         0.00000E+00         0.00000E+00
 
   -0.13202E+08        -0.19617E+07         0.00000E+00
   -0.19617E+07        -0.34926E+08         0.00000E+00
    0.00000E+00         0.00000E+00         0.00000E+00
 
   -0.11698E+08        -0.16963E+07         0.00000E+00
   -0.16963E+07        -0.35076E+08         0.00000E+00
    0.00000E+00         0.00000E+00         0.00000E+00
 
   -0.10258E+08        -0.12395E+07         0.00000E+00
   -0.12395E+07        -0.35226E+08         0.00000E+00
    0.00000E+00         0.00000E+00         0.00000E+00
 
   -0.88801E+07        -0.61161E+06         0.00000E+00
   -0.61161E+06        -0.35389E+08         0.00000E+00
    0.00000E+00         0.00000E+00         0.00000E+00
 
   -0.75545E+07         0.17560E+06         0.00000E+00
    0.17560E+06        -0.35578E+08         0.00000E+00
    0.00000E+00         0.00000E+00         0.00000E+00
 
   -0.62709E+07         0.11184E+07         0.00000E+00
    0.11184E+07        -0.35807E+08         0.00000E+00
    0.00000E+00         0.00000E+00         0.00000E+00
 
   -0.50216E+07         0.22199E+07         0.00000E+00
    0.22199E+07        -0.36086E+08         0.00000E+00
    0.00000E+00         0.00000E+00         0.00000E+00
 
   -0.38051E+07         0.34884E+07         0.00000E+00
    0.34884E+07        -0.36421E+08         0.00000E+00
    0.00000E+00         0.00000E+00         0.00000E+00
 
   -0.26292E+07         0.49348E+07         0.00000E+00
    0.49348E+07        -0.36809E+08         0.00000E+00
    0.00000E+00         0.00000E+00         0.00000E+00
 
   -0.15130E+07         0.65684E+07         0.00000E+00
    0.65684E+07        -0.37239E+08         0.00000E+00
    0.00000E+00         0.00000E+00         0.00000E+00
 
   -0.48644E+06         0.83928E+07         0.00000E+00
    0.83928E+07        -0.37691E+08         0.00000E+00
    0.00000E+00         0.00000E+00         0.00000E+00
 
   -0.22381E+08        -0.56727E+06         0.00000E+00
   -0.56727E+06        -0.36391E+08         0.00000E+00
    0.00000E+00         0.00000E+00         0.00000E+00
 
   -0.20584E+08        -0.14259E+07         0.00000E+00
   -0.14259E+07        -0.36483E+08         0.00000E+00
    0.00000E+00         0.00000E+00         0.00000E+00
 
   -0.18709E+08        -0.19340E+07         0.00000E+00
   -0.19340E+07        -0.36616E+08         0.00000E+00
    0.00000E+00         0.00000E+00         0.00000E+00
 
   -0.16846E+08        -0.21322E+07         0.00000E+00
   -0.21322E+07        -0.36748E+08         0.00000E+00
    0.00000E+00         0.00000E+00         0.00000E+00
 
   -0.15052E+08        -0.20708E+07         0.00000E+00
   -0.20708E+07        -0.36864E+08         0.00000E+00
    0.00000E+00         0.00000E+00         0.00000E+00
 
   -0.13349E+08        -0.17968E+07         0.00000E+00
   -0.17968E+07        -0.36965E+08         0.00000E+00
    0.00000E+00         0.00000E+00         0.00000E+00
 
   -0.11738E+08        -0.13463E+07         0.00000E+00
   -0.13463E+07        -0.37066E+08         0.00000E+00
    0.00000E+00         0.00000E+00         0.00000E+00
 
   -0.10205E+08        -0.74268E+06         0.00000E+00
   -0.74268E+06        -0.37185E+08         0.00000E+00
    0.00000E+00         0.00000E+00         0.00000E+00
 
   -0.87312E+07         0.25068E+04         0.00000E+00
    0.25068E+04        -0.37342E+08         0.00000E+00
    0.00000E+00         0.00000E+00         0.00000E+00
 
   -0.72976E+07         0.88819E+06         0.00000E+00
    0.88819E+06        -0.37556E+08         0.00000E+00
    0.00000E+00         0.00000E+00         0.00000E+00
 
   -0.58893E+07         0.19223E+07         0.00000E+00
    0.19223E+07        -0.37841E+08         0.00000E+00
    0.00000E+00         0.00000E+00         0.00000E+00
 
   -0.44998E+07         0.31203E+07         0.00000E+00
    0.31203E+07        -0.38204E+08         0.00000E+00
    0.00000E+00         0.00000E+00         0.00000E+00
 
   -0.31353E+07         0.45021E+07         0.00000E+00
    0.45021E+07        -0.38644E+08         0.00000E+00
    0.00000E+00         0.00000E+00         0.00000E+00
 
   -0.18180E+07         0.60881E+07         0.00000E+00
    0.60881E+07        -0.39149E+08         0.00000E+00
    0.00000E+00         0.00000E+00         0.00000E+00
 
   -0.58756E+06         0.78917E+07         0.00000E+00
    0.78917E+07        -0.39692E+08         0.00000E+00
    0.00000E+00         0.00000E+00         0.00000E+00
 
   -0.25499E+08        -0.62221E+06         0.00000E+00
   -0.62221E+06        -0.38423E+08         0.00000E+00
    0.00000E+00         0.00000E+00         0.00000E+00
 
   -0.23307E+08        -0.15336E+07         0.00000E+00
   -0.15336E+07        -0.38509E+08         0.00000E+00
    0.00000E+00         0.00000E+00         0.00000E+00
 
   -0.21079E+08        -0.20385E+07         0.00000E+00
   -0.20385E+07        -0.38615E+08         0.00000E+00
    0.00000E+00         0.00000E+00         0.00000E+00
 
   -0.18926E+08        -0.22079E+07         0.00000E+00
   -0.22079E+07        -0.38695E+08         0.00000E+00
    0.00000E+00         0.00000E+00         0.00000E+00
 
   -0.16902E+08        -0.21183E+07         0.00000E+00
   -0.21183E+07        -0.38740E+08         0.00000E+00
    0.00000E+00         0.00000E+00         0.00000E+00
 
   -0.15016E+08        -0.18324E+07         0.00000E+00
   -0.18324E+07        -0.38762E+08         0.00000E+00
    0.00000E+00         0.00000E+00         0.00000E+00
 
   -0.13253E+08        -0.13933E+07         0.00000E+00
   -0.13933E+07        -0.38787E+08         0.00000E+00
    0.00000E+00         0.00000E+00         0.00000E+00
 
   -0.11586E+08        -0.82544E+06         0.00000E+00
   -0.82544E+06        -0.38840E+08         0.00000E+00
    0.00000E+00         0.00000E+00         0.00000E+00
 
   -0.99817E+07        -0.13862E+06         0.00000E+00
   -0.13862E+06        -0.38949E+08         0.00000E+00
    0.00000E+00         0.00000E+00         0.00000E+00
 
   -0.84123E+07         0.66947E+06         0.00000E+00
    0.66947E+06        -0.39133E+08         0.00000E+00
    0.00000E+00         0.00000E+00         0.00000E+00
 
   -0.68533E+07         0.16119E+07         0.00000E+00
    0.16119E+07        -0.39413E+08         0.00000E+00
    0.00000E+00         0.00000E+00         0.00000E+00
 
   -0.52902E+07         0.27120E+07         0.00000E+00
    0.27120E+07        -0.39801E+08         0.00000E+00
    0.00000E+00         0.00000E+00         0.00000E+00
 
   -0.37244E+07         0.40016E+07         0.00000E+00
    0.40016E+07        -0.40296E+08         0.00000E+00
    0.00000E+00         0.00000E+00         0.00000E+00
 
   -0.21803E+07         0.55163E+07         0.00000E+00
    0.55163E+07        -0.40886E+08         0.00000E+00
    0.00000E+00         0.00000E+00         0.00000E+00
 
   -0.70922E+06         0.72851E+07         0.00000E+00
    0.72851E+07        -0.41537E+08         0.00000E+00
    0.00000E+00         0.00000E+00         0.00000E+00
 
   -0.28724E+08        -0.67692E+06         0.00000E+00
   -0.67692E+06        -0.40474E+08         0.00000E+00
    0.00000E+00         0.00000E+00         0.00000E+00
 
   -0.26056E+08        -0.16191E+07         0.00000E+00
   -0.16191E+07        -0.40543E+08         0.00000E+00
    0.00000E+00         0.00000E+00         0.00000E+00
 
   -0.23433E+08        -0.20868E+07         0.00000E+00
   -0.20868E+07        -0.40595E+08         0.00000E+00
    0.00000E+00         0.00000E+00         0.00000E+00
 
   -0.20984E+08        -0.22001E+07         0.00000E+00
   -0.22001E+07        -0.40585E+08         0.00000E+00
    0.00000E+00         0.00000E+00         0.00000E+00
 
   -0.18746E+08        -0.20701E+07         0.00000E+00
   -0.20701E+07        -0.40518E+08         0.00000E+00
    0.00000E+00         0.00000E+00         0.00000E+00
 
   -0.16704E+08        -0.17743E+07         0.00000E+00
   -0.17743E+07        -0.40428E+08         0.00000E+00
    0.00000E+00         0.00000E+00         0.00000E+00
 
   -0.14816E+08        -0.13576E+07         0.00000E+00
   -0.13576E+07        -0.40351E+08         0.00000E+00
    0.00000E+00         0.00000E+00         0.00000E+00
 
   -0.13038E+08        -0.84191E+06         0.00000E+00
   -0.84191E+06        -0.40320E+08         0.00000E+00
    0.00000E+00         0.00000E+00         0.00000E+00
 
   -0.11326E+08        -0.23346E+06         0.00000E+00
   -0.23346E+06        -0.40363E+08         0.00000E+00
    0.00000E+00         0.00000E+00         0.00000E+00
 
   -0.96394E+07         0.47351E+06         0.00000E+00
    0.47351E+06        -0.40506E+08         0.00000E+00
    0.00000E+00         0.00000E+00         0.00000E+00
 
   -0.79420E+07         0.12963E+07         0.00000E+00
    0.12963E+07        -0.40772E+08         0.00000E+00
    0.00000E+00         0.00000E+00         0.00000E+00
 
   -0.62078E+07         0.22652E+07         0.00000E+00
    0.22652E+07        -0.41177E+08         0.00000E+00
    0.00000E+00         0.00000E+00         0.00000E+00
 
   -0.44279E+07         0.34259E+07         0.00000E+00
    0.34259E+07        -0.41729E+08         0.00000E+00
    0.00000E+00         0.00000E+00         0.00000E+00
 
   -0.26240E+07         0.48354E+07         0.00000E+00
    0.48354E+07        -0.42419E+08         0.00000E+00
    0.00000E+00         0.00000E+00         0.00000E+00
 
   -0.86058E+06         0.65482E+07         0.00000E+00
    0.65482E+07        -0.43203E+08         0.00000E+00
    0.00000E+00         0.00000E+00         0.00000E+00
 
   -0.32042E+08        -0.72777E+06         0.00000E+00
   -0.72777E+06        -0.42546E+08         0.00000E+00
    0.00000E+00         0.00000E+00         0.00000E+00
 
   -0.28791E+08        -0.16567E+07         0.00000E+00
   -0.16567E+07        -0.42577E+08         0.00000E+00
    0.00000E+00         0.00000E+00         0.00000E+00
 
   -0.25735E+08        -0.20336E+07         0.00000E+00
   -0.20336E+07        -0.42527E+08         0.00000E+00
    0.00000E+00         0.00000E+00         0.00000E+00
 
   -0.23004E+08        -0.20609E+07         0.00000E+00
   -0.20609E+07        -0.42367E+08         0.00000E+00
    0.00000E+00         0.00000E+00         0.00000E+00
 
   -0.20588E+08        -0.18880E+07         0.00000E+00
   -0.18880E+07        -0.42143E+08         0.00000E+00
    0.00000E+00         0.00000E+00         0.00000E+00
 
   -0.18425E+08        -0.15955E+07         0.00000E+00
   -0.15955E+07        -0.41909E+08         0.00000E+00
    0.00000E+00         0.00000E+00         0.00000E+00
 
   -0.16444E+08        -0.12208E+07         0.00000E+00
   -0.12208E+07        -0.41710E+08         0.00000E+00
    0.00000E+00         0.00000E+00         0.00000E+00
 
   -0.14584E+08        -0.77885E+06         0.00000E+00
   -0.77885E+06        -0.41581E+08         0.00000E+00
    0.00000E+00         0.00000E+00         0.00000E+00
 
   -0.12788E+08        -0.27140E+06         0.00000E+00
   -0.27140E+06        -0.41550E+08         0.00000E+00
    0.00000E+00         0.00000E+00         0.00000E+00
 
   -0.11005E+08         0.30990E+06         0.00000E+00
    0.30990E+06        -0.41643E+08         0.00000E+00
    0.00000E+00         0.00000E+00         0.00000E+00
 
   -0.91874E+07         0.98389E+06         0.00000E+00
    0.98389E+06        -0.41884E+08         0.00000E+00
    0.00000E+00         0.00000E+00         0.00000E+00
 
   -0.72920E+07         0.17842E+07         0.00000E+00
    0.17842E+07        -0.42299E+08         0.00000E+00
    0.00000E+00         0.00000E+00         0.00000E+00
 
   -0.52892E+07         0.27682E+07         0.00000E+00
    0.27682E+07        -0.42907E+08         0.00000E+00
    0.00000E+00         0.00000E+00         0.00000E+00
 
   -0.31855E+07         0.40220E+07         0.00000E+00
    0.40220E+07        -0.43710E+08         0.00000E+00
    0.00000E+00         0.00000E+00         0.00000E+00
 
   -0.10563E+07         0.56445E+07         0.00000E+00
    0.56445E+07        -0.44663E+08         0.00000E+00
    0.00000E+00         0.00000E+00         0.00000E+00
 
   -0.35419E+08        -0.76613E+06         0.00000E+00
   -0.76613E+06        -0.44636E+08         0.00000E+00
    0.00000E+00         0.00000E+00         0.00000E+00
 
   -0.31441E+08        -0.15914E+07         0.00000E+00
   -0.15914E+07        -0.44580E+08         0.00000E+00
    0.00000E+00         0.00000E+00         0.00000E+00
 
   -0.27944E+08        -0.18028E+07         0.00000E+00
   -0.18028E+07        -0.44334E+08         0.00000E+00
    0.00000E+00         0.00000E+00         0.00000E+00
 
   -0.24985E+08        -0.17326E+07         0.00000E+00
   -0.17326E+07        -0.43949E+08         0.00000E+00
    0.00000E+00         0.00000E+00         0.00000E+00
 
   -0.22446E+08        -0.15389E+07         0.00000E+00
   -0.15389E+07        -0.43526E+08         0.00000E+00
    0.00000E+00         0.00000E+00         0.00000E+00
 
   -0.20203E+08        -0.12792E+07         0.00000E+00
   -0.12792E+07        -0.43131E+08         0.00000E+00
    0.00000E+00         0.00000E+00         0.00000E+00
 
   -0.18163E+08        -0.97506E+06         0.00000E+00
   -0.97506E+06        -0.42806E+08         0.00000E+00
    0.00000E+00         0.00000E+00         0.00000E+00
 
   -0.16247E+08        -0.63239E+06         0.00000E+00
   -0.63239E+06        -0.42579E+08         0.00000E+00
    0.00000E+00         0.00000E+00         0.00000E+00
 
   -0.14391E+08        -0.24897E+06         0.00000E+00
   -0.24897E+06        -0.42476E+08         0.00000E+00
    0.00000E+00         0.00000E+00         0.00000E+00
 
   -0.12535E+08         0.18403E+06         0.00000E+00
    0.18403E+06        -0.42517E+08         0.00000E+00
    0.00000E+00         0.00000E+00         0.00000E+00
 
   -0.10621E+08         0.68343E+06         0.00000E+00
    0.68343E+06        -0.42728E+08         0.00000E+00
    0.00000E+00         0.00000E+00         0.00000E+00
 
   -0.85870E+07         0.12794E+07         0.00000E+00
    0.12794E+07        -0.43140E+08         0.00000E+00
    0.00000E+00         0.00000E+00         0.00000E+00
 
   -0.63687E+07         0.20287E+07         0.00000E+00
    0.20287E+07        -0.43791E+08         0.00000E+00
    0.00000E+00         0.00000E+00         0.00000E+00
 
   -0.39253E+07         0.30484E+07         0.00000E+00
    0.30484E+07        -0.44718E+08         0.00000E+00
    0.00000E+00         0.00000E+00         0.00000E+00
 
   -0.13228E+07         0.45178E+07         0.00000E+00
    0.45178E+07        -0.45888E+08         0.00000E+00
    0.00000E+00         0.00000E+00         0.00000E+00
 
   -0.38760E+08        -0.75980E+06         0.00000E+00
   -0.75980E+06        -0.46724E+08         0.00000E+00
    0.00000E+00         0.00000E+00         0.00000E+00
 
   -0.33893E+08        -0.12848E+07         0.00000E+00
   -0.12848E+07        -0.46421E+08         0.00000E+00
    0.00000E+00         0.00000E+00         0.00000E+00
 
   -0.30048E+08        -0.12916E+07         0.00000E+00
   -0.12916E+07        -0.45833E+08         0.00000E+00
    0.00000E+00         0.00000E+00         0.00000E+00
 
   -0.26961E+08        -0.11754E+07         0.00000E+00
   -0.11754E+07        -0.45175E+08         0.00000E+00
    0.00000E+00         0.00000E+00         0.00000E+00
 
   -0.24357E+08        -0.10148E+07         0.00000E+00
   -0.10148E+07        -0.44552E+08         0.00000E+00
    0.00000E+00         0.00000E+00         0.00000E+00
 
   -0.22074E+08        -0.83120E+06         0.00000E+00
   -0.83120E+06        -0.44012E+08         0.00000E+00
    0.00000E+00         0.00000E+00         0.00000E+00
 
   -0.19999E+08        -0.63039E+06         0.00000E+00
   -0.63039E+06        -0.43580E+08         0.00000E+00
    0.00000E+00         0.00000E+00         0.00000E+00
 
   -0.18049E+08        -0.41215E+06         0.00000E+00
   -0.41215E+06        -0.43274E+08         0.00000E+00
    0.00000E+00         0.00000E+00         0.00000E+00
 
   -0.16154E+08        -0.17290E+06         0.00000E+00
   -0.17290E+06        -0.43110E+08         0.00000E+00
    0.00000E+00         0.00000E+00         0.00000E+00
 
   -0.14248E+08         0.94100E+05         0.00000E+00
    0.94100E+05        -0.43108E+08         0.00000E+00
    0.00000E+00         0.00000E+00         0.00000E+00
 
   -0.12267E+08         0.40029E+06         0.00000E+00
    0.40029E+06        -0.43291E+08         0.00000E+00
    0.00000E+00         0.00000E+00         0.00000E+00
 
   -0.10132E+08         0.76599E+06         0.00000E+00
    0.76599E+06        -0.43692E+08         0.00000E+00
    0.00000E+00         0.00000E+00         0.00000E+00
 
   -0.77436E+07         0.12314E+07         0.00000E+00
    0.12314E+07        -0.44360E+08         0.00000E+00
    0.00000E+00         0.00000E+00         0.00000E+00
 
   -0.49541E+07         0.18949E+07         0.00000E+00
    0.18949E+07        -0.45380E+08         0.00000E+00
    0.00000E+00         0.00000E+00         0.00000E+00
 
   -0.17181E+07         0.30722E+07         0.00000E+00
    0.30722E+07        -0.46838E+08         0.00000E+00
    0.00000E+00         0.00000E+00         0.00000E+00
 
   -0.41778E+08        -0.46062E+06         0.00000E+00
   -0.46062E+06        -0.48465E+08         0.00000E+00
    0.00000E+00         0.00000E+00         0.00000E+00
 
   -0.36098E+08        -0.52266E+06         0.00000E+00
   -0.52266E+06        -0.47647E+08         0.00000E+00
    0.00000E+00         0.00000E+00         0.00000E+00
 
   -0.32135E+08        -0.47570E+06         0.00000E+00
   -0.47570E+06        -0.46716E+08         0.00000E+00
    0.00000E+00         0.00000E+00         0.00000E+00
 
   -0.29000E+08        -0.41819E+06         0.00000E+00
   -0.41819E+06        -0.45856E+08         0.00000E+00
    0.00000E+00         0.00000E+00         0.00000E+00
 
   -0.26372E+08        -0.35482E+06         0.00000E+00
   -0.35482E+06        -0.45104E+08         0.00000E+00
    0.00000E+00         0.00000E+00         0.00000E+00
 
   -0.24070E+08        -0.28801E+06         0.00000E+00
   -0.28801E+06        -0.44476E+08         0.00000E+00
    0.00000E+00         0.00000E+00         0.00000E+00
 
   -0.21978E+08        -0.21759E+06         0.00000E+00
   -0.21759E+06        -0.43982E+08         0.00000E+00
    0.00000E+00         0.00000E+00         0.00000E+00
 
   -0.20010E+08        -0.14256E+06         0.00000E+00
   -0.14256E+06        -0.43630E+08         0.00000E+00
    0.00000E+00         0.00000E+00         0.00000E+00
 
   -0.18093E+08        -0.61232E+05         0.00000E+00
   -0.61232E+05        -0.43433E+08         0.00000E+00
    0.00000E+00         0.00000E+00         0.00000E+00
 
   -0.16160E+08         0.28924E+05         0.00000E+00
    0.28924E+05        -0.43406E+08         0.00000E+00
    0.00000E+00         0.00000E+00         0.00000E+00
 
   -0.14142E+08         0.13193E+06         0.00000E+00
    0.13193E+06        -0.43571E+08         0.00000E+00
    0.00000E+00         0.00000E+00         0.00000E+00
 
   -0.11952E+08         0.25477E+06         0.00000E+00
    0.25477E+06        -0.43961E+08         0.00000E+00
    0.00000E+00         0.00000E+00         0.00000E+00
 
   -0.94676E+07         0.41200E+06         0.00000E+00
    0.41200E+06        -0.44630E+08         0.00000E+00
    0.00000E+00         0.00000E+00         0.00000E+00
 
   -0.64800E+07         0.63610E+06         0.00000E+00
    0.63610E+06        -0.45680E+08         0.00000E+00
    0.00000E+00         0.00000E+00         0.00000E+00
 
   -0.24131E+07         0.11271E+07         0.00000E+00
    0.11271E+07        -0.47396E+08         0.00000E+00
    0.00000E+00         0.00000E+00         0.00000E+00
 
TENSORS stresstot double 
   -0.27917E+08        -0.39430E+06         0.00000E+00
   -0.39430E+06        -0.60384E+08         0.00000E+00
    0.00000E+00         0.00000E+00        -0.67667E+08
 
   -0.33155E+08        -0.45981E+06         0.00000E+00
   -0.45981E+06        -0.61100E+08         0.00000E+00
    0.00000E+00         0.00000E+00        -0.67687E+08
 
   -0.36903E+08        -0.42680E+06         0.00000E+00
   -0.42680E+06        -0.61931E+08         0.00000E+00
    0.00000E+00         0.00000E+00        -0.67721E+08
 
   -0.39912E+08        -0.38048E+06         0.00000E+00
   -0.38048E+06        -0.62710E+08         0.00000E+00
    0.00000E+00         0.00000E+00        -0.67761E+08
 
   -0.42465E+08        -0.32641E+06         0.00000E+00
   -0.32641E+06        -0.63399E+08         0.00000E+00
    0.00000E+00         0.00000E+00        -0.67804E+08
 
   -0.44719E+08        -0.26729E+06         0.00000E+00
   -0.26729E+06        -0.63980E+08         0.00000E+00
    0.00000E+00         0.00000E+00        -0.67849E+08
 
   -0.46780E+08        -0.20335E+06         0.00000E+00
   -0.20335E+06        -0.64442E+08         0.00000E+00
    0.00000E+00         0.00000E+00        -0.67893E+08
 
   -0.48724E+08        -0.13389E+06         0.00000E+00
   -0.13389E+06        -0.64773E+08         0.00000E+00
    0.00000E+00         0.00000E+00        -0.67936E+08
 
   -0.50620E+08        -0.57550E+05         0.00000E+00
   -0.57550E+05        -0.64959E+08         0.00000E+00
    0.00000E+00         0.00000E+00        -0.67978E+08
 
   -0.52528E+08         0.27886E+05         0.00000E+00
    0.27886E+05        -0.64985E+08         0.00000E+00
    0.00000E+00         0.00000E+00        -0.68016E+08
 
   -0.54514E+08         0.12604E+06         0.00000E+00
    0.12604E+06        -0.64827E+08         0.00000E+00
    0.00000E+00         0.00000E+00        -0.68052E+08
 
   -0.56658E+08         0.24335E+06         0.00000E+00
    0.24335E+06        -0.64455E+08         0.00000E+00
    0.00000E+00         0.00000E+00        -0.68083E+08
 
   -0.59073E+08         0.39332E+06         0.00000E+00
    0.39332E+06        -0.63817E+08         0.00000E+00
    0.00000E+00         0.00000E+00        -0.68110E+08
 
   -0.61956E+08         0.60646E+06         0.00000E+00
    0.60646E+06        -0.62816E+08         0.00000E+00
    0.00000E+00         0.00000E+00        -0.68130E+08
 
   -0.65846E+08         0.10715E+07         0.00000E+00
    0.10715E+07        -0.61182E+08         0.00000E+00
    0.00000E+00         0.00000E+00        -0.68142E+08
 
   -0.28665E+08        -0.65927E+06         0.00000E+00
   -0.65927E+06        -0.60031E+08         0.00000E+00
    0.00000E+00         0.00000E+00        -0.65828E+08
 
   -0.33214E+08        -0.11307E+07         0.00000E+00
   -0.11307E+07        -0.60309E+08         0.00000E+00
    0.00000E+00         0.00000E+00        -0.65839E+08
 
   -0.36858E+08        -0.11534E+07         0.00000E+00
   -0.11534E+07        -0.60842E+08         0.00000E+00
    0.00000E+00         0.00000E+00        -0.65859E+08
 
   -0.39828E+08        -0.10621E+07         0.00000E+00
   -0.10621E+07        -0.61439E+08         0.00000E+00
    0.00000E+00         0.00000E+00        -0.65886E+08
 
   -0.42361E+08        -0.92548E+06         0.00000E+00
   -0.92548E+06        -0.62008E+08         0.00000E+00
    0.00000E+00         0.00000E+00        -0.65918E+08
 
   -0.44602E+08        -0.76315E+06         0.00000E+00
   -0.76315E+06        -0.62505E+08         0.00000E+00
    0.00000E+00         0.00000E+00        -0.65951E+08
 
   -0.46650E+08        -0.58094E+06         0.00000E+00
   -0.58094E+06        -0.62905E+08         0.00000E+00
    0.00000E+00         0.00000E+00        -0.65986E+08
 
   -0.48582E+08        -0.37913E+06         0.00000E+00
   -0.37913E+06        -0.63189E+08         0.00000E+00
    0.00000E+00         0.00000E+00        -0.66020E+08
 
   -0.50461E+08        -0.15482E+06         0.00000E+00
   -0.15482E+06        -0.63338E+08         0.00000E+00
    0.00000E+00         0.00000E+00        -0.66053E+08
 
   -0.52347E+08         0.97923E+05         0.00000E+00
    0.97923E+05        -0.63335E+08         0.00000E+00
    0.00000E+00         0.00000E+00        -0.66084E+08
 
   -0.54302E+08         0.38942E+06         0.00000E+00
    0.38942E+06        -0.63156E+08         0.00000E+00
    0.00000E+00         0.00000E+00        -0.66112E+08
 
   -0.56397E+08         0.73836E+06         0.00000E+00
    0.73836E+06        -0.62769E+08         0.00000E+00
    0.00000E+00         0.00000E+00        -0.66136E+08
 
   -0.58726E+08         0.11821E+07         0.00000E+00
    0.11821E+07        -0.62126E+08         0.00000E+00
    0.00000E+00         0.00000E+00        -0.66156E+08
 
   -0.61426E+08         0.18125E+07         0.00000E+00
    0.18125E+07        -0.61147E+08         0.00000E+00
    0.00000E+00         0.00000E+00        -0.66170E+08
 
   -0.64534E+08         0.29257E+07         0.00000E+00
    0.29257E+07        -0.59754E+08         0.00000E+00
    0.00000E+00         0.00000E+00        -0.66177E+08
 
   -0.29728E+08        -0.67359E+06         0.00000E+00
   -0.67359E+06        -0.59994E+08         0.00000E+00
    0.00000E+00         0.00000E+00        -0.63975E+08
 
   -0.33514E+08        -0.14084E+07         0.00000E+00
   -0.14084E+07        -0.60060E+08         0.00000E+00
    0.00000E+00         0.00000E+00        -0.63981E+08
 
   -0.36855E+08        -0.16096E+07         0.00000E+00
   -0.16096E+07        -0.60297E+08         0.00000E+00
    0.00000E+00         0.00000E+00        -0.63993E+08
 
   -0.39710E+08        -0.15600E+07         0.00000E+00
   -0.15600E+07        -0.60657E+08         0.00000E+00
    0.00000E+00         0.00000E+00        -0.64011E+08
 
   -0.42185E+08        -0.13948E+07         0.00000E+00
   -0.13948E+07        -0.61049E+08         0.00000E+00
    0.00000E+00         0.00000E+00        -0.64033E+08
 
   -0.44388E+08        -0.11642E+07         0.00000E+00
   -0.11642E+07        -0.61415E+08         0.00000E+00
    0.00000E+00         0.00000E+00        -0.64057E+08
 
   -0.46406E+08        -0.88743E+06         0.00000E+00
   -0.88743E+06        -0.61716E+08         0.00000E+00
    0.00000E+00         0.00000E+00        -0.64083E+08
 
   -0.48307E+08        -0.57009E+06         0.00000E+00
   -0.57009E+06        -0.61925E+08         0.00000E+00
    0.00000E+00         0.00000E+00        -0.64109E+08
 
   -0.50150E+08        -0.21040E+06         0.00000E+00
   -0.21040E+06        -0.62018E+08         0.00000E+00
    0.00000E+00         0.00000E+00        -0.64134E+08
 
   -0.51992E+08         0.19944E+06         0.00000E+00
    0.19944E+06        -0.61972E+08         0.00000E+00
    0.00000E+00         0.00000E+00        -0.64158E+08
 
   -0.53885E+08         0.67467E+06         0.00000E+00
    0.67467E+06        -0.61764E+08         0.00000E+00
    0.00000E+00         0.00000E+00        -0.64179E+08
 
   -0.55887E+08         0.12430E+07         0.00000E+00
    0.12430E+07        -0.61363E+08         0.00000E+00
    0.00000E+00         0.00000E+00        -0.64197E+08
 
   -0.58058E+08         0.19569E+07         0.00000E+00
    0.19569E+07        -0.60734E+08         0.00000E+00
    0.00000E+00         0.00000E+00        -0.64212E+08
 
   -0.60434E+08         0.29250E+07         0.00000E+00
    0.29250E+07        -0.59841E+08         0.00000E+00
    0.00000E+00         0.00000E+00        -0.64222E+08
 
   -0.62951E+08         0.43131E+07         0.00000E+00
    0.43131E+07        -0.58714E+08         0.00000E+00
    0.00000E+00         0.00000E+00        -0.64227E+08
 
   -0.30859E+08        -0.64635E+06         0.00000E+00
   -0.64635E+06        -0.59982E+08         0.00000E+00
    0.00000E+00         0.00000E+00        -0.62113E+08
 
   -0.34011E+08        -0.14758E+07         0.00000E+00
   -0.14758E+07        -0.59971E+08         0.00000E+00
    0.00000E+00         0.00000E+00        -0.62116E+08
 
   -0.36965E+08        -0.18202E+07         0.00000E+00
   -0.18202E+07        -0.60038E+08         0.00000E+00
    0.00000E+00         0.00000E+00        -0.62123E+08
 
   -0.39616E+08        -0.18539E+07         0.00000E+00
   -0.18539E+07        -0.60201E+08         0.00000E+00
    0.00000E+00         0.00000E+00        -0.62134E+08
 
   -0.41978E+08        -0.17049E+07         0.00000E+00
   -0.17049E+07        -0.60419E+08         0.00000E+00
    0.00000E+00         0.00000E+00        -0.62148E+08
 
   -0.44108E+08        -0.14426E+07         0.00000E+00
   -0.14426E+07        -0.60643E+08         0.00000E+00
    0.00000E+00         0.00000E+00        -0.62165E+08
 
   -0.46068E+08        -0.10994E+07         0.00000E+00
   -0.10994E+07        -0.60831E+08         0.00000E+00
    0.00000E+00         0.00000E+00        -0.62183E+08
 
   -0.47916E+08        -0.68855E+06         0.00000E+00
   -0.68855E+06        -0.60952E+08         0.00000E+00
    0.00000E+00         0.00000E+00        -0.62202E+08
 
   -0.49702E+08        -0.21148E+06         0.00000E+00
   -0.21148E+06        -0.60977E+08         0.00000E+00
    0.00000E+00         0.00000E+00        -0.62220E+08
 
   -0.51475E+08         0.33928E+06         0.00000E+00
    0.33928E+06        -0.60884E+08         0.00000E+00
    0.00000E+00         0.00000E+00        -0.62238E+08
 
   -0.53278E+08         0.98083E+06         0.00000E+00
    0.98083E+06        -0.60647E+08         0.00000E+00
    0.00000E+00         0.00000E+00        -0.62253E+08
 
   -0.55150E+08         0.17439E+07         0.00000E+00
    0.17439E+07        -0.60244E+08         0.00000E+00
    0.00000E+00         0.00000E+00        -0.62266E+08
 
   -0.57120E+08         0.26812E+07         0.00000E+00
    0.26812E+07        -0.59654E+08         0.00000E+00
    0.00000E+00         0.00000E+00        -0.62277E+08
 
   -0.59179E+08         0.38715E+07         0.00000E+00
    0.38715E+07        -0.58875E+08         0.00000E+00
    0.00000E+00         0.00000E+00        -0.62283E+08
 
   -0.61258E+08         0.54047E+07         0.00000E+00
    0.54047E+07        -0.57950E+08         0.00000E+00
    0.00000E+00         0.00000E+00        -0.62287E+08
 
   -0.31968E+08        -0.60603E+06         0.00000E+00
   -0.60603E+06        -0.59979E+08         0.00000E+00
    0.00000E+00         0.00000E+00        -0.60242E+08
 
   -0.34605E+08        -0.14509E+07         0.00000E+00
   -0.14509E+07        -0.59931E+08         0.00000E+00
    0.00000E+00         0.00000E+00        -0.60244E+08
 
   -0.37175E+08        -0.18741E+07         0.00000E+00
   -0.18741E+07        -0.59907E+08         0.00000E+00
    0.00000E+00         0.00000E+00        -0.60247E+08
 
   -0.39574E+08        -0.19805E+07         0.00000E+00
   -0.19805E+07        -0.59939E+08         0.00000E+00
    0.00000E+00         0.00000E+00        -0.60254E+08
 
   -0.41773E+08        -0.18657E+07         0.00000E+00
   -0.18657E+07        -0.60019E+08         0.00000E+00
    0.00000E+00         0.00000E+00        -0.60262E+08
 
   -0.43790E+08        -0.15965E+07         0.00000E+00
   -0.15965E+07        -0.60116E+08         0.00000E+00
    0.00000E+00         0.00000E+00        -0.60273E+08
 
   -0.45662E+08        -0.12113E+07         0.00000E+00
   -0.12113E+07        -0.60197E+08         0.00000E+00
    0.00000E+00         0.00000E+00        -0.60285E+08
 
   -0.47430E+08        -0.72911E+06         0.00000E+00
   -0.72911E+06        -0.60231E+08         0.00000E+00
    0.00000E+00         0.00000E+00        -0.60298E+08
 
   -0.49135E+08        -0.15511E+06         0.00000E+00
   -0.15511E+06        -0.60191E+08         0.00000E+00
    0.00000E+00         0.00000E+00        -0.60310E+08
 
   -0.50816E+08         0.51604E+06         0.00000E+00
    0.51604E+06        -0.60053E+08         0.00000E+00
    0.00000E+00         0.00000E+00        -0.60322E+08
 
   -0.52504E+08         0.13000E+07         0.00000E+00
    0.13000E+07        -0.59795E+08         0.00000E+00
    0.00000E+00         0.00000E+00        -0.60333E+08
 
   -0.54224E+08         0.22245E+07         0.00000E+00
    0.22245E+07        -0.59402E+08         0.00000E+00
    0.00000E+00         0.00000E+00        -0.60342E+08
 
   -0.55985E+08         0.33306E+07         0.00000E+00
    0.33306E+07        -0.58863E+08         0.00000E+00
    0.00000E+00         0.00000E+00        -0.60349E+08
 
   -0.57766E+08         0.46700E+07         0.00000E+00
    0.46700E+07        -0.58191E+08         0.00000E+00
    0.00000E+00         0.00000E+00        -0.60353E+08
 
   -0.59506E+08         0.62909E+07         0.00000E+00
    0.62909E+07        -0.57421E+08         0.00000E+00
    0.00000E+00         0.00000E+00        -0.60355E+08
 
   -0.33021E+08        -0.56084E+06         0.00000E+00
   -0.56084E+06        -0.59977E+08         0.00000E+00
    0.00000E+00         0.00000E+00        -0.58366E+08
 
   -0.35232E+08        -0.13818E+07         0.00000E+00
   -0.13818E+07        -0.59913E+08         0.00000E+00
    0.00000E+00         0.00000E+00        -0.58366E+08
 
   -0.37449E+08        -0.18375E+07         0.00000E+00
   -0.18375E+07        -0.59839E+08         0.00000E+00
    0.00000E+00         0.00000E+00        -0.58368E+08
 
   -0.39581E+08        -0.19907E+07         0.00000E+00
   -0.19907E+07        -0.59791E+08         0.00000E+00
    0.00000E+00         0.00000E+00        -0.58370E+08
 
   -0.41584E+08        -0.19077E+07         0.00000E+00
   -0.19077E+07        -0.59773E+08         0.00000E+00
    0.00000E+00         0.00000E+00        -0.58375E+08
 
   -0.43454E+08        -0.16427E+07         0.00000E+00
   -0.16427E+07        -0.59771E+08         0.00000E+00
    0.00000E+00         0.00000E+00        -0.58381E+08
 
   -0.45207E+08        -0.12324E+07         0.00000E+00
   -0.12324E+07        -0.59763E+08         0.00000E+00
    0.00000E+00         0.00000E+00        -0.58388E+08
 
   -0.46869E+08        -0.69778E+06         0.00000E+00
   -0.69778E+06        -0.59723E+08         0.00000E+00
    0.00000E+00         0.00000E+00        -0.58395E+08
 
   -0.48470E+08        -0.46986E+05         0.00000E+00
   -0.46986E+05        -0.59627E+08         0.00000E+00
    0.00000E+00         0.00000E+00        -0.58403E+08
 
   -0.50037E+08         0.72233E+06         0.00000E+00
    0.72233E+06        -0.59453E+08         0.00000E+00
    0.00000E+00         0.00000E+00        -0.58410E+08
 
   -0.51593E+08         0.16220E+07         0.00000E+00
    0.16220E+07        -0.59185E+08         0.00000E+00
    0.00000E+00         0.00000E+00        -0.58417E+08
 
   -0.53151E+08         0.26731E+07         0.00000E+00
    0.26731E+07        -0.58810E+08         0.00000E+00
    0.00000E+00         0.00000E+00        -0.58422E+08
 
   -0.54711E+08         0.39040E+07         0.00000E+00
    0.39040E+07        -0.58326E+08         0.00000E+00
    0.00000E+00         0.00000E+00        -0.58426E+08
 
   -0.56249E+08         0.53460E+07         0.00000E+00
    0.53460E+07        -0.57746E+08         0.00000E+00
    0.00000E+00         0.00000E+00        -0.58429E+08
 
   -0.57720E+08         0.70238E+07         0.00000E+00
    0.70238E+07        -0.57099E+08         0.00000E+00
    0.00000E+00         0.00000E+00        -0.58430E+08
 
   -0.34003E+08        -0.51450E+06         0.00000E+00
   -0.51450E+06        -0.59977E+08         0.00000E+00
    0.00000E+00         0.00000E+00        -0.56484E+08
 
   -0.35855E+08        -0.12916E+07         0.00000E+00
   -0.12916E+07        -0.59906E+08         0.00000E+00
    0.00000E+00         0.00000E+00        -0.56484E+08
 
   -0.37753E+08        -0.17502E+07         0.00000E+00
   -0.17502E+07        -0.59807E+08         0.00000E+00
    0.00000E+00         0.00000E+00        -0.56484E+08
 
   -0.39621E+08        -0.19268E+07         0.00000E+00
   -0.19268E+07        -0.59712E+08         0.00000E+00
    0.00000E+00         0.00000E+00        -0.56484E+08
 
   -0.41412E+08        -0.18655E+07         0.00000E+00
   -0.18655E+07        -0.59631E+08         0.00000E+00
    0.00000E+00         0.00000E+00        -0.56485E+08
 
   -0.43111E+08        -0.16065E+07         0.00000E+00
   -0.16065E+07        -0.59561E+08         0.00000E+00
    0.00000E+00         0.00000E+00        -0.56487E+08
 
   -0.44720E+08        -0.11808E+07         0.00000E+00
   -0.11808E+07        -0.59487E+08         0.00000E+00
    0.00000E+00         0.00000E+00        -0.56490E+08
 
   -0.46252E+08        -0.60826E+06         0.00000E+00
   -0.60826E+06        -0.59391E+08         0.00000E+00
    0.00000E+00         0.00000E+00        -0.56494E+08
 
   -0.47727E+08         0.10143E+06         0.00000E+00
    0.10143E+06        -0.59254E+08         0.00000E+00
    0.00000E+00         0.00000E+00        -0.56497E+08
 
   -0.49163E+08         0.94762E+06         0.00000E+00
    0.94762E+06        -0.59057E+08         0.00000E+00
    0.00000E+00         0.00000E+00        -0.56501E+08
 
   -0.50573E+08         0.19375E+07         0.00000E+00
    0.19375E+07        -0.58787E+08         0.00000E+00
    0.00000E+00         0.00000E+00        -0.56504E+08
 
   -0.51966E+08         0.30846E+07         0.00000E+00
    0.30846E+07        -0.58436E+08         0.00000E+00
    0.00000E+00         0.00000E+00        -0.56506E+08
 
   -0.53336E+08         0.44066E+07         0.00000E+00
    0.44066E+07        -0.58005E+08         0.00000E+00
    0.00000E+00         0.00000E+00        -0.56508E+08
 
   -0.54663E+08         0.59207E+07         0.00000E+00
    0.59207E+07        -0.57505E+08         0.00000E+00
    0.00000E+00         0.00000E+00        -0.56509E+08
 
   -0.55911E+08         0.76371E+07         0.00000E+00
    0.76371E+07        -0.56959E+08         0.00000E+00
    0.00000E+00         0.00000E+00        -0.56510E+08
 
   -0.34909E+08        -0.46929E+06         0.00000E+00
   -0.46929E+06        -0.59978E+08         0.00000E+00
    0.00000E+00         0.00000E+00        -0.54598E+08
 
   -0.36454E+08        -0.11934E+07         0.00000E+00
   -0.11934E+07        -0.59907E+08         0.00000E+00
    0.00000E+00         0.00000E+00        -0.54597E+08
 
   -0.38065E+08        -0.16371E+07         0.00000E+00
   -0.16371E+07        -0.59798E+08         0.00000E+00
    0.00000E+00         0.00000E+00        -0.54596E+08
 
   -0.39678E+08        -0.18200E+07         0.00000E+00
   -0.18200E+07        -0.59678E+08         0.00000E+00
    0.00000E+00         0.00000E+00        -0.54594E+08
 
   -0.41252E+08        -0.17696E+07         0.00000E+00
   -0.17696E+07        -0.59562E+08         0.00000E+00
    0.00000E+00         0.00000E+00        -0.54593E+08
 
   -0.42764E+08        -0.15143E+07         0.00000E+00
   -0.15143E+07        -0.59450E+08         0.00000E+00
    0.00000E+00         0.00000E+00        -0.54592E+08
 
   -0.44209E+08        -0.10780E+07         0.00000E+00
   -0.10780E+07        -0.59334E+08         0.00000E+00
    0.00000E+00         0.00000E+00        -0.54592E+08
 
   -0.45592E+08        -0.47793E+06         0.00000E+00
   -0.47793E+06        -0.59202E+08         0.00000E+00
    0.00000E+00         0.00000E+00        -0.54592E+08
 
   -0.46924E+08         0.27587E+06         0.00000E+00
    0.27587E+06        -0.59039E+08         0.00000E+00
    0.00000E+00         0.00000E+00        -0.54592E+08
 
   -0.48214E+08         0.11804E+07         0.00000E+00
    0.11804E+07        -0.58832E+08         0.00000E+00
    0.00000E+00         0.00000E+00        -0.54593E+08
 
   -0.49472E+08         0.22384E+07         0.00000E+00
    0.22384E+07        -0.58570E+08         0.00000E+00
    0.00000E+00         0.00000E+00        -0.54593E+08
 
   -0.50699E+08         0.34569E+07         0.00000E+00
    0.34569E+07        -0.58249E+08         0.00000E+00
    0.00000E+00         0.00000E+00        -0.54593E+08
 
   -0.51890E+08         0.48450E+07         0.00000E+00
    0.48450E+07        -0.57869E+08         0.00000E+00
    0.00000E+00         0.00000E+00        -0.54593E+08
 
   -0.53028E+08         0.64099E+07         0.00000E+00
    0.64099E+07        -0.57439E+08         0.00000E+00
    0.00000E+00         0.00000E+00        -0.54593E+08
 
   -0.54087E+08         0.81534E+07         0.00000E+00
    0.81534E+07        -0.56977E+08         0.00000E+00
    0.00000E+00         0.00000E+00        -0.54593E+08
 
   -0.35738E+08        -0.42689E+06         0.00000E+00
   -0.42689E+06        -0.59980E+08         0.00000E+00
    0.00000E+00         0.00000E+00        -0.52709E+08
 
   -0.37017E+08        -0.10955E+07         0.00000E+00
   -0.10955E+07        -0.59912E+08         0.00000E+00
    0.00000E+00         0.00000E+00        -0.52707E+08
 
   -0.38368E+08        -0.15149E+07         0.00000E+00
   -0.15149E+07        -0.59803E+08         0.00000E+00
    0.00000E+00         0.00000E+00        -0.52705E+08
 
   -0.39741E+08        -0.16928E+07         0.00000E+00
   -0.16928E+07        -0.59677E+08         0.00000E+00
    0.00000E+00         0.00000E+00        -0.52702E+08
 
   -0.41097E+08        -0.16448E+07         0.00000E+00
   -0.16448E+07        -0.59545E+08         0.00000E+00
    0.00000E+00         0.00000E+00        -0.52699E+08
 
   -0.42414E+08        -0.13897E+07         0.00000E+00
   -0.13897E+07        -0.59413E+08         0.00000E+00
    0.00000E+00         0.00000E+00        -0.52695E+08
 
   -0.43682E+08        -0.94502E+06         0.00000E+00
   -0.94502E+06        -0.59276E+08         0.00000E+00
    0.00000E+00         0.00000E+00        -0.52692E+08
 
   -0.44901E+08        -0.32475E+06         0.00000E+00
   -0.32475E+06        -0.59126E+08         0.00000E+00
    0.00000E+00         0.00000E+00        -0.52690E+08
 
   -0.46075E+08         0.46163E+06         0.00000E+00
    0.46163E+06        -0.58954E+08         0.00000E+00
    0.00000E+00         0.00000E+00        -0.52687E+08
 
   -0.47210E+08         0.14094E+07         0.00000E+00
    0.14094E+07        -0.58749E+08         0.00000E+00
    0.00000E+00         0.00000E+00        -0.52685E+08
 
   -0.48308E+08         0.25176E+07         0.00000E+00
    0.25176E+07        -0.58505E+08         0.00000E+00
    0.00000E+00         0.00000E+00        -0.52683E+08
 
   -0.49371E+08         0.37883E+07         0.00000E+00
    0.37883E+07        -0.58217E+08         0.00000E+00
    0.00000E+00         0.00000E+00        -0.52681E+08
 
   -0.50393E+08         0.52240E+07         0.00000E+00
    0.52240E+07        -0.57886E+08         0.00000E+00
    0.00000E+00         0.00000E+00        -0.52679E+08
 
   -0.51359E+08         0.68252E+07         0.00000E+00
    0.68252E+07        -0.57520E+08         0.00000E+00
    0.00000E+00         0.00000E+00        -0.52678E+08
 
   -0.52252E+08         0.85879E+07         0.00000E+00
    0.85879E+07        -0.57130E+08         0.00000E+00
    0.00000E+00         0.00000E+00        -0.52677E+08
 
   -0.36496E+08        -0.38862E+06         0.00000E+00
   -0.38862E+06        -0.59982E+08         0.00000E+00
    0.00000E+00         0.00000E+00        -0.50815E+08
 
   -0.37541E+08        -0.10039E+07         0.00000E+00
   -0.10039E+07        -0.59921E+08         0.00000E+00
    0.00000E+00         0.00000E+00        -0.50813E+08
 
   -0.38656E+08        -0.13951E+07         0.00000E+00
   -0.13951E+07        -0.59820E+08         0.00000E+00
    0.00000E+00         0.00000E+00        -0.50810E+08
 
   -0.39800E+08        -0.15616E+07         0.00000E+00
   -0.15616E+07        -0.59698E+08         0.00000E+00
    0.00000E+00         0.00000E+00        -0.50806E+08
 
   -0.40942E+08        -0.15104E+07         0.00000E+00
   -0.15104E+07        -0.59567E+08         0.00000E+00
    0.00000E+00         0.00000E+00        -0.50801E+08
 
   -0.42060E+08        -0.12528E+07         0.00000E+00
   -0.12528E+07        -0.59432E+08         0.00000E+00
    0.00000E+00         0.00000E+00        -0.50796E+08
 
   -0.43143E+08        -0.80071E+06         0.00000E+00
   -0.80071E+06        -0.59292E+08         0.00000E+00
    0.00000E+00         0.00000E+00        -0.50791E+08
 
   -0.44187E+08        -0.16528E+06         0.00000E+00
   -0.16528E+06        -0.59141E+08         0.00000E+00
    0.00000E+00         0.00000E+00        -0.50785E+08
 
   -0.45194E+08         0.64498E+06         0.00000E+00
    0.64498E+06        -0.58974E+08         0.00000E+00
    0.00000E+00         0.00000E+00        -0.50781E+08
 
   -0.46164E+08         0.16242E+07         0.00000E+00
    0.16242E+07        -0.58783E+08         0.00000E+00
    0.00000E+00         0.00000E+00        -0.50776E+08
 
   -0.47100E+08         0.27690E+07         0.00000E+00
    0.27690E+07        -0.58563E+08         0.00000E+00
    0.00000E+00         0.00000E+00        -0.50772E+08
 
   -0.48000E+08         0.40774E+07         0.00000E+00
    0.40774E+07        -0.58312E+08         0.00000E+00
    0.00000E+00         0.00000E+00        -0.50768E+08
 
   -0.48859E+08         0.55472E+07         0.00000E+00
    0.55472E+07        -0.58030E+08         0.00000E+00
    0.00000E+00         0.00000E+00        -0.50765E+08
 
   -0.49666E+08         0.71744E+07         0.00000E+00
    0.71744E+07        -0.57723E+08         0.00000E+00
    0.00000E+00         0.00000E+00        -0.50763E+08
 
   -0.50409E+08         0.89511E+07         0.00000E+00
    0.89511E+07        -0.57399E+08         0.00000E+00
    0.00000E+00         0.00000E+00        -0.50762E+08
 
   -0.37190E+08        -0.35556E+06         0.00000E+00
   -0.35556E+06        -0.59985E+08         0.00000E+00
    0.00000E+00         0.00000E+00        -0.48918E+08
 
   -0.38026E+08        -0.92291E+06         0.00000E+00
   -0.92291E+06        -0.59933E+08         0.00000E+00
    0.00000E+00         0.00000E+00        -0.48916E+08
 
   -0.38924E+08        -0.12862E+07         0.00000E+00
   -0.12862E+07        -0.59845E+08         0.00000E+00
    0.00000E+00         0.00000E+00        -0.48912E+08
 
   -0.39852E+08        -0.14388E+07         0.00000E+00
   -0.14388E+07        -0.59737E+08         0.00000E+00
    0.00000E+00         0.00000E+00        -0.48907E+08
 
   -0.40784E+08        -0.13813E+07         0.00000E+00
   -0.13813E+07        -0.59619E+08         0.00000E+00
    0.00000E+00         0.00000E+00        -0.48900E+08
 
   -0.41701E+08        -0.11193E+07         0.00000E+00
   -0.11193E+07        -0.59494E+08         0.00000E+00
    0.00000E+00         0.00000E+00        -0.48894E+08
 
   -0.42593E+08        -0.66072E+06         0.00000E+00
   -0.66072E+06        -0.59364E+08         0.00000E+00
    0.00000E+00         0.00000E+00        -0.48886E+08
 
   -0.43456E+08        -0.13750E+05         0.00000E+00
   -0.13750E+05        -0.59226E+08         0.00000E+00
    0.00000E+00         0.00000E+00        -0.48879E+08
 
   -0.44288E+08         0.81394E+06         0.00000E+00
    0.81394E+06        -0.59076E+08         0.00000E+00
    0.00000E+00         0.00000E+00        -0.48872E+08
 
   -0.45090E+08         0.18160E+07         0.00000E+00
    0.18160E+07        -0.58908E+08         0.00000E+00
    0.00000E+00         0.00000E+00        -0.48866E+08
 
   -0.45860E+08         0.29870E+07         0.00000E+00
    0.29870E+07        -0.58720E+08         0.00000E+00
    0.00000E+00         0.00000E+00        -0.48860E+08
 
   -0.46598E+08         0.43224E+07         0.00000E+00
    0.43224E+07        -0.58509E+08         0.00000E+00
    0.00000E+00         0.00000E+00        -0.48855E+08
 
   -0.47299E+08         0.58166E+07         0.00000E+00
    0.58166E+07        -0.58276E+08         0.00000E+00
    0.00000E+00         0.00000E+00        -0.48851E+08
 
   -0.47955E+08         0.74626E+07         0.00000E+00
    0.74626E+07        -0.58025E+08         0.00000E+00
    0.00000E+00         0.00000E+00        -0.48848E+08
 
   -0.48559E+08         0.92500E+07         0.00000E+00
    0.92500E+07        -0.57762E+08         0.00000E+00
    0.00000E+00         0.00000E+00        -0.48846E+08
 
   -0.37830E+08        -0.32858E+06         0.00000E+00
   -0.32858E+06        -0.59988E+08         0.00000E+00
    0.00000E+00         0.00000E+00        -0.47017E+08
 
   -0.38477E+08        -0.85591E+06         0.00000E+00
   -0.85591E+06        -0.59947E+08         0.00000E+00
    0.00000E+00         0.00000E+00        -0.47014E+08
 
   -0.39173E+08        -0.11946E+07         0.00000E+00
   -0.11946E+07        -0.59877E+08         0.00000E+00
    0.00000E+00         0.00000E+00        -0.47010E+08
 
   -0.39894E+08        -0.13335E+07         0.00000E+00
   -0.13335E+07        -0.59789E+08         0.00000E+00
    0.00000E+00         0.00000E+00        -0.47004E+08
 
   -0.40620E+08        -0.12688E+07         0.00000E+00
   -0.12688E+07        -0.59692E+08         0.00000E+00
    0.00000E+00         0.00000E+00        -0.46996E+08
 
   -0.41337E+08        -0.10020E+07         0.00000E+00
   -0.10020E+07        -0.59589E+08         0.00000E+00
    0.00000E+00         0.00000E+00        -0.46988E+08
 
   -0.42036E+08        -0.53754E+06         0.00000E+00
   -0.53754E+06        -0.59480E+08         0.00000E+00
    0.00000E+00         0.00000E+00        -0.46979E+08
 
   -0.42713E+08         0.11823E+06         0.00000E+00
    0.11823E+06        -0.59365E+08         0.00000E+00
    0.00000E+00         0.00000E+00        -0.46970E+08
 
   -0.43366E+08         0.95862E+06         0.00000E+00
    0.95862E+06        -0.59241E+08         0.00000E+00
    0.00000E+00         0.00000E+00        -0.46961E+08
 
   -0.43994E+08         0.19770E+07         0.00000E+00
    0.19770E+07        -0.59105E+08         0.00000E+00
    0.00000E+00         0.00000E+00        -0.46953E+08
 
   -0.44597E+08         0.31669E+07         0.00000E+00
    0.31669E+07        -0.58954E+08         0.00000E+00
    0.00000E+00         0.00000E+00        -0.46945E+08
 
   -0.45173E+08         0.45215E+07         0.00000E+00
    0.45215E+07        -0.58786E+08         0.00000E+00
    0.00000E+00         0.00000E+00        -0.46939E+08
 
   -0.45719E+08         0.60334E+07         0.00000E+00
    0.60334E+07        -0.58603E+08         0.00000E+00
    0.00000E+00         0.00000E+00        -0.46934E+08
 
   -0.46232E+08         0.76932E+07         0.00000E+00
    0.76932E+07        -0.58407E+08         0.00000E+00
    0.00000E+00         0.00000E+00        -0.46930E+08
 
   -0.46703E+08         0.94892E+07         0.00000E+00
    0.94892E+07        -0.58200E+08         0.00000E+00
    0.00000E+00         0.00000E+00        -0.46928E+08
 
   -0.38426E+08        -0.30839E+06         0.00000E+00
   -0.30839E+06        -0.59992E+08         0.00000E+00
    0.00000E+00         0.00000E+00        -0.45111E+08
 
   -0.38899E+08        -0.80537E+06         0.00000E+00
   -0.80537E+06        -0.59963E+08         0.00000E+00
    0.00000E+00         0.00000E+00        -0.45108E+08
 
   -0.39406E+08        -0.11247E+07         0.00000E+00
   -0.11247E+07        -0.59913E+08         0.00000E+00
    0.00000E+00         0.00000E+00        -0.45103E+08
 
   -0.39927E+08        -0.12523E+07         0.00000E+00
   -0.12523E+07        -0.59851E+08         0.00000E+00
    0.00000E+00         0.00000E+00        -0.45096E+08
 
   -0.40451E+08        -0.11812E+07         0.00000E+00
   -0.11812E+07        -0.59781E+08         0.00000E+00
    0.00000E+00         0.00000E+00        -0.45087E+08
 
   -0.40968E+08        -0.90994E+06         0.00000E+00
   -0.90994E+06        -0.59706E+08         0.00000E+00
    0.00000E+00         0.00000E+00        -0.45078E+08
 
   -0.41472E+08        -0.44074E+06         0.00000E+00
   -0.44074E+06        -0.59627E+08         0.00000E+00
    0.00000E+00         0.00000E+00        -0.45067E+08
 
   -0.41960E+08         0.22168E+06         0.00000E+00
    0.22168E+06        -0.59544E+08         0.00000E+00
    0.00000E+00         0.00000E+00        -0.45056E+08
 
   -0.42430E+08         0.10713E+07         0.00000E+00
    0.10713E+07        -0.59453E+08         0.00000E+00
    0.00000E+00         0.00000E+00        -0.45046E+08
 
   -0.42882E+08         0.21013E+07         0.00000E+00
    0.21013E+07        -0.59354E+08         0.00000E+00
    0.00000E+00         0.00000E+00        -0.45036E+08
 
   -0.43316E+08         0.33046E+07         0.00000E+00
    0.33046E+07        -0.59244E+08         0.00000E+00
    0.00000E+00         0.00000E+00        -0.45027E+08
 
   -0.43732E+08         0.46730E+07         0.00000E+00
    0.46730E+07        -0.59123E+08         0.00000E+00
    0.00000E+00         0.00000E+00        -0.45020E+08
 
   -0.44126E+08         0.61978E+07         0.00000E+00
    0.61978E+07        -0.58990E+08         0.00000E+00
    0.00000E+00         0.00000E+00        -0.45014E+08
 
   -0.44497E+08         0.78681E+07         0.00000E+00
    0.78681E+07        -0.58847E+08         0.00000E+00
    0.00000E+00         0.00000E+00        -0.45009E+08
 
   -0.44842E+08         0.96714E+07         0.00000E+00
    0.96714E+07        -0.58696E+08         0.00000E+00
    0.00000E+00         0.00000E+00        -0.45007E+08
 
   -0.38992E+08        -0.29552E+06         0.00000E+00
   -0.29552E+06        -0.59996E+08         0.00000E+00
    0.00000E+00         0.00000E+00        -0.43201E+08
 
   -0.39302E+08        -0.77310E+06         0.00000E+00
   -0.77310E+06        -0.59980E+08         0.00000E+00
    0.00000E+00         0.00000E+00        -0.43198E+08
 
   -0.39626E+08        -0.10800E+07         0.00000E+00
   -0.10800E+07        -0.59953E+08         0.00000E+00
    0.00000E+00         0.00000E+00        -0.43192E+08
 
   -0.39953E+08        -0.12002E+07         0.00000E+00
   -0.12002E+07        -0.59919E+08         0.00000E+00
    0.00000E+00         0.00000E+00        -0.43184E+08
 
   -0.40278E+08        -0.11246E+07         0.00000E+00
   -0.11246E+07        -0.59881E+08         0.00000E+00
    0.00000E+00         0.00000E+00        -0.43174E+08
 
   -0.40596E+08        -0.84994E+06         0.00000E+00
   -0.84994E+06        -0.59840E+08         0.00000E+00
    0.00000E+00         0.00000E+00        -0.43163E+08
 
   -0.40904E+08        -0.37714E+06         0.00000E+00
   -0.37714E+06        -0.59796E+08         0.00000E+00
    0.00000E+00         0.00000E+00        -0.43151E+08
 
   -0.41200E+08         0.29013E+06         0.00000E+00
    0.29013E+06        -0.59749E+08         0.00000E+00
    0.00000E+00         0.00000E+00        -0.43138E+08
 
   -0.41486E+08         0.11463E+07         0.00000E+00
    0.11463E+07        -0.59697E+08         0.00000E+00
    0.00000E+00         0.00000E+00        -0.43126E+08
 
   -0.41760E+08         0.21845E+07         0.00000E+00
    0.21845E+07        -0.59639E+08         0.00000E+00
    0.00000E+00         0.00000E+00        -0.43115E+08
 
   -0.42025E+08         0.33972E+07         0.00000E+00
    0.33972E+07        -0.59573E+08         0.00000E+00
    0.00000E+00         0.00000E+00        -0.43105E+08
 
   -0.42279E+08         0.47756E+07         0.00000E+00
    0.47756E+07        -0.59500E+08         0.00000E+00
    0.00000E+00         0.00000E+00        -0.43096E+08
 
   -0.42523E+08         0.63098E+07         0.00000E+00
    0.63098E+07        -0.59418E+08         0.00000E+00
    0.00000E+00         0.00000E+00        -0.43089E+08
 
   -0.42755E+08         0.79886E+07         0.00000E+00
    0.79886E+07        -0.59329E+08         0.00000E+00
    0.00000E+00         0.00000E+00        -0.43084E+08
 
   -0.42975E+08         0.97985E+07         0.00000E+00
    0.97985E+07        -0.59232E+08         0.00000E+00
    0.00000E+00         0.00000E+00        -0.43082E+08
 
   -0.39541E+08        -0.29032E+06         0.00000E+00
   -0.29032E+06        -0.60000E+08         0.00000E+00
    0.00000E+00         0.00000E+00        -0.41285E+08
 
   -0.39694E+08        -0.76032E+06         0.00000E+00
   -0.76032E+06        -0.59998E+08         0.00000E+00
    0.00000E+00         0.00000E+00        -0.41282E+08
 
   -0.39839E+08        -0.10626E+07         0.00000E+00
   -0.10626E+07        -0.59995E+08         0.00000E+00
    0.00000E+00         0.00000E+00        -0.41275E+08
 
   -0.39975E+08        -0.11799E+07         0.00000E+00
   -0.11799E+07        -0.59991E+08         0.00000E+00
    0.00000E+00         0.00000E+00        -0.41266E+08
 
   -0.40103E+08        -0.11025E+07         0.00000E+00
   -0.11025E+07        -0.59987E+08         0.00000E+00
    0.00000E+00         0.00000E+00        -0.41255E+08
 
   -0.40221E+08        -0.82616E+06         0.00000E+00
   -0.82616E+06        -0.59983E+08         0.00000E+00
    0.00000E+00         0.00000E+00        -0.41242E+08
 
   -0.40332E+08        -0.35108E+06         0.00000E+00
   -0.35108E+06        -0.59977E+08         0.00000E+00
    0.00000E+00         0.00000E+00        -0.41229E+08
 
   -0.40436E+08         0.31943E+06         0.00000E+00
    0.31943E+06        -0.59970E+08         0.00000E+00
    0.00000E+00         0.00000E+00        -0.41215E+08
 
   -0.40535E+08         0.11800E+07         0.00000E+00
    0.11800E+07        -0.59959E+08         0.00000E+00
    0.00000E+00         0.00000E+00        -0.41201E+08
 
   -0.40631E+08         0.22238E+07         0.00000E+00
    0.22238E+07        -0.59945E+08         0.00000E+00
    0.00000E+00         0.00000E+00        -0.41189E+08
 
   -0.40725E+08         0.34428E+07         0.00000E+00
    0.34428E+07        -0.59926E+08         0.00000E+00
    0.00000E+00         0.00000E+00        -0.41177E+08
 
   -0.40818E+08         0.48281E+07         0.00000E+00
    0.48281E+07        -0.59901E+08         0.00000E+00
    0.00000E+00         0.00000E+00        -0.41167E+08
 
   -0.40911E+08         0.63694E+07         0.00000E+00
    0.63694E+07        -0.59871E+08         0.00000E+00
    0.00000E+00         0.00000E+00        -0.41159E+08
 
   -0.41006E+08         0.80550E+07         0.00000E+00
    0.80550E+07        -0.59834E+08         0.00000E+00
    0.00000E+00         0.00000E+00        -0.41154E+08
 
   -0.41102E+08         0.98713E+07         0.00000E+00
    0.98713E+07        -0.59792E+08         0.00000E+00
    0.00000E+00         0.00000E+00        -0.41151E+08
 
   -0.40089E+08        -0.29299E+06         0.00000E+00
   -0.29299E+06        -0.60004E+08         0.00000E+00
    0.00000E+00         0.00000E+00        -0.39363E+08
 
   -0.40085E+08        -0.76762E+06         0.00000E+00
   -0.76762E+06        -0.60016E+08         0.00000E+00
    0.00000E+00         0.00000E+00        -0.39359E+08
 
   -0.40052E+08        -0.10734E+07         0.00000E+00
   -0.10734E+07        -0.60037E+08         0.00000E+00
    0.00000E+00         0.00000E+00        -0.39352E+08
 
   -0.39997E+08        -0.11931E+07         0.00000E+00
   -0.11931E+07        -0.60064E+08         0.00000E+00
    0.00000E+00         0.00000E+00        -0.39342E+08
 
   -0.39926E+08        -0.11169E+07         0.00000E+00
   -0.11169E+07        -0.60096E+08         0.00000E+00
    0.00000E+00         0.00000E+00        -0.39329E+08
 
   -0.39845E+08        -0.84059E+06         0.00000E+00
   -0.84059E+06        -0.60129E+08         0.00000E+00
    0.00000E+00         0.00000E+00        -0.39315E+08
 
   -0.39758E+08        -0.36461E+06         0.00000E+00
   -0.36461E+06        -0.60162E+08         0.00000E+00
    0.00000E+00         0.00000E+00        -0.39300E+08
 
   -0.39669E+08         0.30765E+06         0.00000E+00
    0.30765E+06        -0.60195E+08         0.00000E+00
    0.00000E+00         0.00000E+00        -0.39285E+08
 
   -0.39581E+08         0.11707E+07         0.00000E+00
    0.11707E+07        -0.60227E+08         0.00000E+00
    0.00000E+00         0.00000E+00        -0.39270E+08
 
   -0.39497E+08         0.22176E+07         0.00000E+00
    0.22176E+07        -0.60257E+08         0.00000E+00
    0.00000E+00         0.00000E+00        -0.39256E+08
 
   -0.39419E+08         0.34404E+07         0.00000E+00
    0.34404E+07        -0.60284E+08         0.00000E+00
    0.00000E+00         0.00000E+00        -0.39243E+08
 
   -0.39351E+08         0.48301E+07         0.00000E+00
    0.48301E+07        -0.60309E+08         0.00000E+00
    0.00000E+00         0.00000E+00        -0.39232E+08
 
   -0.39294E+08         0.63764E+07         0.00000E+00
    0.63764E+07        -0.60330E+08         0.00000E+00
    0.00000E+00         0.00000E+00        -0.39223E+08
 
   -0.39250E+08         0.80675E+07         0.00000E+00
    0.80675E+07        -0.60347E+08         0.00000E+00
    0.00000E+00         0.00000E+00        -0.39217E+08
 
   -0.39223E+08         0.98900E+07         0.00000E+00
    0.98900E+07        -0.60359E+08         0.00000E+00
    0.00000E+00         0.00000E+00        -0.39214E+08
 
   -0.40649E+08        -0.30356E+06         0.00000E+00
   -0.30356E+06        -0.60008E+08         0.00000E+00
    0.00000E+00         0.00000E+00        -0.37434E+08
 
   -0.40485E+08        -0.79508E+06         0.00000E+00
   -0.79508E+06        -0.60034E+08         0.00000E+00
    0.00000E+00         0.00000E+00        -0.37430E+08
 
   -0.40271E+08        -0.11126E+07         0.00000E+00
   -0.11126E+07        -0.60079E+08         0.00000E+00
    0.00000E+00         0.00000E+00        -0.37422E+08
 
   -0.40022E+08        -0.12397E+07         0.00000E+00
   -0.12397E+07        -0.60137E+08         0.00000E+00
    0.00000E+00         0.00000E+00        -0.37411E+08
 
   -0.39752E+08        -0.11675E+07         0.00000E+00
   -0.11675E+07        -0.60202E+08         0.00000E+00
    0.00000E+00         0.00000E+00        -0.37397E+08
 
   -0.39469E+08        -0.89305E+06         0.00000E+00
   -0.89305E+06        -0.60272E+08         0.00000E+00
    0.00000E+00         0.00000E+00        -0.37381E+08
 
   -0.39183E+08        -0.41750E+06         0.00000E+00
   -0.41750E+06        -0.60343E+08         0.00000E+00
    0.00000E+00         0.00000E+00        -0.37365E+08
 
   -0.38900E+08         0.25503E+06         0.00000E+00
    0.25503E+06        -0.60415E+08         0.00000E+00
    0.00000E+00         0.00000E+00        -0.37348E+08
 
   -0.38624E+08         0.11186E+07         0.00000E+00
    0.11186E+07        -0.60487E+08         0.00000E+00
    0.00000E+00         0.00000E+00        -0.37331E+08
 
   -0.38360E+08         0.21663E+07         0.00000E+00
    0.21663E+07        -0.60560E+08         0.00000E+00
    0.00000E+00         0.00000E+00        -0.37316E+08
 
   -0.38111E+08         0.33902E+07         0.00000E+00
    0.33902E+07        -0.60634E+08         0.00000E+00
    0.00000E+00         0.00000E+00        -0.37301E+08
 
   -0.37880E+08         0.47816E+07         0.00000E+00
    0.47816E+07        -0.60708E+08         0.00000E+00
    0.00000E+00         0.00000E+00        -0.37289E+08
 
   -0.37671E+08         0.63306E+07         0.00000E+00
    0.63306E+07        -0.60781E+08         0.00000E+00
    0.00000E+00         0.00000E+00        -0.37280E+08
 
   -0.37489E+08         0.80260E+07         0.00000E+00
    0.80260E+07        -0.60851E+08         0.00000E+00
    0.00000E+00         0.00000E+00        -0.37273E+08
 
   -0.37337E+08         0.98545E+07         0.00000E+00
    0.98545E+07        -0.60917E+08         0.00000E+00
    0.00000E+00         0.00000E+00        -0.37270E+08
 
   -0.41235E+08        -0.32191E+06         0.00000E+00
   -0.32191E+06        -0.60011E+08         0.00000E+00
    0.00000E+00         0.00000E+00        -0.35498E+08
 
   -0.40904E+08        -0.84218E+06         0.00000E+00
   -0.84218E+06        -0.60051E+08         0.00000E+00
    0.00000E+00         0.00000E+00        -0.35493E+08
 
   -0.40503E+08        -0.11791E+07         0.00000E+00
   -0.11791E+07        -0.60119E+08         0.00000E+00
    0.00000E+00         0.00000E+00        -0.35484E+08
 
   -0.40055E+08        -0.13181E+07         0.00000E+00
   -0.13181E+07        -0.60205E+08         0.00000E+00
    0.00000E+00         0.00000E+00        -0.35471E+08
 
   -0.39581E+08        -0.12525E+07         0.00000E+00
   -0.12525E+07        -0.60302E+08         0.00000E+00
    0.00000E+00         0.00000E+00        -0.35456E+08
 
   -0.39095E+08        -0.98121E+06         0.00000E+00
   -0.98121E+06        -0.60405E+08         0.00000E+00
    0.00000E+00         0.00000E+00        -0.35439E+08
 
   -0.38609E+08        -0.50725E+06         0.00000E+00
   -0.50725E+06        -0.60510E+08         0.00000E+00
    0.00000E+00         0.00000E+00        -0.35421E+08
 
   -0.38132E+08         0.16403E+06         0.00000E+00
    0.16403E+06        -0.60618E+08         0.00000E+00
    0.00000E+00         0.00000E+00        -0.35402E+08
 
   -0.37669E+08         0.10260E+07         0.00000E+00
    0.10260E+07        -0.60728E+08         0.00000E+00
    0.00000E+00         0.00000E+00        -0.35384E+08
 
   -0.37225E+08         0.20716E+07         0.00000E+00
    0.20716E+07        -0.60841E+08         0.00000E+00
    0.00000E+00         0.00000E+00        -0.35367E+08
 
   -0.36803E+08         0.32932E+07         0.00000E+00
    0.32932E+07        -0.60959E+08         0.00000E+00
    0.00000E+00         0.00000E+00        -0.35352E+08
 
   -0.36409E+08         0.46831E+07         0.00000E+00
    0.46831E+07        -0.61080E+08         0.00000E+00
    0.00000E+00         0.00000E+00        -0.35339E+08
 
   -0.36047E+08         0.62322E+07         0.00000E+00
    0.62322E+07        -0.61204E+08         0.00000E+00
    0.00000E+00         0.00000E+00        -0.35328E+08
 
   -0.35723E+08         0.79300E+07         0.00000E+00
    0.79300E+07        -0.61328E+08         0.00000E+00
    0.00000E+00         0.00000E+00        -0.35321E+08
 
   -0.35444E+08         0.97639E+07         0.00000E+00
    0.97639E+07        -0.61449E+08         0.00000E+00
    0.00000E+00         0.00000E+00        -0.35317E+08
 
   -0.41863E+08        -0.34774E+06         0.00000E+00
   -0.34774E+06        -0.60015E+08         0.00000E+00
    0.00000E+00         0.00000E+00        -0.33552E+08
 
   -0.41351E+08        -0.90784E+06         0.00000E+00
   -0.90784E+06        -0.60067E+08         0.00000E+00
    0.00000E+00         0.00000E+00        -0.33546E+08
 
   -0.40752E+08        -0.12709E+07         0.00000E+00
   -0.12709E+07        -0.60156E+08         0.00000E+00
    0.00000E+00         0.00000E+00        -0.33536E+08
 
   -0.40098E+08        -0.14253E+07         0.00000E+00
   -0.14253E+07        -0.60267E+08         0.00000E+00
    0.00000E+00         0.00000E+00        -0.33522E+08
 
   -0.39415E+08        -0.13677E+07         0.00000E+00
   -0.13677E+07        -0.60391E+08         0.00000E+00
    0.00000E+00         0.00000E+00        -0.33506E+08
 
   -0.38723E+08        -0.11004E+07         0.00000E+00
   -0.11004E+07        -0.60521E+08         0.00000E+00
    0.00000E+00         0.00000E+00        -0.33487E+08
 
   -0.38037E+08        -0.62894E+06         0.00000E+00
   -0.62894E+06        -0.60655E+08         0.00000E+00
    0.00000E+00         0.00000E+00        -0.33467E+08
 
   -0.37366E+08         0.39361E+05         0.00000E+00
    0.39361E+05        -0.60792E+08         0.00000E+00
    0.00000E+00         0.00000E+00        -0.33447E+08
 
   -0.36717E+08         0.89697E+06         0.00000E+00
    0.89697E+06        -0.60934E+08         0.00000E+00
    0.00000E+00         0.00000E+00        -0.33428E+08
 
   -0.36093E+08         0.19367E+07         0.00000E+00
    0.19367E+07        -0.61083E+08         0.00000E+00
    0.00000E+00         0.00000E+00        -0.33409E+08
 
   -0.35500E+08         0.31518E+07         0.00000E+00
    0.31518E+07        -0.61241E+08         0.00000E+00
    0.00000E+00         0.00000E+00        -0.33393E+08
 
   -0.34941E+08         0.45356E+07         0.00000E+00
    0.45356E+07        -0.61408E+08         0.00000E+00
    0.00000E+00         0.00000E+00        -0.33379E+08
 
   -0.34423E+08         0.60809E+07         0.00000E+00
    0.60809E+07        -0.61583E+08         0.00000E+00
    0.00000E+00         0.00000E+00        -0.33367E+08
 
   -0.33955E+08         0.77785E+07         0.00000E+00
    0.77785E+07        -0.61761E+08         0.00000E+00
    0.00000E+00         0.00000E+00        -0.33360E+08
 
   -0.33544E+08         0.96168E+07         0.00000E+00
    0.96168E+07        -0.61939E+08         0.00000E+00
    0.00000E+00         0.00000E+00        -0.33356E+08
 
   -0.42544E+08        -0.38059E+06         0.00000E+00
   -0.38059E+06        -0.60019E+08         0.00000E+00
    0.00000E+00         0.00000E+00        -0.31595E+08
 
   -0.41835E+08        -0.99034E+06         0.00000E+00
   -0.99034E+06        -0.60082E+08         0.00000E+00
    0.00000E+00         0.00000E+00        -0.31589E+08
 
   -0.41024E+08        -0.13846E+07         0.00000E+00
   -0.13846E+07        -0.60188E+08         0.00000E+00
    0.00000E+00         0.00000E+00        -0.31578E+08
 
   -0.40152E+08        -0.15563E+07         0.00000E+00
   -0.15563E+07        -0.60320E+08         0.00000E+00
    0.00000E+00         0.00000E+00        -0.31563E+08
 
   -0.39255E+08        -0.15069E+07         0.00000E+00
   -0.15069E+07        -0.60464E+08         0.00000E+00
    0.00000E+00         0.00000E+00        -0.31545E+08
 
   -0.38354E+08        -0.12434E+07         0.00000E+00
   -0.12434E+07        -0.60614E+08         0.00000E+00
    0.00000E+00         0.00000E+00        -0.31525E+08
 
   -0.37468E+08        -0.77507E+06         0.00000E+00
   -0.77507E+06        -0.60767E+08         0.00000E+00
    0.00000E+00         0.00000E+00        -0.31503E+08
 
   -0.36605E+08        -0.11177E+06         0.00000E+00
   -0.11177E+06        -0.60924E+08         0.00000E+00
    0.00000E+00         0.00000E+00        -0.31482E+08
 
   -0.35772E+08         0.73779E+06         0.00000E+00
    0.73779E+06        -0.61090E+08         0.00000E+00
    0.00000E+00         0.00000E+00        -0.31461E+08
 
   -0.34971E+08         0.17666E+07         0.00000E+00
    0.17666E+07        -0.61269E+08         0.00000E+00
    0.00000E+00         0.00000E+00        -0.31441E+08
 
   -0.34206E+08         0.29691E+07         0.00000E+00
    0.29691E+07        -0.61462E+08         0.00000E+00
    0.00000E+00         0.00000E+00        -0.31424E+08
 
   -0.33481E+08         0.43408E+07         0.00000E+00
    0.43408E+07        -0.61672E+08         0.00000E+00
    0.00000E+00         0.00000E+00        -0.31409E+08
 
   -0.32804E+08         0.58766E+07         0.00000E+00
    0.58766E+07        -0.61897E+08         0.00000E+00
    0.00000E+00         0.00000E+00        -0.31397E+08
 
   -0.32185E+08         0.75699E+07         0.00000E+00
    0.75699E+07        -0.62131E+08         0.00000E+00
    0.00000E+00         0.00000E+00        -0.31389E+08
 
   -0.31638E+08         0.94108E+07         0.00000E+00
    0.94108E+07        -0.62368E+08         0.00000E+00
    0.00000E+00         0.00000E+00        -0.31384E+08
 
   -0.43291E+08        -0.41986E+06         0.00000E+00
   -0.41986E+06        -0.60022E+08         0.00000E+00
    0.00000E+00         0.00000E+00        -0.29627E+08
 
   -0.42361E+08        -0.10873E+07         0.00000E+00
   -0.10873E+07        -0.60094E+08         0.00000E+00
    0.00000E+00         0.00000E+00        -0.29621E+08
 
   -0.41319E+08        -0.15156E+07         0.00000E+00
   -0.15156E+07        -0.60214E+08         0.00000E+00
    0.00000E+00         0.00000E+00        -0.29608E+08
 
   -0.40218E+08        -0.17040E+07         0.00000E+00
   -0.17040E+07        -0.60359E+08         0.00000E+00
    0.00000E+00         0.00000E+00        -0.29592E+08
 
   -0.39099E+08        -0.16611E+07         0.00000E+00
   -0.16611E+07        -0.60514E+08         0.00000E+00
    0.00000E+00         0.00000E+00        -0.29572E+08
 
   -0.37988E+08        -0.14000E+07         0.00000E+00
   -0.14000E+07        -0.60672E+08         0.00000E+00
    0.00000E+00         0.00000E+00        -0.29550E+08
 
   -0.36904E+08        -0.93519E+06         0.00000E+00
   -0.93519E+06        -0.60833E+08         0.00000E+00
    0.00000E+00         0.00000E+00        -0.29528E+08
 
   -0.35853E+08        -0.27954E+06         0.00000E+00
   -0.27954E+06        -0.61000E+08         0.00000E+00
    0.00000E+00         0.00000E+00        -0.29505E+08
 
   -0.34840E+08         0.55699E+06         0.00000E+00
    0.55699E+06        -0.61179E+08         0.00000E+00
    0.00000E+00         0.00000E+00        -0.29483E+08
 
   -0.33865E+08         0.15678E+07         0.00000E+00
    0.15678E+07        -0.61378E+08         0.00000E+00
    0.00000E+00         0.00000E+00        -0.29463E+08
 
   -0.32929E+08         0.27494E+07         0.00000E+00
    0.27494E+07        -0.61601E+08         0.00000E+00
    0.00000E+00         0.00000E+00        -0.29444E+08
 
   -0.32036E+08         0.41001E+07         0.00000E+00
    0.41001E+07        -0.61851E+08         0.00000E+00
    0.00000E+00         0.00000E+00        -0.29428E+08
 
   -0.31196E+08         0.56186E+07         0.00000E+00
    0.56186E+07        -0.62125E+08         0.00000E+00
    0.00000E+00         0.00000E+00        -0.29416E+08
 
   -0.30420E+08         0.73018E+07         0.00000E+00
    0.73018E+07        -0.62417E+08         0.00000E+00
    0.00000E+00         0.00000E+00        -0.29407E+08
 
   -0.29725E+08         0.91423E+07         0.00000E+00
    0.91423E+07        -0.62718E+08         0.00000E+00
    0.00000E+00         0.00000E+00        -0.29402E+08
 
   -0.44114E+08        -0.46474E+06         0.00000E+00
   -0.46474E+06        -0.60024E+08         0.00000E+00
    0.00000E+00         0.00000E+00        -0.27646E+08
 
   -0.42933E+08        -0.11954E+07         0.00000E+00
   -0.11954E+07        -0.60104E+08         0.00000E+00
    0.00000E+00         0.00000E+00        -0.27639E+08
 
   -0.41638E+08        -0.16573E+07         0.00000E+00
   -0.16573E+07        -0.60232E+08         0.00000E+00
    0.00000E+00         0.00000E+00        -0.27625E+08
 
   -0.40293E+08        -0.18588E+07         0.00000E+00
   -0.18588E+07        -0.60381E+08         0.00000E+00
    0.00000E+00         0.00000E+00        -0.27608E+08
 
   -0.38945E+08        -0.18181E+07         0.00000E+00
   -0.18181E+07        -0.60534E+08         0.00000E+00
    0.00000E+00         0.00000E+00        -0.27586E+08
 
   -0.37624E+08        -0.15568E+07         0.00000E+00
   -0.15568E+07        -0.60686E+08         0.00000E+00
    0.00000E+00         0.00000E+00        -0.27564E+08
 
   -0.36346E+08        -0.10957E+07         0.00000E+00
   -0.10957E+07        -0.60838E+08         0.00000E+00
    0.00000E+00         0.00000E+00        -0.27540E+08
 
   -0.35114E+08        -0.45129E+06         0.00000E+00
   -0.45129E+06        -0.60999E+08         0.00000E+00
    0.00000E+00         0.00000E+00        -0.27516E+08
 
   -0.33927E+08         0.36529E+06         0.00000E+00
    0.36529E+06        -0.61180E+08         0.00000E+00
    0.00000E+00         0.00000E+00        -0.27493E+08
 
   -0.32783E+08         0.13485E+07         0.00000E+00
    0.13485E+07        -0.61389E+08         0.00000E+00
    0.00000E+00         0.00000E+00        -0.27472E+08
 
   -0.31679E+08         0.24977E+07         0.00000E+00
    0.24977E+07        -0.61635E+08         0.00000E+00
    0.00000E+00         0.00000E+00        -0.27453E+08
 
   -0.30617E+08         0.38155E+07         0.00000E+00
    0.38155E+07        -0.61920E+08         0.00000E+00
    0.00000E+00         0.00000E+00        -0.27436E+08
 
   -0.29606E+08         0.53055E+07         0.00000E+00
    0.53055E+07        -0.62244E+08         0.00000E+00
    0.00000E+00         0.00000E+00        -0.27423E+08
 
   -0.28663E+08         0.69699E+07         0.00000E+00
    0.69699E+07        -0.62598E+08         0.00000E+00
    0.00000E+00         0.00000E+00        -0.27414E+08
 
   -0.27809E+08         0.88057E+07         0.00000E+00
    0.88057E+07        -0.62967E+08         0.00000E+00
    0.00000E+00         0.00000E+00        -0.27409E+08
 
   -0.45022E+08        -0.51428E+06         0.00000E+00
   -0.51428E+06        -0.60026E+08         0.00000E+00
    0.00000E+00         0.00000E+00        -0.25650E+08
 
   -0.43552E+08        -0.13103E+07         0.00000E+00
   -0.13103E+07        -0.60110E+08         0.00000E+00
    0.00000E+00         0.00000E+00        -0.25642E+08
 
   -0.41976E+08        -0.18009E+07         0.00000E+00
   -0.18009E+07        -0.60238E+08         0.00000E+00
    0.00000E+00         0.00000E+00        -0.25628E+08
 
   -0.40370E+08        -0.20075E+07         0.00000E+00
   -0.20075E+07        -0.60378E+08         0.00000E+00
    0.00000E+00         0.00000E+00        -0.25609E+08
 
   -0.38789E+08        -0.19617E+07         0.00000E+00
   -0.19617E+07        -0.60512E+08         0.00000E+00
    0.00000E+00         0.00000E+00        -0.25586E+08
 
   -0.37260E+08        -0.16963E+07         0.00000E+00
   -0.16963E+07        -0.60639E+08         0.00000E+00
    0.00000E+00         0.00000E+00        -0.25562E+08
 
   -0.35796E+08        -0.12395E+07         0.00000E+00
   -0.12395E+07        -0.60764E+08         0.00000E+00
    0.00000E+00         0.00000E+00        -0.25538E+08
 
   -0.34394E+08        -0.61161E+06         0.00000E+00
   -0.61161E+06        -0.60902E+08         0.00000E+00
    0.00000E+00         0.00000E+00        -0.25514E+08
 
   -0.33045E+08         0.17560E+06         0.00000E+00
    0.17560E+06        -0.61068E+08         0.00000E+00
    0.00000E+00         0.00000E+00        -0.25490E+08
 
   -0.31739E+08         0.11184E+07         0.00000E+00
    0.11184E+07        -0.61275E+08         0.00000E+00
    0.00000E+00         0.00000E+00        -0.25469E+08
 
   -0.30471E+08         0.22199E+07         0.00000E+00
    0.22199E+07        -0.61535E+08         0.00000E+00
    0.00000E+00         0.00000E+00        -0.25449E+08
 
   -0.29237E+08         0.34884E+07         0.00000E+00
    0.34884E+07        -0.61853E+08         0.00000E+00
    0.00000E+00         0.00000E+00        -0.25432E+08
 
   -0.28048E+08         0.49348E+07         0.00000E+00
    0.49348E+07        -0.62228E+08         0.00000E+00
    0.00000E+00         0.00000E+00        -0.25419E+08
 
   -0.26922E+08         0.65684E+07         0.00000E+00
    0.65684E+07        -0.62648E+08         0.00000E+00
    0.00000E+00         0.00000E+00        -0.25409E+08
 
   -0.25891E+08         0.83928E+07         0.00000E+00
    0.83928E+07        -0.63095E+08         0.00000E+00
    0.00000E+00         0.00000E+00        -0.25405E+08
 
   -0.46018E+08        -0.56727E+06         0.00000E+00
   -0.56727E+06        -0.60028E+08         0.00000E+00
    0.00000E+00         0.00000E+00        -0.23637E+08
 
   -0.44213E+08        -0.14259E+07         0.00000E+00
   -0.14259E+07        -0.60111E+08         0.00000E+00
    0.00000E+00         0.00000E+00        -0.23629E+08
 
   -0.42322E+08        -0.19340E+07         0.00000E+00
   -0.19340E+07        -0.60229E+08         0.00000E+00
    0.00000E+00         0.00000E+00        -0.23613E+08
 
   -0.40439E+08        -0.21322E+07         0.00000E+00
   -0.21322E+07        -0.60341E+08         0.00000E+00
    0.00000E+00         0.00000E+00        -0.23593E+08
 
   -0.38622E+08        -0.20708E+07         0.00000E+00
   -0.20708E+07        -0.60434E+08         0.00000E+00
    0.00000E+00         0.00000E+00        -0.23570E+08
 
   -0.36895E+08        -0.17968E+07         0.00000E+00
   -0.17968E+07        -0.60511E+08         0.00000E+00
    0.00000E+00         0.00000E+00        -0.23546E+08
 
   -0.35259E+08        -0.13463E+07         0.00000E+00
   -0.13463E+07        -0.60587E+08         0.00000E+00
    0.00000E+00         0.00000E+00        -0.23521E+08
 
   -0.33702E+08        -0.74268E+06         0.00000E+00
   -0.74268E+06        -0.60681E+08         0.00000E+00
    0.00000E+00         0.00000E+00        -0.23497E+08
 
   -0.32205E+08         0.25068E+04         0.00000E+00
    0.25068E+04        -0.60815E+08         0.00000E+00
    0.00000E+00         0.00000E+00        -0.23474E+08
 
   -0.30750E+08         0.88819E+06         0.00000E+00
    0.88819E+06        -0.61008E+08         0.00000E+00
    0.00000E+00         0.00000E+00        -0.23452E+08
 
   -0.29322E+08         0.19223E+07         0.00000E+00
    0.19223E+07        -0.61273E+08         0.00000E+00
    0.00000E+00         0.00000E+00        -0.23433E+08
 
   -0.27916E+08         0.31203E+07         0.00000E+00
    0.31203E+07        -0.61620E+08         0.00000E+00
    0.00000E+00         0.00000E+00        -0.23416E+08
 
   -0.26538E+08         0.45021E+07         0.00000E+00
    0.45021E+07        -0.62047E+08         0.00000E+00
    0.00000E+00         0.00000E+00        -0.23402E+08
 
   -0.25211E+08         0.60881E+07         0.00000E+00
    0.60881E+07        -0.62542E+08         0.00000E+00
    0.00000E+00         0.00000E+00        -0.23393E+08
 
   -0.23975E+08         0.78917E+07         0.00000E+00
    0.78917E+07        -0.63079E+08         0.00000E+00
    0.00000E+00         0.00000E+00        -0.23388E+08
 
   -0.47105E+08        -0.62221E+06         0.00000E+00
   -0.62221E+06        -0.60028E+08         0.00000E+00
    0.00000E+00         0.00000E+00        -0.21606E+08
 
   -0.44903E+08        -0.15336E+07         0.00000E+00
   -0.15336E+07        -0.60105E+08         0.00000E+00
    0.00000E+00         0.00000E+00        -0.21597E+08
 
   -0.42659E+08        -0.20385E+07         0.00000E+00
   -0.20385E+07        -0.60195E+08         0.00000E+00
    0.00000E+00         0.00000E+00        -0.21581E+08
 
   -0.40486E+08        -0.22079E+07         0.00000E+00
   -0.22079E+07        -0.60255E+08         0.00000E+00
    0.00000E+00         0.00000E+00        -0.21560E+08
 
   -0.38439E+08        -0.21183E+07         0.00000E+00
   -0.21183E+07        -0.60277E+08         0.00000E+00
    0.00000E+00         0.00000E+00        -0.21537E+08
 
   -0.36529E+08        -0.18324E+07         0.00000E+00
   -0.18324E+07        -0.60275E+08         0.00000E+00
    0.00000E+00         0.00000E+00        -0.21513E+08
 
   -0.34742E+08        -0.13933E+07         0.00000E+00
   -0.13933E+07        -0.60275E+08         0.00000E+00
    0.00000E+00         0.00000E+00        -0.21488E+08
 
   -0.33050E+08        -0.82544E+06         0.00000E+00
   -0.82544E+06        -0.60305E+08         0.00000E+00
    0.00000E+00         0.00000E+00        -0.21465E+08
 
   -0.31424E+08        -0.13862E+06         0.00000E+00
   -0.13862E+06        -0.60391E+08         0.00000E+00
    0.00000E+00         0.00000E+00        -0.21442E+08
 
   -0.29834E+08         0.66947E+06         0.00000E+00
    0.66947E+06        -0.60555E+08         0.00000E+00
    0.00000E+00         0.00000E+00        -0.21422E+08
 
   -0.28256E+08         0.16119E+07         0.00000E+00
    0.16119E+07        -0.60816E+08         0.00000E+00
    0.00000E+00         0.00000E+00        -0.21403E+08
 
   -0.26677E+08         0.27120E+07         0.00000E+00
    0.27120E+07        -0.61187E+08         0.00000E+00
    0.00000E+00         0.00000E+00        -0.21387E+08
 
   -0.25098E+08         0.40016E+07         0.00000E+00
    0.40016E+07        -0.61670E+08         0.00000E+00
    0.00000E+00         0.00000E+00        -0.21374E+08
 
   -0.23544E+08         0.55163E+07         0.00000E+00
    0.55163E+07        -0.62250E+08         0.00000E+00
    0.00000E+00         0.00000E+00        -0.21364E+08
 
   -0.22068E+08         0.72851E+07         0.00000E+00
    0.72851E+07        -0.62896E+08         0.00000E+00
    0.00000E+00         0.00000E+00        -0.21359E+08
 
   -0.48277E+08        -0.67692E+06         0.00000E+00
   -0.67692E+06        -0.60028E+08         0.00000E+00
    0.00000E+00         0.00000E+00        -0.19553E+08
 
   -0.45600E+08        -0.16191E+07         0.00000E+00
   -0.16191E+07        -0.60087E+08         0.00000E+00
    0.00000E+00         0.00000E+00        -0.19544E+08
 
   -0.42961E+08        -0.20868E+07         0.00000E+00
   -0.20868E+07        -0.60123E+08         0.00000E+00
    0.00000E+00         0.00000E+00        -0.19528E+08
 
   -0.40491E+08        -0.22001E+07         0.00000E+00
   -0.22001E+07        -0.60092E+08         0.00000E+00
    0.00000E+00         0.00000E+00        -0.19507E+08
 
   -0.38231E+08        -0.20701E+07         0.00000E+00
   -0.20701E+07        -0.60003E+08         0.00000E+00
    0.00000E+00         0.00000E+00        -0.19485E+08
 
   -0.36166E+08        -0.17743E+07         0.00000E+00
   -0.17743E+07        -0.59890E+08         0.00000E+00
    0.00000E+00         0.00000E+00        -0.19462E+08
 
   -0.34255E+08        -0.13576E+07         0.00000E+00
   -0.13576E+07        -0.59790E+08         0.00000E+00
    0.00000E+00         0.00000E+00        -0.19439E+08
 
   -0.32455E+08        -0.84191E+06         0.00000E+00
   -0.84191E+06        -0.59737E+08         0.00000E+00
    0.00000E+00         0.00000E+00        -0.19417E+08
 
   -0.30723E+08        -0.23346E+06         0.00000E+00
   -0.23346E+06        -0.59759E+08         0.00000E+00
    0.00000E+00         0.00000E+00        -0.19396E+08
 
   -0.29016E+08         0.47351E+06         0.00000E+00
    0.47351E+06        -0.59883E+08         0.00000E+00
    0.00000E+00         0.00000E+00        -0.19377E+08
 
   -0.27302E+08         0.12963E+07         0.00000E+00
    0.12963E+07        -0.60131E+08         0.00000E+00
    0.00000E+00         0.00000E+00        -0.19360E+08
 
   -0.25552E+08         0.22652E+07         0.00000E+00
    0.22652E+07        -0.60521E+08         0.00000E+00
    0.00000E+00         0.00000E+00        -0.19345E+08
 
   -0.23760E+08         0.34259E+07         0.00000E+00
    0.34259E+07        -0.61062E+08         0.00000E+00
    0.00000E+00         0.00000E+00        -0.19332E+08
 
   -0.21947E+08         0.48354E+07         0.00000E+00
    0.48354E+07        -0.61742E+08         0.00000E+00
    0.00000E+00         0.00000E+00        -0.19323E+08
 
   -0.20179E+08         0.65482E+07         0.00000E+00
    0.65482E+07        -0.62521E+08         0.00000E+00
    0.00000E+00         0.00000E+00        -0.19318E+08
 
   -0.49520E+08        -0.72777E+06         0.00000E+00
   -0.72777E+06        -0.60024E+08         0.00000E+00
    0.00000E+00         0.00000E+00        -0.17478E+08
 
   -0.46260E+08        -0.16567E+07         0.00000E+00
   -0.16567E+07        -0.60046E+08         0.00000E+00
    0.00000E+00         0.00000E+00        -0.17469E+08
 
   -0.43188E+08        -0.20336E+07         0.00000E+00
   -0.20336E+07        -0.59979E+08         0.00000E+00
    0.00000E+00         0.00000E+00        -0.17453E+08
 
   -0.40437E+08        -0.20609E+07         0.00000E+00
   -0.20609E+07        -0.59801E+08         0.00000E+00
    0.00000E+00         0.00000E+00        -0.17433E+08
 
   -0.38001E+08        -0.18880E+07         0.00000E+00
   -0.18880E+07        -0.59556E+08         0.00000E+00
    0.00000E+00         0.00000E+00        -0.17413E+08
 
   -0.35817E+08        -0.15955E+07         0.00000E+00
   -0.15955E+07        -0.59301E+08         0.00000E+00
    0.00000E+00         0.00000E+00        -0.17392E+08
 
   -0.33817E+08        -0.12208E+07         0.00000E+00
   -0.12208E+07        -0.59082E+08         0.00000E+00
    0.00000E+00         0.00000E+00        -0.17372E+08
 
   -0.31937E+08        -0.77885E+06         0.00000E+00
   -0.77885E+06        -0.58934E+08         0.00000E+00
    0.00000E+00         0.00000E+00        -0.17353E+08
 
   -0.30123E+08        -0.27140E+06         0.00000E+00
   -0.27140E+06        -0.58885E+08         0.00000E+00
    0.00000E+00         0.00000E+00        -0.17335E+08
 
   -0.28323E+08         0.30990E+06         0.00000E+00
    0.30990E+06        -0.58961E+08         0.00000E+00
    0.00000E+00         0.00000E+00        -0.17318E+08
 
   -0.26490E+08         0.98389E+06         0.00000E+00
    0.98389E+06        -0.59187E+08         0.00000E+00
    0.00000E+00         0.00000E+00        -0.17303E+08
 
   -0.24582E+08         0.17842E+07         0.00000E+00
    0.17842E+07        -0.59588E+08         0.00000E+00
    0.00000E+00         0.00000E+00        -0.17290E+08
 
   -0.22568E+08         0.27682E+07         0.00000E+00
    0.27682E+07        -0.60186E+08         0.00000E+00
    0.00000E+00         0.00000E+00        -0.17279E+08
 
   -0.20456E+08         0.40220E+07         0.00000E+00
    0.40220E+07        -0.60980E+08         0.00000E+00
    0.00000E+00         0.00000E+00        -0.17270E+08
 
   -0.18322E+08         0.56445E+07         0.00000E+00
    0.56445E+07        -0.61929E+08         0.00000E+00
    0.00000E+00         0.00000E+00        -0.17266E+08
 
   -0.50797E+08        -0.76613E+06         0.00000E+00
   -0.76613E+06        -0.60013E+08         0.00000E+00
    0.00000E+00         0.00000E+00        -0.15377E+08
 
   -0.46810E+08        -0.15914E+07         0.00000E+00
   -0.15914E+07        -0.59948E+08         0.00000E+00
    0.00000E+00         0.00000E+00        -0.15368E+08
 
   -0.43297E+08        -0.18028E+07         0.00000E+00
   -0.18028E+07        -0.59687E+08         0.00000E+00
    0.00000E+00         0.00000E+00        -0.15354E+08
 
   -0.40322E+08        -0.17326E+07         0.00000E+00
   -0.17326E+07        -0.59286E+08         0.00000E+00
    0.00000E+00         0.00000E+00        -0.15337E+08
 
   -0.37766E+08        -0.15389E+07         0.00000E+00
   -0.15389E+07        -0.58846E+08         0.00000E+00
    0.00000E+00         0.00000E+00        -0.15320E+08
 
   -0.35507E+08        -0.12792E+07         0.00000E+00
   -0.12792E+07        -0.58435E+08         0.00000E+00
    0.00000E+00         0.00000E+00        -0.15303E+08
 
   -0.33450E+08        -0.97506E+06         0.00000E+00
   -0.97506E+06        -0.58093E+08         0.00000E+00
    0.00000E+00         0.00000E+00        -0.15287E+08
 
   -0.31519E+08        -0.63239E+06         0.00000E+00
   -0.63239E+06        -0.57852E+08         0.00000E+00
    0.00000E+00         0.00000E+00        -0.15272E+08
 
   -0.29648E+08        -0.24897E+06         0.00000E+00
   -0.24897E+06        -0.57733E+08         0.00000E+00
    0.00000E+00         0.00000E+00        -0.15258E+08
 
   -0.27779E+08         0.18403E+06         0.00000E+00
    0.18403E+06        -0.57761E+08         0.00000E+00
    0.00000E+00         0.00000E+00        -0.15245E+08
 
   -0.25853E+08         0.68343E+06         0.00000E+00
    0.68343E+06        -0.57961E+08         0.00000E+00
    0.00000E+00         0.00000E+00        -0.15233E+08
 
   -0.23809E+08         0.12794E+07         0.00000E+00
    0.12794E+07        -0.58362E+08         0.00000E+00
    0.00000E+00         0.00000E+00        -0.15222E+08
 
   -0.21582E+08         0.20287E+07         0.00000E+00
    0.20287E+07        -0.59004E+08         0.00000E+00
    0.00000E+00         0.00000E+00        -0.15213E+08
 
   -0.19131E+08         0.30484E+07         0.00000E+00
    0.30484E+07        -0.59924E+08         0.00000E+00
    0.00000E+00         0.00000E+00        -0.15206E+08
 
   -0.16525E+08         0.45178E+07         0.00000E+00
    0.45178E+07        -0.61090E+08         0.00000E+00
    0.00000E+00         0.00000E+00        -0.15202E+08
 
   -0.52008E+08        -0.75980E+06         0.00000E+00
   -0.75980E+06        -0.59972E+08         0.00000E+00
    0.00000E+00         0.00000E+00        -0.13248E+08
 
   -0.47134E+08        -0.12848E+07         0.00000E+00
   -0.12848E+07        -0.59662E+08         0.00000E+00
    0.00000E+00         0.00000E+00        -0.13240E+08
 
   -0.43278E+08        -0.12916E+07         0.00000E+00
   -0.12916E+07        -0.59062E+08         0.00000E+00
    0.00000E+00         0.00000E+00        -0.13230E+08
 
   -0.40179E+08        -0.11754E+07         0.00000E+00
   -0.11754E+07        -0.58393E+08         0.00000E+00
    0.00000E+00         0.00000E+00        -0.13218E+08
 
   -0.37563E+08        -0.10148E+07         0.00000E+00
   -0.10148E+07        -0.57759E+08         0.00000E+00
    0.00000E+00         0.00000E+00        -0.13206E+08
 
   -0.35269E+08        -0.83120E+06         0.00000E+00
   -0.83120E+06        -0.57208E+08         0.00000E+00
    0.00000E+00         0.00000E+00        -0.13195E+08
 
   -0.33184E+08        -0.63039E+06         0.00000E+00
   -0.63039E+06        -0.56765E+08         0.00000E+00
    0.00000E+00         0.00000E+00        -0.13185E+08
 
   -0.31224E+08        -0.41215E+06         0.00000E+00
   -0.41215E+06        -0.56448E+08         0.00000E+00
    0.00000E+00         0.00000E+00        -0.13175E+08
 
   -0.29319E+08        -0.17290E+06         0.00000E+00
   -0.17290E+06        -0.56275E+08         0.00000E+00
    0.00000E+00         0.00000E+00        -0.13165E+08
 
   -0.27405E+08         0.94100E+05         0.00000E+00
    0.94100E+05        -0.56265E+08         0.00000E+00
    0.00000E+00         0.00000E+00        -0.13157E+08
 
   -0.25416E+08         0.40029E+06         0.00000E+00
    0.40029E+06        -0.56440E+08         0.00000E+00
    0.00000E+00         0.00000E+00        -0.13149E+08
 
   -0.23274E+08         0.76599E+06         0.00000E+00
    0.76599E+06        -0.56834E+08         0.00000E+00
    0.00000E+00         0.00000E+00        -0.13142E+08
 
   -0.20879E+08         0.12314E+07         0.00000E+00
    0.12314E+07        -0.57496E+08         0.00000E+00
    0.00000E+00         0.00000E+00        -0.13136E+08
 
   -0.18085E+08         0.18949E+07         0.00000E+00
    0.18949E+07        -0.58511E+08         0.00000E+00
    0.00000E+00         0.00000E+00        -0.13131E+08
 
   -0.14846E+08         0.30722E+07         0.00000E+00
    0.30722E+07        -0.59965E+08         0.00000E+00
    0.00000E+00         0.00000E+00        -0.13128E+08
 
   -0.52866E+08        -0.46062E+06         0.00000E+00
   -0.46062E+06        -0.59552E+08         0.00000E+00
    0.00000E+00         0.00000E+00        -0.11088E+08
 
   -0.47183E+08        -0.52266E+06         0.00000E+00
   -0.52266E+06        -0.58732E+08         0.00000E+00
    0.00000E+00         0.00000E+00        -0.11085E+08
 
   -0.43215E+08        -0.47570E+06         0.00000E+00
   -0.47570E+06        -0.57796E+08         0.00000E+00
    0.00000E+00         0.00000E+00        -0.11081E+08
 
   -0.40076E+08        -0.41819E+06         0.00000E+00
   -0.41819E+06        -0.56932E+08         0.00000E+00
    0.00000E+00         0.00000E+00        -0.11076E+08
 
   -0.37444E+08        -0.35482E+06         0.00000E+00
   -0.35482E+06        -0.56176E+08         0.00000E+00
    0.00000E+00         0.00000E+00        -0.11072E+08
 
   -0.35138E+08        -0.28801E+06         0.00000E+00
   -0.28801E+06        -0.55544E+08         0.00000E+00
    0.00000E+00         0.00000E+00        -0.11068E+08
 
   -0.33043E+08        -0.21759E+06         0.00000E+00
   -0.21759E+06        -0.55046E+08         0.00000E+00
    0.00000E+00         0.00000E+00        -0.11064E+08
 
   -0.31071E+08        -0.14256E+06         0.00000E+00
   -0.14256E+06        -0.54691E+08         0.00000E+00
    0.00000E+00         0.00000E+00        -0.11061E+08
 
   -0.29150E+08        -0.61232E+05         0.00000E+00
   -0.61232E+05        -0.54490E+08         0.00000E+00
    0.00000E+00         0.00000E+00        -0.11058E+08
 
   -0.27215E+08         0.28924E+05         0.00000E+00
    0.28924E+05        -0.54460E+08         0.00000E+00
    0.00000E+00         0.00000E+00        -0.11055E+08
 
   -0.25194E+08         0.13193E+06         0.00000E+00
    0.13193E+06        -0.54623E+08         0.00000E+00
    0.00000E+00         0.00000E+00        -0.11052E+08
 
   -0.23001E+08         0.25477E+06         0.00000E+00
    0.25477E+06        -0.55010E+08         0.00000E+00
    0.00000E+00         0.00000E+00        -0.11049E+08
 
   -0.20515E+08         0.41200E+06         0.00000E+00
    0.41200E+06        -0.55677E+08         0.00000E+00
    0.00000E+00         0.00000E+00        -0.11047E+08
 
   -0.17525E+08         0.63610E+06         0.00000E+00
    0.63610E+06        -0.56725E+08         0.00000E+00
    0.00000E+00         0.00000E+00        -0.11045E+08
 
   -0.13457E+08         0.11271E+07         0.00000E+00
    0.11271E+07        -0.58440E+08         0.00000E+00
    0.00000E+00         0.00000E+00        -0.11044E+08
 
SCALARS stresss double 
LOOKUP_TABLE default
  -51989329.7125742     
  -53981057.3941342     
  -55518194.9091723     
  -56794388.1186534     
  -57889412.8606791     
  -58849503.1849584     
  -59704998.7592797     
  -60477890.6402118     
  -61185528.1225443     
  -61842869.9007477     
  -62464249.4887120     
  -63065353.7475511     
  -63666649.1413286     
  -64300768.2516694     
  -65056524.0630302     
  -51507839.2184453     
  -53120763.6493585     
  -54519441.8357661     
  -55717681.4105125     
  -56762336.2503032     
  -57686244.4250713     
  -58513707.9643008     
  -59263424.7129721     
  -59950639.8465748     
  -60588633.6744899     
  -61189923.8467799     
  -61767484.1501893     
  -62335908.2687621     
  -62914299.9237914     
  -63488445.2476311     
  -51232554.3700623     
  -52518510.0254281     
  -53715239.4807146     
  -54792519.9274395     
  -55755606.4611536     
  -56620245.3903984     
  -57401695.6298572     
  -58113457.0182796     
  -58767325.0194457     
  -59373809.5700695     
  -59942538.5955362     
  -60482394.6345994     
  -61001086.5028259     
  -61498747.4975111     
  -61964057.7076902     
  -50984556.9398022     
  -52032550.7777975     
  -53041666.5720233     
  -53983538.7007350     
  -54848470.5170595     
  -55638607.2784709     
  -56360813.1298530     
  -57023080.8228806     
  -57633306.2550236     
  -58198816.0164455     
  -58726074.5431935     
  -59220183.5976405     
  -59683280.4621369     
  -60112559.4380286     
  -60498095.0011091     
  -50729529.7751510     
  -51593336.9597992     
  -52443135.7419871     
  -53255620.2236714     
  -54018115.2849829     
  -54726348.6532570     
  -55381225.8772084     
  -55986164.2068874     
  -56545494.2134659     
  -57063558.1953531     
  -57544049.0861668     
  -57989236.9388616     
  -58399013.5076521     
  -58769823.5187209     
  -59094203.0656846     
  -50454635.6112454     
  -51170470.0758083     
  -51885304.0499096     
  -52580568.1210120     
  -53243938.5796991     
  -53868792.9714907     
  -54452727.3099222     
  -54995962.0629297     
  -55500048.2066289     
  -55966922.9100923     
  -56398165.3108684     
  -56794318.6098816     
  -57154235.8768188     
  -57474591.7388607     
  -57749761.1884339     
  -50154848.0416868     
  -50748481.6264795     
  -51348072.8401535     
  -51938714.5812813     
  -52509424.6515336     
  -53053072.9432396     
  -53565710.9167945     
  -54045647.5801022     
  -54492542.1710853     
  -54906623.6194357     
  -55288039.3995504     
  -55636304.8927872     
  -55949864.0505100     
  -56225822.1179569     
  -56459945.2708787     
  -49828445.7822307     
  -50319242.2653369     
  -50819410.6446794     
  -51316895.9063483     
  -51802245.0915247     
  -52268662.9804080     
  -52711694.6508225     
  -53128689.4201984     
  -53518194.6273317     
  -53879376.2202237     
  -54211509.6046020     
  -54513560.1126419     
  -54783874.9044475     
  -55020022.3821382     
  -55218815.2441504     
  -49475638.4431182     
  -49878627.0704876     
  -50292133.4188317     
  -50706399.5954712     
  -51113475.1258027     
  -51507284.8382591     
  -51883469.1003368     
  -52239063.9944702     
  -52572102.9736267     
  -52881207.7279213     
  -53165214.3323563     
  -53422864.9575144     
  -53652589.6584084     
  -53852400.7957889     
  -54019916.7536463     
  -49097916.7460173     
  -49424960.3044411     
  -49762107.3820362     
  -50101540.6218762     
  -50436741.2305348     
  -50762538.3596373     
  -51075019.7349853     
  -51371333.7515193     
  -51649427.5003612     
  -51907765.0201948     
  -52145062.2751157     
  -52360066.8012719     
  -52551403.4376753     
  -52717502.1694534     
  -52856617.1581315     
  -48697706.7866330     
  -48958175.8901251     
  -49227210.3397759     
  -49498711.2593351     
  -49767529.8670380     
  -50029493.8369956     
  -50281349.7937144     
  -50520635.4978953     
  -50745506.2550686     
  -50954543.4041333     
  -51146570.7855474     
  -51320500.7577422     
  -51475226.4829929     
  -51609572.1473920     
  -51722307.0929668     
  -48278145.4471885     
  -48479317.5354603     
  -48686688.1228345     
  -48895744.0451767     
  -49102665.3806867     
  -49304331.8908790     
  -49498280.0772759     
  -49682617.0053569     
  -49855904.4432544     
  -50017030.2890481     
  -50165084.3452997     
  -50299253.4691646     
  -50418748.0076039     
  -50522767.7477935     
  -50610511.5590621     
  -47842911.5777373     
  -47990208.5521226     
  -48140728.1873833     
  -48291469.3806144     
  -48439919.6603864     
  -48584045.7852502     
  -48722257.5455671     
  -48853347.5668769     
  -48976414.3696162     
  -49090778.3935110     
  -49195901.2323136     
  -49291317.4270041     
  -49376586.3679320     
  -49451269.5551443     
  -49514935.9274622     
  -47396083.9782613     
  -47493211.7953617     
  -47590155.5673589     
  -47685392.8401218     
  -47777713.4326428     
  -47866197.2491413     
  -47950181.2864360     
  -48029217.0453719     
  -48103021.6736464     
  -48171427.4094309     
  -48234334.2372630     
  -48291670.2875138     
  -48343363.6484119     
  -48389328.1277145     
  -48429464.2642543     
  -46942013.2524661     
  -46991038.8760971     
  -47036198.7197700     
  -47077444.8343001     
  -47114877.3937503     
  -47148711.2703869     
  -47179244.7319790     
  -47206830.5792616     
  -47231850.1708580     
  -47254690.7893532     
  -47275726.7093567     
  -47295304.1846050     
  -47313730.4235554     
  -47331266.5033693     
  -47348124.0978020     
  -46485201.0874715     
  -46486586.0796411     
  -46480294.2529175     
  -46467772.0232048     
  -46450449.5370900     
  -46429695.9976659     
  -46406789.6579615     
  -46382902.0409586     
  -46359094.1257132     
  -46336320.9855380     
  -46315440.7802783     
  -46297224.0428695     
  -46282359.7308732     
  -46271455.3848291     
  -46265029.8047938     
  -46030183.1757564     
  -45982783.0657831     
  -45923910.4855055     
  -45856549.3475521     
  -45783490.8178660     
  -45707275.7904774     
  -45630166.7239377     
  -45554147.3034526     
  -45480944.3418050     
  -45412063.7488296     
  -45348831.4086111     
  -45292430.1761198     
  -45243925.5688056     
  -45204274.7222356     
  -45174315.5034368     
  -45581412.9793947     
  -45482444.2168885     
  -45368374.8323740     
  -45243796.2046761     
  -45112904.4684529     
  -44979426.8586157     
  -44846597.2859858     
  -44717177.4767422     
  -44593513.1153840     
  -44477610.4866349     
  -44371218.0439222     
  -44275898.4690586     
  -44193079.3483888     
  -44124073.9751920     
  -44070067.5922483     
  -45143143.7729285     
  -44988113.3678264     
  -44814691.1670232     
  -44629181.3719115     
  -44437245.0271869     
  -44243805.2807357     
  -44053031.2231202     
  -43868392.0587538     
  -43692762.7449806     
  -43528557.2319050     
  -43377865.1886497     
  -43242570.8837513     
  -43124437.2147880     
  -43025142.9626609     
  -42946266.8985756     
  -44719306.1090084     
  -44501891.0429781     
  -44263331.0398162     
  -44011799.0807563     
  -43754501.5463766     
  -43497556.3907364     
  -43245995.4137979     
  -43003872.3008573     
  -42774442.8846232     
  -42560379.4790747     
  -42363983.8937251     
  -42187369.8054086     
  -42032591.8765238     
  -41901705.7968946     
  -41796750.8109137     
  -44313376.6905375     
  -44025228.4818963     
  -43713976.1181049     
  -43389892.6246096     
  -43061835.3701682     
  -42737092.7600843     
  -42421427.5875093     
  -42119276.2554472     
  -41834043.6757075     
  -41568434.0061174     
  -41324768.2615417     
  -41105251.8955788     
  -40912164.6310909     
  -40747952.0079086     
  -40615206.7076581     
  -43928231.4848560     
  -43558662.2603040     
  -43165175.9392142     
  -42760490.5231507     
  -42355246.1225275     
  -41957826.0388792     
  -41574491.5255586     
  -41209739.5986979     
  -40866774.4623356     
  -40548001.7336629     
  -40255484.3065978     
  -39991320.8809336     
  -39757917.0744458     
  -39558121.9389278     
  -39395209.3881130     
  -43565968.2781248     
  -43101441.4567299     
  -42613859.5498153     
  -42118900.6901238     
  -41629130.5586599     
  -41153837.9723385     
  -40699374.2707250     
  -40269791.5236322     
  -39867581.9339026     
  -39494389.0316582     
  -39151632.7251101     
  -38841024.5027041     
  -38564948.6730571     
  -38326668.8621648     
  -38130317.1794901     
  -43227665.0335098     
  -42650953.2079484     
  -42054589.5133026     
  -41457976.3022632     
  -40875690.6382682     
  -40317484.2118855     
  -39789078.7301782     
  -39293304.3327452     
  -38831225.4975316     
  -38403106.6199720     
  -38009210.7940569     
  -37650469.6554143     
  -37329018.5495876     
  -37048531.1136038     
  -36814244.7211413     
  -42912997.7525947     
  -42201744.8624302     
  -41478348.6779549     
  -40767017.6071361     
  -40084153.5867018     
  -39438955.5318376     
  -38835254.3469525     
  -38273509.2534249     
  -37752427.9081476     
  -37270138.9290435     
  -36825098.6556720     
  -36416901.4932869     
  -36047055.2151955     
  -35719571.0457860     
  -35441138.8874290     
  -42619502.9205265     
  -41743695.3378170     
  -40870431.3386614     
  -40030129.6675129     
  -39239826.4932933     
  -38505908.8452353     
  -37828162.2075075     
  -37203126.1064910     
  -36626105.3063984     
  -36092293.7889579     
  -35597573.9099950     
  -35139413.3049372     
  -34717964.8395674     
  -34337302.7499342     
  -34006004.7746068     
  -42340989.9175439     
  -41258065.6032469     
  -40206659.7670080     
  -39223874.4381366     
  -38323281.6972899     
  -37503460.8371576     
  -36756928.2976574     
  -36074659.9362247     
  -35447655.1395720     
  -34867539.3312520     
  -34326914.2649232     
  -33819920.7298030     
  -33344004.8600798     
  -32902161.2086901     
  -32505423.5623457     
  -42062232.9920994     
  -40708472.3965350     
  -39446128.3768877     
  -38315061.4755129     
  -37310673.2016068     
  -36414963.6135542     
  -35610257.5014975     
  -34880897.6521138     
  -34213240.6982135     
  -33595179.8503327     
  -33015669.7394197     
  -32464542.5918542     
  -31932961.0197157     
  -31420332.4294984     
  -30938809.8567732     
  -41742734.9544507     
  -40011945.5064338     
  -38523211.9204326     
  -37263074.9074856     
  -36176229.9113365     
  -35223943.4643590     
  -34377670.4895381     
  -33615581.6010222     
  -32920004.5261189     
  -32275662.9213116     
  -31668269.5236299     
  -31083127.6939675     
  -30503797.5318876     
  -29908967.0499688     
  -29312860.3867652     
  -41168687.6645057     
  -38999975.2522264     
  -37364079.2360058     
  -36028328.2888879     
  -34897556.6719535     
  -33917027.5117558     
  -33051100.0575266     
  -32274155.2875812     
  -31566162.2248336     
  -30910013.7308406     
  -30289478.0149716     
  -29686962.9833578     
  -29079741.3547175     
  -28431880.1595115     
  -27647183.5752712     
SCALARS 2waySource double 
LOOKUP_TABLE default
  2.175130309241716E-002
  2.225974553132919E-002
  2.276452847152976E-002
  2.324026810595988E-002
  2.368153360416787E-002
  2.408796649458863E-002
  2.446148655631408E-002
  2.480503701675093E-002
  2.512199331088869E-002
  2.541582619952023E-002
  2.568986961003129E-002
  2.594710320738827E-002
  2.618983223063115E-002
  2.641912482106452E-002
  2.663116570663019E-002
  2.174510143587434E-002
  2.230835180860303E-002
  2.282850028387928E-002
  2.331024212382245E-002
  2.375315517753008E-002
  2.415912019081372E-002
  2.453107006949697E-002
  2.487249882379130E-002
  2.518711862602345E-002
  2.547864389245947E-002
  2.575063544911746E-002
  2.600636213823919E-002
  2.624866170290641E-002
  2.647961543055570E-002
  2.670162687269863E-002
  2.167213954179014E-002
  2.227672101201661E-002
  2.281768187047833E-002
  2.330799501411440E-002
  2.375390342659441E-002
  2.415986028984750E-002
  2.453017161971924E-002
  2.486910507381188E-002
  2.518086326161375E-002
  2.546952045997446E-002
  2.573896764405184E-002
  2.599287807863807E-002
  2.623469964208143E-002
  2.646789034976026E-002
  2.669649944364135E-002
  2.155458101292365E-002
  2.218297300881477E-002
  2.273961553066493E-002
  2.323754209187743E-002
  2.368583955809783E-002
  2.409116907727041E-002
  2.445910886571964E-002
  2.479472395343470E-002
  2.510274674100206E-002
  2.538764649536887E-002
  2.565366447033056E-002
  2.590485471690855E-002
  2.614518323539158E-002
  2.637873228195697E-002
  2.661010721727987E-002
  2.139665523939976E-002
  2.203683134932419E-002
  2.260159673755332E-002
  2.310329985225269E-002
  2.355175818423186E-002
  2.395479720913671E-002
  2.431894194569707E-002
  2.464992170638932E-002
  2.495294428608041E-002
  2.523284095592951E-002
  2.549416078622287E-002
  2.574125872273869E-002
  2.597840930196724E-002
  2.620997750971152E-002
  2.644062453410916E-002
  2.120085744234702E-002
  2.184334277804286E-002
  2.240901903232152E-002
  2.290954988852511E-002
  2.335479613872855E-002
  2.375303733420549E-002
  2.411133763618452E-002
  2.443588867912972E-002
  2.473226052826438E-002
  2.500556932074032E-002
  2.526059763065190E-002
  2.550189878323488E-002
  2.573390732951001E-002
  2.596106288241411E-002
  2.618793231992779E-002
  2.096950463854248E-002
  2.160616059040308E-002
  2.216603591622905E-002
  2.266018046258873E-002
  2.309823610289150E-002
  2.348856473637567E-002
  2.383845815326572E-002
  2.415436414157626E-002
  2.444208209695641E-002
  2.470691634442206E-002
  2.495379666393278E-002
  2.518738138811730E-002
  2.541215445939258E-002
  2.563251906133453E-002
  2.585287828384597E-002
  2.070513524330154E-002
  2.132857819053879E-002
  2.187633258550750E-002
  2.235885394621958E-002
  2.278544505977333E-002
  2.316434737090031E-002
  2.350287434584227E-002
  2.380756227788488E-002
  2.408431438590982E-002
  2.433852600740928E-002
  2.457519039599252E-002
  2.479899013466395E-002
  2.501437883970087E-002
  2.522565366460882E-002
  2.543701412662351E-002
  2.041060106926867E-002
  2.101393000470333E-002
  2.154351802260025E-002
  2.200921307389659E-002
  2.241990670857464E-002
  2.278360146983948E-002
  2.310749884731550E-002
  2.339810008204227E-002
  2.366130836760343E-002
  2.390252413007269E-002
  2.412673012135234E-002
  2.433856649742964E-002
  2.454239674293522E-002
  2.474236399147085E-002
  2.494243554165332E-002
  2.008908790339975E-002
  2.066574265839861E-002
  2.117130920606315E-002
  2.161500400373194E-002
  2.200525947567924E-002
  2.234976660540584E-002
  2.265552884289037E-002
  2.292892577132044E-002
  2.317578135803047E-002
  2.340143155994345E-002
  2.361078778922692E-002
  2.380839444442590E-002
  2.399847948118929E-002
  2.418499690924150E-002
  2.437165986036165E-002
  1.974410406294271E-002
  2.028778196392762E-002
  2.076360005760676E-002
  2.118012603265752E-002
  2.154530529120258E-002
  2.186647511329647E-002
  2.215038801294543E-002
  2.240324452736753E-002
  2.263073290557151E-002
  2.283807217794902E-002
  2.303005533518152E-002
  2.321109002350717E-002
  2.338523473708260E-002
  2.355622886147326E-002
  2.372751532406870E-002
  1.937945255378113E-002
  1.988404732928574E-002
  2.032446584508816E-002
  2.070862797004483E-002
  2.104398554044645E-002
  2.133750477680244E-002
  2.159565992676461E-002
  2.182443840843354E-002
  2.202935569815971E-002
  2.221547704197679E-002
  2.238744270379196E-002
  2.254949361061699E-002
  2.270549465290516E-002
  2.285895343479648E-002
  2.301303297346071E-002
  1.899919192481257E-002
  1.945873589419977E-002
  1.985812812841843E-002
  2.020466723301440E-002
  2.050532853801974E-002
  2.076671261201251E-002
  2.099500951697033E-002
  2.119597849565449E-002
  2.137494118817337E-002
  2.153678528011990E-002
  2.168597484182765E-002
  2.182656350003612E-002
  2.196220688936526E-002
  2.209617147009288E-002
  2.223133771353850E-002
  1.860758766063086E-002
  1.901618651727275E-002
  1.936889330623202E-002
  1.967244198671758E-002
  1.993337382359764E-002
  2.015795101181718E-002
  2.035209218737284E-002
  2.052132885067830E-002
  2.067078019496798E-002
  2.080514249363315E-002
  2.092868834224350E-002
  2.104527078529815E-002
  2.115832766444410E-002
  2.127088231409679E-002
  2.138553789070383E-002
  1.820905455501511E-002
  1.856080841048966E-002
  1.886107153058602E-002
  1.911610247874621E-002
  1.933207733882322E-002
  1.951496826096227E-002
  1.967045142629682E-002
  1.980384297448286E-002
  1.992005951334635E-002
  2.002359807896824E-002
  2.011852926116665E-002
  2.020849684628229E-002
  2.029671774491854E-002
  2.038597702952383E-002
  2.047861442426602E-002
  1.780808997071817E-002
  1.809699649730803E-002
  1.833887914912700E-002
  1.853964465213864E-002
  1.870519980734861E-002
  1.884129495112707E-002
  1.895340608739279E-002
  1.904665407072725E-002
  1.912575628828045E-002
  1.919500372286995E-002
  1.925825468558458E-002
  1.931893610734114E-002
  1.938004397686173E-002
  1.944413603586704E-002
  1.951331189300780E-002
  1.740919773723750E-002
  1.762903389249277E-002
  1.780632528464031E-002
  1.794678654652771E-002
  1.805617867351431E-002
  1.814011671369736E-002
  1.820392817261424E-002
  1.825256067593680E-002
  1.829053258009260E-002
  1.832191628477864E-002
  1.835034183311120E-002
  1.837900813537198E-002
  1.841069045904277E-002
  1.844773513430705E-002
  1.849203524578865E-002
  1.701680248921043E-002
  1.716098047692443E-002
  1.726708074765176E-002
  1.734082529122407E-002
  1.738798160445647E-002
  1.741413209794914E-002
  1.742451124558075E-002
  1.742390930943336E-002
  1.741663325127576E-002
  1.740650941768481E-002
  1.739690987886796E-002
  1.739078471207448E-002
  1.739068506050644E-002
  1.739876537368765E-002
  1.741675710078432E-002
  1.663515438340272E-002
  1.669654479218512E-002
  1.672432442422285E-002
  1.672446899857624E-002
  1.670293646978839E-002
  1.666539231126828E-002
  1.661702867559914E-002
  1.656247594529982E-002
  1.650579126549253E-002
  1.645049975763003E-002
  1.639966146444891E-002
  1.635593937632222E-002
  1.632164880321230E-002
  1.629877386443813E-002
  1.628894197758110E-002
  1.626822417710322E-002
  1.623893368704058E-002
  1.618055760294084E-002
  1.609963269947554E-002
  1.600252837124809E-002
  1.589511682496876E-002
  1.578257998876426E-002
  1.566934866040449E-002
  1.555914601926564E-002
  1.545509557402706E-002
  1.535985313053129E-002
  1.527572924860839E-002
  1.520477782127633E-002
  1.514883455709913E-002
  1.510949529721012E-002
  1.591958824019624E-002
  1.579066904993059E-002
  1.563736876055098E-002
  1.546717924817128E-002
  1.528714804372970E-002
  1.510347561644102E-002
  1.492132320911104E-002
  1.474481536225939E-002
  1.457718287203395E-002
  1.442097868120936E-002
  1.427830690254702E-002
  1.415102189641692E-002
  1.404087037829004E-002
  1.394956034709566E-002
  1.387874661924409E-002
  1.559230138402189E-002
  1.535335104483045E-002
  1.509511696807133E-002
  1.482657257070068E-002
  1.455576710301417E-002
  1.428932580137287E-002
  1.403229247912310E-002
  1.378826408814439E-002
  1.355970609917452E-002
  1.334833429231857E-002
  1.315547899166821E-002
  1.298238378413520E-002
  1.283041515355273E-002
  1.270117106109568E-002
  1.259647850054633E-002
  1.528875077304431E-002
  1.492732686674789E-002
  1.455247495998061E-002
  1.417538774910171E-002
  1.380550423692795E-002
  1.344989021206189E-002
  1.311320638506443E-002
  1.279811057341722E-002
  1.250586326657088E-002
  1.223694783613818E-002
  1.199160575489942E-002
  1.177025170319254E-002
  1.157376260310041E-002
  1.140363695944038E-002
  1.126201513375162E-002
  1.501047180075835E-002
  1.451118053526679E-002
  1.400571824536955E-002
  1.350858442552558E-002
  1.303103563013595E-002
  1.258037608797414E-002
  1.216028915317693E-002
  1.177178043729657E-002
  1.141424502080946E-002
  1.108639054335148E-002
  1.078695027709578E-002
  1.051521523882283E-002
  1.027141047988425E-002
  1.005692735429405E-002
  9.874390271202672E-003
  1.475788053736628E-002
  1.410085282568273E-002
  1.344753491238409E-002
  1.281738726767563E-002
  1.222381093352206E-002
  1.167357286352266E-002
  1.116816471918313E-002
  1.070579039083263E-002
  1.028308519978146E-002
  9.896310055610293E-003
  9.542173437204727E-003
  9.218446191511506E-003
  8.924454164265285E-003
  8.661414529280414E-003
  8.432628093294890E-003
  1.452977352036460E-002
  1.368795059341313E-002
  1.286486010032702E-002
  1.208755723590988E-002
  1.137111665965948E-002
  1.071958638548878E-002
  1.012994887318882E-002
  9.595984353207659E-003
  9.110566242720046E-003
  8.666820293501909E-003
  8.258834979427610E-003
  7.882331864503203E-003
  7.535282330431653E-003
  7.218542982249146E-003
  6.936204603893572E-003
  1.432231441945093E-002
  1.325585131114073E-002
  1.223477446492146E-002
  1.129685414780001E-002
  1.045542096978513E-002
  9.706100321048614E-003
  9.037713869568448E-003
  8.437966340568512E-003
  7.895188248891419E-003
  7.398891844632115E-003
  6.940013461948218E-003
  6.511333768776866E-003
  6.108742938296883E-003
  5.731953209765545E-003
  5.385902549371798E-003
  1.412488703926599E-002
  1.277015668288609E-002
  1.151598695792996E-002
  1.041301465858139E-002
  9.455396950825725E-003
  8.619633220423313E-003
  7.883463664669211E-003
  7.227711927273599E-003
  6.636092875556459E-003
  6.094544395176200E-003
  5.590645592679358E-003
  5.113391827653682E-003
  4.653784698252162E-003
  4.210014949341243E-003
  3.785441766689458E-003
  1.390741847891126E-002
  1.214282697803780E-002
  1.064056594135985E-002
  9.398599121231243E-003
  8.349654038742816E-003
  7.448006344095525E-003
  6.660534820943956E-003
  5.962247854422086E-003
  5.333214169727856E-003
  4.756572950161982E-003
  4.217063977379381E-003
  3.699770522076435E-003
  3.189124379817031E-003
  2.668596391837185E-003
  2.147750518805580E-003
  1.343801651926748E-002
  1.118872019773492E-002
  9.542516411800067E-003
  8.222709128024763E-003
  7.122938245196987E-003
  6.183332308947045E-003
  5.365045678139399E-003
  4.640215234658333E-003
  3.987193029977769E-003
  3.387780685252325E-003
  2.825226717188783E-003
  2.282239360602711E-003
  1.738144765139232E-003
  1.162832074626305E-003
  5.031201004121661E-004
SCALARS elementIsPlast double 
LOOKUP_TABLE default
  0.000000000000000E+000
  0.000000000000000E+000
  0.000000000000000E+000
  0.000000000000000E+000
  0.000000000000000E+000
  0.000000000000000E+000
  0.000000000000000E+000
  0.000000000000000E+000
  0.000000000000000E+000
  0.000000000000000E+000
  0.000000000000000E+000
  0.000000000000000E+000
  0.000000000000000E+000
  0.000000000000000E+000
  0.000000000000000E+000
  0.000000000000000E+000
  0.000000000000000E+000
  0.000000000000000E+000
  0.000000000000000E+000
  0.000000000000000E+000
  0.000000000000000E+000
  0.000000000000000E+000
  0.000000000000000E+000
  0.000000000000000E+000
  0.000000000000000E+000
  0.000000000000000E+000
  0.000000000000000E+000
  0.000000000000000E+000
  0.000000000000000E+000
  0.000000000000000E+000
  0.000000000000000E+000
  0.000000000000000E+000
  0.000000000000000E+000
  0.000000000000000E+000
  0.000000000000000E+000
  0.000000000000000E+000
  0.000000000000000E+000
  0.000000000000000E+000
  0.000000000000000E+000
  0.000000000000000E+000
  0.000000000000000E+000
  0.000000000000000E+000
  0.000000000000000E+000
  0.000000000000000E+000
  0.000000000000000E+000
  0.000000000000000E+000
  0.000000000000000E+000
  0.000000000000000E+000
  0.000000000000000E+000
  0.000000000000000E+000
  0.000000000000000E+000
  0.000000000000000E+000
  0.000000000000000E+000
  0.000000000000000E+000
  0.000000000000000E+000
  0.000000000000000E+000
  0.000000000000000E+000
  0.000000000000000E+000
  0.000000000000000E+000
  0.000000000000000E+000
  0.000000000000000E+000
  0.000000000000000E+000
  0.000000000000000E+000
  0.000000000000000E+000
  0.000000000000000E+000
  0.000000000000000E+000
  0.000000000000000E+000
  0.000000000000000E+000
  0.000000000000000E+000
  0.000000000000000E+000
  0.000000000000000E+000
  0.000000000000000E+000
  0.000000000000000E+000
  0.000000000000000E+000
  0.000000000000000E+000
  0.000000000000000E+000
  0.000000000000000E+000
  0.000000000000000E+000
  0.000000000000000E+000
  0.000000000000000E+000
  0.000000000000000E+000
  0.000000000000000E+000
  0.000000000000000E+000
  0.000000000000000E+000
  0.000000000000000E+000
  0.000000000000000E+000
  0.000000000000000E+000
  0.000000000000000E+000
  0.000000000000000E+000
  0.000000000000000E+000
  0.000000000000000E+000
  0.000000000000000E+000
  0.000000000000000E+000
  0.000000000000000E+000
  0.000000000000000E+000
  0.000000000000000E+000
  0.000000000000000E+000
  0.000000000000000E+000
  0.000000000000000E+000
  0.000000000000000E+000
  0.000000000000000E+000
  0.000000000000000E+000
  0.000000000000000E+000
  0.000000000000000E+000
  0.000000000000000E+000
  0.000000000000000E+000
  0.000000000000000E+000
  0.000000000000000E+000
  0.000000000000000E+000
  0.000000000000000E+000
  0.000000000000000E+000
  0.000000000000000E+000
  0.000000000000000E+000
  0.000000000000000E+000
  0.000000000000000E+000
  0.000000000000000E+000
  0.000000000000000E+000
  0.000000000000000E+000
  0.000000000000000E+000
  0.000000000000000E+000
  0.000000000000000E+000
  0.000000000000000E+000
  0.000000000000000E+000
  0.000000000000000E+000
  0.000000000000000E+000
  0.000000000000000E+000
  0.000000000000000E+000
  0.000000000000000E+000
  0.000000000000000E+000
  0.000000000000000E+000
  0.000000000000000E+000
  0.000000000000000E+000
  0.000000000000000E+000
  0.000000000000000E+000
  0.000000000000000E+000
  0.000000000000000E+000
  0.000000000000000E+000
  0.000000000000000E+000
  0.000000000000000E+000
  0.000000000000000E+000
  0.000000000000000E+000
  0.000000000000000E+000
  0.000000000000000E+000
  0.000000000000000E+000
  0.000000000000000E+000
  0.000000000000000E+000
  0.000000000000000E+000
  0.000000000000000E+000
  0.000000000000000E+000
  0.000000000000000E+000
  0.000000000000000E+000
  0.000000000000000E+000
  0.000000000000000E+000
  0.000000000000000E+000
  0.000000000000000E+000
  0.000000000000000E+000
  0.000000000000000E+000
  0.000000000000000E+000
  0.000000000000000E+000
  0.000000000000000E+000
  0.000000000000000E+000
  0.000000000000000E+000
  0.000000000000000E+000
  0.000000000000000E+000
  0.000000000000000E+000
  0.000000000000000E+000
  0.000000000000000E+000
  0.000000000000000E+000
  0.000000000000000E+000
  0.000000000000000E+000
  0.000000000000000E+000
  0.000000000000000E+000
  0.000000000000000E+000
  0.000000000000000E+000
  0.000000000000000E+000
  0.000000000000000E+000
  0.000000000000000E+000
  0.000000000000000E+000
  0.000000000000000E+000
  0.000000000000000E+000
  0.000000000000000E+000
  0.000000000000000E+000
  0.000000000000000E+000
  0.000000000000000E+000
  0.000000000000000E+000
  0.000000000000000E+000
  0.000000000000000E+000
  0.000000000000000E+000
  0.000000000000000E+000
  0.000000000000000E+000
  0.000000000000000E+000
  0.000000000000000E+000
  0.000000000000000E+000
  0.000000000000000E+000
  0.000000000000000E+000
  0.000000000000000E+000
  0.000000000000000E+000
  0.000000000000000E+000
  0.000000000000000E+000
  0.000000000000000E+000
  0.000000000000000E+000
  0.000000000000000E+000
  0.000000000000000E+000
  0.000000000000000E+000
  0.000000000000000E+000
  0.000000000000000E+000
  0.000000000000000E+000
  0.000000000000000E+000
  0.000000000000000E+000
  0.000000000000000E+000
  0.000000000000000E+000
  0.000000000000000E+000
  0.000000000000000E+000
  0.000000000000000E+000
  0.000000000000000E+000
  0.000000000000000E+000
  0.000000000000000E+000
  0.000000000000000E+000
  0.000000000000000E+000
  0.000000000000000E+000
  0.000000000000000E+000
  0.000000000000000E+000
  0.000000000000000E+000
  0.000000000000000E+000
  0.000000000000000E+000
  0.000000000000000E+000
  0.000000000000000E+000
  0.000000000000000E+000
  0.000000000000000E+000
  0.000000000000000E+000
  0.000000000000000E+000
  0.000000000000000E+000
  0.000000000000000E+000
  0.000000000000000E+000
  0.000000000000000E+000
  0.000000000000000E+000
  0.000000000000000E+000
  0.000000000000000E+000
  0.000000000000000E+000
  0.000000000000000E+000
  0.000000000000000E+000
  0.000000000000000E+000
  0.000000000000000E+000
  0.000000000000000E+000
  0.000000000000000E+000
  0.000000000000000E+000
  0.000000000000000E+000
  0.000000000000000E+000
  0.000000000000000E+000
  0.000000000000000E+000
  0.000000000000000E+000
  0.000000000000000E+000
  0.000000000000000E+000
  0.000000000000000E+000
  0.000000000000000E+000
  0.000000000000000E+000
  0.000000000000000E+000
  0.000000000000000E+000
  0.000000000000000E+000
  0.000000000000000E+000
  0.000000000000000E+000
  0.000000000000000E+000
  0.000000000000000E+000
  0.000000000000000E+000
  0.000000000000000E+000
  0.000000000000000E+000
  0.000000000000000E+000
  0.000000000000000E+000
  0.000000000000000E+000
  0.000000000000000E+000
  0.000000000000000E+000
  0.000000000000000E+000
  0.000000000000000E+000
  0.000000000000000E+000
  0.000000000000000E+000
  0.000000000000000E+000
  0.000000000000000E+000
  0.000000000000000E+000
  0.000000000000000E+000
  0.000000000000000E+000
  0.000000000000000E+000
  0.000000000000000E+000
  0.000000000000000E+000
  0.000000000000000E+000
  0.000000000000000E+000
  0.000000000000000E+000
  0.000000000000000E+000
  0.000000000000000E+000
  0.000000000000000E+000
  0.000000000000000E+000
  0.000000000000000E+000
  0.000000000000000E+000
  0.000000000000000E+000
  0.000000000000000E+000
  0.000000000000000E+000
  0.000000000000000E+000
  0.000000000000000E+000
  0.000000000000000E+000
  0.000000000000000E+000
  0.000000000000000E+000
  0.000000000000000E+000
  0.000000000000000E+000
  0.000000000000000E+000
  0.000000000000000E+000
  0.000000000000000E+000
  0.000000000000000E+000
  0.000000000000000E+000
  0.000000000000000E+000
  0.000000000000000E+000
  0.000000000000000E+000
  0.000000000000000E+000
  0.000000000000000E+000
  0.000000000000000E+000
  0.000000000000000E+000
  0.000000000000000E+000
  0.000000000000000E+000
  0.000000000000000E+000
  0.000000000000000E+000
  0.000000000000000E+000
  0.000000000000000E+000
  0.000000000000000E+000
  0.000000000000000E+000
  0.000000000000000E+000
  0.000000000000000E+000
  0.000000000000000E+000
  0.000000000000000E+000
  0.000000000000000E+000
  0.000000000000000E+000
  0.000000000000000E+000
  0.000000000000000E+000
  0.000000000000000E+000
  0.000000000000000E+000
  0.000000000000000E+000
  0.000000000000000E+000
  0.000000000000000E+000
  0.000000000000000E+000
  0.000000000000000E+000
  0.000000000000000E+000
  0.000000000000000E+000
  0.000000000000000E+000
  0.000000000000000E+000
  0.000000000000000E+000
  0.000000000000000E+000
  0.000000000000000E+000
  0.000000000000000E+000
  0.000000000000000E+000
  0.000000000000000E+000
  0.000000000000000E+000
  0.000000000000000E+000
  0.000000000000000E+000
  0.000000000000000E+000
  0.000000000000000E+000
  0.000000000000000E+000
  0.000000000000000E+000
  0.000000000000000E+000
  0.000000000000000E+000
  0.000000000000000E+000
  0.000000000000000E+000
  0.000000000000000E+000
  0.000000000000000E+000
  0.000000000000000E+000
  0.000000000000000E+000
  0.000000000000000E+000
  0.000000000000000E+000
  0.000000000000000E+000
  0.000000000000000E+000
  0.000000000000000E+000
  0.000000000000000E+000
  0.000000000000000E+000
  0.000000000000000E+000
  0.000000000000000E+000
  0.000000000000000E+000
  0.000000000000000E+000
  0.000000000000000E+000
  0.000000000000000E+000
  0.000000000000000E+000
  0.000000000000000E+000
  0.000000000000000E+000
  0.000000000000000E+000
  0.000000000000000E+000
  0.000000000000000E+000
  0.000000000000000E+000
  0.000000000000000E+000
  0.000000000000000E+000
  0.000000000000000E+000
  0.000000000000000E+000
  0.000000000000000E+000
  0.000000000000000E+000
  0.000000000000000E+000
  0.000000000000000E+000
  0.000000000000000E+000
  0.000000000000000E+000
  0.000000000000000E+000
  0.000000000000000E+000
  0.000000000000000E+000
  0.000000000000000E+000
  0.000000000000000E+000
  0.000000000000000E+000
  0.000000000000000E+000
  0.000000000000000E+000
  0.000000000000000E+000
  0.000000000000000E+000
  0.000000000000000E+000
  0.000000000000000E+000
  0.000000000000000E+000
  0.000000000000000E+000
  0.000000000000000E+000
  0.000000000000000E+000
  0.000000000000000E+000
  0.000000000000000E+000
  0.000000000000000E+000
  0.000000000000000E+000
  0.000000000000000E+000
  0.000000000000000E+000
  0.000000000000000E+000
  0.000000000000000E+000
  0.000000000000000E+000
  0.000000000000000E+000
  0.000000000000000E+000
  0.000000000000000E+000
  0.000000000000000E+000
  0.000000000000000E+000
  0.000000000000000E+000
  0.000000000000000E+000
  0.000000000000000E+000
  0.000000000000000E+000
  0.000000000000000E+000
  0.000000000000000E+000
  0.000000000000000E+000
  0.000000000000000E+000
  0.000000000000000E+000
  0.000000000000000E+000
  0.000000000000000E+000
  0.000000000000000E+000
  0.000000000000000E+000
  0.000000000000000E+000
  0.000000000000000E+000
  0.000000000000000E+000
  0.000000000000000E+000
  0.000000000000000E+000
  0.000000000000000E+000
  0.000000000000000E+000
  0.000000000000000E+000
  0.000000000000000E+000
  0.000000000000000E+000
  0.000000000000000E+000
  0.000000000000000E+000
  0.000000000000000E+000
  0.000000000000000E+000
  0.000000000000000E+000
SCALARS poroL double 
LOOKUP_TABLE default
  0.261758051561651     
  0.260279773999726     
  0.259152132379118     
  0.258224977088117     
  0.257436109002133     
  0.256749384466203     
  0.256141032963231     
  0.255593801201469     
  0.255094067783043     
  0.254630086882448     
  0.254190609481148     
  0.253763340958359     
  0.253332284353121     
  0.252872019926517     
  0.252314030941539     
  0.260740145999147     
  0.259538448579106     
  0.258504610686451     
  0.257626321163872     
  0.256866395044058     
  0.256198733926677     
  0.255604017306706     
  0.255067370141704     
  0.254576659279233     
  0.254121312622795     
  0.253691362950280     
  0.253276478082359     
  0.252865019330056     
  0.252441776474495     
  0.252016608903840     
  0.259557086688548     
  0.258597037781005     
  0.257708555529712     
  0.256913852419884     
  0.256207889088126     
  0.255577720971124     
  0.255010930221026     
  0.254496572904955     
  0.254025100679771     
  0.253588006560329     
  0.253177485081737     
  0.252786297571393     
  0.252408075589270     
  0.252042194359005     
  0.251696891725959     
  0.258346001245608     
  0.257562417541380     
  0.256810847071549     
  0.256112681356579     
  0.255474744049323     
  0.254894724744623     
  0.254366736444288     
  0.253884093481128     
  0.253440246714329     
  0.253029130640267     
  0.252645370960056     
  0.252284655321715     
  0.251944958068681     
  0.251628093845869     
  0.251341449735316     
  0.257134464256299     
  0.256487768567736     
  0.255853189841056     
  0.255248527188253     
  0.254683192788052     
  0.254160028718082     
  0.253677869210380     
  0.253233633721434     
  0.252823571181595     
  0.252443954664355     
  0.252091586707448     
  0.251764393603376     
  0.251462170949067     
  0.251187429757821     
  0.250945785812925     
  0.255933283412327     
  0.255396732425148     
  0.254861659660542     
  0.254342369411152     
  0.253848195246857     
  0.253383971223546     
  0.252951227520970     
  0.252549457964623     
  0.252177139775465     
  0.251832472551888     
  0.251513958135810     
  0.251220930171709     
  0.250954069645611     
  0.250715797084671     
  0.250510379800687     
  0.254747010793493     
  0.254301525323349     
  0.253851655946904     
  0.253408960552542     
  0.252981862009376     
  0.252575724965931     
  0.252193403364889     
  0.251835981815254     
  0.251503497266135     
  0.251195556122615     
  0.250911847506267     
  0.250652577787125     
  0.250418819537426     
  0.250212726832010     
  0.250037539994011     
  0.253577445881714     
  0.253208658792546     
  0.252832443451886     
  0.252458198700389     
  0.252093250210418     
  0.251742810512627     
  0.251410237894454     
  0.251097467871285     
  0.250805497874876     
  0.250534848488999     
  0.250285967848575     
  0.250059565013220     
  0.249856855600657     
  0.249679690734403     
  0.249530539231124     
  0.252424733213054     
  0.252121469862132     
  0.251809541794675     
  0.251496601154362     
  0.251188874340833     
  0.250891102175435     
  0.250606665961357     
  0.250337842941192     
  0.250086124551263     
  0.249852542901950     
  0.249637968855731     
  0.249443357838111     
  0.249269923899688     
  0.249119223659690     
  0.248993136062985     
  0.251287888543920     
  0.251041309951265     
  0.250786069334516     
  0.250528343544932     
  0.250273303637123     
  0.250025062898319     
  0.249786740922584     
  0.249560617757052     
  0.249348341128574     
  0.249151150425810     
  0.248970087768543     
  0.248806173548645     
  0.248660529037304     
  0.248534432849426     
  0.248429303557728     
  0.250165082485302     
  0.249968190973598     
  0.249763525088763     
  0.249555960940002     
  0.249349658776516     
  0.249148024586050     
  0.248953744231636     
  0.248768877996996     
  0.248594994674399     
  0.248433321873595     
  0.248284891035597     
  0.248150659281483     
  0.248031594211692     
  0.247928711896912     
  0.247843062985915     
  0.249053825164010     
  0.248901172416757     
  0.248742276261594     
  0.248580821974303     
  0.248419992697647     
  0.248262443456159     
  0.248110320226234     
  0.247965318224262     
  0.247828767525153     
  0.247701731393633     
  0.247585102742342     
  0.247479685891658     
  0.247386253453524     
  0.247305571284430     
  0.247238387929675     
  0.247951104216433     
  0.247838618147812     
  0.247721883082893     
  0.247603460568152     
  0.247485578492091     
  0.247370115064609     
  0.247258609872830     
  0.247152299100779     
  0.247052168198044     
  0.246959013209007     
  0.246873501547675     
  0.246796223814989     
  0.246727729859121     
  0.246668544349027     
  0.246619159451259     
  0.246853499574052     
  0.246778383463870     
  0.246701331427413     
  0.246623819387477     
  0.246547131702191     
  0.246472353133908     
  0.246400375341869     
  0.246331916404916     
  0.246267549862475     
  0.246207738567524     
  0.246152868306174     
  0.246103276505266     
  0.246059272212609     
  0.246021144703798     
  0.245989159391325     
  0.245757285679782     
  0.245717963538906     
  0.245679212337573     
  0.245641439573719     
  0.245604989401339     
  0.245570141584195     
  0.245537115143440     
  0.245506075987256     
  0.245477147281162     
  0.245450421026183     
  0.245425969267710     
  0.245403853520578     
  0.245384131307039     
  0.245366859107389     
  0.245352091468601     
  0.244658526478401     
  0.244654620489722     
  0.244653871633318     
  0.244655619211033     
  0.244659263012441     
  0.244664269322169     
  0.244670172496104     
  0.244676571990213     
  0.244683125610993     
  0.244689540376305     
  0.244695562682137     
  0.244700969495939     
  0.244705562111036     
  0.244709163675568     
  0.244711621318648     
  0.243553166278442     
  0.243585499660963     
  0.243623544618082     
  0.243665556139668     
  0.243709977859168     
  0.243755456311731     
  0.243800840489716     
  0.243845167334673     
  0.243887636265588     
  0.243927577413393     
  0.243964418841717     
  0.243997657836138     
  0.244026840576455     
  0.244051553393084     
  0.244071427527999     
  0.242437118693910     
  0.242507742789595     
  0.242586487110968     
  0.242670487356088     
  0.242757210285789     
  0.242844478651554     
  0.242930467841310     
  0.243013676282961     
  0.243092876082253     
  0.243167052913045     
  0.243235344875699     
  0.243296989338483     
  0.243351285192659     
  0.243397575876029     
  0.243435256210357     
  0.241306355599376     
  0.241418604994288     
  0.241541113170450     
  0.241669836517670     
  0.241801232775883     
  0.241932300316879     
  0.242060569218190     
  0.242184049180688     
  0.242301146359934     
  0.242410564499997     
  0.242511205942541     
  0.242602086286067     
  0.242682273683595     
  0.242750860522389     
  0.242806971711536     
  0.240156998182092     
  0.240315583699741     
  0.240486151594743     
  0.240663382813616     
  0.240842678863111     
  0.241020220024874     
  0.241192944371015     
  0.241358459351068     
  0.241514907952321     
  0.241660814560532     
  0.241794933833395     
  0.241916121876826     
  0.242023244592567     
  0.242115133632750     
  0.242190595606070     
  0.238985412988594     
  0.239196571218115     
  0.239420838225656     
  0.239651469139140     
  0.239882742930520     
  0.240110043283311     
  0.240329810498604     
  0.240539391397624     
  0.240736827414319     
  0.240920620904102     
  0.241089512359597     
  0.241242293093636     
  0.241377671807397     
  0.241494208721455     
  0.241590325291363     
  0.237788318167455     
  0.238060050573259     
  0.238345171182380     
  0.238635276340731     
  0.238923435491051     
  0.239204291606509     
  0.239473951682629     
  0.239729728385767     
  0.239969807049817     
  0.240192899540176     
  0.240397926218131     
  0.240583752057899     
  0.240748997000031     
  0.240891938798239     
  0.241010522241285     
  0.236562910765150     
  0.236905370605394     
  0.237260275613531     
  0.237617205604217     
  0.237967922076873     
  0.238306461592404     
  0.238628886230864     
  0.238932831662696     
  0.239216988566355     
  0.239480606092073     
  0.239723056460844     
  0.239943476153623     
  0.240140499593108     
  0.240312113095390     
  0.240455658260193     
  0.235307039951360     
  0.235733171154468     
  0.236168962848335     
  0.236601436128038     
  0.237020981544268     
  0.237421341544660     
  0.237799043915609     
  0.238152600192300     
  0.238481716725395     
  0.238786620427624     
  0.239067502198755     
  0.239324049930975     
  0.239555074226106     
  0.239758272223884     
  0.239930205309280     
  0.234019482871615     
  0.234546110361202     
  0.235076644066582     
  0.235594764917007     
  0.236089617408136     
  0.236555371869893     
  0.236989923842140     
  0.237393485702573     
  0.237767448469027     
  0.238113562695628     
  0.238433306902615     
  0.238727321869068     
  0.238994865870259     
  0.239233397673136     
  0.239438447870206     
  0.232700483626000     
  0.233350231833200     
  0.233992926834203     
  0.234607874178850     
  0.235183815337507     
  0.235716971636868     
  0.236208163487954     
  0.236660427815122     
  0.237077602227037     
  0.237463544634271     
  0.237821581725010     
  0.238153881392414     
  0.238460676256344     
  0.238739382078351     
  0.238984181290660     
  0.231352925316273     
  0.232157931868367     
  0.232934496933851     
  0.233657169387865     
  0.234317240411290     
  0.234916618266674     
  0.235461404321353     
  0.235958667393354     
  0.236415360194256     
  0.236837920780081     
  0.237232048755049     
  0.237602323000760     
  0.237950935218519     
  0.238276087535324     
  0.238570188298879     
  0.229986293381552     
  0.230994770669273     
  0.231930684501993     
  0.232766597076147     
  0.233507138698246     
  0.234166364517021     
  0.234757819372672     
  0.235293408556334     
  0.235783465926878     
  0.236237146814308     
  0.236662808794618     
  0.237068175966582     
  0.237460045166917     
  0.237839219810806     
  0.238197307105554     
  0.228628860255632     
  0.229921392168136     
  0.231029797369515     
  0.231966181088339     
  0.232772643104560     
  0.233478487378078     
  0.234105241940153     
  0.234669339022906     
  0.235184066029198     
  0.235660902477887     
  0.236110585796013     
  0.236544171678457     
  0.236974055150816     
  0.237416384813001     
  0.237861095441624     
  0.227439370164781     
  0.229063609651285     
  0.230287381662031     
  0.231285986872657     
  0.232130941503783     
  0.232863359561074     
  0.233509996851214     
  0.234090078704923     
  0.234618633013789     
  0.235108492320022     
  0.235571832657698     
  0.236021852492403     
  0.236475609585494     
  0.236960072531310     
  0.237547627007769     
